********************************************************************************
Field Output Report, written Mon Aug 12 21:07:17 2024

Source 1
---------

   ODB: G:/Abaqus_calc_2019/1740/Vel_40/odb/zeides_2a_24_red_1500_cal_75_vel_40_fric_050.odb
   Step: Step-1
   Frame: Increment   3001724: Step Time =   0.3342

Loc 1 : Nodal values from source 1

Output sorted by column "Nodal Label".

Field Output reported at nodes for region: DIE_2A_24_D0_36-1.Region_1
   Computation algorithm: EXTRAPOLATE_COMPUTE_AVERAGE
   Averaged at nodes
   Averaging regions: ODB_REGIONS

      Node Label     COORD.COOR1     COORD.COOR2
                          @Loc 1          @Loc 1
-------------------------------------------------
               1     18.4810E-03     149.671E-03


Field Output reported at nodes for region: DIE_2A_24_D0_36-1.Region_2
   Computation algorithm: EXTRAPOLATE_COMPUTE_AVERAGE
   Averaged at nodes
   Averaging regions: ODB_REGIONS

      Node Label     COORD.COOR1     COORD.COOR2
                          @Loc 1          @Loc 1
-------------------------------------------------
               1     18.4810E-03     149.671E-03


Field Output reported at nodes for part: WIRE-1
   Computation algorithm: EXTRAPOLATE_COMPUTE_AVERAGE
   Averaged at nodes
   Averaging regions: ODB_REGIONS

      Node Label     COORD.COOR1     COORD.COOR2           S.S11           S.S22           S.S33           S.S12         PE.PE11         PE.PE22         PE.PE33         PE.PE12         LE.LE11         LE.LE22         LE.LE33         LE.LE12
                          @Loc 1          @Loc 1          @Loc 1          @Loc 1          @Loc 1          @Loc 1          @Loc 1          @Loc 1          @Loc 1          @Loc 1          @Loc 1          @Loc 1          @Loc 1          @Loc 1
-------------------------------------------------------------------------------------------------------------------------------------------------------------------------------------------------------------------------------------------------
               1    -1.35361E-06     74.9760E-03    -142.564E+06    -322.610E+06    -141.960E+06    -851.820E+03    -164.882E-03     330.352E-03    -165.470E-03     11.7906E-03    -164.933E-03     329.164E-03    -165.505E-03     11.1147E-03
               2     15.2667E-03     77.4175E-03    -2.33354E+06     99.1478E+06     95.6002E+06    -320.246E+03    -163.544E-03     328.628E-03    -165.084E-03     36.9544E-03    -164.590E-03     329.740E-03    -164.746E-03     30.0120E-03
               3     15.3015E-03     154.634E-03    -51.8180E+06     34.7143E+06     35.3517E+06    -16.5693E+06    -87.0505E-03     250.990E-03    -163.940E-03    -347.574E-06    -87.3884E-03     251.220E-03    -163.738E-03    -960.259E-06
               4    -9.85663E-06     150.152E-03     60.3740E+06    -3.01021E+06     51.4234E+06    -2.33268E+06    -161.615E-03     331.357E-03    -169.743E-03    -24.2445E-03    -161.509E-03     331.047E-03    -169.569E-03    -24.4178E-03
               5    -412.129E-09     13.8778E-18    -89.5750E+06    -271.409E+06    -89.1817E+06     797.935E+03    -162.518E-03     325.029E-03    -162.511E-03     2.13961E-03    -162.442E-03     323.931E-03    -162.433E-03     2.09816E-03
               6     15.0407E-03     13.8778E-18     8.97584E+06     95.5477E+06     107.901E+06     5.20949E+06    -291.063E-03     463.552E-03    -172.490E-03     158.219E-03    -293.062E-03     465.567E-03    -172.102E-03     147.156E-03
               7     763.012E-06     74.9925E-03    -140.433E+06    -319.569E+06    -137.518E+06    -411.607E+03    -165.162E-03     330.513E-03    -165.351E-03     19.0129E-03    -165.236E-03     329.353E-03    -165.371E-03     17.9388E-03
               8     1.52572E-03     75.0248E-03    -135.893E+06    -309.531E+06    -124.411E+06     244.050E+03    -165.442E-03     330.696E-03    -165.254E-03     34.4968E-03    -165.601E-03     329.635E-03    -165.230E-03     32.5321E-03
               9     2.28887E-03     75.0770E-03    -129.496E+06    -288.861E+06    -107.301E+06     130.843E+03    -165.656E-03     330.935E-03    -165.279E-03     50.8196E-03    -165.965E-03     330.070E-03    -165.209E-03     47.8488E-03
              10     3.05221E-03     75.1491E-03    -121.365E+06    -265.538E+06    -88.3877E+06    -129.998E+03    -166.061E-03     331.371E-03    -165.310E-03     66.5099E-03    -166.574E-03     330.766E-03    -165.191E-03     62.4905E-03
              11     3.81473E-03     75.2400E-03    -112.746E+06    -243.613E+06    -67.9935E+06     132.197E+03    -166.451E-03     331.809E-03    -165.357E-03     81.4833E-03    -167.224E-03     331.514E-03    -165.181E-03     76.3643E-03
              12     4.57765E-03     75.3490E-03    -103.891E+06    -216.991E+06    -49.4742E+06     224.764E+03    -166.814E-03     332.195E-03    -165.381E-03     95.9126E-03    -167.916E-03     332.301E-03    -165.163E-03     89.6347E-03
              13     5.34112E-03     75.4741E-03    -95.0249E+06    -187.877E+06    -32.9501E+06     140.538E+03    -167.083E-03     332.459E-03    -165.376E-03     109.373E-03    -168.578E-03     333.045E-03    -165.130E-03     101.905E-03
              14     6.10432E-03     75.6149E-03    -86.0718E+06    -158.474E+06    -17.3667E+06     262.803E+03    -167.385E-03     332.741E-03    -165.356E-03     121.685E-03    -169.332E-03     333.870E-03    -165.088E-03     113.007E-03
              15     6.86751E-03     75.7689E-03    -77.4855E+06    -126.323E+06    -2.29098E+06     294.712E+03    -167.701E-03     333.033E-03    -165.332E-03     132.772E-03    -170.155E-03     334.770E-03    -165.048E-03     122.899E-03
              16     7.63116E-03     75.9360E-03    -69.2742E+06    -91.0976E+06     12.4823E+06     256.483E+03    -167.886E-03     333.195E-03    -165.309E-03     142.060E-03    -170.874E-03     335.578E-03    -165.014E-03     131.070E-03
              17     8.39412E-03     76.1118E-03    -61.1665E+06    -54.6576E+06     26.9773E+06     282.127E+03    -167.914E-03     333.199E-03    -165.286E-03     149.325E-03    -171.423E-03     336.219E-03    -164.983E-03     137.360E-03
              18     9.15774E-03     76.2961E-03    -53.1273E+06    -12.1396E+06     41.8271E+06     436.157E+03    -167.715E-03     332.969E-03    -165.254E-03     153.551E-03    -171.671E-03     336.572E-03    -164.950E-03     140.842E-03
              19     9.92154E-03     76.4807E-03    -45.0827E+06     31.5783E+06     55.1621E+06     457.348E+03    -167.402E-03     332.616E-03    -165.214E-03     153.920E-03    -171.663E-03     336.669E-03    -164.918E-03     140.732E-03
              20     10.6841E-03     76.6652E-03    -37.5429E+06     63.1877E+06     64.2213E+06     233.520E+03    -166.847E-03     332.020E-03    -165.173E-03     150.200E-03    -171.201E-03     336.279E-03    -164.889E-03     136.842E-03
              21     11.4488E-03     76.8395E-03    -30.7192E+06     78.3248E+06     72.1150E+06     38.4879E+03    -166.088E-03     331.236E-03    -165.148E-03     141.931E-03    -170.301E-03     335.409E-03    -164.857E-03     128.705E-03
              22     12.2114E-03     77.0015E-03    -24.2411E+06     85.0532E+06     83.5253E+06    -122.649E+03    -165.534E-03     330.692E-03    -165.158E-03     130.637E-03    -169.457E-03     334.588E-03    -164.828E-03     117.704E-03
              23     12.9754E-03     77.1474E-03    -17.6236E+06     90.6130E+06     93.9914E+06    -144.384E+03    -164.931E-03     330.106E-03    -165.174E-03     114.187E-03    -168.340E-03     333.501E-03    -164.810E-03     101.908E-03
              24     13.7385E-03     77.2688E-03    -10.8926E+06     97.1695E+06     98.9019E+06     218.560E+03    -164.139E-03     329.298E-03    -165.160E-03     100.665E-03    -167.148E-03     332.328E-03    -164.790E-03     88.8930E-03
              25     14.5017E-03     77.3819E-03    -4.97112E+06     100.292E+06     97.9461E+06     117.393E+03    -163.649E-03     328.762E-03    -165.113E-03     67.2651E-03    -165.652E-03     330.819E-03    -164.762E-03     57.9178E-03
              26     15.2660E-03     78.7392E-03    -1.83600E+06     99.9771E+06     96.3519E+06    -515.221E+03    -163.842E-03     328.919E-03    -165.077E-03     37.0506E-03    -164.890E-03     330.037E-03    -164.738E-03     30.0847E-03
              27     15.2659E-03     80.0568E-03    -2.96631E+06     99.1792E+06     95.3013E+06    -250.404E+03    -163.873E-03     328.955E-03    -165.082E-03     37.4898E-03    -164.928E-03     330.075E-03    -164.745E-03     30.5207E-03
              28     15.2663E-03     81.3742E-03    -2.69622E+06     99.7511E+06     95.7935E+06     308.357E+03    -164.213E-03     329.296E-03    -165.083E-03     37.5496E-03    -165.262E-03     330.411E-03    -164.745E-03     30.6252E-03
              29     15.2651E-03     82.6984E-03    -2.29506E+06     99.9341E+06     95.7944E+06     635.075E+03    -163.609E-03     328.715E-03    -165.106E-03     38.3616E-03    -164.660E-03     329.836E-03    -164.769E-03     31.4623E-03
              30     15.2666E-03     84.0110E-03    -1.98201E+06     100.130E+06     95.9972E+06     88.9351E+03    -163.253E-03     328.350E-03    -165.097E-03     38.6086E-03    -164.313E-03     329.480E-03    -164.759E-03     31.6648E-03
              31     15.2659E-03     85.3299E-03    -2.30165E+06     100.039E+06     96.0514E+06    -458.167E+03    -164.221E-03     329.295E-03    -165.074E-03     36.7078E-03    -165.264E-03     330.407E-03    -164.736E-03     29.7557E-03
              32     15.2657E-03     86.6522E-03    -2.84322E+06     99.6554E+06     95.3036E+06    -156.203E+03    -163.824E-03     328.911E-03    -165.087E-03     37.1401E-03    -164.875E-03     330.030E-03    -164.751E-03     30.1869E-03
              33     15.2665E-03     87.9654E-03    -2.25767E+06     100.392E+06     95.6921E+06     98.5565E+03    -163.448E-03     328.540E-03    -165.092E-03     37.1709E-03    -164.493E-03     329.656E-03    -164.756E-03     30.2668E-03
              34     15.2654E-03     89.2892E-03    -3.20030E+06     99.4571E+06     94.8243E+06     32.4225E+03    -164.034E-03     329.116E-03    -165.082E-03     37.7141E-03    -165.087E-03     330.236E-03    -164.747E-03     30.7722E-03
              35     15.2665E-03     90.6038E-03    -2.84787E+06     99.8406E+06     95.4543E+06         433.016    -164.343E-03     329.422E-03    -165.080E-03     38.0455E-03    -165.398E-03     330.545E-03    -164.743E-03     31.0902E-03
              36     15.2652E-03     91.9285E-03    -2.32034E+06     100.526E+06     96.1091E+06     491.401E+03    -163.728E-03     328.837E-03    -165.109E-03     37.6062E-03    -164.777E-03     329.956E-03    -164.770E-03     30.6992E-03
              37     15.2659E-03     93.2414E-03    -1.98307E+06     100.888E+06     96.2878E+06     -46.668E+03    -162.763E-03     327.876E-03    -165.113E-03     37.9380E-03    -163.822E-03     329.007E-03    -164.775E-03     31.0034E-03
              38     15.2670E-03     94.5585E-03    -2.11918E+06     101.297E+06     96.7388E+06    -402.648E+03    -163.679E-03     328.741E-03    -165.062E-03     37.5452E-03    -164.734E-03     329.868E-03    -164.722E-03     30.5898E-03
              39     15.2659E-03     95.8813E-03    -2.91487E+06     101.087E+06     96.6588E+06    -206.833E+03    -165.233E-03     330.286E-03    -165.053E-03     37.5054E-03    -166.288E-03     331.409E-03    -164.712E-03     30.5190E-03
              40     15.2653E-03     97.2009E-03    -2.81773E+06     100.378E+06     95.9726E+06     502.339E+03    -163.801E-03     328.901E-03    -165.100E-03     37.8005E-03    -164.852E-03     330.020E-03    -164.761E-03     30.8979E-03
              41     15.2669E-03     98.5186E-03    -2.03536E+06     100.954E+06     96.4465E+06     328.776E+03    -162.873E-03     327.986E-03    -165.113E-03     38.8722E-03    -163.937E-03     329.122E-03    -164.774E-03     31.9589E-03
              42     15.2650E-03     99.8338E-03    -2.37156E+06     101.536E+06     96.8825E+06     80.8544E+03    -163.733E-03     328.828E-03    -165.095E-03     37.4621E-03    -164.785E-03     329.951E-03    -164.754E-03     30.5378E-03
              43     15.2670E-03     101.155E-03    -2.49325E+06     101.826E+06     96.8477E+06     283.979E+03    -163.643E-03     328.737E-03    -165.095E-03     37.2171E-03    -164.695E-03     329.861E-03    -164.754E-03     30.2986E-03
              44     15.2649E-03     102.471E-03    -1.55457E+06     102.651E+06     97.3509E+06    -505.805E+03    -163.340E-03     328.430E-03    -165.090E-03     37.2412E-03    -164.390E-03     329.556E-03    -164.750E-03     30.3157E-03
              45     15.2679E-03     103.790E-03    -1.60461E+06     102.454E+06     97.5743E+06    -906.768E+03    -162.921E-03     327.996E-03    -165.075E-03     37.1637E-03    -163.973E-03     329.123E-03    -164.733E-03     30.2379E-03
              46     15.2657E-03     105.107E-03    -2.88529E+06     102.907E+06     97.8438E+06     132.099E+03    -164.247E-03     329.319E-03    -165.072E-03     37.6433E-03    -165.310E-03     330.453E-03    -164.728E-03     30.6929E-03
              47     15.2654E-03     106.430E-03    -4.04265E+06     102.750E+06     96.5911E+06     1.42635E+06    -163.995E-03     329.102E-03    -165.107E-03     37.3507E-03    -165.047E-03     330.224E-03    -164.767E-03     30.4964E-03
              48     15.2662E-03     107.746E-03    -2.78247E+06     103.872E+06     97.3583E+06     364.549E+03    -162.641E-03     327.765E-03    -165.124E-03     38.7845E-03    -163.712E-03     328.912E-03    -164.784E-03     31.8898E-03
              49     15.2659E-03     109.061E-03    -1.80394E+06     104.985E+06     98.6646E+06    -495.445E+03    -163.162E-03     328.261E-03    -165.099E-03     36.7561E-03    -164.219E-03     329.398E-03    -164.755E-03     29.8197E-03
              50     15.2665E-03     110.380E-03    -1.32372E+06     105.398E+06      99.185E+06    -530.195E+03    -162.896E-03     327.971E-03    -165.074E-03     36.7482E-03    -163.951E-03     329.107E-03    -164.729E-03     29.8211E-03
              51     15.2676E-03     111.696E-03    -1.49480E+06     107.068E+06     100.640E+06    -871.144E+03    -163.517E-03     328.589E-03    -165.073E-03     36.6313E-03    -164.575E-03     329.731E-03    -164.723E-03     29.6898E-03
              52     15.2643E-03     113.019E-03    -3.96527E+06     106.491E+06     99.2683E+06     827.553E+03    -163.528E-03     328.642E-03    -165.114E-03     36.3782E-03    -164.588E-03     329.779E-03    -164.767E-03     29.5051E-03
              53     15.2671E-03     114.332E-03    -2.93998E+06     107.606E+06     99.7863E+06     1.08377E+06    -162.687E-03     327.818E-03    -165.130E-03     37.9986E-03    -163.751E-03     328.963E-03    -164.783E-03     31.1819E-03
              54     15.2651E-03     115.653E-03    -2.34722E+06     109.022E+06     100.849E+06     328.797E+03    -162.890E-03     328.021E-03    -165.130E-03     37.2426E-03    -163.954E-03     329.170E-03    -164.781E-03     30.3810E-03
              55     15.2662E-03     116.968E-03    -2.90753E+06     109.368E+06     100.721E+06     659.935E+03    -162.623E-03     327.767E-03    -165.144E-03     37.6295E-03    -163.699E-03     328.929E-03    -164.794E-03     30.7467E-03
              56     15.2656E-03     118.287E-03    -3.57778E+06     111.110E+06     101.322E+06     337.933E+03    -161.435E-03     326.609E-03    -165.174E-03     37.0288E-03    -162.506E-03     327.768E-03    -164.823E-03     30.2293E-03
              57     15.2657E-03     119.601E-03    -2.29509E+06     113.152E+06     102.847E+06     807.125E+03    -160.680E-03     325.866E-03    -165.186E-03     38.1347E-03    -161.762E-03     327.044E-03    -164.833E-03     31.3523E-03
              58     15.2667E-03     120.913E-03    -2.08213E+06     115.356E+06     104.343E+06     935.782E+03    -160.957E-03     326.107E-03    -165.151E-03     37.7257E-03    -162.035E-03     327.285E-03    -164.793E-03     30.9555E-03
              59     15.2666E-03     122.234E-03    -3.32108E+06     116.058E+06     105.003E+06    -163.416E+03    -160.199E-03     325.362E-03    -165.163E-03     36.0580E-03    -161.276E-03     326.534E-03    -164.801E-03     29.2869E-03
              60     15.2664E-03     123.538E-03    -3.41047E+06     115.618E+06     105.164E+06     89.3865E+03    -159.045E-03     324.189E-03    -165.144E-03     36.7893E-03    -160.130E-03     325.367E-03    -164.781E-03     30.0506E-03
              61     15.2698E-03     124.856E-03    -2.33084E+06     116.931E+06     107.268E+06     765.020E+03    -158.092E-03     323.140E-03    -165.048E-03     36.8921E-03    -159.169E-03     324.312E-03    -164.677E-03     30.2252E-03
              62     15.2708E-03     126.163E-03    -1.18166E+06     119.560E+06     110.564E+06    -255.758E+03    -156.991E-03     321.931E-03    -164.941E-03     36.8466E-03    -158.072E-03     323.112E-03    -164.559E-03     30.1861E-03
              63     15.2742E-03     127.472E-03    -2.32572E+06     119.847E+06     111.562E+06     468.471E+03    -156.733E-03     321.496E-03    -164.763E-03     38.2157E-03    -157.831E-03     322.688E-03    -164.376E-03     31.5616E-03
              64     15.2779E-03     128.783E-03    -3.58055E+06     121.224E+06     113.899E+06     795.072E+03    -158.152E-03     322.647E-03    -164.494E-03     40.8680E-03    -159.279E-03     323.861E-03    -164.096E-03     34.1573E-03
              65     15.2817E-03     130.094E-03    -1.91522E+06     122.374E+06     116.243E+06     659.462E+03    -159.512E-03     323.705E-03    -164.194E-03     41.4653E-03    -160.634E-03     324.918E-03    -163.787E-03     34.7104E-03
              66     15.2866E-03     131.408E-03    -3.00698E+06     123.374E+06     118.766E+06     1.17886E+06    -160.804E-03     324.677E-03    -163.872E-03     43.8886E-03    -161.963E-03     325.919E-03    -163.453E-03     37.0298E-03
              67     15.2909E-03     132.722E-03    -3.48396E+06     122.647E+06     120.513E+06     343.580E+03    -165.152E-03     328.620E-03    -163.469E-03     46.5725E-03    -166.347E-03     329.890E-03    -163.039E-03     39.4442E-03
              68     15.2955E-03     134.047E-03    -4.08272E+06     122.003E+06     121.763E+06    -792.508E+03    -171.171E-03     334.204E-03    -163.033E-03     48.9253E-03    -172.387E-03     335.487E-03    -162.596E-03     41.5354E-03
              69     15.2993E-03     135.380E-03     161.674E+03     122.198E+06     124.986E+06     833.284E+03    -178.803E-03     341.422E-03    -162.619E-03     53.3502E-03    -180.036E-03     342.728E-03    -162.171E-03     45.6835E-03
              70     15.3011E-03     136.724E-03    -6.72098E+06     117.985E+06     118.388E+06    -961.841E+03    -187.418E-03     349.669E-03    -162.251E-03     55.9286E-03    -188.686E-03     350.989E-03    -161.821E-03     47.9066E-03
              71     15.3020E-03     138.079E-03    -920.928E+03     113.121E+06     112.676E+06    -2.26229E+06    -195.873E-03     357.816E-03    -161.943E-03     59.9568E-03    -197.130E-03     359.145E-03    -161.542E-03     51.5695E-03
              72     15.3028E-03     139.443E-03    -3.68889E+06     105.348E+06     107.144E+06    -1.74744E+06    -204.441E-03     366.129E-03    -161.688E-03     61.9839E-03    -205.721E-03     367.460E-03    -161.299E-03     53.1686E-03
              73     15.3022E-03     140.820E-03    -1.36447E+06     97.4655E+06     106.762E+06    -1.51622E+06    -212.077E-03     373.568E-03    -161.491E-03     65.4060E-03    -213.375E-03     374.898E-03    -161.096E-03     56.1616E-03
              74     15.3037E-03     142.206E-03    -4.28738E+06     85.7298E+06     105.431E+06    -4.12527E+06    -220.260E-03     381.544E-03    -161.284E-03     70.4689E-03    -221.586E-03     382.855E-03    -160.875E-03     60.8677E-03
              75     15.3029E-03     143.603E-03    -125.094E+03     72.8576E+06     106.718E+06    -1.94331E+06    -227.175E-03     388.279E-03    -161.104E-03     70.8928E-03    -228.471E-03     389.524E-03    -160.676E-03     60.9869E-03
              76     15.3050E-03     145.003E-03     -5.1602E+06     60.8473E+06     106.628E+06    -4.09098E+06    -232.645E-03     393.605E-03    -160.959E-03     73.2658E-03    -233.980E-03     394.829E-03    -160.507E-03     63.0034E-03
              77     15.3040E-03     146.418E-03     264.386E+03     44.7187E+06     112.203E+06    -3.69134E+06    -237.228E-03     398.059E-03    -160.831E-03     73.4068E-03    -238.513E-03     399.178E-03    -160.335E-03     63.0047E-03
              78     15.3078E-03     147.825E-03    -6.90671E+06     30.3405E+06     116.785E+06    -4.69991E+06    -238.403E-03     399.175E-03    -160.772E-03     71.0277E-03    -239.665E-03     400.181E-03    -160.222E-03     60.7511E-03
              79     15.3062E-03     149.243E-03     4.10827E+06     22.2944E+06     131.763E+06    -604.464E+03    -235.344E-03     396.153E-03    -160.809E-03     70.7625E-03    -236.479E-03     397.001E-03    -160.189E-03     61.2397E-03
              80     15.3121E-03     150.647E-03    -4.37262E+06     21.6733E+06     141.043E+06     -540.86E+03    -225.991E-03     386.956E-03    -160.965E-03     66.4525E-03    -227.028E-03     387.644E-03    -160.285E-03     58.2422E-03
              81     15.3093E-03     152.027E-03     2.69858E+06     16.3912E+06     134.985E+06     -35.947E+03    -207.629E-03     368.849E-03    -161.220E-03     54.7533E-03    -208.406E-03     369.301E-03    -160.573E-03     48.3144E-03
              82     15.3182E-03     153.372E-03     15.0173E+06     22.9518E+06     91.2972E+06    -574.644E+03    -141.458E-03     304.111E-03    -162.653E-03     23.6198E-03    -141.768E-03     304.318E-03    -162.252E-03     20.6854E-03
              83     14.4152E-03     154.478E-03    -36.7845E+06    -16.8185E+06     60.6405E+06    -7.20859E+06    -69.2771E-03     235.553E-03    -166.276E-03    -9.47427E-03    -69.4861E-03     235.542E-03    -165.895E-03    -10.3076E-03
              84     13.5122E-03     154.211E-03    -4.98081E+06    -7.49314E+06     113.033E+06    -6.00694E+06    -44.6459E-03     215.594E-03    -170.948E-03    -44.7363E-03    -44.7623E-03     215.497E-03    -170.364E-03    -45.8682E-03
              85     12.6796E-03     153.899E-03     10.6117E+06     8.06685E+06     130.849E+06    -8.58857E+06    -34.1345E-03     209.689E-03    -175.555E-03    -76.4815E-03    -34.2031E-03     209.529E-03    -174.928E-03    -77.6033E-03
              86     11.8529E-03     153.569E-03     5.92125E+06    -12.2440E+06     129.103E+06    -3.75236E+06    -31.9824E-03     211.947E-03    -179.964E-03    -94.6791E-03    -31.9973E-03     211.659E-03    -179.309E-03    -95.7668E-03
              87     11.0385E-03     153.229E-03     6.76687E+06     976.814E+03     137.108E+06    -321.246E+03    -37.8862E-03     221.662E-03    -183.776E-03    -122.835E-03    -37.8616E-03     221.341E-03    -183.102E-03    -124.027E-03
              88     10.2524E-03     152.880E-03     11.8938E+06     307.702E+03     138.953E+06    -474.420E+03    -47.9268E-03     234.433E-03    -186.506E-03    -153.222E-03    -47.7989E-03     233.983E-03    -185.829E-03    -154.628E-03
              89     9.48270E-03     152.538E-03     11.3757E+06     1.88557E+06     134.543E+06    -3.06019E+06    -60.4439E-03     248.432E-03    -187.988E-03    -181.158E-03    -60.2354E-03     247.873E-03    -187.334E-03    -182.828E-03
              90     8.73591E-03     152.202E-03     11.2556E+06    -1.10367E+06     127.883E+06    -4.29315E+06    -74.1110E-03     262.396E-03    -188.285E-03    -203.640E-03    -73.8290E-03     261.713E-03    -187.660E-03    -205.551E-03
              91     7.99992E-03     151.886E-03     13.4009E+06    -1.28379E+06     123.234E+06    -6.13124E+06    -88.4124E-03     275.995E-03    -187.582E-03    -219.434E-03    -88.0722E-03     275.229E-03    -186.984E-03    -221.551E-03
              92     7.27427E-03     151.592E-03     16.6699E+06    -3.72287E+06     119.129E+06    -6.24252E+06    -103.035E-03     289.087E-03    -186.052E-03    -227.675E-03    -102.666E-03     288.260E-03    -185.475E-03    -229.908E-03
              93     6.55444E-03     151.322E-03     20.9602E+06    -3.08964E+06     114.954E+06    -6.73853E+06    -116.707E-03     300.587E-03    -183.881E-03    -226.931E-03    -116.347E-03     299.756E-03    -183.332E-03    -229.201E-03
              94     5.83705E-03     151.079E-03     25.0576E+06    -4.01168E+06     107.751E+06    -6.26024E+06    -128.847E-03     310.164E-03    -181.317E-03    -217.611E-03    -128.524E-03     309.368E-03    -180.809E-03    -219.807E-03
              95     5.11905E-03     150.864E-03     28.9511E+06    -3.36068E+06     99.1681E+06    -5.73494E+06    -139.138E-03     317.742E-03    -178.604E-03    -200.988E-03    -138.874E-03     317.022E-03    -178.145E-03    -203.015E-03
              96     4.39815E-03     150.678E-03     32.7454E+06    -3.39894E+06     90.1768E+06    -5.50118E+06    -147.663E-03     323.593E-03    -175.930E-03    -179.167E-03    -147.460E-03     322.959E-03    -175.522E-03    -180.978E-03
              97     3.67390E-03     150.521E-03     37.2634E+06    -2.34839E+06     82.2829E+06    -6.25184E+06    -154.425E-03     327.841E-03    -173.416E-03    -153.413E-03    -154.274E-03     327.295E-03    -173.055E-03    -155.000E-03
              98     2.94517E-03     150.392E-03     42.3386E+06    -3.06757E+06     74.7357E+06    -6.15412E+06    -159.438E-03     330.576E-03    -171.139E-03    -125.044E-03    -159.326E-03     330.100E-03    -170.822E-03    -126.367E-03
              99     2.21364E-03     150.292E-03     47.3776E+06    -2.92082E+06     67.5744E+06    -5.34482E+06    -162.834E-03     332.013E-03    -169.179E-03    -94.7281E-03    -162.752E-03     331.598E-03    -168.905E-03    -95.7542E-03
             100     1.47864E-03     150.220E-03     51.5212E+06    -3.22776E+06     61.1784E+06    -4.04103E+06    -164.865E-03     332.471E-03    -167.605E-03    -63.7008E-03    -164.794E-03     332.105E-03    -167.369E-03    -64.4348E-03
             101     740.108E-06     150.176E-03     56.7776E+06    -3.21731E+06     54.9757E+06    -2.79699E+06    -163.588E-03     331.920E-03    -168.332E-03    -36.3287E-03    -163.501E-03     331.593E-03    -168.135E-03    -36.7109E-03
             102     4.24566E-06     148.835E-03     21.7155E+06    -12.9171E+06     22.5076E+06    -3.91699E+06    -141.827E-03     285.255E-03    -143.428E-03    -13.4578E-03    -141.819E-03     285.036E-03    -143.328E-03    -13.6971E-03
             103    -62.1353E-09     147.631E-03    -48.2274E+06    -40.2765E+06    -43.5478E+06    -7.64498E+06    -107.296E-03     212.114E-03    -104.819E-03     1.27703E-03    -107.448E-03     212.015E-03    -104.908E-03     1.00003E-03
             104     152.080E-09     146.490E-03    -112.773E+06    -76.4562E+06    -113.827E+06    -9.78184E+06    -86.7174E-03     172.528E-03    -85.8110E-03     8.54948E-03    -87.0152E-03     172.468E-03    -86.1057E-03     8.33134E-03
             105     1.29890E-06     145.381E-03    -183.353E+06    -116.604E+06    -183.424E+06    -9.96666E+06    -80.3576E-03     159.180E-03    -78.8226E-03     14.4398E-03    -80.8412E-03     159.130E-03    -79.3048E-03     14.2633E-03
             106    -290.320E-09     144.269E-03    -254.321E+06    -154.587E+06    -251.434E+06    -8.74070E+06    -82.5168E-03     164.548E-03    -82.0309E-03     17.6839E-03    -83.2025E-03     164.507E-03    -82.6952E-03     17.5430E-03
             107    -9.13104E-09     143.146E-03    -268.069E+06    -186.034E+06    -267.601E+06    -6.92434E+06    -91.8597E-03     183.104E-03    -91.2441E-03     18.9879E-03    -92.5495E-03     182.945E-03    -91.9237E-03     18.8799E-03
             108     1.19826E-06     141.995E-03    -217.207E+06    -204.234E+06    -219.145E+06    -1.34426E+06    -106.169E-03     211.491E-03    -105.322E-03     19.6115E-03    -106.652E-03     211.093E-03    -105.806E-03     19.5638E-03
             109    -1.11911E-06     140.805E-03    -165.405E+06    -204.287E+06    -165.093E+06     1.06977E+06    -121.410E-03     243.020E-03    -121.611E-03     18.4830E-03    -121.713E-03     242.471E-03    -121.900E-03     18.4126E-03
             110     648.679E-09     139.578E-03    -136.493E+06    -204.163E+06    -137.081E+06    -1.19120E+06    -136.168E-03     271.971E-03    -135.803E-03     16.8140E-03    -136.368E-03     271.344E-03    -135.994E-03     16.6076E-03
             111     306.181E-09     138.316E-03    -124.897E+06    -212.333E+06    -127.712E+06    -2.04361E+06    -148.208E-03     295.419E-03    -147.211E-03     15.5321E-03    -148.350E-03     294.726E-03    -147.361E-03     15.1998E-03
             112     186.647E-09     137.030E-03    -126.168E+06    -224.567E+06    -123.911E+06    -2.94065E+06    -156.627E-03     313.183E-03    -156.556E-03     14.4815E-03    -156.763E-03     312.429E-03    -156.667E-03     14.0239E-03
             113    -615.331E-09     135.724E-03    -125.561E+06    -238.401E+06    -125.708E+06    -2.48738E+06    -163.043E-03     326.087E-03    -163.044E-03     12.7518E-03    -163.153E-03     325.267E-03    -163.145E-03     12.2178E-03
             114     981.579E-09     134.403E-03    -125.068E+06    -249.783E+06    -128.392E+06    -1.81982E+06    -167.908E-03     334.256E-03    -166.347E-03     12.0700E-03    -167.994E-03     333.382E-03    -166.446E-03     11.5247E-03
             115     936.234E-09     133.075E-03    -131.400E+06    -260.718E+06    -131.487E+06    -2.11117E+06    -170.214E-03     338.532E-03    -168.318E-03     12.2256E-03    -170.312E-03     337.619E-03    -168.407E-03     11.6192E-03
             116    -31.2879E-09     131.745E-03    -136.384E+06    -271.529E+06    -137.031E+06    -2.03177E+06    -169.482E-03     339.976E-03    -170.494E-03     12.0701E-03    -169.582E-03     339.027E-03    -170.588E-03     11.3681E-03
             117    -2.47079E-06     130.414E-03    -142.916E+06    -280.584E+06    -141.564E+06    -1.75274E+06    -169.308E-03     340.582E-03    -171.274E-03     11.7205E-03    -169.420E-03     339.604E-03    -171.368E-03     11.0216E-03
             118     1.95064E-06     129.079E-03    -145.613E+06    -290.816E+06    -146.770E+06    -1.79551E+06    -170.816E-03     340.495E-03    -169.679E-03     11.1604E-03    -170.919E-03     339.477E-03    -169.780E-03     10.4798E-03
             119     240.053E-09     127.753E-03    -148.040E+06    -299.117E+06    -148.938E+06    -153.812E+03    -170.341E-03     339.171E-03    -168.830E-03     10.6973E-03    -170.442E-03     338.118E-03    -168.926E-03     10.0296E-03
             120    -184.795E-09     126.422E-03    -149.659E+06    -303.347E+06    -148.935E+06    -1.13967E+06    -168.847E-03     337.669E-03    -168.821E-03     10.4820E-03    -168.950E-03     336.595E-03    -168.909E-03     9.82817E-03
             121     138.482E-09     125.095E-03    -151.877E+06    -309.335E+06    -152.459E+06    -974.953E+03    -168.136E-03     336.294E-03    -168.158E-03     11.5966E-03    -168.236E-03     335.199E-03    -168.252E-03     10.9581E-03
             122    -182.401E-09     123.769E-03    -152.451E+06    -313.738E+06    -151.640E+06    -1.31850E+06    -167.610E-03     335.069E-03    -167.459E-03     11.7965E-03    -167.709E-03     333.952E-03    -167.541E-03     11.1302E-03
             123     414.439E-09     122.446E-03    -149.861E+06    -320.899E+06    -150.710E+06    -2.42018E+06    -167.481E-03     334.069E-03    -166.588E-03     10.9991E-03    -167.557E-03     332.912E-03    -166.659E-03     10.2926E-03
             124     663.402E-09     121.126E-03    -149.332E+06    -327.078E+06    -150.114E+06     308.409E+03    -167.188E-03     333.294E-03    -166.106E-03     10.3186E-03    -167.253E-03     332.104E-03    -166.166E-03     9.65277E-03
             125    -136.437E-09     119.804E-03    -148.770E+06    -327.820E+06    -148.011E+06    -81.9707E+03    -166.269E-03     332.857E-03    -166.587E-03     11.1709E-03    -166.334E-03     331.659E-03    -166.636E-03     10.5216E-03
             126    -912.491E-09     118.481E-03    -147.575E+06    -328.072E+06    -147.794E+06    -396.294E+03    -166.092E-03     332.530E-03    -166.437E-03     11.6438E-03    -166.150E-03     331.328E-03    -166.487E-03     11.0330E-03
             127     1.38308E-06     117.161E-03    -145.296E+06    -326.267E+06    -145.582E+06     443.254E+03    -166.315E-03     331.684E-03    -165.369E-03     11.7282E-03    -166.368E-03     330.487E-03    -165.413E-03     11.0871E-03
             128    -463.952E-09     115.843E-03    -146.356E+06    -327.390E+06    -146.466E+06    -453.379E+03    -165.816E-03     331.098E-03    -165.281E-03     11.7585E-03    -165.873E-03     329.897E-03    -165.327E-03     11.0878E-03
             129     310.458E-09     114.525E-03    -144.776E+06    -326.193E+06    -145.203E+06     228.606E+03    -165.894E-03     331.435E-03    -165.542E-03     11.2583E-03    -165.945E-03     330.236E-03    -165.585E-03     10.6147E-03
             130     330.904E-09     113.204E-03    -143.252E+06    -324.477E+06    -142.734E+06     540.448E+03    -166.039E-03     331.374E-03    -165.335E-03     11.5594E-03    -166.089E-03     330.178E-03    -165.371E-03     10.9251E-03
             131     57.4760E-09     111.885E-03    -143.377E+06    -324.807E+06    -143.650E+06     377.403E+03    -165.449E-03     331.062E-03    -165.614E-03     11.7746E-03    -165.497E-03     329.865E-03    -165.653E-03     11.1599E-03
             132    -751.608E-09     110.568E-03    -142.708E+06    -323.718E+06    -142.239E+06     919.004E+03    -165.478E-03     331.108E-03    -165.631E-03     11.1840E-03    -165.526E-03     329.913E-03    -165.665E-03     10.5816E-03
             133     1.17234E-06     109.246E-03    -141.821E+06    -323.186E+06    -141.898E+06     104.258E+03    -165.926E-03     330.893E-03    -164.967E-03     11.6306E-03    -165.971E-03     329.700E-03    -165.002E-03     11.0098E-03
             134    -181.542E-09     107.931E-03    -140.058E+06    -322.035E+06    -140.847E+06    -527.050E+03    -165.642E-03     330.590E-03    -164.948E-03     11.6448E-03    -165.681E-03     329.398E-03    -164.982E-03     10.9961E-03
             135     190.986E-09     106.612E-03    -140.794E+06    -322.328E+06    -140.689E+06    -77.0216E+03    -165.553E-03     330.549E-03    -164.996E-03     11.1432E-03    -165.596E-03     329.357E-03    -165.028E-03     10.5052E-03
             136     605.438E-09     105.293E-03    -141.644E+06    -323.204E+06    -141.742E+06    -332.091E+03    -165.846E-03     330.790E-03    -164.945E-03     11.6703E-03    -165.891E-03     329.597E-03    -164.979E-03     11.0055E-03
             137    -76.9536E-09     103.975E-03    -141.155E+06    -322.955E+06    -141.279E+06    -359.780E+03    -165.536E-03     330.737E-03    -165.201E-03     11.1310E-03    -165.580E-03     329.543E-03    -165.234E-03     10.4607E-03
             138     16.0396E-09     102.658E-03    -140.581E+06    -322.364E+06    -140.679E+06     371.351E+03    -165.294E-03     330.335E-03    -165.041E-03     10.7890E-03    -165.336E-03     329.141E-03    -165.073E-03     10.1845E-03
             139     389.213E-09     101.339E-03    -140.767E+06    -322.175E+06    -140.493E+06     64.2719E+03    -165.215E-03     330.255E-03    -165.041E-03     11.8473E-03    -165.258E-03     329.063E-03    -165.072E-03     11.2398E-03
             140    -579.797E-09     100.020E-03    -143.546E+06    -323.201E+06    -141.918E+06     765.457E+03    -165.095E-03     330.318E-03    -165.223E-03     11.9462E-03    -165.149E-03     329.127E-03    -165.255E-03     11.3335E-03
             141     538.040E-09     98.7044E-03    -141.202E+06    -321.231E+06    -142.196E+06     131.828E+03    -165.253E-03     330.585E-03    -165.332E-03     11.3907E-03    -165.298E-03     329.401E-03    -165.372E-03     10.7519E-03
             142    -672.065E-09     97.3855E-03    -140.490E+06    -319.922E+06    -139.756E+06    -508.873E+03    -165.481E-03     330.958E-03    -165.477E-03     11.0479E-03    -165.528E-03     329.776E-03    -165.509E-03     10.3885E-03
             143     776.767E-09     96.0660E-03    -140.875E+06    -321.156E+06    -141.966E+06     53.9712E+03    -165.918E-03     330.756E-03    -164.838E-03     10.8315E-03    -165.961E-03     329.571E-03    -164.878E-03     10.2007E-03
             144     714.759E-09     94.7489E-03    -140.726E+06    -320.806E+06    -141.735E+06    -105.548E+03    -165.836E-03     330.392E-03    -164.556E-03     11.4718E-03    -165.880E-03     329.209E-03    -164.595E-03     10.8362E-03
             145    -310.940E-09     93.4300E-03    -140.958E+06    -320.348E+06    -140.284E+06    -143.228E+03    -165.218E-03     330.278E-03    -165.060E-03     11.7153E-03    -165.266E-03     329.095E-03    -165.092E-03     11.0730E-03
             146     104.944E-09     92.1124E-03    -142.265E+06    -322.341E+06    -142.618E+06    -229.736E+03    -165.244E-03     330.391E-03    -165.147E-03     11.6173E-03    -165.292E-03     329.204E-03    -165.186E-03     10.9875E-03
             147     196.105E-09     90.7950E-03    -141.221E+06    -321.379E+06    -141.188E+06     538.479E+03    -165.382E-03     330.521E-03    -165.139E-03     11.1923E-03    -165.428E-03     329.334E-03    -165.174E-03     10.5597E-03
             148    -170.242E-09     89.4769E-03    -141.429E+06    -320.988E+06    -141.143E+06    -473.352E+03    -165.097E-03     330.395E-03    -165.298E-03     11.1914E-03    -165.145E-03     329.211E-03    -165.333E-03     10.5152E-03
             149    -202.248E-09     88.1587E-03    -141.681E+06    -321.187E+06    -141.790E+06     477.215E+03    -165.404E-03     330.536E-03    -165.132E-03     11.2135E-03    -165.451E-03     329.352E-03    -165.170E-03     10.5846E-03
             150     942.600E-09     86.8405E-03    -140.807E+06    -320.797E+06    -141.044E+06     191.721E+03    -165.721E-03     330.689E-03    -164.968E-03     11.4042E-03    -165.765E-03     329.504E-03    -165.004E-03     10.8325E-03
             151    -586.497E-09     85.5217E-03    -141.306E+06    -321.685E+06    -141.715E+06     406.005E+03    -165.353E-03     330.403E-03    -165.050E-03     11.5731E-03    -165.397E-03     329.215E-03    -165.088E-03     10.9908E-03
             152     636.543E-09     84.2041E-03    -141.487E+06    -321.476E+06    -140.533E+06    -237.426E+03    -165.357E-03     330.221E-03    -164.864E-03     11.8465E-03    -165.406E-03     329.034E-03    -164.895E-03     11.1995E-03
             153     23.7455E-09     82.8860E-03    -141.559E+06    -322.320E+06    -142.043E+06    -1.17308E+06    -165.562E-03     330.284E-03    -164.722E-03     11.6398E-03    -165.607E-03     329.095E-03    -164.760E-03     10.9876E-03
             154     543.511E-09     81.5702E-03    -141.549E+06    -322.217E+06    -142.258E+06     534.401E+03    -165.324E-03     330.559E-03    -165.235E-03     11.1522E-03    -165.369E-03     329.371E-03    -165.274E-03     10.5146E-03
             155    -1.02463E-06     80.2507E-03    -142.601E+06    -321.931E+06    -140.064E+06     29.7055E+03    -165.086E-03     330.695E-03    -165.609E-03     11.2618E-03    -165.140E-03     329.506E-03    -165.636E-03     10.6111E-03
             156     688.183E-09     78.9307E-03    -140.804E+06    -322.556E+06    -142.512E+06    -341.490E+03    -165.538E-03     330.442E-03    -164.904E-03     11.3439E-03    -165.578E-03     329.251E-03    -164.944E-03     10.7074E-03
             157     553.145E-09     77.6162E-03    -142.487E+06    -323.117E+06    -141.667E+06      856.07E+03    -165.904E-03     330.574E-03    -164.670E-03     11.4935E-03    -165.953E-03     329.381E-03    -164.703E-03     10.9030E-03
             158     46.6427E-09     76.2947E-03    -140.585E+06    -321.378E+06    -141.050E+06    -140.985E+03    -165.187E-03     330.795E-03    -165.609E-03     12.4706E-03    -165.231E-03     329.609E-03    -165.644E-03     11.8179E-03
             159     1.71993E-06     73.6618E-03    -141.228E+06    -322.767E+06    -142.796E+06     1.21681E+06    -165.511E-03     330.330E-03    -164.819E-03     11.1254E-03    -165.552E-03     329.140E-03    -164.860E-03     10.5183E-03
             160    -1.08957E-06     72.3420E-03    -141.316E+06    -320.693E+06    -139.796E+06     -82.093E+03    -165.471E-03     330.742E-03    -165.270E-03     11.4979E-03    -165.520E-03     329.557E-03    -165.299E-03     10.8783E-03
             161     733.614E-09     71.0223E-03    -140.781E+06    -321.941E+06    -142.185E+06    -693.640E+03    -165.602E-03     330.610E-03    -165.007E-03     11.3561E-03    -165.643E-03     329.421E-03    -165.047E-03     10.7156E-03
             162     470.020E-09     69.7066E-03    -141.177E+06    -321.966E+06    -142.023E+06     448.896E+03    -165.954E-03     330.782E-03    -164.828E-03     11.4129E-03    -165.998E-03     329.595E-03    -164.867E-03     10.7706E-03
             163    -11.0551E-09     68.3871E-03    -140.992E+06    -321.042E+06     -140.18E+06     440.085E+03    -165.611E-03     330.845E-03    -165.234E-03     10.9823E-03    -165.658E-03     329.658E-03    -165.265E-03     10.3519E-03
             164     93.5843E-09     67.0676E-03    -140.390E+06    -322.009E+06    -141.114E+06    -284.193E+03    -165.384E-03     330.491E-03    -165.107E-03     11.5246E-03    -165.425E-03     329.300E-03    -165.142E-03     10.8881E-03
             165     192.003E-09     65.7512E-03    -141.430E+06    -322.879E+06    -141.463E+06    -400.557E+03    -165.399E-03     330.491E-03    -165.092E-03     11.4112E-03    -165.443E-03     329.297E-03    -165.126E-03     10.7807E-03
             166    -57.4109E-09     64.4322E-03    -141.238E+06    -322.356E+06    -141.175E+06    -78.3233E+03    -165.175E-03     330.393E-03    -165.218E-03     11.4112E-03    -165.220E-03     329.202E-03    -165.252E-03     10.7680E-03
             167    -189.524E-09     63.1145E-03    -142.085E+06    -322.623E+06    -141.056E+06    -212.446E+03    -165.410E-03     330.416E-03    -165.006E-03     11.5011E-03    -165.459E-03     329.225E-03    -165.037E-03     10.8644E-03
             168     1.01496E-06     61.7965E-03    -140.617E+06    -321.563E+06    -141.631E+06     837.337E+03    -165.884E-03     330.706E-03    -164.822E-03     11.5817E-03    -165.926E-03     329.518E-03    -164.860E-03     10.9535E-03
             169    -279.716E-09     60.4780E-03    -141.025E+06    -320.962E+06    -140.139E+06     167.742E+03    -165.498E-03     330.781E-03    -165.283E-03     11.7456E-03    -165.546E-03     329.596E-03    -165.314E-03     11.1078E-03
             170    -169.533E-09     59.1594E-03    -140.326E+06    -322.040E+06    -141.102E+06     90.6193E+03    -165.211E-03     330.434E-03    -165.223E-03     11.0843E-03    -165.251E-03     329.243E-03    -165.258E-03     10.4568E-03
             171     549.073E-09     57.8426E-03    -140.563E+06    -321.745E+06    -139.976E+06     212.136E+03    -165.419E-03     330.005E-03    -164.585E-03     10.8407E-03    -165.463E-03     328.813E-03    -164.615E-03     10.2187E-03
             172     309.003E-09     56.5255E-03    -139.988E+06    -321.871E+06    -140.973E+06    -240.128E+03    -165.305E-03     330.150E-03    -164.844E-03     11.6861E-03    -165.344E-03     328.958E-03    -164.880E-03     11.0625E-03
             173    -524.523E-09     55.2055E-03    -140.540E+06    -320.896E+06    -139.419E+06     276.964E+03    -165.144E-03     330.533E-03    -165.389E-03     12.0074E-03    -165.190E-03     329.346E-03    -165.417E-03     11.3732E-03
             174     324.085E-09     53.8890E-03    -140.599E+06    -320.832E+06    -141.333E+06    -724.780E+03    -165.407E-03     330.112E-03    -164.705E-03     10.8058E-03    -165.451E-03     328.928E-03    -164.742E-03     10.1491E-03
             175     901.848E-09     52.5726E-03    -141.043E+06    -319.886E+06    -141.485E+06     298.701E+03    -165.468E-03     329.860E-03    -164.392E-03     11.0856E-03    -165.514E-03     328.681E-03    -164.431E-03     10.4594E-03
             176    -533.701E-09     51.2545E-03    -140.925E+06    -319.517E+06    -140.337E+06    -142.133E+03    -165.000E-03     330.101E-03    -165.102E-03     11.8280E-03    -165.048E-03     328.922E-03    -165.136E-03     11.2194E-03
             177    -36.1991E-09     49.9343E-03    -140.267E+06    -320.385E+06    -141.329E+06     707.792E+03    -164.744E-03     329.486E-03    -164.742E-03     11.9931E-03    -164.786E-03     328.304E-03    -164.781E-03     11.3896E-03
             178     543.937E-09     48.6212E-03    -140.931E+06    -319.457E+06    -140.030E+06    -92.7076E+03    -164.864E-03     329.084E-03    -164.220E-03     11.7487E-03    -164.913E-03     327.905E-03    -164.253E-03     11.1244E-03
             179    -111.586E-09     47.3052E-03    -141.340E+06    -321.031E+06    -142.022E+06    -471.785E+03    -164.589E-03     329.536E-03    -164.947E-03     11.3959E-03    -164.635E-03     328.353E-03    -164.987E-03     10.7535E-03
             180    -920.997E-09     45.9868E-03    -140.874E+06    -320.343E+06    -139.831E+06     532.727E+03    -164.402E-03     329.366E-03    -164.964E-03     11.0810E-03    -164.449E-03     328.182E-03    -164.995E-03     10.4608E-03
             181     1.06236E-06     44.6705E-03    -140.414E+06    -320.411E+06    -141.012E+06    -741.099E+03    -164.793E-03     328.660E-03    -163.867E-03     11.4215E-03    -164.837E-03     327.478E-03    -163.904E-03     10.7760E-03
             182     158.381E-09     43.3565E-03    -141.924E+06    -322.272E+06    -142.975E+06     764.197E+03    -164.885E-03     328.537E-03    -163.652E-03     11.5017E-03    -164.931E-03     327.351E-03    -163.694E-03     10.8460E-03
             183     446.144E-09     42.0403E-03    -141.060E+06    -320.188E+06    -140.225E+06    -78.6053E+03    -164.153E-03     328.127E-03    -163.974E-03     10.9324E-03    -164.202E-03     326.945E-03    -164.006E-03     10.2856E-03
             184    -809.554E-09     40.7266E-03    -140.006E+06    -319.777E+06    -140.284E+06    -412.608E+03    -163.412E-03     327.421E-03    -164.009E-03     10.8591E-03    -163.454E-03     326.238E-03    -164.043E-03     10.2651E-03
             185     215.696E-09     39.4127E-03    -141.084E+06    -320.770E+06    -140.816E+06     277.055E+03    -163.570E-03     327.303E-03    -163.733E-03     10.9716E-03    -163.616E-03     326.118E-03    -163.767E-03     10.3859E-03
             186     87.2363E-09     38.0977E-03    -141.765E+06    -321.291E+06    -141.451E+06     242.255E+03    -163.392E-03     326.676E-03    -163.284E-03     11.2591E-03    -163.441E-03     325.491E-03    -163.319E-03     10.6325E-03
             187    -266.466E-09     36.7864E-03    -140.654E+06    -320.808E+06    -140.733E+06    -243.139E+03    -163.043E-03     325.950E-03    -162.907E-03     10.9243E-03    -163.087E-03     324.764E-03    -162.941E-03     10.3048E-03
             188     611.408E-09     35.4755E-03    -139.509E+06    -320.477E+06    -140.416E+06    -352.746E+03    -163.062E-03     325.631E-03    -162.569E-03     10.2930E-03    -163.101E-03     324.444E-03    -162.604E-03     9.70032E-03
             189    -247.683E-09     34.1631E-03    -141.656E+06    -321.983E+06    -141.342E+06     354.335E+03    -162.410E-03     324.746E-03    -162.335E-03     10.4714E-03    -162.456E-03     323.556E-03    -162.370E-03     9.88658E-03
             190    -37.2361E-09     32.8536E-03    -141.761E+06    -321.722E+06    -141.231E+06    -186.878E+03    -162.266E-03     324.001E-03    -161.735E-03     10.3415E-03    -162.313E-03     322.813E-03    -161.770E-03     9.75127E-03
             191     1.10204E-06     31.5452E-03    -139.861E+06    -320.697E+06    -140.599E+06     671.169E+03    -162.256E-03     323.663E-03    -161.407E-03     10.6400E-03    -162.296E-03     322.476E-03    -161.442E-03     10.0700E-03
             192    -914.793E-09     30.2345E-03    -140.537E+06    -320.465E+06    -139.318E+06     488.972E+03    -161.575E-03     322.803E-03    -161.228E-03     10.7928E-03    -161.620E-03     321.616E-03    -161.256E-03     10.2321E-03
             193     1.22884E-06     28.9280E-03    -139.657E+06    -320.062E+06    -140.894E+06    -746.721E+03    -161.213E-03     321.322E-03    -160.109E-03     10.6150E-03    -161.252E-03     320.139E-03    -160.147E-03     10.0239E-03
             194     98.2900E-09     27.6235E-03    -140.927E+06    -321.020E+06    -141.431E+06    -648.644E+03    -160.606E-03     320.313E-03    -159.707E-03     10.7373E-03    -160.650E-03     319.128E-03    -159.745E-03     10.1198E-03
             195    -92.8916E-09     26.3203E-03    -140.176E+06    -320.435E+06    -140.418E+06     772.384E+03    -159.876E-03     319.690E-03    -159.814E-03     9.23267E-03    -159.917E-03     318.504E-03    -159.849E-03     8.68797E-03
             196     150.927E-09     25.0174E-03    -139.603E+06    -317.991E+06    -139.092E+06     631.082E+03    -159.121E-03     318.779E-03    -159.659E-03     9.36483E-03    -159.164E-03     317.602E-03    -159.691E-03     8.84057E-03
             197    -1.06083E-06     23.7133E-03    -140.031E+06    -317.371E+06    -138.964E+06     -16.796E+03    -158.769E-03     317.797E-03    -159.029E-03     9.73353E-03    -158.815E-03     316.625E-03    -159.060E-03     9.17083E-03
             198     1.55044E-06     22.4132E-03    -137.413E+06    -315.931E+06    -138.615E+06     608.965E+03    -158.064E-03     315.556E-03    -157.492E-03     9.10396E-03    -158.100E-03     314.386E-03    -157.528E-03     8.57078E-03
             199    -1.19940E-06     21.1182E-03    -137.821E+06    -313.944E+06    -137.585E+06     575.512E+03    -155.895E-03     312.133E-03    -156.238E-03     8.69571E-03    -155.937E-03     310.971E-03    -156.271E-03     8.19520E-03
             200     297.046E-09     19.8252E-03    -136.644E+06    -311.572E+06    -136.488E+06     365.962E+03    -154.347E-03     307.974E-03    -153.627E-03     7.09288E-03    -154.386E-03     306.818E-03    -153.659E-03     6.62696E-03
             201     1.71043E-06     18.5414E-03    -134.831E+06    -310.076E+06    -135.870E+06    -247.252E+03    -151.685E-03     302.037E-03    -150.352E-03     6.67189E-03    -151.718E-03     300.885E-03    -150.387E-03     6.22897E-03
             202    -1.67863E-06     17.2649E-03    -136.258E+06    -309.900E+06    -135.848E+06     998.237E+03    -147.020E-03     294.468E-03    -147.448E-03     5.37262E-03    -147.059E-03     293.317E-03    -147.480E-03     5.00917E-03
             203     982.133E-09     15.9988E-03    -132.953E+06    -304.593E+06    -132.520E+06     1.09566E+06    -142.352E-03     284.851E-03    -142.499E-03     3.82856E-03    -142.387E-03     283.715E-03    -142.527E-03     3.51800E-03
             204    -496.012E-09     14.7468E-03    -130.297E+06    -299.722E+06    -130.911E+06    -19.4061E+03    -136.411E-03     273.041E-03    -136.630E-03     3.42470E-03    -136.442E-03     271.922E-03    -136.661E-03     3.12396E-03
             205    -331.929E-09     13.5107E-03    -130.599E+06    -296.492E+06    -130.411E+06     1.49865E+06    -129.867E-03     260.153E-03    -130.286E-03     1.94202E-03    -129.904E-03     259.049E-03    -130.319E-03     1.71492E-03
             206     521.849E-09     12.2911E-03    -127.942E+06    -291.048E+06    -128.142E+06     1.20416E+06    -123.257E-03     246.656E-03    -123.399E-03     1.57343E-03    -123.292E-03     245.572E-03    -123.432E-03     1.37874E-03
             207    -923.382E-09     11.0863E-03    -126.563E+06    -286.590E+06    -126.801E+06     1.25469E+06    -116.750E-03     233.514E-03    -116.764E-03     1.06705E-03    -116.786E-03     232.449E-03    -116.799E-03     887.726E-06
             208     1.31975E-06     9.90027E-03    -125.070E+06    -281.789E+06    -124.496E+06     1.09436E+06    -111.937E-03     223.186E-03    -111.250E-03     1.04977E-03    -111.975E-03     222.140E-03    -111.282E-03     864.731E-06
             209    -593.364E-09     8.72050E-03    -121.684E+06    -277.500E+06    -121.061E+06     418.938E+03    -109.966E-03     219.354E-03    -109.388E-03     2.76958E-03    -109.998E-03     218.320E-03    -109.415E-03     2.57496E-03
             210     806.215E-09     7.54200E-03    -117.379E+06    -275.751E+06    -117.184E+06     179.691E+03    -112.689E-03     225.188E-03    -112.499E-03     4.77686E-03    -112.710E-03     224.151E-03    -112.515E-03     4.58434E-03
             211    -702.922E-09     6.35011E-03    -113.834E+06    -277.066E+06    -114.047E+06    -657.381E+03    -120.321E-03     240.967E-03    -120.646E-03     6.72536E-03    -120.330E-03     239.911E-03    -120.650E-03     6.51447E-03
             212     106.193E-09     5.13148E-03    -109.285E+06    -278.235E+06    -109.920E+06     156.612E+03    -131.330E-03     262.893E-03    -131.563E-03     7.26899E-03    -131.322E-03     261.817E-03    -131.551E-03     7.06508E-03
             213     139.700E-09     3.88550E-03    -102.629E+06    -276.415E+06    -102.466E+06     532.573E+03    -143.042E-03     285.951E-03    -142.909E-03     7.00057E-03    -143.013E-03     284.863E-03    -142.872E-03     6.80943E-03
             214    -147.346E-09     2.61058E-03    -95.8743E+06    -273.933E+06    -95.9284E+06     461.547E+03    -153.355E-03     306.551E-03    -153.196E-03     5.47677E-03    -153.303E-03     305.457E-03    -153.139E-03     5.31552E-03
             215     419.326E-09     1.31070E-03    -91.5756E+06    -272.316E+06    -91.2172E+06     562.249E+03    -160.301E-03     320.426E-03    -160.124E-03     2.98620E-03    -160.233E-03     319.329E-03    -160.053E-03     2.89829E-03
             216     764.076E-06     13.8778E-18    -89.4411E+06    -270.992E+06    -88.4837E+06     442.183E+03    -162.499E-03     325.010E-03    -162.511E-03     2.63033E-03    -162.425E-03     323.914E-03    -162.431E-03     2.54938E-03
             217     1.52856E-03     13.8778E-18    -88.6108E+06    -269.396E+06    -86.2464E+06     175.154E+03    -162.313E-03     324.793E-03    -162.480E-03     4.36156E-03    -162.242E-03     323.701E-03    -162.392E-03     4.20625E-03
             218     2.29243E-03     13.8778E-18    -87.5464E+06    -266.701E+06    -82.3765E+06     525.951E+03    -161.975E-03     324.370E-03    -162.395E-03     6.94278E-03    -161.909E-03     323.285E-03    -162.293E-03     6.71585E-03
             219     3.05726E-03     13.8778E-18    -86.1412E+06    -262.776E+06    -76.6391E+06     529.176E+03    -161.477E-03     323.743E-03    -162.266E-03     8.97601E-03    -161.420E-03     322.669E-03    -162.143E-03     8.66432E-03
             220     3.82267E-03     13.8778E-18    -83.8720E+06    -256.969E+06    -69.4617E+06     60.7556E+03    -160.767E-03     322.849E-03    -162.083E-03     11.2003E-03    -160.719E-03     321.793E-03    -161.936E-03     10.8065E-03
             221     4.58764E-03     13.8778E-18    -79.9522E+06    -240.383E+06    -62.3208E+06    -1.64828E+06    -160.064E-03     321.899E-03    -161.835E-03     13.5797E-03    -160.033E-03     320.912E-03    -161.682E-03     13.0878E-03
             222     5.35502E-03     13.8778E-18    -74.3717E+06    -210.065E+06    -56.1799E+06    -2.85129E+06    -159.364E-03     320.901E-03    -161.537E-03     15.1803E-03    -159.362E-03     320.051E-03    -161.405E-03     14.5951E-03
             223     6.12115E-03     13.8778E-18    -67.9757E+06    -173.715E+06    -50.8890E+06    -4.22992E+06    -158.729E-03     319.943E-03    -161.214E-03     17.2451E-03    -158.758E-03     319.262E-03    -161.118E-03     16.5554E-03
             224     6.88888E-03     13.8778E-18    -59.9681E+06    -131.764E+06    -44.3839E+06    -5.99261E+06    -158.332E-03     319.230E-03    -160.898E-03     19.5272E-03    -158.396E-03     318.742E-03    -160.842E-03     18.7361E-03
             225     7.65573E-03     13.8778E-18    -50.2572E+06    -83.8738E+06    -36.7444E+06    -7.68801E+06    -158.313E-03     318.927E-03    -160.615E-03     21.6114E-03    -158.414E-03     318.659E-03    -160.604E-03     20.6985E-03
             226     8.42388E-03     13.8778E-18    -39.2314E+06    -27.9563E+06    -27.6700E+06    -9.23320E+06    -158.761E-03     319.153E-03    -160.392E-03     23.1976E-03    -158.907E-03     319.140E-03    -160.433E-03     22.1610E-03
             227     9.19032E-03     13.8778E-18    -28.5647E+06     20.4419E+06    -12.9734E+06    -7.02496E+06    -159.965E-03     320.274E-03    -160.309E-03     26.4976E-03    -160.158E-03     320.475E-03    -160.362E-03     25.3614E-03
             228     9.95390E-03     13.8778E-18    -21.1414E+06     45.8753E+06     11.6774E+06    -2.67497E+06    -162.262E-03     322.725E-03    -160.463E-03     29.3613E-03    -162.501E-03     323.018E-03    -160.441E-03     28.1191E-03
             229     10.7201E-03     13.8778E-18    -18.1720E+06     56.8280E+06     40.6626E+06     2.30601E+06    -165.955E-03     326.827E-03    -160.871E-03     33.6373E-03    -166.257E-03     327.147E-03    -160.724E-03     32.2166E-03
             230     11.4732E-03     13.8778E-18    -16.5621E+06     63.8688E+06     66.4652E+06     3.57034E+06    -171.279E-03     332.816E-03    -161.536E-03     38.7750E-03    -171.649E-03     333.161E-03    -161.273E-03     37.0058E-03
             231     12.2345E-03     13.8778E-18    -15.1570E+06     69.3715E+06     85.0952E+06     2.86336E+06    -179.630E-03     342.154E-03    -162.524E-03     47.9309E-03    -180.084E-03     342.552E-03    -162.177E-03     45.6283E-03
             232     12.9681E-03     13.8778E-18    -12.3145E+06     74.0918E+06     93.5837E+06     1.87378E+06    -193.823E-03     357.828E-03    -164.006E-03     67.9801E-03    -194.426E-03     358.378E-03    -163.627E-03     64.5954E-03
             233     13.7010E-03     13.8778E-18    -7.29713E+06     80.7848E+06     96.3284E+06     295.259E+03    -219.207E-03     385.552E-03    -166.345E-03     80.4559E-03    -220.005E-03     386.346E-03    -165.970E-03     75.1444E-03
             234     14.4246E-03     13.8778E-18     2.02139E+06     89.9638E+06     102.462E+06     2.86057E+06    -263.381E-03     433.521E-03    -170.139E-03     119.680E-03    -264.830E-03     434.990E-03    -169.760E-03     110.906E-03
             235     15.1827E-03     1.57245E-03    -3.34463E+06     90.7129E+06     94.7948E+06     1.62109E+06    -266.646E-03     436.611E-03    -169.965E-03     161.280E-03    -269.223E-03     439.210E-03    -169.617E-03     148.854E-03
             236     15.2232E-03     2.99630E-03    -10.8703E+06     85.8365E+06     84.1828E+06     1.24877E+06    -239.605E-03     405.966E-03    -166.361E-03     121.042E-03    -241.939E-03     408.328E-03    -166.048E-03     108.729E-03
             237     15.2493E-03     4.40947E-03    -2.80441E+06     88.8680E+06     90.0331E+06     2.81030E+06    -226.283E-03     391.291E-03    -165.008E-03     81.6471E-03    -228.005E-03     393.055E-03    -164.683E-03     70.4459E-03
             238     15.2551E-03     5.79031E-03     896.641E+03     94.1512E+06     95.8038E+06     2.04135E+06    -216.135E-03     380.678E-03    -164.543E-03     71.4923E-03    -217.802E-03     382.404E-03    -164.202E-03     60.4306E-03
             239     15.2600E-03     7.17761E-03    -2.01225E+06     94.2726E+06     95.9148E+06       -6.37E+03    -215.643E-03     379.928E-03    -164.285E-03     60.2872E-03    -217.103E-03     381.437E-03    -163.939E-03     49.5727E-03
             240     15.2604E-03     8.55813E-03    -4.77648E+06     93.5204E+06     94.5225E+06    -1.30454E+06    -212.570E-03     376.803E-03    -164.233E-03     54.3723E-03    -213.943E-03     378.217E-03    -163.889E-03     44.0371E-03
             241     15.2619E-03     9.94294E-03    -1.61707E+06     95.6703E+06     96.1897E+06     177.377E+03    -203.895E-03     368.266E-03    -164.370E-03     49.7064E-03    -205.157E-03     369.583E-03    -164.026E-03     40.1411E-03
             242     15.2630E-03     11.3002E-03    -1.86431E+06     94.0733E+06     94.7151E+06    -1.01314E+06    -196.471E-03     360.976E-03    -164.505E-03     50.8663E-03    -197.727E-03     362.285E-03    -164.166E-03     41.6849E-03
             243     15.2620E-03     12.6586E-03    -3.37105E+06     91.2411E+06     92.7787E+06    -1.11105E+06    -191.975E-03     356.596E-03    -164.621E-03     44.2280E-03    -193.123E-03     357.787E-03    -164.285E-03     35.5975E-03
             244     15.2624E-03     14.0092E-03    -1.67649E+06     90.3344E+06     92.8510E+06    -61.5163E+03    -183.078E-03     347.928E-03    -164.850E-03     41.4999E-03    -184.157E-03     349.053E-03    -164.515E-03     33.5208E-03
             245     15.2622E-03     15.3431E-03    -2.08222E+06     89.0332E+06     92.0481E+06    -351.521E+03    -176.608E-03     341.635E-03    -165.027E-03     40.7779E-03    -177.669E-03     342.738E-03    -164.693E-03     33.1688E-03
             246     15.2612E-03     16.6736E-03    -2.49320E+06     88.5349E+06     91.9877E+06     181.313E+03    -172.997E-03     338.132E-03    -165.135E-03     37.5173E-03    -174.013E-03     339.187E-03    -164.800E-03     30.2309E-03
             247     15.2624E-03     18.0029E-03    -1.81525E+06     89.0902E+06     92.5623E+06     319.100E+03    -168.802E-03     334.017E-03    -165.215E-03     36.8678E-03    -169.804E-03     335.060E-03    -164.879E-03     29.8092E-03
             248     15.2627E-03     19.3210E-03    -2.25879E+06     89.0191E+06     92.4975E+06    -215.711E+03    -168.047E-03     333.243E-03    -165.197E-03     36.7292E-03    -169.049E-03     334.285E-03    -164.860E-03     29.6970E-03
             249     15.2632E-03     20.6482E-03    -2.45348E+06     89.3291E+06     92.9684E+06     224.606E+03    -169.091E-03     334.235E-03    -165.144E-03     35.9090E-03    -170.080E-03     335.263E-03    -164.806E-03     28.8996E-03
             250     15.2636E-03     21.9763E-03    -2.41850E+06     90.0118E+06     93.1727E+06     576.733E+03    -168.571E-03     333.697E-03    -165.127E-03     37.1550E-03    -169.575E-03     334.743E-03    -164.788E-03     30.1305E-03
             251     15.2642E-03     23.2977E-03    -2.39931E+06     90.5484E+06     93.1921E+06     662.364E+03    -168.488E-03     333.587E-03    -165.100E-03     37.0552E-03    -169.492E-03     334.634E-03    -164.762E-03     30.0337E-03
             252     15.2642E-03     24.6244E-03    -3.23184E+06     90.2448E+06     92.6011E+06     236.136E+03    -168.616E-03     333.688E-03    -165.072E-03     35.3865E-03    -169.610E-03     334.722E-03    -164.736E-03     28.3668E-03
             253     15.2648E-03     25.9460E-03    -1.59623E+06     92.2002E+06     94.3071E+06    -137.467E+03    -168.151E-03     333.200E-03    -165.050E-03     35.3129E-03    -169.151E-03     334.249E-03    -164.710E-03     28.2425E-03
             254     15.2659E-03     27.2725E-03    -1.37346E+06     92.5172E+06     94.5555E+06    -263.193E+03    -168.009E-03     333.032E-03    -165.023E-03     35.9558E-03    -169.017E-03     334.089E-03    -164.682E-03     28.8758E-03
             255     15.2651E-03     28.5976E-03    -2.99624E+06     91.3901E+06     93.4305E+06    -329.114E+03    -168.136E-03     333.146E-03    -165.010E-03     36.6714E-03    -169.157E-03     334.210E-03    -164.671E-03     29.5694E-03
             256     15.2661E-03     29.9193E-03    -2.43847E+06     92.5578E+06     94.4610E+06     76.9485E+03    -168.393E-03     333.398E-03    -165.005E-03     36.5518E-03    -169.410E-03     334.461E-03    -164.664E-03     29.4763E-03
             257     15.2648E-03     31.2483E-03    -2.28121E+06     92.8012E+06     94.3440E+06     718.054E+03    -167.320E-03     332.352E-03    -165.032E-03     37.0616E-03    -168.340E-03     333.420E-03    -164.691E-03     30.0402E-03
             258     15.2664E-03     32.5679E-03    -2.51624E+06     93.3536E+06     94.1230E+06     867.832E+03    -166.257E-03     331.311E-03    -165.053E-03     38.5470E-03    -167.292E-03     332.395E-03    -164.714E-03     31.5534E-03
             259     15.2649E-03     33.8899E-03    -2.92979E+06     94.0519E+06     93.9949E+06     252.767E+03    -166.465E-03     331.513E-03    -165.048E-03     36.7319E-03    -167.491E-03     332.590E-03    -164.710E-03     29.7232E-03
             260     15.2662E-03     35.2098E-03    -2.15823E+06     94.8741E+06     94.5589E+06    -346.046E+03    -165.689E-03     330.736E-03    -165.047E-03     35.9448E-03    -166.715E-03     331.817E-03    -164.709E-03     28.9165E-03
             261     15.2662E-03     36.5314E-03    -2.43240E+06     95.0475E+06     94.9329E+06    -347.653E+03    -165.744E-03     330.780E-03    -165.036E-03     37.1227E-03    -166.782E-03     331.872E-03    -164.696E-03     30.0889E-03
             262     15.2656E-03     37.8549E-03    -1.88470E+06     95.6398E+06     95.2230E+06     239.436E+03    -165.841E-03     330.883E-03    -165.041E-03     37.1017E-03    -166.874E-03     331.972E-03    -164.701E-03     30.0961E-03
             263     15.2664E-03     39.1731E-03    -2.46430E+06     95.0995E+06     94.4467E+06    -234.506E+03    -165.007E-03     330.060E-03    -165.054E-03     37.2671E-03    -166.042E-03     331.150E-03    -164.716E-03     30.2868E-03
             264     15.2658E-03     40.4947E-03    -2.27616E+06     94.5735E+06     94.4813E+06    -447.575E+03    -165.209E-03     330.261E-03    -165.052E-03     36.9985E-03    -166.242E-03     331.348E-03    -164.713E-03     30.0022E-03
             265     15.2660E-03     41.8135E-03    -2.32777E+06     94.6298E+06     94.6637E+06         504.781    -164.913E-03     329.973E-03    -165.060E-03     36.9201E-03    -165.947E-03     331.060E-03    -164.720E-03     29.9458E-03
             266     15.2662E-03     43.1358E-03    -3.03171E+06     93.7500E+06     94.0909E+06     137.414E+03    -164.825E-03     329.897E-03    -165.071E-03     38.1906E-03    -165.867E-03     330.987E-03    -164.732E-03     31.2389E-03
             267     15.2651E-03     44.4549E-03    -2.80785E+06     93.8884E+06     93.9331E+06     771.649E+03    -164.800E-03     329.889E-03    -165.089E-03     37.2274E-03    -165.830E-03     330.970E-03    -164.751E-03     30.3029E-03
             268     15.2660E-03     45.7726E-03    -2.16639E+06     94.1693E+06     94.0412E+06    -451.402E+03    -163.661E-03     328.759E-03    -165.098E-03     36.3521E-03    -164.691E-03     329.843E-03    -164.762E-03     29.4031E-03
             269     15.2663E-03     47.0903E-03    -1.90197E+06     94.8081E+06     94.6010E+06    -453.629E+03    -163.896E-03     328.964E-03    -165.068E-03     37.3779E-03    -164.938E-03     330.062E-03    -164.730E-03     30.3985E-03
             270     15.2663E-03     48.4122E-03    -2.83097E+06     95.8838E+06     94.7431E+06     488.074E+03    -165.214E-03     330.264E-03    -165.050E-03     37.7883E-03    -166.256E-03     331.362E-03    -164.711E-03     30.8242E-03
             271     15.2652E-03     49.7330E-03    -2.85406E+06     95.8030E+06     94.1036E+06     725.031E+03    -164.310E-03     329.393E-03    -165.083E-03     37.5734E-03    -165.347E-03     330.486E-03    -164.747E-03     30.6638E-03
             272     15.2667E-03     51.0499E-03    -2.23713E+06     96.4888E+06     94.5377E+06     35.9599E+03    -163.414E-03     328.517E-03    -165.103E-03     37.7436E-03    -164.459E-03     329.623E-03    -164.767E-03     30.8170E-03
             273     15.2649E-03     52.3669E-03    -2.57701E+06     96.2830E+06     94.3562E+06    -103.692E+03    -163.722E-03     328.813E-03    -165.090E-03     36.8832E-03    -164.758E-03     329.908E-03    -164.754E-03     29.9668E-03
             274     15.2673E-03     53.6873E-03    -2.32596E+06     96.7029E+06     94.7465E+06     155.760E+03    -163.886E-03     328.965E-03    -165.078E-03     37.6033E-03    -164.928E-03     330.067E-03    -164.741E-03     30.6771E-03
             275     15.2649E-03     55.0053E-03    -2.22440E+06     96.9608E+06     94.7789E+06    -190.970E+03    -164.267E-03     329.349E-03    -165.082E-03     36.7590E-03    -165.303E-03     330.447E-03    -164.745E-03     29.8117E-03
             276     15.2665E-03     56.3242E-03    -2.78252E+06     96.4594E+06     94.2292E+06    -216.465E+03    -163.541E-03     328.633E-03    -165.092E-03     36.6082E-03    -164.584E-03     329.735E-03    -164.757E-03     29.6563E-03
             277     15.2661E-03     57.6417E-03    -1.82026E+06     97.6311E+06     95.4010E+06    -598.054E+03    -163.528E-03     328.607E-03    -165.080E-03     37.1449E-03    -164.572E-03     329.715E-03    -164.742E-03     30.1938E-03
             278     15.2662E-03     58.9609E-03    -2.30980E+06     97.3236E+06     94.8818E+06     141.685E+03    -163.729E-03     328.801E-03    -165.072E-03     37.0190E-03    -164.768E-03     329.902E-03    -164.735E-03     30.0990E-03
             279     15.2664E-03     60.2802E-03    -3.30018E+06     96.6113E+06     94.0381E+06     172.817E+03    -164.677E-03     329.743E-03    -165.066E-03     38.9917E-03    -165.735E-03     330.860E-03    -164.731E-03     32.0163E-03
             280     15.2647E-03     61.6018E-03    -3.12055E+06     96.8500E+06     94.0426E+06     631.438E+03    -164.580E-03     329.669E-03    -165.089E-03     37.5192E-03    -165.621E-03     330.770E-03    -164.755E-03     30.5935E-03
             281     15.2666E-03     62.9185E-03    -2.20281E+06     97.6827E+06     94.9713E+06     97.0535E+03    -162.794E-03     327.918E-03    -165.124E-03     38.2279E-03    -163.842E-03     329.030E-03    -164.788E-03     31.3411E-03
             282     15.2653E-03     64.2354E-03    -2.55754E+06     97.5407E+06     94.9818E+06    -255.427E+03    -163.359E-03     328.463E-03    -165.103E-03     37.7723E-03    -164.406E-03     329.571E-03    -164.766E-03     30.8617E-03
             283     15.2665E-03     65.5530E-03    -1.47538E+06     98.8241E+06     95.9816E+06     268.739E+03    -163.497E-03     328.590E-03    -165.094E-03     36.5742E-03    -164.531E-03     329.692E-03    -164.755E-03     29.6707E-03
             284     15.2658E-03     66.8726E-03    -2.37898E+06     98.1087E+06     95.3076E+06    -278.600E+03    -163.413E-03     328.501E-03    -165.088E-03     37.7261E-03    -164.463E-03     329.614E-03    -164.750E-03     30.7887E-03
             285     15.2664E-03     68.1895E-03    -2.68470E+06     98.0339E+06     95.4111E+06     18.0379E+03    -164.012E-03     329.091E-03    -165.078E-03     37.3883E-03    -165.057E-03     330.197E-03    -164.739E-03     30.4592E-03
             286     15.2657E-03     69.5104E-03    -2.50685E+06     98.3220E+06     95.3716E+06    -142.084E+03    -163.790E-03     328.880E-03    -165.090E-03     36.8624E-03    -164.831E-03     329.985E-03    -164.752E-03     29.9343E-03
             287     15.2661E-03     70.8261E-03    -2.72467E+06     98.1696E+06     95.1285E+06    -265.939E+03    -163.347E-03     328.439E-03    -165.092E-03     36.8964E-03    -164.397E-03     329.552E-03    -164.755E-03     29.9413E-03
             288     15.2665E-03     72.1451E-03    -1.65108E+06     99.5035E+06     96.5341E+06    -110.523E+03    -163.986E-03     329.063E-03    -165.077E-03     37.7061E-03    -165.034E-03     330.179E-03    -164.736E-03     30.7633E-03
             289     15.2655E-03     73.4671E-03    -2.94406E+06     98.3796E+06     95.2333E+06     383.301E+03    -164.289E-03     329.368E-03    -165.079E-03     38.1232E-03    -165.336E-03     330.478E-03    -164.741E-03     31.2085E-03
             290     15.2663E-03     74.7837E-03    -2.31990E+06     99.1760E+06     95.7206E+06     665.759E+03    -163.485E-03     328.593E-03    -165.108E-03     37.6163E-03    -164.529E-03     329.703E-03    -164.770E-03     30.7309E-03
             291     15.2652E-03     76.1016E-03    -2.52073E+06     98.9929E+06     95.3288E+06    -128.246E+03    -163.250E-03     328.361E-03    -165.111E-03     36.9141E-03    -164.292E-03     329.469E-03    -164.774E-03     30.0081E-03
             292     762.626E-06     76.3106E-03    -140.034E+06    -319.294E+06    -137.024E+06    -55.9773E+03    -165.163E-03     330.607E-03    -165.444E-03     19.3174E-03    -165.236E-03     329.447E-03    -165.463E-03     18.2493E-03
             293     1.52601E-03     76.3424E-03    -135.727E+06    -309.724E+06    -124.355E+06    -130.024E+03    -165.376E-03     330.654E-03    -165.277E-03     34.4200E-03    -165.534E-03     329.591E-03    -165.253E-03     32.4488E-03
             294     2.28896E-03     76.3950E-03    -128.677E+06    -288.598E+06    -107.534E+06    -71.4584E+03    -165.775E-03     331.070E-03    -165.295E-03     50.6368E-03    -166.080E-03     330.205E-03    -165.227E-03     47.6671E-03
             295     3.05144E-03     76.4674E-03    -121.467E+06    -265.346E+06    -88.5952E+06     100.686E+03    -166.064E-03     331.405E-03    -165.341E-03     66.3349E-03    -166.576E-03     330.801E-03    -165.223E-03     62.3196E-03
             296     3.81473E-03     76.5584E-03    -113.029E+06    -243.845E+06    -67.9686E+06     49.3281E+03    -166.362E-03     331.739E-03    -165.377E-03     81.5727E-03    -167.138E-03     331.445E-03    -165.199E-03     76.4505E-03
             297     4.57808E-03     76.6669E-03    -103.804E+06    -217.041E+06    -49.3671E+06     207.075E+03    -166.660E-03     332.036E-03    -165.376E-03     95.9541E-03    -167.762E-03     332.142E-03    -165.158E-03     89.6800E-03
             298     5.34100E-03     76.7924E-03    -94.7544E+06    -187.434E+06    -32.5467E+06     228.379E+03    -166.995E-03     332.349E-03    -165.354E-03     109.357E-03    -168.489E-03     332.936E-03    -165.108E-03     101.896E-03
             299     6.10450E-03     76.9325E-03    -86.1462E+06    -158.596E+06    -17.3863E+06    -3.73120E+03    -167.473E-03     332.808E-03    -165.335E-03     121.739E-03    -169.421E-03     333.938E-03    -165.067E-03     113.053E-03
             300     6.86783E-03     77.0877E-03    -77.6228E+06    -126.424E+06    -2.51096E+06     172.123E+03    -167.788E-03     333.112E-03    -165.324E-03     132.556E-03    -170.240E-03     334.847E-03    -165.040E-03     122.679E-03
             301     7.63078E-03     77.2537E-03    -69.3013E+06    -90.9051E+06     12.5658E+06     262.394E+03    -167.911E-03     333.221E-03    -165.309E-03     142.033E-03    -170.902E-03     335.606E-03    -165.014E-03     131.039E-03
             302     8.39432E-03     77.4310E-03    -61.0939E+06    -54.7569E+06     26.9702E+06     153.565E+03    -167.953E-03     333.242E-03    -165.289E-03     149.323E-03    -171.462E-03     336.262E-03    -164.986E-03     137.351E-03
             303     9.15775E-03     77.6132E-03    -52.9476E+06    -12.2574E+06     41.7491E+06     197.105E+03    -167.775E-03     333.035E-03    -165.261E-03     153.453E-03    -171.730E-03     336.638E-03    -164.957E-03     140.733E-03
             304     9.92068E-03     77.8003E-03    -45.0969E+06     31.5459E+06     55.0706E+06     222.244E+03    -167.360E-03     332.581E-03    -165.221E-03     154.009E-03    -171.622E-03     336.636E-03    -164.926E-03     140.823E-03
             305     10.6851E-03     77.9826E-03    -37.5965E+06     63.2797E+06     64.1140E+06     387.775E+03    -166.727E-03     331.900E-03    -165.173E-03     150.129E-03    -171.078E-03     336.156E-03    -164.890E-03     136.788E-03
             306     11.4479E-03     78.1582E-03    -30.5998E+06     78.5414E+06     72.0549E+06     467.160E+03    -166.115E-03     331.261E-03    -165.145E-03     141.908E-03    -170.325E-03     335.432E-03    -164.855E-03     128.691E-03
             307     12.2122E-03     78.3197E-03    -23.9090E+06     85.5069E+06     83.7318E+06     485.551E+03    -165.605E-03     330.763E-03    -165.158E-03     130.922E-03    -169.530E-03     334.663E-03    -164.829E-03     117.993E-03
             308     12.9748E-03     78.4671E-03    -17.5500E+06     90.7823E+06     94.0819E+06     278.302E+03    -164.863E-03     330.036E-03    -165.173E-03     114.908E-03    -168.280E-03     333.440E-03    -164.809E-03     102.645E-03
             309     13.7381E-03     78.5871E-03    -11.2553E+06     96.8493E+06     98.6340E+06    -136.478E+03    -163.997E-03     329.148E-03    -165.151E-03     101.141E-03    -167.014E-03     332.182E-03    -164.781E-03     89.3763E-03
             310     14.5040E-03     78.6973E-03    -4.90629E+06     100.549E+06     98.1491E+06    -401.415E+03    -163.727E-03     328.830E-03    -165.103E-03     67.2984E-03    -165.734E-03     330.892E-03    -164.751E-03     57.9305E-03
             311     762.897E-06     77.6277E-03    -140.114E+06    -319.355E+06    -136.648E+06     365.588E+03    -165.673E-03     330.664E-03    -164.991E-03     18.8640E-03    -165.747E-03     329.503E-03    -165.008E-03     17.8130E-03
             312     1.52577E-03     77.6607E-03    -135.300E+06    -309.090E+06    -123.919E+06    -13.9200E+03    -165.542E-03     330.877E-03    -165.335E-03     34.4691E-03    -165.700E-03     329.817E-03    -165.310E-03     32.4862E-03
             313     2.28837E-03     77.7135E-03    -129.250E+06    -288.866E+06    -108.026E+06     46.2955E+03    -165.713E-03     331.069E-03    -165.356E-03     50.7535E-03    -166.020E-03     330.205E-03    -165.290E-03     47.7860E-03
             314     3.05174E-03     77.7856E-03    -121.511E+06    -265.218E+06    -88.6972E+06     73.9058E+03    -165.927E-03     331.289E-03    -165.361E-03     66.5566E-03    -166.442E-03     330.687E-03    -165.244E-03     62.5392E-03
             315     3.81479E-03     77.8762E-03    -112.936E+06    -243.535E+06    -67.6336E+06     16.1485E+03    -166.251E-03     331.619E-03    -165.367E-03     81.7394E-03    -167.028E-03     331.326E-03    -165.189E-03     76.6174E-03
             316     4.57769E-03     77.9852E-03    -103.800E+06    -217.436E+06    -49.3448E+06    -5.92757E+03    -166.638E-03     331.993E-03    -165.355E-03     95.9787E-03    -167.739E-03     332.097E-03    -165.136E-03     89.7049E-03
             317     5.34152E-03     78.1097E-03    -94.7757E+06    -187.468E+06    -32.9186E+06     216.865E+03    -167.150E-03     332.493E-03    -165.343E-03     109.276E-03    -168.643E-03     333.080E-03    -165.098E-03     101.805E-03
             318     6.10452E-03     78.2514E-03    -86.1677E+06    -158.243E+06    -17.4075E+06     126.220E+03    -167.540E-03     332.882E-03    -165.342E-03     121.487E-03    -169.485E-03     334.010E-03    -165.075E-03     112.802E-03
             319     6.86737E-03     78.4057E-03    -77.6593E+06    -126.480E+06    -2.50333E+06    -12.9221E+03    -167.731E-03     333.064E-03    -165.333E-03     132.480E-03    -170.183E-03     334.798E-03    -165.049E-03     122.603E-03
             320     7.63100E-03     78.5722E-03    -69.2276E+06    -90.9427E+06     12.4039E+06    -32.7248E+03    -167.922E-03     333.236E-03    -165.314E-03     142.080E-03    -170.912E-03     335.622E-03    -165.020E-03     131.081E-03
             321     8.39429E-03     78.7489E-03    -61.0658E+06    -54.7128E+06     26.9193E+06     87.5288E+03    -167.956E-03     333.250E-03    -165.294E-03     149.319E-03    -171.465E-03     336.270E-03    -164.991E-03     137.348E-03
             322     9.15729E-03     78.9325E-03    -53.2206E+06    -12.0553E+06     41.6751E+06     216.199E+03    -167.744E-03     333.007E-03    -165.264E-03     153.666E-03    -171.704E-03     336.615E-03    -164.961E-03     140.947E-03
             323     9.92136E-03     79.1178E-03    -45.4967E+06     31.4931E+06     54.8988E+06     209.475E+03    -167.288E-03     332.507E-03    -165.219E-03     154.191E-03    -171.553E-03     336.563E-03    -164.924E-03     141.015E-03
             324     10.6843E-03     79.3015E-03    -37.9975E+06     63.0166E+06     63.7057E+06     236.469E+03    -166.732E-03     331.899E-03    -165.167E-03     150.234E-03    -171.085E-03     336.156E-03    -164.885E-03     136.891E-03
             325     11.4486E-03     79.4760E-03    -30.7831E+06     78.4883E+06     71.7482E+06     364.535E+03    -166.168E-03     331.308E-03    -165.140E-03     142.204E-03    -170.385E-03     335.487E-03    -164.851E-03     128.973E-03
             326     12.2113E-03     79.6387E-03    -23.6884E+06     85.8206E+06     83.8741E+06     286.432E+03    -165.468E-03     330.618E-03    -165.151E-03     131.155E-03    -169.394E-03     334.522E-03    -164.821E-03     118.235E-03
             327     12.9759E-03     79.7850E-03    -16.6558E+06     91.1599E+06     94.6791E+06     91.4715E+03    -164.547E-03     329.701E-03    -165.154E-03     114.470E-03    -167.953E-03     333.098E-03    -164.789E-03     102.229E-03
             328     13.7406E-03     79.9052E-03    -10.2439E+06     97.5957E+06     99.5526E+06     139.952E+03    -164.208E-03     329.340E-03    -165.131E-03     100.756E-03    -167.221E-03     332.373E-03    -164.760E-03     88.9746E-03
             329     14.5011E-03     80.0171E-03    -5.14578E+06     100.754E+06     98.1443E+06    -55.5457E+03    -164.132E-03     329.231E-03    -165.099E-03     67.5777E-03    -166.145E-03     331.299E-03    -164.747E-03     58.1831E-03
             330     763.063E-06     78.9471E-03    -139.444E+06    -319.266E+06    -137.411E+06    -111.167E+03    -165.550E-03     330.653E-03    -165.104E-03     18.8933E-03    -165.620E-03     329.494E-03    -165.125E-03     17.8283E-03
             331     1.52536E-03     78.9788E-03    -135.412E+06    -309.264E+06    -124.005E+06     167.891E+03    -165.549E-03     330.880E-03    -165.330E-03     34.7297E-03    -165.708E-03     329.819E-03    -165.306E-03     32.7522E-03
             332     2.28878E-03     79.0316E-03    -129.169E+06    -288.599E+06    -107.461E+06     148.306E+03    -165.614E-03     330.955E-03    -165.341E-03     50.9528E-03    -165.923E-03     330.093E-03    -165.273E-03     47.9825E-03
             333     3.05171E-03     79.1034E-03    -121.436E+06    -265.130E+06    -88.5288E+06        -880.164    -165.902E-03     331.233E-03    -165.331E-03     66.6289E-03    -166.416E-03     330.632E-03    -165.213E-03     62.6088E-03
             334     3.81486E-03     79.1945E-03    -112.828E+06    -243.454E+06    -67.8405E+06     85.9626E+03    -166.291E-03     331.633E-03    -165.342E-03     81.6101E-03    -167.066E-03     331.340E-03    -165.165E-03     76.4921E-03
             335     4.57856E-03     79.3026E-03    -103.995E+06    -217.131E+06    -49.4383E+06     45.1783E+03    -166.790E-03     332.141E-03    -165.351E-03     95.8135E-03    -167.891E-03     332.246E-03    -165.133E-03     89.5354E-03
             336     5.34094E-03     79.4287E-03    -95.0054E+06    -187.913E+06    -33.2748E+06    -83.2379E+03    -167.257E-03     332.617E-03    -165.359E-03     109.253E-03    -168.751E-03     333.203E-03    -165.116E-03     101.771E-03
             337     6.10384E-03     79.5694E-03    -86.0051E+06    -157.972E+06    -17.4297E+06     192.556E+03    -167.452E-03     332.810E-03    -165.358E-03     121.536E-03    -169.398E-03     333.941E-03    -165.092E-03     112.856E-03
             338     6.86780E-03     79.7235E-03    -77.5129E+06    -126.068E+06    -2.29776E+06     65.6512E+03    -167.690E-03     333.030E-03    -165.340E-03     132.679E-03    -170.144E-03     334.768E-03    -165.056E-03     122.803E-03
             339     7.63079E-03     79.8908E-03    -69.4126E+06    -90.9971E+06     12.3198E+06    -40.5727E+03    -167.916E-03     333.233E-03    -165.316E-03     142.212E-03    -170.908E-03     335.619E-03    -165.022E-03     131.215E-03
             340     8.39393E-03     80.0671E-03    -61.4924E+06    -54.5928E+06     26.8111E+06     97.0666E+03    -167.887E-03     333.178E-03    -165.291E-03     149.495E-03    -171.399E-03     336.201E-03    -164.989E-03     137.531E-03
             341     9.15804E-03     80.2504E-03    -53.4086E+06    -12.2594E+06     41.5296E+06     113.166E+03    -167.664E-03     332.919E-03    -165.254E-03     153.749E-03    -171.625E-03     336.525E-03    -164.951E-03     141.039E-03
             342     9.92093E-03     80.4365E-03    -45.3496E+06     31.4726E+06     54.8535E+06     162.478E+03    -167.263E-03     332.469E-03    -165.205E-03     154.174E-03    -171.527E-03     336.524E-03    -164.911E-03     141.000E-03
             343     10.6852E-03     80.6193E-03    -37.7871E+06     63.1868E+06     63.9140E+06     156.485E+03    -166.808E-03     331.965E-03    -165.157E-03     150.398E-03    -171.166E-03     336.227E-03    -164.874E-03     137.043E-03
             344     11.4481E-03     80.7949E-03    -30.6108E+06     78.7810E+06     72.0019E+06    -29.3617E+03    -166.190E-03     331.324E-03    -165.134E-03     142.122E-03    -170.410E-03     335.506E-03    -164.844E-03     128.873E-03
             345     12.2125E-03     80.9568E-03    -23.7698E+06     85.8114E+06     84.0124E+06    -167.909E+03    -165.370E-03     330.514E-03    -165.144E-03     130.887E-03    -169.296E-03     334.416E-03    -164.814E-03     117.962E-03
             346     12.9754E-03     81.1033E-03    -17.3063E+06     91.2031E+06     94.8122E+06    -15.7292E+03    -164.756E-03     329.910E-03    -165.153E-03     114.206E-03    -168.165E-03     333.305E-03    -164.786E-03     101.947E-03
             347     13.7380E-03     81.2228E-03    -11.0008E+06     97.5625E+06     99.3065E+06     92.6108E+03    -164.211E-03     329.347E-03    -165.136E-03     100.576E-03    -167.225E-03     332.380E-03    -164.765E-03     88.7877E-03
             348     14.5042E-03     81.3371E-03    -5.25988E+06     100.842E+06     98.1276E+06     221.990E+03    -164.039E-03     329.141E-03    -165.102E-03     67.5918E-03    -166.047E-03     331.203E-03    -164.750E-03     58.2369E-03
             349     762.661E-06     80.2644E-03    -140.693E+06    -319.213E+06    -136.485E+06     62.5537E+03    -165.147E-03     330.586E-03    -165.439E-03     18.9274E-03    -165.224E-03     329.427E-03    -165.454E-03     17.8596E-03
             350     1.52626E-03     80.2975E-03    -135.821E+06    -309.407E+06    -124.425E+06     5.13004E+03    -165.387E-03     330.658E-03    -165.271E-03     34.6270E-03    -165.546E-03     329.597E-03    -165.247E-03     32.6538E-03
             351     2.28875E-03     80.3493E-03    -129.145E+06    -288.548E+06    -107.800E+06     31.6158E+03    -165.687E-03     330.966E-03    -165.279E-03     50.7496E-03    -165.995E-03     330.103E-03    -165.212E-03     47.7785E-03
             352     3.05194E-03     80.4216E-03    -121.472E+06    -265.090E+06    -88.7569E+06     145.774E+03    -165.987E-03     331.294E-03    -165.307E-03     66.5032E-03    -166.501E-03     330.692E-03    -165.190E-03     62.4880E-03
             353     3.81503E-03     80.5122E-03    -112.898E+06    -243.519E+06    -68.0017E+06     132.298E+03    -166.419E-03     331.764E-03    -165.346E-03     81.4857E-03    -167.193E-03     331.470E-03    -165.169E-03     76.3651E-03
             354     4.57742E-03     80.6212E-03    -103.834E+06    -216.868E+06    -49.4448E+06     154.085E+03    -166.834E-03     332.203E-03    -165.369E-03     95.9798E-03    -167.937E-03     332.311E-03    -165.151E-03     89.6984E-03
             355     5.34096E-03     80.7470E-03    -94.9658E+06    -187.366E+06    -32.8499E+06    -6.82978E+03    -167.090E-03     332.456E-03    -165.367E-03     109.479E-03    -168.585E-03     333.045E-03    -165.122E-03     102.010E-03
             356     6.10472E-03     80.8872E-03    -86.3220E+06    -158.260E+06    -17.6250E+06    -21.9486E+03    -167.426E-03     332.776E-03    -165.349E-03     121.728E-03    -169.375E-03     333.907E-03    -165.083E-03     113.047E-03
             357     6.86734E-03     81.0420E-03    -77.9503E+06    -126.149E+06    -2.58610E+06     122.384E+03    -167.768E-03     333.100E-03    -165.332E-03     132.862E-03    -170.226E-03     334.842E-03    -165.049E-03     122.980E-03
             358     7.63087E-03     81.2088E-03    -69.6997E+06    -90.6150E+06     12.4972E+06     138.202E+03    -167.860E-03     333.171E-03    -165.312E-03     142.248E-03    -170.854E-03     335.560E-03    -165.017E-03     131.257E-03
             359     8.39472E-03     81.3854E-03    -61.4362E+06    -54.3984E+06     26.9830E+06     101.775E+03    -167.871E-03     333.154E-03    -165.284E-03     149.445E-03    -171.383E-03     336.178E-03    -164.981E-03     137.480E-03
             360     9.15738E-03     81.5688E-03    -53.4086E+06    -12.1997E+06     41.5481E+06    -123.819E+03    -167.633E-03     332.879E-03    -165.246E-03     153.590E-03    -171.593E-03     336.486E-03    -164.943E-03     140.875E-03
             361     9.92169E-03     81.7543E-03    -45.7373E+06     31.1838E+06     54.6051E+06    -18.2296E+03    -167.277E-03     332.474E-03    -165.198E-03     154.145E-03    -171.543E-03     336.530E-03    -164.903E-03     140.962E-03
             362     10.6846E-03     81.9379E-03    -38.2026E+06     63.5999E+06     63.9851E+06    -55.7778E+03    -166.881E-03     332.035E-03    -165.154E-03     150.329E-03    -171.243E-03     336.301E-03    -164.871E-03     136.958E-03
             363     11.4486E-03     82.1136E-03    -31.0715E+06     79.1738E+06     72.2344E+06    -349.785E+03    -166.199E-03     331.335E-03    -165.136E-03     141.925E-03    -170.421E-03     335.518E-03    -164.845E-03     128.669E-03
             364     12.2114E-03     82.2746E-03    -24.3602E+06     85.3431E+06     83.7534E+06    -215.844E+03    -165.462E-03     330.611E-03    -165.149E-03     130.595E-03    -169.387E-03     334.510E-03    -164.819E-03     117.658E-03
             365     12.9760E-03     82.4217E-03    -17.5331E+06     91.2274E+06     94.4393E+06     10.2480E+03    -164.872E-03     330.035E-03    -165.163E-03     114.402E-03    -168.284E-03     333.434E-03    -164.798E-03     102.134E-03
             366     13.7395E-03     82.5431E-03    -10.9636E+06     97.8192E+06     99.1942E+06    -68.8589E+03    -164.462E-03     329.618E-03    -165.156E-03     100.205E-03    -167.478E-03     332.655E-03    -164.786E-03     88.3811E-03
             367     14.5015E-03     82.6519E-03    -5.10150E+06     100.932E+06     98.0526E+06     203.302E+03    -163.950E-03     329.077E-03    -165.127E-03     67.1977E-03    -165.959E-03     331.142E-03    -164.776E-03     57.8152E-03
             368     762.911E-06     81.5823E-03    -140.153E+06    -318.986E+06    -136.936E+06     209.282E+03    -165.326E-03     330.580E-03    -165.253E-03     18.8091E-03    -165.401E-03     329.422E-03    -165.272E-03     17.7446E-03
             369     1.52557E-03     81.6150E-03    -135.511E+06    -309.148E+06    -123.885E+06    -109.484E+03    -165.408E-03     330.683E-03    -165.276E-03     34.5000E-03    -165.566E-03     329.622E-03    -165.250E-03     32.5264E-03
             370     2.28898E-03     81.6677E-03    -128.939E+06    -288.713E+06    -107.782E+06    -35.8729E+03    -165.666E-03     330.949E-03    -165.283E-03     50.6043E-03    -165.971E-03     330.084E-03    -165.217E-03     47.6385E-03
             371     3.05173E-03     81.7395E-03    -121.339E+06    -265.288E+06    -88.5768E+06     172.917E+03    -166.012E-03     331.322E-03    -165.311E-03     66.4806E-03    -166.524E-03     330.719E-03    -165.193E-03     62.4676E-03
             372     3.81465E-03     81.8307E-03    -112.756E+06    -243.338E+06    -67.8772E+06     229.173E+03    -166.389E-03     331.735E-03    -165.346E-03     81.8094E-03    -167.165E-03     331.444E-03    -165.170E-03     76.6878E-03
             373     4.57824E-03     81.9395E-03    -103.713E+06    -216.902E+06    -49.3356E+06     147.057E+03    -166.754E-03     332.112E-03    -165.359E-03     96.2034E-03    -167.857E-03     332.221E-03    -165.140E-03     89.9258E-03
             374     5.34132E-03     82.0647E-03    -94.6703E+06    -187.093E+06    -32.5644E+06     332.794E+03    -167.076E-03     332.427E-03    -165.350E-03     109.379E-03    -168.570E-03     333.015E-03    -165.105E-03     101.916E-03
             375     6.10416E-03     82.2055E-03    -86.1827E+06    -158.009E+06    -17.2327E+06     140.471E+03    -167.465E-03     332.803E-03    -165.338E-03     121.728E-03    -169.415E-03     333.936E-03    -165.070E-03     113.043E-03
             376     6.86788E-03     82.3604E-03    -77.6213E+06    -126.296E+06    -2.40491E+06     15.0685E+03    -167.769E-03     333.093E-03    -165.324E-03     132.803E-03    -170.225E-03     334.832E-03    -165.040E-03     122.919E-03
             377     7.63103E-03     82.5270E-03    -69.2181E+06    -90.3798E+06     12.7044E+06     240.607E+03    -167.917E-03     333.224E-03    -165.307E-03     142.141E-03    -170.910E-03     335.614E-03    -165.012E-03     131.143E-03
             378     8.39390E-03     82.7036E-03    -61.2742E+06    -54.3497E+06     27.0572E+06     132.632E+03    -167.830E-03     333.112E-03    -165.281E-03     149.380E-03    -171.344E-03     336.136E-03    -164.979E-03     137.413E-03
             379     9.15812E-03     82.8871E-03    -53.5283E+06    -12.0073E+06     41.5857E+06     222.262E+03    -167.642E-03     332.884E-03    -165.243E-03     153.598E-03    -171.605E-03     336.494E-03    -164.940E-03     140.882E-03
             380     9.92110E-03     83.0721E-03    -45.8438E+06     31.6797E+06     54.8643E+06     46.5931E+03    -167.399E-03     332.600E-03    -165.200E-03     154.197E-03    -171.670E-03     336.661E-03    -164.905E-03     140.999E-03
             381     10.6849E-03     83.2572E-03    -38.2698E+06     63.9539E+06     64.0963E+06    -281.787E+03    -166.837E-03     331.995E-03    -165.159E-03     150.363E-03    -171.201E-03     336.264E-03    -164.875E-03     136.993E-03
             382     11.4481E-03     83.4309E-03    -31.1518E+06     79.1864E+06      72.146E+06    -125.589E+03    -166.198E-03     331.336E-03    -165.138E-03     142.016E-03    -170.420E-03     335.520E-03    -164.847E-03     128.767E-03
             383     12.2123E-03     83.5943E-03    -24.3113E+06     85.5139E+06     83.7441E+06    -160.943E+03    -165.648E-03     330.804E-03    -165.156E-03     130.791E-03    -169.579E-03     334.710E-03    -164.826E-03     117.837E-03
             384     12.9745E-03     83.7393E-03    -17.7268E+06     91.2737E+06     94.2469E+06    -177.810E+03    -164.878E-03     330.053E-03    -165.175E-03     114.508E-03    -168.295E-03     333.458E-03    -164.810E-03     102.229E-03
             385     13.7383E-03     83.8617E-03    -11.4542E+06     97.5918E+06     98.7126E+06    -59.5977E+03    -164.336E-03     329.497E-03    -165.162E-03     101.115E-03    -167.360E-03     332.541E-03    -164.793E-03     89.3121E-03
             386     14.5014E-03     83.9735E-03    -5.15559E+06     100.919E+06     97.9326E+06    -3.10168E+03    -163.773E-03     328.896E-03    -165.123E-03     68.2956E-03    -165.795E-03     330.974E-03    -164.772E-03     58.9046E-03
             387     763.014E-06     82.9012E-03    -139.682E+06    -318.769E+06    -136.796E+06    -546.415E+03    -165.519E-03     330.492E-03    -164.974E-03     19.0086E-03    -165.591E-03     329.334E-03    -164.993E-03     17.9352E-03
             388     1.52588E-03     82.9330E-03    -135.365E+06    -309.027E+06    -123.856E+06     99.0635E+03    -165.482E-03     330.735E-03    -165.253E-03     34.6108E-03    -165.640E-03     329.675E-03    -165.228E-03     32.6374E-03
             389     2.28861E-03     82.9855E-03    -129.171E+06    -288.779E+06    -107.703E+06     137.808E+03    -165.633E-03     330.912E-03    -165.279E-03     50.9247E-03    -165.941E-03     330.048E-03    -165.212E-03     47.9603E-03
             390     3.05186E-03     83.0578E-03    -121.438E+06    -265.268E+06    -88.4339E+06     22.2123E+03    -165.996E-03     331.296E-03    -165.299E-03     66.6844E-03    -166.511E-03     330.694E-03    -165.181E-03     62.6666E-03
             391     3.81516E-03     83.1485E-03    -112.735E+06    -243.454E+06    -67.8761E+06     40.3365E+03    -166.386E-03     331.721E-03    -165.335E-03     81.7110E-03    -167.162E-03     331.429E-03    -165.158E-03     76.5878E-03
             392     4.57796E-03     83.2576E-03    -103.671E+06    -216.788E+06    -49.3184E+06     197.531E+03    -166.735E-03     332.084E-03    -165.349E-03     95.8866E-03    -167.836E-03     332.190E-03    -165.131E-03     89.6124E-03
             393     5.34106E-03     83.3830E-03    -94.7225E+06    -187.454E+06    -32.6364E+06     215.337E+03    -167.134E-03     332.481E-03    -165.347E-03     109.263E-03    -168.629E-03     333.068E-03    -165.101E-03     101.790E-03
             394     6.10466E-03     83.5235E-03    -85.7698E+06    -157.552E+06    -16.9071E+06     356.892E+03    -167.487E-03     332.827E-03    -165.340E-03     121.691E-03    -169.436E-03     333.962E-03    -165.072E-03     113.004E-03
             395     6.86750E-03     83.6786E-03    -77.4575E+06    -125.823E+06    -2.02952E+06     211.217E+03    -167.720E-03     333.046E-03    -165.326E-03     132.720E-03    -170.176E-03     334.787E-03    -165.042E-03     122.842E-03
             396     7.63086E-03     83.8452E-03    -69.3156E+06    -90.8841E+06     12.5048E+06     202.395E+03    -167.830E-03     333.132E-03    -165.301E-03     142.261E-03    -170.825E-03     335.521E-03    -165.007E-03     131.267E-03
             397     8.39458E-03     84.0222E-03    -61.2418E+06    -54.2219E+06     27.0926E+06     417.787E+03    -167.841E-03     333.112E-03    -165.272E-03     149.489E-03    -171.356E-03     336.139E-03    -164.969E-03     137.524E-03
             398     9.15773E-03     84.2042E-03    -53.2689E+06    -11.8440E+06     41.8539E+06     268.014E+03    -167.789E-03     333.029E-03    -165.240E-03     153.798E-03    -171.757E-03     336.644E-03    -164.936E-03     141.066E-03
             399     9.92130E-03     84.3923E-03    -45.1111E+06     32.4131E+06     55.3789E+06     121.405E+03    -167.411E-03     332.614E-03    -165.203E-03     154.251E-03    -171.682E-03     336.679E-03    -164.908E-03     141.052E-03
             400     10.6846E-03     84.5735E-03    -37.5675E+06     64.1568E+06     64.3840E+06     38.4774E+03    -166.806E-03     331.966E-03    -165.160E-03     150.429E-03    -171.167E-03     336.235E-03    -164.876E-03     137.070E-03
             401     11.4486E-03     84.7512E-03    -30.6620E+06     79.0075E+06     72.0331E+06     86.6418E+03    -166.211E-03     331.347E-03    -165.137E-03     142.162E-03    -170.431E-03     335.530E-03    -164.847E-03     128.919E-03
             402     12.2113E-03     84.9110E-03    -24.1403E+06     85.7692E+06     83.5608E+06     219.830E+03    -165.593E-03     330.745E-03    -165.152E-03     131.089E-03    -169.527E-03     334.655E-03    -164.824E-03     118.146E-03
             403     12.9757E-03     85.0602E-03    -17.6447E+06     91.2554E+06     94.1855E+06     114.611E+03    -164.783E-03     329.949E-03    -165.166E-03     114.836E-03    -168.201E-03     333.355E-03    -164.802E-03     102.575E-03
             404     13.7390E-03     85.1782E-03    -10.9871E+06     97.8253E+06     99.0884E+06    -164.982E+03    -163.953E-03     329.094E-03    -165.140E-03     101.369E-03    -166.973E-03     332.134E-03    -164.771E-03     89.6072E-03
             405     14.5043E-03     85.2921E-03    -5.02621E+06     101.072E+06     98.2308E+06    -374.922E+03    -163.927E-03     329.023E-03    -165.096E-03     67.6279E-03    -165.939E-03     331.091E-03    -164.744E-03     58.2624E-03
             406     762.985E-06     84.2187E-03    -139.998E+06    -318.797E+06    -136.489E+06    -220.372E+03    -165.329E-03     330.332E-03    -165.003E-03     19.1651E-03    -165.404E-03     329.174E-03    -165.020E-03     18.0980E-03
             407     1.52594E-03     84.2513E-03    -135.552E+06    -309.227E+06    -123.946E+06     40.1027E+03    -165.466E-03     330.652E-03    -165.186E-03     34.5934E-03    -165.625E-03     329.591E-03    -165.161E-03     32.6217E-03
             408     2.28911E-03     84.3033E-03    -128.994E+06    -288.578E+06    -107.488E+06     87.4102E+03    -165.740E-03     330.988E-03    -165.249E-03     50.7805E-03    -166.047E-03     330.125E-03    -165.181E-03     47.8093E-03
             409     3.05206E-03     84.3759E-03    -121.222E+06    -265.128E+06    -88.4602E+06     54.1671E+03    -166.047E-03     331.346E-03    -165.299E-03     66.5329E-03    -166.560E-03     330.744E-03    -165.181E-03     62.5124E-03
             410     3.81465E-03     84.4669E-03    -112.751E+06    -243.398E+06    -67.7099E+06     70.8664E+03    -166.395E-03     331.738E-03    -165.343E-03     81.5974E-03    -167.170E-03     331.446E-03    -165.165E-03     76.4735E-03
             411     4.57792E-03     84.5757E-03    -103.669E+06    -217.074E+06    -49.3346E+06     109.149E+03    -166.715E-03     332.070E-03    -165.355E-03     95.9855E-03    -167.817E-03     332.177E-03    -165.137E-03     89.7060E-03
             412     5.34135E-03     84.7008E-03    -94.5480E+06    -187.663E+06    -32.6847E+06     152.807E+03    -167.128E-03     332.477E-03    -165.348E-03     109.470E-03    -168.624E-03     333.066E-03    -165.103E-03     101.992E-03
             413     6.10404E-03     84.8421E-03    -85.8907E+06    -157.938E+06    -17.1974E+06     305.058E+03    -167.488E-03     332.828E-03    -165.340E-03     121.774E-03    -169.438E-03     333.962E-03    -165.072E-03     113.086E-03
             414     6.86770E-03     84.9964E-03    -77.4041E+06    -125.603E+06    -1.94353E+06     583.687E+03    -167.675E-03     332.998E-03    -165.323E-03     132.868E-03    -170.133E-03     334.741E-03    -165.038E-03     122.997E-03
             415     7.63112E-03     85.1637E-03    -69.2380E+06    -90.5897E+06     12.9034E+06     363.923E+03    -167.776E-03     333.071E-03    -165.295E-03     142.179E-03    -170.770E-03     335.460E-03    -164.999E-03     131.191E-03
             416     8.39461E-03     85.3394E-03    -60.9646E+06    -54.2381E+06     27.3109E+06     244.029E+03    -167.929E-03     333.196E-03    -165.267E-03     149.415E-03    -171.442E-03     336.221E-03    -164.963E-03     137.443E-03
             417     9.15784E-03     85.5243E-03    -52.8052E+06    -11.2901E+06     42.2583E+06     167.365E+03    -167.809E-03     333.050E-03    -165.240E-03     153.747E-03    -171.775E-03     336.665E-03    -164.936E-03     141.016E-03
             418     9.92125E-03     85.7088E-03    -45.1509E+06     32.4855E+06     55.3753E+06     5.81503E+03    -167.318E-03     332.518E-03    -165.200E-03     154.233E-03    -171.588E-03     336.583E-03    -164.905E-03     141.043E-03
             419     10.6850E-03     85.8938E-03    -37.7020E+06     63.9771E+06     64.2579E+06     236.644E+03    -166.784E-03     331.937E-03    -165.153E-03     150.590E-03    -171.147E-03     336.206E-03    -164.869E-03     137.238E-03
             420     11.4481E-03     86.0677E-03    -30.8041E+06     78.9340E+06     72.0078E+06     462.094E+03    -166.146E-03     331.272E-03    -165.126E-03     142.478E-03    -170.370E-03     335.458E-03    -164.836E-03     129.248E-03
             421     12.2124E-03     86.2315E-03    -23.8120E+06     86.1820E+06     83.7407E+06     113.706E+03    -165.463E-03     330.596E-03    -165.134E-03     131.421E-03    -169.398E-03     334.510E-03    -164.806E-03     118.491E-03
             422     12.9752E-03     86.3765E-03    -16.5627E+06     91.8099E+06     94.6318E+06    -380.632E+03    -164.702E-03     329.844E-03    -165.142E-03     114.620E-03    -168.116E-03     333.251E-03    -164.778E-03     102.350E-03
             423     13.7396E-03     86.4979E-03    -10.2138E+06     98.0624E+06     99.4196E+06    -51.5008E+03    -164.392E-03     329.521E-03    -165.129E-03     100.773E-03    -167.408E-03     332.561E-03    -164.759E-03     88.9681E-03
             424     14.5016E-03     86.6088E-03    -5.09171E+06     101.114E+06     98.0164E+06     136.096E+03    -164.170E-03     329.274E-03    -165.103E-03     67.4618E-03    -166.184E-03     331.344E-03    -164.752E-03     58.0700E-03
             425     763.044E-06     85.5364E-03    -139.762E+06    -318.569E+06    -136.720E+06     279.082E+03    -165.317E-03     330.442E-03    -165.125E-03     18.9609E-03    -165.390E-03     329.285E-03    -165.144E-03     17.9241E-03
             426     1.52614E-03     85.5690E-03    -135.206E+06    -309.208E+06    -123.648E+06    -11.0194E+03    -165.475E-03     330.709E-03    -165.234E-03     34.4656E-03    -165.633E-03     329.647E-03    -165.208E-03     32.4863E-03
             427     2.28867E-03     85.6219E-03    -128.771E+06    -288.726E+06    -107.331E+06     61.2904E+03    -165.800E-03     331.091E-03    -165.292E-03     50.5825E-03    -166.105E-03     330.226E-03    -165.223E-03     47.6082E-03
             428     3.05149E-03     85.6937E-03    -121.262E+06    -265.064E+06    -88.3357E+06     104.544E+03    -165.978E-03     331.311E-03    -165.333E-03     66.4676E-03    -166.492E-03     330.709E-03    -165.214E-03     62.4488E-03
             429     3.81501E-03     85.7852E-03    -112.500E+06    -243.250E+06    -67.4912E+06     89.9236E+03    -166.242E-03     331.591E-03    -165.348E-03     81.7230E-03    -167.018E-03     331.299E-03    -165.170E-03     76.6020E-03
             430     4.57814E-03     85.8933E-03    -103.468E+06    -217.093E+06    -49.0981E+06     57.9178E+03    -166.733E-03     332.079E-03    -165.346E-03     96.0984E-03    -167.836E-03     332.186E-03    -165.127E-03     89.8157E-03
             431     5.34103E-03     86.0194E-03    -94.6149E+06    -187.882E+06    -32.7334E+06     171.446E+03    -167.137E-03     332.479E-03    -165.341E-03     109.519E-03    -168.633E-03     333.067E-03    -165.095E-03     102.042E-03
             432     6.10476E-03     86.1600E-03    -85.9039E+06    -158.120E+06    -17.1708E+06     344.250E+03    -167.421E-03     332.751E-03    -165.330E-03     121.801E-03    -169.371E-03     333.885E-03    -165.062E-03     113.117E-03
             433     6.86770E-03     86.3148E-03    -77.3515E+06    -125.992E+06    -2.05282E+06     412.253E+03    -167.683E-03     332.994E-03    -165.311E-03     132.816E-03    -170.140E-03     334.734E-03    -165.026E-03     122.944E-03
             434     7.63111E-03     86.4813E-03    -68.7593E+06    -90.2316E+06     13.1810E+06     408.605E+03    -167.924E-03     333.215E-03    -165.291E-03     142.223E-03    -170.918E-03     335.606E-03    -164.995E-03     131.226E-03
             435     8.39419E-03     86.6584E-03    -60.7427E+06    -53.9007E+06     27.6095E+06     230.140E+03    -167.944E-03     333.215E-03    -165.271E-03     149.562E-03    -171.460E-03     336.244E-03    -164.967E-03     137.587E-03
             436     9.15777E-03     86.8418E-03    -52.9330E+06    -11.1562E+06     42.2640E+06     287.754E+03    -167.654E-03     332.891E-03    -165.237E-03     153.865E-03    -171.618E-03     336.505E-03    -164.933E-03     141.155E-03
             437     9.92132E-03     87.0279E-03    -45.2310E+06     32.6827E+06     55.4384E+06     367.243E+03    -167.275E-03     332.464E-03    -165.188E-03     154.430E-03    -171.548E-03     336.531E-03    -164.893E-03     141.250E-03
             438     10.6849E-03     87.2109E-03    -38.0267E+06     63.6798E+06     64.0791E+06     433.305E+03    -166.741E-03     331.878E-03    -165.137E-03     150.696E-03    -171.106E-03     336.148E-03    -164.854E-03     137.349E-03
             439     11.4490E-03     87.3873E-03    -30.7909E+06     79.0279E+06     72.1707E+06     242.092E+03    -166.085E-03     331.194E-03    -165.109E-03     142.452E-03    -170.311E-03     335.381E-03    -164.818E-03     129.221E-03
             440     12.2121E-03     87.5484E-03    -23.8170E+06     87.5545E+06     84.6482E+06    -237.897E+03    -165.432E-03     330.550E-03    -165.118E-03     131.245E-03    -169.370E-03     334.468E-03    -164.787E-03     118.310E-03
             441     12.9764E-03     87.6965E-03    -17.4437E+06     92.3648E+06     94.9096E+06    -506.900E+03    -165.064E-03     330.200E-03    -165.136E-03     114.497E-03    -168.485E-03     333.612E-03    -164.771E-03     102.195E-03
             442     13.7390E-03     87.8151E-03    -11.6423E+06     96.9381E+06     98.3111E+06    -132.707E+03    -164.684E-03     329.824E-03    -165.139E-03     100.762E-03    -167.708E-03     332.865E-03    -164.771E-03     88.9208E-03
             443     14.5026E-03     87.9311E-03    -5.59194E+06     100.898E+06     97.4193E+06     160.465E+03    -163.895E-03     329.009E-03    -165.114E-03     67.4531E-03    -165.907E-03     331.077E-03    -164.765E-03     58.0821E-03
             444     762.672E-06     86.8543E-03    -139.497E+06    -318.263E+06    -136.610E+06     115.483E+03    -165.540E-03     330.684E-03    -165.143E-03     18.9438E-03    -165.613E-03     329.527E-03    -165.163E-03     17.9129E-03
             445     1.52544E-03     86.8872E-03    -135.462E+06    -309.282E+06    -124.007E+06     66.1931E+03    -165.436E-03     330.755E-03    -165.320E-03     34.7642E-03    -165.595E-03     329.695E-03    -165.295E-03     32.7873E-03
             446     2.28871E-03     86.9400E-03    -129.011E+06    -288.816E+06    -107.615E+06     66.9146E+03    -165.638E-03     330.949E-03    -165.312E-03     51.0160E-03    -165.946E-03     330.086E-03    -165.244E-03     48.0403E-03
             447     3.05179E-03     87.0121E-03    -121.108E+06    -264.782E+06    -88.2672E+06     118.613E+03    -165.945E-03     331.263E-03    -165.318E-03     66.6724E-03    -166.460E-03     330.664E-03    -165.200E-03     62.6514E-03
             448     3.81486E-03     87.1023E-03    -112.493E+06    -243.383E+06    -67.4317E+06     42.5530E+03    -166.347E-03     331.689E-03    -165.342E-03     81.7002E-03    -167.122E-03     331.397E-03    -165.163E-03     76.5742E-03
             449     4.57808E-03     87.2121E-03    -103.530E+06    -217.140E+06    -49.0343E+06     197.778E+03    -166.734E-03     332.085E-03    -165.351E-03     95.9496E-03    -167.836E-03     332.191E-03    -165.132E-03     89.6704E-03
             450     5.34137E-03     87.3372E-03    -94.6570E+06    -187.544E+06    -32.4230E+06     239.445E+03    -167.060E-03     332.403E-03    -165.343E-03     109.344E-03    -168.555E-03     332.991E-03    -165.096E-03     101.874E-03
             451     6.10423E-03     87.4781E-03    -85.8329E+06    -158.263E+06    -17.0869E+06     127.741E+03    -167.392E-03     332.717E-03    -165.325E-03     121.726E-03    -169.340E-03     333.849E-03    -165.057E-03     113.043E-03
             452     6.86790E-03     87.6328E-03    -77.1583E+06    -125.935E+06    -1.96708E+06     189.774E+03    -167.690E-03     332.995E-03    -165.305E-03     132.777E-03    -170.145E-03     334.734E-03    -165.020E-03     122.905E-03
             453     7.63111E-03     87.7997E-03    -68.9950E+06    -90.4805E+06     12.9838E+06     362.500E+03    -167.876E-03     333.159E-03    -165.283E-03     142.460E-03    -170.871E-03     335.550E-03    -164.987E-03     131.470E-03
             454     8.39453E-03     87.9768E-03    -60.8650E+06    -53.9290E+06     27.5165E+06     476.188E+03    -167.871E-03     333.127E-03    -165.256E-03     149.789E-03    -171.389E-03     336.158E-03    -164.952E-03     137.825E-03
             455     9.15801E-03     88.1596E-03    -52.8763E+06    -11.2433E+06     42.2968E+06     445.139E+03    -167.640E-03     332.859E-03    -165.219E-03     153.991E-03    -171.607E-03     336.475E-03    -164.914E-03     141.281E-03
             456     9.92180E-03     88.3461E-03    -45.1445E+06     32.4826E+06     55.5375E+06     641.651E+03    -167.301E-03     332.473E-03    -165.172E-03     154.477E-03    -171.574E-03     336.540E-03    -164.876E-03     141.298E-03
             457     10.6853E-03     88.5295E-03    -37.4449E+06     64.2569E+06     64.5759E+06     468.156E+03    -166.811E-03     331.937E-03    -165.126E-03     150.476E-03    -171.175E-03     336.209E-03    -164.842E-03     137.116E-03
             458     11.4486E-03     88.7048E-03    -30.2954E+06     79.6129E+06     72.7559E+06     59.1887E+03    -166.150E-03     331.255E-03    -165.105E-03     142.204E-03    -170.374E-03     335.443E-03    -164.813E-03     128.958E-03
             459     12.2126E-03     88.8676E-03    -23.5839E+06     87.8784E+06     85.1019E+06     185.655E+03    -165.615E-03     330.738E-03    -165.123E-03     130.941E-03    -169.548E-03     334.652E-03    -164.791E-03     118.001E-03
             460     12.9755E-03     89.0137E-03    -17.1978E+06     92.3534E+06     94.7825E+06     441.561E+03    -164.994E-03     330.137E-03    -165.143E-03     114.774E-03    -168.413E-03     333.548E-03    -164.778E-03     102.499E-03
             461     13.7382E-03     89.1376E-03    -10.7800E+06     97.4508E+06     98.8363E+06    -86.6652E+03    -164.316E-03     329.449E-03    -165.133E-03     101.318E-03    -167.345E-03     332.499E-03    -164.765E-03     89.5005E-03
             462     14.5024E-03     89.2443E-03    -5.29849E+06     101.147E+06     97.7436E+06    -275.578E+03    -164.051E-03     329.153E-03    -165.102E-03     67.8322E-03    -166.071E-03     331.230E-03    -164.752E-03     58.4374E-03
             463     762.921E-06     88.1728E-03    -139.984E+06    -318.251E+06    -136.603E+06     184.241E+03    -165.374E-03     330.575E-03    -165.200E-03     18.9748E-03    -165.450E-03     329.420E-03    -165.219E-03     17.9112E-03
             464     1.52598E-03     88.2051E-03    -135.256E+06    -309.229E+06    -123.643E+06    -74.4537E+03    -165.411E-03     330.683E-03    -165.272E-03     34.9159E-03    -165.570E-03     329.623E-03    -165.246E-03     32.9358E-03
             465     2.28891E-03     88.2579E-03    -128.646E+06    -288.740E+06    -107.384E+06    -22.1694E+03    -165.626E-03     330.900E-03    -165.274E-03     50.9259E-03    -165.932E-03     330.036E-03    -165.206E-03     47.9549E-03
             466     3.05215E-03     88.3298E-03    -121.103E+06    -264.942E+06    -88.2566E+06     101.503E+03    -166.026E-03     331.324E-03    -165.298E-03     66.4637E-03    -166.539E-03     330.723E-03    -165.179E-03     62.4433E-03
             467     3.81489E-03     88.4213E-03    -112.766E+06    -243.360E+06    -67.4894E+06     344.181E+03    -166.422E-03     331.766E-03    -165.343E-03     81.6680E-03    -167.199E-03     331.474E-03    -165.165E-03     76.5433E-03
             468     4.57773E-03     88.5296E-03    -103.702E+06    -217.092E+06    -48.9275E+06     151.154E+03    -166.684E-03     332.040E-03    -165.356E-03     96.1030E-03    -167.789E-03     332.148E-03    -165.135E-03     89.8246E-03
             469     5.34105E-03     88.6554E-03    -94.4176E+06    -187.439E+06    -32.3695E+06     113.734E+03    -167.030E-03     332.368E-03    -165.339E-03     109.552E-03    -168.525E-03     332.957E-03    -165.092E-03     102.083E-03
             470     6.10472E-03     88.7961E-03    -85.5762E+06    -158.090E+06    -16.8935E+06     156.801E+03    -167.420E-03     332.740E-03    -165.320E-03     121.866E-03    -169.369E-03     333.873E-03    -165.051E-03     113.184E-03
             471     6.86769E-03     88.9510E-03    -77.1624E+06    -126.125E+06    -1.93894E+06     215.981E+03    -167.668E-03     332.967E-03    -165.300E-03     132.887E-03    -170.124E-03     334.707E-03    -165.015E-03     123.013E-03
             472     7.63122E-03     89.1177E-03    -68.8818E+06    -90.5098E+06     13.0786E+06     357.669E+03    -167.791E-03     333.064E-03    -165.273E-03     142.405E-03    -170.785E-03     335.454E-03    -164.976E-03     131.421E-03
             473     8.39488E-03     89.2947E-03    -60.7235E+06    -54.3490E+06     27.4169E+06     369.741E+03    -167.810E-03     333.051E-03    -165.241E-03     149.545E-03    -171.322E-03     336.075E-03    -164.937E-03     137.588E-03
             474     9.15827E-03     89.4782E-03    -52.7212E+06    -11.5364E+06     42.2629E+06     673.403E+03    -167.713E-03     332.920E-03    -165.207E-03     153.733E-03    -171.678E-03     336.534E-03    -164.902E-03     141.017E-03
             475     9.92153E-03     89.6639E-03    -44.7487E+06     32.7980E+06     55.8774E+06     506.188E+03    -167.363E-03     332.531E-03    -165.168E-03     154.285E-03    -171.635E-03     336.599E-03    -164.872E-03     141.093E-03
             476     10.6851E-03     89.8482E-03    -37.0873E+06     64.7340E+06     64.8891E+06     166.918E+03    -166.831E-03     331.958E-03    -165.126E-03     150.421E-03    -171.195E-03     336.231E-03    -164.842E-03     137.055E-03
             477     11.4487E-03     90.0232E-03    -29.9147E+06     80.0758E+06     72.9207E+06     291.839E+03    -166.322E-03     331.432E-03    -165.111E-03     142.249E-03    -170.547E-03     335.625E-03    -164.819E-03     128.990E-03
             478     12.2119E-03     90.1856E-03    -23.2915E+06     86.9124E+06     84.4843E+06     595.349E+03    -165.639E-03     330.771E-03    -165.132E-03     131.265E-03    -169.572E-03     334.685E-03    -164.802E-03     118.327E-03
             479     12.9751E-03     90.3340E-03    -16.5993E+06     92.5623E+06     95.0476E+06     666.407E+03    -164.703E-03     329.848E-03    -165.145E-03     114.854E-03    -168.120E-03     333.259E-03    -164.780E-03     102.605E-03
             480     13.7410E-03     90.4521E-03    -10.3238E+06     98.6338E+06     99.5511E+06     323.641E+03    -164.153E-03     329.277E-03    -165.124E-03     100.796E-03    -167.170E-03     332.319E-03    -164.754E-03     89.0145E-03
             481     14.5032E-03     90.5683E-03    -5.24629E+06     101.035E+06     97.8993E+06     20.6658E+03    -164.225E-03     329.318E-03    -165.093E-03     67.6575E-03    -166.236E-03     331.385E-03    -164.743E-03     58.2767E-03
             482     763.016E-06     89.4904E-03    -139.777E+06    -318.339E+06    -136.709E+06    -87.1931E+03    -165.224E-03     330.482E-03    -165.258E-03     18.8413E-03    -165.298E-03     329.327E-03    -165.278E-03     17.7570E-03
             483     1.52588E-03     89.5233E-03    -135.291E+06    -309.056E+06    -123.771E+06     170.147E+03    -165.490E-03     330.743E-03    -165.253E-03     34.5597E-03    -165.648E-03     329.683E-03    -165.227E-03     32.5874E-03
             484     2.28885E-03     89.5757E-03    -129.158E+06    -288.742E+06    -107.649E+06     96.7981E+03    -165.711E-03     331.004E-03    -165.293E-03     50.6614E-03    -166.018E-03     330.139E-03    -165.225E-03     47.6953E-03
             485     3.05146E-03     89.6483E-03    -121.667E+06    -265.122E+06    -88.5990E+06     184.266E+03    -165.918E-03     331.232E-03    -165.314E-03     66.5752E-03    -166.434E-03     330.631E-03    -165.196E-03     62.5585E-03
             486     3.81483E-03     89.7389E-03    -112.619E+06    -243.335E+06      -67.29E+06     45.1000E+03    -166.246E-03     331.574E-03    -165.328E-03     81.8671E-03    -167.023E-03     331.283E-03    -165.148E-03     76.7462E-03
             487     4.57834E-03     89.8480E-03    -103.257E+06    -216.794E+06    -48.7701E+06     80.5200E+03    -166.688E-03     332.013E-03    -165.324E-03     96.2136E-03    -167.791E-03     332.121E-03    -165.104E-03     89.9374E-03
             488     5.34155E-03     89.9730E-03    -94.4865E+06    -187.562E+06    -32.4914E+06     88.5945E+03    -167.127E-03     332.444E-03    -165.317E-03     109.627E-03    -168.624E-03     333.034E-03    -165.071E-03     102.150E-03
             489     6.10441E-03     90.1145E-03    -85.8537E+06    -158.138E+06    -17.0048E+06     173.073E+03    -167.423E-03     332.732E-03    -165.308E-03     121.822E-03    -169.373E-03     333.865E-03    -165.040E-03     113.137E-03
             490     6.86801E-03     90.2688E-03    -77.2946E+06    -126.199E+06    -1.93789E+06     205.216E+03    -167.687E-03     332.978E-03    -165.291E-03     132.886E-03    -170.145E-03     334.719E-03    -165.006E-03     123.007E-03
             491     7.63132E-03     90.4360E-03    -68.8952E+06    -90.8306E+06     12.8468E+06     157.829E+03    -167.867E-03     333.137E-03    -165.270E-03     142.298E-03    -170.861E-03     335.527E-03    -164.974E-03     131.300E-03
             492     8.39443E-03     90.6126E-03    -60.7834E+06    -54.3274E+06     27.4628E+06     392.200E+03    -167.855E-03     333.101E-03    -165.246E-03     149.451E-03    -171.368E-03     336.126E-03    -164.941E-03     137.487E-03
             493     9.15809E-03     90.7962E-03    -52.6142E+06    -11.7246E+06     42.2965E+06     320.995E+03    -167.728E-03     332.942E-03    -165.214E-03     153.781E-03    -171.694E-03     336.557E-03    -164.909E-03     141.055E-03
             494     9.92158E-03     90.9828E-03    -44.6439E+06     32.6912E+06     55.7192E+06     523.237E+03    -167.356E-03     332.530E-03    -165.174E-03     154.216E-03    -171.625E-03     336.596E-03    -164.878E-03     141.027E-03
             495     10.6851E-03     91.1658E-03    -37.5700E+06     65.3693E+06     64.8300E+06     664.407E+03    -166.888E-03     332.022E-03    -165.134E-03     150.482E-03    -171.254E-03     336.298E-03    -164.850E-03     137.122E-03
             496     11.4487E-03     91.3422E-03    -30.9917E+06     80.2135E+06     72.3253E+06     202.855E+03    -166.344E-03     331.463E-03    -165.119E-03     142.302E-03    -170.575E-03     335.659E-03    -164.829E-03     129.037E-03
             497     12.2118E-03     91.5048E-03    -24.1040E+06     86.1323E+06     83.8911E+06     320.977E+03    -165.541E-03     330.681E-03    -165.140E-03     130.946E-03    -169.477E-03     334.593E-03    -164.810E-03     117.999E-03
             498     12.9766E-03     91.6503E-03    -17.4188E+06     92.7956E+06     95.1021E+06     603.868E+03    -164.903E-03     330.061E-03    -165.158E-03     114.383E-03    -168.321E-03     333.471E-03    -164.792E-03     102.115E-03
             499     13.7372E-03     91.7736E-03    -11.4264E+06     98.9801E+06     99.4376E+06     215.787E+03    -164.503E-03     329.657E-03    -165.153E-03     100.155E-03    -167.521E-03     332.697E-03    -164.783E-03     88.3374E-03
             500     14.5025E-03     91.8822E-03    -5.38019E+06     101.391E+06     98.1081E+06     226.351E+03    -164.008E-03     329.136E-03    -165.127E-03     66.9973E-03    -166.017E-03     331.201E-03    -164.776E-03     57.6170E-03
             501     762.795E-06     90.8084E-03    -139.933E+06    -318.627E+06    -136.691E+06     294.772E+03    -165.397E-03     330.608E-03    -165.211E-03     18.8948E-03    -165.472E-03     329.451E-03    -165.229E-03     17.8312E-03
             502     1.52573E-03     90.8414E-03    -135.611E+06    -309.253E+06    -123.898E+06     256.919E+03    -165.449E-03     330.743E-03    -165.294E-03     34.7637E-03    -165.609E-03     329.683E-03    -165.268E-03     32.7913E-03
             503     2.28845E-03     90.8942E-03    -129.112E+06    -288.503E+06    -107.369E+06     249.518E+03    -165.582E-03     330.873E-03    -165.291E-03     50.9933E-03    -165.890E-03     330.010E-03    -165.222E-03     48.0278E-03
             504     3.05211E-03     90.9657E-03    -121.132E+06    -264.969E+06    -88.2863E+06    -44.6023E+03    -165.885E-03     331.172E-03    -165.287E-03     66.7912E-03    -166.400E-03     330.572E-03    -165.168E-03     62.7717E-03
             505     3.81528E-03     91.0571E-03    -112.322E+06    -243.178E+06    -67.4403E+06    -22.1465E+03    -166.283E-03     331.586E-03    -165.303E-03     81.6987E-03    -167.057E-03     331.294E-03    -165.125E-03     76.5778E-03
             506     4.57823E-03     91.1655E-03    -103.593E+06    -217.007E+06    -49.1091E+06     80.7188E+03    -166.710E-03     332.021E-03    -165.311E-03     95.9504E-03    -167.812E-03     332.128E-03    -165.092E-03     89.6727E-03
             507     5.34126E-03     91.2917E-03    -94.6805E+06    -187.618E+06    -32.5619E+06     218.594E+03    -167.105E-03     332.415E-03    -165.309E-03     109.471E-03    -168.602E-03     333.004E-03    -165.063E-03     101.997E-03
             508     6.10473E-03     91.4322E-03    -85.8819E+06    -158.079E+06    -16.9637E+06     153.343E+03    -167.456E-03     332.759E-03    -165.303E-03     121.759E-03    -169.407E-03     333.893E-03    -165.034E-03     113.068E-03
             509     6.86792E-03     91.5869E-03    -77.4244E+06    -126.303E+06    -2.13323E+06     41.2166E+03    -167.755E-03     333.048E-03    -165.292E-03     132.820E-03    -170.214E-03     334.789E-03    -165.007E-03     122.932E-03
             510     7.63107E-03     91.7543E-03    -69.2532E+06    -90.8303E+06     12.7201E+06     196.961E+03    -167.866E-03     333.141E-03    -165.275E-03     142.210E-03    -170.861E-03     335.531E-03    -164.979E-03     131.211E-03
             511     8.39478E-03     91.9305E-03    -61.0915E+06    -54.3196E+06     27.3064E+06     271.322E+03    -167.905E-03     333.157E-03    -165.253E-03     149.575E-03    -171.422E-03     336.186E-03    -164.949E-03     137.601E-03
             512     9.15791E-03     92.1149E-03    -53.3235E+06    -11.6643E+06     41.9313E+06     276.533E+03    -167.750E-03     332.973E-03    -165.222E-03     153.893E-03    -171.720E-03     336.590E-03    -164.918E-03     141.165E-03
             513     9.92147E-03     92.3005E-03    -45.8628E+06     31.7904E+06     54.8735E+06     557.437E+03    -167.423E-03     332.608E-03    -165.185E-03     154.182E-03    -171.697E-03     336.673E-03    -164.890E-03     140.986E-03
             514     10.6850E-03     92.4846E-03    -38.2886E+06     65.6908E+06     64.5204E+06     867.210E+03    -167.008E-03     332.160E-03    -165.151E-03     150.450E-03    -171.382E-03     336.443E-03    -164.868E-03     137.072E-03
             515     11.4480E-03     92.6609E-03    -31.1008E+06     81.1907E+06     72.7490E+06     618.608E+03    -166.275E-03     331.416E-03    -165.140E-03     142.035E-03    -170.508E-03     335.616E-03    -164.849E-03     128.775E-03
             516     12.2123E-03     92.8223E-03    -24.4733E+06     85.7963E+06     83.7723E+06     220.163E+03    -165.621E-03     330.782E-03    -165.161E-03     130.760E-03    -169.557E-03     334.693E-03    -164.831E-03     117.803E-03
             517     12.9738E-03     92.9705E-03    -17.7276E+06     92.5557E+06     94.7106E+06     360.025E+03    -165.048E-03     330.231E-03    -165.183E-03     114.735E-03    -168.474E-03     333.648E-03    -164.818E-03     102.442E-03
             518     13.7401E-03     93.0908E-03    -11.2273E+06     99.3265E+06     99.5561E+06     495.400E+03    -164.556E-03     329.737E-03    -165.182E-03     100.969E-03    -167.585E-03     332.791E-03    -164.812E-03     89.1500E-03
             519     14.5005E-03     93.2046E-03    -5.13057E+06     101.777E+06     98.3491E+06     159.202E+03    -163.601E-03     328.745E-03    -165.144E-03     67.7065E-03    -165.621E-03     330.823E-03    -164.792E-03     58.3170E-03
             520     762.954E-06     92.1269E-03    -140.088E+06    -318.751E+06    -137.097E+06    -140.091E+03    -165.299E-03     330.482E-03    -165.184E-03     19.1803E-03    -165.374E-03     329.326E-03    -165.204E-03     18.1137E-03
             521     1.52574E-03     92.1594E-03    -135.308E+06    -309.305E+06    -123.892E+06    -128.603E+03    -165.377E-03     330.606E-03    -165.228E-03     34.8038E-03    -165.536E-03     329.545E-03    -165.203E-03     32.8191E-03
             522     2.28939E-03     92.2116E-03    -128.712E+06    -288.692E+06    -107.727E+06     33.8799E+03    -165.616E-03     330.853E-03    -165.237E-03     50.8565E-03    -165.922E-03     329.989E-03    -165.170E-03     47.8866E-03
             523     3.05197E-03     92.2840E-03    -121.117E+06    -264.820E+06    -88.5900E+06     19.3754E+03    -166.010E-03     331.276E-03    -165.266E-03     66.4920E-03    -166.522E-03     330.675E-03    -165.150E-03     62.4747E-03
             524     3.81477E-03     92.3750E-03    -112.798E+06    -243.472E+06    -67.8725E+06     124.079E+03    -166.339E-03     331.647E-03    -165.309E-03     81.5714E-03    -167.114E-03     331.355E-03    -165.132E-03     76.4479E-03
             525     4.57804E-03     92.4838E-03    -103.687E+06    -216.900E+06    -49.1381E+06     337.888E+03    -166.690E-03     332.010E-03    -165.320E-03     96.1293E-03    -167.795E-03     332.120E-03    -165.101E-03     89.8494E-03
             526     5.34145E-03     92.6094E-03    -94.7263E+06    -187.515E+06    -32.4996E+06     166.509E+03    -167.099E-03     332.414E-03    -165.315E-03     109.509E-03    -168.597E-03     333.003E-03    -165.068E-03     102.035E-03
             527     6.10466E-03     92.7503E-03    -86.0309E+06    -158.232E+06    -17.2007E+06     158.731E+03    -167.524E-03     332.835E-03    -165.310E-03     121.721E-03    -169.476E-03     333.969E-03    -165.042E-03     113.026E-03
             528     6.86766E-03     92.9056E-03    -77.7711E+06    -126.120E+06    -2.28134E+06     275.410E+03    -167.761E-03     333.065E-03    -165.304E-03     132.717E-03    -170.221E-03     334.808E-03    -165.020E-03     122.831E-03
             529     7.63126E-03     93.0718E-03    -69.4792E+06    -90.7425E+06     12.6731E+06     255.078E+03    -167.863E-03     333.150E-03    -165.287E-03     142.145E-03    -170.859E-03     335.541E-03    -164.991E-03     131.147E-03
             530     8.39436E-03     93.2492E-03    -61.5698E+06    -54.5496E+06     26.8895E+06     294.795E+03    -167.930E-03     333.194E-03    -165.264E-03     149.498E-03    -171.449E-03     336.223E-03    -164.961E-03     137.519E-03
             531     9.15800E-03     93.4327E-03    -53.8698E+06    -11.8821E+06     41.5410E+06     679.145E+03    -167.815E-03     333.053E-03    -165.238E-03     153.689E-03    -171.784E-03     336.668E-03    -164.935E-03     140.962E-03
             532     9.92139E-03     93.6192E-03    -46.0619E+06     31.7030E+06     54.7954E+06     794.858E+03    -167.539E-03     332.747E-03    -165.208E-03     154.187E-03    -171.817E-03     336.815E-03    -164.913E-03     140.977E-03
             533     10.6843E-03     93.8033E-03    -38.5028E+06     65.6735E+06     64.4012E+06     536.482E+03    -166.926E-03     332.100E-03    -165.174E-03     150.465E-03    -171.301E-03     336.385E-03    -164.891E-03     137.087E-03
             534     11.4483E-03     93.9790E-03    -31.1643E+06     81.3428E+06     72.6236E+06     474.056E+03    -166.201E-03     331.356E-03    -165.155E-03     142.364E-03    -170.436E-03     335.558E-03    -164.865E-03     129.116E-03
             535     12.2108E-03     94.1414E-03    -24.1836E+06     86.0745E+06     84.0465E+06     600.876E+03    -165.574E-03     330.744E-03    -165.169E-03     131.479E-03    -169.518E-03     334.663E-03    -164.839E-03     118.536E-03
             536     12.9763E-03     94.2886E-03    -17.7935E+06     92.4733E+06     94.8551E+06     512.540E+03    -164.786E-03     329.966E-03    -165.180E-03     115.553E-03    -168.222E-03     333.392E-03    -164.814E-03     103.283E-03
             537     13.7365E-03     94.4106E-03    -10.9382E+06     99.3818E+06     99.8236E+06     394.625E+03    -163.900E-03     329.050E-03    -165.150E-03     102.121E-03    -166.937E-03     332.111E-03    -164.779E-03     90.3563E-03
             538     14.5034E-03     94.5214E-03    -4.62228E+06     102.306E+06     99.0392E+06     1.37089E+03    -163.571E-03     328.664E-03    -165.094E-03     68.1910E-03    -165.590E-03     330.743E-03    -164.740E-03     58.8378E-03
             539     763.050E-06     93.4447E-03    -139.723E+06    -318.159E+06    -136.558E+06    -312.996E+03    -165.245E-03     330.350E-03    -165.105E-03     19.1237E-03    -165.320E-03     329.195E-03    -165.123E-03     18.0536E-03
             540     1.52626E-03     93.4771E-03    -135.458E+06    -309.434E+06    -124.339E+06    -210.088E+03    -165.479E-03     330.674E-03    -165.195E-03     34.5123E-03    -165.637E-03     329.612E-03    -165.171E-03     32.5376E-03
             541     2.28855E-03     93.5296E-03    -129.104E+06    -288.829E+06    -108.110E+06    -46.8696E+03    -165.750E-03     331.008E-03    -165.258E-03     50.6414E-03    -166.056E-03     330.144E-03    -165.193E-03     47.6700E-03
             542     3.05176E-03     93.6023E-03    -121.485E+06    -264.782E+06    -88.9686E+06     76.5612E+03    -165.905E-03     331.196E-03    -165.291E-03     66.4967E-03    -166.419E-03     330.598E-03    -165.176E-03     62.4781E-03
             543     3.81514E-03     93.6928E-03    -112.965E+06    -243.487E+06    -67.8638E+06     46.4593E+03    -166.267E-03     331.578E-03    -165.311E-03     81.7625E-03    -167.045E-03     331.288E-03    -165.134E-03     76.6362E-03
             544     4.57831E-03     93.8018E-03    -103.860E+06    -217.370E+06    -49.4746E+06     145.936E+03    -166.787E-03     332.108E-03    -165.321E-03     96.1339E-03    -167.891E-03     332.216E-03    -165.103E-03     89.8480E-03
             545     5.34134E-03     93.9275E-03    -94.7817E+06    -187.530E+06    -32.7735E+06     331.533E+03    -167.204E-03     332.534E-03    -165.330E-03     109.370E-03    -168.701E-03     333.123E-03    -165.084E-03     101.893E-03
             546     6.10430E-03     94.0688E-03    -86.2712E+06    -158.194E+06    -17.2774E+06     336.839E+03    -167.483E-03     332.813E-03    -165.330E-03     121.736E-03    -169.435E-03     333.948E-03    -165.062E-03     113.045E-03
             547     6.86782E-03     94.2234E-03    -77.7672E+06    -126.174E+06    -2.31809E+06     472.704E+03    -167.736E-03     333.054E-03    -165.317E-03     132.746E-03    -170.196E-03     334.796E-03    -165.033E-03     122.863E-03
             548     7.63085E-03     94.3903E-03    -69.6569E+06    -90.7716E+06     12.4773E+06     460.765E+03    -167.978E-03     333.281E-03    -165.303E-03     142.193E-03    -170.978E-03     335.675E-03    -165.008E-03     131.184E-03
             549     8.39438E-03     94.5673E-03    -61.6151E+06    -54.6817E+06     26.8371E+06     601.271E+03    -168.043E-03     333.333E-03    -165.290E-03     149.428E-03    -171.563E-03     336.362E-03    -164.987E-03     137.443E-03
             550     9.15752E-03     94.7511E-03    -53.5604E+06    -12.3565E+06     41.4911E+06     809.167E+03    -167.831E-03     333.098E-03    -165.267E-03     153.675E-03    -171.799E-03     336.712E-03    -164.964E-03     140.945E-03
             551     9.92068E-03     94.9379E-03    -45.6803E+06     31.6221E+06     54.8106E+06     929.867E+03    -167.388E-03     332.617E-03    -165.228E-03     154.484E-03    -171.665E-03     336.685E-03    -164.934E-03     141.294E-03
             552     10.6846E-03     95.1217E-03    -38.2057E+06     66.2500E+06     64.6303E+06     778.536E+03    -166.736E-03     331.915E-03    -165.179E-03     150.723E-03    -171.109E-03     336.200E-03    -164.896E-03     137.374E-03
             553     11.4479E-03     95.2972E-03    -31.3803E+06     81.4248E+06     72.3946E+06     441.760E+03    -165.987E-03     331.130E-03    -165.143E-03     142.769E-03    -170.223E-03     335.333E-03    -164.854E-03     129.548E-03
             554     12.2127E-03     95.4601E-03    -24.5694E+06     85.6926E+06     83.4766E+06     419.580E+03    -165.396E-03     330.538E-03    -165.142E-03     132.010E-03    -169.343E-03     334.461E-03    -164.814E-03     119.085E-03
             555     12.9742E-03     95.6069E-03    -17.5333E+06     92.7174E+06     95.2259E+06     602.608E+03    -164.386E-03     329.525E-03    -165.139E-03     115.451E-03    -167.814E-03     332.943E-03    -164.772E-03     103.228E-03
             556     13.7421E-03     95.7281E-03    -11.0252E+06     100.195E+06     100.705E+06     150.107E+03    -163.659E-03     328.756E-03    -165.097E-03     101.576E-03    -166.690E-03     331.811E-03    -164.722E-03     89.8331E-03
             557     14.5041E-03     95.8384E-03    -5.47837E+06     102.696E+06     99.2628E+06    -273.962E+03    -164.473E-03     329.533E-03    -165.060E-03     67.8907E-03    -166.496E-03     331.613E-03    -164.704E-03     58.4980E-03
             558     762.883E-06     94.7620E-03    -139.605E+06    -318.092E+06    -136.763E+06     202.796E+03    -165.608E-03     330.501E-03    -164.892E-03     19.0672E-03    -165.681E-03     329.346E-03    -164.912E-03     18.0151E-03
             559     1.52565E-03     94.7954E-03    -135.736E+06    -309.266E+06    -123.810E+06     143.185E+03    -165.496E-03     330.757E-03    -165.260E-03     34.7311E-03    -165.656E-03     329.696E-03    -165.234E-03     32.7634E-03
             560     2.28883E-03     94.8482E-03    -129.132E+06    -288.646E+06    -107.707E+06    -135.924E+03    -165.662E-03     330.952E-03    -165.290E-03     50.7958E-03    -165.970E-03     330.089E-03    -165.223E-03     47.8195E-03
             561     3.05188E-03     94.9196E-03    -121.507E+06    -264.824E+06    -88.9814E+06     52.6145E+03    -165.908E-03     331.209E-03    -165.301E-03     66.4804E-03    -166.423E-03     330.610E-03    -165.186E-03     62.4573E-03
             562     3.81507E-03     95.0107E-03    -112.984E+06    -243.285E+06     -67.923E+06     100.076E+03    -166.383E-03     331.713E-03    -165.330E-03     81.5741E-03    -167.160E-03     331.423E-03    -165.153E-03     76.4461E-03
             563     4.57801E-03     95.1201E-03    -103.894E+06    -217.642E+06    -49.5336E+06    -140.942E+03    -166.836E-03     332.190E-03    -165.354E-03     95.9201E-03    -167.938E-03     332.294E-03    -165.135E-03     89.6312E-03
             564     5.34093E-03     95.2458E-03    -95.0059E+06    -188.248E+06    -33.3029E+06     286.960E+03    -167.147E-03     332.505E-03    -165.357E-03     109.375E-03    -168.644E-03     333.093E-03    -165.113E-03     101.896E-03
             565     6.10445E-03     95.3866E-03    -86.2180E+06    -158.103E+06    -17.3707E+06     645.816E+03    -167.419E-03     332.766E-03    -165.347E-03     121.738E-03    -169.371E-03     333.901E-03    -165.079E-03     113.055E-03
             566     6.86758E-03     95.5416E-03    -77.8412E+06    -126.308E+06    -2.33888E+06     490.565E+03    -167.761E-03     333.091E-03    -165.330E-03     132.884E-03    -170.222E-03     334.834E-03    -165.046E-03     123.002E-03
             567     7.63101E-03     95.7088E-03    -69.6079E+06    -90.8905E+06     12.4843E+06     720.822E+03    -168.076E-03     333.395E-03    -165.319E-03     142.341E-03    -171.076E-03     335.789E-03    -165.023E-03     131.331E-03
             568     8.39389E-03     95.8858E-03    -61.6216E+06    -54.8280E+06     26.8447E+06     841.144E+03    -168.052E-03     333.360E-03    -165.308E-03     149.594E-03    -171.573E-03     336.390E-03    -165.005E-03     137.614E-03
             569     9.15718E-03     96.0697E-03    -53.7066E+06    -12.6233E+06     41.4842E+06     820.889E+03    -167.721E-03     332.999E-03    -165.278E-03     154.098E-03    -171.694E-03     336.616E-03    -164.974E-03     141.376E-03
             570     9.92119E-03     96.2556E-03    -45.8787E+06     31.4029E+06     54.7212E+06     814.082E+03    -167.204E-03     332.429E-03    -165.224E-03     154.784E-03    -171.484E-03     336.498E-03    -164.930E-03     141.609E-03
             571     10.6846E-03     96.4402E-03    -38.1672E+06     66.4055E+06     64.8155E+06     813.253E+03    -166.587E-03     331.749E-03    -165.162E-03     150.906E-03    -170.961E-03     336.035E-03    -164.879E-03     137.573E-03
             572     11.4488E-03     96.6150E-03    -30.8930E+06     81.9901E+06     72.9661E+06     862.203E+03    -166.052E-03     331.177E-03    -165.125E-03     142.656E-03    -170.290E-03     335.385E-03    -164.834E-03     129.423E-03
             573     12.2118E-03     96.7779E-03    -24.2357E+06     86.0949E+06     83.9124E+06     440.289E+03    -165.321E-03     330.448E-03    -165.127E-03     131.374E-03    -169.261E-03     334.364E-03    -164.797E-03     118.450E-03
             574     12.9776E-03     96.9260E-03    -17.3195E+06     93.1007E+06     95.4363E+06    -310.601E+03    -164.690E-03     329.824E-03    -165.134E-03     113.867E-03    -168.106E-03     333.232E-03    -164.767E-03     101.591E-03
             575     13.7385E-03     97.0430E-03    -10.6613E+06     100.848E+06     100.729E+06    -171.960E+03    -164.591E-03     329.722E-03    -165.131E-03     99.3376E-03    -167.605E-03     332.763E-03    -164.758E-03     87.4955E-03
             576     14.5028E-03     97.1607E-03    -5.22465E+06     102.699E+06     98.9153E+06     371.059E+03    -164.213E-03     329.327E-03    -165.114E-03     66.9650E-03    -166.220E-03     331.394E-03    -164.761E-03     57.5832E-03
             577     762.941E-06     96.0805E-03    -139.386E+06    -318.119E+06    -136.808E+06    -125.511E+03    -165.627E-03     330.714E-03    -165.087E-03     18.7170E-03    -165.699E-03     329.559E-03    -165.108E-03     17.6577E-03
             578     1.52585E-03     96.1135E-03    -135.055E+06    -309.130E+06    -123.535E+06    -59.2373E+03    -165.357E-03     330.676E-03    -165.319E-03     34.6934E-03    -165.515E-03     329.615E-03    -165.292E-03     32.7187E-03
             579     2.28885E-03     96.1658E-03    -128.896E+06    -288.736E+06    -107.452E+06     216.146E+03    -165.591E-03     330.880E-03    -165.289E-03     50.7156E-03    -165.898E-03     330.016E-03    -165.221E-03     47.7450E-03
             580     3.05190E-03     96.2379E-03    -121.269E+06    -264.756E+06    -88.4842E+06     169.443E+03    -166.101E-03     331.413E-03    -165.312E-03     66.5273E-03    -166.616E-03     330.814E-03    -165.195E-03     62.5020E-03
             581     3.81455E-03     96.3291E-03    -112.647E+06    -243.389E+06    -67.8094E+06     104.995E+03    -166.531E-03     331.902E-03    -165.372E-03     81.7499E-03    -167.308E-03     331.612E-03    -165.194E-03     76.6136E-03
             582     4.57762E-03     96.4382E-03    -103.822E+06    -217.460E+06    -49.4244E+06     308.369E+03    -166.745E-03     332.139E-03    -165.394E-03     96.0124E-03    -167.848E-03     332.245E-03    -165.175E-03     89.7311E-03
             583     5.34119E-03     96.5637E-03    -95.0220E+06    -188.598E+06    -33.1763E+06     302.284E+03    -167.039E-03     332.416E-03    -165.377E-03     109.481E-03    -168.535E-03     333.002E-03    -165.132E-03     102.010E-03
             584     6.10415E-03     96.7050E-03    -86.3162E+06    -158.806E+06    -17.7874E+06     533.713E+03    -167.481E-03     332.839E-03    -165.358E-03     121.814E-03    -169.432E-03     333.971E-03    -165.091E-03     113.128E-03
             585     6.86763E-03     96.8595E-03    -77.8774E+06    -126.195E+06    -2.29672E+06     852.903E+03    -167.820E-03     333.166E-03    -165.347E-03     132.914E-03    -170.280E-03     334.909E-03    -165.062E-03     123.036E-03
             586     7.63066E-03     97.0276E-03    -69.8391E+06    -91.2462E+06     12.5330E+06     869.630E+03    -167.913E-03     333.242E-03    -165.329E-03     142.513E-03    -170.913E-03     335.634E-03    -165.033E-03     131.522E-03
             587     8.39407E-03     97.2043E-03    -61.7250E+06    -55.0780E+06     26.9019E+06     935.963E+03    -167.854E-03     333.153E-03    -165.299E-03     149.863E-03    -171.377E-03     336.183E-03    -164.995E-03     137.901E-03
             588     9.15794E-03     97.3875E-03     -53.731E+06    -12.6414E+06     41.5706E+06     869.109E+03    -167.705E-03     332.963E-03    -165.258E-03     154.282E-03    -171.681E-03     336.584E-03    -164.954E-03     141.560E-03
             589     9.92099E-03     97.5744E-03    -45.9138E+06     31.5357E+06     54.9689E+06     772.247E+03    -167.265E-03     332.474E-03    -165.209E-03     154.532E-03    -171.545E-03     336.544E-03    -164.913E-03     141.345E-03
             590     10.6852E-03     97.7572E-03    -38.3960E+06     66.5357E+06     64.8751E+06     645.507E+03    -166.719E-03     331.875E-03    -165.156E-03     150.522E-03    -171.095E-03     336.163E-03    -164.873E-03     137.162E-03
             591     11.4486E-03     97.9340E-03    -30.9785E+06     82.0736E+06     73.2533E+06     328.222E+03    -166.219E-03     331.352E-03    -165.133E-03     142.231E-03    -170.458E-03     335.560E-03    -164.841E-03     128.966E-03
             592     12.2121E-03     98.0965E-03    -23.4508E+06     86.9520E+06     85.1019E+06     231.442E+03    -165.562E-03     330.714E-03    -165.153E-03     130.643E-03    -169.495E-03     334.627E-03    -164.819E-03     117.692E-03
             593     12.9743E-03     98.2421E-03    -16.8636E+06     93.5718E+06     95.8526E+06     296.722E+03    -165.083E-03     330.258E-03    -165.175E-03     114.475E-03    -168.507E-03     333.677E-03    -164.807E-03     102.179E-03
             594     13.7381E-03     98.3672E-03    -11.0989E+06     100.458E+06     100.004E+06     247.316E+03    -164.706E-03     329.882E-03    -165.177E-03     101.607E-03    -167.748E-03     332.952E-03    -164.806E-03     89.7593E-03
             595     14.4996E-03     98.4753E-03    -5.12383E+06     102.738E+06     98.6602E+06     322.694E+03    -163.655E-03     328.798E-03    -165.143E-03     68.7874E-03    -165.686E-03     330.889E-03    -164.791E-03     59.4023E-03
             596     762.429E-06     97.3989E-03    -139.221E+06    -317.652E+06    -136.108E+06    -238.519E+03    -165.402E-03     330.838E-03    -165.436E-03     18.6831E-03    -165.475E-03     329.684E-03    -165.454E-03     17.6114E-03
             597     1.52563E-03     97.4311E-03    -135.299E+06    -309.679E+06    -124.160E+06     187.734E+03    -165.385E-03     330.758E-03    -165.373E-03     34.4049E-03    -165.541E-03     329.695E-03    -165.349E-03     32.4370E-03
             598     2.28882E-03     97.4838E-03    -128.811E+06    -288.839E+06    -107.418E+06     290.562E+03    -165.635E-03     330.974E-03    -165.339E-03     50.6017E-03    -165.941E-03     330.108E-03    -165.270E-03     47.6349E-03
             599     3.05173E-03     97.5561E-03    -121.070E+06    -264.832E+06    -88.3691E+06     73.4483E+03    -166.029E-03     331.376E-03    -165.347E-03     66.6383E-03    -166.543E-03     330.777E-03    -165.230E-03     62.6142E-03
             600     3.81480E-03     97.6478E-03    -112.672E+06    -243.749E+06    -67.8158E+06     324.770E+03    -166.373E-03     331.748E-03    -165.376E-03     81.9209E-03    -167.150E-03     331.457E-03    -165.198E-03     76.7949E-03
             601     4.57785E-03     97.7562E-03    -103.712E+06    -217.570E+06    -49.2469E+06     669.639E+03    -166.742E-03     332.122E-03    -165.381E-03     96.3023E-03    -167.847E-03     332.230E-03    -165.161E-03     90.0258E-03
             602     5.34080E-03     97.8817E-03    -94.7870E+06    -188.450E+06    -32.7184E+06     620.053E+03    -167.187E-03     332.561E-03    -165.374E-03     109.685E-03    -168.685E-03     333.149E-03    -165.127E-03     102.211E-03
             603     6.10447E-03     98.0229E-03    -86.2003E+06    -159.165E+06    -17.4778E+06     682.262E+03    -167.581E-03     332.951E-03    -165.370E-03     121.915E-03    -169.532E-03     334.082E-03    -165.101E-03     113.225E-03
             604     6.86716E-03     98.1784E-03    -77.8584E+06    -126.954E+06    -2.45371E+06     1.02573E+06    -167.756E-03     333.113E-03    -165.358E-03     132.995E-03    -170.216E-03     334.854E-03    -165.073E-03     123.120E-03
             605     7.63073E-03     98.3451E-03    -69.5151E+06    -91.2594E+06     12.8369E+06     1.09657E+06    -167.724E-03     333.050E-03    -165.327E-03     142.531E-03    -170.722E-03     335.441E-03    -165.030E-03     131.555E-03
             606     8.39469E-03     98.5223E-03    -61.3316E+06    -55.2729E+06     27.1566E+06     914.111E+03    -167.822E-03     333.108E-03    -165.287E-03     149.764E-03    -171.341E-03     336.135E-03    -164.982E-03     137.802E-03
             607     9.15764E-03     98.7061E-03    -53.2468E+06    -12.6588E+06     41.8348E+06     972.718E+03    -167.749E-03     332.998E-03    -165.249E-03     153.876E-03    -171.719E-03     336.613E-03    -164.944E-03     141.152E-03
             608     9.92156E-03     98.8924E-03    -45.2947E+06     31.8352E+06     55.4750E+06     890.009E+03    -167.440E-03     332.651E-03    -165.211E-03     154.239E-03    -171.717E-03     336.720E-03    -164.915E-03     141.034E-03
             609     10.6844E-03     99.0758E-03    -37.5547E+06     67.1349E+06     65.5131E+06     575.757E+03    -167.009E-03     332.185E-03    -165.177E-03     150.410E-03    -171.388E-03     336.480E-03    -164.892E-03     137.013E-03
             610     11.4477E-03     99.2525E-03    -30.3596E+06     82.7801E+06     73.6542E+06     219.015E+03    -166.216E-03     331.378E-03    -165.162E-03     142.179E-03    -170.452E-03     335.587E-03    -164.870E-03     128.919E-03
             611     12.2114E-03     99.4143E-03    -23.9924E+06     86.4219E+06     84.2553E+06     126.507E+03    -165.537E-03     330.712E-03    -165.175E-03     131.240E-03    -169.478E-03     334.630E-03    -164.844E-03     118.292E-03
             612     12.9753E-03     99.5631E-03    -17.4511E+06     92.9203E+06     95.1971E+06     723.749E+03    -164.811E-03     329.997E-03    -165.185E-03     115.479E-03    -168.247E-03     333.425E-03    -164.819E-03     103.206E-03
             613     13.7394E-03     99.6825E-03    -11.1450E+06     100.870E+06     100.499E+06     772.286E+03    -164.090E-03     329.253E-03    -165.164E-03     101.519E-03    -167.129E-03     332.319E-03    -164.791E-03     89.7369E-03
             614     14.5052E-03     99.7974E-03    -5.38038E+06     103.451E+06     99.2786E+06     173.429E+03    -163.811E-03     328.930E-03    -165.119E-03     67.5473E-03    -165.832E-03     331.011E-03    -164.765E-03     58.1816E-03
             615     763.095E-06     98.7173E-03    -140.039E+06    -318.580E+06    -137.159E+06     414.515E+03    -165.389E-03     330.727E-03    -165.338E-03     18.8079E-03    -165.463E-03     329.572E-03    -165.359E-03     17.7486E-03
             616     1.52559E-03     98.7495E-03    -135.499E+06    -309.447E+06    -123.726E+06     322.960E+03    -165.546E-03     330.910E-03    -165.364E-03     34.4942E-03    -165.705E-03     329.848E-03    -165.338E-03     32.5215E-03
             617     2.28835E-03     98.8017E-03    -128.827E+06    -288.807E+06    -107.721E+06    -64.1487E+03    -165.686E-03     331.056E-03    -165.371E-03     50.9422E-03    -165.993E-03     330.193E-03    -165.304E-03     47.9644E-03
             618     3.05150E-03     98.8744E-03    -121.406E+06    -265.036E+06    -88.7151E+06     218.900E+03    -165.902E-03     331.265E-03    -165.362E-03     66.8061E-03    -166.418E-03     330.665E-03    -165.246E-03     62.7877E-03
             619     3.81480E-03     98.9654E-03    -112.631E+06    -244.146E+06    -67.4610E+06     289.078E+03    -166.243E-03     331.608E-03    -165.364E-03     81.8297E-03    -167.018E-03     331.312E-03    -165.184E-03     76.7130E-03
             620     4.57826E-03     99.0744E-03    -103.481E+06    -218.249E+06    -49.1156E+06     525.500E+03    -166.806E-03     332.170E-03    -165.364E-03     96.1236E-03    -167.907E-03     332.272E-03    -165.143E-03     89.8453E-03
             621     5.34143E-03     99.2003E-03    -94.7593E+06    -188.596E+06    -32.5267E+06     980.976E+03    -167.293E-03     332.667E-03    -165.374E-03     109.510E-03    -168.790E-03     333.252E-03    -165.126E-03     102.036E-03
             622     6.10378E-03     99.3414E-03    -86.2572E+06    -159.264E+06    -17.0957E+06     961.966E+03    -167.513E-03     332.888E-03    -165.374E-03     121.989E-03    -169.468E-03     334.020E-03    -165.104E-03     113.301E-03
             623     6.86760E-03     99.4964E-03    -77.6427E+06    -127.260E+06    -2.10572E+06     914.394E+03    -167.648E-03     333.000E-03    -165.352E-03     133.070E-03    -170.110E-03     334.740E-03    -165.065E-03     123.193E-03
             624     7.63102E-03     99.6631E-03    -69.0901E+06    -91.6346E+06     12.9490E+06     1.04734E+06    -167.890E-03     333.212E-03    -165.323E-03     142.419E-03    -170.887E-03     335.601E-03    -165.025E-03     131.425E-03
             625     8.39399E-03     99.8403E-03    -60.9348E+06    -55.1005E+06     27.4912E+06     1.04483E+06    -167.985E-03     333.284E-03    -165.299E-03     149.647E-03    -171.505E-03     336.312E-03    -164.993E-03     137.670E-03
             626     9.15771E-03     100.025E-03    -52.9428E+06    -12.6542E+06     42.2242E+06     891.819E+03    -167.783E-03     333.054E-03    -165.271E-03     153.618E-03    -171.750E-03     336.665E-03    -164.965E-03     140.889E-03
             627     9.92087E-03     100.210E-03    -44.9418E+06     31.8855E+06     55.7596E+06     781.995E+03    -167.473E-03     332.708E-03    -165.235E-03     154.267E-03    -171.749E-03     336.776E-03    -164.937E-03     141.061E-03
             628     10.6844E-03     100.396E-03    -37.5610E+06     67.1946E+06     65.7877E+06     799.231E+03    -166.898E-03     332.093E-03    -165.195E-03     150.620E-03    -171.276E-03     336.386E-03    -164.909E-03     137.246E-03
             629     11.4480E-03     100.570E-03    -31.1131E+06     83.2939E+06     73.5125E+06     1.00498E+06    -166.194E-03     331.365E-03    -165.171E-03     142.556E-03    -170.439E-03     335.583E-03    -164.880E-03     129.305E-03
             630     12.2115E-03     100.734E-03    -24.6536E+06     87.0505E+06     84.0679E+06     698.614E+03    -165.477E-03     330.657E-03    -165.179E-03     131.401E-03    -169.427E-03     334.584E-03    -164.850E-03     118.458E-03
             631     12.9753E-03     100.880E-03    -18.0983E+06     92.4063E+06     94.7167E+06     286.678E+03    -164.671E-03     329.856E-03    -165.185E-03     114.851E-03    -168.102E-03     333.276E-03    -164.819E-03     102.580E-03
             632     13.7382E-03     101.003E-03    -11.2965E+06     100.949E+06     100.433E+06     324.916E+03    -164.123E-03     329.286E-03    -165.162E-03     101.112E-03    -167.160E-03     332.349E-03    -164.790E-03     89.3158E-03
             633     14.4997E-03     101.113E-03    -5.04672E+06     104.109E+06     99.6294E+06     345.855E+03    -163.805E-03     328.925E-03    -165.120E-03     67.4072E-03    -165.824E-03     331.007E-03    -164.766E-03     58.0429E-03
             634     762.838E-06     100.036E-03    -140.594E+06    -319.108E+06    -136.365E+06     240.620E+03    -165.255E-03     330.477E-03    -165.222E-03     19.0523E-03    -165.333E-03     329.319E-03    -165.237E-03     17.9909E-03
             635     1.52582E-03     100.068E-03    -134.971E+06    -309.315E+06    -123.242E+06    -55.5420E+03    -165.518E-03     330.776E-03    -165.258E-03     34.5801E-03    -165.675E-03     329.714E-03    -165.230E-03     32.5971E-03
             636     2.28891E-03     100.120E-03    -128.751E+06    -288.722E+06    -107.483E+06     149.675E+03    -165.740E-03     331.043E-03    -165.302E-03     51.1462E-03    -166.048E-03     330.180E-03    -165.234E-03     48.1726E-03
             637     3.05182E-03     100.192E-03    -120.976E+06    -265.146E+06    -88.3566E+06     148.527E+03    -166.043E-03     331.378E-03    -165.335E-03     66.7921E-03    -166.556E-03     330.777E-03    -165.217E-03     62.7683E-03
             638     3.81494E-03     100.283E-03    -112.489E+06    -244.570E+06    -67.3978E+06     437.861E+03    -166.451E-03     331.829E-03    -165.378E-03     81.6892E-03    -167.225E-03     331.531E-03    -165.197E-03     76.5636E-03
             639     4.57767E-03     100.393E-03    -103.804E+06    -219.061E+06    -49.0056E+06     669.492E+03    -166.814E-03     332.212E-03    -165.398E-03     96.0255E-03    -167.916E-03     332.310E-03    -165.175E-03     89.7453E-03
             640     5.34052E-03     100.519E-03    -94.7049E+06    -189.332E+06    -32.4125E+06     965.419E+03    -167.084E-03     332.473E-03    -165.389E-03     109.540E-03    -168.580E-03     333.055E-03    -165.139E-03     102.073E-03
             641     6.10457E-03     100.660E-03    -85.7350E+06    -159.203E+06    -16.6069E+06     1.13346E+06    -167.416E-03     332.784E-03    -165.368E-03     121.963E-03    -169.367E-03     333.914E-03    -165.096E-03     113.284E-03
             642     6.86757E-03     100.814E-03    -77.2113E+06    -127.384E+06    -1.69525E+06     989.438E+03    -167.809E-03     333.159E-03    -165.350E-03     132.888E-03    -170.268E-03     334.897E-03    -165.061E-03     123.001E-03
             643     7.63078E-03     100.982E-03    -69.0943E+06    -91.9814E+06     12.9851E+06     1.01689E+06    -168.068E-03     333.406E-03    -165.338E-03     142.277E-03    -171.066E-03     335.794E-03    -165.040E-03     131.264E-03
             644     8.39407E-03     101.159E-03    -61.1113E+06    -55.1773E+06     27.5779E+06     1.18385E+06    -168.027E-03     333.352E-03    -165.325E-03     149.542E-03    -171.546E-03     336.378E-03    -165.019E-03     137.565E-03
             645     9.15722E-03     101.342E-03    -53.3377E+06    -12.2926E+06     42.3579E+06     1.04933E+06    -167.811E-03     333.108E-03    -165.298E-03     153.845E-03    -171.784E-03     336.725E-03    -164.991E-03     141.114E-03
             646     9.92064E-03     101.530E-03    -46.0170E+06     31.8059E+06     55.4044E+06     886.241E+03    -167.357E-03     332.610E-03    -165.254E-03     154.482E-03    -171.639E-03     336.682E-03    -164.956E-03     141.288E-03
             647     10.6844E-03     101.713E-03    -38.8933E+06     66.3652E+06     64.9171E+06     1.32633E+06    -166.746E-03     331.947E-03    -165.202E-03     150.650E-03    -171.127E-03     336.238E-03    -164.917E-03     137.298E-03
             648     11.4481E-03     101.889E-03    -31.7005E+06     83.7158E+06     73.6928E+06     1.34353E+06    -166.186E-03     331.361E-03    -165.175E-03     142.347E-03    -170.432E-03     335.578E-03    -164.882E-03     129.101E-03
             649     12.2115E-03     102.051E-03    -24.6200E+06     88.1988E+06     84.9423E+06     817.496E+03    -165.572E-03     330.760E-03    -165.188E-03     131.255E-03    -169.525E-03     334.693E-03    -164.855E-03     118.299E-03
             650     12.9745E-03     102.199E-03    -17.7670E+06     92.9844E+06     95.3330E+06     401.329E+03    -164.753E-03     329.951E-03    -165.198E-03     114.873E-03    -168.184E-03     333.373E-03    -164.831E-03     102.604E-03
             651     13.7393E-03     102.320E-03    -11.6824E+06     100.911E+06     100.109E+06     342.098E+03    -164.041E-03     329.213E-03    -165.172E-03     101.174E-03    -167.074E-03     332.272E-03    -164.801E-03     89.4005E-03
             652     14.5049E-03     102.434E-03    -5.31823E+06     103.988E+06     99.1620E+06    -20.0614E+03    -163.583E-03     328.703E-03    -165.120E-03     67.5967E-03    -165.604E-03     330.786E-03    -164.767E-03     58.2364E-03
             653     763.099E-06     101.353E-03    -139.311E+06    -318.903E+06    -136.014E+06     123.205E+03    -165.204E-03     330.284E-03    -165.080E-03     19.1181E-03    -165.276E-03     329.123E-03    -165.095E-03     18.0694E-03
             654     1.52615E-03     101.386E-03    -134.868E+06    -309.603E+06    -123.462E+06     136.270E+03    -165.462E-03     330.627E-03    -165.165E-03     34.6345E-03    -165.618E-03     329.563E-03    -165.138E-03     32.6589E-03
             655     2.28888E-03     101.438E-03    -128.409E+06    -288.839E+06    -107.686E+06     129.442E+03    -165.861E-03     331.109E-03    -165.248E-03     50.8567E-03    -166.165E-03     330.244E-03    -165.181E-03     47.8842E-03
             656     3.05187E-03     101.511E-03    -121.190E+06    -265.566E+06    -88.6930E+06     394.955E+03    -166.181E-03     331.511E-03    -165.330E-03     66.5847E-03    -166.694E-03     330.908E-03    -165.213E-03     62.5610E-03
             657     3.81442E-03     101.602E-03    -112.901E+06    -245.334E+06    -67.3456E+06     745.522E+03    -166.504E-03     331.901E-03    -165.397E-03     81.8489E-03    -167.281E-03     331.602E-03    -165.214E-03     76.7207E-03
             658     4.57759E-03     101.711E-03    -103.635E+06    -219.213E+06    -48.4517E+06     916.754E+03    -166.751E-03     332.164E-03    -165.413E-03     96.2987E-03    -167.855E-03     332.263E-03    -165.187E-03     90.0198E-03
             659     5.34138E-03     101.836E-03    -94.5424E+06    -189.886E+06    -32.1151E+06     848.160E+03    -167.106E-03     332.503E-03    -165.397E-03     109.596E-03    -168.602E-03     333.083E-03    -165.145E-03     102.121E-03
             660     6.10412E-03     101.978E-03    -85.7342E+06    -159.883E+06    -16.7691E+06     1.07360E+06    -167.546E-03     332.930E-03    -165.384E-03     121.664E-03    -169.494E-03     334.054E-03    -165.111E-03     112.977E-03
             661     6.86745E-03     102.133E-03    -77.4219E+06    -127.694E+06    -1.81179E+06     1.24585E+06    -167.905E-03     333.283E-03    -165.378E-03     132.751E-03    -170.363E-03     335.018E-03    -165.090E-03     122.865E-03
             662     7.63035E-03     102.300E-03    -69.3809E+06    -92.1928E+06     12.9954E+06     1.26947E+06    -168.038E-03     333.406E-03    -165.369E-03     142.255E-03    -171.036E-03     335.794E-03    -165.069E-03     131.249E-03
             663     8.39370E-03     102.477E-03    -61.4075E+06    -55.3458E+06     27.5962E+06     1.44157E+06    -167.960E-03     333.308E-03    -165.349E-03     149.547E-03    -171.480E-03     336.334E-03    -165.041E-03     137.577E-03
             664     9.15720E-03     102.661E-03    -53.6627E+06    -12.2773E+06     42.3881E+06     1.57156E+06    -167.723E-03     333.035E-03    -165.312E-03     153.988E-03    -171.698E-03     336.653E-03    -165.004E-03     141.273E-03
             665     9.92081E-03     102.847E-03    -46.1620E+06     31.9115E+06     55.5621E+06     1.78563E+06    -167.326E-03     332.589E-03    -165.262E-03     154.433E-03    -171.609E-03     336.660E-03    -164.964E-03     141.252E-03
             666     10.6843E-03     103.031E-03    -38.7142E+06     66.3174E+06     65.1459E+06     1.58383E+06    -166.831E-03     332.042E-03    -165.212E-03     150.665E-03    -171.213E-03     336.334E-03    -164.926E-03     137.306E-03
             667     11.4476E-03     103.208E-03    -31.3396E+06     84.2716E+06     73.9501E+06     1.15406E+06    -166.181E-03     331.367E-03    -165.186E-03     142.459E-03    -170.429E-03     335.588E-03    -164.893E-03     129.212E-03
             668     12.2112E-03     103.370E-03    -24.3318E+06     88.7848E+06     85.2681E+06     782.824E+03    -165.452E-03     330.647E-03    -165.194E-03     131.338E-03    -169.404E-03     334.580E-03    -164.861E-03     118.399E-03
             669     12.9755E-03     103.518E-03    -17.7122E+06     93.0676E+06     95.5325E+06     673.632E+03    -164.749E-03     329.950E-03    -165.200E-03     114.969E-03    -168.184E-03     333.375E-03    -164.832E-03     102.697E-03
             670     13.7377E-03     103.638E-03    -11.0148E+06     101.393E+06     100.881E+06     593.557E+03    -164.007E-03     329.182E-03    -165.174E-03     101.143E-03    -167.043E-03     332.246E-03    -164.801E-03     89.3593E-03
             671     14.4999E-03     103.750E-03    -4.51014E+06     104.649E+06     100.174E+06    -245.498E+03    -163.262E-03     328.377E-03    -165.114E-03     67.4977E-03    -165.282E-03     330.461E-03    -164.759E-03     58.1432E-03
             672     762.947E-06     102.671E-03    -139.068E+06    -319.301E+06    -136.299E+06     184.423E+03    -165.323E-03     330.442E-03    -165.119E-03     18.5833E-03    -165.392E-03     329.280E-03    -165.136E-03     17.5349E-03
             673     1.52606E-03     102.704E-03    -134.805E+06    -309.926E+06    -123.844E+06     286.322E+03    -165.516E-03     330.755E-03    -165.239E-03     34.5018E-03    -165.670E-03     329.690E-03    -165.214E-03     32.5285E-03
             674     2.28885E-03     102.757E-03    -129.056E+06    -289.256E+06    -107.988E+06     619.916E+03    -165.808E-03     331.110E-03    -165.302E-03     50.7217E-03    -166.114E-03     330.243E-03    -165.235E-03     47.7578E-03
             675     3.05148E-03     102.829E-03    -121.727E+06    -266.063E+06    -88.6515E+06     639.608E+03    -166.070E-03     331.422E-03    -165.352E-03     66.6994E-03    -166.585E-03     330.817E-03    -165.233E-03     62.6820E-03
             676     3.81490E-03     102.920E-03    -112.772E+06    -245.790E+06    -67.0540E+06     657.694E+03    -166.392E-03     331.784E-03    -165.392E-03     81.8911E-03    -167.168E-03     331.481E-03    -165.207E-03     76.7666E-03
             677     4.57807E-03     103.029E-03    -103.612E+06    -219.896E+06    -48.6191E+06     869.991E+03    -166.860E-03     332.266E-03    -165.406E-03     96.0958E-03    -167.961E-03     332.360E-03    -165.180E-03     89.8144E-03
             678     5.34062E-03     103.155E-03    -94.7132E+06    -190.160E+06    -32.1538E+06     1.15265E+06    -167.317E-03     332.732E-03    -165.415E-03     109.425E-03    -168.813E-03     333.310E-03    -165.163E-03     101.945E-03
             679     6.10385E-03     103.296E-03    -86.2854E+06    -160.520E+06    -16.9138E+06     1.25897E+06    -167.653E-03     333.074E-03    -165.421E-03     121.797E-03    -169.606E-03     334.200E-03    -165.148E-03     113.100E-03
             680     6.86685E-03     103.451E-03    -77.8517E+06    -127.958E+06    -1.82761E+06     1.39645E+06    -167.855E-03     333.269E-03    -165.414E-03     132.941E-03    -170.317E-03     335.005E-03    -165.124E-03     123.058E-03
             681     7.63044E-03     103.619E-03    -69.5488E+06    -92.2912E+06     13.2294E+06     1.54683E+06    -167.938E-03     333.331E-03    -165.393E-03     142.355E-03    -170.937E-03     335.717E-03    -165.092E-03     131.362E-03
             682     8.39366E-03     103.795E-03    -61.5316E+06    -55.8555E+06     27.6016E+06     1.66339E+06    -167.936E-03     333.299E-03    -165.364E-03     149.613E-03    -171.457E-03     336.324E-03    -165.056E-03     137.646E-03
             683     9.15712E-03     103.979E-03    -53.6210E+06    -13.0355E+06     42.3206E+06     2.03310E+06    -167.727E-03     333.052E-03    -165.325E-03     153.862E-03    -171.698E-03     336.664E-03    -165.017E-03     141.154E-03
             684     9.92062E-03     104.166E-03    -45.6649E+06     31.8473E+06     55.9684E+06     2.17005E+06    -167.360E-03     332.638E-03    -165.277E-03     154.338E-03    -171.639E-03     336.705E-03    -164.977E-03     141.161E-03
             685     10.6840E-03     104.350E-03    -38.0878E+06     67.0711E+06     65.8286E+06     1.83555E+06    -166.792E-03     332.018E-03    -165.226E-03     150.627E-03    -171.172E-03     336.310E-03    -164.939E-03     137.276E-03
             686     11.4479E-03     104.526E-03    -31.1461E+06     84.8795E+06     74.1390E+06     1.28870E+06    -166.011E-03     331.201E-03    -165.190E-03     142.543E-03    -170.257E-03     335.423E-03    -164.897E-03     129.317E-03
             687     12.2115E-03     104.689E-03    -24.2814E+06     89.3218E+06     85.1223E+06     941.664E+03    -165.338E-03     330.525E-03    -165.187E-03     131.624E-03    -169.292E-03     334.463E-03    -164.856E-03     118.702E-03
             688     12.9745E-03     104.835E-03    -17.3753E+06     93.3756E+06     95.6899E+06     601.618E+03    -164.515E-03     329.698E-03    -165.183E-03     115.317E-03    -167.948E-03     333.124E-03    -164.815E-03     103.074E-03
             689     13.7395E-03     104.957E-03    -10.5748E+06     101.821E+06     101.661E+06     14.0161E+03    -163.742E-03     328.888E-03    -165.146E-03     101.735E-03    -166.784E-03     331.959E-03    -164.770E-03     89.9589E-03
             690     14.5051E-03     105.068E-03    -5.09833E+06     104.972E+06     100.639E+06    -57.1229E+03    -163.891E-03     328.985E-03    -165.095E-03     68.1408E-03    -165.924E-03     331.082E-03    -164.736E-03     58.7580E-03
             691     762.857E-06     103.989E-03    -139.676E+06    -319.728E+06    -136.478E+06    -105.804E+03    -165.521E-03     330.814E-03    -165.293E-03     18.8411E-03    -165.593E-03     329.651E-03    -165.310E-03     17.7657E-03
             692     1.52530E-03     104.022E-03    -135.362E+06    -310.807E+06    -123.866E+06     354.234E+03    -165.503E-03     330.890E-03    -165.387E-03     34.6907E-03    -165.659E-03     329.821E-03    -165.359E-03     32.7216E-03
             693     2.28846E-03     104.075E-03    -128.908E+06    -289.952E+06    -107.954E+06     736.198E+03    -165.647E-03     331.015E-03    -165.369E-03     50.9175E-03    -165.951E-03     330.146E-03    -165.301E-03     47.9523E-03
             694     3.05190E-03     104.147E-03    -121.297E+06    -266.312E+06    -88.6320E+06     841.565E+03    -166.005E-03     331.373E-03    -165.368E-03     66.6155E-03    -166.517E-03     330.766E-03    -165.250E-03     62.6054E-03
             695     3.81467E-03     104.238E-03    -112.908E+06    -246.376E+06    -67.3050E+06     924.665E+03    -166.468E-03     331.873E-03    -165.405E-03     81.6399E-03    -167.241E-03     331.566E-03    -165.221E-03     76.5226E-03
             696     4.57757E-03     104.348E-03    -104.028E+06    -220.665E+06    -48.7858E+06     1.10415E+06    -166.934E-03     332.366E-03    -165.432E-03     96.0571E-03    -168.035E-03     332.456E-03    -165.205E-03     89.7779E-03
             697     5.34077E-03     104.473E-03    -95.1031E+06    -190.702E+06    -32.2779E+06     1.35774E+06    -167.314E-03     332.757E-03    -165.443E-03     109.546E-03    -168.811E-03     333.333E-03    -165.190E-03     102.070E-03
             698     6.10387E-03     104.614E-03    -86.2159E+06    -160.659E+06    -16.5834E+06     1.43037E+06    -167.637E-03     333.080E-03    -165.444E-03     121.968E-03    -169.590E-03     334.206E-03    -165.169E-03     113.274E-03
             699     6.86705E-03     104.770E-03    -77.6649E+06    -128.381E+06    -1.60257E+06     1.63289E+06    -167.852E-03     333.284E-03    -165.432E-03     132.979E-03    -170.313E-03     335.018E-03    -165.141E-03     123.098E-03
             700     7.63011E-03     104.936E-03    -69.4949E+06    -92.7705E+06     13.3139E+06     1.88820E+06    -167.945E-03     333.353E-03    -165.409E-03     142.349E-03    -170.943E-03     335.737E-03    -165.107E-03     131.359E-03
             701     8.39366E-03     105.114E-03    -61.5500E+06    -56.3246E+06     27.6819E+06     1.92063E+06    -167.960E-03     333.340E-03    -165.380E-03     149.517E-03    -171.479E-03     336.360E-03    -165.071E-03     137.552E-03
             702     9.15689E-03     105.297E-03    -53.4749E+06    -13.6233E+06     42.3751E+06     2.00893E+06    -167.779E-03     333.122E-03    -165.343E-03     153.795E-03    -171.749E-03     336.731E-03    -165.034E-03     141.078E-03
             703     9.92030E-03     105.485E-03    -45.4424E+06     31.5280E+06     56.0752E+06     2.09567E+06    -167.354E-03     332.649E-03    -165.296E-03     154.427E-03    -171.634E-03     336.717E-03    -164.995E-03     141.245E-03
             704     10.6841E-03     105.668E-03    -37.7236E+06     67.4085E+06     66.0013E+06     2.03532E+06    -166.662E-03     331.899E-03    -165.237E-03     150.540E-03    -171.037E-03     336.188E-03    -164.950E-03     137.203E-03
             705     11.4475E-03     105.844E-03    -30.6073E+06     85.3417E+06     74.4507E+06     1.95139E+06    -165.928E-03     331.123E-03    -165.194E-03     142.382E-03    -170.171E-03     335.344E-03    -164.901E-03     129.168E-03
             706     12.2117E-03     106.006E-03    -24.1320E+06     90.6397E+06     85.8336E+06     1.23527E+06    -165.215E-03     330.403E-03    -165.187E-03     131.260E-03    -169.167E-03     334.341E-03    -164.854E-03     118.344E-03
             707     12.9759E-03     106.155E-03    -17.2099E+06     95.0093E+06     96.6384E+06    -192.441E+03    -164.482E-03     329.665E-03    -165.182E-03     114.366E-03    -167.911E-03     333.089E-03    -164.812E-03     102.099E-03
             708     13.7395E-03     106.273E-03    -10.7570E+06     102.004E+06     101.666E+06    -488.900E+03    -164.160E-03     329.318E-03    -165.158E-03     99.5701E-03    -167.187E-03     332.374E-03    -164.782E-03     87.7364E-03
             709     14.5021E-03     106.387E-03    -6.01510E+06     104.698E+06     99.7499E+06     621.481E+03    -164.078E-03     329.203E-03    -165.125E-03     66.4705E-03    -166.093E-03     331.280E-03    -164.770E-03     57.1061E-03
             710     762.574E-06     105.308E-03    -140.049E+06    -320.041E+06    -137.002E+06    -6.22352E+03    -165.643E-03     330.805E-03    -165.162E-03     19.1723E-03    -165.716E-03     329.643E-03    -165.180E-03     18.0951E-03
             711     1.52582E-03     105.340E-03    -135.357E+06    -311.222E+06    -124.062E+06     182.885E+03    -165.544E-03     330.935E-03    -165.390E-03     34.8126E-03    -165.700E-03     329.865E-03    -165.363E-03     32.8333E-03
             712     2.28874E-03     105.393E-03    -128.861E+06    -290.932E+06    -108.615E+06     266.408E+03    -165.761E-03     331.155E-03    -165.394E-03     50.8883E-03    -166.064E-03     330.282E-03    -165.328E-03     47.9146E-03
             713     3.05139E-03     105.465E-03    -121.502E+06    -267.395E+06    -89.8092E+06     979.103E+03    -166.074E-03     331.483E-03    -165.409E-03     66.5328E-03    -166.583E-03     330.872E-03    -165.294E-03     62.5238E-03
             714     3.81452E-03     105.557E-03    -113.187E+06    -247.076E+06    -67.7972E+06     1.28349E+06    -166.507E-03     331.957E-03    -165.451E-03     81.7448E-03    -167.280E-03     331.649E-03    -165.267E-03     76.6286E-03
             715     4.57752E-03     105.666E-03    -104.052E+06    -220.941E+06    -48.5276E+06     1.32940E+06    -166.880E-03     332.352E-03    -165.471E-03     96.0878E-03    -167.982E-03     332.440E-03    -165.243E-03     89.8138E-03
             716     5.34065E-03     105.792E-03    -94.8598E+06    -191.130E+06    -32.0153E+06     1.38047E+06    -167.249E-03     332.717E-03    -165.468E-03     109.530E-03    -168.745E-03     333.290E-03    -165.213E-03     102.057E-03
             717     6.10360E-03     105.933E-03    -86.1819E+06    -161.246E+06    -16.6308E+06     1.52208E+06    -167.628E-03     333.088E-03    -165.460E-03     121.907E-03    -169.579E-03     334.209E-03    -165.184E-03     113.217E-03
             718     6.86685E-03     106.088E-03    -77.7749E+06    -129.222E+06    -1.72055E+06     1.88400E+06    -167.857E-03     333.304E-03    -165.447E-03     132.835E-03    -170.315E-03     335.032E-03    -165.155E-03     122.959E-03
             719     7.63021E-03     106.256E-03    -69.4899E+06    -93.5171E+06     13.1853E+06     2.15276E+06    -168.004E-03     333.430E-03    -165.426E-03     142.307E-03    -171.002E-03     335.811E-03    -165.124E-03     131.314E-03
             720     8.39326E-03     106.432E-03    -61.2766E+06    -56.3600E+06     27.9575E+06     2.22163E+06    -167.985E-03     333.385E-03    -165.400E-03     149.530E-03    -171.504E-03     336.405E-03    -165.090E-03     137.566E-03
             721     9.15677E-03     106.617E-03    -53.4121E+06    -13.8279E+06     42.5623E+06     2.11618E+06    -167.759E-03     333.121E-03    -165.362E-03     153.828E-03    -171.731E-03     336.731E-03    -165.052E-03     141.108E-03
             722     9.92033E-03     106.802E-03    -45.7222E+06     31.1452E+06     55.9716E+06     2.12727E+06    -167.296E-03     332.606E-03    -165.310E-03     154.404E-03    -171.578E-03     336.673E-03    -165.009E-03     141.222E-03
             723     10.6837E-03     106.987E-03    -38.3635E+06     67.4961E+06     65.9840E+06     2.10631E+06    -166.684E-03     331.934E-03    -165.250E-03     150.412E-03    -171.064E-03     336.226E-03    -164.962E-03     137.066E-03
             724     11.4480E-03     107.161E-03    -31.1084E+06     85.7106E+06     74.6664E+06     1.82013E+06    -166.087E-03     331.301E-03    -165.214E-03     142.151E-03    -170.336E-03     335.528E-03    -164.920E-03     128.906E-03
             725     12.2108E-03     107.326E-03    -23.6559E+06     92.3700E+06     87.0771E+06     1.13703E+06    -165.336E-03     330.555E-03    -165.219E-03     130.591E-03    -169.285E-03     334.496E-03    -164.883E-03     117.655E-03
             726     12.9746E-03     107.470E-03    -17.1904E+06     96.4218E+06     97.4353E+06     629.146E+03    -164.736E-03     329.961E-03    -165.225E-03     114.121E-03    -168.167E-03     333.390E-03    -164.852E-03     101.847E-03
             727     13.7374E-03     107.595E-03    -11.4697E+06     101.282E+06     100.907E+06     502.420E+03    -164.414E-03     329.621E-03    -165.208E-03     100.782E-03    -167.450E-03     332.684E-03    -164.833E-03     88.9699E-03
             728     14.5002E-03     107.704E-03    -5.66780E+06     104.817E+06     99.6137E+06     438.081E+03    -163.445E-03     328.604E-03    -165.160E-03     68.1109E-03    -165.473E-03     330.696E-03    -164.805E-03     58.7532E-03
             729     763.151E-06     106.626E-03    -139.301E+06    -319.464E+06    -136.481E+06    -202.066E+03    -165.520E-03     330.675E-03    -165.154E-03     18.8875E-03    -165.591E-03     329.513E-03    -165.172E-03     17.8149E-03
             730     1.52566E-03     106.658E-03    -135.113E+06    -311.117E+06    -124.326E+06    -340.219E+03    -165.650E-03     331.008E-03    -165.357E-03     34.7557E-03    -165.805E-03     329.938E-03    -165.332E-03     32.7668E-03
             731     2.28825E-03     106.711E-03    -128.816E+06    -292.469E+06    -107.520E+06     333.174E+03    -165.892E-03     331.315E-03    -165.422E-03     50.8658E-03    -166.193E-03     330.432E-03    -165.349E-03     47.8945E-03
             732     3.05141E-03     106.783E-03    -121.267E+06    -269.012E+06    -88.4936E+06     1.13353E+06    -166.160E-03     331.621E-03    -165.461E-03     66.6959E-03    -166.669E-03     331.001E-03    -165.338E-03     62.6819E-03
             733     3.81432E-03     106.875E-03    -112.584E+06    -247.185E+06    -67.7538E+06     1.31706E+06    -166.507E-03     332.000E-03    -165.493E-03     81.8005E-03    -167.278E-03     331.690E-03    -165.310E-03     76.6822E-03
             734     4.57735E-03     106.984E-03    -103.453E+06    -221.496E+06    -48.6598E+06     1.34500E+06    -166.874E-03     332.380E-03    -165.505E-03     96.0487E-03    -167.972E-03     332.465E-03    -165.277E-03     89.7731E-03
             735     5.34034E-03     107.110E-03    -94.5674E+06    -191.855E+06    -32.0941E+06     1.57922E+06    -167.276E-03     332.775E-03    -165.499E-03     109.548E-03    -168.770E-03     333.345E-03    -165.244E-03     102.073E-03
             736     6.10375E-03     107.251E-03    -85.9544E+06    -161.977E+06    -16.5801E+06     1.97469E+06    -167.594E-03     333.081E-03    -165.487E-03     121.816E-03    -169.542E-03     334.197E-03    -165.211E-03     113.135E-03
             737     6.86668E-03     107.407E-03    -77.5924E+06    -129.783E+06    -1.59012E+06     2.09417E+06    -167.853E-03     333.322E-03    -165.470E-03     132.818E-03    -170.309E-03     335.047E-03    -165.177E-03     122.944E-03
             738     7.62988E-03     107.573E-03    -69.1307E+06    -94.1363E+06     13.3227E+06     2.21248E+06    -168.000E-03     333.446E-03    -165.446E-03     142.321E-03    -170.996E-03     335.823E-03    -165.142E-03     131.325E-03
             739     8.39331E-03     107.751E-03    -61.0643E+06    -57.1212E+06     27.8423E+06     2.56726E+06    -167.987E-03     333.404E-03    -165.417E-03     149.523E-03    -171.504E-03     336.421E-03    -165.106E-03     137.559E-03
             740     9.15665E-03     107.934E-03    -53.4039E+06    -14.0793E+06     42.6765E+06     2.84495E+06    -167.797E-03     333.177E-03    -165.380E-03     153.788E-03    -171.770E-03     336.787E-03    -165.069E-03     141.071E-03
             741     9.91997E-03     108.122E-03    -46.0430E+06     31.3199E+06     56.1189E+06     2.68585E+06    -167.345E-03     332.676E-03    -165.331E-03     154.061E-03    -171.626E-03     336.743E-03    -165.029E-03     140.877E-03
             742     10.6841E-03     108.304E-03    -38.5244E+06     67.9358E+06     66.3006E+06     2.11920E+06    -166.830E-03     332.109E-03    -165.279E-03     150.151E-03    -171.213E-03     336.405E-03    -164.990E-03     136.783E-03
             743     11.4466E-03     108.482E-03    -30.9930E+06     86.7037E+06     75.5888E+06     1.35953E+06    -166.120E-03     331.372E-03    -165.251E-03     141.915E-03    -170.368E-03     335.598E-03    -164.954E-03     128.665E-03
             744     12.2109E-03     108.642E-03    -24.2999E+06     92.5937E+06     87.2353E+06     1.23603E+06    -165.417E-03     330.673E-03    -165.256E-03     130.901E-03    -169.372E-03     334.617E-03    -164.919E-03     117.967E-03
             745     12.9739E-03     108.792E-03    -17.9378E+06     96.6387E+06     97.1715E+06     1.65211E+06    -164.588E-03     329.842E-03    -165.254E-03     114.909E-03    -168.028E-03     333.279E-03    -164.882E-03     102.670E-03
             746     13.7385E-03     108.911E-03    -11.6926E+06     102.025E+06     101.173E+06     1.13808E+06    -163.681E-03     328.890E-03    -165.209E-03     101.321E-03    -166.715E-03     331.952E-03    -164.835E-03     89.5962E-03
             747     14.5039E-03     109.024E-03    -5.23895E+06     105.280E+06     100.355E+06    -8.79668E+03    -163.271E-03     328.409E-03    -165.138E-03     67.4196E-03    -165.293E-03     330.494E-03    -164.781E-03     58.0838E-03
             748     762.650E-06     107.944E-03    -139.096E+06    -319.362E+06    -136.592E+06    -274.443E+03    -165.619E-03     330.773E-03    -165.154E-03     19.1768E-03    -165.688E-03     329.611E-03    -165.172E-03     18.1091E-03
             749     1.52569E-03     107.977E-03    -135.439E+06    -310.651E+06    -124.038E+06    -91.5557E+03    -165.669E-03     331.069E-03    -165.400E-03     34.7720E-03    -165.825E-03     330.002E-03    -165.374E-03     32.7940E-03
             750     2.28868E-03     108.030E-03    -128.884E+06    -294.231E+06    -105.901E+06     326.825E+03    -165.901E-03     331.368E-03    -165.466E-03     50.7927E-03    -166.203E-03     330.474E-03    -165.382E-03     47.8178E-03
             751     3.05132E-03     108.102E-03    -120.755E+06    -270.740E+06    -86.9277E+06     1.23433E+06    -166.196E-03     331.697E-03    -165.501E-03     66.6378E-03    -166.702E-03     331.066E-03    -165.368E-03     62.6228E-03
             752     3.81412E-03     108.194E-03    -112.236E+06    -247.085E+06    -67.7420E+06     1.52656E+06    -166.506E-03     332.026E-03    -165.520E-03     81.8585E-03    -167.276E-03     331.717E-03    -165.338E-03     76.7426E-03
             753     4.57721E-03     108.302E-03    -103.466E+06    -222.302E+06    -49.0603E+06     1.51077E+06    -166.928E-03     332.459E-03    -165.530E-03     96.2140E-03    -168.026E-03     332.542E-03    -165.303E-03     89.9337E-03
             754     5.34037E-03     108.429E-03    -94.6487E+06    -192.824E+06    -32.4517E+06     1.76548E+06    -167.334E-03     332.861E-03    -165.527E-03     109.600E-03    -168.827E-03     333.428E-03    -165.273E-03     102.121E-03
             755     6.10303E-03     108.570E-03    -85.7839E+06    -162.797E+06    -16.7142E+06     2.03272E+06    -167.600E-03     333.117E-03    -165.517E-03     121.792E-03    -169.546E-03     334.230E-03    -165.240E-03     113.108E-03
             756     6.86670E-03     108.725E-03    -77.0972E+06    -130.305E+06    -1.46411E+06     2.25256E+06    -167.839E-03     333.334E-03    -165.496E-03     132.851E-03    -170.293E-03     335.057E-03    -165.202E-03     122.974E-03
             757     7.62978E-03     108.893E-03    -69.0958E+06    -94.9427E+06     13.2390E+06     2.46330E+06    -168.019E-03     333.489E-03    -165.470E-03     142.218E-03    -171.013E-03     335.862E-03    -165.166E-03     131.222E-03
             758     8.39314E-03     109.069E-03    -61.0554E+06    -58.2771E+06     27.6407E+06     2.80965E+06    -168.060E-03     333.504E-03    -165.444E-03     149.346E-03    -171.576E-03     336.516E-03    -165.133E-03     137.374E-03
             759     9.15636E-03     109.254E-03    -52.9357E+06    -14.9008E+06     42.6566E+06     3.24398E+06    -167.867E-03     333.279E-03    -165.412E-03     153.447E-03    -171.832E-03     336.879E-03    -165.101E-03     140.731E-03
             760     9.91993E-03     109.439E-03    -44.8929E+06     31.7361E+06     56.9339E+06     3.34515E+06    -167.497E-03     332.869E-03    -165.372E-03     153.835E-03    -171.772E-03     336.933E-03    -165.068E-03     140.647E-03
             761     10.6825E-03     109.624E-03    -37.4990E+06     69.4329E+06     67.4376E+06     2.68536E+06    -166.816E-03     332.140E-03    -165.324E-03     150.066E-03    -171.196E-03     336.437E-03    -165.033E-03     136.711E-03
             762     11.4471E-03     109.799E-03    -31.0494E+06     87.3527E+06     75.7150E+06     2.08279E+06    -165.954E-03     331.239E-03    -165.285E-03     141.933E-03    -170.198E-03     335.463E-03    -164.988E-03     128.717E-03
             763     12.2102E-03     109.962E-03    -24.6340E+06     91.9688E+06     86.8480E+06     2.18718E+06    -165.183E-03     330.457E-03    -165.274E-03     131.135E-03    -169.136E-03     334.397E-03    -164.937E-03     118.244E-03
             764     12.9744E-03     110.109E-03    -18.0828E+06     97.2117E+06     97.4003E+06     1.62850E+06    -164.213E-03     329.466E-03    -165.253E-03     114.692E-03    -167.649E-03     332.900E-03    -164.881E-03     102.485E-03
             765     13.7381E-03     110.229E-03    -10.9769E+06     103.579E+06     102.251E+06     950.722E+03    -163.510E-03     328.706E-03    -165.196E-03     101.122E-03    -166.547E-03     331.774E-03    -164.819E-03     89.3887E-03
             766     14.5008E-03     110.341E-03    -4.23439E+06     106.111E+06     101.323E+06     225.110E+03    -163.136E-03     328.253E-03    -165.117E-03     67.5155E-03    -165.159E-03     330.344E-03    -164.758E-03     58.1741E-03
             767     763.021E-06     109.263E-03    -140.264E+06    -319.816E+06    -136.864E+06     252.239E+03    -165.753E-03     330.968E-03    -165.215E-03     19.1507E-03    -165.827E-03     329.806E-03    -165.232E-03     18.0932E-03
             768     1.52541E-03     109.295E-03    -135.853E+06    -310.736E+06    -123.944E+06     361.395E+03    -165.681E-03     331.166E-03    -165.485E-03     34.7112E-03    -165.840E-03     330.099E-03    -165.457E-03     32.7304E-03
             769     2.28814E-03     109.349E-03    -129.182E+06    -295.625E+06    -106.147E+06     645.512E+03    -165.903E-03     331.428E-03    -165.525E-03     50.7657E-03    -166.204E-03     330.529E-03    -165.439E-03     47.7899E-03
             770     3.05103E-03     109.421E-03    -121.281E+06    -272.311E+06    -87.5639E+06     1.13489E+06    -166.151E-03     331.690E-03    -165.539E-03     66.5568E-03    -166.656E-03     331.052E-03    -165.406E-03     62.5421E-03
             771     3.81432E-03     109.512E-03    -112.631E+06    -247.555E+06    -68.2745E+06     1.46736E+06    -166.508E-03     332.053E-03    -165.545E-03     81.7680E-03    -167.278E-03     331.743E-03    -165.364E-03     76.6499E-03
             772     4.57724E-03     109.621E-03    -103.640E+06    -222.937E+06    -49.1670E+06     1.65328E+06    -166.960E-03     332.516E-03    -165.556E-03     96.2002E-03    -168.058E-03     332.597E-03    -165.328E-03     89.9189E-03
             773     5.33995E-03     109.747E-03    -94.6658E+06    -193.627E+06    -32.6932E+06     1.81818E+06    -167.332E-03     332.883E-03    -165.551E-03     109.585E-03    -168.823E-03     333.446E-03    -165.297E-03     102.107E-03
             774     6.10358E-03     109.888E-03    -85.9300E+06    -163.618E+06    -17.0925E+06     2.01032E+06    -167.659E-03     333.199E-03    -165.540E-03     121.811E-03    -169.606E-03     334.310E-03    -165.264E-03     113.117E-03
             775     6.86612E-03     110.044E-03    -77.6215E+06    -131.550E+06    -2.09308E+06     2.32975E+06    -167.935E-03     333.460E-03    -165.525E-03     132.810E-03    -170.391E-03     335.179E-03    -165.232E-03     122.924E-03
             776     7.62967E-03     110.211E-03    -69.3737E+06    -95.7810E+06     12.8822E+06     2.68007E+06    -168.135E-03     333.642E-03    -165.508E-03     142.094E-03    -171.128E-03     336.012E-03    -165.204E-03     131.089E-03
             777     8.39256E-03     110.388E-03    -61.3652E+06    -58.9155E+06     27.4343E+06     2.81726E+06    -168.149E-03     333.639E-03    -165.490E-03     149.139E-03    -171.663E-03     336.646E-03    -165.178E-03     137.162E-03
             778     9.15588E-03     110.571E-03    -53.3426E+06    -15.7257E+06     42.1906E+06     2.90613E+06    -167.916E-03     333.376E-03    -165.460E-03     153.362E-03    -171.879E-03     336.972E-03    -165.149E-03     140.638E-03
             779     9.91892E-03     110.759E-03    -45.4741E+06     30.7850E+06     56.3043E+06     3.22449E+06    -167.392E-03     332.806E-03    -165.414E-03     153.944E-03    -171.665E-03     336.864E-03    -165.111E-03     140.770E-03
             780     10.6831E-03     110.942E-03    -38.2186E+06     69.9546E+06     67.1967E+06     3.72594E+06    -166.632E-03     331.983E-03    -165.351E-03     150.207E-03    -171.012E-03     336.281E-03    -165.061E-03     136.889E-03
             781     11.4460E-03     111.117E-03    -31.5340E+06     88.5426E+06     75.6544E+06     3.34239E+06    -165.847E-03     331.146E-03    -165.299E-03     142.135E-03    -170.096E-03     335.378E-03    -165.003E-03     128.945E-03
             782     12.2105E-03     111.280E-03    -24.5749E+06     92.3521E+06     86.6407E+06     2.28978E+06    -164.855E-03     330.127E-03    -165.273E-03     131.120E-03    -168.805E-03     334.067E-03    -164.938E-03     118.259E-03
             783     12.9743E-03     111.426E-03    -17.1447E+06     98.0716E+06     98.1822E+06     1.83818E+06    -163.982E-03     329.219E-03    -165.238E-03     114.926E-03    -167.411E-03     332.651E-03    -164.864E-03     102.761E-03
             784     13.7388E-03     111.547E-03    -10.9130E+06     104.310E+06     103.119E+06     1.41527E+06    -163.511E-03     328.687E-03    -165.175E-03     101.381E-03    -166.551E-03     331.759E-03    -164.795E-03     89.6637E-03
             785     14.5044E-03     111.659E-03    -4.90363E+06     107.138E+06     102.129E+06     58.2531E+03    -163.420E-03     328.526E-03    -165.106E-03     67.3486E-03    -165.448E-03     330.621E-03    -164.743E-03     57.9950E-03
             786     762.306E-06     110.581E-03    -140.917E+06    -320.333E+06    -137.358E+06     690.043E+03    -165.514E-03     331.090E-03    -165.577E-03     19.0713E-03    -165.590E-03     329.928E-03    -165.595E-03     18.0258E-03
             787     1.52550E-03     110.615E-03    -136.225E+06    -311.366E+06    -124.668E+06     572.760E+03    -165.652E-03     331.178E-03    -165.526E-03     34.9350E-03    -165.811E-03     330.109E-03    -165.500E-03     32.9594E-03
             788     2.28822E-03     110.667E-03    -129.617E+06    -296.908E+06    -106.840E+06     855.204E+03    -165.890E-03     331.431E-03    -165.541E-03     51.0016E-03    -166.191E-03     330.528E-03    -165.457E-03     48.0277E-03
             789     3.05124E-03     110.739E-03    -121.601E+06    -273.307E+06    -87.8255E+06     1.24562E+06    -166.252E-03     331.812E-03    -165.560E-03     66.6887E-03    -166.758E-03     331.171E-03    -165.427E-03     62.6674E-03
             790     3.81381E-03     110.830E-03    -112.956E+06    -248.206E+06    -68.5533E+06     1.36427E+06    -166.638E-03     332.223E-03    -165.584E-03     81.7126E-03    -167.409E-03     331.910E-03    -165.404E-03     76.5854E-03
             791     4.57681E-03     110.940E-03    -103.931E+06    -223.798E+06    -49.5784E+06     1.49074E+06    -166.964E-03     332.566E-03    -165.601E-03     96.0609E-03    -168.061E-03     332.642E-03    -165.374E-03     89.7775E-03
             792     5.34025E-03     111.066E-03    -94.9385E+06    -194.525E+06    -33.1228E+06     1.84098E+06    -167.335E-03     332.927E-03    -165.592E-03     109.345E-03    -168.824E-03     333.484E-03    -165.338E-03     101.867E-03
             793     6.10272E-03     111.207E-03    -86.4299E+06    -164.527E+06    -17.5838E+06     2.20640E+06    -167.715E-03     333.297E-03    -165.582E-03     121.549E-03    -169.660E-03     334.403E-03    -165.306E-03     112.855E-03
             794     6.86639E-03     111.362E-03    -78.1112E+06    -132.454E+06    -2.59636E+06     2.40483E+06    -168.059E-03     333.633E-03    -165.574E-03     132.584E-03    -170.513E-03     335.347E-03    -165.281E-03     122.692E-03
             795     7.62889E-03     111.530E-03    -69.9797E+06    -96.9270E+06     12.1283E+06     2.73541E+06    -168.189E-03     333.751E-03    -165.561E-03     141.978E-03    -171.181E-03     336.115E-03    -165.259E-03     130.973E-03
             796     8.39225E-03     111.707E-03    -62.0870E+06    -59.2982E+06     26.8814E+06     3.11367E+06    -168.118E-03     333.658E-03    -165.540E-03     149.181E-03    -171.633E-03     336.664E-03    -165.229E-03     137.211E-03
             797     9.15537E-03     111.891E-03    -54.6397E+06    -16.1242E+06     41.5566E+06     3.10640E+06    -167.828E-03     333.329E-03    -165.501E-03     153.511E-03    -171.796E-03     336.925E-03    -165.191E-03     140.799E-03
             798     9.91900E-03     112.077E-03    -47.3133E+06     29.5787E+06     55.0336E+06     3.28770E+06    -167.191E-03     332.630E-03    -165.439E-03     153.946E-03    -171.467E-03     336.683E-03    -165.138E-03     140.794E-03
             799     10.6825E-03     112.260E-03    -39.6147E+06     68.8150E+06     65.9454E+06     3.62349E+06    -166.511E-03     331.873E-03    -165.362E-03     150.193E-03    -170.891E-03     336.165E-03    -165.075E-03     136.888E-03
             800     11.4469E-03     112.436E-03    -31.7961E+06     89.6370E+06     75.5588E+06     3.57837E+06    -165.713E-03     331.015E-03    -165.302E-03     141.919E-03    -169.963E-03     335.251E-03    -165.008E-03     128.737E-03
             801     12.2103E-03     112.597E-03    -24.8829E+06     94.8440E+06     87.4031E+06     2.34327E+06    -164.847E-03     330.122E-03    -165.275E-03     130.435E-03    -168.799E-03     334.070E-03    -164.940E-03     117.560E-03
             802     12.9753E-03     112.743E-03    -18.2091E+06     98.5642E+06     98.4108E+06     1.08367E+06    -164.106E-03     329.355E-03    -165.249E-03     113.845E-03    -167.535E-03     332.784E-03    -164.874E-03     101.632E-03
             803     13.7390E-03     112.865E-03    -11.2623E+06     105.385E+06     103.961E+06     600.065E+03    -163.727E-03     328.929E-03    -165.202E-03     99.6719E-03    -166.759E-03     331.994E-03    -164.819E-03     87.9014E-03
             804     14.5018E-03     112.975E-03    -5.95714E+06     108.324E+06     102.440E+06     578.682E+03    -163.624E-03     328.769E-03    -165.145E-03     66.1983E-03    -165.649E-03     330.861E-03    -164.781E-03     56.8530E-03
             805     763.026E-06     111.900E-03    -141.160E+06    -321.332E+06    -138.721E+06     355.687E+03    -165.539E-03     331.111E-03    -165.571E-03     19.2378E-03    -165.613E-03     329.945E-03    -165.594E-03     18.1856E-03
             806     1.52537E-03     111.933E-03    -136.707E+06    -312.151E+06    -125.823E+06     550.023E+03    -165.650E-03     331.182E-03    -165.531E-03     34.7039E-03    -165.809E-03     330.111E-03    -165.510E-03     32.7304E-03
             807     2.28847E-03     111.986E-03    -130.530E+06    -297.714E+06    -107.535E+06     756.854E+03    -165.924E-03     331.477E-03    -165.553E-03     50.8382E-03    -166.227E-03     330.571E-03    -165.469E-03     47.8674E-03
             808     3.05101E-03     112.058E-03    -122.293E+06    -274.439E+06    -88.7873E+06     954.811E+03    -166.367E-03     331.954E-03    -165.586E-03     66.6240E-03    -166.873E-03     331.309E-03    -165.455E-03     62.5979E-03
             809     3.81391E-03     112.150E-03    -113.538E+06    -248.944E+06    -69.4628E+06     1.37744E+06    -166.738E-03     332.365E-03    -165.627E-03     81.6584E-03    -167.509E-03     332.051E-03    -165.449E-03     76.5273E-03
             810     4.57672E-03     112.258E-03    -104.688E+06    -224.453E+06    -50.1083E+06     1.50367E+06    -167.090E-03     332.748E-03    -165.658E-03     95.9929E-03    -168.188E-03     332.823E-03    -165.431E-03     89.7023E-03
             811     5.33927E-03     112.385E-03    -95.7974E+06    -195.679E+06    -33.7513E+06     1.73845E+06    -167.429E-03     333.087E-03    -165.658E-03     109.286E-03    -168.920E-03     333.641E-03    -165.404E-03     101.800E-03
             812     6.10286E-03     112.526E-03    -87.0161E+06    -165.622E+06    -18.2746E+06     2.18188E+06    -167.821E-03     333.473E-03    -165.652E-03     121.512E-03    -169.766E-03     334.574E-03    -165.377E-03     112.810E-03
             813     6.86517E-03     112.681E-03    -78.5758E+06    -133.270E+06    -3.15418E+06     2.46308E+06    -168.083E-03     333.726E-03    -165.644E-03     132.515E-03    -170.536E-03     335.437E-03    -165.352E-03     122.621E-03
             814     7.62867E-03     112.849E-03    -70.3638E+06    -97.7972E+06     11.7358E+06     2.87197E+06    -168.119E-03     333.743E-03    -165.624E-03     141.853E-03    -171.108E-03     336.101E-03    -165.321E-03     130.854E-03
             815     8.39180E-03     113.026E-03    -62.3572E+06    -60.6196E+06     26.1493E+06     3.40430E+06    -168.026E-03     333.614E-03    -165.588E-03     149.104E-03    -171.536E-03     336.612E-03    -165.279E-03     137.145E-03
             816     9.15519E-03     113.210E-03    -54.6359E+06    -17.2391E+06     41.0595E+06     4.20540E+06    -167.653E-03     333.189E-03    -165.536E-03     153.207E-03    -171.611E-03     336.773E-03    -165.226E-03     140.528E-03
             817     9.91881E-03     113.395E-03    -47.2238E+06     29.8173E+06     55.1662E+06     4.25447E+06    -167.170E-03     332.636E-03    -165.466E-03     153.604E-03    -171.441E-03     336.685E-03    -165.165E-03     140.461E-03
             818     10.6826E-03     113.579E-03    -39.8383E+06     69.1358E+06     66.0671E+06     3.27563E+06    -166.517E-03     331.906E-03    -165.389E-03     149.711E-03    -170.895E-03     336.197E-03    -165.102E-03     136.391E-03
             819     11.4460E-03     113.753E-03    -32.2384E+06     89.4404E+06     75.4518E+06     2.61292E+06    -165.704E-03     331.035E-03    -165.331E-03     141.127E-03    -169.948E-03     335.263E-03    -165.037E-03     127.926E-03
             820     12.2105E-03     113.915E-03    -24.3827E+06     96.7092E+06     88.4336E+06     2.23697E+06    -165.149E-03     330.467E-03    -165.317E-03     129.754E-03    -169.106E-03     334.424E-03    -164.980E-03     116.822E-03
             821     12.9728E-03     114.062E-03    -17.1449E+06     100.360E+06     99.6347E+06     1.35850E+06    -164.480E-03     329.792E-03    -165.312E-03     113.251E-03    -167.914E-03     333.233E-03    -164.935E-03     100.977E-03
             822     13.7369E-03     114.182E-03    -11.0720E+06     105.483E+06     103.743E+06     773.981E+03    -163.575E-03     328.841E-03    -165.266E-03     100.077E-03    -166.611E-03     331.912E-03    -164.884E-03     88.3221E-03
             823     14.5009E-03     114.296E-03     -5.5898E+06     108.967E+06     102.336E+06     963.220E+03    -162.918E-03     328.099E-03    -165.181E-03     67.6997E-03    -164.949E-03     330.200E-03    -164.819E-03     58.4169E-03
             824     762.371E-06     113.219E-03    -142.417E+06    -321.943E+06    -138.746E+06     377.306E+03    -165.803E-03     331.280E-03    -165.478E-03     18.8337E-03    -165.882E-03     330.113E-03    -165.498E-03     17.7704E-03
             825     1.52537E-03     113.251E-03    -138.117E+06    -313.136E+06    -126.529E+06     341.391E+03    -165.715E-03     331.332E-03    -165.617E-03     34.4389E-03    -165.877E-03     330.260E-03    -165.596E-03     32.4626E-03
             826     2.28794E-03     113.304E-03    -130.943E+06    -298.360E+06    -108.330E+06     626.362E+03    -166.027E-03     331.664E-03    -165.636E-03     50.8152E-03    -166.329E-03     330.755E-03    -165.555E-03     47.8433E-03
             827     3.05084E-03     113.377E-03    -123.105E+06    -275.140E+06    -89.6334E+06     775.668E+03    -166.361E-03     332.024E-03    -165.663E-03     66.5082E-03    -166.867E-03     331.377E-03    -165.534E-03     62.4835E-03
             828     3.81355E-03     113.468E-03    -114.443E+06    -250.029E+06    -70.4780E+06     935.780E+03    -166.771E-03     332.463E-03    -165.691E-03     81.5384E-03    -167.544E-03     332.146E-03    -165.515E-03     76.3990E-03
             829     4.57628E-03     113.578E-03    -105.346E+06    -225.234E+06    -50.9483E+06     1.43773E+06    -167.175E-03     332.897E-03    -165.722E-03     95.8405E-03    -168.273E-03     332.970E-03    -165.498E-03     89.5455E-03
             830     5.33946E-03     113.703E-03    -96.2805E+06    -196.395E+06    -34.1508E+06     1.59307E+06    -167.565E-03     333.296E-03    -165.731E-03     109.275E-03    -169.056E-03     333.847E-03    -165.477E-03     101.779E-03
             831     6.10178E-03     113.845E-03    -87.3770E+06    -166.934E+06    -19.0058E+06     1.80088E+06    -167.910E-03     333.639E-03    -165.729E-03     121.569E-03    -169.856E-03     334.737E-03    -165.455E-03     112.853E-03
             832     6.86521E-03     114.000E-03    -78.6759E+06    -134.236E+06    -3.78676E+06     2.39899E+06    -168.073E-03     333.790E-03    -165.716E-03     132.436E-03    -170.524E-03     335.496E-03    -165.426E-03     122.537E-03
             833     7.62805E-03     114.167E-03    -70.1898E+06    -99.0998E+06     11.1939E+06     2.75908E+06    -168.146E-03     333.837E-03    -165.691E-03     141.704E-03    -171.132E-03     336.189E-03    -165.389E-03     130.693E-03
             834     8.39124E-03     114.345E-03    -62.0023E+06    -62.4506E+06     25.5564E+06     3.47385E+06    -168.005E-03     333.657E-03    -165.652E-03     148.660E-03    -171.506E-03     336.642E-03    -165.344E-03     136.696E-03
             835     9.15477E-03     114.527E-03    -53.9246E+06    -19.6044E+06     40.4488E+06     4.53607E+06    -167.672E-03     333.270E-03    -165.598E-03     152.562E-03    -171.617E-03     336.836E-03    -165.289E-03     139.874E-03
             836     9.91830E-03     114.714E-03    -45.8777E+06     30.0543E+06     55.8679E+06     5.07779E+06    -167.220E-03     332.752E-03    -165.532E-03     152.913E-03    -171.479E-03     336.793E-03    -165.230E-03     139.769E-03
             837     10.6816E-03     114.897E-03    -38.3183E+06     71.5272E+06     67.4545E+06     4.03724E+06    -166.512E-03     331.969E-03    -165.457E-03     148.855E-03    -170.878E-03     336.257E-03    -165.168E-03     135.540E-03
             838     11.4458E-03     115.072E-03    -31.1293E+06     90.4785E+06     76.5790E+06     2.30352E+06    -165.810E-03     331.212E-03    -165.403E-03     140.675E-03    -170.044E-03     335.435E-03    -165.106E-03     127.464E-03
             839     12.2085E-03     115.234E-03    -24.0952E+06     96.9326E+06     89.3048E+06     1.63078E+06    -165.121E-03     330.510E-03    -165.389E-03     129.799E-03    -169.073E-03     334.462E-03    -165.048E-03     116.876E-03
             840     12.9735E-03     115.380E-03    -17.4053E+06     100.677E+06     99.6866E+06     2.08089E+06    -164.015E-03     329.376E-03    -165.361E-03     113.689E-03    -167.454E-03     332.821E-03    -164.983E-03     101.463E-03
             841     13.7366E-03     115.500E-03    -11.3284E+06     106.481E+06     103.918E+06     2.14014E+06    -163.070E-03     328.353E-03    -165.283E-03     100.755E-03    -166.112E-03     331.431E-03    -164.901E-03     89.0646E-03
             842     14.5029E-03     115.610E-03    -5.42660E+06     110.270E+06     103.062E+06     1.02603E+06    -162.858E-03     328.040E-03    -165.182E-03     67.5975E-03    -164.889E-03     330.144E-03    -164.818E-03     58.3249E-03
             843     762.487E-06     114.538E-03    -143.137E+06    -322.889E+06    -140.217E+06     360.691E+03    -165.792E-03     331.404E-03    -165.612E-03     18.7224E-03    -165.871E-03     330.235E-03    -165.637E-03     17.6559E-03
             844     1.52516E-03     114.570E-03    -138.853E+06    -313.588E+06    -127.153E+06     489.659E+03    -165.870E-03     331.568E-03    -165.698E-03     34.6601E-03    -166.035E-03     330.495E-03    -165.677E-03     32.6813E-03
             845     2.28782E-03     114.624E-03    -132.263E+06    -298.892E+06    -109.148E+06     462.021E+03    -166.172E-03     331.913E-03    -165.741E-03     50.8749E-03    -166.479E-03     331.006E-03    -165.662E-03     47.8944E-03
             846     3.05043E-03     114.696E-03    -123.945E+06    -275.537E+06    -90.3697E+06     498.690E+03    -166.425E-03     332.195E-03    -165.770E-03     66.4153E-03    -166.935E-03     331.549E-03    -165.643E-03     62.3792E-03
             847     3.81325E-03     114.788E-03    -115.235E+06    -250.604E+06    -71.0658E+06     589.651E+03    -166.780E-03     332.566E-03    -165.786E-03     81.5410E-03    -167.554E-03     332.247E-03    -165.611E-03     76.3949E-03
             848     4.57602E-03     114.896E-03    -106.009E+06    -226.395E+06    -51.9898E+06     730.995E+03    -167.258E-03     333.065E-03    -165.807E-03     95.7519E-03    -168.356E-03     333.134E-03    -165.585E-03     89.4412E-03
             849     5.33857E-03     115.023E-03    -96.6679E+06    -197.265E+06    -35.2766E+06     1.05833E+06    -167.676E-03     333.493E-03    -165.817E-03     109.117E-03    -169.166E-03     334.042E-03    -165.567E-03     101.604E-03
             850     6.10174E-03     115.164E-03    -87.7546E+06    -167.687E+06    -19.7641E+06     1.32779E+06    -167.951E-03     333.768E-03    -165.817E-03     121.326E-03    -169.895E-03     334.862E-03    -165.545E-03     112.597E-03
             851     6.86434E-03     115.319E-03    -78.9685E+06    -135.804E+06    -4.86632E+06     1.74687E+06    -168.159E-03     333.962E-03    -165.803E-03     132.100E-03    -170.606E-03     335.661E-03    -165.516E-03     122.178E-03
             852     7.62747E-03     115.487E-03    -70.5994E+06    -100.757E+06     10.0567E+06     2.44614E+06    -168.228E-03     334.008E-03    -165.780E-03     141.269E-03    -171.208E-03     336.351E-03    -165.481E-03     130.239E-03
             853     8.39056E-03     115.663E-03    -62.3496E+06    -64.2969E+06     24.6995E+06     3.08978E+06    -168.132E-03     333.880E-03    -165.748E-03     148.105E-03    -171.628E-03     336.855E-03    -165.441E-03     136.112E-03
             854     9.15367E-03     115.846E-03    -54.1362E+06    -21.9279E+06     39.5741E+06     3.88193E+06    -167.863E-03     333.567E-03    -165.703E-03     152.004E-03    -171.802E-03     337.120E-03    -165.395E-03     139.278E-03
             855     9.91683E-03     116.032E-03    -45.9198E+06     28.9762E+06     55.4832E+06     4.47036E+06    -167.254E-03     332.897E-03    -165.643E-03     152.305E-03    -171.505E-03     336.927E-03    -165.341E-03     139.141E-03
             856     10.6807E-03     116.215E-03    -37.9701E+06     73.0967E+06     68.0706E+06     4.46077E+06    -166.469E-03     332.033E-03    -165.564E-03     148.292E-03    -170.827E-03     336.318E-03    -165.274E-03     134.985E-03
             857     11.4440E-03     116.390E-03    -31.3581E+06     92.9043E+06     77.0729E+06     3.55833E+06    -165.538E-03     331.032E-03    -165.494E-03     140.304E-03    -169.767E-03     335.255E-03    -165.197E-03     127.136E-03
             858     12.2087E-03     116.552E-03    -25.6009E+06     97.0756E+06     88.6708E+06     2.73821E+06    -164.560E-03     330.008E-03    -165.448E-03     129.886E-03    -168.503E-03     333.948E-03    -165.108E-03     117.062E-03
             859     12.9718E-03     116.697E-03    -19.3957E+06     100.596E+06     99.2697E+06     1.96596E+06    -163.630E-03     329.021E-03    -165.391E-03     112.989E-03    -167.057E-03     332.448E-03    -165.012E-03     100.826E-03
             860     13.7387E-03     116.815E-03    -12.0633E+06     108.479E+06     104.897E+06     1.45807E+06    -163.020E-03     328.324E-03    -165.304E-03     99.4669E-03    -166.055E-03     331.397E-03    -164.919E-03     87.7639E-03
             861     14.5002E-03     116.930E-03    -5.47867E+06     111.621E+06     103.800E+06     1.17453E+06    -162.771E-03     327.970E-03    -165.199E-03     67.4562E-03    -164.804E-03     330.079E-03    -164.834E-03     58.1661E-03
             862     762.800E-06     115.857E-03    -144.180E+06    -323.773E+06    -141.317E+06    -75.3505E+03    -165.971E-03     331.467E-03    -165.496E-03     19.0048E-03    -166.052E-03     330.298E-03    -165.525E-03     17.9218E-03
             863     1.52510E-03     115.889E-03    -139.502E+06    -314.180E+06    -128.185E+06     498.018E+03    -166.151E-03     331.929E-03    -165.778E-03     34.5015E-03    -166.317E-03     330.856E-03    -165.761E-03     32.5214E-03
             864     2.28756E-03     115.943E-03    -133.159E+06    -298.669E+06    -110.128E+06     399.245E+03    -166.253E-03     332.118E-03    -165.865E-03     50.6672E-03    -166.563E-03     331.214E-03    -165.790E-03     47.6800E-03
             865     3.05003E-03     116.015E-03    -125.046E+06    -275.433E+06    -91.3295E+06    -100.051E+03    -166.527E-03     332.414E-03    -165.887E-03     66.3710E-03    -167.041E-03     331.771E-03    -165.763E-03     62.3187E-03
             866     3.81274E-03     116.106E-03    -115.822E+06    -251.061E+06    -71.8393E+06    -129.271E+03    -166.919E-03     332.825E-03    -165.905E-03     81.3956E-03    -167.694E-03     332.505E-03    -165.733E-03     76.2316E-03
             867     4.57553E-03     116.216E-03    -106.455E+06    -226.823E+06    -52.9125E+06    -11.7600E+03    -167.353E-03     333.280E-03    -165.927E-03     95.6052E-03    -168.451E-03     333.348E-03    -165.708E-03     89.2733E-03
             868     5.33815E-03     116.342E-03    -97.3439E+06    -198.246E+06    -36.6808E+06     250.056E+03    -167.764E-03     333.697E-03    -165.932E-03     108.906E-03    -169.254E-03     334.244E-03    -165.687E-03     101.368E-03
             869     6.10070E-03     116.483E-03    -88.3131E+06    -168.669E+06    -21.0725E+06     559.391E+03    -168.087E-03     334.021E-03    -165.934E-03     121.004E-03    -170.029E-03     335.112E-03    -165.667E-03     112.247E-03
             870     6.86367E-03     116.639E-03    -79.7549E+06    -137.124E+06    -6.16099E+06     980.643E+03    -168.302E-03     334.228E-03    -165.927E-03     131.725E-03    -170.748E-03     335.922E-03    -165.643E-03     121.773E-03
             871     7.62636E-03     116.806E-03    -71.1844E+06    -102.369E+06     8.88886E+06     1.70240E+06    -168.363E-03     334.273E-03    -165.910E-03     140.762E-03    -171.340E-03     336.607E-03    -165.613E-03     129.702E-03
             872     8.38939E-03     116.983E-03    -62.7813E+06    -66.2128E+06     23.5335E+06     2.42663E+06    -168.298E-03     334.181E-03    -165.883E-03     147.620E-03    -171.787E-03     337.144E-03    -165.578E-03     135.599E-03
             873     9.15232E-03     117.165E-03    -54.6913E+06    -23.9928E+06     38.2507E+06     3.23757E+06    -167.955E-03     333.796E-03    -165.841E-03     151.532E-03    -171.886E-03     337.337E-03    -165.536E-03     138.784E-03
             874     9.91570E-03     117.351E-03    -47.0138E+06     27.2546E+06     54.0831E+06     4.07762E+06    -167.262E-03     333.039E-03    -165.777E-03     151.835E-03    -171.508E-03     337.057E-03    -165.478E-03     138.660E-03
             875     10.6790E-03     117.533E-03    -39.8467E+06     72.6620E+06     66.8702E+06     4.54960E+06    -166.287E-03     331.972E-03    -165.685E-03     147.973E-03    -170.645E-03     336.252E-03    -165.398E-03     134.678E-03
             876     11.4432E-03     117.708E-03    -32.6546E+06     94.1289E+06     76.3962E+06     4.56018E+06    -165.201E-03     330.792E-03    -165.591E-03     139.815E-03    -169.429E-03     335.016E-03    -165.298E-03     126.682E-03
             877     12.2074E-03     117.868E-03    -25.4015E+06     98.3021E+06     88.3311E+06     3.91161E+06    -164.245E-03     329.767E-03    -165.521E-03     128.832E-03    -168.172E-03     333.697E-03    -165.186E-03     116.042E-03
             878     12.9734E-03     118.016E-03    -18.2422E+06     102.405E+06     100.047E+06     2.49939E+06    -163.693E-03     329.152E-03    -165.459E-03     112.158E-03    -167.100E-03     332.567E-03    -165.081E-03     100.019E-03
             879     13.7340E-03     118.133E-03    -12.0055E+06     109.705E+06     105.473E+06     1.16114E+06    -163.052E-03     328.426E-03    -165.374E-03     98.4501E-03    -166.074E-03     331.490E-03    -164.989E-03     86.7486E-03
             880     14.5024E-03     118.245E-03    -6.46006E+06     112.359E+06     103.810E+06     461.056E+03    -161.983E-03     327.232E-03    -165.249E-03     66.2992E-03    -164.011E-03     329.335E-03    -164.884E-03     57.0382E-03
             881     762.567E-06     117.176E-03    -144.782E+06    -324.014E+06    -141.748E+06     285.593E+03    -166.239E-03     331.882E-03    -165.643E-03     19.0452E-03    -166.322E-03     330.713E-03    -165.672E-03     17.9751E-03
             882     1.52462E-03     117.210E-03    -140.965E+06    -315.181E+06    -129.434E+06     322.757E+03    -166.204E-03     332.159E-03    -165.954E-03     34.4251E-03    -166.374E-03     331.084E-03    -165.940E-03     32.4384E-03
             883     2.28697E-03     117.262E-03    -133.948E+06    -297.511E+06    -111.878E+06         684.467    -166.358E-03     332.358E-03    -166.000E-03     50.6069E-03    -166.672E-03     331.464E-03    -165.933E-03     47.6079E-03
             884     3.04989E-03     117.335E-03    -125.703E+06    -274.113E+06     -92.793E+06    -866.494E+03    -166.719E-03     332.742E-03    -166.023E-03     66.3170E-03    -167.236E-03     332.110E-03    -165.908E-03     62.2450E-03
             885     3.81216E-03     117.426E-03    -116.804E+06    -251.545E+06    -73.0227E+06    -1.12438E+06    -167.155E-03     333.217E-03    -166.062E-03     81.1864E-03    -167.933E-03     332.899E-03    -165.893E-03     75.9906E-03
             886     4.57450E-03     117.536E-03    -107.658E+06    -227.097E+06    -54.5254E+06    -729.335E+03    -167.486E-03     333.575E-03    -166.089E-03     95.3497E-03    -168.588E-03     333.646E-03    -165.876E-03     88.9933E-03
             887     5.33734E-03     117.662E-03    -98.4219E+06    -198.411E+06    -37.9983E+06    -703.496E+03    -167.870E-03     333.963E-03    -166.093E-03     108.597E-03    -169.363E-03     334.512E-03    -165.852E-03     101.033E-03
             888     6.09990E-03     117.804E-03    -89.4328E+06    -169.514E+06    -22.6894E+06    -632.915E+03    -168.269E-03     334.363E-03    -166.094E-03     120.652E-03    -170.212E-03     335.453E-03    -165.832E-03     111.858E-03
             889     6.86236E-03     117.958E-03    -80.4279E+06    -137.976E+06    -7.50927E+06    -147.968E+03    -168.472E-03     334.565E-03    -166.093E-03     131.252E-03    -170.915E-03     336.255E-03    -165.814E-03     121.264E-03
             890     7.62518E-03     118.126E-03    -71.6392E+06    -104.191E+06     7.31199E+06     375.031E+03    -168.544E-03     334.624E-03    -166.080E-03     140.281E-03    -171.515E-03     336.949E-03    -165.789E-03     129.181E-03
             891     8.38779E-03     118.302E-03    -63.0543E+06    -68.7190E+06     21.7181E+06     1.37217E+06    -168.389E-03     334.443E-03    -166.054E-03     147.116E-03    -171.868E-03     337.391E-03    -165.754E-03     135.067E-03
             892     9.15086E-03     118.485E-03    -54.7611E+06    -26.6597E+06     36.5965E+06     2.74157E+06    -167.927E-03     333.931E-03    -166.004E-03     150.972E-03    -171.844E-03     337.453E-03    -165.703E-03     138.215E-03
             893     9.91400E-03     118.670E-03    -46.9886E+06     24.3703E+06     52.6449E+06     4.44207E+06    -167.163E-03     333.090E-03    -165.926E-03     151.251E-03    -171.393E-03     337.086E-03    -165.630E-03     138.085E-03
             894     10.6778E-03     118.852E-03    -39.5556E+06     72.2074E+06     66.0888E+06     5.33015E+06    -166.121E-03     331.938E-03    -165.817E-03     147.186E-03    -170.464E-03     336.205E-03    -165.534E-03     133.911E-03
             895     11.4420E-03     119.025E-03    -32.3776E+06     94.9167E+06     75.8998E+06     4.66626E+06    -165.245E-03     330.958E-03    -165.714E-03     138.880E-03    -169.462E-03     335.177E-03    -165.425E-03     125.734E-03
             896     12.2061E-03     119.187E-03    -24.9327E+06     100.083E+06     88.7532E+06     3.43690E+06    -164.340E-03     329.989E-03    -165.649E-03     127.642E-03    -168.264E-03     333.922E-03    -165.314E-03     114.805E-03
             897     12.9688E-03     119.331E-03     -17.477E+06     103.841E+06     100.532E+06     2.58302E+06    -163.105E-03     328.675E-03    -165.569E-03     111.802E-03    -166.507E-03     332.091E-03    -165.192E-03     99.6920E-03
             898     13.7369E-03     119.453E-03    -11.0136E+06     110.184E+06     105.821E+06     1.65559E+06    -162.270E-03     327.711E-03    -165.441E-03     98.7820E-03    -165.288E-03     330.775E-03    -165.056E-03     87.1444E-03
             899     14.4972E-03     119.560E-03    -5.17514E+06     114.210E+06     105.124E+06     884.491E+03    -161.381E-03     326.658E-03    -165.277E-03     66.8027E-03    -163.416E-03     328.776E-03    -164.910E-03     57.5619E-03
             900     761.831E-06     118.497E-03    -146.001E+06    -324.720E+06    -143.214E+06    -10.5411E+03    -166.053E-03     332.346E-03    -166.293E-03     19.0360E-03    -166.140E-03     331.177E-03    -166.327E-03     17.9755E-03
             901     1.52463E-03     118.529E-03    -141.691E+06    -315.097E+06    -130.514E+06     60.3144E+03    -166.194E-03     332.331E-03    -166.137E-03     34.4834E-03    -166.366E-03     331.260E-03    -166.127E-03     32.4814E-03
             902     2.28715E-03     118.582E-03    -134.909E+06    -295.536E+06    -114.081E+06    -853.974E+03    -166.637E-03     332.783E-03    -166.146E-03     50.5436E-03    -166.954E-03     331.903E-03    -166.093E-03     47.5237E-03
             903     3.04888E-03     118.655E-03    -126.942E+06    -272.616E+06    -95.3180E+06    -1.62610E+06    -167.003E-03     333.207E-03    -166.204E-03     66.1280E-03    -167.525E-03     332.587E-03    -166.101E-03     62.0327E-03
             904     3.81136E-03     118.747E-03    -118.409E+06    -251.458E+06    -74.4872E+06    -1.65932E+06    -167.303E-03     333.562E-03    -166.260E-03     81.0119E-03    -168.087E-03     333.250E-03    -166.096E-03     75.7961E-03
             905     4.57383E-03     118.856E-03    -109.118E+06    -226.554E+06    -55.9614E+06    -1.98638E+06    -167.755E-03     334.044E-03    -166.289E-03     95.1672E-03    -168.863E-03     334.123E-03    -166.082E-03     88.7717E-03
             906     5.33597E-03     118.982E-03    -99.5382E+06    -198.362E+06    -39.8092E+06    -2.16990E+06    -168.158E-03     334.462E-03    -166.304E-03     108.263E-03    -169.653E-03     335.015E-03    -166.072E-03     100.653E-03
             907     6.09851E-03     119.124E-03    -90.2809E+06    -169.305E+06    -24.1594E+06    -2.01533E+06    -168.429E-03     334.742E-03    -166.313E-03     120.132E-03    -170.371E-03     335.833E-03    -166.057E-03     111.302E-03
             908     6.86094E-03     119.279E-03    -81.3129E+06    -138.990E+06    -9.37714E+06    -1.98735E+06    -168.666E-03     334.977E-03    -166.311E-03     130.711E-03    -171.106E-03     336.662E-03    -166.038E-03     120.676E-03
             909     7.62335E-03     119.445E-03    -72.3961E+06    -106.142E+06     5.19343E+06    -1.34242E+06    -168.693E-03     334.991E-03    -166.298E-03     139.644E-03    -171.656E-03     337.305E-03    -166.013E-03     128.500E-03
             910     8.38610E-03     119.622E-03    -63.7977E+06    -71.0691E+06     19.6268E+06    -265.852E+03    -168.400E-03     334.665E-03    -166.265E-03     146.335E-03    -171.867E-03     337.596E-03    -165.971E-03     134.254E-03
             911     9.14901E-03     119.804E-03    -55.2034E+06    -30.5035E+06     34.3506E+06     1.26043E+06    -167.878E-03     334.079E-03    -166.202E-03     150.197E-03    -171.778E-03     337.575E-03    -165.906E-03     137.416E-03
             912     9.91239E-03     119.989E-03    -46.4676E+06     19.6665E+06     50.6344E+06     3.50433E+06    -167.029E-03     333.136E-03    -166.108E-03     150.218E-03    -171.231E-03     337.096E-03    -165.816E-03     137.044E-03
             913     10.6761E-03     120.170E-03    -38.1895E+06     70.5592E+06     65.0237E+06     5.48414E+06    -166.082E-03     332.065E-03    -165.983E-03     146.208E-03    -170.401E-03     336.311E-03    -165.705E-03     132.930E-03
             914     11.4396E-03     120.344E-03    -30.9259E+06     96.6728E+06     75.8306E+06     5.54715E+06    -165.114E-03     330.981E-03    -165.866E-03     138.449E-03    -169.319E-03     335.199E-03    -165.582E-03     125.321E-03
             915     12.2034E-03     120.504E-03    -24.7495E+06     101.783E+06     88.6077E+06     4.29243E+06    -163.843E-03     329.617E-03    -165.774E-03     127.752E-03    -167.765E-03     333.556E-03    -165.443E-03     114.969E-03
             916     12.9697E-03     120.649E-03    -18.6911E+06     105.263E+06     100.636E+06     2.94892E+06    -162.415E-03     328.070E-03    -165.655E-03     112.207E-03    -165.833E-03     331.503E-03    -165.277E-03     100.137E-03
             917     13.7328E-03     120.766E-03    -11.8622E+06     111.431E+06     106.732E+06     1.64361E+06    -161.088E-03     326.561E-03    -165.473E-03     98.9372E-03    -164.113E-03     329.630E-03    -165.084E-03     87.3847E-03
             918     14.5037E-03     120.878E-03    -5.20918E+06     115.732E+06     106.469E+06     986.980E+03    -160.714E-03     325.974E-03    -165.259E-03     66.5597E-03    -162.741E-03     328.084E-03    -164.887E-03     57.4020E-03
             919     762.232E-06     119.817E-03    -147.233E+06    -324.781E+06    -144.179E+06    -179.678E+03    -166.293E-03     332.766E-03    -166.473E-03     18.6916E-03    -166.384E-03     331.600E-03    -166.509E-03     17.6113E-03
             920     1.52424E-03     119.850E-03    -142.396E+06    -313.495E+06    -132.081E+06    -880.000E+03    -166.532E-03     332.901E-03    -166.369E-03     34.2845E-03    -166.707E-03     331.841E-03    -166.368E-03     32.2716E-03
             921     2.28612E-03     119.903E-03    -135.898E+06    -293.076E+06    -115.918E+06    -1.88372E+06    -166.866E-03     333.264E-03    -166.399E-03     50.3083E-03    -167.189E-03     332.401E-03    -166.356E-03     47.2668E-03
             922     3.04843E-03     119.976E-03    -128.417E+06    -271.423E+06    -96.5972E+06    -2.21622E+06    -167.175E-03     333.626E-03    -166.450E-03     65.8852E-03    -167.704E-03     333.015E-03    -166.354E-03     61.7719E-03
             923     3.81047E-03     120.067E-03    -119.444E+06    -250.280E+06    -75.5668E+06    -2.64876E+06    -167.601E-03     334.106E-03    -166.505E-03     80.7492E-03    -168.390E-03     333.802E-03    -166.347E-03     75.5015E-03
             924     4.57260E-03     120.177E-03    -109.856E+06    -224.817E+06    -57.4325E+06    -3.42095E+06    -168.066E-03     334.611E-03    -166.544E-03     94.7829E-03    -169.178E-03     334.700E-03    -166.346E-03     88.3456E-03
             925     5.33469E-03     120.303E-03    -100.436E+06    -197.645E+06    -41.4813E+06    -3.96260E+06    -168.481E-03     335.054E-03    -166.573E-03     107.831E-03    -169.977E-03     335.612E-03    -166.348E-03     100.173E-03
             926     6.09657E-03     120.445E-03    -90.9894E+06    -169.453E+06    -26.1865E+06    -3.95582E+06    -168.750E-03     335.341E-03    -166.591E-03     119.617E-03    -170.692E-03     336.434E-03    -166.344E-03     110.727E-03
             927     6.85902E-03     120.599E-03    -81.9278E+06    -139.450E+06    -11.3113E+06    -3.72575E+06    -168.854E-03     335.446E-03    -166.592E-03     130.055E-03    -171.290E-03     337.129E-03    -166.327E-03     119.970E-03
             928     7.62120E-03     120.767E-03    -73.3108E+06    -107.330E+06     3.19230E+06    -3.28067E+06    -168.755E-03     335.326E-03    -166.570E-03     138.859E-03    -171.710E-03     337.630E-03    -166.292E-03     127.672E-03
             929     8.38378E-03     120.942E-03    -64.6589E+06    -73.3214E+06     17.4591E+06    -2.27959E+06    -168.444E-03     334.968E-03    -166.523E-03     145.510E-03    -171.901E-03     337.884E-03    -166.236E-03     133.383E-03
             930     9.14671E-03     121.125E-03    -56.1804E+06    -34.1171E+06     31.8636E+06    -1.00279E+06    -167.799E-03     334.243E-03    -166.444E-03     149.194E-03    -171.681E-03     337.712E-03    -166.154E-03     136.379E-03
             931     9.90993E-03     121.308E-03    -47.8587E+06     13.5432E+06     47.2890E+06     1.48613E+06    -166.900E-03     333.229E-03    -166.329E-03     149.319E-03    -171.079E-03     337.149E-03    -166.043E-03     136.128E-03
             932     10.6736E-03     121.489E-03    -39.9863E+06     66.2131E+06     62.0685E+06     4.39858E+06    -165.803E-03     331.981E-03    -166.178E-03     145.660E-03    -170.108E-03     336.199E-03    -165.905E-03     132.390E-03
             933     11.4380E-03     121.662E-03    -32.6995E+06     96.8982E+06     73.6712E+06     5.65781E+06    -164.348E-03     330.361E-03    -166.013E-03     137.964E-03    -168.542E-03     334.569E-03    -165.737E-03     124.909E-03
             934     12.2035E-03     121.821E-03    -25.7204E+06     103.224E+06     87.6316E+06     5.34003E+06    -162.934E-03     328.798E-03    -165.863E-03     127.283E-03    -166.843E-03     332.727E-03    -165.538E-03     114.604E-03
             935     12.9680E-03     121.963E-03    -19.1813E+06     108.310E+06     101.863E+06     4.05377E+06    -161.690E-03     327.389E-03    -165.699E-03     111.648E-03    -165.103E-03     330.823E-03    -165.319E-03     99.6579E-03
             936     13.7360E-03     122.083E-03    -12.8450E+06     114.235E+06     108.359E+06     2.00707E+06    -160.969E-03     326.466E-03    -165.497E-03     98.1270E-03    -163.994E-03     329.537E-03    -165.102E-03     86.5915E-03
             937     14.4987E-03     122.187E-03    -6.40966E+06     116.957E+06     107.488E+06     348.939E+03    -160.542E-03     325.818E-03    -165.276E-03     65.2303E-03    -162.566E-03     327.923E-03    -164.899E-03     56.0575E-03
             938     761.653E-06     121.138E-03    -147.760E+06    -323.017E+06    -145.443E+06    -588.923E+03    -167.056E-03     333.464E-03    -166.408E-03     18.2583E-03    -167.150E-03     332.309E-03    -166.452E-03     17.1586E-03
             939     1.52355E-03     121.171E-03    -143.534E+06    -310.339E+06    -133.636E+06    -2.02113E+06    -166.962E-03     333.694E-03    -166.731E-03     34.2146E-03    -167.146E-03     332.653E-03    -166.741E-03     32.1765E-03
             940     2.28538E-03     121.225E-03    -137.242E+06    -290.509E+06    -116.824E+06    -2.83322E+06    -167.092E-03     333.854E-03    -166.762E-03     50.0641E-03    -167.425E-03     333.007E-03    -166.726E-03     46.9982E-03
             941     3.04740E-03     121.297E-03    -129.033E+06    -269.801E+06    -96.5666E+06    -3.41385E+06    -167.429E-03     334.219E-03    -166.790E-03     65.5085E-03    -167.963E-03     333.617E-03    -166.694E-03     61.3650E-03
             942     3.80928E-03     121.389E-03    -119.766E+06    -248.030E+06    -76.7640E+06    -4.01275E+06    -167.955E-03     334.789E-03    -166.833E-03     80.3809E-03    -168.747E-03     334.497E-03    -166.684E-03     75.0959E-03
             943     4.57084E-03     121.498E-03    -110.569E+06    -222.529E+06    -59.1785E+06    -4.75623E+06    -168.432E-03     335.311E-03    -166.878E-03     94.3908E-03    -169.547E-03     335.415E-03    -166.691E-03     87.9101E-03
             944     5.33276E-03     121.625E-03    -101.367E+06    -195.543E+06    -42.9651E+06    -5.66552E+06    -168.808E-03     335.723E-03    -166.915E-03     107.261E-03    -170.308E-03     336.293E-03    -166.699E-03     99.5497E-03
             945     6.09478E-03     121.766E-03    -92.2712E+06    -169.077E+06    -28.2645E+06    -6.24518E+06    -169.074E-03     336.010E-03    -166.936E-03     118.911E-03    -171.015E-03     337.105E-03    -166.699E-03     109.958E-03
             946     6.85620E-03     121.921E-03    -83.0966E+06    -139.757E+06    -13.5792E+06    -5.92397E+06    -169.021E-03     335.953E-03    -166.932E-03     129.304E-03    -171.454E-03     337.634E-03    -166.677E-03     119.161E-03
             947     7.61877E-03     122.087E-03    -74.0395E+06    -107.827E+06     1.25271E+06    -5.46130E+06    -168.778E-03     335.671E-03    -166.893E-03     138.126E-03    -171.725E-03     337.969E-03    -166.623E-03     126.894E-03
             948     8.38124E-03     122.263E-03    -65.3410E+06    -75.8122E+06     15.1096E+06    -4.70755E+06    -168.389E-03     335.210E-03    -166.821E-03     144.789E-03    -171.830E-03     338.107E-03    -166.541E-03     132.629E-03
             949     9.14390E-03     122.444E-03    -57.0049E+06    -37.6601E+06     29.2942E+06    -2.66456E+06    -167.685E-03     334.399E-03    -166.714E-03     148.494E-03    -171.549E-03     337.842E-03    -166.431E-03     135.665E-03
             950     9.90755E-03     122.627E-03    -49.2462E+06     7.47371E+06     44.1281E+06     133.902E+03    -166.712E-03     333.284E-03    -166.571E-03     148.712E-03    -170.871E-03     337.166E-03    -166.290E-03     135.519E-03
             951     10.6715E-03     122.807E-03    -41.6053E+06     60.3856E+06     59.1736E+06     3.32446E+06    -165.306E-03     331.689E-03    -166.383E-03     144.766E-03    -169.585E-03     335.863E-03    -166.114E-03     131.532E-03
             952     11.4362E-03     122.978E-03    -34.3144E+06     95.3012E+06     71.6119E+06     5.29458E+06    -163.684E-03     329.853E-03    -166.169E-03     136.545E-03    -167.852E-03     334.029E-03    -165.899E-03     123.551E-03
             953     12.2016E-03     123.136E-03    -27.0484E+06     104.662E+06     86.3114E+06     4.86358E+06    -162.256E-03     328.228E-03    -165.972E-03     125.698E-03    -166.141E-03     332.139E-03    -165.653E-03     113.076E-03
             954     12.9685E-03     123.280E-03    -19.0676E+06     110.982E+06     102.556E+06     3.57559E+06    -161.101E-03     326.877E-03    -165.776E-03     109.765E-03    -164.484E-03     330.289E-03    -165.397E-03     97.8284E-03
             955     13.7335E-03     123.394E-03    -11.5201E+06     117.583E+06     110.831E+06     2.16504E+06    -160.415E-03     325.962E-03    -165.547E-03     97.4125E-03    -163.425E-03     329.027E-03    -165.147E-03     85.9303E-03
             956     14.5005E-03     123.508E-03    -5.79582E+06     118.580E+06     108.912E+06     717.568E+03    -159.634E-03     324.918E-03    -165.284E-03     65.9952E-03    -161.665E-03     327.034E-03    -164.903E-03     56.8678E-03
             957     761.717E-06     122.461E-03    -148.258E+06    -318.626E+06    -145.696E+06    -2.25347E+06    -167.430E-03     334.286E-03    -166.857E-03     18.5646E-03    -167.533E-03     333.155E-03    -166.908E-03     17.4315E-03
             958     1.52275E-03     122.494E-03    -144.323E+06    -306.578E+06    -133.890E+06    -2.69429E+06    -167.368E-03     334.512E-03    -167.144E-03     34.0631E-03    -167.561E-03     333.493E-03    -167.160E-03     32.0009E-03
             959     2.28451E-03     122.547E-03    -137.905E+06    -287.478E+06    -116.913E+06    -3.53039E+06    -167.534E-03     334.716E-03    -167.182E-03     49.8533E-03    -167.873E-03     333.884E-03    -167.150E-03     46.7625E-03
             960     3.04586E-03     122.620E-03    -129.765E+06    -267.136E+06    -97.0356E+06    -4.32407E+06    -167.895E-03     335.116E-03    -167.220E-03     65.2747E-03    -168.436E-03     334.528E-03    -167.130E-03     61.0970E-03
             961     3.80748E-03     122.711E-03    -121.036E+06    -244.622E+06    -78.3831E+06    -5.59352E+06    -168.332E-03     335.592E-03    -167.260E-03     80.0677E-03    -169.132E-03     335.321E-03    -167.122E-03     74.7372E-03
             962     4.56923E-03     122.822E-03    -111.481E+06    -219.748E+06    -60.8977E+06    -6.62008E+06    -168.838E-03     336.141E-03    -167.303E-03     93.8683E-03    -169.957E-03     336.260E-03    -167.127E-03     87.3347E-03
             963     5.33042E-03     122.947E-03    -102.112E+06    -192.911E+06    -44.6435E+06    -7.43801E+06    -169.174E-03     336.513E-03    -167.339E-03     106.628E-03    -170.676E-03     337.097E-03    -167.134E-03     98.8596E-03
             964     6.09165E-03     123.089E-03    -92.9611E+06    -166.894E+06    -29.5183E+06    -8.22309E+06    -169.195E-03     336.541E-03    -167.346E-03     118.288E-03    -171.137E-03     337.646E-03    -167.117E-03     109.286E-03
             965     6.85395E-03     123.243E-03    -83.7505E+06    -139.100E+06    -15.2349E+06    -8.63732E+06    -169.111E-03     336.425E-03    -167.313E-03     128.686E-03    -171.540E-03     338.106E-03    -167.066E-03     118.489E-03
             966     7.61573E-03     123.409E-03    -74.5805E+06    -108.926E+06    -1.05883E+06    -8.29508E+06    -168.834E-03     336.081E-03    -167.247E-03     137.471E-03    -171.771E-03     338.369E-03    -166.986E-03     126.189E-03
             967     8.37830E-03     123.584E-03    -65.8305E+06    -77.7613E+06     12.9411E+06    -7.04767E+06    -168.245E-03     335.390E-03    -167.145E-03     143.971E-03    -171.666E-03     338.264E-03    -166.872E-03     131.792E-03
             968     9.14176E-03     123.764E-03    -57.3198E+06    -42.3626E+06     26.7055E+06    -4.81305E+06    -167.549E-03     334.555E-03    -167.006E-03     147.585E-03    -171.385E-03     337.959E-03    -166.727E-03     134.743E-03
             969     9.90482E-03     123.946E-03    -48.6080E+06     1.33966E+06     41.6984E+06    -1.58656E+06    -166.419E-03     333.249E-03    -166.830E-03     147.506E-03    -170.537E-03     337.078E-03    -166.553E-03     134.323E-03
             970     10.6690E-03     124.125E-03    -40.4116E+06     52.9854E+06     57.1737E+06     2.50045E+06    -164.797E-03     331.400E-03    -166.603E-03     143.460E-03    -169.026E-03     335.508E-03    -166.335E-03     130.276E-03
             971     11.4342E-03     124.295E-03    -33.0466E+06     92.6806E+06     70.2463E+06     5.69778E+06    -163.193E-03     329.533E-03    -166.340E-03     135.531E-03    -167.320E-03     333.669E-03    -166.075E-03     122.610E-03
             972     12.1997E-03     124.452E-03    -26.3486E+06     108.150E+06     85.7718E+06     5.11771E+06    -161.855E-03     327.959E-03    -166.103E-03     125.017E-03    -165.718E-03     331.863E-03    -165.793E-03     112.462E-03
             973     12.9655E-03     124.592E-03    -19.7231E+06     112.897E+06     101.781E+06     2.81748E+06    -160.434E-03     326.305E-03    -165.872E-03     109.556E-03    -163.810E-03     329.718E-03    -165.498E-03     97.6723E-03
             974     13.7325E-03     124.711E-03    -12.1017E+06     119.014E+06     111.198E+06     1.62146E+06    -158.737E-03     324.315E-03    -165.578E-03     97.5780E-03    -161.736E-03     327.372E-03    -165.177E-03     86.2380E-03
             975     14.5013E-03     124.815E-03    -5.11916E+06     120.099E+06     110.932E+06     1.01405E+06    -157.984E-03     323.214E-03    -165.231E-03     66.1868E-03    -160.001E-03     325.318E-03    -164.843E-03     57.2078E-03
             976     760.961E-06     123.785E-03    -150.732E+06    -312.587E+06    -146.967E+06    -2.20894E+06    -167.661E-03     335.177E-03    -167.516E-03     18.8039E-03    -167.784E-03     334.081E-03    -167.579E-03     17.6774E-03
             977     1.52242E-03     123.817E-03    -145.831E+06    -302.323E+06    -134.591E+06    -3.44451E+06    -167.822E-03     335.422E-03    -167.600E-03     33.8104E-03    -168.027E-03     334.427E-03    -167.623E-03     31.7277E-03
             978     2.28323E-03     123.870E-03    -138.927E+06    -284.018E+06    -117.285E+06    -4.20642E+06    -168.096E-03     335.754E-03    -167.658E-03     49.6917E-03    -168.445E-03     334.942E-03    -167.631E-03     46.5751E-03
             979     3.04458E-03     123.943E-03    -130.627E+06    -262.768E+06    -97.8977E+06    -5.40363E+06    -168.489E-03     336.211E-03    -167.721E-03     65.0160E-03    -169.039E-03     335.648E-03    -167.640E-03     60.7972E-03
             980     3.80555E-03     124.035E-03    -121.448E+06    -239.824E+06    -79.0768E+06    -7.09704E+06    -168.919E-03     336.701E-03    -167.783E-03     79.6243E-03    -169.726E-03     336.455E-03    -167.654E-03     74.2392E-03
             981     4.56636E-03     124.145E-03    -112.183E+06    -216.179E+06    -62.1038E+06    -8.65825E+06    -169.196E-03     337.018E-03    -167.822E-03     93.3540E-03    -170.320E-03     337.156E-03    -167.657E-03     86.7625E-03
             982     5.32762E-03     124.272E-03    -102.637E+06    -189.614E+06    -46.1027E+06    -9.71756E+06    -169.264E-03     337.084E-03    -167.820E-03     106.130E-03    -170.768E-03     337.684E-03    -167.627E-03     98.3163E-03
             983     6.08931E-03     124.412E-03    -93.2190E+06    -164.026E+06    -30.7848E+06    -10.5673E+06    -169.282E-03     337.065E-03    -167.783E-03     117.854E-03    -171.223E-03     338.182E-03    -167.563E-03     108.807E-03
             984     6.85080E-03     124.566E-03    -84.1981E+06    -137.299E+06    -16.5991E+06    -11.2301E+06    -169.224E-03     336.940E-03    -167.716E-03     128.159E-03    -171.646E-03     338.624E-03    -167.478E-03     117.917E-03
             985     7.61300E-03     124.732E-03    -75.4265E+06    -108.992E+06    -2.84283E+06    -11.0926E+06    -168.859E-03     336.481E-03    -167.622E-03     136.585E-03    -171.781E-03     338.756E-03    -167.369E-03     125.268E-03
             986     8.37558E-03     124.905E-03    -66.5044E+06    -79.7246E+06     10.6725E+06    -10.0801E+06    -168.282E-03     335.777E-03    -167.495E-03     142.968E-03    -171.682E-03     338.627E-03    -167.229E-03     130.750E-03
             987     9.13811E-03     125.085E-03    -57.4735E+06    -46.8260E+06     24.2588E+06    -8.25207E+06    -167.297E-03     334.622E-03    -167.325E-03     146.485E-03    -171.096E-03     337.981E-03    -167.053E-03     133.634E-03
             988     9.90196E-03     125.266E-03    -48.7331E+06    -6.20403E+06     38.4586E+06    -4.75972E+06    -165.802E-03     332.899E-03    -167.097E-03     146.486E-03    -169.870E-03     336.660E-03    -166.825E-03     133.352E-03
             989     10.6666E-03     125.442E-03    -40.4303E+06     42.5721E+06     53.6169E+06     882.940E+03    -164.150E-03     330.959E-03    -166.809E-03     142.859E-03    -168.325E-03     334.986E-03    -166.544E-03     129.763E-03
             990     11.4320E-03     125.611E-03    -32.9073E+06     88.6232E+06     66.9073E+06     5.40623E+06    -162.441E-03     328.917E-03    -166.476E-03     135.246E-03    -166.523E-03     333.002E-03    -166.222E-03     122.447E-03
             991     12.1988E-03     125.766E-03    -25.8014E+06     111.691E+06      83.316E+06     5.62382E+06    -160.779E-03     326.941E-03    -166.162E-03     125.722E-03    -164.618E-03     330.843E-03    -165.870E-03     113.329E-03
             992     12.9652E-03     125.908E-03    -18.9552E+06     115.543E+06     101.247E+06     3.62668E+06    -159.042E-03     324.899E-03    -165.857E-03     111.032E-03    -162.403E-03     328.310E-03    -165.491E-03     99.3490E-03
             993     13.7343E-03     126.019E-03    -12.4033E+06     120.222E+06     111.564E+06     2.21384E+06    -157.984E-03     323.491E-03    -165.507E-03     98.7727E-03    -160.986E-03     326.552E-03    -165.105E-03     87.5367E-03
             994     14.5026E-03     126.128E-03    -5.16735E+06     121.388E+06     112.743E+06     782.095E+03    -157.430E-03     322.562E-03    -165.132E-03     66.6378E-03    -159.459E-03     324.677E-03    -164.737E-03     57.6600E-03
             995     760.845E-06     125.110E-03    -150.355E+06    -306.243E+06    -147.471E+06    -1.93909E+06    -168.158E-03     336.304E-03    -168.146E-03     18.6482E-03    -168.287E-03     335.240E-03    -168.221E-03     17.5364E-03
             996     1.52124E-03     125.142E-03    -146.097E+06    -296.634E+06    -134.687E+06    -3.67068E+06    -168.357E-03     336.516E-03    -168.160E-03     33.6661E-03    -168.571E-03     335.549E-03    -168.191E-03     31.5719E-03
             997     2.28222E-03     125.195E-03    -139.241E+06    -279.399E+06    -117.567E+06    -5.35609E+06    -168.749E-03     336.977E-03    -168.229E-03     49.4203E-03    -169.105E-03     336.188E-03    -168.209E-03     46.2717E-03
             998     3.04252E-03     125.269E-03    -130.689E+06    -257.218E+06    -98.5769E+06    -7.06887E+06    -169.135E-03     337.447E-03    -168.312E-03     64.6805E-03    -169.692E-03     336.912E-03    -168.242E-03     60.4122E-03
             999     3.80302E-03     125.361E-03    -121.618E+06    -234.652E+06    -79.8732E+06    -8.62213E+06    -169.356E-03     337.724E-03    -168.368E-03     79.3275E-03    -170.170E-03     337.505E-03    -168.251E-03     73.8968E-03
            1000     4.56378E-03     125.471E-03    -112.351E+06    -210.685E+06    -62.5578E+06    -10.3775E+06    -169.379E-03     337.745E-03    -168.366E-03     93.1811E-03    -170.510E-03     337.911E-03    -168.210E-03     86.5511E-03
            1001     5.32495E-03     125.596E-03    -103.085E+06    -185.366E+06    -46.8956E+06    -11.9103E+06    -169.416E-03     337.728E-03    -168.311E-03     105.847E-03    -170.923E-03     338.347E-03    -168.128E-03     97.9920E-03
            1002     6.08641E-03     125.736E-03    -94.0441E+06    -160.654E+06    -32.1063E+06    -13.0018E+06    -169.477E-03     337.713E-03    -168.236E-03     117.271E-03    -171.414E-03     338.839E-03    -168.027E-03     108.188E-03
            1003     6.84800E-03     125.890E-03    -85.3500E+06    -134.643E+06    -17.9361E+06    -13.7718E+06    -169.295E-03     337.435E-03    -168.140E-03     127.394E-03    -171.709E-03     339.119E-03    -167.911E-03     117.131E-03
            1004     7.60985E-03     126.054E-03    -76.4217E+06    -107.933E+06    -4.28492E+06    -14.0465E+06    -168.894E-03     336.909E-03    -168.015E-03     135.776E-03    -171.800E-03     339.173E-03    -167.769E-03     124.438E-03
            1005     8.37204E-03     126.227E-03    -67.5307E+06    -80.5305E+06     8.68065E+06    -13.6140E+06    -168.083E-03     335.931E-03    -167.848E-03     142.256E-03    -171.457E-03     338.755E-03    -167.590E-03     130.041E-03
            1006     9.13520E-03     126.405E-03    -59.0610E+06    -50.5066E+06     21.5124E+06    -11.8911E+06    -166.615E-03     334.231E-03    -167.616E-03     146.018E-03    -170.378E-03     337.542E-03    -167.349E-03     133.234E-03
            1007     9.89959E-03     126.584E-03    -50.5672E+06    -13.8283E+06     34.6435E+06    -8.55805E+06    -164.901E-03     332.203E-03    -167.302E-03     146.495E-03    -168.921E-03     335.894E-03    -167.036E-03     133.468E-03
            1008     10.6650E-03     126.760E-03    -41.9145E+06     29.1897E+06     48.7669E+06    -2.36347E+06    -163.153E-03     330.081E-03    -166.928E-03     143.249E-03    -167.264E-03     334.005E-03    -166.666E-03     130.303E-03
            1009     11.4315E-03     126.926E-03    -33.7921E+06     81.8710E+06     62.3732E+06     3.86069E+06    -161.305E-03     327.803E-03    -166.499E-03     136.222E-03    -165.341E-03     331.830E-03    -166.256E-03     123.604E-03
            1010     12.1984E-03     127.080E-03    -26.5563E+06     114.036E+06     79.5386E+06     5.11833E+06    -159.279E-03     325.362E-03    -166.083E-03     126.398E-03    -163.087E-03     329.250E-03    -165.812E-03     114.217E-03
            1011     12.9690E-03     127.217E-03    -19.3981E+06     117.653E+06     99.8855E+06     3.78637E+06    -158.033E-03     323.747E-03    -165.715E-03     111.386E-03    -161.369E-03     327.142E-03    -165.358E-03     99.8653E-03
            1012     13.7369E-03     127.332E-03    -12.6301E+06     123.200E+06     113.660E+06     2.34403E+06    -157.625E-03     322.971E-03    -165.346E-03     99.1882E-03    -160.627E-03     326.036E-03    -164.938E-03     88.0174E-03
            1013     14.5045E-03     127.438E-03    -5.92835E+06     123.188E+06     114.976E+06     913.582E+03    -157.053E-03     322.016E-03    -164.963E-03     67.3375E-03    -159.093E-03     324.140E-03    -164.559E-03     58.3871E-03
            1014     759.947E-06     126.436E-03    -148.224E+06    -300.174E+06    -145.147E+06    -1.85039E+06    -168.848E-03     337.663E-03    -168.815E-03     18.2002E-03    -168.978E-03     336.622E-03    -168.891E-03     17.0826E-03
            1015     1.52059E-03     126.469E-03    -143.904E+06    -289.896E+06    -133.227E+06    -3.72871E+06    -169.080E-03     337.924E-03    -168.845E-03     33.6177E-03    -169.295E-03     336.986E-03    -168.882E-03     31.5121E-03
            1016     2.28030E-03     126.522E-03    -137.642E+06    -272.685E+06    -116.863E+06    -6.02423E+06    -169.380E-03     338.291E-03    -168.911E-03     49.1683E-03    -169.738E-03     337.532E-03    -168.901E-03     45.9915E-03
            1017     3.04049E-03     126.596E-03    -130.124E+06    -251.009E+06    -98.9231E+06    -8.06866E+06    -169.506E-03     338.455E-03    -168.949E-03     64.6088E-03    -170.067E-03     337.950E-03    -168.891E-03     60.3128E-03
            1018     3.80073E-03     126.687E-03    -121.378E+06    -228.255E+06    -80.1992E+06    -10.1140E+06    -169.553E-03     338.487E-03    -168.935E-03     79.2205E-03    -170.371E-03     338.298E-03    -168.829E-03     73.7664E-03
            1019     4.56159E-03     126.796E-03    -112.122E+06    -204.500E+06    -62.7074E+06    -12.0159E+06    -169.641E-03     338.518E-03    -168.877E-03     92.8597E-03    -170.773E-03     338.708E-03    -168.731E-03     86.2093E-03
            1020     5.32257E-03     126.922E-03    -103.238E+06    -180.226E+06    -46.9633E+06    -13.6170E+06    -169.759E-03     338.555E-03    -168.796E-03     105.408E-03    -171.264E-03     339.190E-03    -168.620E-03     97.5314E-03
            1021     6.08325E-03     127.062E-03    -94.4438E+06    -156.245E+06    -32.3614E+06    -14.8668E+06    -169.618E-03     338.312E-03    -168.694E-03     116.833E-03    -171.550E-03     339.448E-03    -168.492E-03     107.744E-03
            1022     6.84479E-03     127.214E-03    -85.6226E+06    -130.885E+06    -18.3519E+06    -16.0492E+06    -169.227E-03     337.779E-03    -168.553E-03     127.039E-03    -171.626E-03     339.463E-03    -168.330E-03     116.794E-03
            1023     7.60680E-03     127.378E-03    -77.2593E+06    -105.809E+06    -5.22911E+06    -16.7191E+06    -168.525E-03     336.888E-03    -168.364E-03     135.802E-03    -171.410E-03     339.139E-03    -168.124E-03     124.521E-03
            1024     8.36932E-03     127.549E-03    -69.0902E+06    -79.9238E+06     7.38475E+06    -16.3466E+06    -167.231E-03     335.338E-03    -168.107E-03     142.516E-03    -170.576E-03     338.132E-03    -167.854E-03     130.421E-03
            1025     9.13356E-03     127.725E-03    -60.8446E+06    -53.2099E+06     19.5140E+06    -15.0749E+06    -165.584E-03     333.352E-03    -167.768E-03     146.545E-03    -169.303E-03     336.610E-03    -167.506E-03     133.918E-03
            1026     9.89882E-03     127.902E-03    -52.5893E+06    -20.1108E+06     31.4971E+06    -12.1235E+06    -163.815E-03     331.166E-03    -167.351E-03     147.332E-03    -167.781E-03     334.783E-03    -167.089E-03     134.487E-03
            1027     10.6653E-03     128.075E-03    -44.4003E+06     15.4968E+06     43.8702E+06    -6.34912E+06    -161.876E-03     328.756E-03    -166.880E-03     144.329E-03    -165.922E-03     332.572E-03    -166.619E-03     131.588E-03
            1028     11.4330E-03     128.240E-03    -36.2528E+06     71.4932E+06     57.1628E+06     534.801E+03    -159.837E-03     326.181E-03    -166.344E-03     137.458E-03    -163.812E-03     330.115E-03    -166.109E-03     125.080E-03
            1029     12.2026E-03     128.391E-03    -28.3298E+06     115.247E+06     76.7258E+06     3.82821E+06    -158.557E-03     324.409E-03    -165.852E-03     127.618E-03    -162.332E-03     328.270E-03    -165.595E-03     115.627E-03
            1030     12.9699E-03     128.527E-03    -20.8360E+06     119.995E+06     97.9002E+06     3.12308E+06    -157.638E-03     323.096E-03    -165.458E-03     113.043E-03    -160.970E-03     326.496E-03    -165.112E-03     101.634E-03
            1031     13.7389E-03     128.643E-03    -13.3387E+06     124.637E+06     113.290E+06     1.77711E+06    -156.627E-03     321.693E-03    -165.066E-03     101.369E-03    -159.631E-03     324.763E-03    -164.661E-03     90.3375E-03
            1032     14.5099E-03     128.745E-03    -6.51131E+06     124.423E+06     117.014E+06     1.07683E+06    -157.227E-03     321.909E-03    -164.682E-03     69.8723E-03    -159.281E-03     324.043E-03    -164.268E-03     60.9737E-03
            1033     759.761E-06     127.763E-03    -146.892E+06    -293.948E+06    -144.660E+06    -1.61555E+06    -170.060E-03     339.282E-03    -169.223E-03     18.1875E-03    -170.192E-03     338.270E-03    -169.307E-03     17.0607E-03
            1034     1.51895E-03     127.798E-03    -142.786E+06    -282.520E+06    -132.624E+06    -4.21319E+06    -169.717E-03     339.333E-03    -169.616E-03     33.5095E-03    -169.937E-03     338.428E-03    -169.663E-03     31.3931E-03
            1035     2.27863E-03     127.851E-03    -136.341E+06    -265.156E+06    -115.876E+06    -6.50211E+06    -169.684E-03     339.270E-03    -169.587E-03     49.2677E-03    -170.048E-03     338.546E-03    -169.584E-03     46.0774E-03
            1036     3.03858E-03     127.924E-03    -128.535E+06    -243.447E+06    -97.7138E+06    -8.93152E+06    -169.720E-03     339.236E-03    -169.517E-03     64.6857E-03    -170.284E-03     338.763E-03    -169.466E-03     60.3873E-03
            1037     3.79903E-03     128.015E-03    -119.812E+06    -221.005E+06    -79.0664E+06    -11.0778E+06    -169.863E-03     339.301E-03    -169.437E-03     79.0976E-03    -170.680E-03     339.137E-03    -169.339E-03     73.6450E-03
            1038     4.55927E-03     128.123E-03    -111.104E+06    -198.154E+06    -61.7785E+06    -13.1806E+06    -169.991E-03     339.342E-03    -169.350E-03     92.6713E-03    -171.120E-03     339.552E-03    -169.211E-03     86.0245E-03
            1039     5.31947E-03     128.249E-03    -102.306E+06    -174.150E+06    -45.9847E+06    -14.8559E+06    -169.791E-03     339.021E-03    -169.230E-03     105.413E-03    -171.287E-03     339.669E-03    -169.059E-03     97.5711E-03
            1040     6.08094E-03     128.387E-03    -93.6821E+06    -151.039E+06    -31.4240E+06    -16.3140E+06    -169.421E-03     338.481E-03    -169.060E-03     117.215E-03    -171.339E-03     339.621E-03    -168.862E-03     108.190E-03
            1041     6.84246E-03     128.539E-03    -85.3053E+06    -126.415E+06    -17.8381E+06    -17.5408E+06    -168.715E-03     337.545E-03    -168.830E-03     127.778E-03    -171.093E-03     339.224E-03    -168.612E-03     117.642E-03
            1042     7.60486E-03     128.701E-03    -77.2663E+06    -102.173E+06    -4.57326E+06    -18.0253E+06    -167.457E-03     335.982E-03    -168.525E-03     136.900E-03    -170.312E-03     338.213E-03    -168.288E-03     125.804E-03
            1043     8.36919E-03     128.870E-03    -69.3306E+06    -78.3556E+06     7.55413E+06    -18.2843E+06    -165.984E-03     334.119E-03    -168.135E-03     143.828E-03    -169.283E-03     336.872E-03    -167.883E-03     131.961E-03
            1044     9.13415E-03     129.043E-03    -61.3896E+06    -54.3979E+06     18.9414E+06    -17.3607E+06    -164.391E-03     332.067E-03    -167.676E-03     148.023E-03    -168.054E-03     335.264E-03    -167.413E-03     135.645E-03
            1045     9.90054E-03     129.218E-03    -53.8707E+06    -25.1425E+06     29.6447E+06    -14.6890E+06    -162.571E-03     329.726E-03    -167.155E-03     148.981E-03    -166.474E-03     333.262E-03    -166.892E-03     136.401E-03
            1046     10.6682E-03     129.389E-03    -45.6736E+06     5.33268E+06     41.1440E+06    -10.4487E+06    -160.624E-03     327.219E-03    -166.595E-03     146.008E-03    -164.595E-03     330.927E-03    -166.331E-03     133.524E-03
            1047     11.4372E-03     129.551E-03    -36.5422E+06     58.9002E+06     53.9823E+06    -3.86684E+06    -158.857E-03     324.844E-03    -165.987E-03     139.056E-03    -162.747E-03     328.657E-03    -165.750E-03     126.918E-03
            1048     12.2066E-03     129.701E-03    -28.0505E+06     111.446E+06     73.6962E+06     1.85426E+06    -157.720E-03     323.153E-03    -165.432E-03     130.331E-03    -161.441E-03     326.956E-03    -165.185E-03     118.589E-03
            1049     12.9763E-03     129.841E-03    -20.3894E+06     122.454E+06     95.1251E+06     2.50408E+06    -157.038E-03     322.035E-03    -164.997E-03     115.983E-03    -160.340E-03     325.424E-03    -164.669E-03     104.805E-03
            1050     13.7474E-03     129.947E-03    -12.9491E+06     125.930E+06     112.785E+06     1.44754E+06    -157.289E-03     321.922E-03    -164.633E-03     103.544E-03    -160.291E-03     324.998E-03    -164.233E-03     92.5557E-03
            1051     14.5161E-03     130.058E-03    -5.62400E+06     125.424E+06     119.224E+06     1.00881E+06    -158.696E-03     323.031E-03    -164.336E-03     71.3759E-03    -160.763E-03     325.179E-03    -163.913E-03     62.4013E-03
            1052     758.742E-06     129.097E-03    -144.381E+06    -286.292E+06    -142.785E+06    -2.64868E+06    -170.536E-03     340.482E-03    -169.945E-03     18.4476E-03    -170.670E-03     339.502E-03    -170.035E-03     17.3024E-03
            1053     1.51772E-03     129.128E-03    -140.617E+06    -274.460E+06    -130.821E+06    -4.93009E+06    -170.098E-03     340.265E-03    -170.167E-03     33.8468E-03    -170.323E-03     339.396E-03    -170.219E-03     31.7130E-03
            1054     2.27769E-03     129.181E-03    -133.937E+06    -256.758E+06    -113.657E+06    -7.51500E+06    -169.968E-03     340.028E-03    -170.060E-03     49.6320E-03    -170.334E-03     339.336E-03    -170.062E-03     46.4461E-03
            1055     3.03743E-03     129.253E-03    -125.820E+06    -235.387E+06    -94.9559E+06    -9.81053E+06    -170.031E-03     339.974E-03    -169.943E-03     64.7401E-03    -170.591E-03     339.527E-03    -169.894E-03     60.4664E-03
            1056     3.79723E-03     129.344E-03    -117.448E+06    -213.701E+06    -76.6775E+06    -11.9513E+06    -170.028E-03     339.850E-03    -169.822E-03     79.4429E-03    -170.840E-03     339.709E-03    -169.725E-03     74.0286E-03
            1057     4.55719E-03     129.452E-03    -108.570E+06    -190.873E+06    -59.2710E+06    -13.7083E+06    -169.796E-03     339.458E-03    -169.662E-03     93.4384E-03    -170.913E-03     339.684E-03    -169.524E-03     86.8706E-03
            1058     5.31841E-03     129.575E-03    -99.9239E+06    -167.909E+06    -43.5779E+06    -15.4168E+06    -169.400E-03     338.844E-03    -169.444E-03     106.600E-03    -170.880E-03     339.500E-03    -169.273E-03     98.8731E-03
            1059     6.07971E-03     129.713E-03    -91.6200E+06    -145.309E+06    -29.2352E+06    -16.9777E+06    -168.671E-03     337.831E-03    -169.160E-03     118.707E-03    -170.563E-03     338.967E-03    -168.962E-03     109.850E-03
            1060     6.84221E-03     129.863E-03    -83.5149E+06    -120.927E+06    -15.4503E+06    -17.9622E+06    -167.447E-03     336.237E-03    -168.790E-03     129.588E-03    -169.791E-03     337.900E-03    -168.570E-03     119.694E-03
            1061     7.60647E-03     130.022E-03    -75.4028E+06    -98.3596E+06    -2.48258E+06    -18.7514E+06    -166.073E-03     334.407E-03    -168.334E-03     139.008E-03    -168.878E-03     336.602E-03    -168.095E-03     128.197E-03
            1062     8.37143E-03     130.189E-03    -67.7101E+06    -75.7131E+06     9.33805E+06    -19.0430E+06    -164.580E-03     332.390E-03    -167.810E-03     146.113E-03    -167.817E-03     335.091E-03    -167.555E-03     134.572E-03
            1063     9.13800E-03     130.360E-03    -60.4800E+06    -54.0990E+06     20.1747E+06    -18.4803E+06    -162.926E-03     330.161E-03    -167.235E-03     150.542E-03    -166.517E-03     333.287E-03    -166.968E-03     138.520E-03
            1064     9.90568E-03     130.532E-03    -52.6894E+06    -27.8358E+06     30.5525E+06    -16.9520E+06    -161.221E-03     327.837E-03    -166.616E-03     151.862E-03    -165.043E-03     331.284E-03    -166.347E-03     139.638E-03
            1065     10.6745E-03     130.701E-03    -44.3262E+06    -551.897E+03     41.8237E+06    -14.3563E+06    -159.615E-03     325.602E-03    -165.988E-03     149.111E-03    -163.501E-03     329.208E-03    -165.714E-03     136.946E-03
            1066     11.4443E-03     130.861E-03    -35.9170E+06     44.9771E+06     52.7438E+06    -8.10753E+06    -158.330E-03     323.678E-03    -165.348E-03     142.793E-03    -162.146E-03     327.373E-03    -165.097E-03     130.908E-03
            1067     12.2142E-03     131.011E-03    -28.0487E+06     103.017E+06     70.6871E+06    -575.609E+03    -157.285E-03     322.051E-03    -164.766E-03     133.705E-03    -160.947E-03     325.774E-03    -164.521E-03     122.213E-03
            1068     12.9863E-03     131.145E-03    -20.9372E+06     124.916E+06     91.6723E+06     1.51162E+06    -157.672E-03     322.013E-03    -164.341E-03     118.693E-03    -160.945E-03     325.389E-03    -164.033E-03     107.664E-03
            1069     13.7534E-03     131.261E-03    -13.7465E+06     126.376E+06     111.216E+06     742.604E+03    -159.561E-03     323.656E-03    -164.095E-03     106.189E-03    -162.573E-03     326.745E-03    -163.702E-03     95.1256E-03
            1070     14.5188E-03     131.368E-03    -6.48302E+06     125.875E+06     120.974E+06     928.824E+03    -160.683E-03     324.632E-03    -163.949E-03     73.6395E-03    -162.781E-03     326.803E-03    -163.518E-03     64.5284E-03
            1071     758.948E-06     130.427E-03    -140.908E+06    -276.942E+06    -137.384E+06    -3.23618E+06    -169.770E-03     340.526E-03    -170.756E-03     19.0334E-03    -169.909E-03     339.581E-03    -170.837E-03     17.8779E-03
            1072     1.51835E-03     130.460E-03    -135.758E+06    -265.299E+06    -125.806E+06    -5.76651E+06    -170.330E-03     340.558E-03    -170.228E-03     34.3554E-03    -170.549E-03     339.718E-03    -170.276E-03     32.2421E-03
            1073     2.27694E-03     130.512E-03    -129.388E+06    -247.765E+06    -109.601E+06    -8.08885E+06    -170.305E-03     340.491E-03    -170.186E-03     50.1715E-03    -170.663E-03     339.828E-03    -170.187E-03     47.0298E-03
            1074     3.03652E-03     130.584E-03    -121.983E+06    -227.276E+06    -91.4707E+06    -10.4217E+06    -170.035E-03     340.111E-03    -170.076E-03     65.6629E-03    -170.586E-03     339.688E-03    -170.027E-03     61.4535E-03
            1075     3.79638E-03     130.673E-03    -113.582E+06    -205.962E+06    -73.1059E+06    -12.4326E+06    -169.596E-03     339.472E-03    -169.876E-03     80.7318E-03    -170.393E-03     339.347E-03    -169.778E-03     75.4302E-03
            1076     4.55772E-03     130.780E-03    -104.959E+06    -183.770E+06    -55.8270E+06    -14.0690E+06    -169.045E-03     338.636E-03    -169.592E-03     95.0142E-03    -170.140E-03     338.869E-03    -169.452E-03     88.6109E-03
            1077     5.31908E-03     130.902E-03    -96.2207E+06    -161.623E+06    -40.0734E+06    -15.7369E+06    -168.281E-03     337.511E-03    -169.230E-03     108.594E-03    -169.728E-03     338.159E-03    -169.056E-03     101.090E-03
            1078     6.08158E-03     131.038E-03    -87.7307E+06    -139.064E+06    -25.3996E+06    -16.8737E+06    -167.094E-03     335.874E-03    -168.780E-03     121.291E-03    -168.944E-03     336.992E-03    -168.578E-03     112.733E-03
            1079     6.84599E-03     131.185E-03    -79.6395E+06    -115.629E+06    -11.6568E+06    -17.8316E+06    -165.806E-03     334.049E-03    -168.242E-03     132.639E-03    -168.094E-03     335.676E-03    -168.017E-03     123.097E-03
            1080     7.61124E-03     131.342E-03    -72.2051E+06    -94.1880E+06     903.270E+03    -18.6304E+06    -164.400E-03     332.042E-03    -167.643E-03     142.278E-03    -167.135E-03     334.184E-03    -167.397E-03     131.871E-03
            1081     8.37799E-03     131.506E-03    -65.1542E+06    -72.4225E+06     12.7325E+06    -18.7161E+06    -162.833E-03     329.825E-03    -166.992E-03     149.994E-03    -165.993E-03     332.460E-03    -166.729E-03     138.904E-03
            1082     9.14606E-03     131.675E-03    -57.8320E+06    -51.7005E+06     23.7368E+06    -18.9265E+06    -161.323E-03     327.633E-03    -166.310E-03     154.901E-03    -164.830E-03     330.682E-03    -166.033E-03     143.340E-03
            1083     9.91547E-03     131.844E-03    -50.6699E+06    -28.3172E+06     33.5126E+06    -18.3295E+06    -159.893E-03     325.508E-03    -165.615E-03     156.393E-03    -163.624E-03     328.861E-03    -165.332E-03     144.619E-03
            1084     10.6858E-03     132.011E-03    -43.9684E+06    -3.62657E+06     43.8352E+06    -16.3815E+06    -158.857E-03     323.805E-03    -164.949E-03     154.113E-03    -162.667E-03     327.320E-03    -164.661E-03     142.341E-03
            1085     11.4561E-03     132.170E-03    -36.7560E+06     32.6087E+06     52.6487E+06    -11.6103E+06    -158.238E-03     322.560E-03    -164.322E-03     147.740E-03    -161.983E-03     326.138E-03    -164.053E-03     136.156E-03
            1086     12.2273E-03     132.318E-03    -28.4848E+06     91.5868E+06     69.5882E+06    -3.76422E+06    -158.533E-03     322.339E-03    -163.806E-03     138.466E-03    -162.147E-03     325.975E-03    -163.550E-03     127.129E-03
            1087     12.9948E-03     132.455E-03    -20.8248E+06     125.445E+06     88.4135E+06     1.14439E+06    -159.975E-03     323.465E-03    -163.490E-03     124.345E-03    -163.254E-03     326.859E-03    -163.200E-03     113.351E-03
            1088     13.7628E-03     132.574E-03    -14.4177E+06     127.498E+06     108.505E+06     723.666E+03    -161.827E-03     325.228E-03    -163.401E-03     111.912E-03    -164.872E-03     328.360E-03    -163.023E-03     100.825E-03
            1089     14.5291E-03     132.683E-03    -7.39487E+06     125.800E+06     122.054E+06     23.4160E+03    -163.975E-03     327.421E-03    -163.446E-03     77.4993E-03    -166.112E-03     329.625E-03    -163.007E-03     68.2221E-03
            1090     759.425E-06     131.759E-03    -134.854E+06    -266.881E+06    -131.571E+06    -3.07432E+06    -169.747E-03     339.977E-03    -170.230E-03     19.2260E-03    -169.877E-03     339.063E-03    -170.306E-03     18.1084E-03
            1091     1.51831E-03     131.791E-03    -130.576E+06    -255.279E+06    -119.917E+06    -5.83918E+06    -169.959E-03     339.891E-03    -169.932E-03     34.6546E-03    -170.171E-03     339.081E-03    -169.972E-03     32.6208E-03
            1092     2.27795E-03     131.843E-03    -124.298E+06    -238.771E+06    -105.044E+06    -8.61076E+06    -169.754E-03     339.579E-03    -169.825E-03     51.1614E-03    -170.100E-03     338.940E-03    -169.823E-03     48.1188E-03
            1093     3.03760E-03     131.913E-03    -117.011E+06    -219.190E+06    -87.2175E+06    -10.5463E+06    -169.257E-03     338.880E-03    -169.623E-03     67.3393E-03    -169.791E-03     338.474E-03    -169.572E-03     63.2709E-03
            1094     3.79876E-03     132.002E-03    -108.957E+06    -198.178E+06    -68.7734E+06    -12.3844E+06    -168.522E-03     337.830E-03    -169.308E-03     82.8239E-03    -169.295E-03     337.712E-03    -169.207E-03     77.7233E-03
            1095     4.56001E-03     132.107E-03    -100.364E+06    -176.773E+06    -51.7083E+06    -14.5362E+06    -167.561E-03     336.440E-03    -168.879E-03     97.8455E-03    -168.624E-03     336.669E-03    -168.736E-03     91.7017E-03
            1096     5.32303E-03     132.227E-03    -91.8259E+06    -155.151E+06    -36.0279E+06    -15.7200E+06    -166.244E-03     334.580E-03    -168.335E-03     112.044E-03    -167.647E-03     335.210E-03    -168.158E-03     104.889E-03
            1097     6.08827E-03     132.359E-03    -83.5607E+06    -133.030E+06    -21.2234E+06    -16.8012E+06    -164.932E-03     332.629E-03    -167.696E-03     125.244E-03    -166.722E-03     333.711E-03    -167.488E-03     117.110E-03
            1098     6.85404E-03     132.505E-03    -75.7171E+06    -111.184E+06    -7.64159E+06    -17.4983E+06    -163.639E-03     330.635E-03    -166.997E-03     137.246E-03    -165.853E-03     332.208E-03    -166.764E-03     128.191E-03
            1099     7.62122E-03     132.658E-03    -68.2916E+06    -89.7155E+06     5.39205E+06    -17.5261E+06    -162.176E-03     328.433E-03    -166.257E-03     147.625E-03    -164.826E-03     330.506E-03    -166.001E-03     137.770E-03
            1100     8.39040E-03     132.820E-03    -61.0548E+06    -68.6786E+06     17.6641E+06    -17.8855E+06    -160.856E-03     326.349E-03    -165.493E-03     156.004E-03    -163.922E-03     328.903E-03    -165.217E-03     145.488E-03
            1101     9.16053E-03     132.986E-03    -54.5733E+06    -48.3206E+06     28.1667E+06    -17.8024E+06    -159.769E-03     324.506E-03    -164.736E-03     161.177E-03    -163.179E-03     327.468E-03    -164.446E-03     150.190E-03
            1102     9.93126E-03     133.153E-03    -49.0129E+06    -27.6361E+06     37.2391E+06    -17.0429E+06    -158.979E-03     322.999E-03    -164.021E-03     162.791E-03    -162.621E-03     326.262E-03    -163.723E-03     151.544E-03
            1103     10.7025E-03     133.318E-03    -43.2499E+06    -3.84745E+06     46.9859E+06    -15.8678E+06    -158.677E-03     322.062E-03    -163.385E-03     160.623E-03    -162.411E-03     325.493E-03    -163.082E-03     149.305E-03
            1104     11.4737E-03     133.478E-03    -37.0094E+06     25.1955E+06     54.7548E+06    -13.5241E+06    -159.285E-03     322.143E-03    -162.858E-03     154.195E-03    -162.966E-03     325.624E-03    -162.567E-03     142.915E-03
            1105     12.2425E-03     133.626E-03    -29.8211E+06     78.7088E+06     69.8676E+06    -7.16518E+06    -160.947E-03     323.453E-03    -162.506E-03     145.568E-03    -164.537E-03     327.015E-03    -162.228E-03     134.339E-03
            1106     13.0110E-03     133.769E-03    -21.3173E+06     121.391E+06     85.7185E+06    -1.51638E+06    -163.150E-03     325.522E-03    -162.372E-03     131.140E-03    -166.443E-03     328.922E-03    -162.089E-03     120.121E-03
            1107     13.7753E-03     133.886E-03    -13.1900E+06     128.423E+06     105.802E+06     387.761E+03    -165.883E-03     328.396E-03    -162.513E-03     117.202E-03    -168.953E-03     331.568E-03    -162.151E-03     105.978E-03
            1108     14.5371E-03     134.003E-03    -6.82422E+06     126.105E+06     122.196E+06     148.013E+03    -169.313E-03     332.164E-03    -162.851E-03     81.1442E-03    -171.477E-03     334.398E-03    -162.413E-03     71.6385E-03
            1109     759.209E-06     133.090E-03    -129.695E+06    -256.840E+06    -127.266E+06    -3.44956E+06    -169.593E-03     338.313E-03    -168.720E-03     19.7866E-03    -169.717E-03     337.433E-03    -168.795E-03     18.7449E-03
            1110     1.51940E-03     133.121E-03    -125.651E+06    -245.501E+06    -116.233E+06    -5.89281E+06    -168.677E-03     337.670E-03    -168.994E-03     35.8618E-03    -168.880E-03     336.893E-03    -169.037E-03     33.9227E-03
            1111     2.27998E-03     133.172E-03    -120.202E+06    -229.390E+06    -100.983E+06    -8.53801E+06    -168.065E-03     336.756E-03    -168.691E-03     52.8512E-03    -168.401E-03     336.144E-03    -168.689E-03     49.9717E-03
            1112     3.04163E-03     133.241E-03    -112.969E+06    -210.848E+06    -83.1216E+06    -10.9116E+06    -167.340E-03     335.640E-03    -168.300E-03     69.6470E-03    -167.855E-03     335.247E-03    -168.246E-03     65.8125E-03
            1113     3.80345E-03     133.327E-03    -104.453E+06    -190.404E+06    -64.9238E+06    -12.9853E+06    -166.302E-03     334.107E-03    -167.805E-03     86.2040E-03    -167.045E-03     333.992E-03    -167.703E-03     81.4061E-03
            1114     4.56755E-03     133.430E-03    -95.9283E+06    -169.588E+06    -47.7797E+06    -14.5910E+06    -164.893E-03     332.076E-03    -167.183E-03     102.148E-03    -165.914E-03     332.292E-03    -167.036E-03     96.4048E-03
            1115     5.33335E-03     133.546E-03    -87.6460E+06    -149.291E+06    -32.0173E+06    -15.6495E+06    -163.510E-03     329.961E-03    -166.450E-03     117.176E-03    -164.856E-03     330.557E-03    -166.267E-03     110.503E-03
            1116     6.09978E-03     133.677E-03    -79.6240E+06    -127.628E+06    -17.2259E+06    -16.3072E+06    -162.142E-03     327.791E-03    -165.649E-03     131.308E-03    -163.860E-03     328.823E-03    -165.434E-03     123.736E-03
            1117     6.86841E-03     133.818E-03    -72.2525E+06    -106.748E+06    -3.38002E+06    -16.3359E+06    -160.681E-03     325.483E-03    -164.802E-03     144.198E-03    -162.808E-03     326.984E-03    -164.559E-03     135.793E-03
            1118     7.63916E-03     133.969E-03    -65.2805E+06    -85.9871E+06     9.43984E+06    -16.2025E+06    -159.650E-03     323.593E-03    -163.943E-03     155.359E-03    -162.204E-03     325.582E-03    -163.677E-03     146.183E-03
            1119     8.41008E-03     134.129E-03    -58.9822E+06    -65.0493E+06     21.4141E+06    -16.0484E+06    -158.922E-03     322.043E-03    -163.122E-03     164.008E-03    -161.887E-03     324.505E-03    -162.835E-03     154.172E-03
            1120     9.18204E-03     134.293E-03    -53.2415E+06    -46.3991E+06     31.4549E+06    -15.3365E+06    -158.499E-03     320.866E-03    -162.366E-03     169.610E-03    -161.812E-03     323.733E-03    -162.065E-03     159.274E-03
            1121     9.95440E-03     134.460E-03    -47.3406E+06    -25.2436E+06     41.2122E+06    -14.7200E+06    -158.816E-03     320.534E-03    -161.719E-03     171.451E-03    -162.373E-03     323.714E-03    -161.407E-03     160.761E-03
            1122     10.7258E-03     134.625E-03    -41.6041E+06    -3.15299E+06     50.2019E+06    -13.9585E+06    -159.824E-03     321.049E-03    -161.225E-03     168.919E-03    -163.487E-03     324.408E-03    -160.909E-03     158.028E-03
            1123     11.4962E-03     134.785E-03    -36.5826E+06     23.1776E+06     57.8643E+06    -12.2362E+06    -161.778E-03     322.696E-03    -160.918E-03     162.532E-03    -165.421E-03     326.124E-03    -160.609E-03     151.519E-03
            1124     12.2643E-03     134.939E-03    -30.2941E+06     71.0925E+06     71.6804E+06    -9.72139E+06    -164.609E-03     325.447E-03    -160.838E-03     153.448E-03    -168.184E-03     328.960E-03    -160.539E-03     142.287E-03
            1125     13.0283E-03     135.082E-03    -22.4941E+06     113.769E+06     83.9906E+06    -5.49341E+06    -167.992E-03     328.992E-03    -161.000E-03     138.001E-03    -171.295E-03     332.377E-03    -160.713E-03     126.865E-03
            1126     13.7896E-03     135.209E-03    -14.2707E+06     126.388E+06     102.137E+06    -2.29337E+06    -172.203E-03     333.684E-03    -161.481E-03     123.625E-03    -175.331E-03     336.914E-03    -161.132E-03     112.049E-03
            1127     14.5463E-03     135.329E-03    -4.83380E+06     125.135E+06     121.392E+06    -397.404E+03    -176.686E-03     338.906E-03    -162.220E-03     86.5073E-03    -178.897E-03     341.193E-03    -161.788E-03     76.6108E-03
            1128     761.372E-06     134.417E-03    -124.901E+06    -245.916E+06    -124.125E+06    -3.43469E+06    -167.238E-03     333.853E-03    -166.615E-03     20.4932E-03    -167.356E-03     333.014E-03    -166.698E-03     19.5366E-03
            1129     1.52269E-03     134.447E-03    -122.499E+06    -235.522E+06    -113.319E+06    -6.33702E+06    -166.197E-03     332.895E-03    -166.698E-03     37.8759E-03    -166.399E-03     332.154E-03    -166.745E-03     36.0814E-03
            1130     2.28514E-03     134.496E-03    -116.765E+06    -219.689E+06    -97.9076E+06    -8.86504E+06    -165.271E-03     331.533E-03    -166.262E-03     55.8675E-03    -165.598E-03     330.949E-03    -166.264E-03     53.2178E-03
            1131     3.04859E-03     134.563E-03    -109.329E+06    -201.972E+06    -80.0595E+06    -11.6166E+06    -164.067E-03     329.758E-03    -165.692E-03     73.6810E-03    -164.561E-03     329.379E-03    -165.640E-03     70.1715E-03
            1132     3.81427E-03     134.647E-03    -101.500E+06    -182.829E+06    -62.4719E+06    -13.5516E+06    -162.645E-03     327.630E-03    -164.985E-03     91.0176E-03    -163.352E-03     327.508E-03    -164.885E-03     86.6565E-03
            1133     4.58101E-03     134.745E-03    -93.5180E+06    -162.993E+06    -45.1974E+06    -14.4278E+06    -161.158E-03     325.328E-03    -164.170E-03     107.835E-03    -162.127E-03     325.516E-03    -164.024E-03     102.636E-03
            1134     5.34934E-03     134.859E-03    -85.6185E+06    -143.667E+06    -29.2177E+06    -15.2992E+06    -159.710E-03     322.986E-03    -163.276E-03     124.228E-03    -160.988E-03     323.533E-03    -163.090E-03     118.193E-03
            1135     6.11991E-03     134.987E-03    -78.1604E+06    -123.145E+06    -14.7062E+06    -15.3011E+06    -158.315E-03     320.646E-03    -162.330E-03     139.560E-03    -159.949E-03     321.606E-03    -162.112E-03     132.716E-03
            1136     6.89222E-03     135.125E-03    -70.9274E+06    -103.591E+06    -949.363E+03    -14.9318E+06    -157.443E-03     318.830E-03    -161.387E-03     153.495E-03    -159.472E-03     320.241E-03    -161.139E-03     145.855E-03
            1137     7.66489E-03     135.275E-03    -64.1355E+06    -83.0164E+06     11.9112E+06    -14.4135E+06    -157.108E-03     317.611E-03    -160.503E-03     165.392E-03    -159.558E-03     319.503E-03    -160.230E-03     156.985E-03
            1138     8.43868E-03     135.433E-03    -57.8119E+06    -62.2035E+06     23.9481E+06    -13.3922E+06    -157.244E-03     316.968E-03    -159.724E-03     174.409E-03    -160.105E-03     319.333E-03    -159.430E-03     165.312E-03
            1139     9.21259E-03     135.596E-03    -51.5636E+06    -44.6346E+06     34.2082E+06    -12.8779E+06    -158.185E-03     317.278E-03    -159.093E-03     180.140E-03    -161.401E-03     320.053E-03    -158.782E-03     170.441E-03
            1140     9.98542E-03     135.764E-03    -46.1164E+06    -23.4391E+06     43.7026E+06    -11.6628E+06    -159.931E-03     318.584E-03    -158.653E-03     181.564E-03    -163.407E-03     321.686E-03    -158.333E-03     171.400E-03
            1141     10.7566E-03     135.931E-03    -41.7336E+06    -1.08537E+06     52.5388E+06    -11.0209E+06    -162.687E-03     321.141E-03    -158.454E-03     178.551E-03    -166.304E-03     324.454E-03    -158.129E-03     168.002E-03
            1142     11.5243E-03     136.095E-03    -36.0561E+06     24.3994E+06     61.1190E+06    -11.0419E+06    -166.228E-03     324.748E-03    -158.521E-03     171.377E-03    -169.853E-03     328.156E-03    -158.198E-03     160.497E-03
            1143     12.2889E-03     136.253E-03    -30.0859E+06     69.8052E+06     74.6969E+06    -9.91589E+06    -170.194E-03     329.052E-03    -158.858E-03     161.166E-03    -173.773E-03     332.557E-03    -158.542E-03     149.958E-03
            1144     13.0500E-03     136.404E-03    -23.5677E+06     109.442E+06     84.4777E+06    -8.45418E+06    -175.048E-03     334.508E-03    -159.460E-03     144.947E-03    -178.382E-03     337.904E-03    -159.162E-03     133.529E-03
            1145     13.8056E-03     136.536E-03    -15.4450E+06     122.047E+06     99.5799E+06    -5.74180E+06    -180.574E-03     340.980E-03    -160.406E-03     128.911E-03    -183.762E-03     344.259E-03    -160.063E-03     116.782E-03
            1146     14.5565E-03     136.667E-03    -9.10177E+06     121.078E+06     116.075E+06    -2.40986E+06    -185.392E-03     347.011E-03    -161.619E-03     89.7104E-03    -187.659E-03     349.340E-03    -161.201E-03     79.2922E-03
            1147     763.771E-06     135.736E-03    -123.893E+06    -234.435E+06    -121.860E+06    -3.91383E+06    -162.725E-03     325.629E-03    -162.904E-03     21.7588E-03    -162.857E-03     324.840E-03    -162.994E-03     20.8940E-03
            1148     1.52891E-03     135.765E-03    -119.972E+06    -224.187E+06    -111.422E+06    -6.99735E+06    -161.935E-03     324.477E-03    -162.541E-03     40.4111E-03    -162.136E-03     323.777E-03    -162.600E-03     38.8328E-03
            1149     2.29466E-03     135.811E-03    -114.680E+06    -210.102E+06    -96.6941E+06    -9.55725E+06    -160.771E-03     322.779E-03    -162.008E-03     59.6580E-03    -161.086E-03     322.219E-03    -162.021E-03     57.3322E-03
            1150     3.06214E-03     135.875E-03    -108.412E+06    -193.335E+06    -79.4002E+06    -11.4177E+06    -159.242E-03     320.545E-03    -161.303E-03     78.7819E-03    -159.715E-03     320.174E-03    -161.262E-03     75.7239E-03
            1151     3.83078E-03     135.956E-03    -101.349E+06    -175.194E+06    -61.5242E+06    -13.1991E+06    -157.622E-03     318.071E-03    -160.448E-03     97.4849E-03    -158.294E-03     317.936E-03    -160.355E-03     93.6951E-03
            1152     4.60187E-03     136.051E-03    -93.4649E+06    -156.992E+06    -44.3028E+06    -14.2711E+06    -156.113E-03     315.609E-03    -159.496E-03     115.897E-03    -157.025E-03     315.758E-03    -159.354E-03     111.370E-03
            1153     5.37478E-03     136.162E-03    -85.5562E+06    -138.339E+06    -28.1518E+06    -14.4045E+06    -154.783E-03     313.275E-03    -158.492E-03     133.594E-03    -155.983E-03     313.759E-03    -158.308E-03     128.333E-03
            1154     6.14958E-03     136.286E-03    -77.8928E+06    -119.614E+06    -13.4745E+06    -14.2364E+06    -154.083E-03     311.580E-03    -157.497E-03     149.922E-03    -155.618E-03     312.451E-03    -157.278E-03     143.902E-03
            1155     6.92507E-03     136.423E-03    -70.5918E+06    -101.221E+06    -135.083E+03    -13.7097E+06    -154.147E-03     310.734E-03    -156.587E-03     164.739E-03    -156.064E-03     312.040E-03    -156.338E-03     157.928E-03
            1156     7.70133E-03     136.572E-03    -63.7591E+06    -80.8542E+06     12.6583E+06    -12.3952E+06    -154.826E-03     310.641E-03    -155.814E-03     177.165E-03    -157.160E-03     312.424E-03    -155.541E-03     169.568E-03
            1157     8.47747E-03     136.729E-03    -57.4371E+06    -60.9107E+06     24.6285E+06    -10.9246E+06    -156.589E-03     311.825E-03    -155.236E-03     186.472E-03    -159.345E-03     314.089E-03    -154.941E-03     178.088E-03
            1158     9.25176E-03     136.896E-03    -52.2029E+06    -42.5004E+06     34.9929E+06    -9.81841E+06    -159.417E-03     314.330E-03    -154.913E-03     191.688E-03    -162.551E-03     317.026E-03    -154.600E-03     182.559E-03
            1159     10.0238E-03     137.065E-03    -47.0736E+06    -22.7926E+06     44.0347E+06    -9.03178E+06    -163.091E-03     317.970E-03    -154.879E-03     192.360E-03    -166.510E-03     321.015E-03    -154.558E-03     182.570E-03
            1160     10.7926E-03     137.238E-03    -41.1903E+06     2.41973E+06     54.1299E+06    -8.39450E+06    -167.594E-03     322.754E-03    -155.160E-03     188.438E-03    -171.182E-03     326.049E-03    -154.833E-03     178.073E-03
            1161     11.5572E-03     137.408E-03    -35.9712E+06     28.8335E+06     63.3551E+06    -9.71912E+06    -172.668E-03     328.427E-03    -155.759E-03     180.133E-03    -176.295E-03     331.846E-03    -155.431E-03     169.235E-03
            1162     12.3166E-03     137.573E-03    -29.0920E+06     71.3834E+06     76.5677E+06    -10.9092E+06    -178.272E-03     334.935E-03    -156.663E-03     168.859E-03    -181.878E-03     338.471E-03    -156.341E-03     157.376E-03
            1163     13.0712E-03     137.732E-03    -20.6836E+06     108.926E+06     86.4865E+06    -10.2762E+06    -184.372E-03     342.227E-03    -157.855E-03     151.632E-03    -187.752E-03     345.672E-03    -157.551E-03     139.719E-03
            1164     13.8189E-03     137.877E-03    -13.6030E+06     115.280E+06     96.2799E+06    -7.96111E+06    -190.342E-03     349.703E-03    -159.361E-03     134.930E-03    -193.591E-03     353.035E-03    -159.027E-03     122.144E-03
            1165     14.5606E-03     138.014E-03    -5.59420E+06     114.196E+06     109.374E+06    -4.03974E+06    -194.517E-03     355.590E-03    -161.073E-03     94.6146E-03    -196.812E-03     357.954E-03    -160.684E-03     83.6488E-03
            1166     769.242E-06     137.042E-03    -124.377E+06    -221.855E+06    -121.353E+06    -4.42273E+06    -156.399E-03     312.863E-03    -156.464E-03     23.8196E-03    -156.550E-03     312.132E-03    -156.569E-03     23.0925E-03
            1167     1.53838E-03     137.069E-03    -120.741E+06    -213.794E+06    -112.621E+06    -7.10943E+06    -155.561E-03     311.705E-03    -156.144E-03     43.5336E-03    -155.769E-03     311.047E-03    -156.222E-03     42.2334E-03
            1168     2.30920E-03     137.113E-03    -116.060E+06    -200.775E+06    -97.8428E+06    -9.25897E+06    -154.165E-03     309.730E-03    -155.565E-03     64.2515E-03    -154.475E-03     309.194E-03    -155.595E-03     62.3461E-03
            1169     3.08142E-03     137.174E-03    -109.518E+06    -184.941E+06    -80.0409E+06    -11.0358E+06    -152.536E-03     307.314E-03    -154.778E-03     85.0140E-03    -152.985E-03     306.944E-03    -154.751E-03     82.5068E-03
            1170     3.85630E-03     137.251E-03    -102.099E+06    -167.921E+06    -61.6729E+06    -12.3785E+06    -150.980E-03     304.831E-03    -153.850E-03     105.615E-03    -151.605E-03     304.671E-03    -153.767E-03     102.498E-03
            1171     4.63249E-03     137.343E-03    -94.9231E+06    -150.960E+06    -44.7876E+06    -13.1783E+06    -149.825E-03     302.685E-03    -152.860E-03     125.578E-03    -150.669E-03     302.782E-03    -152.728E-03     121.827E-03
            1172     5.41075E-03     137.451E-03    -87.8479E+06    -134.029E+06    -29.4990E+06    -13.3880E+06    -149.407E-03     301.304E-03    -151.896E-03     144.401E-03    -150.519E-03     301.709E-03    -151.722E-03     139.974E-03
            1173     6.18957E-03     137.573E-03    -81.0530E+06    -116.924E+06    -15.5993E+06    -12.9602E+06    -149.866E-03     300.907E-03    -151.040E-03     161.933E-03    -151.301E-03     301.681E-03    -150.831E-03     156.763E-03
            1174     6.96874E-03     137.710E-03    -74.9330E+06    -98.5946E+06    -2.72567E+06    -11.8599E+06    -151.197E-03     301.551E-03    -150.354E-03     177.395E-03    -153.012E-03     302.756E-03    -150.116E-03     171.425E-03
            1175     7.74768E-03     137.859E-03    -68.9958E+06    -79.3282E+06     9.61539E+06    -10.9648E+06    -153.785E-03     303.690E-03    -149.905E-03     189.953E-03    -156.024E-03     305.373E-03    -149.641E-03     183.100E-03
            1176     8.52449E-03     138.021E-03    -62.7906E+06    -60.8298E+06     21.0779E+06    -9.80961E+06    -157.636E-03     307.395E-03    -149.759E-03     198.993E-03    -160.311E-03     309.570E-03    -149.474E-03     191.207E-03
            1177     9.29850E-03     138.191E-03    -55.6101E+06    -40.3300E+06     32.5680E+06    -8.92646E+06    -162.535E-03     312.495E-03    -149.960E-03     203.664E-03    -165.613E-03     315.140E-03    -149.658E-03     194.944E-03
            1178     10.0684E-03     138.368E-03    -47.0792E+06    -19.9873E+06     43.1974E+06    -9.71231E+06    -168.448E-03     318.982E-03    -150.534E-03     203.718E-03    -171.840E-03     322.013E-03    -150.220E-03     194.083E-03
            1179     10.8327E-03     138.548E-03    -38.0355E+06     2.68849E+06     53.1359E+06    -9.35222E+06    -174.743E-03     326.218E-03    -151.474E-03     198.635E-03    -178.315E-03     329.513E-03    -151.157E-03     188.208E-03
            1180     11.5920E-03     138.727E-03    -29.0791E+06     34.9180E+06     65.7855E+06    -9.02170E+06    -181.369E-03     334.132E-03    -152.763E-03     189.017E-03    -184.998E-03     337.595E-03    -152.443E-03     177.883E-03
            1181     12.3458E-03     138.902E-03    -21.2232E+06     77.6230E+06     79.2295E+06    -11.4915E+06    -188.519E-03     342.888E-03    -154.368E-03     176.696E-03    -192.149E-03     346.492E-03    -154.054E-03     164.749E-03
            1182     13.0915E-03     139.074E-03    -14.8691E+06     105.632E+06     86.5795E+06    -11.2977E+06    -195.057E-03     351.305E-03    -156.248E-03     158.668E-03    -198.481E-03     354.803E-03    -155.947E-03     146.135E-03
            1183     13.8332E-03     139.227E-03    -8.93800E+06     109.721E+06     94.7346E+06    -7.52895E+06    -200.336E-03     358.697E-03    -158.361E-03     140.850E-03    -203.626E-03     362.072E-03    -158.033E-03     127.442E-03
            1184     14.5711E-03     139.377E-03    -4.83237E+06     107.587E+06     104.304E+06    -3.74241E+06    -203.583E-03     364.161E-03    -160.578E-03     98.2100E-03    -205.903E-03     366.545E-03    -160.206E-03     86.7269E-03
            1185     775.666E-06     138.328E-03    -125.100E+06    -210.388E+06    -123.708E+06    -3.46404E+06    -147.667E-03     294.991E-03    -147.324E-03     25.7940E-03    -147.832E-03     294.315E-03    -147.456E-03     25.2548E-03
            1186     1.55216E-03     138.354E-03    -123.440E+06    -204.523E+06    -113.689E+06    -5.93707E+06    -146.591E-03     293.789E-03    -147.197E-03     47.3486E-03    -146.812E-03     293.166E-03    -147.290E-03     46.3790E-03
            1187     2.32971E-03     138.395E-03    -119.154E+06    -192.090E+06    -100.159E+06    -7.87760E+06    -145.325E-03     291.934E-03    -146.609E-03     69.9592E-03    -145.632E-03     291.418E-03    -146.658E-03     68.5320E-03
            1188     3.10939E-03     138.453E-03    -114.155E+06    -176.967E+06    -84.0601E+06    -9.50025E+06    -144.000E-03     289.851E-03    -145.851E-03     92.5572E-03    -144.429E-03     289.482E-03    -145.849E-03     90.6563E-03
            1189     3.89020E-03     138.526E-03    -108.861E+06    -161.891E+06    -67.0780E+06    -10.3542E+06    -143.131E-03     288.152E-03    -145.021E-03     114.716E-03    -143.717E-03     287.965E-03    -144.964E-03     112.318E-03
            1190     4.67325E-03     138.617E-03    -103.256E+06    -145.492E+06    -50.9403E+06    -10.8216E+06    -143.057E-03     287.278E-03    -144.221E-03     135.904E-03    -143.844E-03     287.324E-03    -144.115E-03     132.953E-03
            1191     5.45634E-03     138.724E-03    -97.6265E+06    -129.751E+06    -36.2322E+06    -11.3113E+06    -143.986E-03     287.530E-03    -143.544E-03     155.983E-03    -145.028E-03     287.865E-03    -143.395E-03     152.384E-03
            1192     6.23967E-03     138.847E-03    -91.7844E+06    -113.871E+06    -22.7257E+06    -11.3243E+06    -146.050E-03     289.114E-03    -143.063E-03     174.331E-03    -147.405E-03     289.801E-03    -142.879E-03     169.985E-03
            1193     7.02242E-03     138.985E-03    -84.7344E+06    -95.9588E+06    -9.43218E+06    -11.3672E+06    -149.553E-03     292.407E-03    -142.855E-03     190.112E-03    -151.282E-03     293.522E-03    -142.640E-03     184.884E-03
            1194     7.80231E-03     139.140E-03    -76.4021E+06    -76.8088E+06     3.81391E+06    -11.7032E+06    -154.498E-03     297.490E-03    -142.992E-03     202.849E-03    -156.657E-03     299.094E-03    -142.750E-03     196.599E-03
            1195     8.57864E-03     139.307E-03    -66.6110E+06    -59.1994E+06     16.0127E+06    -12.2930E+06    -160.615E-03     304.131E-03    -143.516E-03     211.676E-03    -163.221E-03     306.246E-03    -143.253E-03     204.299E-03
            1196     9.35053E-03     139.486E-03    -55.8193E+06    -37.4639E+06     28.5169E+06    -12.8912E+06    -167.818E-03     312.269E-03    -144.451E-03     215.952E-03    -170.853E-03     314.893E-03    -144.173E-03     207.403E-03
            1197     10.1163E-03     139.673E-03    -45.9299E+06    -16.7292E+06     40.1723E+06    -13.4769E+06    -175.676E-03     321.480E-03    -145.805E-03     215.139E-03    -179.058E-03     324.528E-03    -145.513E-03     205.457E-03
            1198     10.8761E-03     139.864E-03    -36.7744E+06     3.05381E+06     49.7546E+06    -14.2074E+06    -184.007E-03     331.561E-03    -147.554E-03     208.943E-03    -187.598E-03     334.894E-03    -147.257E-03     198.215E-03
            1199     11.6287E-03     140.054E-03    -27.6763E+06     37.3854E+06     63.4343E+06    -13.8484E+06    -192.392E-03     342.066E-03    -149.674E-03     197.980E-03    -196.075E-03     345.604E-03    -149.371E-03     186.302E-03
            1200     12.3731E-03     140.243E-03    -20.4533E+06     81.0110E+06     77.1903E+06    -11.8688E+06    -199.912E-03     351.992E-03    -152.080E-03     184.284E-03    -203.609E-03     355.685E-03    -151.782E-03     171.728E-03
            1201     13.1128E-03     140.426E-03    -15.7805E+06     103.444E+06     83.2327E+06    -9.83200E+06    -206.278E-03     360.965E-03    -154.687E-03     164.861E-03    -209.773E-03     364.533E-03    -154.398E-03     151.657E-03
            1202     13.8452E-03     140.591E-03    -12.0435E+06     103.948E+06     91.4339E+06    -7.41397E+06    -210.559E-03     367.992E-03    -157.434E-03     145.079E-03    -213.926E-03     371.423E-03    -157.110E-03     130.931E-03
            1203     14.5730E-03     140.747E-03    -5.78504E+06     100.631E+06     102.576E+06    -3.62295E+06    -212.012E-03     372.172E-03    -160.160E-03     101.497E-03    -214.377E-03     374.578E-03    -159.785E-03     89.4409E-03
            1204     784.757E-06     139.588E-03    -136.519E+06    -202.730E+06    -133.984E+06    -1.80824E+06    -135.797E-03     271.556E-03    -135.759E-03     28.1244E-03    -136.013E-03     270.942E-03    -135.937E-03     27.7874E-03
            1205     1.57052E-03     139.612E-03    -135.474E+06    -197.135E+06    -124.948E+06    -3.00726E+06    -135.063E-03     270.572E-03    -135.510E-03     51.6479E-03    -135.323E-03     270.001E-03    -135.652E-03     51.0314E-03
            1206     2.35720E-03     139.652E-03    -132.935E+06    -185.415E+06    -112.048E+06    -4.44918E+06    -134.475E-03     269.535E-03    -135.060E-03     76.0737E-03    -134.810E-03     269.052E-03    -135.158E-03     75.1408E-03
            1207     3.14479E-03     139.707E-03    -129.340E+06    -170.521E+06    -96.5626E+06    -5.82326E+06    -134.293E-03     268.874E-03    -134.581E-03     100.296E-03    -134.733E-03     268.519E-03    -134.629E-03     99.0047E-03
            1208     3.93389E-03     139.780E-03    -124.317E+06    -155.979E+06    -79.3591E+06    -7.24363E+06    -134.827E-03     268.982E-03    -134.156E-03     123.887E-03    -135.403E-03     268.785E-03    -134.146E-03     122.172E-03
            1209     4.72224E-03     139.870E-03    -117.780E+06    -140.587E+06    -62.0540E+06    -8.66634E+06    -136.368E-03     270.221E-03    -133.853E-03     146.407E-03    -137.120E-03     270.230E-03    -133.789E-03     144.178E-03
            1210     5.51098E-03     139.979E-03    -109.808E+06    -124.588E+06    -45.3254E+06    -9.95755E+06    -139.209E-03     272.963E-03    -133.754E-03     167.391E-03    -140.190E-03     273.239E-03    -133.640E-03     164.525E-03
            1211     6.29823E-03     140.105E-03    -100.656E+06    -108.773E+06    -30.0225E+06    -11.7521E+06    -143.627E-03     277.566E-03    -133.939E-03     186.139E-03    -144.898E-03     278.179E-03    -133.786E-03     182.475E-03
            1212     7.08207E-03     140.250E-03    -90.4313E+06    -90.5096E+06    -15.7762E+06    -14.2544E+06    -149.591E-03     284.072E-03    -134.481E-03     202.347E-03    -151.229E-03     285.114E-03    -134.298E-03     197.693E-03
            1213     7.86216E-03     140.412E-03    -79.1357E+06    -72.3343E+06    -2.31777E+06    -16.4872E+06    -156.895E-03     292.324E-03    -135.429E-03     215.230E-03    -158.964E-03     293.865E-03    -135.221E-03     209.408E-03
            1214     8.63731E-03     140.590E-03    -68.1082E+06    -55.1453E+06     9.92295E+06    -18.1343E+06    -165.471E-03     302.284E-03    -136.813E-03     224.014E-03    -168.014E-03     304.365E-03    -136.585E-03     216.872E-03
            1215     9.40541E-03     140.781E-03    -58.3604E+06    -34.4793E+06     21.9633E+06    -18.9955E+06    -174.916E-03     313.561E-03    -138.645E-03     228.025E-03    -177.937E-03     316.194E-03    -138.400E-03     219.477E-03
            1216     10.1666E-03     140.981E-03    -49.4180E+06    -14.1347E+06     33.7783E+06    -19.2196E+06    -184.883E-03     325.802E-03    -140.919E-03     226.268E-03    -188.300E-03     328.902E-03    -140.658E-03     216.334E-03
            1217     10.9197E-03     141.186E-03    -41.2202E+06     6.48200E+06     44.1814E+06    -20.0029E+06    -195.058E-03     338.657E-03    -143.599E-03     218.986E-03    -198.726E-03     342.080E-03    -143.328E-03     207.761E-03
            1218     11.6635E-03     141.394E-03    -34.1085E+06     35.9556E+06     55.6553E+06    -18.8920E+06    -204.391E-03     351.010E-03    -146.619E-03     206.812E-03    -208.166E-03     354.637E-03    -146.343E-03     194.471E-03
            1219     12.4008E-03     141.594E-03    -27.6073E+06     76.5729E+06     68.8831E+06    -14.7739E+06    -212.154E-03     362.020E-03    -149.866E-03     191.608E-03    -215.949E-03     365.795E-03    -149.593E-03     178.292E-03
            1220     13.1308E-03     141.792E-03    -20.6341E+06     99.4576E+06     77.6166E+06    -10.6400E+06    -217.316E-03     370.526E-03    -153.210E-03     170.801E-03    -220.888E-03     374.156E-03    -152.936E-03     156.914E-03
            1221     13.8563E-03     141.967E-03    -12.9686E+06     100.561E+06     89.9301E+06    -8.16470E+06    -219.598E-03     376.146E-03    -156.548E-03     150.359E-03    -223.029E-03     379.629E-03    -156.225E-03     135.596E-03
            1222     14.5818E-03     142.127E-03    -6.65418E+06     93.6576E+06     102.747E+06    -5.73260E+06    -220.226E-03     379.969E-03    -159.743E-03     106.622E-03    -222.645E-03     382.401E-03    -159.356E-03     94.0523E-03
            1223     796.648E-06     140.816E-03    -164.934E+06    -200.862E+06    -161.448E+06     1.00027E+06    -121.494E-03     243.023E-03    -121.529E-03     30.5302E-03    -121.811E-03     242.490E-03    -121.805E-03     30.3891E-03
            1224     1.59300E-03     140.839E-03    -162.546E+06    -193.352E+06    -150.587E+06     260.978E+03    -121.795E-03     243.233E-03    -121.438E-03     55.7585E-03    -122.144E-03     242.738E-03    -121.675E-03     55.4512E-03
            1225     2.39022E-03     140.878E-03    -157.611E+06    -180.371E+06    -133.865E+06    -1.57421E+06    -122.607E-03     244.070E-03    -121.463E-03     81.8500E-03    -123.009E-03     243.646E-03    -121.642E-03     81.3257E-03
            1226     3.18714E-03     140.934E-03    -150.136E+06    -164.032E+06    -113.989E+06    -4.46022E+06    -124.194E-03     245.795E-03    -121.601E-03     107.363E-03    -124.669E-03     245.474E-03    -121.715E-03     106.548E-03
            1227     3.98276E-03     141.008E-03    -140.191E+06    -149.332E+06    -92.9355E+06    -7.55333E+06    -126.683E-03     248.574E-03    -121.891E-03     132.129E-03    -127.254E-03     248.379E-03    -121.936E-03     130.932E-03
            1228     4.77843E-03     141.102E-03    -128.720E+06    -133.896E+06    -72.2950E+06    -10.4361E+06    -130.460E-03     252.839E-03    -122.379E-03     155.562E-03    -131.169E-03     252.821E-03    -122.360E-03     153.872E-03
            1229     5.57120E-03     141.215E-03    -116.606E+06    -117.928E+06    -53.8062E+06    -13.4244E+06    -135.818E-03     258.958E-03    -123.140E-03     177.168E-03    -136.723E-03     259.185E-03    -123.069E-03     174.831E-03
            1230     6.36037E-03     141.350E-03    -104.197E+06    -101.146E+06    -37.5154E+06    -16.7579E+06    -142.751E-03     266.995E-03    -124.243E-03     196.612E-03    -143.929E-03     267.552E-03    -124.133E-03     193.432E-03
            1231     7.14546E-03     141.504E-03    -92.3891E+06    -82.6108E+06    -22.7715E+06    -19.8399E+06    -151.124E-03     276.860E-03    -125.737E-03     213.233E-03    -152.664E-03     277.848E-03    -125.597E-03     208.999E-03
            1232     7.92479E-03     141.679E-03    -81.9490E+06    -65.7275E+06    -9.60753E+06    -22.6135E+06    -160.876E-03     288.534E-03    -127.658E-03     226.369E-03    -162.865E-03     290.032E-03    -127.492E-03     220.849E-03
            1233     8.69656E-03     141.870E-03    -72.3399E+06    -49.7833E+06     2.41568E+06    -24.7096E+06    -171.801E-03     301.832E-03    -130.032E-03     235.304E-03    -174.301E-03     303.899E-03    -129.842E-03     228.285E-03
            1234     9.46092E-03     142.077E-03    -62.6121E+06    -30.4492E+06     14.8908E+06    -25.9853E+06    -183.491E-03     316.353E-03    -132.863E-03     238.887E-03    -186.509E-03     319.007E-03    -132.653E-03     230.226E-03
            1235     10.2161E-03     142.294E-03    -52.3744E+06    -12.1191E+06     27.2051E+06    -26.3979E+06    -195.552E-03     331.690E-03    -136.139E-03     236.736E-03    -199.010E-03     334.849E-03    -135.909E-03     226.407E-03
            1236     10.9607E-03     142.520E-03    -43.3012E+06     7.27936E+06     38.4398E+06    -24.3482E+06    -206.796E-03     346.588E-03    -139.792E-03     228.745E-03    -210.537E-03     350.098E-03    -139.548E-03     216.945E-03
            1237     11.6980E-03     142.742E-03    -35.6143E+06     33.7196E+06     50.5301E+06    -21.8022E+06    -216.503E-03     360.217E-03    -143.714E-03     215.633E-03    -220.345E-03     363.914E-03    -143.459E-03     202.655E-03
            1238     12.4261E-03     142.962E-03    -27.2946E+06     70.4303E+06     64.2138E+06    -18.5414E+06    -223.907E-03     371.672E-03    -147.764E-03     199.428E-03    -227.749E-03     375.486E-03    -147.506E-03     185.424E-03
            1239     13.1482E-03     143.170E-03    -18.7937E+06     94.3341E+06     76.3258E+06    -15.6099E+06    -227.605E-03     379.400E-03    -151.795E-03     176.737E-03    -231.201E-03     383.046E-03    -151.523E-03     162.215E-03
            1240     13.8698E-03     143.350E-03    -10.6276E+06     95.3699E+06     91.0974E+06    -12.2027E+06    -228.875E-03     384.572E-03    -155.698E-03     153.493E-03    -232.284E-03     388.021E-03    -155.365E-03     138.202E-03
            1241     14.5872E-03     143.519E-03    -3.29436E+06     83.7134E+06     103.811E+06    -5.61001E+06    -228.251E-03     387.606E-03    -159.355E-03     107.583E-03    -230.629E-03     389.970E-03    -158.953E-03     94.6096E-03
            1242     809.290E-06     142.005E-03    -212.944E+06    -198.943E+06    -210.922E+06    -2.21344E+06    -106.544E-03     212.228E-03    -105.683E-03     32.1794E-03    -107.028E-03     211.842E-03    -106.141E-03     32.0911E-03
            1243     1.61878E-03     142.030E-03    -202.357E+06    -188.505E+06    -190.809E+06    -4.68781E+06    -108.029E-03     214.386E-03    -106.356E-03     58.5459E-03    -108.513E-03     214.019E-03    -106.744E-03     58.3496E-03
            1244     2.42591E-03     142.072E-03    -187.891E+06    -172.717E+06    -164.923E+06    -8.35394E+06    -110.687E-03     217.775E-03    -107.089E-03     85.9321E-03    -111.180E-03     217.453E-03    -107.390E-03     85.5649E-03
            1245     3.23155E-03     142.132E-03    -170.985E+06    -155.037E+06    -136.298E+06    -12.6467E+06    -114.392E-03     222.443E-03    -108.051E-03     112.599E-03    -114.911E-03     222.189E-03    -108.260E-03     111.986E-03
            1246     4.03558E-03     142.212E-03    -153.490E+06    -140.917E+06    -109.148E+06    -16.7779E+06    -119.413E-03     228.674E-03    -109.261E-03     138.151E-03    -119.981E-03     228.507E-03    -109.380E-03     137.199E-03
            1247     4.83538E-03     142.312E-03    -136.482E+06    -126.226E+06    -85.7905E+06    -19.7838E+06    -125.836E-03     236.580E-03    -110.745E-03     162.265E-03    -126.500E-03     236.558E-03    -110.793E-03     160.857E-03
            1248     5.63154E-03     142.436E-03    -120.950E+06    -109.940E+06    -65.5552E+06    -22.3025E+06    -133.730E-03     246.274E-03    -112.543E-03     184.581E-03    -134.564E-03     246.477E-03    -112.536E-03     182.552E-03
            1249     6.42286E-03     142.581E-03    -107.241E+06    -92.5695E+06    -47.6308E+06    -25.0610E+06    -143.123E-03     257.822E-03    -114.700E-03     204.546E-03    -144.215E-03     258.346E-03    -114.648E-03     201.682E-03
            1250     7.20749E-03     142.750E-03    -94.7010E+06    -74.6829E+06    -30.9019E+06    -27.6641E+06    -153.923E-03     271.176E-03    -117.253E-03     221.430E-03    -155.373E-03     272.119E-03    -117.162E-03     217.482E-03
            1251     7.98465E-03     142.939E-03    -82.4888E+06    -58.1639E+06    -15.3858E+06    -29.9513E+06    -166.024E-03     286.254E-03    -120.230E-03     234.865E-03    -167.924E-03     287.706E-03    -120.103E-03     229.549E-03
            1252     8.75386E-03     143.150E-03    -70.7532E+06    -43.6916E+06    -1.52976E+06    -31.5394E+06    -179.139E-03     302.785E-03    -123.646E-03     243.809E-03    -181.556E-03     304.810E-03    -123.488E-03     236.864E-03
            1253     9.51277E-03     143.375E-03    -60.1626E+06    -25.6774E+06     12.1384E+06    -32.3338E+06    -192.782E-03     320.281E-03    -127.499E-03     247.566E-03    -195.741E-03     322.910E-03    -127.314E-03     238.802E-03
            1254     10.2609E-03     143.615E-03    -51.0749E+06    -10.6645E+06     24.2074E+06    -32.0893E+06    -206.047E-03     337.796E-03    -131.749E-03     245.778E-03    -209.486E-03     340.956E-03    -131.538E-03     235.152E-03
            1255     11.0002E-03     143.859E-03    -42.1614E+06     3.84420E+06     35.1780E+06    -30.1956E+06    -218.093E-03     354.403E-03    -136.310E-03     237.480E-03    -221.846E-03     357.927E-03    -136.079E-03     225.177E-03
            1256     11.7287E-03     144.103E-03    -32.3600E+06     31.5103E+06     49.8921E+06    -27.1348E+06    -227.922E-03     368.987E-03    -141.065E-03     223.592E-03    -231.793E-03     372.718E-03    -140.814E-03     209.984E-03
            1257     12.4503E-03     144.338E-03    -22.5593E+06     64.9407E+06     65.1530E+06    -24.1173E+06    -234.276E-03     380.118E-03    -145.841E-03     205.097E-03    -238.080E-03     383.889E-03    -145.577E-03     190.602E-03
            1258     13.1683E-03     144.557E-03    -15.1035E+06     86.1732E+06     78.1560E+06    -18.3317E+06    -237.710E-03     388.211E-03    -150.501E-03     179.834E-03    -241.249E-03     391.781E-03    -150.214E-03     164.835E-03
            1259     13.8790E-03     144.748E-03    -11.6542E+06     86.8856E+06     92.3984E+06    -11.8099E+06    -238.145E-03     393.100E-03    -154.955E-03     155.001E-03    -241.535E-03     396.492E-03    -154.603E-03     139.178E-03
            1260     14.5894E-03     144.922E-03    -8.00954E+06     71.6712E+06     103.419E+06    -6.89767E+06    -234.991E-03     394.029E-03    -159.038E-03     109.116E-03    -237.372E-03     396.336E-03    -158.613E-03     95.7438E-03
            1261     822.169E-06     143.159E-03    -263.481E+06    -182.627E+06    -260.164E+06    -10.9726E+06    -92.7772E-03     184.475E-03    -91.6981E-03     31.6619E-03    -93.4610E-03     184.317E-03    -92.3521E-03     31.4884E-03
            1262     1.64150E-03     143.188E-03    -250.563E+06    -172.201E+06    -239.516E+06    -19.4477E+06    -95.3708E-03     188.060E-03    -92.6893E-03     58.3032E-03    -96.0405E-03     187.912E-03    -93.2739E-03     57.9803E-03
            1263     2.45958E-03     143.235E-03    -231.538E+06    -156.608E+06    -208.737E+06    -27.4207E+06    -99.5807E-03     193.544E-03    -93.9637E-03     86.1806E-03    -100.238E-03     193.419E-03    -94.4446E-03     85.6731E-03
            1264     3.27414E-03     143.303E-03    -208.598E+06    -140.485E+06    -173.295E+06    -34.0238E+06    -105.522E-03     201.168E-03    -95.6463E-03     113.528E-03    -106.173E-03     201.076E-03    -96.0066E-03     112.788E-03
            1265     4.08362E-03     143.392E-03    -183.714E+06    -128.768E+06    -140.329E+06    -39.1848E+06    -113.050E-03     210.778E-03    -97.7280E-03     139.786E-03    -113.705E-03     210.728E-03    -97.9766E-03     138.743E-03
            1266     4.88863E-03     143.504E-03    -158.625E+06    -117.991E+06    -112.126E+06    -42.3110E+06    -122.038E-03     222.216E-03    -100.178E-03     164.747E-03    -122.737E-03     222.258E-03    -100.338E-03     163.289E-03
            1267     5.68748E-03     143.640E-03    -134.034E+06    -104.446E+06    -85.9325E+06    -42.9260E+06    -132.516E-03     235.516E-03    -103.000E-03     187.737E-03    -133.329E-03     235.734E-03    -103.084E-03     185.717E-03
            1268     6.47898E-03     143.801E-03    -111.552E+06    -87.9734E+06    -60.3460E+06    -41.4993E+06    -144.366E-03     250.577E-03    -106.211E-03     207.978E-03    -145.386E-03     251.068E-03    -106.223E-03     205.200E-03
            1269     7.26295E-03     143.986E-03    -92.7072E+06    -69.0642E+06    -37.0137E+06    -40.1686E+06    -157.483E-03     267.300E-03    -109.817E-03     225.090E-03    -158.823E-03     268.181E-03    -109.768E-03     221.275E-03
            1270     8.03801E-03     144.196E-03    -78.1956E+06    -53.2875E+06    -17.8484E+06    -39.2638E+06    -171.709E-03     285.539E-03    -113.829E-03     238.552E-03    -173.475E-03     286.899E-03    -113.728E-03     233.387E-03
            1271     8.80241E-03     144.427E-03    -67.5020E+06    -39.5817E+06    -2.02177E+06    -38.2468E+06    -186.491E-03     304.733E-03    -118.243E-03     247.637E-03    -188.764E-03     306.642E-03    -118.098E-03     240.831E-03
            1272     9.55649E-03     144.677E-03    -58.4140E+06    -20.7165E+06     13.0704E+06    -38.1081E+06    -201.161E-03     324.182E-03    -123.021E-03     251.996E-03    -203.982E-03     326.694E-03    -122.841E-03     243.315E-03
            1273     10.3005E-03     144.939E-03    -48.2179E+06    -8.28478E+06     25.9894E+06    -39.0240E+06    -215.154E-03     343.266E-03    -128.112E-03     250.494E-03    -218.454E-03     346.301E-03    -127.900E-03     239.827E-03
            1274     11.0328E-03     145.208E-03    -35.9860E+06     2.37896E+06     38.0031E+06    -39.1001E+06    -227.621E-03     361.057E-03    -133.437E-03     242.509E-03    -231.250E-03     364.467E-03    -133.198E-03     229.964E-03
            1275     11.7558E-03     145.473E-03    -24.6366E+06     22.7453E+06     52.2680E+06    -34.2089E+06    -237.451E-03     376.330E-03    -138.880E-03     227.956E-03    -241.225E-03     379.955E-03    -138.615E-03     213.926E-03
            1276     12.4715E-03     145.724E-03    -19.7963E+06     53.1688E+06     67.6802E+06    -23.3102E+06    -243.790E-03     388.080E-03    -144.290E-03     206.819E-03    -247.514E-03     391.733E-03    -144.000E-03     191.919E-03
            1277     13.1799E-03     145.955E-03    -18.3321E+06     78.7295E+06     81.3846E+06    -15.9873E+06    -246.124E-03     395.624E-03    -149.500E-03     180.611E-03    -249.591E-03     399.074E-03    -149.181E-03     165.380E-03
            1278     13.8873E-03     146.159E-03    -11.8899E+06     79.6899E+06     96.1226E+06    -13.1397E+06    -244.592E-03     398.966E-03    -154.373E-03     154.637E-03    -247.887E-03     402.224E-03    -153.991E-03     138.639E-03
            1279     14.5974E-03     146.326E-03    -3.35882E+06     59.8289E+06     108.602E+06    -7.37171E+06    -240.087E-03     398.858E-03    -158.770E-03     108.112E-03    -242.386E-03     401.042E-03    -158.309E-03     94.5624E-03
            1280     829.364E-06     144.284E-03    -250.741E+06    -150.388E+06    -245.312E+06    -15.4019E+06    -83.3585E-03     165.772E-03    -82.4140E-03     29.2687E-03    -84.0437E-03     165.741E-03    -83.0589E-03     29.0255E-03
            1281     1.65846E-03     144.318E-03    -241.486E+06    -140.299E+06    -228.319E+06    -28.9171E+06    -86.2742E-03     169.656E-03    -83.3818E-03     53.8619E-03    -86.9600E-03     169.644E-03    -83.9698E-03     53.3961E-03
            1282     2.48388E-03     144.372E-03    -227.862E+06    -127.976E+06    -203.301E+06    -41.8387E+06    -91.4249E-03     176.276E-03    -84.8513E-03     80.1125E-03    -92.1134E-03     176.288E-03    -85.3518E-03     79.3987E-03
            1283     3.30501E-03     144.450E-03    -210.452E+06    -115.756E+06    -175.374E+06    -52.6058E+06    -98.5561E-03     185.441E-03    -86.8849E-03     106.622E-03    -99.2488E-03     185.483E-03    -87.2888E-03     105.638E-03
            1284     4.12078E-03     144.552E-03    -190.617E+06    -108.885E+06    -149.579E+06    -60.8885E+06    -107.669E-03     197.109E-03    -89.4402E-03     132.757E-03    -108.369E-03     197.180E-03    -89.7538E-03     131.452E-03
            1285     4.92940E-03     144.678E-03    -170.192E+06    -104.124E+06    -127.627E+06    -66.4809E+06    -118.668E-03     211.160E-03    -92.4923E-03     157.896E-03    -119.405E-03     211.296E-03    -92.7327E-03     156.186E-03
            1286     5.73004E-03     144.831E-03    -150.598E+06    -97.0266E+06    -106.728E+06    -69.1407E+06    -131.263E-03     227.290E-03    -96.0272E-03     181.285E-03    -132.100E-03     227.562E-03    -96.2018E-03     179.040E-03
            1287     6.52227E-03     145.010E-03    -130.253E+06    -85.3302E+06    -81.3788E+06    -69.2875E+06    -145.255E-03     245.295E-03    -100.041E-03     202.020E-03    -146.272E-03     245.790E-03    -100.135E-03     199.056E-03
            1288     7.30455E-03     145.216E-03    -108.440E+06    -70.3325E+06    -52.8186E+06    -66.3258E+06    -160.453E-03     264.962E-03    -104.509E-03     219.420E-03    -161.735E-03     265.771E-03    -104.514E-03     215.504E-03
            1289     8.07615E-03     145.448E-03    -86.7491E+06    -58.9741E+06    -26.7966E+06    -59.7997E+06    -176.258E-03     285.646E-03    -109.388E-03     232.999E-03    -177.878E-03     286.835E-03    -109.310E-03     227.882E-03
            1290     8.83726E-03     145.703E-03    -66.7138E+06    -44.6815E+06    -3.92673E+06    -51.8246E+06    -192.053E-03     306.664E-03    -114.611E-03     242.373E-03    -194.084E-03     308.322E-03    -114.470E-03     235.787E-03
            1291     9.58743E-03     145.977E-03    -49.9582E+06    -20.4372E+06     17.2787E+06    -45.7911E+06    -207.331E-03     327.450E-03    -120.118E-03     246.762E-03    -209.827E-03     329.656E-03    -119.930E-03     238.455E-03
            1292     10.3261E-03     146.265E-03    -39.1511E+06    -3.63444E+06     34.1949E+06    -43.2653E+06    -221.389E-03     347.243E-03    -125.854E-03     245.552E-03    -224.330E-03     349.943E-03    -125.621E-03     235.357E-03
            1293     11.0546E-03     146.558E-03    -35.7046E+06     4.14988E+06     45.7819E+06    -41.8363E+06    -233.506E-03     365.234E-03    -131.727E-03     238.171E-03    -236.814E-03     368.306E-03    -131.453E-03     226.097E-03
            1294     11.7739E-03     146.846E-03    -35.4764E+06     12.7412E+06     54.7045E+06    -38.2478E+06    -243.160E-03     380.788E-03    -137.629E-03     224.217E-03    -246.686E-03     384.084E-03    -137.322E-03     210.496E-03
            1295     12.4834E-03     147.118E-03    -28.8188E+06     29.9362E+06     67.1384E+06    -29.6633E+06    -249.662E-03     393.104E-03    -143.441E-03     204.179E-03    -253.211E-03     396.469E-03    -143.107E-03     189.226E-03
            1296     13.1890E-03     147.363E-03    -16.4397E+06     67.1338E+06     87.9538E+06    -18.2692E+06    -251.170E-03     400.170E-03    -149.000E-03     176.369E-03    -254.445E-03     403.374E-03    -148.634E-03     161.197E-03
            1297     13.8943E-03     147.568E-03    -9.73758E+06     75.5264E+06     103.356E+06    -12.1252E+06    -247.665E-03     401.778E-03    -154.113E-03     148.387E-03    -250.702E-03     404.750E-03    -153.692E-03     132.874E-03
            1298     14.5960E-03     147.746E-03    -7.92553E+06     45.6178E+06     111.547E+06    -8.02476E+06    -241.696E-03     400.349E-03    -158.653E-03     103.901E-03    -243.844E-03     402.308E-03    -158.150E-03     90.7000E-03
            1299     832.689E-06     145.395E-03    -180.420E+06    -111.855E+06    -176.482E+06    -16.2192E+06    -81.0561E-03     160.588E-03    -79.5317E-03     24.0555E-03    -81.5458E-03     160.551E-03    -79.9903E-03     23.7618E-03
            1300     1.66364E-03     145.432E-03    -173.569E+06    -101.791E+06    -159.712E+06    -29.4576E+06    -83.7505E-03     164.629E-03    -80.8786E-03     44.1794E-03    -84.2569E-03     164.620E-03    -81.2779E-03     43.6293E-03
            1301     2.49190E-03     145.494E-03    -164.654E+06    -91.7092E+06    -140.591E+06    -42.8845E+06    -88.7116E-03     171.133E-03    -82.4211E-03     65.8329E-03    -89.2392E-03     171.157E-03    -82.7523E-03     64.9906E-03
            1302     3.31578E-03     145.582E-03    -155.050E+06    -83.8534E+06    -123.404E+06    -54.2835E+06    -95.6387E-03     180.137E-03    -84.4987E-03     88.2565E-03    -96.1939E-03     180.202E-03    -84.7693E-03     87.1020E-03
            1303     4.13407E-03     145.696E-03    -146.391E+06    -80.7665E+06    -109.483E+06    -63.6433E+06    -104.758E-03     191.887E-03    -87.1299E-03     111.095E-03    -105.357E-03     191.999E-03    -87.3480E-03     109.585E-03
            1304     4.94475E-03     145.838E-03    -138.250E+06    -80.8868E+06    -98.4213E+06    -71.2392E+06    -116.051E-03     206.387E-03    -90.3356E-03     133.870E-03    -116.719E-03     206.565E-03    -90.5099E-03     131.930E-03
            1305     5.74682E-03     146.009E-03    -128.807E+06    -78.0804E+06    -86.8057E+06    -77.3315E+06    -129.191E-03     223.299E-03    -94.1086E-03     155.720E-03    -129.964E-03     223.594E-03    -94.2426E-03     153.246E-03
            1306     6.53861E-03     146.209E-03    -117.613E+06    -71.5587E+06    -71.6800E+06    -82.3018E+06    -143.974E-03     242.403E-03    -98.4294E-03     175.911E-03    -144.902E-03     242.874E-03    -98.5135E-03     172.752E-03
            1307     7.31948E-03     146.438E-03    -104.890E+06    -66.9768E+06    -53.8874E+06    -83.7297E+06    -159.925E-03     263.185E-03    -103.260E-03     193.597E-03    -161.056E-03     263.870E-03    -103.280E-03     189.593E-03
            1308     8.08885E-03     146.694E-03    -90.7872E+06    -65.3807E+06    -36.4145E+06    -80.7794E+06    -176.325E-03     284.846E-03    -108.521E-03     207.805E-03    -177.704E-03     285.786E-03    -108.477E-03     202.778E-03
            1309     8.84677E-03     146.973E-03    -75.8372E+06     -56.552E+06    -17.5261E+06    -75.1369E+06    -192.627E-03     306.756E-03    -114.129E-03     217.948E-03    -194.306E-03     308.026E-03    -114.025E-03     211.704E-03
            1310     9.59291E-03     147.274E-03    -61.3850E+06    -32.9025E+06     7.39619E+06    -67.0786E+06    -207.978E-03     327.987E-03    -120.009E-03     223.363E-03    -210.012E-03     329.675E-03    -119.835E-03     215.727E-03
            1311     10.3286E-03     147.586E-03    -48.2348E+06    -15.3198E+06     34.4721E+06    -55.5239E+06    -221.489E-03     347.553E-03    -126.063E-03     223.401E-03    -223.871E-03     349.619E-03    -125.799E-03     214.280E-03
            1312     11.0548E-03     147.905E-03    -36.3746E+06    -5.78161E+06     56.6504E+06    -41.7662E+06    -232.690E-03     364.830E-03    -132.140E-03     218.078E-03    -235.346E-03     367.182E-03    -131.796E-03     207.506E-03
            1313     11.7712E-03     148.216E-03    -25.4229E+06     9.73979E+06     71.4521E+06    -32.7646E+06    -241.294E-03     379.384E-03    -138.090E-03     207.829E-03    -244.137E-03     381.973E-03    -137.710E-03     195.849E-03
            1314     12.4827E-03     148.510E-03    -18.0871E+06     19.2550E+06     80.8084E+06    -29.5323E+06    -246.829E-03     390.661E-03    -143.832E-03     192.647E-03    -249.766E-03     393.375E-03    -143.430E-03     179.315E-03
            1315     13.1869E-03     148.772E-03    -13.5501E+06     45.6325E+06     95.1782E+06    -22.3468E+06    -249.005E-03     398.280E-03    -149.276E-03     169.955E-03    -251.896E-03     401.014E-03    -148.846E-03     155.767E-03
            1316     13.8870E-03     148.983E-03    -6.06061E+06     61.9597E+06     112.249E+06    -10.4719E+06    -246.182E-03     400.478E-03    -154.296E-03     142.648E-03    -248.895E-03     403.065E-03    -153.816E-03     128.150E-03
            1317     14.5994E-03     149.153E-03     1.40835E+06     37.7926E+06     125.316E+06    -2.61547E+06    -239.214E-03     397.961E-03    -158.747E-03     99.9240E-03    -241.084E-03     399.607E-03    -158.177E-03     87.8634E-03
            1318     828.329E-06     146.509E-03    -111.153E+06    -73.2066E+06    -108.187E+06    -15.7750E+06    -87.5099E-03     173.926E-03    -86.4163E-03     14.4844E-03    -87.8161E-03     173.877E-03    -86.6899E-03     14.1245E-03
            1319     1.65411E-03     146.550E-03    -106.344E+06    -65.4295E+06    -94.3733E+06    -27.3407E+06    -89.9163E-03     177.582E-03    -87.6659E-03     27.1035E-03    -90.2430E-03     177.559E-03    -87.8887E-03     26.4449E-03
            1320     2.47736E-03     146.618E-03    -100.182E+06    -57.7286E+06    -78.3909E+06    -37.5786E+06    -93.9647E-03     183.163E-03    -89.1987E-03     40.7476E-03    -94.3205E-03     183.172E-03    -89.3617E-03     39.7655E-03
            1321     3.29675E-03     146.713E-03    -94.1710E+06    -53.0598E+06    -64.5001E+06    -46.2326E+06    -99.7122E-03     190.953E-03    -91.2408E-03     54.9678E-03    -100.105E-03     190.998E-03    -91.3498E-03     53.6318E-03
            1322     4.11036E-03     146.838E-03    -88.3086E+06    -51.5837E+06    -53.0233E+06    -53.8122E+06    -107.184E-03     201.008E-03    -93.8240E-03     69.9430E-03    -107.626E-03     201.096E-03    -93.8863E-03     68.2043E-03
            1323     4.91760E-03     146.993E-03    -81.9134E+06    -52.9252E+06    -42.3350E+06    -61.0106E+06    -116.324E-03     213.280E-03    -96.9556E-03     85.2686E-03    -116.828E-03     213.419E-03    -96.9718E-03     83.0587E-03
            1324     5.71621E-03     147.180E-03    -75.2719E+06    -52.3201E+06    -32.3966E+06    -67.5174E+06    -127.081E-03     227.693E-03    -100.612E-03     100.825E-03    -127.669E-03     227.915E-03    -100.589E-03     98.0756E-03
            1325     6.50556E-03     147.398E-03    -70.5882E+06    -49.2475E+06    -24.7677E+06    -71.6759E+06    -139.297E-03     244.053E-03    -104.755E-03     116.638E-03    -140.000E-03     244.399E-03    -104.705E-03     113.300E-03
            1326     7.28435E-03     147.649E-03    -69.1716E+06    -50.1228E+06    -20.2074E+06    -73.9227E+06    -152.689E-03     262.031E-03    -109.342E-03     131.701E-03    -153.535E-03     262.513E-03    -109.270E-03     127.707E-03
            1327     8.05243E-03     147.927E-03    -69.3785E+06    -53.5817E+06    -15.3901E+06    -75.7102E+06    -167.000E-03     281.328E-03    -114.328E-03     145.151E-03    -168.015E-03     281.956E-03    -114.227E-03     140.399E-03
            1328     8.80861E-03     148.232E-03    -68.7906E+06    -50.8484E+06    -6.27865E+06    -77.3558E+06    -181.472E-03     301.110E-03    -119.639E-03     156.527E-03    -182.683E-03     301.924E-03    -119.497E-03     150.916E-03
            1329     9.55409E-03     148.556E-03    -64.7740E+06    -38.5154E+06     10.5465E+06    -76.0543E+06    -195.005E-03     320.161E-03    -125.156E-03     165.271E-03    -196.430E-03     321.200E-03    -124.953E-03     158.769E-03
            1330     10.2896E-03     148.895E-03     -56.235E+06    -34.2167E+06     30.4865E+06    -68.7812E+06    -206.995E-03     337.725E-03    -130.729E-03     171.157E-03    -208.601E-03     338.936E-03    -130.446E-03     163.789E-03
            1331     11.0161E-03     149.236E-03    -43.6868E+06    -32.4866E+06     49.7431E+06    -57.1548E+06    -216.949E-03     353.140E-03    -136.191E-03     174.061E-03    -218.692E-03     354.483E-03    -135.832E-03     165.889E-03
            1332     11.7388E-03     149.570E-03    -31.8758E+06    -9.63543E+06     70.9188E+06    -44.1890E+06    -224.417E-03     365.823E-03    -141.406E-03     173.395E-03    -226.310E-03     367.378E-03    -140.992E-03     164.424E-03
            1333     12.4550E-03     149.885E-03    -23.3201E+06     8.14707E+06     94.8121E+06    -31.7574E+06    -229.702E-03     376.053E-03    -146.351E-03     167.697E-03    -231.751E-03     377.785E-03    -145.855E-03     157.767E-03
            1334     13.1721E-03     150.163E-03    -16.9151E+06     25.8295E+06     110.570E+06    -20.2179E+06    -233.330E-03     384.289E-03    -150.959E-03     153.887E-03    -235.544E-03     386.222E-03    -150.419E-03     142.606E-03
            1335     13.8872E-03     150.396E-03    -13.5159E+06     41.0261E+06     113.100E+06    -10.0586E+06    -234.025E-03     389.227E-03    -155.202E-03     130.249E-03    -236.317E-03     391.294E-03    -154.677E-03     117.601E-03
            1336     14.5914E-03     150.557E-03    -8.36069E+06     30.3690E+06     126.952E+06    -3.00648E+06    -229.643E-03     388.750E-03    -159.107E-03     91.2401E-03    -231.298E-03     390.116E-03    -158.504E-03     80.5358E-03
            1337     812.175E-06     147.650E-03    -46.0570E+06    -38.0444E+06    -40.9894E+06    -12.5430E+06    -107.059E-03     212.810E-03    -105.750E-03     417.972E-06    -107.209E-03     212.715E-03    -105.833E-03    -19.1462E-06
            1338     1.62420E-03     147.694E-03    -42.4505E+06    -33.9691E+06    -32.9320E+06    -21.7114E+06    -107.789E-03     215.029E-03    -107.240E-03    -258.231E-06    -107.943E-03     214.941E-03    -107.294E-03    -1.05027E-03
            1339     2.43301E-03     147.765E-03    -38.8814E+06    -30.2649E+06    -20.8159E+06    -29.0231E+06    -110.268E-03     218.915E-03    -108.648E-03     460.221E-06    -110.435E-03     218.834E-03    -108.652E-03    -720.432E-06
            1340     3.23748E-03     147.866E-03    -34.8321E+06    -27.5149E+06    -8.35785E+06    -34.8473E+06    -113.747E-03     224.373E-03    -110.627E-03     1.78992E-03    -113.930E-03     224.298E-03    -110.578E-03     199.053E-06
            1341     4.03700E-03     147.997E-03    -31.2332E+06    -26.9221E+06     2.44883E+06    -39.9944E+06    -117.941E-03     231.072E-03    -113.131E-03     3.86342E-03    -118.146E-03     231.004E-03    -113.034E-03     1.82633E-03
            1342     4.82950E-03     148.161E-03    -29.1857E+06    -27.9370E+06     11.2297E+06    -44.8149E+06    -122.622E-03     238.712E-03    -116.090E-03     7.02783E-03    -122.859E-03     238.659E-03    -115.951E-03     4.51369E-03
            1343     5.61560E-03     148.357E-03    -29.7947E+06    -28.8443E+06     17.8953E+06    -48.5161E+06    -127.832E-03     247.273E-03    -119.441E-03     11.4556E-03    -128.124E-03     247.255E-03    -119.267E-03     8.44936E-03
            1344     6.39406E-03     148.586E-03    -32.0520E+06    -28.5115E+06     23.3629E+06    -50.4607E+06    -133.549E-03     256.684E-03    -123.136E-03     17.1358E-03    -133.911E-03     256.720E-03    -122.931E-03     13.6432E-03
            1345     7.16507E-03     148.848E-03    -33.4731E+06    -29.5770E+06     29.0328E+06    -51.1073E+06    -139.804E-03     266.930E-03    -127.126E-03     23.8944E-03    -140.238E-03     267.021E-03    -126.889E-03     19.9186E-03
            1346     7.92742E-03     149.142E-03    -33.1822E+06    -31.2584E+06     36.2774E+06    -51.9393E+06    -146.450E-03     277.788E-03    -131.338E-03     31.7872E-03    -146.955E-03     277.936E-03    -131.063E-03     27.3345E-03
            1347     8.68202E-03     149.463E-03    -32.3539E+06    -29.3632E+06     44.3629E+06    -52.9542E+06    -153.068E-03     288.706E-03    -135.638E-03     41.1389E-03    -153.653E-03     288.935E-03    -135.326E-03     36.2604E-03
            1348     9.42949E-03     149.807E-03    -32.9752E+06    -24.5201E+06     51.3915E+06    -53.1267E+06    -159.309E-03     299.158E-03    -139.849E-03     52.1781E-03    -159.986E-03     299.490E-03    -139.508E-03     46.9732E-03
            1349     10.1721E-03     150.164E-03    -36.7920E+06    -26.6597E+06     55.6165E+06    -52.3195E+06    -165.082E-03     308.888E-03    -143.806E-03     64.8474E-03    -165.855E-03     309.297E-03    -143.436E-03     59.4066E-03
            1350     10.9134E-03     150.527E-03    -42.3996E+06    -33.3279E+06     59.4371E+06    -53.0128E+06    -170.375E-03     317.747E-03    -147.372E-03     78.8544E-03    -171.250E-03     318.217E-03    -146.965E-03     73.1883E-03
            1351     11.6501E-03     150.882E-03    -42.6014E+06    -27.5169E+06     71.2727E+06    -49.9326E+06    -175.451E-03     325.910E-03    -150.459E-03     93.9448E-03    -176.446E-03     326.494E-03    -150.001E-03     88.0804E-03
            1352     12.3898E-03     151.217E-03    -36.9839E+06    -15.0493E+06     91.9148E+06    -38.8012E+06    -181.319E-03     334.407E-03    -153.088E-03     109.170E-03    -182.447E-03     335.129E-03    -152.553E-03     103.082E-03
            1353     13.1221E-03     151.521E-03    -27.8842E+06     2.90609E+06     109.556E+06    -27.2299E+06    -189.255E-03     344.608E-03    -155.353E-03     121.389E-03    -190.528E-03     345.510E-03    -154.769E-03     114.747E-03
            1354     13.8498E-03     151.769E-03    -14.7389E+06     20.1007E+06     116.023E+06    -14.3430E+06    -201.218E-03     358.766E-03    -157.548E-03     120.971E-03    -202.712E-03     359.960E-03    -156.975E-03     112.751E-03
            1355     14.5848E-03     151.949E-03    -2.49373E+06     20.3565E+06     125.685E+06    -3.27764E+06    -208.077E-03     368.031E-03    -159.954E-03     85.2600E-03    -209.287E-03     368.944E-03    -159.351E-03     77.3428E-03
            1356     784.755E-06     148.854E-03     21.2928E+06    -12.5683E+06     24.0989E+06    -6.39168E+06    -142.251E-03     285.744E-03    -143.494E-03    -22.0271E-03    -142.246E-03     285.515E-03    -143.386E-03    -22.4567E-03
            1357     1.56735E-03     148.898E-03     20.4322E+06    -11.4109E+06     29.4407E+06    -10.9700E+06    -142.544E-03     286.705E-03    -144.162E-03    -40.2516E-03    -142.541E-03     286.453E-03    -144.028E-03    -41.0503E-03
            1358     2.34827E-03     148.971E-03     19.4051E+06    -10.6230E+06     37.6728E+06    -14.7206E+06    -142.201E-03     287.819E-03    -145.618E-03    -59.4276E-03    -142.192E-03     287.534E-03    -145.442E-03    -60.5879E-03
            1359     3.12551E-03     149.074E-03     18.0540E+06    -9.62516E+06     47.0186E+06    -17.3744E+06    -141.527E-03     289.091E-03    -147.563E-03    -77.8241E-03    -141.504E-03     288.767E-03    -147.341E-03    -79.3521E-03
            1360     3.89722E-03     149.208E-03     15.9092E+06    -9.19977E+06     55.7054E+06    -19.2101E+06    -140.069E-03     289.998E-03    -149.929E-03    -94.8029E-03    -140.027E-03     289.630E-03    -149.660E-03    -96.6912E-03
            1361     4.66463E-03     149.372E-03     12.5967E+06    -10.1519E+06     62.9348E+06    -20.3271E+06    -137.630E-03     290.240E-03    -152.610E-03    -109.578E-03    -137.570E-03     289.824E-03    -152.299E-03    -111.809E-03
            1362     5.42604E-03     149.569E-03     9.18702E+06    -10.8480E+06     70.1472E+06    -21.0560E+06    -134.281E-03     289.811E-03    -155.530E-03    -121.539E-03    -134.201E-03     289.351E-03    -155.177E-03    -124.096E-03
            1363     6.18177E-03     149.798E-03     6.76107E+06    -11.1649E+06     78.1083E+06    -21.5175E+06    -129.955E-03     288.561E-03    -158.606E-03    -130.251E-03    -129.857E-03     288.065E-03    -158.209E-03    -133.104E-03
            1364     6.93153E-03     150.059E-03     5.02563E+06    -11.4377E+06     86.0246E+06    -22.0478E+06    -124.624E-03     286.334E-03    -161.710E-03    -134.394E-03    -124.518E-03     285.822E-03    -161.270E-03    -137.497E-03
            1365     7.67687E-03     150.351E-03     2.79796E+06    -11.9148E+06     92.3948E+06    -22.2383E+06    -118.327E-03     282.987E-03    -164.660E-03    -133.032E-03    -118.234E-03     282.490E-03    -164.184E-03    -136.300E-03
            1366     8.42009E-03     150.670E-03     -79.286E+03    -10.2931E+06     97.5348E+06    -22.6455E+06    -111.361E-03     278.602E-03    -167.241E-03    -125.424E-03    -111.309E-03     278.162E-03    -166.738E-03    -128.758E-03
            1367     9.16427E-03     151.013E-03    -4.23711E+06    -8.04904E+06     101.740E+06    -21.2690E+06    -104.469E-03     273.728E-03    -169.259E-03    -111.931E-03    -104.488E-03     273.377E-03    -168.733E-03    -115.209E-03
            1368     9.91323E-03     151.371E-03    -7.16233E+06    -6.63540E+06     106.726E+06    -19.4282E+06    -98.0466E-03     268.595E-03    -170.549E-03    -93.4344E-03    -98.1454E-03     268.345E-03    -169.995E-03    -96.5801E-03
            1369     10.6668E-03     151.738E-03    -8.06165E+06    -8.99602E+06     111.084E+06    -17.9318E+06    -92.4206E-03     263.367E-03    -170.946E-03    -70.1225E-03    -92.5960E-03     263.204E-03    -170.366E-03    -73.1012E-03
            1370     11.4362E-03     152.101E-03    -7.70766E+06    -12.7356E+06     112.532E+06    -19.1937E+06    -88.9252E-03     259.298E-03    -170.373E-03    -42.9053E-03    -89.1702E-03     259.216E-03    -169.781E-03    -45.7238E-03
            1371     12.2135E-03     152.454E-03    -9.95416E+06    -18.2040E+06     109.535E+06    -18.6019E+06    -88.9472E-03     257.877E-03    -168.930E-03    -13.8888E-03    -89.2657E-03     257.862E-03    -168.342E-03    -16.5256E-03
            1372     13.0092E-03     152.780E-03    -13.1008E+06    -941.000E+03     114.049E+06    -21.7057E+06    -95.5596E-03     262.552E-03    -166.993E-03     13.4229E-03    -95.9910E-03     262.676E-03    -166.402E-03     10.8510E-03
            1373     13.8078E-03     153.074E-03    -7.69881E+06    -665.396E+03     116.687E+06    -15.2300E+06    -111.588E-03     276.653E-03    -165.065E-03     39.3903E-03    -112.131E-03     276.922E-03    -164.470E-03     36.2756E-03
            1374     14.5624E-03     153.313E-03     6.28682E+06     117.039E+03     101.354E+06    -1.30651E+06    -131.733E-03     295.140E-03    -163.407E-03     38.1245E-03    -132.180E-03     295.391E-03    -162.910E-03     34.8575E-03
            1375     14.5025E-03     76.0618E-03    -5.44657E+06     99.9637E+06     97.5600E+06    -61.7480E+03    -163.960E-03     329.093E-03    -165.133E-03     67.7280E-03    -165.979E-03     331.165E-03    -164.783E-03     58.3310E-03
            1376     13.7396E-03     75.9504E-03    -11.1107E+06     97.0742E+06     98.9633E+06     269.187E+03    -164.698E-03     329.857E-03    -165.159E-03     101.269E-03    -167.725E-03     332.902E-03    -164.789E-03     89.4396E-03
            1377     12.9754E-03     75.8294E-03    -17.1063E+06     91.0408E+06     94.6576E+06     321.980E+03    -164.802E-03     329.966E-03    -165.164E-03     114.292E-03    -168.205E-03     333.357E-03    -164.798E-03     102.051E-03
            1378     12.2122E-03     75.6827E-03    -23.9926E+06     85.1620E+06     83.6537E+06    -98.1456E+03    -165.301E-03     330.458E-03    -165.156E-03     130.644E-03    -169.220E-03     334.351E-03    -164.827E-03     117.734E-03
            1379     11.4475E-03     75.5220E-03    -31.1058E+06     77.8469E+06     71.6338E+06    -217.127E+03    -166.205E-03     331.354E-03    -165.149E-03     141.946E-03    -170.422E-03     335.529E-03    -164.859E-03     128.697E-03
            1380     10.6852E-03     75.3456E-03    -38.3454E+06     62.5073E+06     63.5455E+06     67.1131E+03    -166.883E-03     332.051E-03    -165.168E-03     150.172E-03    -171.238E-03     336.307E-03    -164.885E-03     136.810E-03
            1381     9.92099E-03     75.1633E-03    -45.7870E+06     31.2112E+06     54.7070E+06     246.107E+03    -167.323E-03     332.534E-03    -165.211E-03     153.980E-03    -171.584E-03     336.585E-03    -164.917E-03     140.803E-03
            1382     9.15757E-03     74.9771E-03    -53.3380E+06    -12.0394E+06     41.7519E+06     347.033E+03    -167.749E-03     333.003E-03    -165.254E-03     153.611E-03    -171.709E-03     336.609E-03    -164.950E-03     140.896E-03
            1383     8.39455E-03     74.7941E-03    -61.1704E+06    -54.5917E+06     27.0196E+06     344.729E+03    -167.867E-03     333.153E-03    -165.287E-03     149.300E-03    -171.374E-03     336.171E-03    -164.984E-03     137.343E-03
            1384     7.63066E-03     74.6175E-03    -69.3453E+06    -91.2408E+06     12.3952E+06     238.419E+03    -167.782E-03     333.100E-03    -165.318E-03     142.135E-03    -170.770E-03     335.483E-03    -165.023E-03     131.153E-03
            1385     6.86757E-03     74.4511E-03    -77.7700E+06    -126.529E+06    -2.49080E+06     285.972E+03    -167.652E-03     333.002E-03    -165.351E-03     132.746E-03    -170.106E-03     334.739E-03    -165.067E-03     122.875E-03
            1386     6.10409E-03     74.2964E-03    -86.1564E+06    -158.228E+06    -17.4883E+06     378.843E+03    -167.440E-03     332.815E-03    -165.375E-03     121.582E-03    -169.386E-03     333.944E-03    -165.108E-03     112.905E-03
            1387     5.34077E-03     74.1562E-03    -94.7652E+06    -187.793E+06    -33.1049E+06     248.847E+03    -167.213E-03     332.595E-03    -165.383E-03     109.303E-03    -168.705E-03     333.181E-03    -165.139E-03     101.831E-03
            1388     4.57806E-03     74.0302E-03    -103.700E+06    -217.274E+06    -49.5135E+06     62.6689E+03    -166.838E-03     332.215E-03    -165.378E-03     95.8736E-03    -167.938E-03     332.320E-03    -165.160E-03     89.5936E-03
            1389     3.81511E-03     73.9220E-03    -112.671E+06    -243.363E+06    -67.6272E+06     61.0615E+03    -166.389E-03     331.750E-03    -165.361E-03     81.6909E-03    -167.164E-03     331.457E-03    -165.183E-03     76.5696E-03
            1390     3.05147E-03     73.8310E-03    -121.615E+06    -265.563E+06    -88.3634E+06     110.401E+03    -165.978E-03     331.312E-03    -165.334E-03     66.6680E-03    -166.492E-03     330.708E-03    -165.214E-03     62.6511E-03
            1391     2.28872E-03     73.7590E-03    -129.445E+06    -289.349E+06    -107.793E+06     77.7296E+03    -165.664E-03     330.985E-03    -165.321E-03     50.8016E-03    -165.972E-03     330.119E-03    -165.253E-03     47.8344E-03
            1392     1.52581E-03     73.7068E-03    -135.772E+06    -309.365E+06    -123.830E+06     242.124E+03    -165.540E-03     330.832E-03    -165.291E-03     34.7553E-03    -165.700E-03     329.771E-03    -165.265E-03     32.7850E-03
            1393     763.168E-06     73.6736E-03    -139.981E+06    -319.291E+06    -137.182E+06     854.374E+03    -165.517E-03     330.556E-03    -165.039E-03     18.9408E-03    -165.590E-03     329.397E-03    -165.059E-03     17.8959E-03
            1394     14.5011E-03     74.7440E-03    -5.42272E+06     99.8773E+06     97.6218E+06     262.111E+03    -164.035E-03     329.162E-03    -165.127E-03     67.6004E-03    -166.047E-03     331.226E-03    -164.776E-03     58.2236E-03
            1395     13.7376E-03     74.6294E-03    -11.3959E+06     96.5923E+06     98.6626E+06    -430.255E+03    -164.469E-03     329.623E-03    -165.154E-03     100.195E-03    -167.483E-03     332.653E-03    -164.784E-03     88.3674E-03
            1396     12.9760E-03     74.5112E-03    -17.3043E+06     90.6923E+06     94.6134E+06    -156.965E+03    -164.662E-03     329.830E-03    -165.168E-03     114.007E-03    -168.067E-03     333.221E-03    -164.801E-03     101.753E-03
            1397     12.2111E-03     74.3654E-03    -23.7628E+06     85.2862E+06     84.0486E+06     475.777E+03    -165.463E-03     330.623E-03    -165.161E-03     130.964E-03    -169.386E-03     334.522E-03    -164.830E-03     118.047E-03
            1398     11.4488E-03     74.2023E-03    -30.8527E+06     77.9650E+06     71.8306E+06     478.584E+03    -166.240E-03     331.387E-03    -165.147E-03     141.944E-03    -170.454E-03     335.560E-03    -164.856E-03     128.706E-03
            1399     10.6843E-03     74.0280E-03    -38.1059E+06     62.4011E+06     63.6571E+06     163.487E+03    -166.769E-03     331.937E-03    -165.169E-03     150.104E-03    -171.118E-03     336.189E-03    -164.886E-03     136.760E-03
            1400     9.92119E-03     73.8446E-03    -45.5912E+06     30.9846E+06     54.7091E+06    -3.91537E+03    -167.330E-03     332.546E-03    -165.216E-03     154.063E-03    -171.591E-03     336.597E-03    -164.921E-03     140.880E-03
            1401     9.15786E-03     73.6590E-03    -53.4380E+06    -12.4938E+06     41.4822E+06     145.668E+03    -167.733E-03     332.992E-03    -165.259E-03     153.635E-03    -171.692E-03     336.597E-03    -164.956E-03     140.917E-03
            1402     8.39403E-03     73.4756E-03    -61.3455E+06    -54.9437E+06     26.8284E+06     259.550E+03    -167.815E-03     333.112E-03    -165.296E-03     149.278E-03    -171.322E-03     336.127E-03    -164.994E-03     137.324E-03
            1403     7.63094E-03     73.2998E-03    -69.3543E+06    -91.1254E+06     12.4443E+06     329.137E+03    -167.813E-03     333.143E-03    -165.330E-03     142.150E-03    -170.802E-03     335.526E-03    -165.035E-03     131.166E-03
            1404     6.86724E-03     73.1325E-03    -77.5365E+06    -126.379E+06    -2.51531E+06     286.224E+03    -167.689E-03     333.048E-03    -165.358E-03     132.566E-03    -170.140E-03     334.782E-03    -165.075E-03     122.697E-03
            1405     6.10410E-03     72.9787E-03    -85.9203E+06    -158.492E+06    -17.5353E+06     148.935E+03    -167.482E-03     332.860E-03    -165.378E-03     121.543E-03    -169.426E-03     333.987E-03    -165.111E-03     112.861E-03
            1406     5.34119E-03     72.8372E-03    -94.5501E+06    -187.579E+06    -32.7292E+06     284.832E+03    -167.167E-03     332.556E-03    -165.389E-03     109.391E-03    -168.660E-03     333.143E-03    -165.144E-03     101.919E-03
            1407     4.57784E-03     72.7125E-03    -103.650E+06    -217.015E+06    -49.3595E+06     291.460E+03    -166.731E-03     332.129E-03    -165.399E-03     96.0465E-03    -167.831E-03     332.235E-03    -165.181E-03     89.7751E-03
            1408     3.81434E-03     72.6037E-03    -112.861E+06    -243.599E+06    -67.8988E+06     184.662E+03    -166.353E-03     331.754E-03    -165.401E-03     81.7985E-03    -167.129E-03     331.461E-03    -165.223E-03     76.6774E-03
            1409     3.05193E-03     72.5129E-03    -121.232E+06    -265.361E+06    -88.3400E+06     205.370E+03    -166.023E-03     331.405E-03    -165.383E-03     66.6230E-03    -166.536E-03     330.802E-03    -165.264E-03     62.6067E-03
            1410     2.28857E-03     72.4410E-03    -128.919E+06    -289.402E+06    -107.562E+06     62.5762E+03    -165.786E-03     331.144E-03    -165.357E-03     50.7909E-03    -166.091E-03     330.275E-03    -165.289E-03     47.8271E-03
            1411     1.52570E-03     72.3882E-03    -135.516E+06    -309.915E+06    -124.148E+06     79.3893E+03    -165.504E-03     330.835E-03    -165.331E-03     34.5693E-03    -165.661E-03     329.771E-03    -165.306E-03     32.5957E-03
            1412     762.498E-06     72.3560E-03    -139.810E+06    -318.497E+06    -136.024E+06     43.1416E+03    -165.384E-03     330.677E-03    -165.293E-03     18.9484E-03    -165.459E-03     329.519E-03    -165.308E-03     17.8909E-03
            1413     14.5037E-03     73.4236E-03    -4.90159E+06     100.172E+06     98.2125E+06     291.476E+03    -164.026E-03     329.125E-03    -165.099E-03     67.7332E-03    -166.033E-03     331.186E-03    -164.746E-03     58.3804E-03
            1414     13.7409E-03     73.3123E-03    -10.1684E+06     96.9275E+06     99.4025E+06     100.407E+03    -163.836E-03     328.980E-03    -165.144E-03     100.371E-03    -166.842E-03     332.005E-03    -164.772E-03     88.6122E-03
            1415     12.9743E-03     73.1937E-03    -17.2953E+06     89.9297E+06     93.9851E+06     51.9569E+03    -164.666E-03     329.838E-03    -165.173E-03     114.231E-03    -168.068E-03     333.226E-03    -164.808E-03     101.983E-03
            1416     12.2123E-03     73.0455E-03    -24.3274E+06     84.6291E+06     83.3559E+06     226.029E+03    -165.647E-03     330.808E-03    -165.160E-03     130.827E-03    -169.570E-03     334.702E-03    -164.831E-03     117.893E-03
            1417     11.4478E-03     72.8849E-03    -30.6885E+06     77.9961E+06     72.0292E+06     374.227E+03    -166.119E-03     331.266E-03    -165.147E-03     141.840E-03    -170.328E-03     335.434E-03    -164.855E-03     128.620E-03
            1418     10.6849E-03     72.7091E-03    -37.5542E+06     62.7053E+06     64.0630E+06     380.257E+03    -166.734E-03     331.908E-03    -165.174E-03     150.118E-03    -171.083E-03     336.160E-03    -164.890E-03     136.778E-03
            1419     9.92105E-03     72.5268E-03    -45.2361E+06     30.9554E+06     54.8591E+06     335.983E+03    -167.326E-03     332.549E-03    -165.223E-03     154.102E-03    -171.587E-03     336.600E-03    -164.928E-03     140.923E-03
            1420     9.15737E-03     72.3400E-03    -53.1200E+06    -12.7028E+06     41.6501E+06     236.757E+03    -167.646E-03     332.917E-03    -165.271E-03     153.584E-03    -171.601E-03     336.518E-03    -164.967E-03     140.877E-03
            1421     8.39423E-03     72.1581E-03    -61.1327E+06    -54.9194E+06     26.9144E+06     318.392E+03    -167.870E-03     333.180E-03    -165.310E-03     149.258E-03    -171.376E-03     336.196E-03    -165.007E-03     137.299E-03
            1422     7.63048E-03     71.9809E-03    -69.2412E+06    -91.1687E+06     12.3167E+06     245.231E+03    -167.896E-03     333.232E-03    -165.336E-03     142.051E-03    -170.883E-03     335.614E-03    -165.042E-03     131.060E-03
            1423     6.86762E-03     71.8149E-03    -77.3747E+06    -126.532E+06    -2.44774E+06     145.109E+03    -167.703E-03     333.065E-03    -165.361E-03     132.608E-03    -170.153E-03     334.797E-03    -165.078E-03     122.738E-03
            1424     6.10422E-03     71.6600E-03    -85.9070E+06    -158.499E+06    -17.3943E+06     272.197E+03    -167.444E-03     332.828E-03    -165.385E-03     121.733E-03    -169.389E-03     333.956E-03    -165.117E-03     113.054E-03
            1425     5.34073E-03     71.5195E-03    -94.7414E+06    -187.874E+06    -32.8881E+06     284.318E+03    -167.065E-03     332.472E-03    -165.407E-03     109.392E-03    -168.557E-03     333.057E-03    -165.162E-03     101.930E-03
            1426     4.57746E-03     71.3942E-03    -103.528E+06    -216.832E+06    -49.2964E+06     317.510E+03    -166.711E-03     332.141E-03    -165.429E-03     95.9514E-03    -167.811E-03     332.246E-03    -165.211E-03     89.6813E-03
            1427     3.81483E-03     71.2854E-03    -112.489E+06    -243.369E+06    -67.9378E+06     157.853E+03    -166.393E-03     331.825E-03    -165.433E-03     81.6646E-03    -167.166E-03     331.532E-03    -165.256E-03     76.5442E-03
            1428     3.05109E-03     71.1947E-03    -121.199E+06    -265.696E+06    -88.2921E+06     103.230E+03    -166.081E-03     331.492E-03    -165.411E-03     66.5278E-03    -166.592E-03     330.886E-03    -165.292E-03     62.5133E-03
            1429     2.28863E-03     71.1223E-03    -128.541E+06    -289.406E+06    -107.085E+06     306.367E+03    -165.795E-03     331.181E-03    -165.386E-03     50.7911E-03    -166.098E-03     330.312E-03    -165.316E-03     47.8234E-03
            1430     1.52590E-03     71.0702E-03    -134.833E+06    -309.473E+06    -123.674E+06    -49.9123E+03    -165.558E-03     330.913E-03    -165.355E-03     34.5537E-03    -165.713E-03     329.850E-03    -165.329E-03     32.5761E-03
            1431     763.065E-06     71.0381E-03    -139.340E+06    -318.843E+06    -136.986E+06    -589.148E+03    -165.537E-03     330.707E-03    -165.170E-03     18.8364E-03    -165.608E-03     329.549E-03    -165.190E-03     17.7665E-03
            1432     14.5028E-03     72.1059E-03    -4.83428E+06     100.020E+06     98.2291E+06    -139.160E+03    -163.674E-03     328.778E-03    -165.104E-03     67.7826E-03    -165.681E-03     330.838E-03    -164.751E-03     58.4389E-03
            1433     13.7367E-03     71.9954E-03    -11.1306E+06     95.7015E+06     98.5015E+06     286.947E+03    -163.965E-03     329.119E-03    -165.154E-03     101.055E-03    -166.975E-03     332.144E-03    -164.784E-03     89.3030E-03
            1434     12.9759E-03     71.8737E-03    -17.3292E+06     89.7136E+06     94.0542E+06     739.825E+03    -164.953E-03     330.128E-03    -165.175E-03     114.397E-03    -168.358E-03     333.517E-03    -164.810E-03     102.139E-03
            1435     12.2114E-03     71.7280E-03    -23.8670E+06     84.9827E+06     83.7637E+06     356.855E+03    -165.515E-03     330.673E-03    -165.158E-03     130.587E-03    -169.434E-03     334.566E-03    -164.828E-03     117.664E-03
            1436     11.4486E-03     71.5659E-03    -30.9165E+06     77.6506E+06     71.7040E+06     18.5137E+03    -166.037E-03     331.187E-03    -165.149E-03     141.801E-03    -170.246E-03     335.353E-03    -164.858E-03     128.579E-03
            1437     10.6843E-03     71.3917E-03    -37.9572E+06     62.3955E+06     63.7728E+06     235.868E+03    -166.749E-03     331.928E-03    -165.179E-03     150.254E-03    -171.100E-03     336.182E-03    -164.896E-03     136.909E-03
            1438     9.92102E-03     71.2075E-03    -45.1737E+06     31.0253E+06     55.0053E+06     369.397E+03    -167.313E-03     332.543E-03    -165.230E-03     154.019E-03    -171.572E-03     336.592E-03    -164.934E-03     140.843E-03
            1439     9.15763E-03     71.0229E-03    -53.0215E+06    -12.7035E+06     41.6966E+06     363.292E+03    -167.661E-03     332.938E-03    -165.277E-03     153.367E-03    -171.612E-03     336.534E-03    -164.973E-03     140.663E-03
            1440     8.39372E-03     70.8389E-03    -61.0463E+06    -55.0433E+06     26.9170E+06     313.874E+03    -167.864E-03     333.179E-03    -165.315E-03     149.221E-03    -171.368E-03     336.192E-03    -165.012E-03     137.264E-03
            1441     7.63103E-03     70.6631E-03    -69.1162E+06    -90.9982E+06     12.4955E+06     357.147E+03    -167.852E-03     333.197E-03    -165.345E-03     142.034E-03    -170.838E-03     335.578E-03    -165.050E-03     131.052E-03
            1442     6.86711E-03     70.4964E-03    -77.6026E+06    -126.616E+06    -2.53827E+06     342.620E+03    -167.699E-03     333.072E-03    -165.373E-03     132.719E-03    -170.150E-03     334.805E-03    -165.090E-03     122.853E-03
            1443     6.10395E-03     70.3419E-03    -86.1555E+06    -158.661E+06    -17.6263E+06     289.936E+03    -167.414E-03     332.814E-03    -165.400E-03     121.667E-03    -169.358E-03     333.940E-03    -165.133E-03     112.995E-03
            1444     5.34083E-03     70.2014E-03    -94.7022E+06    -187.875E+06    -32.9881E+06     266.201E+03    -167.090E-03     332.515E-03    -165.425E-03     109.371E-03    -168.581E-03     333.098E-03    -165.180E-03     101.910E-03
            1445     4.57778E-03     70.0759E-03    -103.651E+06    -216.919E+06    -49.4198E+06     176.046E+03    -166.790E-03     332.231E-03    -165.441E-03     95.9520E-03    -167.890E-03     332.336E-03    -165.224E-03     89.6783E-03
            1446     3.81414E-03     69.9673E-03    -112.709E+06    -243.106E+06    -67.7706E+06     185.765E+03    -166.433E-03     331.869E-03    -165.436E-03     81.5599E-03    -167.207E-03     331.576E-03    -165.259E-03     76.4427E-03
            1447     3.05192E-03     69.8761E-03    -121.200E+06    -265.968E+06    -88.4862E+06     104.329E+03    -166.061E-03     331.472E-03    -165.411E-03     66.4725E-03    -166.571E-03     330.865E-03    -165.292E-03     62.4560E-03
            1448     2.28854E-03     69.8043E-03    -129.027E+06    -289.368E+06    -107.601E+06     79.9125E+03    -165.703E-03     331.108E-03    -165.405E-03     50.6945E-03    -166.008E-03     330.240E-03    -165.337E-03     47.7273E-03
            1449     1.52527E-03     69.7518E-03    -135.589E+06    -309.230E+06    -123.867E+06     214.152E+03    -165.536E-03     330.950E-03    -165.414E-03     34.6860E-03    -165.695E-03     329.889E-03    -165.388E-03     32.7168E-03
            1450     762.799E-06     69.7191E-03    -139.762E+06    -319.032E+06    -136.926E+06     376.809E+03    -165.747E-03     330.866E-03    -165.120E-03     19.0695E-03    -165.819E-03     329.708E-03    -165.139E-03     18.0066E-03
            1451     14.5019E-03     70.7894E-03    -5.06756E+06     99.6336E+06     97.8528E+06     190.840E+03    -163.844E-03     328.961E-03    -165.117E-03     67.0247E-03    -165.847E-03     331.016E-03    -164.765E-03     57.6508E-03
            1452     13.7404E-03     70.6762E-03    -10.8698E+06     95.9051E+06     98.8420E+06     465.746E+03    -164.430E-03     329.581E-03    -165.151E-03     100.469E-03    -167.434E-03     332.600E-03    -164.780E-03     88.6887E-03
            1453     12.9747E-03     70.5552E-03    -17.3205E+06     89.5963E+06     94.2746E+06     135.457E+03    -164.714E-03     329.878E-03    -165.164E-03     113.981E-03    -168.113E-03     333.260E-03    -164.797E-03     101.735E-03
            1454     12.2123E-03     70.4094E-03    -23.7162E+06     84.9810E+06     83.9344E+06     367.248E+03    -165.280E-03     330.440E-03    -165.160E-03     130.565E-03    -169.198E-03     334.332E-03    -164.829E-03     117.659E-03
            1455     11.4477E-03     70.2480E-03    -30.5598E+06     77.9018E+06     71.9478E+06     525.422E+03    -166.100E-03     331.257E-03    -165.157E-03     141.958E-03    -170.311E-03     335.427E-03    -164.865E-03     128.734E-03
            1456     10.6847E-03     70.0730E-03    -37.7800E+06     62.3368E+06     63.9157E+06     201.489E+03    -166.800E-03     331.984E-03    -165.184E-03     150.123E-03    -171.148E-03     336.234E-03    -164.900E-03     136.775E-03
            1457     9.92094E-03     69.8895E-03    -45.4207E+06     30.6560E+06     54.8025E+06     229.828E+03    -167.268E-03     332.501E-03    -165.233E-03     153.943E-03    -171.525E-03     336.546E-03    -164.937E-03     140.771E-03
            1458     9.15735E-03     69.7042E-03    -53.1405E+06    -12.8020E+06     41.5714E+06     415.707E+03    -167.672E-03     332.953E-03    -165.282E-03     153.495E-03    -171.624E-03     336.551E-03    -164.978E-03     140.792E-03
            1459     8.39446E-03     69.5211E-03    -61.1243E+06    -54.9359E+06     26.8735E+06     471.151E+03    -167.828E-03     333.151E-03    -165.323E-03     149.361E-03    -171.333E-03     336.165E-03    -165.020E-03     137.412E-03
            1460     7.63012E-03     69.3448E-03    -69.4209E+06    -91.1656E+06     12.3577E+06     459.275E+03    -167.824E-03     333.182E-03    -165.358E-03     142.095E-03    -170.810E-03     335.562E-03    -165.063E-03     131.117E-03
            1461     6.86739E-03     69.1781E-03    -77.6388E+06    -126.489E+06    -2.55250E+06     440.582E+03    -167.726E-03     333.114E-03    -165.388E-03     132.621E-03    -170.176E-03     334.846E-03    -165.104E-03     122.756E-03
            1462     6.10402E-03     69.0239E-03    -86.0425E+06    -158.513E+06    -17.4932E+06     280.885E+03    -167.466E-03     332.877E-03    -165.411E-03     121.551E-03    -169.409E-03     334.002E-03    -165.143E-03     112.876E-03
            1463     5.34058E-03     68.8831E-03    -94.8532E+06    -187.892E+06    -32.9166E+06     151.386E+03    -167.159E-03     332.586E-03    -165.427E-03     109.249E-03    -168.650E-03     333.169E-03    -165.182E-03     101.784E-03
            1464     4.57732E-03     68.7575E-03    -103.792E+06    -216.900E+06    -49.5037E+06     175.686E+03    -166.798E-03     332.234E-03    -165.435E-03     95.8290E-03    -167.897E-03     332.338E-03    -165.218E-03     89.5600E-03
            1465     3.81499E-03     68.6488E-03    -112.550E+06    -243.252E+06    -67.7826E+06     161.542E+03    -166.421E-03     331.851E-03    -165.429E-03     81.5816E-03    -167.194E-03     331.557E-03    -165.252E-03     76.4633E-03
            1466     3.05118E-03     68.5581E-03    -120.994E+06    -265.758E+06    -88.1111E+06     148.239E+03    -166.037E-03     331.446E-03    -165.409E-03     66.4788E-03    -166.548E-03     330.840E-03    -165.289E-03     62.4626E-03
            1467     2.28851E-03     68.4859E-03    -128.988E+06    -289.497E+06    -107.579E+06     78.4945E+03    -165.746E-03     331.141E-03    -165.395E-03     50.6074E-03    -166.050E-03     330.272E-03    -165.326E-03     47.6427E-03
            1468     1.52588E-03     68.4338E-03    -135.460E+06    -309.473E+06    -124.094E+06     59.0577E+03    -165.523E-03     330.914E-03    -165.390E-03     34.4924E-03    -165.681E-03     329.851E-03    -165.365E-03     32.5228E-03
            1469     762.500E-06     68.4004E-03    -139.552E+06    -318.545E+06    -136.028E+06     275.704E+03    -165.504E-03     330.814E-03    -165.310E-03     18.7093E-03    -165.578E-03     329.656E-03    -165.326E-03     17.6511E-03
            1470     14.5026E-03     69.4686E-03    -5.61732E+06     99.0117E+06     97.3023E+06    -166.415E+03    -164.089E-03     329.196E-03    -165.107E-03     67.1974E-03    -166.099E-03     331.255E-03    -164.756E-03     57.8062E-03
            1471     13.7382E-03     69.3576E-03    -10.7806E+06     95.7225E+06     98.8131E+06     13.9548E+03    -164.262E-03     329.401E-03    -165.140E-03     100.706E-03    -167.269E-03     332.424E-03    -164.769E-03     88.9296E-03
            1472     12.9765E-03     69.2374E-03    -16.3552E+06     89.3827E+06     94.5610E+06     363.048E+03    -164.483E-03     329.649E-03    -165.166E-03     114.519E-03    -167.878E-03     333.028E-03    -164.799E-03     102.314E-03
            1473     12.2111E-03     69.0916E-03    -23.3350E+06     84.3658E+06     83.7092E+06     572.578E+03    -165.364E-03     330.531E-03    -165.167E-03     130.881E-03    -169.280E-03     334.421E-03    -164.837E-03     117.977E-03
            1474     11.4483E-03     68.9294E-03    -30.1744E+06     78.1826E+06     72.2763E+06     657.159E+03    -166.165E-03     331.327E-03    -165.162E-03     141.826E-03    -170.371E-03     335.494E-03    -164.870E-03     128.605E-03
            1475     10.6845E-03     68.7542E-03    -37.2753E+06     62.5939E+06     64.1263E+06     721.310E+03    -166.741E-03     331.929E-03    -165.188E-03     150.154E-03    -171.088E-03     336.180E-03    -164.905E-03     136.818E-03
            1476     9.92100E-03     68.5719E-03    -45.0043E+06     30.5062E+06     54.7737E+06     707.574E+03    -167.264E-03     332.505E-03    -165.241E-03     154.067E-03    -171.518E-03     336.549E-03    -164.946E-03     140.905E-03
            1477     9.15740E-03     68.3855E-03    -53.0951E+06    -12.8956E+06     41.5357E+06     613.491E+03    -167.609E-03     332.904E-03    -165.294E-03     153.529E-03    -171.558E-03     336.498E-03    -164.991E-03     140.839E-03
            1478     8.39335E-03     68.2031E-03    -61.1626E+06    -54.8906E+06     26.9262E+06     545.754E+03    -167.860E-03     333.198E-03    -165.338E-03     149.329E-03    -171.364E-03     336.212E-03    -165.035E-03     137.379E-03
            1479     7.63085E-03     68.0263E-03    -69.1660E+06    -91.0381E+06     12.5732E+06     431.983E+03    -167.906E-03     333.276E-03    -165.369E-03     142.065E-03    -170.892E-03     335.656E-03    -165.074E-03     131.080E-03
            1480     6.86699E-03     67.8599E-03    -77.4256E+06    -126.173E+06    -2.14342E+06     449.265E+03    -167.759E-03     333.153E-03    -165.394E-03     132.531E-03    -170.207E-03     334.885E-03    -165.110E-03     122.665E-03
            1481     6.10381E-03     67.7054E-03    -85.9494E+06    -158.481E+06    -17.3090E+06     364.935E+03    -167.564E-03     332.972E-03    -165.408E-03     121.463E-03    -169.507E-03     334.097E-03    -165.140E-03     112.782E-03
            1482     5.34100E-03     67.5648E-03    -94.5781E+06    -187.887E+06    -32.7862E+06     232.171E+03    -167.204E-03     332.617E-03    -165.413E-03     109.131E-03    -168.693E-03     333.198E-03    -165.167E-03     101.665E-03
            1483     4.57806E-03     67.4394E-03    -103.322E+06    -216.897E+06    -49.2635E+06     99.3484E+03    -166.781E-03     332.198E-03    -165.416E-03     95.8345E-03    -167.879E-03     332.301E-03    -165.198E-03     89.5627E-03
            1484     3.81409E-03     67.3307E-03    -112.331E+06    -243.573E+06    -67.7399E+06     28.7920E+03    -166.429E-03     331.835E-03    -165.406E-03     81.4372E-03    -167.200E-03     331.539E-03    -165.229E-03     76.3151E-03
            1485     3.05188E-03     67.2396E-03    -121.149E+06    -265.904E+06    -87.8754E+06     266.840E+03    -166.053E-03     331.428E-03    -165.375E-03     66.1539E-03    -166.563E-03     330.819E-03    -165.254E-03     62.1432E-03
            1486     2.28863E-03     67.1679E-03    -128.605E+06    -289.094E+06    -107.179E+06     253.695E+03    -165.734E-03     331.080E-03    -165.346E-03     50.5312E-03    -166.038E-03     330.212E-03    -165.276E-03     47.5676E-03
            1487     1.52562E-03     67.1149E-03    -134.904E+06    -309.274E+06    -124.023E+06    -152.188E+03    -165.538E-03     330.848E-03    -165.310E-03     34.5592E-03    -165.693E-03     329.786E-03    -165.286E-03     32.5853E-03
            1488     763.269E-06     67.0830E-03    -139.171E+06    -319.117E+06    -136.576E+06    -351.930E+03    -165.418E-03     330.613E-03    -165.195E-03     18.9720E-03    -165.488E-03     329.452E-03    -165.213E-03     17.9083E-03
            1489     14.5029E-03     68.1517E-03    -4.81247E+06     99.5662E+06     98.1009E+06    -62.8347E+03    -163.814E-03     328.917E-03    -165.103E-03     67.3121E-03    -165.817E-03     330.972E-03    -164.750E-03     57.9569E-03
            1490     13.7399E-03     68.0384E-03    -10.7440E+06     95.4265E+06     98.5617E+06    -312.221E+03    -163.866E-03     329.017E-03    -165.152E-03     100.711E-03    -166.872E-03     332.039E-03    -164.782E-03     88.9474E-03
            1491     12.9740E-03     67.9204E-03    -17.5553E+06     88.0095E+06     93.4194E+06    -42.2409E+03    -164.726E-03     329.907E-03    -165.181E-03     114.481E-03    -168.128E-03     333.289E-03    -164.816E-03     102.234E-03
            1492     12.2118E-03     67.7720E-03    -23.6618E+06     83.9334E+06     83.6749E+06     450.920E+03    -165.514E-03     330.687E-03    -165.174E-03     130.698E-03    -169.427E-03     334.572E-03    -164.843E-03     117.787E-03
            1493     11.4482E-03     67.6113E-03    -30.3064E+06     77.9247E+06     72.0797E+06     687.121E+03    -166.046E-03     331.212E-03    -165.166E-03     141.899E-03    -170.252E-03     335.378E-03    -164.875E-03     128.689E-03
            1494     10.6842E-03     67.4365E-03    -37.5324E+06     62.3485E+06     63.9097E+06     992.693E+03    -166.712E-03     331.910E-03    -165.199E-03     150.195E-03    -171.059E-03     336.160E-03    -164.915E-03     136.866E-03
            1495     9.92065E-03     67.2527E-03    -45.1520E+06     30.8053E+06     54.8913E+06     1.04100E+06    -167.246E-03     332.500E-03    -165.254E-03     153.957E-03    -171.499E-03     336.543E-03    -164.959E-03     140.803E-03
            1496     9.15716E-03     67.0680E-03    -53.0693E+06    -12.4960E+06     41.8014E+06     795.899E+03    -167.684E-03     332.990E-03    -165.306E-03     153.491E-03    -171.635E-03     336.587E-03    -165.002E-03     140.795E-03
            1497     8.39410E-03     66.8844E-03    -61.1325E+06    -54.6471E+06     27.1681E+06     504.598E+03    -167.944E-03     333.287E-03    -165.343E-03     149.194E-03    -171.447E-03     336.300E-03    -165.039E-03     137.237E-03
            1498     7.63010E-03     66.7079E-03    -69.4093E+06    -90.7792E+06     12.6584E+06     465.605E+03    -167.941E-03     333.308E-03    -165.367E-03     141.817E-03    -170.926E-03     335.687E-03    -165.071E-03     130.832E-03
            1499     6.86730E-03     66.5417E-03    -77.6142E+06    -126.433E+06    -2.22752E+06       329.9E+03    -167.828E-03     333.211E-03    -165.383E-03     132.367E-03    -170.277E-03     334.941E-03    -165.098E-03     122.494E-03
            1500     6.10420E-03     66.3868E-03    -85.8456E+06    -158.286E+06    -17.1056E+06     309.340E+03    -167.540E-03     332.931E-03    -165.392E-03     121.323E-03    -169.481E-03     334.056E-03    -165.123E-03     112.644E-03
            1501     5.34083E-03     66.2465E-03    -94.5416E+06    -187.728E+06    -32.7518E+06     175.924E+03    -167.188E-03     332.583E-03    -165.395E-03     109.110E-03    -168.677E-03     333.165E-03    -165.150E-03     101.641E-03
            1502     4.57740E-03     66.1212E-03    -103.447E+06    -217.178E+06    -49.1147E+06     48.6655E+03    -166.871E-03     332.260E-03    -165.390E-03     95.7619E-03    -167.969E-03     332.363E-03    -165.170E-03     89.4817E-03
            1503     3.81535E-03     66.0122E-03    -112.582E+06    -243.599E+06    -67.4552E+06     187.737E+03    -166.427E-03     331.792E-03    -165.365E-03     81.3686E-03    -167.199E-03     331.495E-03    -165.186E-03     76.2527E-03
            1504     3.05166E-03     65.9216E-03    -121.406E+06    -266.253E+06    -88.3133E+06     103.216E+03    -166.001E-03     331.329E-03    -165.328E-03     66.2980E-03    -166.511E-03     330.719E-03    -165.208E-03     62.2866E-03
            1505     2.28890E-03     65.8497E-03    -129.125E+06    -288.838E+06    -107.522E+06     118.592E+03    -165.692E-03     330.992E-03    -165.301E-03     50.6824E-03    -165.998E-03     330.127E-03    -165.232E-03     47.7171E-03
            1506     1.52591E-03     65.7972E-03    -135.320E+06    -308.879E+06    -123.958E+06     124.248E+03    -165.464E-03     330.740E-03    -165.276E-03     34.5921E-03    -165.622E-03     329.680E-03    -165.252E-03     32.6194E-03
            1507     762.578E-06     65.7643E-03    -139.671E+06    -319.646E+06    -136.615E+06    -152.687E+03    -165.387E-03     330.562E-03    -165.176E-03     18.9154E-03    -165.458E-03     329.400E-03    -165.193E-03     17.8556E-03
            1508     14.5026E-03     66.8310E-03    -5.04898E+06     99.1750E+06     97.6698E+06    -207.001E+03    -163.634E-03     328.752E-03    -165.118E-03     67.4094E-03    -165.637E-03     330.806E-03    -164.766E-03     58.0519E-03
            1509     13.7375E-03     66.7236E-03    -10.7266E+06     95.4594E+06     98.6201E+06     318.702E+03    -164.209E-03     329.373E-03    -165.163E-03     100.703E-03    -167.217E-03     332.395E-03    -164.793E-03     88.9295E-03
            1510     12.9759E-03     66.5990E-03    -17.2525E+06     88.1553E+06     93.5668E+06     105.313E+03    -164.788E-03     329.969E-03    -165.181E-03     114.256E-03    -168.187E-03     333.349E-03    -164.816E-03     102.002E-03
            1511     12.2119E-03     66.4554E-03    -24.2670E+06     82.9712E+06     82.8869E+06    -52.0161E+03    -165.335E-03     330.510E-03    -165.175E-03     130.677E-03    -169.249E-03     334.392E-03    -164.846E-03     117.767E-03
            1512     11.4474E-03     66.2926E-03    -31.0411E+06     76.9800E+06     71.4445E+06     667.683E+03    -166.043E-03     331.218E-03    -165.175E-03     141.976E-03    -170.250E-03     335.381E-03    -164.884E-03     128.767E-03
            1513     10.6845E-03     66.1178E-03    -38.0803E+06     61.8688E+06     63.5772E+06     954.903E+03    -166.726E-03     331.935E-03    -165.208E-03     150.097E-03    -171.072E-03     336.180E-03    -164.925E-03     136.771E-03
            1514     9.92075E-03     65.9351E-03    -45.5247E+06     31.1656E+06     55.0332E+06     1.01709E+06    -167.333E-03     332.594E-03    -165.261E-03     153.920E-03    -171.589E-03     336.639E-03    -164.965E-03     140.757E-03
            1515     9.15707E-03     65.7491E-03    -53.1936E+06    -11.8286E+06     42.1047E+06     737.524E+03    -167.818E-03     333.121E-03    -165.303E-03     153.258E-03    -171.770E-03     336.720E-03    -164.998E-03     140.548E-03
            1516     8.39367E-03     65.5659E-03    -61.1411E+06    -54.2707E+06     27.3515E+06     573.165E+03    -167.989E-03     333.318E-03    -165.329E-03     148.974E-03    -171.492E-03     336.331E-03    -165.025E-03     137.015E-03
            1517     7.63093E-03     65.3900E-03    -68.9958E+06    -90.8173E+06     12.8485E+06     386.733E+03    -167.978E-03     333.323E-03    -165.345E-03     141.702E-03    -170.959E-03     335.700E-03    -165.050E-03     130.713E-03
            1518     6.86739E-03     65.2228E-03    -77.1064E+06    -126.400E+06    -2.01679E+06     227.317E+03    -167.790E-03     333.149E-03    -165.359E-03     132.294E-03    -170.236E-03     334.879E-03    -165.074E-03     122.419E-03
            1519     6.10420E-03     65.0689E-03    -85.6643E+06    -158.317E+06    -16.8754E+06     220.162E+03    -167.485E-03     332.855E-03    -165.371E-03     121.310E-03    -169.425E-03     333.979E-03    -165.101E-03     112.631E-03
            1520     5.34096E-03     64.9283E-03    -94.3325E+06    -187.653E+06    -32.4155E+06     160.998E+03    -167.227E-03     332.599E-03    -165.372E-03     109.085E-03    -168.717E-03     333.181E-03    -165.125E-03     101.613E-03
            1521     4.57847E-03     64.8025E-03    -103.441E+06    -217.238E+06    -48.8484E+06     169.360E+03    -166.820E-03     332.184E-03    -165.364E-03     95.7240E-03    -167.918E-03     332.285E-03    -165.143E-03     89.4511E-03
            1522     3.81452E-03     64.6944E-03    -112.513E+06    -243.701E+06    -67.0256E+06     237.623E+03    -166.322E-03     331.673E-03    -165.352E-03     81.5095E-03    -167.094E-03     331.376E-03    -165.170E-03     76.3963E-03
            1523     3.05191E-03     64.6035E-03    -120.996E+06    -265.962E+06    -87.9096E+06     222.851E+03    -165.966E-03     331.295E-03    -165.328E-03     66.4910E-03    -166.476E-03     330.686E-03    -165.207E-03     62.4812E-03
            1524     2.28868E-03     64.5315E-03    -128.828E+06    -288.980E+06    -107.584E+06    -8.64042E+03    -165.751E-03     331.045E-03    -165.294E-03     50.7635E-03    -166.056E-03     330.179E-03    -165.227E-03     47.7971E-03
            1525     1.52582E-03     64.4790E-03    -135.307E+06    -308.995E+06    -123.803E+06     50.2152E+03    -165.495E-03     330.740E-03    -165.245E-03     34.5033E-03    -165.653E-03     329.680E-03    -165.220E-03     32.5354E-03
            1526     763.188E-06     64.4466E-03    -139.690E+06    -319.454E+06    -136.356E+06     56.4201E+03    -165.250E-03     330.465E-03    -165.216E-03     18.8479E-03    -165.322E-03     329.303E-03    -165.232E-03     17.7878E-03
            1527     14.5014E-03     65.5158E-03    -5.08435E+06     99.0032E+06     97.3997E+06    -8.62026E+03    -163.748E-03     328.866E-03    -165.118E-03     66.6706E-03    -165.743E-03     330.912E-03    -164.767E-03     57.3203E-03
            1528     13.7398E-03     65.4012E-03    -11.4087E+06     94.6695E+06     97.8548E+06    -305.927E+03    -164.104E-03     329.266E-03    -165.163E-03     100.625E-03    -167.112E-03     332.286E-03    -164.794E-03     88.8467E-03
            1529     12.9751E-03     65.2833E-03    -17.2064E+06     88.0944E+06     93.5292E+06     127.626E+03    -164.616E-03     329.807E-03    -165.191E-03     114.798E-03    -168.021E-03     333.193E-03    -164.827E-03     102.556E-03
            1530     12.2107E-03     65.1360E-03    -23.7037E+06     82.4619E+06     83.1064E+06     729.024E+03    -165.451E-03     330.642E-03    -165.190E-03     130.872E-03    -169.364E-03     334.522E-03    -164.860E-03     117.965E-03
            1531     11.4484E-03     64.9744E-03    -30.9070E+06     76.0413E+06     71.3738E+06     874.721E+03    -166.153E-03     331.337E-03    -165.184E-03     141.878E-03    -170.358E-03     335.495E-03    -164.892E-03     128.663E-03
            1532     10.6838E-03     64.7999E-03    -38.0835E+06     61.9719E+06     63.6882E+06     874.607E+03    -166.842E-03     332.051E-03    -165.208E-03     149.960E-03    -171.187E-03     336.295E-03    -164.925E-03     136.623E-03
            1533     9.92050E-03     64.6160E-03    -45.2567E+06     31.4132E+06     55.3287E+06     654.109E+03    -167.493E-03     332.742E-03    -165.249E-03     153.617E-03    -171.747E-03     336.786E-03    -164.952E-03     140.434E-03
            1534     9.15769E-03     64.4308E-03    -52.8294E+06    -11.5914E+06     42.3734E+06     524.874E+03    -167.850E-03     333.129E-03    -165.280E-03     153.050E-03    -171.799E-03     336.727E-03    -164.974E-03     140.333E-03
            1535     8.39434E-03     64.2478E-03    -60.4126E+06    -54.1754E+06     27.7442E+06     463.825E+03    -167.994E-03     333.295E-03    -165.301E-03     148.782E-03    -171.492E-03     336.305E-03    -164.996E-03     136.819E-03
            1536     7.63061E-03     64.0711E-03    -68.4764E+06    -90.7429E+06     13.1969E+06     270.952E+03    -167.900E-03     333.218E-03    -165.317E-03     141.639E-03    -170.879E-03     335.593E-03    -165.020E-03     130.654E-03
            1537     6.86774E-03     63.9049E-03    -76.8984E+06    -126.242E+06    -1.68109E+06     295.836E+03    -167.682E-03     333.020E-03    -165.338E-03     132.279E-03    -170.126E-03     334.748E-03    -165.052E-03     122.416E-03
            1538     6.10419E-03     63.7508E-03    -85.3787E+06    -158.391E+06    -16.6409E+06     237.726E+03    -167.506E-03     332.858E-03    -165.353E-03     121.406E-03    -169.446E-03     333.981E-03    -165.082E-03     112.727E-03
            1539     5.34138E-03     63.6095E-03    -94.1726E+06    -187.541E+06    -31.9828E+06     233.207E+03    -167.157E-03     332.514E-03    -165.357E-03     109.201E-03    -168.646E-03     333.096E-03    -165.109E-03     101.737E-03
            1540     4.57763E-03     63.4849E-03    -103.168E+06    -217.067E+06    -48.5661E+06     306.860E+03    -166.683E-03     332.048E-03    -165.365E-03     95.8666E-03    -167.780E-03     332.149E-03    -165.143E-03     89.6024E-03
            1541     3.81513E-03     63.3761E-03    -112.185E+06    -243.803E+06    -67.1483E+06     172.763E+03    -166.320E-03     331.685E-03    -165.365E-03     81.5548E-03    -167.091E-03     331.387E-03    -165.185E-03     76.4408E-03
            1542     3.05159E-03     63.2856E-03    -120.711E+06    -265.887E+06    -87.4525E+06     144.233E+03    -166.014E-03     331.356E-03    -165.342E-03     66.5001E-03    -166.523E-03     330.746E-03    -165.219E-03     62.4904E-03
            1543     2.28880E-03     63.2132E-03    -128.251E+06    -288.927E+06    -106.808E+06     217.961E+03    -165.741E-03     331.050E-03    -165.309E-03     50.7868E-03    -166.044E-03     330.182E-03    -165.239E-03     47.8244E-03
            1544     1.52601E-03     63.1609E-03    -134.662E+06    -309.024E+06    -123.501E+06     182.325E+03    -165.498E-03     330.765E-03    -165.267E-03     34.5305E-03    -165.653E-03     329.704E-03    -165.241E-03     32.5586E-03
            1545     762.807E-06     63.1289E-03    -139.827E+06    -319.362E+06    -136.233E+06    -38.6071E+03    -165.397E-03     330.520E-03    -165.123E-03     18.9211E-03    -165.471E-03     329.358E-03    -165.138E-03     17.8574E-03
            1546     14.5040E-03     64.1955E-03    -4.58175E+06     99.2917E+06     97.8593E+06     301.721E+03    -163.610E-03     328.746E-03    -165.136E-03     68.2332E-03    -165.622E-03     330.811E-03    -164.784E-03     58.8840E-03
            1547     13.7379E-03     64.0857E-03    -10.6935E+06     95.1365E+06     98.1897E+06     540.509E+03    -164.160E-03     329.346E-03    -165.185E-03     101.555E-03    -167.179E-03     332.379E-03    -164.817E-03     89.7770E-03
            1548     12.9741E-03     63.9639E-03    -18.0774E+06     87.1439E+06     92.5373E+06     185.380E+03    -164.877E-03     330.081E-03    -165.204E-03     114.376E-03    -168.276E-03     333.457E-03    -164.842E-03     102.125E-03
            1549     12.2120E-03     63.8171E-03    -24.4734E+06     81.7878E+06     82.6071E+06     197.827E+03    -165.566E-03     330.758E-03    -165.192E-03     130.368E-03    -169.474E-03     334.630E-03    -164.863E-03     117.452E-03
            1550     11.4470E-03     63.6568E-03    -30.4343E+06     75.4988E+06     71.6177E+06     611.804E+03    -166.333E-03     331.509E-03    -165.175E-03     141.504E-03    -170.534E-03     335.661E-03    -164.883E-03     128.265E-03
            1551     10.6847E-03     63.4803E-03    -36.9183E+06     62.4118E+06     64.5838E+06     870.618E+03    -167.039E-03     332.224E-03    -165.184E-03     149.498E-03    -171.376E-03     336.464E-03    -164.898E-03     136.140E-03
            1552     9.92155E-03     63.2984E-03    -44.4792E+06     31.9601E+06     55.8823E+06     478.858E+03    -167.411E-03     332.626E-03    -165.215E-03     153.348E-03    -171.658E-03     336.666E-03    -164.918E-03     140.170E-03
            1553     9.15748E-03     63.1118E-03    -52.2383E+06    -11.8867E+06     42.6097E+06     308.638E+03    -167.753E-03     333.003E-03    -165.250E-03     153.083E-03    -171.698E-03     336.596E-03    -164.944E-03     140.375E-03
            1554     8.39437E-03     62.9295E-03    -60.2177E+06    -54.2139E+06     27.9931E+06     346.217E+03    -167.922E-03     333.199E-03    -165.277E-03     148.910E-03    -171.419E-03     336.209E-03    -164.971E-03     136.953E-03
            1555     7.63147E-03     62.7530E-03    -68.4239E+06    -90.4323E+06     13.4941E+06     601.254E+03    -167.800E-03     333.101E-03    -165.301E-03     141.734E-03    -170.779E-03     335.477E-03    -165.003E-03     130.766E-03
            1556     6.86744E-03     62.5872E-03    -76.7689E+06    -126.363E+06    -1.70926E+06     395.355E+03    -167.703E-03     333.027E-03    -165.324E-03     132.446E-03    -170.146E-03     334.754E-03    -165.038E-03     122.589E-03
            1557     6.10459E-03     62.4319E-03    -85.1786E+06    -158.414E+06    -16.4130E+06     247.238E+03    -167.449E-03     332.791E-03    -165.342E-03     121.449E-03    -169.387E-03     333.912E-03    -165.071E-03     112.779E-03
            1558     5.34099E-03     62.2921E-03    -93.8889E+06    -187.374E+06    -31.7523E+06     421.347E+03    -167.015E-03     332.374E-03    -165.360E-03     109.180E-03    -168.501E-03     332.955E-03    -165.111E-03     101.730E-03
            1559     4.57814E-03     62.1665E-03    -102.888E+06    -217.067E+06    -48.5754E+06     201.422E+03    -166.697E-03     332.074E-03    -165.377E-03     95.8209E-03    -167.793E-03     332.174E-03    -165.155E-03     89.5556E-03
            1560     3.81442E-03     62.0582E-03    -111.853E+06    -243.690E+06    -66.9723E+06     183.778E+03    -166.377E-03     331.749E-03    -165.372E-03     81.4758E-03    -167.146E-03     331.450E-03    -165.192E-03     76.3632E-03
            1561     3.05184E-03     61.9672E-03    -120.584E+06    -265.953E+06    -87.5386E+06     120.809E+03    -166.018E-03     331.361E-03    -165.343E-03     66.4589E-03    -166.526E-03     330.751E-03    -165.220E-03     62.4478E-03
            1562     2.28874E-03     61.8952E-03    -128.441E+06    -288.983E+06    -106.734E+06     156.744E+03    -165.657E-03     330.984E-03    -165.328E-03     50.7558E-03    -165.961E-03     330.116E-03    -165.256E-03     47.7931E-03
            1563     1.52551E-03     61.8428E-03    -135.013E+06    -309.087E+06    -123.254E+06     311.877E+03    -165.434E-03     330.769E-03    -165.335E-03     34.5379E-03    -165.591E-03     329.707E-03    -165.307E-03     32.5686E-03
            1564     762.923E-06     61.8106E-03    -139.256E+06    -318.786E+06    -136.343E+06     609.942E+03    -165.635E-03     330.715E-03    -165.081E-03     18.9529E-03    -165.706E-03     329.556E-03    -165.098E-03     17.8951E-03
            1565     14.4990E-03     62.8782E-03    -5.69921E+06     98.0454E+06     96.5258E+06     76.5050E+03    -163.737E-03     328.888E-03    -165.151E-03     67.7263E-03    -165.745E-03     330.943E-03    -164.802E-03     58.3545E-03
            1566     13.7377E-03     62.7656E-03    -10.9430E+06     94.8032E+06     97.8830E+06     396.619E+03    -164.722E-03     329.902E-03    -165.180E-03     99.7312E-03    -167.718E-03     332.912E-03    -164.812E-03     87.9179E-03
            1567     12.9761E-03     62.6445E-03    -16.1636E+06     87.8746E+06     93.5922E+06     704.824E+03    -164.894E-03     330.074E-03    -165.180E-03     113.289E-03    -168.273E-03     333.436E-03    -164.816E-03     101.046E-03
            1568     12.2107E-03     62.5002E-03    -23.0756E+06     81.9511E+06     82.8541E+06     176.347E+03    -165.597E-03     330.757E-03    -165.160E-03     130.079E-03    -169.497E-03     334.626E-03    -164.831E-03     117.150E-03
            1569     11.4489E-03     62.3363E-03    -29.7951E+06     74.8029E+06     71.6047E+06    -65.3452E+03    -166.371E-03     331.509E-03    -165.138E-03     141.119E-03    -170.559E-03     335.649E-03    -164.846E-03     127.873E-03
            1570     10.6851E-03     62.1630E-03    -36.5763E+06     61.6618E+06     64.6047E+06     474.794E+03    -166.850E-03     332.001E-03    -165.151E-03     149.657E-03    -171.184E-03     336.236E-03    -164.864E-03     136.314E-03
            1571     9.92121E-03     61.9789E-03    -43.9280E+06     32.6310E+06     56.4339E+06     814.311E+03    -167.357E-03     332.548E-03    -165.190E-03     153.611E-03    -171.604E-03     336.591E-03    -164.892E-03     140.445E-03
            1572     9.15833E-03     61.7948E-03    -52.0442E+06    -11.7899E+06     42.8040E+06     707.028E+03    -167.646E-03     332.877E-03    -165.231E-03     153.229E-03    -171.587E-03     336.467E-03    -164.925E-03     140.544E-03
            1573     8.39451E-03     61.6103E-03    -60.3396E+06    -54.2925E+06     27.8588E+06     612.283E+03    -167.746E-03     333.017E-03    -165.270E-03     149.049E-03    -171.241E-03     336.024E-03    -164.965E-03     137.118E-03
            1574     7.63060E-03     61.4357E-03    -68.4002E+06    -90.6130E+06     13.4737E+06     498.541E+03    -167.865E-03     333.166E-03    -165.301E-03     141.839E-03    -170.843E-03     335.540E-03    -165.003E-03     130.868E-03
            1575     6.86789E-03     61.2681E-03    -76.5301E+06    -125.790E+06    -1.30190E+06     573.550E+03    -167.732E-03     333.052E-03    -165.320E-03     132.470E-03    -170.175E-03     334.781E-03    -165.033E-03     122.615E-03
            1576     6.10437E-03     61.1145E-03    -85.1818E+06    -158.431E+06    -16.6179E+06     356.101E+03    -167.368E-03     332.707E-03    -165.339E-03     121.404E-03    -169.304E-03     333.827E-03    -165.069E-03     112.744E-03
            1577     5.34117E-03     60.9738E-03    -93.8372E+06    -187.565E+06    -31.9973E+06     143.305E+03    -167.075E-03     332.432E-03    -165.357E-03     109.134E-03    -168.561E-03     333.012E-03    -165.109E-03     101.676E-03
            1578     4.57764E-03     60.8485E-03    -102.604E+06    -216.778E+06    -48.3680E+06     255.522E+03    -166.739E-03     332.104E-03    -165.366E-03     95.6799E-03    -167.832E-03     332.204E-03    -165.144E-03     89.4173E-03
            1579     3.81514E-03     60.7399E-03    -111.811E+06    -243.777E+06    -66.6145E+06     286.051E+03    -166.355E-03     331.713E-03    -165.358E-03     81.3778E-03    -167.123E-03     331.412E-03    -165.176E-03     76.2688E-03
            1580     3.05169E-03     60.6491E-03    -120.623E+06    -265.861E+06    -87.4324E+06     340.130E+03    -165.964E-03     331.296E-03    -165.332E-03     66.3499E-03    -166.472E-03     330.686E-03    -165.209E-03     62.3441E-03
            1581     2.28868E-03     60.5772E-03    -128.435E+06    -289.185E+06    -106.906E+06     259.090E+03    -165.621E-03     330.947E-03    -165.326E-03     50.6253E-03    -165.924E-03     330.077E-03    -165.255E-03     47.6682E-03
            1582     1.52586E-03     60.5247E-03    -134.915E+06    -308.952E+06    -123.216E+06     203.328E+03    -165.422E-03     330.766E-03    -165.344E-03     34.5299E-03    -165.578E-03     329.704E-03    -165.317E-03     32.5613E-03
            1583     762.632E-06     60.4921E-03    -139.438E+06    -318.394E+06    -135.794E+06     136.235E+03    -165.430E-03     330.748E-03    -165.318E-03     19.0852E-03    -165.504E-03     329.590E-03    -165.333E-03     18.0209E-03
            1584     14.5042E-03     61.5599E-03    -5.51601E+06     98.2025E+06     96.6595E+06     265.613E+03    -164.409E-03     329.507E-03    -165.098E-03     67.0016E-03    -166.404E-03     331.550E-03    -164.749E-03     57.6346E-03
            1585     13.7406E-03     61.4443E-03    -10.9655E+06     94.6657E+06     97.9066E+06    -477.704E+03    -164.179E-03     329.301E-03    -165.121E-03     99.4197E-03    -167.165E-03     332.300E-03    -164.753E-03     87.6477E-03
            1586     12.9749E-03     61.3297E-03    -16.7131E+06     87.1571E+06     93.4284E+06    -426.336E+03    -164.780E-03     329.917E-03    -165.137E-03     113.524E-03    -168.161E-03     333.278E-03    -164.772E-03     101.277E-03
            1587     12.2131E-03     61.1785E-03    -22.6164E+06     82.1808E+06     83.6092E+06     445.603E+03    -165.575E-03     330.698E-03    -165.123E-03     130.329E-03    -169.472E-03     334.564E-03    -164.791E-03     117.420E-03
            1588     11.4487E-03     61.0202E-03    -29.6657E+06     74.7219E+06     71.6684E+06     567.754E+03    -166.055E-03     331.164E-03    -165.109E-03     141.493E-03    -170.242E-03     335.303E-03    -164.816E-03     128.294E-03
            1589     10.6848E-03     60.8434E-03    -37.2010E+06     60.8604E+06     63.9306E+06     364.309E+03    -166.719E-03     331.855E-03    -165.136E-03     149.976E-03    -171.053E-03     336.088E-03    -164.851E-03     136.652E-03
            1590     9.92173E-03     60.6618E-03    -44.7678E+06     32.1042E+06     55.8603E+06     657.801E+03    -167.277E-03     332.461E-03    -165.185E-03     153.714E-03    -171.523E-03     336.501E-03    -164.887E-03     140.564E-03
            1591     9.15774E-03     60.4751E-03    -52.5067E+06    -11.5025E+06     42.6440E+06     870.829E+03    -167.617E-03     332.848E-03    -165.231E-03     153.257E-03    -171.560E-03     336.440E-03    -164.925E-03     140.579E-03
            1592     8.39433E-03     60.2941E-03    -60.3273E+06    -53.9185E+06     27.9842E+06     647.704E+03    -167.826E-03     333.094E-03    -165.268E-03     149.039E-03    -171.321E-03     336.102E-03    -164.962E-03     137.106E-03
            1593     7.63121E-03     60.1161E-03    -68.4072E+06    -90.4841E+06     13.4822E+06     430.066E+03    -167.858E-03     333.152E-03    -165.294E-03     141.708E-03    -170.833E-03     335.524E-03    -164.996E-03     130.740E-03
            1594     6.86774E-03     59.9508E-03    -76.7650E+06    -126.057E+06    -1.48305E+06     379.669E+03    -167.652E-03     332.969E-03    -165.316E-03     132.288E-03    -170.093E-03     334.694E-03    -165.030E-03     122.437E-03
            1595     6.10431E-03     59.7962E-03    -85.0269E+06    -157.882E+06    -16.4667E+06     361.337E+03    -167.435E-03     332.769E-03    -165.334E-03     121.361E-03    -169.372E-03     333.891E-03    -165.064E-03     112.697E-03
            1596     5.34117E-03     59.6556E-03    -93.7901E+06    -187.574E+06    -32.0513E+06     135.646E+03    -167.148E-03     332.488E-03    -165.340E-03     109.021E-03    -168.633E-03     333.067E-03    -165.092E-03     101.562E-03
            1597     4.57841E-03     59.5305E-03    -102.851E+06    -217.056E+06    -48.3994E+06     278.960E+03    -166.728E-03     332.069E-03    -165.341E-03     95.6568E-03    -167.822E-03     332.168E-03    -165.119E-03     89.3953E-03
            1598     3.81467E-03     59.4218E-03    -111.761E+06    -243.608E+06    -66.6975E+06     346.942E+03    -166.323E-03     331.654E-03    -165.332E-03     81.3970E-03    -167.091E-03     331.354E-03    -165.150E-03     76.2912E-03
            1599     3.05191E-03     59.3312E-03    -120.359E+06    -265.936E+06    -87.0599E+06     257.271E+03    -165.961E-03     331.267E-03    -165.305E-03     66.2570E-03    -166.468E-03     330.655E-03    -165.181E-03     62.2516E-03
            1600     2.28883E-03     59.2592E-03    -128.000E+06    -288.998E+06    -106.517E+06     265.918E+03    -165.653E-03     330.934E-03    -165.281E-03     50.4918E-03    -165.954E-03     330.064E-03    -165.209E-03     47.5331E-03
            1601     1.52563E-03     59.2067E-03    -134.312E+06    -308.741E+06    -123.046E+06     5.31207E+03    -165.444E-03     330.702E-03    -165.258E-03     34.4508E-03    -165.598E-03     329.640E-03    -165.231E-03     32.4819E-03
            1602     762.987E-06     59.1739E-03    -138.663E+06    -318.521E+06    -135.780E+06     56.3013E+03    -165.290E-03     330.522E-03    -165.232E-03     18.7473E-03    -165.359E-03     329.362E-03    -165.248E-03     17.6913E-03
            1603     14.5036E-03     60.2383E-03    -5.28319E+06     98.3070E+06     96.8863E+06    -81.7028E+03    -164.282E-03     329.361E-03    -165.079E-03     68.2905E-03    -166.295E-03     331.424E-03    -164.729E-03     58.8983E-03
            1604     13.7385E-03     60.1314E-03    -10.3958E+06     95.0760E+06     98.2859E+06    -224.285E+03    -164.156E-03     329.264E-03    -165.108E-03     100.872E-03    -167.163E-03     332.287E-03    -164.740E-03     89.0905E-03
            1605     12.9767E-03     60.0063E-03    -17.1107E+06     86.5742E+06     92.9748E+06    -254.462E+03    -164.830E-03     329.955E-03    -165.125E-03     114.453E-03    -168.224E-03     333.325E-03    -164.761E-03     102.205E-03
            1606     12.2123E-03     59.8640E-03    -24.1211E+06     80.5324E+06     82.5093E+06    -68.4018E+03    -165.433E-03     330.548E-03    -165.115E-03     130.804E-03    -169.337E-03     334.413E-03    -164.784E-03     117.905E-03
            1607     11.4484E-03     59.6998E-03    -30.7196E+06     74.7151E+06     71.4966E+06     686.698E+03    -166.074E-03     331.182E-03    -165.108E-03     141.797E-03    -170.267E-03     335.324E-03    -164.814E-03     128.606E-03
            1608     10.6854E-03     59.5268E-03    -37.6105E+06     61.3786E+06     64.1064E+06     739.136E+03    -166.741E-03     331.875E-03    -165.134E-03     149.880E-03    -171.073E-03     336.106E-03    -164.848E-03     136.568E-03
            1609     9.92120E-03     59.3422E-03    -45.1610E+06     31.5974E+06     55.5084E+06     350.620E+03    -167.174E-03     332.359E-03    -165.184E-03     153.711E-03    -171.419E-03     336.394E-03    -164.887E-03     140.570E-03
            1610     9.15799E-03     59.1586E-03    -52.7476E+06    -11.5999E+06     42.4958E+06     286.841E+03    -167.700E-03     332.931E-03    -165.231E-03     153.161E-03    -171.643E-03     336.522E-03    -164.925E-03     140.468E-03
            1611     8.39455E-03     58.9742E-03    -60.4475E+06    -53.7488E+06     28.0437E+06     396.628E+03    -167.961E-03     333.218E-03    -165.257E-03     148.874E-03    -171.455E-03     336.226E-03    -164.951E-03     136.926E-03
            1612     7.63127E-03     58.7990E-03    -68.4985E+06    -90.2645E+06     13.5339E+06     518.856E+03    -167.780E-03     333.059E-03    -165.278E-03     141.639E-03    -170.754E-03     335.430E-03    -164.981E-03     130.682E-03
            1613     6.86759E-03     58.6323E-03    -76.6963E+06    -126.011E+06    -1.61008E+06     258.706E+03    -167.672E-03     332.972E-03    -165.301E-03     132.230E-03    -170.111E-03     334.697E-03    -165.015E-03     122.380E-03
            1614     6.10466E-03     58.4781E-03    -85.2372E+06    -158.181E+06    -16.5593E+06     133.121E+03    -167.498E-03     332.809E-03    -165.311E-03     121.196E-03    -169.433E-03     333.928E-03    -165.041E-03     112.526E-03
            1615     5.34143E-03     58.3374E-03    -93.9641E+06    -187.419E+06    -31.9239E+06     405.642E+03    -167.097E-03     332.410E-03    -165.313E-03     108.913E-03    -168.581E-03     332.988E-03    -165.065E-03     101.463E-03
            1616     4.57788E-03     58.2125E-03    -102.929E+06    -217.226E+06    -48.6217E+06     184.627E+03    -166.712E-03     332.024E-03    -165.312E-03     95.5899E-03    -167.805E-03     332.122E-03    -165.091E-03     89.3293E-03
            1617     3.81528E-03     58.1039E-03    -111.918E+06    -243.640E+06    -66.7485E+06     150.001E+03    -166.319E-03     331.618E-03    -165.299E-03     81.2966E-03    -167.087E-03     331.318E-03    -165.117E-03     76.1874E-03
            1618     3.05192E-03     58.0131E-03    -120.659E+06    -265.924E+06    -87.4584E+06     256.160E+03    -165.974E-03     331.235E-03    -165.260E-03     66.2472E-03    -166.482E-03     330.624E-03    -165.137E-03     62.2411E-03
            1619     2.28898E-03     57.9412E-03    -128.325E+06    -288.698E+06    -106.926E+06     148.728E+03    -165.730E-03     330.933E-03    -165.203E-03     50.4328E-03    -166.033E-03     330.065E-03    -165.133E-03     47.4729E-03
            1620     1.52625E-03     57.8888E-03    -134.715E+06    -308.453E+06    -123.744E+06     29.6635E+03    -165.445E-03     330.561E-03    -165.116E-03     34.3395E-03    -165.600E-03     329.501E-03    -165.092E-03     32.3751E-03
            1621     763.094E-06     57.8559E-03    -139.220E+06    -318.906E+06    -136.122E+06    -12.6643E+03    -165.348E-03     330.171E-03    -164.823E-03     18.6466E-03    -165.419E-03     329.010E-03    -164.839E-03     17.5939E-03
            1622     14.5012E-03     58.9220E-03    -4.88226E+06     98.4854E+06     97.2514E+06    -206.574E+03    -163.869E-03     328.964E-03    -165.094E-03     66.7312E-03    -165.865E-03     331.010E-03    -164.744E-03     57.3608E-03
            1623     13.7401E-03     58.8089E-03    -10.8106E+06     94.4916E+06     97.8148E+06    -252.192E+03    -164.269E-03     329.398E-03    -165.129E-03     100.606E-03    -167.274E-03     332.417E-03    -164.761E-03     88.8102E-03
            1624     12.9752E-03     58.6914E-03    -17.3296E+06     86.2283E+06     92.3995E+06     150.970E+03    -164.843E-03     329.985E-03    -165.142E-03     114.698E-03    -168.240E-03     333.359E-03    -164.780E-03     102.446E-03
            1625     12.2118E-03     58.5429E-03    -23.7119E+06     79.7497E+06     81.9374E+06     260.302E+03    -165.570E-03     330.698E-03    -165.128E-03     130.591E-03    -169.471E-03     334.561E-03    -164.800E-03     117.678E-03
            1626     11.4490E-03     58.3834E-03    -30.2619E+06     73.9851E+06     71.2169E+06     313.393E+03    -166.226E-03     331.340E-03    -165.114E-03     141.771E-03    -170.417E-03     335.480E-03    -164.821E-03     128.557E-03
            1627     10.6848E-03     58.2069E-03    -36.9730E+06     61.5786E+06     64.3309E+06     559.075E+03    -166.730E-03     331.867E-03    -165.136E-03     149.903E-03    -171.062E-03     336.099E-03    -164.850E-03     136.588E-03
            1628     9.92177E-03     58.0259E-03    -44.1571E+06     31.9649E+06     55.9731E+06     550.743E+03    -167.332E-03     332.514E-03    -165.181E-03     153.679E-03    -171.575E-03     336.551E-03    -164.884E-03     140.524E-03
            1629     9.15773E-03     57.8388E-03    -52.1411E+06    -11.5441E+06     42.7911E+06     347.674E+03    -167.781E-03     332.998E-03    -165.218E-03     153.127E-03    -171.720E-03     336.588E-03    -164.911E-03     140.431E-03
            1630     8.39489E-03     57.6566E-03    -60.4081E+06    -54.0185E+06     27.8636E+06     407.806E+03    -167.867E-03     333.109E-03    -165.242E-03     148.740E-03    -171.357E-03     336.112E-03    -164.937E-03     136.804E-03
            1631     7.63112E-03     57.4808E-03    -68.4853E+06    -90.5030E+06     13.3862E+06     221.881E+03    -167.883E-03     333.143E-03    -165.260E-03     141.533E-03    -170.856E-03     335.513E-03    -164.963E-03     130.565E-03
            1632     6.86820E-03     57.3142E-03    -76.6924E+06    -125.698E+06    -1.28022E+06     340.401E+03    -167.762E-03     333.032E-03    -165.271E-03     132.117E-03    -170.201E-03     334.757E-03    -164.984E-03     122.265E-03
            1633     6.10473E-03     57.1599E-03    -85.3450E+06    -157.987E+06    -16.5149E+06     432.654E+03    -167.441E-03     332.715E-03    -165.273E-03     121.067E-03    -169.375E-03     333.833E-03    -165.003E-03     112.410E-03
            1634     5.34153E-03     57.0196E-03    -94.1106E+06    -187.698E+06    -32.1845E+06     129.483E+03    -167.071E-03     332.344E-03    -165.273E-03     108.756E-03    -168.554E-03     332.920E-03    -165.026E-03     101.305E-03
            1635     4.57862E-03     56.8945E-03    -102.917E+06    -216.907E+06    -48.6205E+06     184.708E+03    -166.669E-03     331.940E-03    -165.271E-03     95.4873E-03    -167.762E-03     332.038E-03    -165.050E-03     89.2281E-03
            1636     3.81507E-03     56.7857E-03    -112.115E+06    -243.961E+06    -67.0034E+06     115.208E+03    -166.309E-03     331.563E-03    -165.253E-03     81.2487E-03    -167.078E-03     331.261E-03    -165.072E-03     76.1420E-03
            1637     3.05214E-03     56.6955E-03    -120.644E+06    -266.079E+06    -87.1668E+06     166.242E+03    -165.937E-03     331.148E-03    -165.211E-03     66.2103E-03    -166.445E-03     330.536E-03    -165.086E-03     62.2072E-03
            1638     2.28916E-03     56.6227E-03    -128.130E+06    -288.342E+06    -106.458E+06     209.331E+03    -165.605E-03     330.772E-03    -165.167E-03     50.6206E-03    -165.908E-03     329.905E-03    -165.095E-03     47.6682E-03
            1639     1.52618E-03     56.5713E-03    -134.668E+06    -308.312E+06    -123.599E+06     242.212E+03    -165.353E-03     330.473E-03    -165.120E-03     34.6203E-03    -165.509E-03     329.414E-03    -165.095E-03     32.6575E-03
            1640     763.181E-06     56.5386E-03    -138.758E+06    -318.732E+06    -136.465E+06     102.573E+03    -165.265E-03     330.232E-03    -164.967E-03     19.1363E-03    -165.334E-03     329.073E-03    -164.986E-03     18.0813E-03
            1641     14.5049E-03     57.6030E-03    -4.89002E+06     98.3072E+06     97.3013E+06    -3.50490E+03    -163.769E-03     328.875E-03    -165.105E-03     67.6330E-03    -165.770E-03     330.925E-03    -164.754E-03     58.2776E-03
            1642     13.7378E-03     57.4930E-03    -10.9608E+06     94.2177E+06     97.8033E+06     470.282E+03    -164.348E-03     329.491E-03    -165.143E-03     100.871E-03    -167.348E-03     332.502E-03    -164.775E-03     89.1078E-03
            1643     12.9754E-03     57.3703E-03    -17.2967E+06     86.1984E+06     92.4781E+06     41.2673E+03    -164.961E-03     330.110E-03    -165.150E-03     113.867E-03    -168.346E-03     333.472E-03    -164.787E-03     101.613E-03
            1644     12.2125E-03     57.2262E-03    -23.6944E+06     79.6830E+06     81.7512E+06    -276.444E+03    -165.542E-03     330.672E-03    -165.130E-03     130.352E-03    -169.441E-03     334.533E-03    -164.803E-03     117.430E-03
            1645     11.4481E-03     57.0634E-03    -29.9703E+06     73.0963E+06     70.8144E+06    -45.5873E+03    -166.174E-03     331.292E-03    -165.118E-03     141.626E-03    -170.363E-03     335.428E-03    -164.826E-03     128.403E-03
            1646     10.6853E-03     56.8901E-03    -36.8907E+06     60.9455E+06     64.0643E+06     299.825E+03    -166.873E-03     332.010E-03    -165.137E-03     149.754E-03    -171.203E-03     336.240E-03    -164.851E-03     136.417E-03
            1647     9.92111E-03     56.7061E-03    -44.5483E+06     32.1254E+06     55.9034E+06     568.734E+03    -167.496E-03     332.666E-03    -165.170E-03     153.609E-03    -171.741E-03     336.705E-03    -164.872E-03     140.439E-03
            1648     9.15879E-03     56.5211E-03    -52.4700E+06    -11.4564E+06     42.6169E+06     638.615E+03    -167.749E-03     332.947E-03    -165.198E-03     152.934E-03    -171.685E-03     336.533E-03    -164.892E-03     140.250E-03
            1649     8.39443E-03     56.3387E-03     -60.341E+06    -53.9523E+06     27.9811E+06     298.404E+03    -167.882E-03     333.103E-03    -165.222E-03     148.611E-03    -171.369E-03     336.104E-03    -164.916E-03     136.678E-03
            1650     7.63163E-03     56.1620E-03    -68.4102E+06    -90.2785E+06     13.5938E+06     291.729E+03    -167.949E-03     333.182E-03    -165.233E-03     141.422E-03    -170.921E-03     335.551E-03    -164.935E-03     130.452E-03
            1651     6.86826E-03     55.9963E-03    -76.8906E+06    -126.054E+06    -1.49919E+06     291.948E+03    -167.757E-03     332.992E-03    -165.235E-03     132.069E-03    -170.195E-03     334.714E-03    -164.948E-03     122.217E-03
            1652     6.10512E-03     55.8419E-03    -85.1824E+06    -157.792E+06    -16.3125E+06     380.250E+03    -167.433E-03     332.667E-03    -165.235E-03     121.054E-03    -169.367E-03     333.786E-03    -164.964E-03     112.398E-03
            1653     5.34190E-03     55.7016E-03    -93.8482E+06    -187.271E+06    -32.0112E+06     363.455E+03    -167.056E-03     332.286E-03    -165.230E-03     108.739E-03    -168.538E-03     332.863E-03    -164.982E-03     101.296E-03
            1654     4.57846E-03     55.5766E-03    -103.026E+06    -217.251E+06    -48.8564E+06     141.141E+03    -166.662E-03     331.884E-03    -165.222E-03     95.4650E-03    -167.754E-03     331.981E-03    -165.002E-03     89.2089E-03
            1655     3.81548E-03     55.4683E-03    -111.759E+06    -243.792E+06    -67.0756E+06     62.2959E+03    -166.244E-03     331.446E-03    -165.201E-03     81.2348E-03    -167.010E-03     331.144E-03    -165.021E-03     76.1324E-03
            1656     3.05244E-03     55.3770E-03    -120.222E+06    -266.163E+06    -87.1717E+06    -211.869E+03    -165.808E-03     330.982E-03    -165.173E-03     66.2253E-03    -166.313E-03     330.368E-03    -165.049E-03     62.2218E-03
            1657     2.28904E-03     55.3062E-03    -128.315E+06    -288.830E+06    -106.336E+06     130.357E+03    -165.430E-03     330.603E-03    -165.173E-03     50.6590E-03    -165.734E-03     329.734E-03    -165.100E-03     47.7070E-03
            1658     1.52565E-03     55.2526E-03    -134.839E+06    -308.237E+06    -123.456E+06     474.399E+03    -165.247E-03     330.448E-03    -165.201E-03     34.4388E-03    -165.403E-03     329.390E-03    -165.176E-03     32.4794E-03
            1659     762.687E-06     55.2217E-03    -139.015E+06    -317.793E+06    -135.533E+06     340.013E+03    -165.179E-03     330.481E-03    -165.303E-03     19.0444E-03    -165.251E-03     329.325E-03    -165.318E-03     17.9863E-03
            1660     14.4992E-03     56.2858E-03    -5.26363E+06     97.8229E+06     96.7533E+06     85.4320E+03    -164.049E-03     329.160E-03    -165.111E-03     67.0226E-03    -166.050E-03     331.209E-03    -164.761E-03     57.6343E-03
            1661     13.7398E-03     56.1716E-03    -10.6132E+06     94.5046E+06     98.0252E+06     164.258E+03    -164.569E-03     329.703E-03    -165.134E-03     100.094E-03    -167.564E-03     332.712E-03    -164.766E-03     88.2971E-03
            1662     12.9762E-03     56.0536E-03    -16.6211E+06     86.7437E+06     93.1290E+06     30.1485E+03    -164.788E-03     329.927E-03    -165.139E-03     113.603E-03    -168.168E-03     333.286E-03    -164.776E-03     101.362E-03
            1663     12.2117E-03     55.9068E-03    -23.4051E+06     79.8796E+06     82.0600E+06    -52.5276E+03    -165.412E-03     330.540E-03    -165.128E-03     130.465E-03    -169.309E-03     334.399E-03    -164.800E-03     117.560E-03
            1664     11.4490E-03     55.7459E-03    -30.5937E+06     72.4049E+06     70.3304E+06    -245.621E+03    -166.267E-03     331.382E-03    -165.115E-03     141.521E-03    -170.455E-03     335.514E-03    -164.824E-03     128.287E-03
            1665     10.6847E-03     55.5709E-03    -37.7103E+06     60.1665E+06     63.6504E+06     133.066E+03    -167.042E-03     332.166E-03    -165.124E-03     149.620E-03    -171.373E-03     336.392E-03    -164.839E-03     136.267E-03
            1666     9.92243E-03     55.3878E-03    -45.0758E+06     31.9662E+06     55.7014E+06     453.379E+03    -167.448E-03     332.598E-03    -165.150E-03     153.350E-03    -171.689E-03     336.631E-03    -164.853E-03     140.189E-03
            1667     9.15778E-03     55.2030E-03    -52.6296E+06    -11.2723E+06     42.6378E+06     265.814E+03    -167.756E-03     332.934E-03    -165.177E-03     152.813E-03    -171.692E-03     336.519E-03    -164.872E-03     140.125E-03
            1668     8.39548E-03     55.0201E-03    -60.5298E+06    -53.9757E+06     27.9103E+06     256.810E+03    -167.985E-03     333.178E-03    -165.193E-03     148.581E-03    -171.473E-03     336.179E-03    -164.887E-03     136.640E-03
            1669     7.63175E-03     54.8444E-03    -68.6859E+06    -90.4755E+06     13.4756E+06     300.007E+03    -167.896E-03     333.095E-03    -165.199E-03     141.364E-03    -170.867E-03     335.461E-03    -164.901E-03     130.404E-03
            1670     6.86847E-03     54.6779E-03    -76.7438E+06    -125.751E+06    -1.45865E+06     239.348E+03    -167.720E-03     332.921E-03    -165.201E-03     131.962E-03    -170.157E-03     334.643E-03    -164.915E-03     122.114E-03
            1671     6.10526E-03     54.5240E-03    -85.2356E+06    -158.216E+06    -16.4914E+06     156.038E+03    -167.406E-03     332.605E-03    -165.200E-03     120.954E-03    -169.338E-03     333.721E-03    -164.929E-03     112.298E-03
            1672     5.34195E-03     54.3838E-03    -93.8891E+06    -187.145E+06    -31.8023E+06     381.702E+03    -167.022E-03     332.217E-03    -165.195E-03     108.766E-03    -168.504E-03     332.794E-03    -164.947E-03     101.327E-03
            1673     4.57893E-03     54.2589E-03    -102.687E+06    -216.802E+06    -48.6638E+06     209.717E+03    -166.636E-03     331.821E-03    -165.185E-03     95.5022E-03    -167.727E-03     331.919E-03    -164.965E-03     89.2502E-03
            1674     3.81572E-03     54.1503E-03    -111.716E+06    -243.747E+06    -66.9809E+06    -61.3864E+03    -166.170E-03     331.340E-03    -165.169E-03     81.3316E-03    -166.937E-03     331.039E-03    -164.989E-03     76.2299E-03
            1675     3.05211E-03     54.0602E-03    -120.589E+06    -266.302E+06    -87.5384E+06     133.912E+03    -165.778E-03     330.923E-03    -165.145E-03     66.1754E-03    -166.284E-03     330.309E-03    -165.021E-03     62.1800E-03
            1676     2.28914E-03     53.9877E-03    -128.797E+06    -289.589E+06    -107.132E+06     170.510E+03    -165.476E-03     330.603E-03    -165.127E-03     50.3871E-03    -165.779E-03     329.731E-03    -165.056E-03     47.4326E-03
            1677     1.52620E-03     53.9360E-03    -135.063E+06    -307.870E+06    -123.447E+06     298.486E+03    -165.279E-03     330.386E-03    -165.107E-03     34.2740E-03    -165.437E-03     329.330E-03    -165.082E-03     32.3189E-03
            1678     763.007E-06     53.9025E-03    -139.080E+06    -317.303E+06    -136.294E+06    -172.175E+03    -165.323E-03     330.220E-03    -164.898E-03     18.4451E-03    -165.394E-03     329.067E-03    -164.917E-03     17.3868E-03
            1679     14.5061E-03     54.9664E-03     -5.2735E+06     97.7085E+06     96.7065E+06    -166.227E+03    -164.234E-03     329.328E-03    -165.094E-03     67.2258E-03    -166.236E-03     331.378E-03    -164.745E-03     57.8419E-03
            1680     13.7391E-03     54.8536E-03    -10.9906E+06     93.9540E+06     97.5236E+06    -160.562E+03    -164.180E-03     329.303E-03    -165.123E-03     100.551E-03    -167.178E-03     332.313E-03    -164.756E-03     88.7816E-03
            1681     12.9753E-03     54.7351E-03    -16.8969E+06     86.3561E+06     92.8221E+06    -62.1852E+03    -164.728E-03     329.871E-03    -165.142E-03     114.019E-03    -168.110E-03     333.230E-03    -164.779E-03     101.789E-03
            1682     12.2126E-03     54.5887E-03    -23.4216E+06     79.7947E+06     82.2160E+06     362.482E+03    -165.644E-03     330.772E-03    -165.128E-03     130.498E-03    -169.541E-03     334.631E-03    -164.799E-03     117.582E-03
            1683     11.4481E-03     54.4274E-03    -30.2635E+06     72.6322E+06     70.6320E+06     598.717E+03    -166.428E-03     331.530E-03    -165.102E-03     141.490E-03    -170.613E-03     335.660E-03    -164.810E-03     128.261E-03
            1684     10.6860E-03     54.2518E-03    -37.5974E+06     59.8991E+06     63.5305E+06     228.109E+03    -167.028E-03     332.132E-03    -165.104E-03     149.503E-03    -171.354E-03     336.353E-03    -164.818E-03     136.159E-03
            1685     9.92149E-03     54.0700E-03    -44.9611E+06     31.8821E+06     55.7289E+06    -80.3588E+03    -167.454E-03     332.582E-03    -165.128E-03     153.209E-03    -171.691E-03     336.611E-03    -164.831E-03     140.044E-03
            1686     9.15917E-03     53.8845E-03    -52.5280E+06    -11.4537E+06     42.6618E+06     27.4138E+03    -167.838E-03     332.987E-03    -165.149E-03     152.711E-03    -171.771E-03     336.569E-03    -164.843E-03     140.016E-03
            1687     8.39500E-03     53.7019E-03    -60.3572E+06    -54.1707E+06     27.8911E+06     215.409E+03    -167.946E-03     333.105E-03    -165.159E-03     148.367E-03    -171.430E-03     336.101E-03    -164.853E-03     136.432E-03
            1688     7.63209E-03     53.5262E-03    -68.3615E+06    -90.6135E+06     13.3855E+06     101.040E+03    -167.894E-03     333.056E-03    -165.161E-03     141.248E-03    -170.862E-03     335.420E-03    -164.864E-03     130.286E-03
            1689     6.86885E-03     53.3599E-03    -76.6158E+06    -125.992E+06    -1.39856E+06     158.183E+03    -167.667E-03     332.830E-03    -165.163E-03     131.838E-03    -170.100E-03     334.548E-03    -164.876E-03     121.998E-03
            1690     6.10549E-03     53.2062E-03    -84.9221E+06    -158.019E+06    -16.3603E+06     310.026E+03    -167.307E-03     332.473E-03    -165.166E-03     120.845E-03    -169.235E-03     333.585E-03    -164.895E-03     112.204E-03
            1691     5.34222E-03     53.0661E-03    -93.6401E+06    -187.475E+06    -31.7566E+06     110.139E+03    -166.979E-03     332.145E-03    -165.167E-03     108.827E-03    -168.459E-03     332.720E-03    -164.918E-03     101.387E-03
            1692     4.57882E-03     52.9409E-03    -102.653E+06    -216.498E+06    -48.2767E+06     267.920E+03    -166.608E-03     331.767E-03    -165.159E-03     95.4183E-03    -167.699E-03     331.865E-03    -164.937E-03     89.1704E-03
            1693     3.81540E-03     52.8331E-03    -111.907E+06    -243.758E+06    -66.8884E+06     323.311E+03    -166.203E-03     331.336E-03    -165.134E-03     81.0434E-03    -166.968E-03     331.033E-03    -164.952E-03     75.9507E-03
            1694     3.05267E-03     52.7420E-03    -120.681E+06    -266.665E+06    -87.0788E+06     383.794E+03    -165.808E-03     330.899E-03    -165.091E-03     65.9865E-03    -166.314E-03     330.282E-03    -164.965E-03     61.9940E-03
            1695     2.28944E-03     52.6708E-03    -128.185E+06    -289.102E+06    -106.749E+06     403.930E+03    -165.473E-03     330.519E-03    -165.046E-03     50.3587E-03    -165.773E-03     329.647E-03    -164.974E-03     47.4157E-03
            1696     1.52617E-03     52.6179E-03    -134.699E+06    -307.889E+06    -123.531E+06     56.7876E+03    -165.235E-03     330.234E-03    -164.999E-03     34.5927E-03    -165.391E-03     329.177E-03    -164.975E-03     32.6417E-03
            1697     763.479E-06     52.5855E-03    -139.386E+06    -317.033E+06    -136.270E+06     129.958E+03    -165.300E-03     329.981E-03    -164.681E-03     18.8990E-03    -165.374E-03     328.830E-03    -164.701E-03     17.8510E-03
            1698     14.4998E-03     53.6459E-03    -5.04003E+06     97.7692E+06     96.9556E+06    -135.255E+03    -163.937E-03     329.036E-03    -165.099E-03     67.4444E-03    -165.937E-03     331.085E-03    -164.749E-03     58.0774E-03
            1699     13.7392E-03     53.5371E-03    -10.9432E+06     93.8816E+06     97.6193E+06    -297.327E+03    -164.187E-03     329.322E-03    -165.136E-03     100.435E-03    -167.185E-03     332.332E-03    -164.768E-03     88.6553E-03
            1700     12.9755E-03     53.4154E-03    -17.3821E+06     85.7775E+06     92.3435E+06     12.8298E+03    -164.933E-03     330.080E-03    -165.148E-03     113.964E-03    -168.318E-03     333.441E-03    -164.785E-03     101.708E-03
            1701     12.2117E-03     53.2706E-03    -23.9799E+06     79.1527E+06     81.7380E+06     183.536E+03    -165.902E-03     331.021E-03    -165.118E-03     130.287E-03    -169.799E-03     334.876E-03    -164.790E-03     117.347E-03
            1702     11.4496E-03     53.1079E-03    -30.4255E+06     72.3965E+06     70.6854E+06     453.699E+03    -166.484E-03     331.566E-03    -165.082E-03     141.306E-03    -170.664E-03     335.690E-03    -164.789E-03     128.081E-03
            1703     10.6851E-03     52.9341E-03    -36.8466E+06     60.7080E+06     64.1849E+06     284.153E+03    -166.969E-03     332.051E-03    -165.082E-03     149.342E-03    -171.288E-03     336.268E-03    -164.796E-03     136.010E-03
            1704     9.92264E-03     52.7511E-03    -44.2624E+06     31.8642E+06     56.0081E+06    -131.602E+03    -167.560E-03     332.661E-03    -165.101E-03     153.062E-03    -171.794E-03     336.689E-03    -164.803E-03     139.885E-03
            1705     9.15862E-03     52.5662E-03    -52.2099E+06    -11.9527E+06     42.6994E+06     32.7982E+03    -167.844E-03     332.958E-03    -165.114E-03     152.467E-03    -171.771E-03     336.533E-03    -164.808E-03     139.775E-03
            1706     8.39605E-03     52.3839E-03    -60.1773E+06    -54.0671E+06     28.0392E+06     146.899E+03    -167.906E-03     333.028E-03    -165.121E-03     148.310E-03    -171.386E-03     336.021E-03    -164.816E-03     136.383E-03
            1707     7.63237E-03     52.2082E-03    -68.3414E+06    -90.5961E+06     13.3872E+06     116.648E+03    -167.866E-03     332.989E-03    -165.123E-03     141.182E-03    -170.831E-03     335.350E-03    -164.826E-03     130.227E-03
            1708     6.86906E-03     52.0421E-03    -76.5567E+06    -126.212E+06    -1.46889E+06     128.816E+03    -167.582E-03     332.708E-03    -165.126E-03     131.697E-03    -170.010E-03     334.421E-03    -164.840E-03     121.871E-03
            1709     6.10567E-03     51.8887E-03    -85.0119E+06    -158.222E+06    -16.4792E+06     87.5432E+03    -167.294E-03     332.423E-03    -165.129E-03     120.837E-03    -169.220E-03     333.534E-03    -164.859E-03     112.199E-03
            1710     5.34223E-03     51.7483E-03    -93.7689E+06    -187.661E+06    -31.9163E+06     116.266E+03    -167.004E-03     332.127E-03    -165.123E-03     108.578E-03    -168.482E-03     332.698E-03    -164.875E-03     101.143E-03
            1711     4.57906E-03     51.6235E-03    -102.767E+06    -216.973E+06    -48.3259E+06     249.774E+03    -166.595E-03     331.701E-03    -165.105E-03     95.0871E-03    -167.682E-03     331.793E-03    -164.883E-03     88.8489E-03
            1712     3.81627E-03     51.5151E-03    -111.706E+06    -243.763E+06    -66.6840E+06     455.101E+03    -166.182E-03     331.253E-03    -165.071E-03     80.9232E-03    -166.946E-03     330.948E-03    -164.889E-03     75.8373E-03
            1713     3.05265E-03     51.4250E-03    -120.310E+06    -266.587E+06    -87.0339E+06     435.413E+03    -165.745E-03     330.766E-03    -165.021E-03     65.9450E-03    -166.248E-03     330.149E-03    -164.895E-03     61.9600E-03
            1714     2.28943E-03     51.3530E-03    -128.175E+06    -288.714E+06    -106.190E+06     371.994E+03    -165.390E-03     330.371E-03    -164.980E-03     50.3727E-03    -165.692E-03     329.500E-03    -164.907E-03     47.4349E-03
            1715     1.52642E-03     51.3010E-03    -134.709E+06    -307.497E+06    -123.189E+06     299.460E+03    -165.074E-03     330.039E-03    -164.965E-03     34.4271E-03    -165.231E-03     328.984E-03    -164.940E-03     32.4734E-03
            1716     762.595E-06     51.2681E-03    -139.251E+06    -316.883E+06    -135.967E+06    -19.9362E+03    -164.940E-03     329.973E-03    -165.033E-03     19.0681E-03    -165.014E-03     328.822E-03    -165.051E-03     18.0246E-03
            1717     14.5051E-03     52.3301E-03    -5.05377E+06     97.6378E+06     96.9263E+06        -314.969    -163.925E-03     329.038E-03    -165.113E-03     67.1375E-03    -165.925E-03     331.085E-03    -164.763E-03     57.7680E-03
            1718     13.7387E-03     52.2163E-03    -10.8603E+06     93.8717E+06     97.7526E+06     157.789E+03    -164.482E-03     329.624E-03    -165.142E-03     100.374E-03    -167.480E-03     332.633E-03    -164.774E-03     88.5760E-03
            1719     12.9756E-03     52.0988E-03    -17.4842E+06     85.5840E+06     92.3598E+06     149.092E+03    -165.255E-03     330.391E-03    -165.136E-03     113.880E-03    -168.638E-03     333.748E-03    -164.773E-03     101.608E-03
            1720     12.2129E-03     51.9498E-03    -23.9542E+06     79.0744E+06     81.7714E+06     132.956E+03    -165.922E-03     331.017E-03    -165.095E-03     130.044E-03    -169.812E-03     334.866E-03    -164.766E-03     117.109E-03
            1721     11.4488E-03     51.7905E-03    -30.2784E+06     72.4355E+06     70.6784E+06    -359.287E+03    -166.465E-03     331.519E-03    -165.054E-03     140.913E-03    -170.637E-03     335.637E-03    -164.762E-03     127.680E-03
            1722     10.6863E-03     51.6150E-03    -36.9592E+06     60.4062E+06     63.9396E+06    -405.890E+03    -167.054E-03     332.103E-03    -165.049E-03     149.159E-03    -171.370E-03     336.316E-03    -164.763E-03     135.812E-03
            1723     9.92235E-03     51.4329E-03    -44.2829E+06     31.5714E+06     55.8492E+06     198.813E+03    -167.483E-03     332.548E-03    -165.064E-03     152.863E-03    -171.708E-03     336.565E-03    -164.767E-03     139.710E-03
            1724     9.15978E-03     51.2478E-03    -52.3047E+06    -12.0531E+06     42.5509E+06     210.480E+03    -167.745E-03     332.826E-03    -165.081E-03     152.379E-03    -171.665E-03     336.394E-03    -164.775E-03     139.710E-03
            1725     8.39564E-03     51.0662E-03    -60.4006E+06    -54.3734E+06     27.8430E+06     41.2281E+03    -167.936E-03     333.025E-03    -165.089E-03     148.372E-03    -171.414E-03     336.015E-03    -164.783E-03     136.448E-03
            1726     7.63269E-03     50.8897E-03    -68.3282E+06    -90.5181E+06     13.5567E+06     138.539E+03    -167.824E-03     332.913E-03    -165.089E-03     141.047E-03    -170.784E-03     335.270E-03    -164.791E-03     130.106E-03
            1727     6.86931E-03     50.7249E-03    -76.6706E+06    -126.088E+06    -1.41715E+06     178.832E+03    -167.590E-03     332.679E-03    -165.088E-03     131.534E-03    -170.016E-03     334.388E-03    -164.802E-03     121.716E-03
            1728     6.10583E-03     50.5708E-03    -85.3216E+06    -158.517E+06    -16.6659E+06     72.4741E+03    -167.398E-03     332.476E-03    -165.078E-03     120.656E-03    -169.323E-03     333.584E-03    -164.807E-03     112.017E-03
            1729     5.34290E-03     50.4306E-03    -94.0385E+06    -187.769E+06    -32.1016E+06     126.370E+03    -166.977E-03     332.033E-03    -165.057E-03     108.341E-03    -168.452E-03     332.601E-03    -164.809E-03     100.917E-03
            1730     4.57969E-03     50.3060E-03    -102.868E+06    -217.076E+06    -48.4992E+06     130.750E+03    -166.496E-03     331.534E-03    -165.038E-03     95.1754E-03    -167.583E-03     331.626E-03    -164.817E-03     88.9430E-03
            1731     3.81584E-03     50.1979E-03    -111.848E+06    -244.052E+06    -66.7501E+06     90.4487E+03    -166.113E-03     331.121E-03    -165.008E-03     80.9484E-03    -166.876E-03     330.815E-03    -164.826E-03     75.8610E-03
            1732     3.05303E-03     50.1074E-03    -120.406E+06    -266.714E+06    -86.8994E+06     367.210E+03    -165.715E-03     330.670E-03    -164.955E-03     65.7761E-03    -166.218E-03     330.050E-03    -164.828E-03     61.7967E-03
            1733     2.28975E-03     50.0363E-03    -127.960E+06    -288.361E+06    -105.782E+06     364.639E+03    -165.376E-03     330.272E-03    -164.896E-03     50.2447E-03    -165.678E-03     329.402E-03    -164.821E-03     47.3050E-03
            1734     1.52635E-03     49.9833E-03    -134.543E+06    -306.902E+06    -122.587E+06    -37.4127E+03    -165.093E-03     329.920E-03    -164.827E-03     34.0061E-03    -165.250E-03     328.866E-03    -164.800E-03     32.0486E-03
            1735     763.536E-06     49.9520E-03    -138.950E+06    -317.064E+06    -136.173E+06     279.123E+03    -164.842E-03     329.605E-03    -164.763E-03     18.8205E-03    -164.914E-03     328.453E-03    -164.783E-03     17.7838E-03
            1736     14.4997E-03     51.0094E-03    -5.45222E+06     97.1395E+06     96.3475E+06     105.911E+03    -164.115E-03     329.234E-03    -165.120E-03     67.7346E-03    -166.121E-03     331.287E-03    -164.771E-03     58.3376E-03
            1737     13.7390E-03     50.8994E-03    -11.2629E+06     93.4240E+06     97.3261E+06     225.107E+03    -164.990E-03     330.120E-03    -165.130E-03     100.182E-03    -167.988E-03     333.128E-03    -164.763E-03     88.3467E-03
            1738     12.9760E-03     50.7771E-03    -17.0724E+06     85.9019E+06     92.8656E+06     186.370E+03    -165.335E-03     330.443E-03    -165.108E-03     113.250E-03    -168.710E-03     333.793E-03    -164.743E-03     100.976E-03
            1739     12.2128E-03     50.6331E-03    -23.3627E+06     79.5276E+06     82.3514E+06    -283.705E+03    -165.792E-03     330.857E-03    -165.065E-03     129.893E-03    -169.675E-03     334.701E-03    -164.735E-03     116.968E-03
            1740     11.4500E-03     50.4705E-03    -29.9676E+06     72.6126E+06     70.8305E+06    -398.395E+03    -166.481E-03     331.506E-03    -165.025E-03     140.939E-03    -170.652E-03     335.622E-03    -164.732E-03     127.704E-03
            1741     10.6863E-03     50.2973E-03    -37.3737E+06     59.6571E+06     63.5891E+06    -108.589E+03    -167.070E-03     332.085E-03    -165.016E-03     149.172E-03    -171.382E-03     336.292E-03    -164.730E-03     135.838E-03
            1742     9.92344E-03     50.1140E-03    -45.1207E+06     31.0004E+06     55.3971E+06    -48.1211E+03    -167.389E-03     332.422E-03    -165.033E-03     152.869E-03    -171.610E-03     336.432E-03    -164.735E-03     139.737E-03
            1743     9.15905E-03     49.9305E-03    -52.6865E+06    -12.0702E+06     42.3569E+06     6.97380E+03    -167.759E-03     332.809E-03    -165.050E-03     152.321E-03    -171.676E-03     336.373E-03    -164.744E-03     139.660E-03
            1744     8.39647E-03     49.7473E-03    -60.4542E+06    -54.5750E+06     27.7034E+06    -81.0291E+03    -167.943E-03     332.996E-03    -165.053E-03     148.104E-03    -171.415E-03     335.979E-03    -164.748E-03     136.188E-03
            1745     7.63295E-03     49.5726E-03    -68.6527E+06    -90.8343E+06     13.3413E+06     44.7033E+03    -167.817E-03     332.865E-03    -165.047E-03     140.693E-03    -170.771E-03     335.214E-03    -164.749E-03     129.763E-03
            1746     6.86943E-03     49.4068E-03    -76.9804E+06    -126.323E+06    -1.57027E+06     138.122E+03    -167.713E-03     332.746E-03    -165.034E-03     131.353E-03    -170.136E-03     334.452E-03    -164.747E-03     121.534E-03
            1747     6.10663E-03     49.2530E-03    -85.3281E+06    -158.404E+06    -16.5705E+06     116.740E+03    -167.373E-03     332.382E-03    -165.009E-03     120.406E-03    -169.295E-03     333.486E-03    -164.738E-03     111.774E-03
            1748     5.34310E-03     49.1131E-03    -93.9152E+06    -187.637E+06    -31.8693E+06     131.684E+03    -166.859E-03     331.846E-03    -164.987E-03     108.207E-03    -168.331E-03     332.411E-03    -164.738E-03     100.795E-03
            1749     4.57941E-03     48.9890E-03    -103.067E+06    -217.149E+06    -48.5304E+06     35.8971E+03    -166.486E-03     331.450E-03    -164.965E-03     94.9709E-03    -167.572E-03     331.541E-03    -164.743E-03     88.7398E-03
            1750     3.81673E-03     48.8801E-03    -112.229E+06    -244.157E+06    -66.6974E+06     120.169E+03    -166.022E-03     330.950E-03    -164.929E-03     80.6006E-03    -166.785E-03     330.641E-03    -164.745E-03     75.5230E-03
            1751     3.05308E-03     48.7907E-03    -121.277E+06    -267.400E+06    -87.1396E+06     211.578E+03    -165.613E-03     330.490E-03    -164.876E-03     65.7219E-03    -166.118E-03     329.867E-03    -164.749E-03     61.7438E-03
            1752     2.28989E-03     48.7186E-03    -129.286E+06    -287.649E+06    -107.930E+06     293.858E+03    -165.333E-03     330.134E-03    -164.801E-03     50.2582E-03    -165.639E-03     329.273E-03    -164.736E-03     47.3192E-03
            1753     1.52697E-03     48.6670E-03    -135.513E+06    -306.604E+06    -125.297E+06    -94.9124E+03    -165.060E-03     329.762E-03    -164.702E-03     34.2054E-03    -165.219E-03     328.715E-03    -164.687E-03     32.2484E-03
            1754     763.482E-06     48.6346E-03    -139.629E+06    -317.650E+06    -136.396E+06    -323.150E+03    -164.910E-03     329.343E-03    -164.434E-03     18.9948E-03    -164.984E-03     328.190E-03    -164.453E-03     17.9386E-03
            1755     14.5039E-03     49.6916E-03    -5.17645E+06     97.3120E+06     96.8247E+06     475.244E+03    -164.553E-03     329.641E-03    -165.088E-03     66.7427E-03    -166.543E-03     331.677E-03    -164.737E-03     57.3568E-03
            1756     13.7397E-03     49.5771E-03    -10.8372E+06     93.6879E+06     97.7771E+06    -114.527E+03    -164.719E-03     329.808E-03    -165.089E-03     99.2206E-03    -167.702E-03     332.803E-03    -164.721E-03     87.4037E-03
            1757     12.9771E-03     49.4604E-03    -16.9923E+06     85.8255E+06       92.69E+06    -507.503E+03    -165.032E-03     330.110E-03    -165.078E-03     113.407E-03    -168.405E-03     333.459E-03    -164.715E-03     101.146E-03
            1758     12.2133E-03     49.3132E-03    -23.3815E+06     79.3596E+06     82.1997E+06    -255.741E+03    -165.799E-03     330.843E-03    -165.044E-03     130.184E-03    -169.683E-03     334.688E-03    -164.715E-03     117.260E-03
            1759     11.4497E-03     49.1528E-03    -30.4284E+06     72.0052E+06     70.6278E+06     68.2423E+03    -166.455E-03     331.461E-03    -165.006E-03     141.125E-03    -170.623E-03     335.572E-03    -164.713E-03     127.915E-03
            1760     10.6867E-03     48.9780E-03    -37.3663E+06     59.4732E+06     63.6207E+06     94.5652E+03    -167.013E-03     332.013E-03    -165.000E-03     149.198E-03    -171.320E-03     336.213E-03    -164.714E-03     135.884E-03
            1761     9.92277E-03     48.7967E-03    -44.6319E+06     31.0364E+06     55.6275E+06    -47.0992E+03    -167.530E-03     332.542E-03    -165.012E-03     152.782E-03    -171.747E-03     336.549E-03    -164.714E-03     139.643E-03
            1762     9.16032E-03     48.6117E-03    -52.5201E+06    -12.1929E+06     42.4917E+06    -181.132E+03    -167.893E-03     332.909E-03    -165.016E-03     152.228E-03    -171.807E-03     336.470E-03    -164.709E-03     139.557E-03
            1763     8.39654E-03     48.4297E-03    -60.6983E+06    -54.5644E+06     27.6293E+06     70.3653E+03    -167.969E-03     332.976E-03    -165.007E-03     147.847E-03    -171.436E-03     335.954E-03    -164.701E-03     135.941E-03
            1764     7.63323E-03     48.2547E-03    -68.7841E+06    -91.3352E+06     13.0135E+06    -49.5790E+03    -167.919E-03     332.907E-03    -164.987E-03     140.461E-03    -170.868E-03     335.249E-03    -164.690E-03     129.530E-03
            1765     6.87038E-03     48.0889E-03    -76.8428E+06    -126.561E+06    -1.51929E+06     -81.946E+03    -167.719E-03     332.680E-03    -164.960E-03     131.166E-03    -170.139E-03     334.382E-03    -164.673E-03     121.347E-03
            1766     6.10683E-03     47.9354E-03    -85.3313E+06    -158.334E+06    -16.3998E+06     99.0767E+03    -167.296E-03     332.225E-03    -164.929E-03     120.040E-03    -169.213E-03     333.325E-03    -164.658E-03     111.423E-03
            1767     5.34342E-03     47.7964E-03    -94.2120E+06    -187.922E+06    -32.0878E+06     56.6589E+03    -166.894E-03     331.788E-03    -164.894E-03     107.837E-03    -168.365E-03     332.350E-03    -164.645E-03     100.425E-03
            1768     4.58061E-03     47.6711E-03    -103.141E+06    -217.157E+06    -48.4689E+06     143.402E+03    -166.388E-03     331.247E-03    -164.859E-03     94.6417E-03    -167.472E-03     331.335E-03    -164.637E-03     88.4215E-03
            1769     3.81678E-03     47.5639E-03    -112.308E+06    -244.425E+06    -66.7803E+06     207.736E+03    -165.849E-03     330.676E-03    -164.827E-03     80.4991E-03    -166.610E-03     330.364E-03    -164.643E-03     75.4343E-03
            1770     3.05344E-03     47.4736E-03    -121.052E+06    -267.499E+06    -87.0375E+06     279.635E+03    -165.504E-03     330.287E-03    -164.784E-03     65.7305E-03    -166.007E-03     329.664E-03    -164.655E-03     61.7586E-03
            1771     2.29011E-03     47.4018E-03    -128.825E+06    -287.431E+06    -107.187E+06     222.729E+03    -165.132E-03     329.866E-03    -164.734E-03     50.0442E-03    -165.436E-03     329.003E-03    -164.667E-03     47.1156E-03
            1772     1.52639E-03     47.3504E-03    -134.986E+06    -306.175E+06    -124.277E+06     202.374E+03    -164.819E-03     329.541E-03    -164.721E-03     34.2441E-03    -164.978E-03     328.493E-03    -164.703E-03     32.2903E-03
            1773     763.260E-06     47.3180E-03    -139.382E+06    -318.061E+06    -136.865E+06    -119.729E+03    -164.665E-03     329.504E-03    -164.839E-03     18.9817E-03    -164.738E-03     328.350E-03    -164.860E-03     17.9136E-03
            1774     14.5036E-03     48.3704E-03    -5.12285E+06     97.2626E+06     97.2846E+06     201.992E+03    -164.557E-03     329.611E-03    -165.054E-03     67.3975E-03    -166.555E-03     331.654E-03    -164.701E-03     58.0185E-03
            1775     13.7408E-03     48.2614E-03    -10.2779E+06     94.0003E+06     98.4482E+06    -31.5700E+03    -164.124E-03     329.198E-03    -165.074E-03     100.554E-03    -167.113E-03     332.199E-03    -164.703E-03     88.8007E-03
            1776     12.9758E-03     48.1404E-03    -16.9924E+06     85.6598E+06     92.6876E+06    -47.0950E+03    -165.072E-03     330.151E-03    -165.079E-03     114.222E-03    -168.448E-03     333.502E-03    -164.715E-03     101.976E-03
            1777     12.2132E-03     47.9952E-03    -24.0606E+06     78.5724E+06     81.6318E+06    -48.5251E+03    -165.987E-03     331.026E-03    -165.039E-03     130.103E-03    -169.870E-03     334.866E-03    -164.709E-03     117.175E-03
            1778     11.4502E-03     47.8337E-03    -30.4820E+06     71.8498E+06     70.5443E+06    -41.3343E+03    -166.499E-03     331.491E-03    -164.992E-03     140.927E-03    -170.661E-03     335.595E-03    -164.700E-03     127.719E-03
            1779     10.6864E-03     47.6602E-03    -37.2520E+06     59.4386E+06     63.6461E+06    -245.645E+03    -167.071E-03     332.051E-03    -164.980E-03     148.819E-03    -171.370E-03     336.244E-03    -164.694E-03     135.500E-03
            1780     9.92370E-03     47.4776E-03    -44.7215E+06     30.8165E+06     55.5700E+06    -194.681E+03    -167.628E-03     332.611E-03    -164.983E-03     152.557E-03    -171.840E-03     336.613E-03    -164.685E-03     139.411E-03
            1781     9.15993E-03     47.2936E-03    -52.5653E+06    -12.3797E+06     42.4635E+06     61.6795E+03    -168.013E-03     332.987E-03    -164.973E-03     151.910E-03    -171.923E-03     336.542E-03    -164.667E-03     139.237E-03
            1782     8.39710E-03     47.1117E-03    -60.4838E+06    -54.5955E+06     27.8880E+06     147.140E+03    -168.074E-03     333.023E-03    -164.948E-03     147.445E-03    -171.534E-03     335.993E-03    -164.642E-03     135.539E-03
            1783     7.63410E-03     46.9366E-03    -68.6856E+06    -91.0646E+06     13.1649E+06     59.6824E+03    -167.984E-03     332.896E-03    -164.911E-03     140.237E-03    -170.930E-03     335.236E-03    -164.614E-03     129.309E-03
            1784     6.87062E-03     46.7713E-03    -77.2229E+06    -127.050E+06    -1.85251E+06    -147.023E+03    -167.674E-03     332.546E-03    -164.872E-03     130.744E-03    -170.088E-03     334.240E-03    -164.585E-03     120.936E-03
            1785     6.10746E-03     46.6183E-03    -85.7075E+06    -158.688E+06    -16.6435E+06    -34.9513E+03    -167.274E-03     332.104E-03    -164.831E-03     119.760E-03    -169.187E-03     333.199E-03    -164.560E-03     111.150E-03
            1786     5.34451E-03     46.4787E-03    -94.3941E+06    -187.887E+06    -32.1878E+06     40.0448E+03    -166.814E-03     331.602E-03    -164.787E-03     107.765E-03    -168.284E-03     332.162E-03    -164.539E-03     100.363E-03
            1787     4.58068E-03     46.3548E-03    -103.274E+06    -217.477E+06    -48.6007E+06     49.9838E+03    -166.231E-03     330.986E-03    -164.755E-03     94.5998E-03    -167.313E-03     331.071E-03    -164.533E-03     88.3917E-03
            1788     3.81725E-03     46.2473E-03    -112.189E+06    -244.522E+06    -66.6770E+06     48.5919E+03    -165.811E-03     330.532E-03    -164.721E-03     80.4584E-03    -166.571E-03     330.218E-03    -164.537E-03     75.3974E-03
            1789     3.05384E-03     46.1567E-03    -120.917E+06    -267.574E+06    -86.8617E+06     12.6237E+03    -165.402E-03     330.070E-03    -164.668E-03     65.5237E-03    -165.904E-03     329.445E-03    -164.539E-03     61.5539E-03
            1790     2.29030E-03     46.0857E-03    -128.885E+06    -287.586E+06    -107.135E+06     110.286E+03    -164.958E-03     329.583E-03    -164.626E-03     49.7898E-03    -165.261E-03     328.719E-03    -164.557E-03     46.8634E-03
            1791     1.52689E-03     46.0340E-03    -135.302E+06    -306.149E+06    -124.142E+06     127.720E+03    -164.704E-03     329.329E-03    -164.625E-03     33.8981E-03    -164.863E-03     328.282E-03    -164.606E-03     31.9477E-03
            1792     763.055E-06     46.0014E-03    -139.401E+06    -317.497E+06    -135.560E+06     343.477E+03    -164.511E-03     329.312E-03    -164.801E-03     18.5351E-03    -164.586E-03     328.158E-03    -164.816E-03     17.4857E-03
            1793     14.5036E-03     47.0529E-03    -4.20074E+06     97.1263E+06     97.3972E+06    -93.6632E+03    -164.068E-03     329.155E-03    -165.086E-03     67.5475E-03    -166.062E-03     331.196E-03    -164.734E-03     58.1681E-03
            1794     13.7386E-03     46.9429E-03    -10.2640E+06     93.9580E+06     98.1855E+06     458.712E+03    -164.780E-03     329.883E-03    -165.103E-03     100.950E-03    -167.772E-03     332.887E-03    -164.733E-03     89.1623E-03
            1795     12.9767E-03     46.8214E-03    -17.0150E+06     85.5572E+06     92.8597E+06     583.475E+03    -165.492E-03     330.573E-03    -165.081E-03     113.777E-03    -168.864E-03     333.919E-03    -164.716E-03     101.511E-03
            1796     12.2134E-03     46.6757E-03    -23.4146E+06     79.1014E+06     82.2507E+06     128.293E+03    -166.001E-03     331.026E-03    -165.025E-03     129.494E-03    -169.873E-03     334.857E-03    -164.695E-03     116.570E-03
            1797     11.4500E-03     46.5156E-03    -30.2552E+06     71.9778E+06     70.6188E+06    -319.741E+03    -166.655E-03     331.623E-03    -164.968E-03     140.604E-03    -170.813E-03     335.725E-03    -164.676E-03     127.374E-03
            1798     10.6874E-03     46.3409E-03    -37.3196E+06     59.3001E+06     63.5945E+06    -188.148E+03    -167.237E-03     332.178E-03    -164.941E-03     148.469E-03    -171.529E-03     336.363E-03    -164.655E-03     135.143E-03
            1799     9.92359E-03     46.1601E-03    -44.8237E+06     30.4988E+06     55.3948E+06    -72.5277E+03    -167.721E-03     332.650E-03    -164.929E-03     152.142E-03    -171.923E-03     336.641E-03    -164.631E-03     138.998E-03
            1800     9.16100E-03     45.9744E-03    -52.6927E+06    -12.7807E+06     42.3006E+06    -48.2801E+03    -168.036E-03     332.943E-03    -164.907E-03     151.341E-03    -171.932E-03     336.484E-03    -164.600E-03     138.679E-03
            1801     8.39788E-03     45.7942E-03    -60.6958E+06    -54.9414E+06     27.7451E+06    -24.2309E+03    -168.126E-03     332.995E-03    -164.869E-03     147.015E-03    -171.578E-03     335.956E-03    -164.563E-03     135.113E-03
            1802     7.63447E-03     45.6184E-03    -68.7095E+06    -90.9662E+06     13.4018E+06     124.282E+03    -167.935E-03     332.757E-03    -164.822E-03     139.887E-03    -170.874E-03     335.090E-03    -164.524E-03     128.974E-03
            1803     6.87166E-03     45.4541E-03    -76.9336E+06    -126.723E+06    -1.70197E+06     109.604E+03    -167.579E-03     332.357E-03    -164.777E-03     130.487E-03    -169.986E-03     334.045E-03    -164.491E-03     120.703E-03
            1804     6.10830E-03     45.3011E-03    -85.4505E+06    -159.057E+06    -16.6987E+06    -155.396E+03    -167.176E-03     331.912E-03    -164.736E-03     119.815E-03    -169.087E-03     333.004E-03    -164.465E-03     111.214E-03
            1805     5.34447E-03     45.1620E-03    -94.0682E+06    -187.947E+06    -31.8708E+06    -20.9927E+03    -166.710E-03     331.405E-03    -164.695E-03     107.575E-03    -168.174E-03     331.960E-03    -164.445E-03     100.188E-03
            1806     4.58119E-03     45.0383E-03    -103.129E+06    -217.558E+06    -48.4622E+06    -24.0122E+03    -166.267E-03     330.916E-03    -164.648E-03     94.2196E-03    -167.345E-03     330.995E-03    -164.426E-03     88.0203E-03
            1807     3.81776E-03     44.9305E-03    -112.458E+06    -244.757E+06    -66.5954E+06     61.0229E+03    -165.757E-03     330.350E-03    -164.592E-03     80.1767E-03    -166.516E-03     330.033E-03    -164.407E-03     75.1254E-03
            1808     3.05429E-03     44.8407E-03    -121.318E+06    -267.787E+06    -87.0290E+06     249.547E+03    -165.199E-03     329.737E-03    -164.538E-03     65.3207E-03    -165.701E-03     329.110E-03    -164.409E-03     61.3684E-03
            1809     2.29062E-03     44.7696E-03    -129.164E+06    -287.529E+06     -107.78E+06     30.8656E+03    -164.863E-03     329.358E-03    -164.494E-03     49.8908E-03    -165.167E-03     328.494E-03    -164.429E-03     46.9647E-03
            1810     1.52707E-03     44.7177E-03    -135.337E+06    -306.104E+06    -124.918E+06    -238.402E+03    -164.716E-03     329.157E-03    -164.441E-03     34.0509E-03    -164.875E-03     328.111E-03    -164.425E-03     32.1027E-03
            1811     763.955E-06     44.6856E-03    -139.179E+06    -317.958E+06    -136.648E+06    -544.581E+03    -164.721E-03     328.858E-03    -164.137E-03     18.7320E-03    -164.792E-03     327.702E-03    -164.157E-03     17.6759E-03
            1812     14.5008E-03     45.7353E-03    -5.72527E+06     96.4520E+06     96.2729E+06    -101.943E+03    -164.468E-03     329.573E-03    -165.105E-03     66.7922E-03    -166.462E-03     331.610E-03    -164.755E-03     57.3838E-03
            1813     13.7397E-03     45.6215E-03    -11.3830E+06     93.8210E+06     97.6767E+06     107.941E+03    -165.318E-03     330.413E-03    -165.095E-03     99.7496E-03    -168.304E-03     333.408E-03    -164.726E-03     87.9140E-03
            1814     12.9769E-03     45.5022E-03    -16.7849E+06     85.6816E+06     93.0340E+06    -105.390E+03    -165.489E-03     330.544E-03    -165.055E-03     112.970E-03    -168.847E-03     333.877E-03    -164.690E-03     100.702E-03
            1815     12.2136E-03     45.3576E-03    -23.1319E+06     79.2766E+06     82.4669E+06     88.0080E+03    -166.059E-03     331.055E-03    -164.995E-03     129.486E-03    -169.926E-03     334.881E-03    -164.664E-03     116.563E-03
            1816     11.4510E-03     45.1958E-03    -29.7979E+06     72.3128E+06     71.0670E+06     342.062E+03    -166.792E-03     331.722E-03    -164.930E-03     140.219E-03    -170.940E-03     335.814E-03    -164.636E-03     126.994E-03
            1817     10.6873E-03     45.0232E-03    -37.1768E+06     59.3114E+06     63.6744E+06     120.785E+03    -167.434E-03     332.319E-03    -164.885E-03     148.166E-03    -171.719E-03     336.498E-03    -164.599E-03     134.834E-03
            1818     9.92514E-03     44.8404E-03    -44.8256E+06     30.4944E+06     55.4684E+06     67.5298E+03    -167.848E-03     332.702E-03    -164.854E-03     151.713E-03    -172.039E-03     336.682E-03    -164.556E-03     138.576E-03
            1819     9.16166E-03     44.6574E-03    -52.6736E+06    -12.9081E+06     42.2503E+06     9.90532E+03    -167.984E-03     332.806E-03    -164.821E-03     151.136E-03    -171.870E-03     336.336E-03    -164.515E-03     138.497E-03
            1820     8.39842E-03     44.4751E-03    -60.5457E+06    -55.3087E+06     27.5784E+06    -185.070E+03    -168.056E-03     332.836E-03    -164.780E-03     146.890E-03    -171.500E-03     335.789E-03    -164.474E-03     135.005E-03
            1821     7.63579E-03     44.3015E-03    -68.4324E+06    -91.4306E+06     13.3837E+06    -128.605E+03    -167.831E-03     332.564E-03    -164.733E-03     139.650E-03    -170.760E-03     334.887E-03    -164.435E-03     128.755E-03
            1822     6.87185E-03     44.1366E-03    -76.5044E+06    -126.524E+06    -1.23995E+06     119.235E+03    -167.498E-03     332.188E-03    -164.689E-03     130.398E-03    -169.899E-03     333.872E-03    -164.401E-03     120.631E-03
            1823     6.10842E-03     43.9844E-03    -85.1403E+06    -158.934E+06    -16.4770E+06     191.314E+03    -167.167E-03     331.807E-03    -164.640E-03     119.355E-03    -169.069E-03     332.890E-03    -164.368E-03     110.776E-03
            1824     5.34534E-03     43.8452E-03    -94.2086E+06    -188.323E+06    -32.0810E+06     76.0580E+03    -166.703E-03     331.284E-03    -164.581E-03     107.106E-03    -168.160E-03     331.831E-03    -164.332E-03     99.7345E-03
            1825     4.58195E-03     43.7217E-03    -103.419E+06    -217.594E+06    -48.5580E+06     212.617E+03    -166.192E-03     330.712E-03    -164.520E-03     94.0095E-03    -167.267E-03     330.788E-03    -164.297E-03     87.8262E-03
            1826     3.81848E-03     43.6144E-03    -112.608E+06    -244.901E+06    -67.0182E+06     231.353E+03    -165.614E-03     330.071E-03    -164.457E-03     80.0140E-03    -166.370E-03     329.752E-03    -164.274E-03     74.9794E-03
            1827     3.05458E-03     43.5251E-03    -121.279E+06    -267.723E+06    -86.9656E+06      35.675E+03    -165.074E-03     329.477E-03    -164.403E-03     65.1588E-03    -165.574E-03     328.848E-03    -164.274E-03     61.2157E-03
            1828     2.29083E-03     43.4537E-03    -128.978E+06    -287.320E+06    -107.366E+06     57.4443E+03    -164.707E-03     329.070E-03    -164.363E-03     49.8411E-03    -165.009E-03     328.206E-03    -164.296E-03     46.9293E-03
            1829     1.52722E-03     43.4018E-03    -135.520E+06    -306.066E+06    -124.834E+06     58.2725E+03    -164.529E-03     328.861E-03    -164.332E-03     34.1144E-03    -164.689E-03     327.815E-03    -164.316E-03     32.1798E-03
            1830     763.438E-06     43.3696E-03    -140.224E+06    -318.863E+06    -137.565E+06     351.031E+03    -164.688E-03     328.673E-03    -163.985E-03     18.8098E-03    -164.762E-03     327.517E-03    -164.007E-03     17.7504E-03
            1831     14.5041E-03     44.4146E-03    -5.51598E+06     96.8147E+06     96.7378E+06     125.048E+03    -165.031E-03     330.112E-03    -165.081E-03     67.1068E-03    -167.028E-03     332.153E-03    -164.729E-03     57.6840E-03
            1832     13.7407E-03     44.3015E-03    -11.1502E+06     93.8885E+06     97.9617E+06    -675.199E+03    -165.051E-03     330.112E-03    -165.061E-03     99.6574E-03    -168.035E-03     333.106E-03    -164.691E-03     87.8218E-03
            1833     12.9771E-03     44.1846E-03    -17.1623E+06     85.1211E+06     92.8343E+06    -466.874E+03    -165.430E-03     330.458E-03    -165.028E-03     113.080E-03    -168.786E-03     333.786E-03    -164.662E-03     100.820E-03
            1834     12.2142E-03     44.0372E-03    -23.7357E+06     78.5711E+06     82.0764E+06    -164.498E+03    -166.312E-03     331.272E-03    -164.960E-03     129.371E-03    -170.175E-03     335.091E-03    -164.629E-03     116.432E-03
            1835     11.4510E-03     43.8779E-03    -30.2531E+06     71.7249E+06     70.6857E+06     89.6025E+03    -166.977E-03     331.853E-03    -164.876E-03     139.937E-03    -171.117E-03     335.935E-03    -164.583E-03     126.706E-03
            1836     10.6888E-03     43.7034E-03    -36.8639E+06     59.4684E+06     63.9100E+06     462.088E+03    -167.500E-03     332.319E-03    -164.819E-03     147.907E-03    -171.774E-03     336.488E-03    -164.532E-03     134.590E-03
            1837     9.92532E-03     43.5224E-03    -44.3630E+06     30.6755E+06     55.6906E+06     254.638E+03    -167.817E-03     332.597E-03    -164.780E-03     151.529E-03    -171.998E-03     336.568E-03    -164.482E-03     138.414E-03
            1838     9.16249E-03     43.3391E-03    -52.0517E+06    -12.7174E+06     42.5786E+06     21.5992E+03    -168.025E-03     332.765E-03    -164.740E-03     150.938E-03    -171.900E-03     336.287E-03    -164.434E-03     138.312E-03
            1839     8.39947E-03     43.1577E-03    -59.9759E+06    -55.1501E+06     27.8840E+06     87.4783E+03    -167.910E-03     332.607E-03    -164.696E-03     146.647E-03    -171.340E-03     335.547E-03    -164.390E-03     134.800E-03
            1840     7.63560E-03     42.9838E-03    -68.4950E+06    -91.6679E+06     13.1707E+06    -3.87837E+03    -167.787E-03     332.435E-03    -164.648E-03     139.391E-03    -170.707E-03     334.748E-03    -164.350E-03     128.519E-03
            1841     6.87278E-03     42.8199E-03    -77.0891E+06    -127.305E+06    -1.80788E+06     33.2495E+03    -167.625E-03     332.212E-03    -164.587E-03     129.927E-03    -170.018E-03     333.885E-03    -164.299E-03     120.166E-03
            1842     6.10966E-03     42.6670E-03    -85.5236E+06    -158.964E+06    -16.6535E+06     369.670E+03    -167.134E-03     331.649E-03    -164.516E-03     118.873E-03    -169.028E-03     332.724E-03    -164.244E-03     110.318E-03
            1843     5.34608E-03     42.5291E-03    -94.3515E+06    -188.216E+06    -32.3214E+06     395.939E+03    -166.569E-03     331.017E-03    -164.448E-03     106.907E-03    -168.022E-03     331.561E-03    -164.200E-03     99.5620E-03
            1844     4.58236E-03     42.4053E-03    -103.314E+06    -217.982E+06    -48.7589E+06     317.189E+03    -166.017E-03     330.407E-03    -164.390E-03     93.7958E-03    -167.087E-03     330.478E-03    -164.168E-03     87.6334E-03
            1845     3.81859E-03     42.2988E-03    -112.272E+06    -244.458E+06    -66.8536E+06     215.650E+03    -165.502E-03     329.830E-03    -164.328E-03     79.7230E-03    -166.254E-03     329.509E-03    -164.145E-03     74.7012E-03
            1846     3.05515E-03     42.2093E-03    -121.430E+06    -267.575E+06    -87.2033E+06    -44.5038E+03    -165.067E-03     329.318E-03    -164.251E-03     64.9383E-03    -165.566E-03     328.689E-03    -164.123E-03     60.9987E-03
            1847     2.29142E-03     42.1387E-03    -129.571E+06    -287.890E+06    -107.792E+06     69.8371E+03    -164.656E-03     328.823E-03    -164.167E-03     49.5244E-03    -164.958E-03     327.956E-03    -164.101E-03     46.6236E-03
            1848     1.52739E-03     42.0863E-03    -135.718E+06    -306.344E+06    -125.184E+06     561.154E+03    -164.321E-03     328.423E-03    -164.102E-03     33.6626E-03    -164.479E-03     327.375E-03    -164.087E-03     31.7430E-03
            1849     763.749E-06     42.0542E-03    -139.663E+06    -317.791E+06    -136.306E+06     385.574E+03    -164.172E-03     328.199E-03    -164.027E-03     18.2321E-03    -164.246E-03     327.044E-03    -164.045E-03     17.1849E-03
            1850     14.5025E-03     43.0926E-03    -4.91293E+06     97.0696E+06     97.4293E+06     95.7498E+03    -164.797E-03     329.867E-03    -165.070E-03     67.6596E-03    -166.793E-03     331.908E-03    -164.716E-03     58.2543E-03
            1851     13.7399E-03     42.9846E-03    -10.4899E+06     94.1508E+06     98.4180E+06    -7.20362E+03    -165.130E-03     330.184E-03    -165.054E-03     99.9145E-03    -168.115E-03     333.180E-03    -164.683E-03     88.0746E-03
            1852     12.9772E-03     42.8635E-03    -17.4495E+06     84.7433E+06     92.5542E+06    -323.955E+03    -165.859E-03     330.863E-03    -165.003E-03     113.005E-03    -169.218E-03     334.192E-03    -164.638E-03     100.701E-03
            1853     12.2147E-03     42.7191E-03    -23.8333E+06     78.2893E+06     82.1938E+06    -155.477E+03    -166.527E-03     331.441E-03    -164.914E-03     128.972E-03    -170.381E-03     335.250E-03    -164.582E-03     116.025E-03
            1854     11.4522E-03     42.5579E-03    -30.6277E+06     71.1697E+06     70.5222E+06    -169.338E+03    -167.046E-03     331.862E-03    -164.817E-03     139.695E-03    -171.175E-03     335.930E-03    -164.523E-03     126.475E-03
            1855     10.6891E-03     42.3850E-03    -37.5593E+06     58.7238E+06     63.3259E+06    -343.856E+03    -167.446E-03     332.198E-03    -164.752E-03     147.671E-03    -171.708E-03     336.352E-03    -164.466E-03     134.368E-03
            1856     9.92619E-03     42.2044E-03    -44.4487E+06     30.6879E+06     55.5697E+06    -3.12452E+03    -167.813E-03     332.523E-03    -164.711E-03     151.304E-03    -171.983E-03     336.484E-03    -164.413E-03     138.202E-03
            1857     9.16317E-03     42.0202E-03    -52.2732E+06    -12.8145E+06     42.3870E+06     147.214E+03    -167.999E-03     332.664E-03    -164.665E-03     150.597E-03    -171.864E-03     336.175E-03    -164.358E-03     137.993E-03
            1858     8.39991E-03     41.8410E-03    -60.4655E+06    -55.4249E+06     27.5824E+06     246.479E+03    -168.018E-03     332.626E-03    -164.608E-03     146.207E-03    -171.438E-03     335.554E-03    -164.302E-03     134.374E-03
            1859     7.63684E-03     41.6665E-03    -68.6061E+06    -91.5189E+06     13.0338E+06     393.731E+03    -167.884E-03     332.420E-03    -164.536E-03     138.820E-03    -170.792E-03     334.722E-03    -164.239E-03     127.970E-03
            1860     6.87363E-03     41.5022E-03    -76.9593E+06    -127.296E+06    -1.99189E+06     308.182E+03    -167.492E-03     331.953E-03    -164.461E-03     129.448E-03    -169.873E-03     333.615E-03    -164.175E-03     119.721E-03
            1861     6.11020E-03     41.3510E-03    -85.4961E+06    -159.457E+06    -16.8704E+06     227.438E+03    -167.022E-03     331.410E-03    -164.388E-03     118.699E-03    -168.910E-03     332.478E-03    -164.117E-03     110.161E-03
            1862     5.34660E-03     41.2127E-03    -93.9999E+06    -188.042E+06    -32.1245E+06     376.783E+03    -166.515E-03     330.827E-03    -164.313E-03     106.533E-03    -167.960E-03     331.365E-03    -164.064E-03     99.2055E-03
            1863     4.58316E-03     41.0898E-03    -102.784E+06    -217.848E+06    -48.6437E+06     252.998E+03    -165.933E-03     330.172E-03    -164.240E-03     93.2888E-03    -166.994E-03     330.237E-03    -164.018E-03     87.1462E-03
            1864     3.81950E-03     40.9833E-03    -111.957E+06    -244.725E+06    -66.8503E+06     345.041E+03    -165.389E-03     329.553E-03    -164.164E-03     79.3112E-03    -166.135E-03     329.226E-03    -163.981E-03     74.3088E-03
            1865     3.05550E-03     40.8940E-03    -120.419E+06    -267.054E+06    -86.9430E+06     407.904E+03    -164.962E-03     329.031E-03    -164.069E-03     64.6639E-03    -165.454E-03     328.400E-03    -163.942E-03     60.7464E-03
            1866     2.29188E-03     40.8233E-03    -127.892E+06    -288.261E+06    -106.056E+06    -26.0644E+03    -164.594E-03     328.551E-03    -163.958E-03     49.4151E-03    -164.889E-03     327.677E-03    -163.884E-03     46.5169E-03
            1867     1.52842E-03     40.7718E-03    -134.352E+06    -306.525E+06    -122.876E+06    -44.5322E+03    -164.191E-03     328.026E-03    -163.835E-03     33.7566E-03    -164.345E-03     326.972E-03    -163.810E-03     31.8276E-03
            1868     764.275E-06     40.7397E-03    -138.620E+06    -316.989E+06    -135.707E+06    -109.133E+03    -163.690E-03     327.580E-03    -163.890E-03     18.3284E-03    -163.760E-03     326.426E-03    -163.907E-03     17.3049E-03
            1869     14.5035E-03     41.7766E-03    -5.43655E+06     96.5444E+06     96.9863E+06    -210.551E+03    -164.946E-03     329.998E-03    -165.052E-03     66.4338E-03    -166.928E-03     332.022E-03    -164.699E-03     57.0238E-03
            1870     13.7400E-03     41.6620E-03    -10.9101E+06     93.5662E+06     98.1929E+06    -65.9014E+03    -165.291E-03     330.316E-03    -165.025E-03     99.0051E-03    -168.257E-03     333.291E-03    -164.654E-03     87.1774E-03
            1871     12.9783E-03     41.5450E-03    -16.8943E+06     85.1577E+06     92.8101E+06     288.120E+03    -166.038E-03     330.999E-03    -164.961E-03     112.458E-03    -169.383E-03     334.317E-03    -164.596E-03     100.158E-03
            1872     12.2154E-03     41.3987E-03    -23.8726E+06     78.0739E+06     81.9695E+06     -82.046E+03    -166.605E-03     331.465E-03    -164.859E-03     128.639E-03    -170.447E-03     335.261E-03    -164.528E-03     115.704E-03
            1873     11.4528E-03     41.2392E-03    -30.2505E+06     71.3313E+06     70.8897E+06    -246.591E+03    -166.968E-03     331.728E-03    -164.760E-03     139.464E-03    -171.082E-03     335.782E-03    -164.465E-03     126.273E-03
            1874     10.6897E-03     41.0667E-03    -37.1834E+06     58.5715E+06     63.4641E+06    -300.554E+03    -167.518E-03     332.208E-03    -164.690E-03     147.478E-03    -171.768E-03     336.350E-03    -164.404E-03     134.186E-03
            1875     9.92700E-03     40.8852E-03    -45.0709E+06     29.8840E+06     55.0627E+06    -272.234E+03    -167.870E-03     332.507E-03    -164.637E-03     150.876E-03    -172.027E-03     336.450E-03    -164.339E-03     137.787E-03
            1876     9.16377E-03     40.7035E-03    -52.8569E+06    -13.1759E+06     41.9758E+06     142.668E+03    -168.052E-03     332.629E-03    -164.577E-03     150.054E-03    -171.902E-03     336.123E-03    -164.272E-03     137.470E-03
            1877     8.40068E-03     40.5224E-03    -60.7062E+06    -55.7329E+06     27.1916E+06     156.565E+03    -168.172E-03     332.671E-03    -164.499E-03     145.693E-03    -171.580E-03     335.586E-03    -164.194E-03     133.866E-03
            1878     7.63818E-03     40.3493E-03    -68.6889E+06    -91.6700E+06     12.9146E+06     256.789E+03    -167.834E-03     332.244E-03    -164.410E-03     138.468E-03    -170.731E-03     334.534E-03    -164.113E-03     127.641E-03
            1879     6.87453E-03     40.1863E-03    -76.7393E+06    -127.009E+06    -1.73398E+06     438.860E+03    -167.355E-03     331.686E-03    -164.330E-03     129.169E-03    -169.728E-03     333.340E-03    -164.044E-03     119.474E-03
            1880     6.11087E-03     40.0344E-03    -85.1689E+06    -159.471E+06    -16.7542E+06     209.469E+03    -166.978E-03     331.226E-03    -164.249E-03     118.165E-03    -168.855E-03     332.284E-03    -163.978E-03     109.648E-03
            1881     5.34771E-03     39.8968E-03    -93.8865E+06    -188.329E+06    -32.0867E+06     180.277E+03    -166.467E-03     330.623E-03    -164.156E-03     106.000E-03    -167.905E-03     331.152E-03    -163.907E-03     98.6901E-03
            1882     4.58392E-03     39.7744E-03    -102.751E+06    -217.647E+06    -48.7407E+06     338.430E+03    -165.873E-03     329.933E-03    -164.060E-03     92.8892E-03    -166.929E-03     329.993E-03    -163.839E-03     86.7669E-03
            1883     3.82008E-03     39.6681E-03    -111.343E+06    -244.871E+06    -67.0009E+06     70.7367E+03    -165.298E-03     329.258E-03    -163.960E-03     78.9730E-03    -166.036E-03     328.926E-03    -163.778E-03     73.9862E-03
            1884     3.05641E-03     39.5793E-03    -119.715E+06    -267.032E+06    -86.4572E+06     13.1146E+03    -164.751E-03     328.605E-03    -163.854E-03     64.3643E-03    -165.237E-03     327.970E-03    -163.726E-03     60.4605E-03
            1885     2.29228E-03     39.5086E-03    -127.713E+06    -287.885E+06    -105.573E+06     168.511E+03    -164.287E-03     328.044E-03    -163.758E-03     49.1539E-03    -164.580E-03     327.169E-03    -163.683E-03     46.2723E-03
            1886     1.52797E-03     39.4575E-03    -134.554E+06    -306.611E+06    -122.816E+06    -124.386E+03    -163.903E-03     327.586E-03    -163.683E-03     33.5458E-03    -164.058E-03     326.531E-03    -163.657E-03     31.6261E-03
            1887     763.997E-06     39.4260E-03    -139.366E+06    -317.555E+06    -135.873E+06    -47.3308E+03    -163.645E-03     327.337E-03    -163.693E-03     18.3338E-03    -163.717E-03     326.182E-03    -163.709E-03     17.3157E-03
            1888     14.5039E-03     40.4538E-03     -4.5403E+06     96.5995E+06     97.2602E+06    -185.953E+03    -165.347E-03     330.382E-03    -165.035E-03     67.0193E-03    -167.337E-03     332.416E-03    -164.682E-03     57.5686E-03
            1889     13.7423E-03     40.3455E-03    -10.5336E+06     93.0529E+06     98.0633E+06     176.282E+03    -165.644E-03     330.632E-03    -164.988E-03     99.8807E-03    -168.614E-03     333.610E-03    -164.617E-03     88.0434E-03
            1890     12.9781E-03     40.2234E-03    -16.9677E+06     84.8849E+06     92.9073E+06     366.879E+03    -166.067E-03     330.981E-03    -164.914E-03     112.526E-03    -169.399E-03     334.285E-03    -164.548E-03     100.264E-03
            1891     12.2164E-03     40.0800E-03    -23.1432E+06     78.6113E+06     82.3323E+06     42.7355E+03    -166.523E-03     331.333E-03    -164.810E-03     128.299E-03    -170.350E-03     335.118E-03    -164.479E-03     115.385E-03
            1892     11.4531E-03     39.9205E-03    -30.1905E+06     71.2290E+06     70.4074E+06    -296.159E+03    -167.107E-03     331.809E-03    -164.702E-03     139.261E-03    -171.212E-03     335.855E-03    -164.409E-03     126.066E-03
            1893     10.6906E-03     39.7474E-03    -37.2817E+06     58.2013E+06     63.1281E+06     97.3452E+03    -167.632E-03     332.252E-03    -164.620E-03     147.012E-03    -171.865E-03     336.376E-03    -164.334E-03     133.740E-03
            1894     9.92761E-03     39.5674E-03    -44.7812E+06     29.6196E+06     54.9709E+06     264.825E+03    -167.973E-03     332.524E-03    -164.551E-03     150.310E-03    -172.110E-03     336.448E-03    -164.254E-03     137.246E-03
            1895     9.16487E-03     39.3851E-03    -52.8100E+06    -13.3320E+06     41.9749E+06     81.5258E+03    -168.247E-03     332.716E-03    -164.469E-03     149.578E-03    -172.083E-03     336.196E-03    -164.163E-03     136.999E-03
            1896     8.40235E-03     39.2049E-03    -60.8862E+06    -55.4152E+06     27.3440E+06     118.948E+03    -168.044E-03     332.420E-03    -164.376E-03     145.173E-03    -171.436E-03     335.320E-03    -164.071E-03     133.384E-03
            1897     7.63837E-03     39.0327E-03    -69.0742E+06    -92.1141E+06     12.6830E+06    -10.1887E+03    -167.745E-03     332.026E-03    -164.282E-03     137.905E-03    -170.629E-03     334.301E-03    -163.984E-03     127.105E-03
            1898     6.87536E-03     38.8694E-03    -77.2145E+06    -127.393E+06    -2.03455E+06    -85.9251E+03    -167.481E-03     331.661E-03    -164.180E-03     128.507E-03    -169.842E-03     333.302E-03    -163.894E-03     118.819E-03
            1899     6.11236E-03     38.7186E-03    -85.4057E+06    -159.269E+06    -16.8299E+06     104.527E+03    -166.896E-03     330.968E-03    -164.072E-03     117.540E-03    -168.763E-03     332.015E-03    -163.802E-03     109.051E-03
            1900     5.34836E-03     38.5812E-03    -93.9966E+06    -188.671E+06    -32.3772E+06     96.1561E+03    -166.292E-03     330.260E-03    -163.968E-03     105.514E-03    -167.721E-03     330.779E-03    -163.720E-03     98.2329E-03
            1901     4.58485E-03     38.4592E-03    -102.642E+06    -217.755E+06    -48.5949E+06    -7.44567E+03    -165.774E-03     329.635E-03    -163.861E-03     92.4363E-03    -166.824E-03     329.688E-03    -163.639E-03     86.3311E-03
            1902     3.82115E-03     38.3535E-03    -111.785E+06    -244.706E+06    -66.5627E+06     59.5532E+03    -165.186E-03     328.925E-03    -163.739E-03     78.5418E-03    -165.923E-03     328.589E-03    -163.555E-03     73.5730E-03
            1903     3.05700E-03     38.2650E-03    -120.957E+06    -267.585E+06    -86.8985E+06     225.149E+03    -164.549E-03     328.160E-03    -163.610E-03     63.9633E-03    -165.037E-03     327.520E-03    -163.482E-03     60.0777E-03
            1904     2.29293E-03     38.1950E-03    -129.022E+06    -287.567E+06    -107.604E+06     309.209E+03    -164.020E-03     327.517E-03    -163.497E-03     48.7544E-03    -164.316E-03     326.646E-03    -163.431E-03     45.8935E-03
            1905     1.52878E-03     38.1438E-03    -135.361E+06    -306.179E+06    -124.670E+06     75.6697E+03    -163.665E-03     327.078E-03    -163.413E-03     32.9061E-03    -163.819E-03     326.027E-03    -163.397E-03     31.0090E-03
            1906     764.204E-06     38.1126E-03    -139.845E+06    -318.308E+06    -136.608E+06     35.4064E+03    -163.458E-03     326.789E-03    -163.332E-03     18.0415E-03    -163.530E-03     325.632E-03    -163.350E-03     17.0129E-03
            1907     14.5030E-03     39.1355E-03    -5.33289E+06     96.1094E+06     96.6680E+06    -133.434E+03    -165.525E-03     330.556E-03    -165.031E-03     66.8962E-03    -167.513E-03     332.586E-03    -164.679E-03     57.4347E-03
            1908     13.7400E-03     39.0224E-03    -10.8246E+06     92.6773E+06     97.8458E+06    -65.1341E+03    -166.022E-03     330.989E-03    -164.968E-03     99.2288E-03    -168.986E-03     333.961E-03    -164.597E-03     87.3521E-03
            1909     12.9801E-03     38.9048E-03    -16.7334E+06     84.9786E+06     93.0703E+06    -268.494E+03    -166.079E-03     330.959E-03    -164.881E-03     112.260E-03    -169.403E-03     334.256E-03    -164.514E-03     99.9927E-03
            1910     12.2160E-03     38.7605E-03    -23.3186E+06     78.2770E+06     82.2733E+06     59.9505E+03    -166.669E-03     331.439E-03    -164.770E-03     128.351E-03    -170.490E-03     335.216E-03    -164.438E-03     115.440E-03
            1911     11.4542E-03     38.6011E-03    -30.1911E+06     71.0960E+06     70.4856E+06     549.280E+03    -167.414E-03     332.058E-03    -164.644E-03     138.961E-03    -171.509E-03     336.094E-03    -164.351E-03     125.764E-03
            1912     10.6915E-03     38.4287E-03    -37.6467E+06     57.8855E+06     62.9837E+06     383.089E+03    -167.821E-03     332.358E-03    -164.538E-03     146.453E-03    -172.039E-03     336.466E-03    -164.252E-03     133.190E-03
            1913     9.92871E-03     38.2493E-03    -45.3323E+06     29.7348E+06     54.9396E+06     251.549E+03    -168.140E-03     332.586E-03    -164.446E-03     149.799E-03    -172.263E-03     336.494E-03    -164.149E-03     136.746E-03
            1914     9.16614E-03     38.0663E-03    -53.0141E+06    -13.0857E+06     42.0584E+06     69.6738E+03    -168.185E-03     332.534E-03    -164.349E-03     149.008E-03    -172.004E-03     335.996E-03    -164.043E-03     136.462E-03
            1915     8.40276E-03     37.8883E-03    -60.8495E+06    -55.5981E+06     27.4735E+06     67.9378E+03    -168.057E-03     332.300E-03    -164.243E-03     144.530E-03    -171.432E-03     335.182E-03    -163.937E-03     132.767E-03
            1916     7.64013E-03     37.7157E-03    -68.7960E+06    -91.9240E+06     12.8476E+06     36.9038E+03    -167.877E-03     332.000E-03    -164.123E-03     137.258E-03    -170.745E-03     334.260E-03    -163.826E-03     126.476E-03
            1917     6.87699E-03     37.5530E-03    -77.0914E+06    -127.542E+06    -2.07986E+06    -191.331E+03    -167.410E-03     331.406E-03    -163.996E-03     127.773E-03    -169.756E-03     333.031E-03    -163.710E-03     118.116E-03
            1918     6.11325E-03     37.4030E-03    -85.6336E+06    -159.662E+06    -17.0321E+06    -164.138E+03    -166.807E-03     330.677E-03    -163.870E-03     116.916E-03    -168.663E-03     331.712E-03    -163.599E-03     108.456E-03
            1919     5.34988E-03     37.2663E-03    -94.0510E+06    -188.524E+06    -32.2743E+06    -213.727E+03    -166.191E-03     329.937E-03    -163.746E-03     104.914E-03    -167.611E-03     330.447E-03    -163.497E-03     97.6556E-03
            1920     4.58584E-03     37.1444E-03    -103.162E+06     -218.18E+06    -48.5974E+06    -103.083E+03    -165.584E-03     329.205E-03    -163.622E-03     91.8501E-03    -166.628E-03     329.250E-03    -163.399E-03     85.7700E-03
            1921     3.82188E-03     37.0392E-03    -112.553E+06    -245.362E+06    -66.8092E+06     313.075E+03    -164.998E-03     328.481E-03    -163.483E-03     77.9335E-03    -165.732E-03     328.138E-03    -163.298E-03     72.9898E-03
            1922     3.05796E-03     36.9514E-03    -121.314E+06    -267.661E+06    -86.9792E+06     553.197E+03    -164.376E-03     327.703E-03    -163.327E-03     63.3400E-03    -164.861E-03     327.060E-03    -163.198E-03     59.4802E-03
            1923     2.29356E-03     36.8818E-03    -128.986E+06    -287.103E+06    -107.533E+06     357.617E+03    -163.771E-03     326.954E-03    -163.183E-03     48.3161E-03    -164.065E-03     326.083E-03    -163.118E-03     45.4686E-03
            1924     1.52914E-03     36.8308E-03    -135.121E+06    -305.941E+06    -124.608E+06     181.339E+03    -163.360E-03     326.440E-03    -163.080E-03     32.9433E-03    -163.514E-03     325.390E-03    -163.064E-03     31.0541E-03
            1925     765.023E-06     36.8000E-03    -139.269E+06    -318.259E+06    -136.291E+06    -19.4972E+03    -163.141E-03     326.114E-03    -162.973E-03     18.0609E-03    -163.211E-03     324.956E-03    -162.991E-03     17.0414E-03
            1926     14.5041E-03     37.8131E-03    -5.02077E+06     96.2990E+06     97.1195E+06    -93.5488E+03    -165.811E-03     330.821E-03    -165.010E-03     66.5629E-03    -167.789E-03     332.841E-03    -164.656E-03     57.1081E-03
            1927     13.7437E-03     37.7025E-03    -10.9584E+06     92.3170E+06     97.8296E+06    -502.349E+03    -165.725E-03     330.670E-03    -164.944E-03     98.8972E-03    -168.676E-03     333.625E-03    -164.573E-03     87.0572E-03
            1928     12.9784E-03     37.5854E-03    -17.1803E+06     84.3788E+06     92.6180E+06    -172.722E+03    -166.273E-03     331.130E-03    -164.857E-03     112.139E-03    -169.590E-03     334.417E-03    -164.492E-03     99.8680E-03
            1929     12.2173E-03     37.4407E-03    -24.0472E+06     77.4572E+06     81.6631E+06     198.501E+03    -167.115E-03     331.839E-03    -164.724E-03     127.964E-03    -170.924E-03     335.601E-03    -164.393E-03     115.039E-03
            1930     11.4546E-03     37.2813E-03    -30.6632E+06     70.4811E+06     70.4219E+06     442.964E+03    -167.602E-03     332.176E-03    -164.574E-03     138.296E-03    -171.679E-03     336.190E-03    -164.279E-03     125.109E-03
            1931     10.6923E-03     37.1100E-03    -37.3247E+06     58.1859E+06     63.4539E+06     733.298E+03    -168.049E-03     332.494E-03    -164.445E-03     145.905E-03    -172.250E-03     336.586E-03    -164.158E-03     132.649E-03
            1932     9.93018E-03     36.9301E-03    -44.6910E+06     30.3835E+06     55.4544E+06     377.710E+03    -168.216E-03     332.548E-03    -164.332E-03     149.261E-03    -172.320E-03     336.440E-03    -164.034E-03     136.231E-03
            1933     9.16714E-03     36.7495E-03    -52.5084E+06    -13.0476E+06     42.2398E+06     60.1429E+03    -168.204E-03     332.421E-03    -164.217E-03     148.348E-03    -172.000E-03     335.862E-03    -163.911E-03     135.833E-03
            1934     8.40440E-03     36.5707E-03    -60.2710E+06    -55.9683E+06     27.5531E+06    -26.6901E+03    -168.200E-03     332.289E-03    -164.089E-03     143.916E-03    -171.555E-03     335.151E-03    -163.783E-03     132.169E-03
            1935     7.64141E-03     36.3988E-03    -68.2412E+06    -91.7228E+06     13.2799E+06     50.7386E+03    -167.906E-03     331.849E-03    -163.942E-03     136.664E-03    -170.758E-03     334.094E-03    -163.644E-03     125.908E-03
            1936     6.87807E-03     36.2374E-03    -76.4904E+06    -127.488E+06    -1.64548E+06     208.624E+03    -167.369E-03     331.161E-03    -163.792E-03     127.120E-03    -169.698E-03     332.771E-03    -163.504E-03     117.499E-03
            1937     6.11481E-03     36.0876E-03    -85.0131E+06    -159.509E+06    -16.4957E+06     26.1296E+03    -166.796E-03     330.434E-03    -163.638E-03     116.134E-03    -168.637E-03     331.455E-03    -163.366E-03     107.703E-03
            1938     5.35105E-03     35.9515E-03    -94.1570E+06    -188.649E+06    -32.1591E+06    -74.8498E+03    -166.122E-03     329.601E-03    -163.479E-03     104.093E-03    -167.532E-03     330.100E-03    -163.230E-03     96.8651E-03
            1939     4.58735E-03     35.8306E-03    -103.266E+06    -218.818E+06    -48.7356E+06     99.5531E+03    -165.377E-03     328.705E-03    -163.327E-03     91.1300E-03    -166.413E-03     328.738E-03    -163.104E-03     85.0839E-03
            1940     3.82325E-03     35.7255E-03    -112.235E+06    -245.650E+06    -66.8207E+06     194.070E+03    -164.639E-03     327.820E-03    -163.181E-03     77.3304E-03    -165.365E-03     327.469E-03    -162.996E-03     72.4159E-03
            1941     3.05889E-03     35.6384E-03    -120.837E+06    -267.720E+06    -86.9070E+06     178.951E+03    -164.029E-03     327.064E-03    -163.034E-03     63.1164E-03    -164.510E-03     326.417E-03    -162.905E-03     59.2695E-03
            1942     2.29462E-03     35.5693E-03    -128.832E+06    -286.849E+06    -106.955E+06     297.729E+03    -163.481E-03     326.380E-03    -162.899E-03     48.1605E-03    -163.774E-03     325.508E-03    -162.831E-03     45.3258E-03
            1943     1.52961E-03     35.5195E-03    -135.274E+06    -305.838E+06    -124.095E+06     212.186E+03    -163.005E-03     325.822E-03    -162.817E-03     32.8617E-03    -163.159E-03     324.771E-03    -162.798E-03     30.9812E-03
            1944     764.292E-06     35.4875E-03    -138.626E+06    -318.052E+06    -135.950E+06    -152.791E+03    -162.946E-03     325.629E-03    -162.683E-03     17.8393E-03    -163.013E-03     324.470E-03    -162.701E-03     16.8327E-03
            1945     14.5050E-03     36.4925E-03    -4.73559E+06     96.4629E+06     97.4247E+06    -45.9297E+03    -165.695E-03     330.703E-03    -165.009E-03     67.1407E-03    -167.676E-03     332.728E-03    -164.655E-03     57.6889E-03
            1946     13.7400E-03     36.3834E-03    -10.7942E+06     92.3557E+06     97.8491E+06     217.869E+03    -166.104E-03     331.040E-03    -164.937E-03     99.2473E-03    -169.052E-03     333.995E-03    -164.566E-03     87.3968E-03
            1947     12.9802E-03     36.2644E-03    -17.7428E+06     83.7202E+06     92.2437E+06     192.347E+03    -166.840E-03     331.660E-03    -164.821E-03     111.507E-03    -170.147E-03     334.935E-03    -164.455E-03     99.2058E-03
            1948     12.2178E-03     36.1202E-03    -24.1541E+06     77.2028E+06     81.7070E+06     286.618E+03    -167.343E-03     332.002E-03    -164.659E-03     127.275E-03    -171.135E-03     335.746E-03    -164.327E-03     114.352E-03
            1949     11.4559E-03     35.9624E-03    -30.8154E+06     70.1895E+06     70.1919E+06     189.292E+03    -167.792E-03     332.279E-03    -164.487E-03     137.781E-03    -171.850E-03     336.273E-03    -164.194E-03     124.600E-03
            1950     10.6937E-03     35.7901E-03     -37.499E+06     58.0213E+06     63.3243E+06    -26.9554E+03    -168.125E-03     332.467E-03    -164.342E-03     145.384E-03    -172.306E-03     336.537E-03    -164.055E-03     132.141E-03
            1951     9.93096E-03     35.6124E-03    -44.4483E+06     30.5775E+06     55.5859E+06     125.852E+03    -168.318E-03     332.529E-03    -164.210E-03     148.524E-03    -172.399E-03     336.399E-03    -163.912E-03     135.512E-03
            1952     9.16850E-03     35.4313E-03     -52.127E+06    -12.8265E+06     42.5077E+06     188.455E+03    -168.422E-03     332.491E-03    -164.069E-03     147.619E-03    -172.198E-03     335.913E-03    -163.762E-03     135.119E-03
            1953     8.40587E-03     35.2537E-03    -60.2581E+06    -55.7954E+06     27.7017E+06     51.7443E+03    -168.277E-03     332.187E-03    -163.910E-03     143.198E-03    -171.614E-03     335.031E-03    -163.603E-03     131.479E-03
            1954     7.64282E-03     35.0824E-03    -68.5480E+06    -92.0445E+06     13.2575E+06     169.067E+03    -167.871E-03     331.608E-03    -163.738E-03     135.701E-03    -170.703E-03     333.832E-03    -163.438E-03     124.983E-03
            1955     6.87984E-03     34.9215E-03     -77.058E+06    -127.523E+06    -1.87771E+06     135.237E+03    -167.374E-03     330.932E-03    -163.558E-03     126.220E-03    -169.689E-03     332.526E-03    -163.270E-03     116.630E-03
            1956     6.11649E-03     34.7725E-03    -85.5407E+06    -159.616E+06    -16.8127E+06     151.893E+03    -166.732E-03     330.104E-03    -163.372E-03     115.373E-03    -168.562E-03     331.112E-03    -163.100E-03     106.975E-03
            1957     5.35295E-03     34.6375E-03    -94.1146E+06    -188.780E+06    -32.0762E+06     309.543E+03    -165.945E-03     329.133E-03    -163.188E-03     103.465E-03    -167.344E-03     329.620E-03    -162.938E-03     96.2786E-03
            1958     4.58890E-03     34.5169E-03    -103.150E+06    -218.791E+06    -48.7270E+06     119.227E+03    -165.097E-03     328.118E-03    -163.021E-03     90.6979E-03    -166.125E-03     328.144E-03    -162.798E-03     84.6862E-03
            1959     3.82450E-03     34.4133E-03    -112.172E+06    -245.734E+06    -66.4088E+06     82.3517E+03    -164.273E-03     327.152E-03    -162.879E-03     77.0387E-03    -164.994E-03     326.795E-03    -162.692E-03     72.1551E-03
            1960     3.05957E-03     34.3264E-03    -121.375E+06    -268.102E+06    -86.6997E+06     279.904E+03    -163.610E-03     326.362E-03    -162.752E-03     62.7567E-03    -164.090E-03     325.711E-03    -162.621E-03     58.9354E-03
            1961     2.29450E-03     34.2574E-03    -129.461E+06    -286.636E+06    -108.324E+06     369.294E+03    -163.170E-03     325.799E-03    -162.630E-03     47.7622E-03    -163.462E-03     324.929E-03    -162.568E-03     44.9461E-03
            1962     1.53005E-03     34.2081E-03    -135.379E+06    -305.275E+06    -125.355E+06    -77.3334E+03    -162.858E-03     325.372E-03    -162.514E-03     32.5102E-03    -163.011E-03     324.324E-03    -162.502E-03     30.6400E-03
            1963     765.423E-06     34.1767E-03    -139.806E+06    -319.024E+06    -136.614E+06    -97.6449E+03    -162.555E-03     324.954E-03    -162.399E-03     17.7234E-03    -162.626E-03     323.792E-03    -162.416E-03     16.7219E-03
            1964     14.5022E-03     35.1740E-03    -5.18952E+06     95.7627E+06     96.6612E+06     71.7795E+03    -166.085E-03     331.093E-03    -165.009E-03     66.0179E-03    -168.054E-03     333.104E-03    -164.657E-03     56.5454E-03
            1965     13.7432E-03     35.0601E-03    -11.0950E+06     91.9768E+06     97.4807E+06     574.955E+03    -166.660E-03     331.569E-03    -164.909E-03     98.3930E-03    -169.595E-03     334.509E-03    -164.539E-03     86.5179E-03
            1966     12.9806E-03     34.9439E-03    -17.2667E+06     84.0778E+06     92.4916E+06     543.045E+03    -167.105E-03     331.873E-03    -164.767E-03     111.055E-03    -170.400E-03     335.136E-03    -164.402E-03     98.7479E-03
            1967     12.2188E-03     34.8004E-03    -23.9153E+06     77.2940E+06     81.8380E+06     251.945E+03    -167.554E-03     332.140E-03    -164.587E-03     126.942E-03    -171.333E-03     335.872E-03    -164.255E-03     114.015E-03
            1968     11.4568E-03     34.6417E-03    -30.3416E+06     70.4875E+06     70.6273E+06    -18.1387E+03    -167.952E-03     332.350E-03    -164.397E-03     137.316E-03    -171.992E-03     336.327E-03    -164.103E-03     124.141E-03
            1969     10.6946E-03     34.4720E-03    -37.2650E+06     57.9846E+06     63.4819E+06    -213.161E+03    -168.298E-03     332.528E-03    -164.231E-03     144.738E-03    -172.457E-03     336.577E-03    -163.943E-03     131.506E-03
            1970     9.93253E-03     34.2931E-03    -44.8668E+06     30.0198E+06     55.3747E+06    -254.407E+03    -168.521E-03     332.594E-03    -164.073E-03     147.768E-03    -172.581E-03     336.440E-03    -163.774E-03     134.766E-03
            1971     9.17023E-03     34.1140E-03    -52.4886E+06    -12.9173E+06     42.4728E+06    -28.6457E+03    -168.607E-03     332.506E-03    -163.899E-03     146.837E-03    -172.363E-03     335.907E-03    -163.592E-03     134.348E-03
            1972     8.40750E-03     33.9363E-03    -60.4762E+06    -55.8495E+06     27.6135E+06     338.788E+03    -168.389E-03     332.094E-03    -163.705E-03     142.247E-03    -171.704E-03     334.916E-03    -163.398E-03     130.558E-03
            1973     7.64493E-03     33.7664E-03    -68.5903E+06    -92.3290E+06     13.0610E+06     356.000E+03    -167.882E-03     331.382E-03    -163.500E-03     134.798E-03    -170.692E-03     333.583E-03    -163.201E-03     124.120E-03
            1974     6.88163E-03     33.6061E-03    -76.7043E+06    -127.352E+06    -1.69103E+06     319.348E+03    -167.241E-03     330.537E-03    -163.296E-03     125.487E-03    -169.537E-03     332.114E-03    -163.009E-03     115.944E-03
            1975     6.11819E-03     33.4581E-03    -85.2667E+06    -159.651E+06    -16.8599E+06     194.368E+03    -166.503E-03     329.598E-03    -163.095E-03     114.703E-03    -168.317E-03     330.592E-03    -162.824E-03     106.354E-03
            1976     5.35429E-03     33.3237E-03    -94.0175E+06    -189.025E+06    -32.0311E+06     130.727E+03    -165.650E-03     328.556E-03    -162.906E-03     102.895E-03    -167.038E-03     329.032E-03    -162.656E-03     95.7466E-03
            1977     4.59002E-03     33.2046E-03    -102.898E+06    -218.592E+06    -48.2795E+06     413.224E+03    -164.806E-03     327.543E-03    -162.738E-03     90.1299E-03    -165.825E-03     327.561E-03    -162.513E-03     84.1603E-03
            1978     3.82532E-03     33.1014E-03    -112.335E+06    -245.936E+06    -66.4844E+06     392.327E+03    -164.095E-03     326.672E-03    -162.577E-03     76.4393E-03    -164.810E-03     326.309E-03    -162.390E-03     71.5883E-03
            1979     3.06083E-03     33.0151E-03    -121.539E+06    -268.292E+06    -86.8079E+06     394.973E+03    -163.383E-03     325.803E-03    -162.420E-03     62.0376E-03    -163.858E-03     325.146E-03    -162.289E-03     58.2454E-03
            1980     2.29589E-03     32.9470E-03    -129.173E+06    -286.291E+06    -108.118E+06     368.355E+03    -162.788E-03     325.074E-03    -162.286E-03     47.3035E-03    -163.077E-03     324.201E-03    -162.224E-03     44.5119E-03
            1981     1.53042E-03     32.8967E-03    -135.067E+06    -305.049E+06    -125.215E+06     490.760E+03    -162.507E-03     324.684E-03    -162.177E-03     32.1829E-03    -162.658E-03     323.635E-03    -162.165E-03     30.3326E-03
            1982     765.239E-06     32.8669E-03    -139.715E+06    -318.895E+06    -136.608E+06     276.133E+03    -162.349E-03     324.279E-03    -161.931E-03     17.3760E-03    -162.418E-03     323.117E-03    -161.949E-03     16.3852E-03
            1983     14.5060E-03     33.8499E-03    -5.64715E+06     95.2441E+06     96.3028E+06     263.654E+03    -166.703E-03     331.696E-03    -164.993E-03     66.4821E-03    -168.680E-03     333.711E-03    -164.641E-03     56.9813E-03
            1984     13.7423E-03     33.7407E-03    -11.1454E+06     91.7619E+06     97.4560E+06     372.387E+03    -166.883E-03     331.754E-03    -164.871E-03     98.6346E-03    -169.817E-03     334.692E-03    -164.501E-03     86.7474E-03
            1985     12.9808E-03     33.6220E-03    -16.9828E+06     84.1675E+06     92.8130E+06     431.651E+03    -167.259E-03     331.976E-03    -164.717E-03     110.875E-03    -170.537E-03     335.223E-03    -164.350E-03     98.5867E-03
            1986     12.2199E-03     33.4796E-03    -23.2195E+06     77.8325E+06     82.4509E+06     232.972E+03    -167.870E-03     332.387E-03    -164.518E-03     126.364E-03    -171.632E-03     336.104E-03    -164.185E-03     113.426E-03
            1987     11.4578E-03     33.3226E-03    -29.9683E+06     70.6790E+06     70.9358E+06    -22.5152E+03    -168.248E-03     332.548E-03    -164.301E-03     136.669E-03    -172.267E-03     336.507E-03    -164.005E-03     123.492E-03
            1988     10.6962E-03     33.1517E-03    -36.9355E+06     57.8636E+06     63.5297E+06    -92.7113E+03    -168.543E-03     332.647E-03    -164.104E-03     143.871E-03    -172.677E-03     336.671E-03    -163.816E-03     130.650E-03
            1989     9.93405E-03     32.9753E-03    -44.3222E+06     29.7828E+06     55.3873E+06     44.6466E+03    -168.715E-03     332.630E-03    -163.915E-03     147.018E-03    -172.748E-03     336.451E-03    -163.617E-03     134.036E-03
            1990     9.17165E-03     32.7954E-03    -52.4454E+06    -13.4168E+06     42.2488E+06     250.625E+03    -168.736E-03     332.447E-03    -163.711E-03     146.042E-03    -172.468E-03     335.823E-03    -163.405E-03     133.584E-03
            1991     8.40967E-03     32.6196E-03    -60.5006E+06    -56.0418E+06     27.4676E+06     288.282E+03    -168.421E-03     331.909E-03    -163.488E-03     141.462E-03    -171.714E-03     334.709E-03    -163.182E-03     129.807E-03
            1992     7.64663E-03     32.4503E-03    -68.4562E+06    -92.4020E+06     13.0407E+06     246.075E+03    -167.837E-03     331.095E-03    -163.258E-03     134.143E-03    -170.627E-03     333.277E-03    -162.960E-03     123.506E-03
            1993     6.88361E-03     32.2914E-03    -76.6138E+06    -127.404E+06    -1.49762E+06     349.129E+03    -167.094E-03     330.130E-03    -163.036E-03     124.802E-03    -169.373E-03     331.689E-03    -162.747E-03     115.305E-03
            1994     6.11989E-03     32.1442E-03    -85.0299E+06    -158.898E+06    -16.3430E+06     451.637E+03    -166.263E-03     329.085E-03    -162.822E-03     113.996E-03    -168.063E-03     330.067E-03    -162.550E-03     105.698E-03
            1995     5.35585E-03     32.0111E-03    -94.0138E+06    -189.399E+06    -32.2943E+06     270.378E+03    -165.441E-03     328.059E-03    -162.617E-03     101.971E-03    -166.814E-03     328.519E-03    -162.368E-03     94.8696E-03
            1996     4.59137E-03     31.8926E-03    -103.064E+06    -219.262E+06    -48.6183E+06     380.016E+03    -164.635E-03     327.060E-03    -162.425E-03     89.1714E-03    -165.643E-03     327.065E-03    -162.200E-03     83.2358E-03
            1997     3.82693E-03     31.7900E-03    -111.901E+06    -245.638E+06    -66.6066E+06     653.377E+03    -163.850E-03     326.085E-03    -162.235E-03     75.6724E-03    -164.556E-03     325.715E-03    -162.050E-03     70.8567E-03
            1998     3.06183E-03     31.7046E-03    -120.539E+06    -267.913E+06    -86.8610E+06     359.565E+03    -163.137E-03     325.185E-03    -162.048E-03     61.4787E-03    -163.603E-03     324.523E-03    -161.919E-03     57.7160E-03
            1999     2.29650E-03     31.6372E-03    -128.253E+06    -286.533E+06    -106.584E+06     185.435E+03    -162.495E-03     324.379E-03    -161.884E-03     46.9342E-03    -162.779E-03     323.500E-03    -161.816E-03     44.1602E-03
            2000     1.53118E-03     31.5874E-03    -134.572E+06    -304.984E+06    -123.223E+06     421.170E+03    -161.953E-03     323.750E-03    -161.797E-03     31.8798E-03    -162.103E-03     322.697E-03    -161.776E-03     30.0435E-03
            2001     765.613E-06     31.5571E-03    -138.599E+06    -317.599E+06    -135.545E+06     619.665E+03    -161.991E-03     323.586E-03    -161.594E-03     17.3824E-03    -162.058E-03     322.426E-03    -161.611E-03     16.4082E-03
            2002     14.5023E-03     32.5278E-03    -5.31376E+06     94.9663E+06     96.4593E+06     528.060E+03    -166.880E-03     331.874E-03    -164.994E-03     67.0259E-03    -168.854E-03     333.886E-03    -164.641E-03     57.5108E-03
            2003     13.7434E-03     32.4182E-03    -10.8706E+06     91.9439E+06     97.7378E+06     189.728E+03    -167.507E-03     332.355E-03    -164.848E-03     97.9178E-03    -170.431E-03     335.283E-03    -164.477E-03     85.9828E-03
            2004     12.9824E-03     32.3011E-03    -16.9182E+06     84.0569E+06     93.0428E+06    -38.3429E+03    -167.653E-03     332.314E-03    -164.662E-03     110.265E-03    -170.916E-03     335.546E-03    -164.294E-03     97.9595E-03
            2005     12.2201E-03     32.1587E-03    -23.3610E+06     77.4730E+06     82.3998E+06    -94.8148E+03    -168.118E-03     332.554E-03    -164.436E-03     125.651E-03    -171.859E-03     336.248E-03    -164.103E-03     112.716E-03
            2006     11.4594E-03     32.0016E-03    -29.7249E+06     70.7410E+06     70.9674E+06     118.618E+03    -168.541E-03     332.734E-03    -164.192E-03     135.886E-03    -172.539E-03     336.671E-03    -163.897E-03     122.709E-03
            2007     10.6976E-03     31.8329E-03    -36.8033E+06     57.6716E+06     63.4797E+06     187.180E+03    -168.792E-03     332.757E-03    -163.965E-03     143.272E-03    -172.906E-03     336.761E-03    -163.678E-03     130.059E-03
            2008     9.93571E-03     31.6562E-03    -44.6793E+06     29.4106E+06     55.1153E+06     411.355E+03    -168.927E-03     332.672E-03    -163.745E-03     146.235E-03    -172.938E-03     336.470E-03    -163.448E-03     133.275E-03
            2009     9.17399E-03     31.4779E-03    -52.6184E+06    -13.3390E+06     42.1260E+06     486.772E+03    -168.735E-03     332.250E-03    -163.515E-03     145.196E-03    -172.441E-03     335.599E-03    -163.208E-03     132.785E-03
            2010     8.41106E-03     31.3028E-03    -60.4917E+06    -56.0134E+06     27.5331E+06     216.985E+03    -168.326E-03     331.600E-03    -163.274E-03     140.659E-03    -171.594E-03     334.375E-03    -162.968E-03     129.053E-03
            2011     7.64853E-03     31.1348E-03    -68.7640E+06    -92.2909E+06     13.1386E+06     385.710E+03    -167.743E-03     330.772E-03    -163.028E-03     133.329E-03    -170.516E-03     332.934E-03    -162.729E-03     122.737E-03
            2012     6.88516E-03     30.9769E-03    -77.3971E+06    -127.313E+06    -2.05039E+06     330.853E+03    -167.006E-03     329.788E-03    -162.781E-03     123.963E-03    -169.271E-03     331.331E-03    -162.495E-03     114.509E-03
            2013     6.12152E-03     30.8311E-03    -85.8093E+06    -159.370E+06    -16.9847E+06     125.334E+03    -166.157E-03     328.699E-03    -162.542E-03     113.097E-03    -167.943E-03     329.664E-03    -162.271E-03     104.837E-03
            2014     5.35745E-03     30.6986E-03    -94.2161E+06    -189.318E+06    -32.3278E+06     503.806E+03    -165.319E-03     327.628E-03    -162.309E-03     101.203E-03    -166.680E-03     328.076E-03    -162.059E-03     94.1447E-03
            2015     4.59329E-03     30.5813E-03    -103.181E+06    -219.102E+06    -49.1808E+06     304.544E+03    -164.476E-03     326.555E-03    -162.079E-03     88.4503E-03    -165.475E-03     326.553E-03    -161.858E-03     82.5473E-03
            2016     3.82820E-03     30.4797E-03    -111.963E+06    -245.802E+06    -67.0983E+06     78.8939E+03    -163.549E-03     325.412E-03    -161.863E-03     74.9744E-03    -164.247E-03     325.035E-03    -161.680E-03     70.1859E-03
            2017     3.06300E-03     30.3951E-03    -120.279E+06    -267.690E+06    -86.7541E+06     330.554E+03    -162.802E-03     324.461E-03    -161.659E-03     60.9181E-03    -163.262E-03     323.795E-03    -161.530E-03     57.1838E-03
            2018     2.29779E-03     30.3279E-03    -128.179E+06    -286.498E+06    -106.693E+06     124.815E+03    -162.162E-03     323.632E-03    -161.470E-03     46.3490E-03    -162.442E-03     322.749E-03    -161.402E-03     43.5962E-03
            2019     1.53196E-03     30.2794E-03    -134.581E+06    -304.910E+06    -123.337E+06    -196.753E+03    -161.536E-03     322.897E-03    -161.361E-03     31.5839E-03    -161.684E-03     321.843E-03    -161.341E-03     29.7537E-03
            2020     765.580E-06     30.2492E-03    -138.911E+06    -317.399E+06    -134.921E+06     121.615E+03    -161.419E-03     322.703E-03    -161.284E-03     17.5253E-03    -161.489E-03     321.544E-03    -161.297E-03     16.5516E-03
            2021     14.5053E-03     31.2045E-03    -4.80969E+06     94.9332E+06     96.9806E+06     493.608E+03    -167.298E-03     332.258E-03    -164.960E-03     65.7566E-03    -169.247E-03     334.246E-03    -164.606E-03     56.2635E-03
            2022     13.7432E-03     31.0948E-03    -10.4899E+06     92.1019E+06     98.1636E+06     131.916E+03    -167.557E-03     332.355E-03    -164.798E-03     96.8112E-03    -170.457E-03     335.260E-03    -164.425E-03     84.8890E-03
            2023     12.9824E-03     30.9797E-03    -16.8224E+06     83.9856E+06     93.0942E+06    -125.810E+03    -168.022E-03     332.613E-03    -164.592E-03     109.375E-03    -171.268E-03     335.829E-03    -164.224E-03     97.0438E-03
            2024     12.2223E-03     30.8373E-03    -23.3433E+06     77.2665E+06     82.2615E+06    -95.3859E+03    -168.319E-03     332.661E-03    -164.342E-03     125.123E-03    -172.038E-03     336.333E-03    -164.009E-03     112.202E-03
            2025     11.4604E-03     30.6815E-03    -30.1935E+06     70.0232E+06     70.3752E+06     140.845E+03    -168.710E-03     332.787E-03    -164.077E-03     135.298E-03    -172.687E-03     336.701E-03    -163.783E-03     122.138E-03
            2026     10.6990E-03     30.5132E-03    -37.3002E+06     57.0905E+06     62.9918E+06     643.238E+03    -169.037E-03     332.862E-03    -163.825E-03     142.549E-03    -173.127E-03     336.840E-03    -163.539E-03     129.358E-03
            2027     9.93770E-03     30.3370E-03    -44.7587E+06     29.5139E+06     55.0256E+06     795.295E+03    -168.980E-03     332.560E-03    -163.581E-03     145.582E-03    -172.966E-03     336.333E-03    -163.283E-03     132.664E-03
            2028     9.17530E-03     30.1608E-03    -52.5664E+06    -13.0165E+06     42.2238E+06     506.402E+03    -168.757E-03     332.087E-03    -163.331E-03     144.618E-03    -172.442E-03     335.417E-03    -163.025E-03     132.242E-03
            2029     8.41325E-03     29.9861E-03    -60.7625E+06    -55.8985E+06     27.3601E+06     576.857E+03    -168.339E-03     331.408E-03    -163.069E-03     139.921E-03    -171.586E-03     334.162E-03    -162.763E-03     128.362E-03
            2030     7.65013E-03     29.8200E-03    -68.9604E+06    -92.5231E+06     12.7622E+06     501.122E+03    -167.713E-03     330.510E-03    -162.797E-03     132.392E-03    -170.462E-03     332.649E-03    -162.499E-03     121.847E-03
            2031     6.88696E-03     29.6626E-03    -76.8590E+06    -126.907E+06    -1.88992E+06     455.497E+03    -166.956E-03     329.480E-03    -162.523E-03     122.926E-03    -169.198E-03     331.004E-03    -162.237E-03     113.517E-03
            2032     6.12343E-03     29.5183E-03    -85.4085E+06    -159.358E+06    -17.1220E+06     269.447E+03    -166.076E-03     328.328E-03    -162.252E-03     112.088E-03    -167.843E-03     329.276E-03    -161.983E-03     103.872E-03
            2033     5.35923E-03     29.3870E-03    -94.2912E+06    -189.767E+06    -32.5183E+06     156.565E+03    -165.162E-03     327.151E-03    -161.989E-03     100.362E-03    -166.511E-03     327.586E-03    -161.740E-03     93.3346E-03
            2034     4.59447E-03     29.2703E-03    -103.089E+06    -218.361E+06    -48.8391E+06     363.653E+03    -164.220E-03     325.954E-03    -161.735E-03     87.5554E-03    -165.209E-03     325.944E-03    -161.513E-03     81.6945E-03
            2035     3.82982E-03     29.1703E-03    -112.379E+06    -245.794E+06    -67.1702E+06     75.6397E+03    -163.311E-03     324.802E-03    -161.490E-03     74.2157E-03    -164.004E-03     324.418E-03    -161.307E-03     69.4605E-03
            2036     3.06436E-03     29.0863E-03    -121.216E+06    -268.419E+06    -87.1207E+06     148.644E+03    -162.447E-03     323.709E-03    -161.262E-03     60.3902E-03    -162.906E-03     323.037E-03    -161.132E-03     56.6796E-03
            2037     2.29843E-03     29.0198E-03    -129.141E+06    -285.587E+06    -108.600E+06     513.293E+03    -161.729E-03     322.787E-03    -161.058E-03     45.8781E-03    -162.009E-03     321.910E-03    -160.999E-03     43.1551E-03
            2038     1.53238E-03     28.9724E-03    -135.475E+06    -304.826E+06    -126.183E+06     65.0731E+03    -161.309E-03     322.197E-03    -160.888E-03     31.1919E-03    -161.457E-03     321.148E-03    -160.880E-03     29.3816E-03
            2039     766.593E-06     28.9418E-03    -138.800E+06    -318.178E+06    -136.793E+06    -562.013E+03    -161.195E-03     321.655E-03    -160.461E-03     17.2423E-03    -161.259E-03     320.495E-03    -160.482E-03     16.2604E-03
            2040     14.5060E-03     29.8842E-03    -4.97922E+06     94.6272E+06     97.0377E+06     183.605E+03    -168.056E-03     332.969E-03    -164.913E-03     65.7402E-03    -170.003E-03     334.952E-03    -164.557E-03     56.2144E-03
            2041     13.7448E-03     29.7727E-03    -10.3172E+06     92.0117E+06     98.3590E+06     83.7831E+03    -167.620E-03     332.345E-03    -164.726E-03     96.6510E-03    -170.502E-03     335.232E-03    -164.352E-03     84.7625E-03
            2042     12.9844E-03     29.6568E-03    -16.5116E+06     84.0052E+06     93.1750E+06     155.905E+03    -167.886E-03     332.402E-03    -164.517E-03     108.930E-03    -171.109E-03     335.596E-03    -164.149E-03     96.6491E-03
            2043     12.2226E-03     29.5167E-03    -23.4861E+06     76.9030E+06     82.0615E+06     413.445E+03    -168.575E-03     332.833E-03    -164.258E-03     124.975E-03    -172.283E-03     336.493E-03    -163.925E-03     112.059E-03
            2044     11.4617E-03     29.3608E-03    -30.4874E+06     69.4749E+06     70.2420E+06     588.544E+03    -169.010E-03     332.979E-03    -163.969E-03     134.899E-03    -172.967E-03     336.871E-03    -163.675E-03     121.756E-03
            2045     10.7009E-03     29.1928E-03    -37.5042E+06     56.5773E+06     62.6666E+06     695.521E+03    -169.053E-03     332.749E-03    -163.696E-03     141.985E-03    -173.117E-03     336.700E-03    -163.411E-03     128.836E-03
            2046     9.93872E-03     29.0194E-03    -44.8549E+06     29.6352E+06     54.8214E+06     747.277E+03    -169.000E-03     332.439E-03    -163.439E-03     145.103E-03    -172.967E-03     336.193E-03    -163.142E-03     132.217E-03
            2047     9.17698E-03     28.8424E-03    -52.6672E+06    -12.7614E+06     42.1166E+06     860.645E+03    -168.878E-03     332.046E-03    -163.169E-03     143.890E-03    -172.541E-03     335.355E-03    -162.863E-03     131.547E-03
            2048     8.41445E-03     28.6704E-03    -60.5629E+06    -55.5911E+06     27.3137E+06      746.23E+03    -168.479E-03     331.354E-03    -162.875E-03     139.047E-03    -171.704E-03     334.087E-03    -162.570E-03     127.515E-03
            2049     7.65200E-03     28.5044E-03    -68.4326E+06    -92.2765E+06     12.7870E+06     431.201E+03    -167.820E-03     330.387E-03    -162.566E-03     131.422E-03    -170.546E-03     332.505E-03    -162.269E-03     120.905E-03
            2050     6.88895E-03     28.3493E-03    -76.8467E+06    -127.134E+06    -1.93767E+06     388.506E+03    -166.922E-03     329.180E-03    -162.258E-03     121.840E-03    -169.143E-03     330.682E-03    -161.972E-03     112.470E-03
            2051     6.12501E-03     28.2057E-03    -85.3276E+06    -158.821E+06    -16.9208E+06     665.632E+03    -165.994E-03     327.946E-03    -161.953E-03     111.069E-03    -167.745E-03     328.880E-03    -161.683E-03     102.897E-03
            2052     5.36104E-03     28.0759E-03    -94.0912E+06    -189.643E+06    -32.6866E+06     429.226E+03    -164.990E-03     326.646E-03    -161.656E-03     99.2531E-03    -166.323E-03     327.066E-03    -161.408E-03     92.2717E-03
            2053     4.59653E-03     27.9606E-03    -103.317E+06    -218.491E+06    -48.9106E+06     409.900E+03    -163.923E-03     325.302E-03    -161.379E-03     86.6178E-03    -164.902E-03     325.280E-03    -161.157E-03     80.8009E-03
            2054     3.83097E-03     27.8614E-03    -112.598E+06    -245.532E+06    -67.0784E+06     618.389E+03    -163.008E-03     324.124E-03    -161.115E-03     73.3877E-03    -163.695E-03     323.734E-03    -160.932E-03     68.6716E-03
            2055     3.06555E-03     27.7784E-03    -121.790E+06    -268.857E+06     -87.782E+06     490.101E+03    -162.107E-03     322.970E-03    -160.863E-03     59.5507E-03    -162.562E-03     322.293E-03    -160.736E-03     55.8703E-03
            2056     2.29946E-03     27.7136E-03    -129.182E+06    -285.398E+06    -108.648E+06     537.760E+03    -161.381E-03     322.017E-03    -160.635E-03     45.2969E-03    -161.659E-03     321.138E-03    -160.577E-03     42.5968E-03
            2057     1.53328E-03     27.6651E-03    -134.686E+06    -303.911E+06    -125.408E+06     575.429E+03    -160.933E-03     321.363E-03    -160.430E-03     30.7699E-03    -161.077E-03     320.314E-03    -160.421E-03     28.9873E-03
            2058     766.861E-06     27.6366E-03    -139.095E+06    -318.301E+06    -136.755E+06    -55.6318E+03    -160.670E-03     320.689E-03    -160.019E-03     17.0783E-03    -160.735E-03     319.528E-03    -160.040E-03     16.1016E-03
            2059     14.5049E-03     28.5573E-03    -4.77906E+06     94.4633E+06     96.8760E+06    -206.493E+03    -168.224E-03     333.138E-03    -164.914E-03     65.8152E-03    -170.172E-03     335.124E-03    -164.560E-03     56.2488E-03
            2060     13.7464E-03     28.4507E-03    -10.1543E+06     92.0086E+06     98.3023E+06     157.688E+03    -168.085E-03     332.797E-03    -164.711E-03     97.5527E-03    -170.974E-03     335.691E-03    -164.339E-03     85.6392E-03
            2061     12.9840E-03     28.3362E-03    -16.9841E+06     83.3118E+06     92.6048E+06     677.664E+03    -168.342E-03     332.820E-03    -164.477E-03     109.844E-03    -171.570E-03     336.014E-03    -164.111E-03     97.5559E-03
            2062     12.2235E-03     28.1944E-03    -23.5109E+06     76.6197E+06     81.8208E+06     894.368E+03    -168.967E-03     333.158E-03    -164.191E-03     124.645E-03    -172.660E-03     336.802E-03    -163.859E-03     111.728E-03
            2063     11.4632E-03     28.0394E-03    -30.1807E+06     69.4723E+06     70.1784E+06     820.635E+03    -169.063E-03     332.946E-03    -163.883E-03     134.438E-03    -173.001E-03     336.820E-03    -163.589E-03     121.320E-03
            2064     10.7013E-03     27.8741E-03    -37.1253E+06     56.5760E+06     62.6437E+06     859.800E+03    -169.180E-03     332.776E-03    -163.597E-03     141.636E-03    -173.227E-03     336.711E-03    -163.312E-03     128.504E-03
            2065     9.94010E-03     27.6999E-03    -44.6478E+06     29.5723E+06     54.7349E+06     935.582E+03    -169.297E-03     332.609E-03    -163.312E-03     144.301E-03    -173.240E-03     336.340E-03    -163.017E-03     131.424E-03
            2066     9.17821E-03     27.5255E-03    -52.3920E+06    -12.4031E+06     42.1695E+06     820.008E+03    -169.061E-03     332.068E-03    -163.007E-03     142.744E-03    -172.697E-03     335.351E-03    -162.702E-03     130.421E-03
            2067     8.41627E-03     27.3536E-03    -60.1498E+06    -55.3084E+06     27.4867E+06     633.055E+03    -168.587E-03     331.266E-03    -162.679E-03     137.873E-03    -171.785E-03     333.974E-03    -162.374E-03     126.368E-03
            2068     7.65375E-03     27.1895E-03    -68.4065E+06    -91.9868E+06     12.9029E+06     737.343E+03    -167.870E-03     330.205E-03    -162.335E-03     130.228E-03    -170.572E-03     332.301E-03    -162.038E-03     119.751E-03
            2069     6.89059E-03     27.0357E-03    -76.8771E+06    -127.040E+06    -2.18553E+06     719.036E+03    -166.978E-03     328.963E-03    -161.985E-03     120.610E-03    -169.176E-03     330.444E-03    -161.700E-03     111.285E-03
            2070     6.12722E-03     26.8939E-03    -85.3247E+06    -159.125E+06    -17.2090E+06     605.030E+03    -165.930E-03     327.569E-03    -161.639E-03     109.833E-03    -167.660E-03     328.481E-03    -161.370E-03     101.707E-03
            2071     5.36291E-03     26.7650E-03    -93.8689E+06    -189.186E+06    -32.5266E+06     870.620E+03    -164.771E-03     326.081E-03    -161.309E-03     97.9882E-03    -166.085E-03     326.484E-03    -161.062E-03     91.0682E-03
            2072     4.59779E-03     26.6520E-03    -102.863E+06    -218.454E+06    -48.9846E+06     872.459E+03    -163.691E-03     324.693E-03    -161.002E-03     85.5056E-03    -164.653E-03     324.657E-03    -160.781E-03     79.7411E-03
            2073     3.83277E-03     26.5530E-03    -112.019E+06    -245.560E+06    -67.1538E+06     964.789E+03    -162.636E-03     323.353E-03    -160.717E-03     72.3047E-03    -163.310E-03     322.952E-03    -160.534E-03     67.6396E-03
            2074     3.06672E-03     26.4722E-03    -120.254E+06    -267.793E+06    -87.2488E+06     665.817E+03    -161.739E-03     322.190E-03    -160.450E-03     58.7140E-03    -162.182E-03     321.508E-03    -160.324E-03     55.0735E-03
            2075     2.30058E-03     26.4070E-03    -127.698E+06    -285.798E+06    -106.622E+06    -32.7168E+03    -161.024E-03     321.234E-03    -160.209E-03     44.8138E-03    -161.295E-03     320.345E-03    -160.143E-03     42.1282E-03
            2076     1.53395E-03     26.3607E-03    -134.079E+06    -303.888E+06    -122.397E+06     476.171E+03    -160.404E-03     320.424E-03    -160.020E-03     30.3920E-03    -160.548E-03     319.368E-03    -159.997E-03     28.6216E-03
            2077     766.854E-06     26.3315E-03    -138.492E+06    -316.895E+06    -134.888E+06     928.149E+03    -160.010E-03     319.888E-03    -159.878E-03     16.2142E-03    -160.077E-03     318.730E-03    -159.892E-03     15.2775E-03
            2078     14.5056E-03     27.2342E-03    -4.84044E+06     93.9602E+06     96.3181E+06    -201.254E+03    -167.883E-03     332.816E-03    -164.933E-03     65.0610E-03    -169.810E-03     334.780E-03    -164.581E-03     55.5490E-03
            2079     13.7427E-03     27.1274E-03    -11.2744E+06     90.6432E+06     96.8521E+06     226.643E+03    -168.391E-03     333.120E-03    -164.729E-03     96.6928E-03    -171.263E-03     335.993E-03    -164.360E-03     84.7719E-03
            2080     12.9844E-03     27.0123E-03    -17.2362E+06     82.8998E+06     92.2879E+06     554.295E+03    -169.142E-03     333.606E-03    -164.464E-03     109.049E-03    -172.363E-03     336.792E-03    -164.098E-03     96.6920E-03
            2081     12.2248E-03     26.8719E-03    -23.4007E+06     76.4263E+06     81.8847E+06     753.330E+03    -169.106E-03     333.254E-03    -164.148E-03     124.150E-03    -172.783E-03     336.881E-03    -163.815E-03     111.239E-03
            2082     11.4630E-03     26.7197E-03    -29.9926E+06     69.3153E+06     70.1194E+06     1.04455E+06    -169.231E-03     333.055E-03    -163.824E-03     134.014E-03    -173.152E-03     336.912E-03    -163.530E-03     120.905E-03
            2083     10.7025E-03     26.5532E-03    -37.0917E+06     56.4394E+06     62.5469E+06     1.16087E+06    -169.628E-03     333.136E-03    -163.508E-03     140.849E-03    -173.655E-03     337.050E-03    -163.224E-03     127.703E-03
            2084     9.94133E-03     26.3811E-03    -44.4009E+06     29.9037E+06     54.8061E+06     1.02360E+06    -169.632E-03     332.815E-03    -163.183E-03     143.203E-03    -173.547E-03     336.519E-03    -162.887E-03     130.331E-03
            2085     9.18003E-03     26.2074E-03    -52.0463E+06    -12.0788E+06     42.2376E+06     813.262E+03    -169.294E-03     332.130E-03    -162.836E-03     141.597E-03    -172.899E-03     335.386E-03    -162.532E-03     129.292E-03
            2086     8.41805E-03     26.0375E-03    -60.2793E+06    -55.3087E+06     27.2948E+06     942.414E+03    -168.715E-03     331.185E-03    -162.470E-03     136.656E-03    -171.882E-03     333.862E-03    -162.166E-03     125.194E-03
            2087     7.65548E-03     25.8747E-03    -68.4355E+06    -92.0224E+06     12.6237E+06     963.855E+03    -167.964E-03     330.050E-03    -162.086E-03     128.801E-03    -170.632E-03     332.112E-03    -161.790E-03     118.378E-03
            2088     6.89269E-03     25.7224E-03    -76.4828E+06    -126.709E+06    -2.07354E+06     936.756E+03    -167.041E-03     328.733E-03    -161.691E-03     119.030E-03    -169.205E-03     330.181E-03    -161.407E-03     109.762E-03
            2089     6.12911E-03     25.5820E-03    -85.0481E+06    -158.924E+06    -17.1751E+06     1.00457E+06    -165.860E-03     327.157E-03    -161.298E-03     108.122E-03    -167.558E-03     328.039E-03    -161.030E-03     100.068E-03
            2090     5.36476E-03     25.4558E-03    -93.8581E+06    -189.425E+06    -32.8240E+06     987.430E+03    -164.615E-03     325.538E-03    -160.924E-03     96.3674E-03    -165.903E-03     325.917E-03    -160.677E-03     89.5142E-03
            2091     4.60013E-03     25.3430E-03    -102.622E+06    -218.232E+06    -49.2294E+06     1.07733E+06    -163.420E-03     323.996E-03    -160.576E-03     83.9536E-03    -164.362E-03     323.942E-03    -160.357E-03     78.2547E-03
            2092     3.83427E-03     25.2468E-03    -111.318E+06    -244.890E+06    -67.0888E+06     775.856E+03    -162.270E-03     322.528E-03    -160.258E-03     70.8854E-03    -162.926E-03     322.114E-03    -160.077E-03     66.2805E-03
            2093     3.06807E-03     25.1661E-03    -119.870E+06    -266.812E+06    -86.3521E+06     443.098E+03    -161.279E-03     321.255E-03    -159.975E-03     57.5417E-03    -161.713E-03     320.566E-03    -159.846E-03     53.9520E-03
            2094     2.30146E-03     25.1024E-03    -127.843E+06    -285.574E+06    -106.773E+06     551.075E+03    -160.491E-03     320.220E-03    -159.729E-03     43.7822E-03    -160.756E-03     319.327E-03    -159.663E-03     41.1448E-03
            2095     1.53445E-03     25.0566E-03    -134.190E+06    -304.294E+06    -124.149E+06     263.776E+03    -159.903E-03     319.445E-03    -159.542E-03     29.6400E-03    -160.042E-03     318.388E-03    -159.527E-03     27.8941E-03
            2096     767.550E-06     25.0280E-03    -138.216E+06    -315.764E+06    -135.096E+06     275.965E+03    -159.389E-03     318.952E-03    -159.563E-03     15.9598E-03    -159.454E-03     317.798E-03    -159.581E-03     15.0390E-03
            2097     14.5044E-03     25.9127E-03    -5.03455E+06     93.6171E+06     96.1091E+06     222.456E+03    -168.457E-03     333.403E-03    -164.945E-03     64.6312E-03    -170.377E-03     335.358E-03    -164.593E-03     55.1017E-03
            2098     13.7460E-03     25.8030E-03    -11.1594E+06     90.4861E+06     96.8566E+06     429.123E+03    -168.783E-03     333.499E-03    -164.715E-03     96.2214E-03    -171.639E-03     336.355E-03    -164.346E-03     84.3012E-03
            2099     12.9852E-03     25.6880E-03    -17.2056E+06     82.5563E+06     92.0702E+06     356.168E+03    -168.894E-03     333.338E-03    -164.444E-03     108.336E-03    -172.089E-03     336.498E-03    -164.078E-03     96.0271E-03
            2100     12.2239E-03     25.5509E-03    -23.8300E+06     75.6856E+06     81.7225E+06     540.249E+03    -169.315E-03     333.442E-03    -164.127E-03     123.604E-03    -172.978E-03     337.052E-03    -163.794E-03     110.684E-03
            2101     11.4641E-03     25.3976E-03    -30.2830E+06     68.7338E+06     70.3275E+06     916.271E+03    -169.870E-03     333.642E-03    -163.772E-03     133.296E-03    -173.775E-03     337.480E-03    -163.476E-03     120.145E-03
            2102     10.7035E-03     25.2328E-03    -36.8050E+06     56.4597E+06     62.7547E+06     1.16500E+06    -170.036E-03     333.446E-03    -163.410E-03     139.784E-03    -174.033E-03     337.331E-03    -163.125E-03     126.636E-03
            2103     9.94269E-03     25.0615E-03    -44.1329E+06     30.2546E+06     54.8078E+06     1.14071E+06    -169.852E-03     332.898E-03    -163.046E-03     142.097E-03    -173.731E-03     336.570E-03    -162.752E-03     129.251E-03
            2104     9.18141E-03     24.8895E-03    -52.1308E+06    -12.0883E+06     41.9336E+06     1.20116E+06    -169.566E-03     332.229E-03    -162.663E-03     140.398E-03    -173.134E-03     335.447E-03    -162.360E-03     128.131E-03
            2105     8.41976E-03     24.7213E-03    -60.0428E+06    -55.1779E+06     27.1934E+06     1.20981E+06    -169.083E-03     331.328E-03    -162.244E-03     135.120E-03    -172.208E-03     333.964E-03    -161.941E-03     123.697E-03
            2106     7.65776E-03     24.5599E-03    -68.0730E+06    -91.5655E+06     12.7061E+06     1.23223E+06    -168.245E-03     330.041E-03    -161.796E-03     126.929E-03    -170.868E-03     332.060E-03    -161.501E-03     116.565E-03
            2107     6.89501E-03     24.4093E-03    -76.4846E+06    -126.626E+06    -2.20918E+06     1.24546E+06    -167.097E-03     328.435E-03    -161.338E-03     116.881E-03    -169.216E-03     329.840E-03    -161.055E-03     107.697E-03
            2108     6.13154E-03     24.2711E-03    -84.8643E+06    -158.813E+06    -17.1957E+06     1.22561E+06    -165.805E-03     326.691E-03    -160.887E-03     105.834E-03    -167.462E-03     327.533E-03    -160.619E-03     97.8666E-03
            2109     5.36746E-03     24.1464E-03    -93.3413E+06    -189.184E+06    -32.7934E+06     1.25685E+06    -164.457E-03     324.911E-03    -160.453E-03     94.2270E-03    -165.712E-03     325.257E-03    -160.208E-03     87.4588E-03
            2110     4.60212E-03     24.0359E-03    -102.088E+06    -217.825E+06    -49.1644E+06     1.06146E+06    -163.112E-03     323.164E-03    -160.051E-03     81.9311E-03    -164.026E-03     323.085E-03    -159.833E-03     76.3183E-03
            2111     3.83647E-03     23.9409E-03    -111.082E+06    -244.035E+06    -66.7516E+06     800.871E+03    -161.914E-03     321.595E-03    -159.681E-03     69.0443E-03    -162.552E-03     321.166E-03    -159.500E-03     64.5116E-03
            2112     3.07020E-03     23.8617E-03    -120.119E+06    -266.480E+06    -86.6720E+06     704.535E+03    -160.818E-03     320.157E-03    -159.339E-03     55.8021E-03    -161.240E-03     319.458E-03    -159.212E-03     52.2799E-03
            2113     2.30299E-03     23.7995E-03    -127.913E+06    -285.445E+06    -106.945E+06     711.976E+03    -159.823E-03     318.882E-03    -159.060E-03     42.3391E-03    -160.079E-03     317.982E-03    -158.995E-03     39.7607E-03
            2114     1.53567E-03     23.7534E-03    -133.691E+06    -303.385E+06    -123.875E+06     806.564E+03    -159.105E-03     318.009E-03    -158.904E-03     28.7072E-03    -159.240E-03     316.951E-03    -158.889E-03     27.0077E-03
            2115     767.566E-06     23.7268E-03    -138.054E+06    -314.804E+06    -135.071E+06     428.241E+03    -158.798E-03     317.744E-03    -158.946E-03     15.7628E-03    -158.863E-03     316.594E-03    -158.965E-03     14.8466E-03
            2116     14.5048E-03     24.5852E-03    -5.15315E+06     93.2126E+06     95.9184E+06     346.859E+03    -168.872E-03     333.833E-03    -164.961E-03     64.7693E-03    -170.788E-03     335.783E-03    -164.609E-03     55.2453E-03
            2117     13.7448E-03     24.4791E-03    -10.4153E+06     90.9117E+06     97.5351E+06     620.382E+03    -168.892E-03     333.612E-03    -164.720E-03     96.4852E-03    -171.747E-03     336.471E-03    -164.349E-03     84.5575E-03
            2118     12.9844E-03     24.3661E-03    -16.9702E+06     82.4414E+06     92.2974E+06     765.076E+03    -169.061E-03     333.501E-03    -164.441E-03     108.253E-03    -172.247E-03     336.653E-03    -164.074E-03     95.9471E-03
            2119     12.2247E-03     24.2275E-03    -23.6125E+06     75.5540E+06     81.7602E+06     685.573E+03    -169.830E-03     333.930E-03    -164.100E-03     122.887E-03    -173.473E-03     337.520E-03    -163.767E-03     109.944E-03
            2120     11.4647E-03     24.0751E-03    -30.2306E+06     68.3709E+06     70.0143E+06     542.361E+03    -170.283E-03     333.992E-03    -163.709E-03     132.481E-03    -174.164E-03     337.806E-03    -163.414E-03     119.309E-03
            2121     10.7047E-03     23.9118E-03    -36.9803E+06     55.7285E+06     62.2110E+06     810.412E+03    -170.401E-03     333.712E-03    -163.311E-03     138.968E-03    -174.368E-03     337.565E-03    -163.028E-03     125.817E-03
            2122     9.94411E-03     23.7420E-03    -44.2384E+06     29.9257E+06     54.3689E+06     1.38556E+06    -170.358E-03     333.260E-03    -162.902E-03     140.827E-03    -174.195E-03     336.889E-03    -162.609E-03     127.998E-03
            2123     9.18303E-03     23.5716E-03    -51.9308E+06    -11.7472E+06     41.8580E+06     1.50438E+06    -170.145E-03     332.599E-03    -162.454E-03     138.486E-03    -173.657E-03     335.763E-03    -162.152E-03     126.253E-03
            2124     8.42200E-03     23.4040E-03    -59.9902E+06    -54.8522E+06     27.0765E+06     1.39826E+06    -169.619E-03     331.573E-03    -161.955E-03     132.675E-03    -172.680E-03     334.149E-03    -161.653E-03     121.308E-03
            2125     7.66046E-03     23.2452E-03    -68.0877E+06    -91.3716E+06     12.6543E+06     1.45293E+06    -168.615E-03     330.033E-03    -161.418E-03     124.116E-03    -171.173E-03     331.988E-03    -161.123E-03     113.835E-03
            2126     6.89808E-03     23.0965E-03    -76.0469E+06    -126.043E+06    -1.99740E+06     1.49222E+06    -167.253E-03     328.124E-03    -160.871E-03     113.829E-03    -169.310E-03     329.469E-03    -160.588E-03     104.752E-03
            2127     6.13483E-03     22.9608E-03    -84.2245E+06    -158.457E+06    -16.9505E+06     1.27527E+06    -165.755E-03     326.090E-03    -160.335E-03     102.763E-03    -167.356E-03     326.879E-03    -160.068E-03     94.9078E-03
            2128     5.37041E-03     22.8379E-03    -92.7028E+06    -188.985E+06    -32.3176E+06     1.22243E+06    -164.241E-03     324.063E-03    -159.823E-03     91.1545E-03    -165.448E-03     324.364E-03    -159.576E-03     84.5018E-03
            2129     4.60549E-03     22.7299E-03    -101.336E+06    -217.170E+06    -48.4078E+06     1.28717E+06    -162.769E-03     322.110E-03    -159.341E-03     79.0294E-03    -163.646E-03     321.997E-03    -159.121E-03     73.5255E-03
            2130     3.83939E-03     22.6362E-03    -110.179E+06    -243.565E+06    -66.2295E+06     1.23870E+06    -161.395E-03     320.289E-03    -158.894E-03     66.5134E-03    -162.005E-03     319.835E-03    -158.712E-03     62.0863E-03
            2131     3.07252E-03     22.5591E-03    -118.522E+06    -265.357E+06    -86.1622E+06     867.378E+03    -160.167E-03     318.648E-03    -158.481E-03     53.6943E-03    -160.566E-03     317.935E-03    -158.355E-03     50.2613E-03
            2132     2.30536E-03     22.4977E-03    -125.972E+06    -285.526E+06    -104.855E+06     568.003E+03    -159.041E-03     317.191E-03    -158.150E-03     40.6389E-03    -159.281E-03     316.274E-03    -158.078E-03     38.1261E-03
            2133     1.53676E-03     22.4541E-03    -132.410E+06    -303.014E+06    -120.676E+06     878.547E+03    -158.246E-03     316.183E-03    -157.937E-03     27.5112E-03    -158.374E-03     315.115E-03    -157.909E-03     25.8636E-03
            2134     768.342E-06     22.4257E-03    -136.358E+06    -312.746E+06    -133.461E+06     845.112E+03    -158.038E-03     315.713E-03    -157.675E-03     15.0443E-03    -158.098E-03     314.566E-03    -157.691E-03     14.1600E-03
            2135     14.5044E-03     23.2615E-03    -5.49158E+06     92.3705E+06     95.2852E+06     464.316E+03    -168.649E-03     333.641E-03    -164.992E-03     65.1096E-03    -170.559E-03     335.583E-03    -164.642E-03     55.6101E-03
            2136     13.7441E-03     23.1546E-03    -11.0688E+06     89.9102E+06     96.7412E+06     402.878E+03    -169.053E-03     333.806E-03    -164.753E-03     95.8744E-03    -171.899E-03     336.652E-03    -164.384E-03     83.9364E-03
            2137     12.9849E-03     23.0422E-03    -16.6903E+06     82.4429E+06     92.5627E+06     672.463E+03    -169.770E-03     334.221E-03    -164.452E-03     108.101E-03    -172.958E-03     337.374E-03    -164.084E-03     95.7245E-03
            2138     12.2253E-03     22.9037E-03    -22.9728E+06     75.7636E+06     81.8831E+06     882.053E+03    -170.359E-03     334.430E-03    -164.071E-03     122.668E-03    -173.987E-03     338.008E-03    -163.738E-03     109.696E-03
            2139     11.4655E-03     22.7531E-03    -29.7329E+06     68.3312E+06     69.6426E+06     958.668E+03    -170.717E-03     334.360E-03    -163.643E-03     131.768E-03    -174.564E-03     338.142E-03    -163.351E-03     118.600E-03
            2140     10.7052E-03     22.5899E-03    -36.9708E+06     54.8733E+06     61.5900E+06     1.06255E+06    -171.150E-03     334.346E-03    -163.196E-03     137.490E-03    -175.065E-03     338.146E-03    -162.914E-03     124.333E-03
            2141     9.94545E-03     22.4218E-03    -44.4140E+06     29.4352E+06     54.0220E+06     1.35708E+06    -171.377E-03     334.080E-03    -162.702E-03     138.532E-03    -175.146E-03     337.639E-03    -162.410E-03     125.699E-03
            2142     9.18591E-03     22.2520E-03    -52.1690E+06    -11.2763E+06     41.7557E+06     1.60998E+06    -171.147E-03     333.287E-03    -162.140E-03     135.432E-03    -174.575E-03     336.369E-03    -161.839E-03     123.237E-03
            2143     8.42554E-03     22.0875E-03    -59.8387E+06    -54.3984E+06     27.1541E+06     1.43757E+06    -170.290E-03     331.809E-03    -161.519E-03     128.956E-03    -173.255E-03     334.291E-03    -161.218E-03     117.683E-03
            2144     7.66444E-03     21.9298E-03    -67.4262E+06    -91.0132E+06     12.9963E+06     1.29839E+06    -168.954E-03     329.821E-03    -160.868E-03     120.033E-03    -171.416E-03     331.683E-03    -160.573E-03     109.883E-03
            2145     6.90260E-03     21.7847E-03    -75.3177E+06    -125.628E+06    -1.51224E+06     1.27274E+06    -167.410E-03     327.619E-03    -160.209E-03     109.746E-03    -169.382E-03     328.882E-03    -159.925E-03     100.810E-03
            2146     6.13943E-03     21.6509E-03    -83.4763E+06    -157.966E+06    -16.2118E+06     1.39339E+06    -165.738E-03     325.294E-03    -159.556E-03     98.6381E-03    -167.266E-03     326.012E-03    -159.287E-03     90.9372E-03
            2147     5.37543E-03     21.5313E-03    -91.9327E+06    -188.513E+06    -31.4395E+06     1.41552E+06    -164.036E-03     322.957E-03    -158.922E-03     87.1143E-03    -165.182E-03     323.200E-03    -158.672E-03     80.6146E-03
            2148     4.60992E-03     21.4248E-03    -100.613E+06    -216.801E+06    -47.7517E+06     1.34801E+06    -162.331E-03     320.645E-03    -158.314E-03     75.0702E-03    -163.159E-03     320.485E-03    -158.093E-03     69.7158E-03
            2149     3.84362E-03     21.3343E-03    -109.169E+06    -242.854E+06    -65.5456E+06     1.31933E+06    -160.654E-03     318.405E-03    -157.751E-03     62.8187E-03    -161.224E-03     317.916E-03    -157.568E-03     58.5362E-03
            2150     3.07627E-03     21.2582E-03    -117.645E+06    -264.252E+06    -85.3116E+06     1.05183E+06    -159.147E-03     316.395E-03    -157.248E-03     50.4185E-03    -159.521E-03     315.660E-03    -157.121E-03     47.1094E-03
            2151     2.30769E-03     21.1993E-03    -125.384E+06    -285.026E+06    -104.445E+06     789.788E+03    -157.959E-03     314.786E-03    -156.827E-03     37.9381E-03    -158.183E-03     313.856E-03    -156.754E-03     35.5286E-03
            2152     1.53927E-03     21.1561E-03    -131.486E+06    -302.663E+06    -120.574E+06     481.848E+03    -157.120E-03     313.591E-03    -156.472E-03     25.8603E-03    -157.237E-03     312.517E-03    -156.445E-03     24.2727E-03
            2153     770.222E-06     21.1287E-03    -135.968E+06    -311.282E+06    -132.802E+06     462.364E+03    -156.326E-03     312.596E-03    -156.270E-03     14.2770E-03    -156.386E-03     311.454E-03    -156.285E-03     13.4276E-03
            2154     14.5029E-03     21.9342E-03    -5.11346E+06     92.2938E+06     95.6959E+06     528.297E+03    -168.666E-03     333.686E-03    -165.019E-03     64.2752E-03    -170.555E-03     335.606E-03    -164.667E-03     54.8079E-03
            2155     13.7440E-03     21.8317E-03    -10.9350E+06     89.6288E+06     96.7679E+06     566.285E+03    -169.086E-03     333.865E-03    -164.779E-03     95.4774E-03    -171.918E-03     336.695E-03    -164.409E-03     83.5596E-03
            2156     12.9840E-03     21.7158E-03    -17.1022E+06     81.5788E+06     91.8688E+06     455.749E+03    -170.080E-03     334.546E-03    -164.466E-03     108.403E-03    -173.270E-03     337.698E-03    -164.100E-03     95.9875E-03
            2157     12.2251E-03     21.5806E-03    -23.2671E+06     74.9826E+06     81.5397E+06     657.022E+03    -171.157E-03     335.210E-03    -164.053E-03     122.052E-03    -174.767E-03     338.767E-03    -163.720E-03     109.016E-03
            2158     11.4659E-03     21.4289E-03    -29.5535E+06     67.9799E+06     69.8292E+06     1.26920E+06    -172.002E-03     335.554E-03    -163.552E-03     130.342E-03    -175.800E-03     339.286E-03    -163.259E-03     117.116E-03
            2159     10.7075E-03     21.2680E-03    -36.3480E+06     54.7747E+06     61.8522E+06     1.71302E+06    -172.647E-03     335.638E-03    -162.991E-03     134.821E-03    -176.474E-03     339.351E-03    -162.708E-03     121.646E-03
            2160     9.94897E-03     21.0993E-03    -43.8732E+06     29.6531E+06     54.1951E+06     1.81819E+06    -172.763E-03     335.120E-03    -162.357E-03     134.885E-03    -176.419E-03     338.568E-03    -162.065E-03     122.087E-03
            2161     9.19009E-03     20.9326E-03    -51.4789E+06    -10.5263E+06     42.2652E+06     1.44974E+06    -172.343E-03     333.984E-03    -161.641E-03     131.057E-03    -175.646E-03     336.944E-03    -161.339E-03     118.944E-03
            2162     8.43105E-03     20.7692E-03    -58.9608E+06    -53.7052E+06     27.7856E+06     1.22459E+06    -171.184E-03     332.040E-03    -160.856E-03     123.796E-03    -174.014E-03     334.390E-03    -160.554E-03     112.663E-03
            2163     7.67076E-03     20.6164E-03    -66.6379E+06    -90.6279E+06     13.5273E+06     1.13017E+06    -169.487E-03     329.525E-03    -160.038E-03     114.456E-03    -171.817E-03     331.258E-03    -159.742E-03     104.493E-03
            2164     6.90879E-03     20.4727E-03    -74.5729E+06    -125.476E+06    -935.117E+03     1.19539E+06    -167.645E-03     326.856E-03    -159.211E-03     103.703E-03    -169.495E-03     327.999E-03    -158.926E-03     94.9822E-03
            2165     6.14621E-03     20.3430E-03    -82.7887E+06    -157.604E+06    -15.5684E+06     1.38798E+06    -165.712E-03     324.095E-03    -158.383E-03     92.4017E-03    -167.133E-03     324.708E-03    -158.112E-03     84.9312E-03
            2166     5.38189E-03     20.2256E-03    -91.1910E+06    -187.939E+06    -30.5935E+06     1.44037E+06    -163.708E-03     321.273E-03    -157.566E-03     80.9558E-03    -164.766E-03     321.430E-03    -157.314E-03     74.6866E-03
            2167     4.61683E-03     20.1226E-03    -99.7222E+06    -216.120E+06    -46.8162E+06     1.40471E+06    -161.585E-03     318.365E-03    -156.781E-03     69.1966E-03    -162.343E-03     318.138E-03    -156.557E-03     64.0680E-03
            2168     3.84998E-03     20.0346E-03    -108.513E+06    -242.269E+06    -64.6749E+06     1.42507E+06    -159.553E-03     315.608E-03    -156.055E-03     57.6763E-03    -160.075E-03     315.073E-03    -155.870E-03     53.5937E-03
            2169     3.08181E-03     19.9614E-03    -116.819E+06    -263.444E+06     -84.776E+06     1.38176E+06    -157.745E-03     313.147E-03    -155.402E-03     46.0213E-03    -158.085E-03     312.383E-03    -155.274E-03     42.8901E-03
            2170     2.31270E-03     19.9044E-03    -124.209E+06    -284.044E+06    -103.934E+06     976.630E+03    -156.287E-03     311.133E-03    -154.847E-03     34.5532E-03    -156.488E-03     310.186E-03    -154.774E-03     32.2794E-03
            2171     1.54225E-03     19.8621E-03    -130.838E+06    -301.893E+06    -120.274E+06     856.103E+03    -155.129E-03     309.528E-03    -154.399E-03     23.3677E-03    -155.237E-03     308.448E-03    -154.373E-03     21.8772E-03
            2172     770.944E-06     19.8373E-03    -135.276E+06    -309.681E+06    -132.376E+06     684.647E+03    -154.464E-03     308.376E-03    -153.912E-03     12.3856E-03    -154.519E-03     307.236E-03    -153.929E-03     11.5991E-03
            2173     14.5048E-03     20.6115E-03    -4.48315E+06     91.5267E+06     95.6724E+06     426.990E+03    -168.821E-03     333.855E-03    -165.034E-03     63.8865E-03    -170.699E-03     335.764E-03    -164.682E-03     54.4348E-03
            2174     13.7435E-03     20.5063E-03    -9.72971E+06     89.5130E+06     97.1087E+06     804.810E+03    -169.207E-03     333.994E-03    -164.787E-03     95.5308E-03    -172.028E-03     336.816E-03    -164.417E-03     83.6099E-03
            2175     12.9841E-03     20.3922E-03    -16.3555E+06     81.7404E+06     92.1855E+06     923.802E+03    -170.680E-03     335.133E-03    -164.454E-03     107.761E-03    -173.843E-03     338.261E-03    -164.087E-03     95.3204E-03
            2176     12.2253E-03     20.2534E-03    -23.2246E+06     74.4162E+06     81.6629E+06     737.060E+03    -172.516E-03     336.491E-03    -163.976E-03     120.502E-03    -176.074E-03     339.994E-03    -163.642E-03     107.395E-03
            2177     11.4681E-03     20.1047E-03    -29.8923E+06     67.0691E+06     69.8973E+06     986.906E+03    -174.117E-03     337.465E-03    -163.348E-03     127.528E-03    -177.830E-03     341.107E-03    -163.052E-03     114.212E-03
            2178     10.7111E-03     19.9416E-03    -36.4638E+06     54.1614E+06     61.9552E+06     1.64513E+06    -174.772E-03     337.379E-03    -162.607E-03     130.666E-03    -178.469E-03     340.959E-03    -162.323E-03     117.476E-03
            2179     9.95437E-03     19.7776E-03    -43.1773E+06     30.6385E+06     54.8338E+06     1.64847E+06    -174.670E-03     336.439E-03    -161.769E-03     129.548E-03    -178.161E-03     339.727E-03    -161.476E-03     116.823E-03
            2180     9.19715E-03     19.6107E-03    -50.2268E+06    -9.46711E+06     43.0897E+06     1.23869E+06    -173.840E-03     334.676E-03    -160.836E-03     124.397E-03    -176.952E-03     337.451E-03    -160.533E-03     112.449E-03
            2181     8.43910E-03     19.4524E-03    -57.7737E+06    -53.2614E+06     28.5189E+06     1.22335E+06    -172.393E-03     332.213E-03    -159.820E-03     116.043E-03    -175.026E-03     334.369E-03    -159.516E-03     105.144E-03
            2182     7.67967E-03     19.3019E-03    -65.6251E+06    -90.1320E+06     14.1415E+06     1.25451E+06    -170.482E-03     329.225E-03    -158.744E-03     105.828E-03    -172.621E-03     330.772E-03    -158.447E-03     96.1420E-03
            2183     6.91962E-03     19.1630E-03    -73.6063E+06    -125.132E+06    -249.224E+03     1.36563E+06    -168.072E-03     325.717E-03    -157.645E-03     94.5574E-03    -169.745E-03     326.685E-03    -157.358E-03     86.1670E-03
            2184     6.15695E-03     19.0368E-03    -81.7849E+06    -156.938E+06    -14.8996E+06     1.44533E+06    -165.571E-03     322.118E-03    -156.547E-03     83.3463E-03    -166.842E-03     322.586E-03    -156.276E-03     76.2220E-03
            2185     5.39340E-03     18.9229E-03    -90.2697E+06    -187.488E+06    -29.9980E+06     1.45127E+06    -162.902E-03     318.381E-03    -155.479E-03     72.0693E-03    -163.838E-03     318.418E-03    -155.226E-03     66.1509E-03
            2186     4.62716E-03     18.8244E-03    -99.1283E+06    -215.489E+06    -46.1855E+06     1.65780E+06    -160.174E-03     314.650E-03    -154.476E-03     61.2425E-03    -160.842E-03     314.335E-03    -154.251E-03     56.4447E-03
            2187     3.85933E-03     18.7393E-03    -107.801E+06    -241.361E+06    -64.2337E+06     1.61582E+06    -157.736E-03     311.295E-03    -153.559E-03     50.7703E-03    -158.194E-03     310.700E-03    -153.374E-03     46.9781E-03
            2188     3.08987E-03     18.6698E-03    -116.034E+06    -262.481E+06    -84.6457E+06     1.55585E+06    -155.563E-03     308.298E-03    -152.734E-03     40.3574E-03    -155.861E-03     307.496E-03    -152.609E-03     37.4693E-03
            2189     2.31880E-03     18.6146E-03    -123.830E+06    -283.005E+06    -103.997E+06     1.76608E+06    -153.730E-03     305.774E-03    -152.044E-03     30.2832E-03    -153.909E-03     304.809E-03    -151.974E-03     28.2033E-03
            2190     1.54681E-03     18.5756E-03    -130.280E+06    -300.293E+06    -119.832E+06     1.46489E+06    -152.323E-03     303.835E-03    -151.511E-03     20.3320E-03    -152.420E-03     302.750E-03    -151.486E-03     18.9806E-03
            2191     774.021E-06     18.5509E-03    -133.951E+06    -307.811E+06    -131.685E+06     384.441E+03    -151.714E-03     302.530E-03    -150.816E-03     11.0450E-03    -151.764E-03     301.393E-03    -150.834E-03     10.3195E-03
            2192     14.5023E-03     19.2872E-03    -5.04332E+06     90.4562E+06     94.6653E+06     146.348E+03    -169.031E-03     334.114E-03    -165.083E-03     65.2115E-03    -170.926E-03     336.038E-03    -164.733E-03     55.6900E-03
            2193     13.7436E-03     19.1816E-03    -10.6317E+06     88.8976E+06     96.3556E+06     617.922E+03    -170.859E-03     335.649E-03    -164.790E-03     96.3482E-03    -173.687E-03     338.475E-03    -164.421E-03     84.3000E-03
            2194     12.9852E-03     19.0656E-03    -16.2642E+06     82.0781E+06     92.4683E+06     902.366E+03    -172.819E-03     337.166E-03    -164.347E-03     106.503E-03    -175.935E-03     340.247E-03    -163.980E-03     93.9509E-03
            2195     12.2278E-03     18.9275E-03    -22.3391E+06     74.6373E+06     82.2561E+06     1.08501E+06    -175.013E-03     338.726E-03    -163.713E-03     117.291E-03    -178.459E-03     342.119E-03    -163.378E-03     104.122E-03
            2196     11.4723E-03     18.7742E-03    -28.8955E+06     66.3602E+06     70.1643E+06     1.11979E+06    -176.720E-03     339.604E-03    -162.884E-03     122.103E-03    -180.259E-03     343.072E-03    -162.588E-03     108.782E-03
            2197     10.7182E-03     18.6163E-03    -35.2667E+06     53.7765E+06     62.3303E+06     1.06052E+06    -177.502E-03     339.399E-03    -161.897E-03     123.429E-03    -180.976E-03     342.759E-03    -161.612E-03     110.300E-03
            2198     9.96340E-03     18.4512E-03    -41.8617E+06     31.4007E+06     55.5155E+06     1.00665E+06    -177.208E-03     337.977E-03    -160.769E-03     120.620E-03    -180.438E-03     341.009E-03    -160.476E-03     108.063E-03
            2199     9.20875E-03     18.2902E-03    -49.0940E+06    -8.78311E+06     43.6689E+06     1.20010E+06    -175.923E-03     335.439E-03    -159.517E-03     113.876E-03    -178.751E-03     337.937E-03    -159.214E-03     102.218E-03
            2200     8.45224E-03     18.1347E-03    -56.6805E+06    -52.7383E+06     29.0254E+06     1.26355E+06    -173.973E-03     332.135E-03    -158.162E-03     104.659E-03    -176.329E-03     334.019E-03    -157.858E-03     94.1289E-03
            2201     7.69545E-03     17.9883E-03    -64.3669E+06    -89.3064E+06     14.9059E+06     1.47350E+06    -171.367E-03     328.104E-03    -156.737E-03     93.9691E-03    -173.255E-03     329.404E-03    -156.440E-03     84.7128E-03
            2202     6.93546E-03     17.8556E-03    -72.2475E+06    -124.309E+06     409.478E+03     1.64202E+06    -168.351E-03     323.638E-03    -155.286E-03     83.1101E-03    -169.813E-03     324.401E-03    -154.999E-03     75.1646E-03
            2203     6.17411E-03     17.7332E-03    -80.4327E+06    -156.196E+06    -14.2300E+06     1.73098E+06    -164.953E-03     318.806E-03    -153.853E-03     72.3955E-03    -166.051E-03     319.106E-03    -153.581E-03     65.7312E-03
            2204     5.40941E-03     17.6258E-03    -88.9044E+06    -186.709E+06    -29.3678E+06     2.04621E+06    -161.340E-03     313.835E-03    -152.495E-03     62.0084E-03    -162.140E-03     313.742E-03    -152.243E-03     56.5457E-03
            2205     4.64246E-03     17.5317E-03    -97.3791E+06    -214.730E+06    -45.6204E+06     2.06737E+06    -158.040E-03     309.285E-03    -151.245E-03     52.3976E-03    -158.607E-03     308.875E-03    -151.020E-03     48.0061E-03
            2206     3.87300E-03     17.4513E-03    -105.930E+06    -239.862E+06    -63.4727E+06     1.90712E+06    -155.047E-03     305.159E-03    -150.112E-03     43.0841E-03    -155.433E-03     304.501E-03    -149.928E-03     39.6454E-03
            2207     3.10131E-03     17.3852E-03    -114.668E+06    -262.064E+06    -82.8567E+06     2.12272E+06    -152.393E-03     301.514E-03    -149.121E-03     33.9982E-03    -152.645E-03     300.668E-03    -148.989E-03     31.4045E-03
            2208     2.32783E-03     17.3338E-03    -122.351E+06    -281.843E+06    -101.443E+06     2.48718E+06    -150.168E-03     298.480E-03    -148.312E-03     25.2987E-03    -150.321E-03     297.492E-03    -148.233E-03     23.4506E-03
            2209     1.55257E-03     17.2966E-03    -128.468E+06    -296.993E+06    -117.788E+06     1.91832E+06    -148.519E-03     296.239E-03    -147.720E-03     17.0949E-03    -148.604E-03     295.154E-03    -147.692E-03     15.8898E-03
            2210     776.326E-06     17.2741E-03    -133.726E+06    -306.035E+06    -130.619E+06     1.14648E+06    -147.446E-03     294.910E-03    -147.464E-03     9.25227E-03    -147.496E-03     293.776E-03    -147.479E-03     8.61617E-03
            2211     14.5005E-03     17.9595E-03    -4.75914E+06     90.1691E+06     94.4151E+06     361.051E+03    -170.293E-03     335.359E-03    -165.065E-03     63.6453E-03    -172.153E-03     337.247E-03    -164.717E-03     54.0733E-03
            2212     13.7432E-03     17.8532E-03    -10.5674E+06     88.3739E+06     95.8739E+06     109.258E+03    -173.244E-03     337.907E-03    -164.664E-03     93.2662E-03    -176.009E-03     340.671E-03    -164.297E-03     81.0702E-03
            2213     12.9879E-03     17.7358E-03    -16.3337E+06     81.5336E+06     92.0916E+06     73.1201E+03    -176.378E-03     340.409E-03    -164.031E-03     102.914E-03    -179.406E-03     343.402E-03    -163.665E-03     90.1499E-03
            2214     12.2351E-03     17.5958E-03    -22.1926E+06     74.1190E+06     82.1361E+06     547.956E+03    -178.950E-03     342.082E-03    -163.132E-03     111.623E-03    -182.227E-03     345.306E-03    -162.797E-03     98.3406E-03
            2215     11.4826E-03     17.4448E-03    -27.9776E+06     66.4092E+06     70.2605E+06     624.467E+03    -180.345E-03     342.336E-03    -161.991E-03     113.956E-03    -183.633E-03     345.557E-03    -161.695E-03     100.684E-03
            2216     10.7305E-03     17.2856E-03    -34.1270E+06     53.9449E+06     62.4310E+06     566.118E+03    -180.897E-03     341.554E-03    -160.657E-03     113.079E-03    -184.064E-03     344.611E-03    -160.374E-03     100.127E-03
            2217     9.97986E-03     17.1251E-03    -41.0397E+06     31.6571E+06     55.6516E+06     740.502E+03    -180.175E-03     339.321E-03    -159.146E-03     108.411E-03    -183.073E-03     342.025E-03    -158.854E-03     96.1475E-03
            2218     9.22706E-03     16.9682E-03    -48.2714E+06    -8.01208E+06     43.9179E+06     988.540E+03    -178.272E-03     335.754E-03    -157.482E-03     100.827E-03    -180.773E-03     337.930E-03    -157.181E-03     89.5677E-03
            2219     8.47416E-03     16.8173E-03    -55.6472E+06    -51.6824E+06     29.3978E+06     1.29805E+06    -175.402E-03     331.113E-03    -155.711E-03     91.3743E-03    -177.456E-03     332.702E-03    -155.408E-03     81.3340E-03
            2220     7.71705E-03     16.6789E-03    -63.1525E+06    -88.7440E+06     15.1432E+06     1.50345E+06    -171.842E-03     325.726E-03    -153.884E-03     80.8690E-03    -173.467E-03     326.769E-03    -153.588E-03     72.1465E-03
            2221     6.95848E-03     16.5503E-03    -70.7633E+06    -123.362E+06     850.147E+03     1.90167E+06    -167.881E-03     319.933E-03    -152.052E-03     70.4365E-03    -169.124E-03     320.485E-03    -151.766E-03     63.0421E-03
            2222     6.19634E-03     16.4363E-03    -78.7594E+06    -155.328E+06    -13.8046E+06     2.26396E+06    -163.469E-03     313.744E-03    -150.275E-03     60.4605E-03    -164.390E-03     313.874E-03    -150.004E-03     54.3444E-03
            2223     5.43069E-03     16.3353E-03    -86.8901E+06    -185.762E+06    -28.6866E+06     2.45319E+06    -159.129E-03     307.740E-03    -148.612E-03     51.3089E-03    -159.794E-03     307.521E-03    -148.360E-03     46.3463E-03
            2224     4.66176E-03     16.2469E-03    -95.4303E+06    -213.402E+06    -44.6580E+06     2.68347E+06    -155.121E-03     302.209E-03    -147.088E-03     42.8552E-03    -155.590E-03     301.711E-03    -146.864E-03     38.9105E-03
            2225     3.88994E-03     16.1723E-03    -104.400E+06    -238.542E+06    -62.8201E+06     2.79694E+06    -151.443E-03     297.170E-03    -145.727E-03     34.9045E-03    -151.763E-03     296.454E-03    -145.544E-03     31.8487E-03
            2226     3.11548E-03     16.1107E-03    -112.737E+06    -261.189E+06    -80.8863E+06     2.77265E+06    -148.260E-03     292.832E-03    -144.572E-03     27.4106E-03    -148.468E-03     291.946E-03    -144.435E-03     25.1234E-03
            2227     2.33869E-03     16.0633E-03    -120.527E+06    -280.251E+06    -98.9231E+06     2.72995E+06    -145.716E-03     289.360E-03    -143.644E-03     20.2879E-03    -145.845E-03     288.352E-03    -143.558E-03     18.6634E-03
            2228     1.56015E-03     16.0292E-03    -127.324E+06    -293.877E+06    -116.389E+06     2.51948E+06    -143.848E-03     286.808E-03    -142.960E-03     13.5523E-03    -143.925E-03     285.725E-03    -142.932E-03     12.5058E-03
            2229     780.361E-06     16.0077E-03    -131.608E+06    -302.036E+06    -128.451E+06     1.68332E+06    -142.716E-03     285.308E-03    -142.592E-03     7.05311E-03    -142.762E-03     284.185E-03    -142.606E-03     6.50995E-03
            2230     14.5066E-03     16.6335E-03    -4.50783E+06     90.3404E+06     94.5018E+06     75.8902E+03    -173.925E-03     338.811E-03    -164.886E-03     62.8892E-03    -175.769E-03     340.685E-03    -164.538E-03     53.0964E-03
            2231     13.7497E-03     16.5223E-03    -9.28911E+06     88.5581E+06     96.2976E+06    -40.5575E+03    -176.801E-03     341.073E-03    -164.272E-03     90.8358E-03    -179.501E-03     343.775E-03    -163.906E-03     78.4350E-03
            2232     12.9967E-03     16.4018E-03    -15.6217E+06     81.0251E+06     91.8409E+06    -64.4680E+03    -180.775E-03     344.149E-03    -163.374E-03     98.4181E-03    -183.675E-03     347.015E-03    -163.010E-03     85.4730E-03
            2233     12.2464E-03     16.2595E-03    -21.8157E+06     73.9124E+06     82.0071E+06    -393.721E+03    -183.768E-03     345.900E-03    -162.132E-03     104.253E-03    -186.842E-03     348.922E-03    -161.798E-03     90.8543E-03
            2234     11.4986E-03     16.1107E-03    -27.4346E+06     66.1825E+06     70.0821E+06    -445.026E+03    -185.104E-03     345.685E-03    -160.582E-03     104.717E-03    -188.129E-03     348.646E-03    -160.287E-03     91.4609E-03
            2235     10.7517E-03     15.9535E-03    -33.4819E+06     53.4815E+06     61.9682E+06     190.454E+03    -184.943E-03     343.743E-03    -158.800E-03     101.913E-03    -187.801E-03     346.493E-03    -158.519E-03     89.1588E-03
            2236     10.0028E-03     15.7978E-03    -40.0191E+06     32.2739E+06     55.5676E+06     516.919E+03    -183.273E-03     340.103E-03    -156.830E-03     95.7151E-03    -185.845E-03     342.488E-03    -156.541E-03     83.8009E-03
            2237     9.25399E-03     15.6459E-03    -47.0818E+06    -6.84296E+06     43.9849E+06     778.908E+03    -180.363E-03     335.072E-03    -154.709E-03     87.5192E-03    -182.553E-03     336.945E-03    -154.411E-03     76.7184E-03
            2238     8.50081E-03     15.5038E-03    -54.2332E+06    -50.8222E+06     29.4824E+06     1.23665E+06    -176.561E-03     329.046E-03    -152.485E-03     77.7716E-03    -178.333E-03     330.361E-03    -152.185E-03     68.2565E-03
            2239     7.74628E-03     15.3714E-03    -61.6635E+06    -87.8227E+06     15.0746E+06     1.70810E+06    -171.996E-03     322.209E-03    -150.213E-03     67.1145E-03    -173.373E-03     323.013E-03    -149.921E-03     58.9652E-03
            2240     6.98719E-03     15.2525E-03    -69.4236E+06    -122.878E+06     608.966E+03     2.31415E+06    -166.671E-03     314.647E-03    -147.976E-03     56.8702E-03    -167.703E-03     314.996E-03    -147.694E-03     50.0859E-03
            2241     6.22369E-03     15.1465E-03     -77.102E+06    -154.222E+06    -13.6860E+06     2.87682E+06    -161.304E-03     307.147E-03    -145.844E-03     47.6818E-03    -162.060E-03     307.123E-03    -145.577E-03     42.1424E-03
            2242     5.45668E-03     15.0533E-03    -85.4477E+06    -184.487E+06    -28.6120E+06     3.27116E+06    -156.212E-03     300.067E-03    -143.856E-03     39.6404E-03    -156.755E-03     299.735E-03    -143.607E-03     35.1979E-03
            2243     4.68568E-03     14.9728E-03    -94.5128E+06    -212.308E+06    -44.8053E+06     3.67856E+06    -151.342E-03     293.389E-03    -142.047E-03     32.5891E-03    -151.724E-03     292.811E-03    -141.826E-03     29.1053E-03
            2244     3.91088E-03     14.9042E-03    -103.401E+06    -236.571E+06    -62.7317E+06     3.75673E+06    -146.951E-03     287.412E-03    -140.461E-03     26.2132E-03    -147.214E-03     286.648E-03    -140.282E-03     23.5449E-03
            2245     3.13264E-03     14.8489E-03    -111.992E+06    -259.366E+06    -81.0385E+06     3.46436E+06    -143.257E-03     282.395E-03    -139.138E-03     20.3762E-03    -143.430E-03     281.483E-03    -139.005E-03     18.3931E-03
            2246     2.35171E-03     14.8052E-03    -119.789E+06    -278.142E+06    -99.1941E+06     3.32547E+06    -140.427E-03     278.508E-03    -138.081E-03     14.9810E-03    -140.537E-03     277.490E-03    -138.000E-03     13.5828E-03
            2247     1.56905E-03     14.7744E-03    -125.902E+06    -290.388E+06    -115.747E+06     2.64523E+06    -138.417E-03     275.685E-03    -137.267E-03     9.92692E-03    -138.484E-03     274.607E-03    -137.243E-03     9.03139E-03
            2248     784.969E-06     14.7551E-03    -129.359E+06    -297.513E+06    -126.952E+06     1.00162E+06    -136.997E-03     273.772E-03    -136.775E-03     5.46427E-03    -137.038E-03     272.663E-03    -136.791E-03     4.98207E-03
            2249     14.5074E-03     15.2966E-03    -4.87909E+06     90.4938E+06     94.0753E+06    -686.179E+03    -179.057E-03     343.694E-03    -164.637E-03     65.0027E-03    -180.949E-03     345.617E-03    -164.291E-03     54.7298E-03
            2250     13.7577E-03     15.1894E-03    -10.3397E+06     88.0653E+06     95.4758E+06    -600.249E+03    -183.443E-03     347.129E-03    -163.686E-03     90.8055E-03    -186.151E-03     349.837E-03    -163.322E-03     77.8846E-03
            2251     13.0095E-03     15.0600E-03    -15.3177E+06     81.3064E+06     92.1144E+06    -467.472E+03    -186.825E-03     349.209E-03    -162.384E-03     94.7776E-03    -189.628E-03     351.979E-03    -162.019E-03     81.5319E-03
            2252     12.2650E-03     14.9211E-03    -20.7594E+06     74.7221E+06     82.4117E+06    -988.620E+03    -189.201E-03     349.912E-03    -160.711E-03     97.4713E-03    -192.101E-03     352.766E-03    -160.377E-03     83.9129E-03
            2253     11.5209E-03     14.7702E-03    -26.8841E+06     65.4295E+06     69.5249E+06    -948.987E+03    -190.255E-03     348.950E-03    -158.695E-03     96.0067E-03    -193.062E-03     351.693E-03    -158.403E-03     82.7144E-03
            2254     10.7771E-03     14.6199E-03    -32.9947E+06     52.5813E+06     61.2189E+06    -428.192E+03    -189.291E-03     345.705E-03    -156.415E-03     91.1843E-03    -191.890E-03     348.199E-03    -156.137E-03     78.5651E-03
            2255     10.0331E-03     14.4687E-03    -39.3850E+06     32.9735E+06     54.8233E+06    -65.5516E+03    -186.421E-03     340.361E-03    -153.941E-03     83.9145E-03    -188.724E-03     342.485E-03    -153.657E-03     72.3088E-03
            2256     9.28487E-03     14.3268E-03    -46.0316E+06    -5.97656E+06     43.2549E+06     381.930E+03    -182.636E-03     333.953E-03    -151.317E-03     74.6120E-03    -184.561E-03     335.570E-03    -151.025E-03     64.2194E-03
            2257     8.53516E-03     14.1918E-03    -52.9436E+06    -50.3268E+06     28.7055E+06     1.14304E+06    -177.770E-03     326.355E-03    -148.586E-03     63.7789E-03    -179.293E-03     327.432E-03    -148.292E-03     54.7488E-03
            2258     7.78046E-03     14.0699E-03    -60.2236E+06    -87.1208E+06     14.4503E+06     2.23913E+06    -171.636E-03     317.473E-03    -145.838E-03     52.8211E-03    -172.793E-03     318.068E-03    -145.552E-03     45.2418E-03
            2259     7.02112E-03     13.9618E-03    -67.8373E+06    -122.036E+06    -37.2863E+03     3.18656E+06    -165.147E-03     308.321E-03    -143.174E-03     43.1363E-03    -166.000E-03     308.502E-03    -142.899E-03     36.9203E-03
            2260     6.25705E-03     13.8659E-03    -76.1905E+06    -153.133E+06    -14.4550E+06     3.86259E+06    -158.726E-03     299.381E-03    -140.655E-03     34.8641E-03    -159.347E-03     299.230E-03    -140.395E-03     29.8603E-03
            2261     5.48747E-03     13.7823E-03    -84.8272E+06    -183.240E+06    -29.2998E+06     4.60449E+06    -152.537E-03     290.870E-03    -138.333E-03     27.9791E-03    -152.980E-03     290.446E-03    -138.091E-03     24.0307E-03
            2262     4.71326E-03     13.7103E-03    -93.3224E+06    -210.570E+06    -45.2492E+06     5.03281E+06    -146.817E-03     283.067E-03    -136.251E-03     22.3499E-03    -147.127E-03     282.429E-03    -136.036E-03     19.2939E-03
            2263     3.93457E-03     13.6501E-03    -102.142E+06    -234.050E+06    -62.8006E+06     4.99488E+06    -141.761E-03     276.207E-03    -134.446E-03     17.6353E-03    -141.976E-03     275.409E-03    -134.273E-03     15.3216E-03
            2264     3.15229E-03     13.6005E-03    -110.759E+06    -256.705E+06    -80.9400E+06     4.70566E+06    -137.623E-03     270.569E-03    -132.946E-03     13.5107E-03    -137.767E-03     269.641E-03    -132.818E-03     11.8124E-03
            2265     2.36704E-03     13.5624E-03    -118.423E+06    -274.883E+06    -98.6649E+06     3.95272E+06    -134.409E-03     266.157E-03    -131.748E-03     9.84765E-03    -134.503E-03     265.138E-03    -131.671E-03     8.66006E-03
            2266     1.57931E-03     13.5342E-03    -124.381E+06    -286.165E+06    -114.499E+06     2.62212E+06    -132.069E-03     262.920E-03    -130.851E-03     6.43724E-03    -132.131E-03     261.853E-03    -130.828E-03     5.67229E-03
            2267     790.213E-06     13.5180E-03    -128.702E+06    -293.698E+06    -125.954E+06     1.68725E+06    -130.497E-03     260.881E-03    -130.384E-03     3.33734E-03    -130.540E-03     259.786E-03    -130.401E-03     2.93831E-03
            2268     14.5115E-03     13.9566E-03    -4.31956E+06     90.8937E+06     94.4779E+06    -648.971E+03    -185.682E-03     349.959E-03    -164.277E-03     64.3719E-03    -187.586E-03     351.896E-03    -163.930E-03     53.6092E-03
            2269     13.7670E-03     13.8392E-03    -9.79354E+06     88.2848E+06     95.5807E+06    -1.61357E+06    -190.344E-03     353.273E-03    -162.928E-03     88.4165E-03    -193.050E-03     355.980E-03    -162.564E-03     74.8929E-03
            2270     13.0270E-03     13.7157E-03    -15.4509E+06     81.6679E+06     91.9708E+06    -1.89460E+06    -193.708E-03     354.884E-03    -161.176E-03     92.2665E-03    -196.491E-03     357.636E-03    -160.812E-03     78.4880E-03
            2271     12.2858E-03     13.5736E-03    -21.2796E+06     74.4929E+06     81.9591E+06    -1.42824E+06    -195.652E-03     354.665E-03    -159.013E-03     93.2214E-03    -198.474E-03     357.439E-03    -158.680E-03     79.3179E-03
            2272     11.5471E-03     13.4287E-03    -27.2480E+06     65.2257E+06     68.8488E+06    -1.20429E+06    -195.718E-03     352.201E-03    -156.483E-03     88.9547E-03    -198.380E-03     354.800E-03    -156.194E-03     75.5344E-03
            2273     10.8081E-03     13.2810E-03    -33.0958E+06     52.1034E+06     59.9162E+06    -1.45533E+06    -193.677E-03     347.359E-03    -153.681E-03     82.0545E-03    -196.097E-03     349.675E-03    -153.409E-03     69.4642E-03
            2274     10.0656E-03     13.1421E-03    -38.9179E+06     32.9887E+06     53.3257E+06    -1.20950E+06    -190.181E-03     340.848E-03    -150.667E-03     73.1044E-03    -192.285E-03     342.780E-03    -150.392E-03     61.6391E-03
            2275     9.32166E-03     13.0065E-03    -45.1938E+06    -5.60950E+06     41.5883E+06    -163.564E+03    -185.314E-03     332.796E-03    -147.482E-03     62.5041E-03    -187.040E-03     334.224E-03    -147.201E-03     52.3686E-03
            2276     8.57337E-03     12.8838E-03    -52.1734E+06    -50.5449E+06     26.6578E+06     1.42250E+06    -178.704E-03     322.922E-03    -144.218E-03     50.7146E-03    -180.037E-03     323.816E-03    -143.936E-03     42.0773E-03
            2277     7.81942E-03     12.7754E-03    -59.6763E+06    -87.1609E+06     12.5275E+06     3.10546E+06    -171.081E-03     312.077E-03    -140.996E-03     40.0242E-03    -172.076E-03     312.518E-03    -140.721E-03     32.9019E-03
            2278     7.05932E-03     12.6790E-03    -67.7653E+06    -121.149E+06    -1.71518E+06     4.50018E+06    -163.364E-03     301.271E-03    -137.908E-03     31.0033E-03    -164.094E-03     301.338E-03    -137.642E-03     25.2438E-03
            2279     6.29311E-03     12.5955E-03    -76.0196E+06    -151.744E+06    -16.1658E+06     5.39092E+06    -155.755E-03     290.767E-03    -135.012E-03     23.7357E-03    -156.283E-03     290.534E-03    -134.762E-03     19.1658E-03
            2280     5.52125E-03     12.5233E-03    -84.3073E+06    -181.745E+06    -30.5839E+06     5.94249E+06    -148.525E-03     280.897E-03    -132.373E-03     18.0693E-03    -148.900E-03     280.417E-03    -132.140E-03     14.5116E-03
            2281     4.74351E-03     12.4617E-03    -92.9393E+06    -208.468E+06    -45.9169E+06     6.40358E+06    -141.953E-03     271.983E-03    -130.030E-03     13.6472E-03    -142.218E-03     271.310E-03    -129.823E-03     10.9311E-03
            2282     3.96091E-03     12.4101E-03    -101.443E+06    -231.287E+06    -63.0690E+06     6.56385E+06    -136.272E-03     264.281E-03    -128.008E-03     10.3164E-03    -136.458E-03     263.466E-03    -127.841E-03     8.28706E-03
            2283     3.17379E-03     12.3679E-03    -109.618E+06    -252.769E+06    -80.3971E+06     5.99248E+06    -131.595E-03     257.929E-03    -126.334E-03     7.73328E-03    -131.722E-03     257.000E-03    -126.211E-03     6.25997E-03
            2284     2.38339E-03     12.3348E-03    -117.112E+06    -270.193E+06    -97.3851E+06     4.59329E+06    -127.954E-03     252.965E-03    -125.012E-03     5.59069E-03    -128.040E-03     251.956E-03    -124.937E-03     4.56358E-03
            2285     1.59045E-03     12.3115E-03    -123.346E+06    -281.920E+06    -113.336E+06     3.12826E+06    -125.303E-03     249.359E-03    -124.056E-03     3.57100E-03    -125.362E-03     248.305E-03    -124.035E-03     2.91733E-03
            2286     795.401E-06     12.2969E-03    -127.033E+06    -289.005E+06    -124.417E+06     1.86635E+06    -123.735E-03     247.273E-03    -123.538E-03     2.05255E-03    -123.777E-03     246.195E-03    -123.557E-03     1.71541E-03
            2287     14.5228E-03     12.6066E-03    -4.74408E+06     91.9521E+06     95.3571E+06    -1.18540E+06    -193.343E-03     357.187E-03    -163.844E-03     67.5548E-03    -195.338E-03     359.216E-03    -163.494E-03     56.1385E-03
            2288     13.7816E-03     12.4876E-03    -9.35446E+06     89.3397E+06     96.7912E+06    -1.35275E+06    -196.904E-03     358.996E-03    -162.092E-03     91.0770E-03    -199.707E-03     361.802E-03    -161.724E-03     76.9269E-03
            2289     13.0419E-03     12.3605E-03    -16.0162E+06     81.9757E+06     91.6370E+06    -1.71829E+06    -200.771E-03     360.670E-03    -159.898E-03     91.9903E-03    -203.598E-03     363.466E-03    -159.536E-03     77.6255E-03
            2290     12.3088E-03     12.2206E-03    -22.2654E+06     74.1622E+06     80.6855E+06    -2.26874E+06    -202.556E-03     359.785E-03    -157.229E-03     90.3393E-03    -205.371E-03     362.552E-03    -156.901E-03     75.9334E-03
            2291     11.5749E-03     12.0801E-03    -27.4649E+06     65.2880E+06     67.7255E+06    -2.67173E+06    -201.662E-03     355.823E-03    -154.161E-03     83.7291E-03    -204.274E-03     358.375E-03    -153.878E-03     69.9509E-03
            2292     10.8386E-03     11.9425E-03    -32.4402E+06     52.1738E+06     58.4698E+06    -2.73749E+06    -198.793E-03     349.596E-03    -150.803E-03     74.3592E-03    -201.112E-03     351.820E-03    -150.540E-03     61.5745E-03
            2293     10.1015E-03     11.8106E-03    -38.3365E+06     32.0382E+06     50.5989E+06    -1.97343E+06    -194.231E-03     341.446E-03    -147.214E-03     63.7164E-03    -196.213E-03     343.262E-03    -146.952E-03     52.1979E-03
            2294     9.36036E-03     11.6883E-03    -45.5008E+06    -6.91413E+06     38.1659E+06     336.053E+03    -187.406E-03     330.895E-03    -143.489E-03     52.1047E-03    -189.005E-03     332.202E-03    -143.223E-03     42.1100E-03
            2295     8.61274E-03     11.5805E-03    -53.4818E+06    -51.2147E+06     23.1482E+06     2.77227E+06    -178.985E-03     318.748E-03    -139.763E-03     40.6790E-03    -180.207E-03     319.535E-03    -139.496E-03     32.3299E-03
            2296     7.85864E-03     11.4864E-03    -61.5467E+06    -87.2238E+06     9.03261E+06     4.39114E+06    -170.229E-03     306.366E-03    -136.138E-03     30.8656E-03    -171.145E-03     306.731E-03    -135.877E-03     24.0397E-03
            2297     7.09777E-03     11.4053E-03    -69.2457E+06    -120.540E+06    -4.68913E+06     5.67662E+06    -161.275E-03     293.969E-03    -132.693E-03     22.8787E-03    -161.948E-03     293.984E-03    -132.442E-03     17.4156E-03
            2298     6.32964E-03     11.3357E-03    -76.8303E+06    -150.188E+06    -18.3595E+06     6.62871E+06    -152.596E-03     282.095E-03    -129.499E-03     16.7214E-03    -153.085E-03     281.833E-03    -129.261E-03     12.4324E-03
            2299     5.55451E-03     11.2765E-03    -84.9522E+06    -179.636E+06    -32.4825E+06     7.30824E+06    -144.561E-03     271.167E-03    -126.607E-03     12.1286E-03    -144.911E-03     270.674E-03    -126.385E-03     8.81751E-03
            2300     4.77334E-03     11.2266E-03    -93.2539E+06    -206.260E+06    -47.1867E+06     7.48074E+06    -137.339E-03     261.385E-03    -124.046E-03     8.82773E-03    -137.590E-03     260.710E-03    -123.848E-03     6.31195E-03
            2301     3.98640E-03     11.1847E-03    -101.194E+06    -228.563E+06    -63.0204E+06     7.55995E+06    -131.076E-03     252.916E-03    -121.840E-03     6.45951E-03    -131.255E-03     252.106E-03    -121.677E-03     4.59281E-03
            2302     3.19507E-03     11.1506E-03    -108.980E+06    -247.700E+06    -80.2558E+06     6.99224E+06    -125.874E-03     245.882E-03    -120.008E-03     4.79498E-03    -126.000E-03     244.973E-03    -119.892E-03     3.44880E-03
            2303     2.39953E-03     11.1240E-03    -116.043E+06    -264.553E+06    -97.1018E+06     5.17375E+06    -121.796E-03     240.375E-03    -118.579E-03     3.39067E-03    -121.883E-03     239.390E-03    -118.513E-03     2.45366E-03
            2304     1.60120E-03     11.1046E-03    -121.610E+06    -277.033E+06    -111.812E+06     3.25845E+06    -118.930E-03     236.497E-03    -117.567E-03     2.17802E-03    -118.989E-03     235.462E-03    -117.548E-03     1.57905E-03
            2305     801.188E-06     11.0934E-03    -125.271E+06    -284.065E+06    -122.653E+06     1.85818E+06    -117.288E-03     234.253E-03    -116.964E-03     1.38814E-03    -117.330E-03     233.195E-03    -116.984E-03     1.07690E-03
            2306     14.5231E-03     11.2442E-03    -5.31360E+06     92.7570E+06     95.4476E+06    -1.61451E+06    -200.000E-03     363.551E-03    -163.551E-03     73.8618E-03    -202.174E-03     365.758E-03    -163.200E-03     61.5848E-03
            2307     13.7889E-03     11.1283E-03    -11.1532E+06     88.9703E+06     96.1983E+06    -1.73123E+06    -205.671E-03     367.044E-03    -161.373E-03     95.2133E-03    -208.663E-03     370.034E-03    -161.005E-03     80.0678E-03
            2308     13.0601E-03     10.9946E-03    -16.0264E+06     83.1962E+06     92.8528E+06    -1.58148E+06    -208.627E-03     367.302E-03    -158.676E-03     92.3203E-03    -211.551E-03     370.197E-03    -158.309E-03     77.2156E-03
            2309     12.3299E-03     10.8619E-03    -21.6003E+06     75.7642E+06     81.1920E+06    -2.60157E+06    -209.254E-03     364.742E-03    -155.488E-03     87.6027E-03    -212.120E-03     367.567E-03    -155.161E-03     72.5611E-03
            2310     11.6003E-03     10.7247E-03    -27.8622E+06     65.0951E+06     65.2503E+06    -3.35974E+06    -207.602E-03     359.489E-03    -151.887E-03     78.7554E-03    -210.224E-03     362.057E-03    -151.615E-03     64.4601E-03
            2311     10.8710E-03     10.5990E-03    -34.7374E+06     51.5162E+06     54.0039E+06    -2.79906E+06    -203.696E-03     351.685E-03    -147.990E-03     68.5045E-03    -206.004E-03     353.900E-03    -147.744E-03     55.3762E-03
            2312     10.1366E-03     10.4776E-03    -42.3036E+06     29.8962E+06     44.8023E+06    -1.23193E+06    -197.098E-03     341.005E-03    -143.906E-03     57.3580E-03    -199.055E-03     342.792E-03    -143.664E-03     45.7204E-03
            2313     9.39645E-03     10.3728E-03    -49.9181E+06    -10.0625E+06     32.2249E+06     1.44506E+06    -188.179E-03     327.964E-03    -139.785E-03     45.5957E-03    -189.741E-03     329.224E-03    -139.537E-03     35.6873E-03
            2314     8.64892E-03     10.2817E-03    -57.1992E+06    -51.7110E+06     18.6861E+06     3.93355E+06    -178.360E-03     314.112E-03    -135.752E-03     35.3537E-03    -179.561E-03     314.876E-03    -135.501E-03     27.1609E-03
            2315     7.89378E-03     10.2043E-03    -64.3252E+06    -86.8592E+06     5.36203E+06     5.25545E+06    -168.295E-03     300.191E-03    -131.896E-03     26.9646E-03    -169.206E-03     300.553E-03    -131.650E-03     20.3082E-03
            2316     7.13062E-03     10.1400E-03    -71.5285E+06    -119.796E+06    -7.80054E+06     6.20629E+06    -158.534E-03     286.821E-03    -128.288E-03     20.7125E-03    -159.215E-03     286.848E-03    -128.049E-03     15.4021E-03
            2317     6.35984E-03     10.0859E-03    -78.9313E+06    -149.294E+06    -20.7876E+06     7.07785E+06    -149.324E-03     274.296E-03    -124.972E-03     16.0938E-03    -149.830E-03     274.054E-03    -124.745E-03     11.9237E-03
            2318     5.58200E-03     10.0409E-03    -86.2669E+06    -177.751E+06    -34.1107E+06     7.79999E+06    -140.891E-03     262.874E-03    -121.983E-03     12.6360E-03    -141.261E-03     262.407E-03    -121.771E-03     9.41559E-03
            2319     4.79739E-03     10.0032E-03    -93.5097E+06    -203.369E+06    -47.6761E+06     7.89676E+06    -133.393E-03     252.735E-03    -119.342E-03     10.0734E-03    -133.661E-03     252.088E-03    -119.150E-03     7.62093E-03
            2320     4.00731E-03     9.97216E-03    -101.037E+06    -225.864E+06    -62.3386E+06     7.74589E+06    -126.917E-03     243.976E-03    -117.059E-03     8.12442E-03    -127.110E-03     243.189E-03    -116.897E-03     6.29678E-03
            2321     3.21171E-03     9.94704E-03    -108.095E+06    -242.616E+06    -79.4138E+06     7.02885E+06    -121.505E-03     236.642E-03    -115.137E-03     6.38954E-03    -121.642E-03     235.764E-03    -115.025E-03     5.06556E-03
            2322     2.41257E-03     9.92681E-03    -114.118E+06    -258.516E+06    -95.7427E+06     5.11855E+06    -117.153E-03     230.779E-03    -113.626E-03     4.69003E-03    -117.244E-03     229.824E-03    -113.564E-03     3.76473E-03
            2323     1.60992E-03     9.91319E-03    -119.317E+06    -272.167E+06    -109.666E+06     3.36848E+06    -114.115E-03     226.655E-03    -112.540E-03     3.28758E-03    -114.174E-03     225.641E-03    -112.520E-03     2.69712E-03
            2324     805.398E-06     9.90298E-03    -123.399E+06    -279.282E+06    -120.499E+06     1.96458E+06    -112.455E-03     224.127E-03    -111.672E-03     1.87098E-03    -112.497E-03     223.089E-03    -111.691E-03     1.56194E-03
            2325     14.5249E-03     9.87663E-03    -4.96508E+06     94.4794E+06     96.9382E+06    -614.247E+03    -206.865E-03     370.095E-03    -163.230E-03     72.6502E-03    -209.087E-03     372.353E-03    -162.875E-03     59.8208E-03
            2326     13.7991E-03     9.74720E-03    -11.1756E+06     90.2781E+06     97.2114E+06    -2.29976E+06    -212.391E-03     373.053E-03    -160.662E-03     93.5801E-03    -215.476E-03     376.137E-03    -160.291E-03     77.6573E-03
            2327     13.0737E-03     9.62586E-03    -16.6704E+06     83.8022E+06     93.3235E+06    -3.21216E+06    -215.360E-03     372.895E-03    -157.536E-03     91.0566E-03    -218.399E-03     375.904E-03    -157.167E-03     75.1528E-03
            2328     12.3505E-03     9.49029E-03    -22.5774E+06     75.5967E+06     80.5694E+06    -2.50829E+06    -215.087E-03     368.985E-03    -153.897E-03     86.1887E-03    -218.069E-03     371.923E-03    -153.571E-03     70.4696E-03
            2329     11.6269E-03     9.36811E-03    -29.8164E+06     64.0171E+06     62.3310E+06    -998.378E+03    -212.487E-03     362.333E-03    -149.846E-03     76.4434E-03    -215.188E-03     364.978E-03    -149.584E-03     61.6693E-03
            2330     10.8976E-03     9.24895E-03    -37.9749E+06     50.2099E+06     49.0828E+06     268.167E+03    -206.524E-03     352.071E-03    -145.548E-03     65.1218E-03    -208.875E-03     354.328E-03    -145.320E-03     51.7622E-03
            2331     10.1654E-03     9.14689E-03    -46.3276E+06     28.2707E+06     39.4330E+06     1.36257E+06    -197.345E-03     338.535E-03    -141.190E-03     54.0868E-03    -199.326E-03     340.343E-03    -140.967E-03     42.4667E-03
            2332     9.42457E-03     9.05987E-03    -54.1688E+06    -11.7073E+06     27.4764E+06     2.59846E+06    -186.823E-03     323.752E-03    -136.929E-03     44.3117E-03    -188.419E-03     325.039E-03    -136.696E-03     34.5111E-03
            2333     8.67603E-03     8.98778E-03    -61.1092E+06    -52.6498E+06     14.6199E+06     3.91514E+06    -175.768E-03     308.628E-03    -132.860E-03     36.3282E-03    -177.017E-03     309.436E-03    -132.622E-03     28.2472E-03
            2334     7.91811E-03     8.93005E-03    -67.7292E+06    -86.7457E+06     2.48692E+06     5.13580E+06    -164.836E-03     293.904E-03    -129.068E-03     30.5344E-03    -165.806E-03     294.322E-03    -128.831E-03     23.9966E-03
            2335     7.15168E-03     8.88239E-03    -74.4932E+06    -119.192E+06    -9.72591E+06     5.95464E+06    -154.753E-03     280.351E-03    -125.598E-03     26.3449E-03    -155.498E-03     280.440E-03    -125.366E-03     21.1162E-03
            2336     6.37774E-03     8.84451E-03    -80.9943E+06    -148.621E+06    -21.9371E+06     6.37527E+06    -145.691E-03     268.150E-03    -122.458E-03     23.3447E-03    -146.258E-03     267.967E-03    -122.235E-03     19.2074E-03
            2337     5.59654E-03     8.81355E-03    -87.1727E+06    -176.417E+06    -33.5841E+06     6.68356E+06    -137.622E-03     257.275E-03    -119.653E-03     20.8979E-03    -138.045E-03     256.861E-03    -119.439E-03     17.6685E-03
            2338     4.80944E-03     8.78838E-03    -93.6536E+06    -200.955E+06    -45.8928E+06     6.90526E+06    -130.538E-03     247.715E-03    -117.177E-03     18.6410E-03    -130.848E-03     247.114E-03    -116.979E-03     16.1653E-03
            2339     4.01633E-03     8.76824E-03    -100.247E+06    -222.683E+06    -59.8354E+06     6.37329E+06    -124.471E-03     239.499E-03    -115.028E-03     16.3283E-03    -124.694E-03     238.750E-03    -114.859E-03     14.4629E-03
            2340     3.21954E-03     8.75116E-03    -106.196E+06    -238.325E+06    -76.1185E+06     5.17314E+06    -119.316E-03     232.527E-03    -113.211E-03     13.7427E-03    -119.471E-03     231.680E-03    -113.092E-03     12.3759E-03
            2341     2.41803E-03     8.73940E-03    -111.791E+06    -253.742E+06    -91.8309E+06     4.02131E+06    -115.293E-03     227.049E-03    -111.756E-03     10.8743E-03    -115.395E-03     226.120E-03    -111.685E-03     9.92167E-03
            2342     1.61394E-03     8.72930E-03    -116.811E+06    -267.930E+06    -105.476E+06     2.78326E+06    -112.352E-03     223.007E-03    -110.655E-03     7.66029E-03    -112.415E-03     222.010E-03    -110.625E-03     7.05546E-03
            2343     807.771E-06     8.72386E-03    -120.339E+06    -275.000E+06    -116.702E+06     1.24372E+06    -110.525E-03     220.312E-03    -109.787E-03     4.35278E-03    -110.565E-03     219.287E-03    -109.797E-03     4.03285E-03
            2344     14.5403E-03     8.50153E-03    -5.56015E+06     96.0390E+06     98.1654E+06    -577.348E+03    -214.096E-03     377.008E-03    -162.912E-03     78.9984E-03    -216.507E-03     379.455E-03    -162.552E-03     65.4059E-03
            2345     13.8100E-03     8.37084E-03    -9.47052E+06     94.2154E+06     100.429E+06    -604.719E+03    -217.400E-03     377.418E-03    -160.018E-03     99.6296E-03    -220.715E-03     380.743E-03    -159.639E-03     83.0466E-03
            2346     13.0884E-03     8.24140E-03    -17.3547E+06     84.2013E+06     92.7665E+06    -1.27325E+06    -220.043E-03     376.625E-03    -156.582E-03     93.5769E-03    -223.270E-03     379.821E-03    -156.215E-03     77.0421E-03
            2347     12.3671E-03     8.12056E-03    -26.1778E+06     72.7200E+06     76.3648E+06    -472.711E+03    -219.685E-03     372.291E-03    -152.606E-03     86.3272E-03    -222.809E-03     375.361E-03    -152.292E-03     70.0429E-03
            2348     11.6430E-03     8.00060E-03    -33.6438E+06     61.3747E+06     58.8544E+06     1.35114E+06    -214.683E-03     362.953E-03    -148.270E-03     74.6148E-03    -217.461E-03     365.663E-03    -148.016E-03     59.6012E-03
            2349     10.9196E-03     7.90136E-03    -40.5693E+06     48.8192E+06     47.1088E+06     3.32143E+06    -205.385E-03     349.232E-03    -143.847E-03     63.5173E-03    -207.780E-03     351.524E-03    -143.623E-03     50.2673E-03
            2350     10.1835E-03     7.81961E-03    -47.8098E+06     28.4710E+06     37.7911E+06     4.28794E+06    -193.828E-03     333.384E-03    -139.555E-03     55.1556E-03    -195.844E-03     335.227E-03    -139.338E-03     43.8469E-03
            2351     9.44003E-03     7.75176E-03    -55.5686E+06    -11.3302E+06     26.5001E+06     4.33498E+06    -181.640E-03     317.183E-03    -135.544E-03     48.9951E-03    -183.285E-03     318.520E-03    -135.314E-03     39.5536E-03
            2352     8.68626E-03     7.70187E-03    -63.3083E+06    -52.8100E+06     14.2144E+06     4.32253E+06    -169.980E-03     301.852E-03    -131.872E-03     45.1061E-03    -171.305E-03     302.728E-03    -131.632E-03     37.3377E-03
            2353     7.92383E-03     7.66177E-03    -70.1661E+06    -86.6941E+06     2.75060E+06     4.18465E+06    -159.455E-03     288.010E-03    -128.556E-03     42.6035E-03    -160.514E-03     288.509E-03    -128.314E-03     36.2754E-03
            2354     7.15346E-03     7.63232E-03    -76.0720E+06    -118.958E+06    -8.00920E+06     4.15459E+06    -150.118E-03     275.717E-03    -125.599E-03     40.6250E-03    -150.951E-03     275.884E-03    -125.356E-03     35.5178E-03
            2355     6.37538E-03     7.60853E-03    -81.8023E+06    -147.674E+06    -18.4233E+06     3.99829E+06    -142.033E-03     265.017E-03    -122.984E-03     38.5821E-03    -142.676E-03     264.902E-03    -122.744E-03     34.5053E-03
            2356     5.59188E-03     7.59053E-03    -87.6341E+06    -175.636E+06    -28.5650E+06     3.57944E+06    -135.105E-03     255.799E-03    -120.694E-03     36.2642E-03    -135.592E-03     255.437E-03    -120.455E-03     33.0439E-03
            2357     4.80259E-03     7.57681E-03    -93.1066E+06    -199.603E+06    -39.3335E+06     3.22056E+06    -129.244E-03     247.943E-03    -118.699E-03     33.5575E-03    -129.604E-03     247.380E-03    -118.472E-03     31.0565E-03
            2358     4.00983E-03     7.56515E-03    -98.2967E+06    -219.669E+06    -53.1580E+06     2.19738E+06    -124.291E-03     241.268E-03    -116.977E-03     30.0897E-03    -124.547E-03     240.550E-03    -116.782E-03     28.1795E-03
            2359     3.21192E-03     7.55766E-03    -103.452E+06    -236.099E+06    -68.7147E+06     1.16238E+06    -120.278E-03     235.805E-03    -115.527E-03     25.5906E-03    -120.453E-03     234.973E-03    -115.378E-03     24.1736E-03
            2360     2.41181E-03     7.55027E-03    -108.479E+06    -251.808E+06    -84.1002E+06     942.044E+03    -117.128E-03     231.478E-03    -114.350E-03     20.2800E-03    -117.239E-03     230.552E-03    -114.248E-03     19.2895E-03
            2361     1.60951E-03     7.54612E-03    -113.351E+06    -265.431E+06    -100.097E+06     419.740E+03    -114.772E-03     228.209E-03    -113.437E-03     14.2683E-03    -114.835E-03     227.215E-03    -113.388E-03     13.6333E-03
            2362     805.012E-06     7.54320E-03    -116.583E+06    -273.397E+06    -112.705E+06     17.7281E+03    -113.248E-03     226.020E-03    -112.772E-03     7.93509E-03    -113.280E-03     224.992E-03    -112.770E-03     7.60086E-03
            2363     14.5284E-03     7.10942E-03    -5.65504E+06     96.3581E+06     97.3535E+06    -411.975E+03    -218.193E-03     381.049E-03    -162.856E-03     84.8046E-03    -220.803E-03     383.698E-03    -162.501E-03     70.5484E-03
            2364     13.8147E-03     6.98333E-03    -12.5846E+06     93.2039E+06     97.1374E+06     272.048E+03    -223.000E-03     382.706E-03    -159.706E-03     107.147E-03    -226.641E-03     386.351E-03    -159.337E-03     89.6326E-03
            2365     13.0941E-03     6.85817E-03    -19.5529E+06     82.9023E+06     90.2254E+06     2.23040E+06    -225.399E-03     381.362E-03    -155.962E-03     96.9804E-03    -228.824E-03     384.751E-03    -155.603E-03     79.7689E-03
            2366     12.3771E-03     6.73742E-03    -26.6335E+06     72.3348E+06     75.5837E+06     3.21656E+06    -221.402E-03     373.155E-03    -151.753E-03     83.7744E-03    -224.564E-03     376.265E-03    -151.441E-03     67.3462E-03
            2367     11.6596E-03     6.63707E-03    -34.0761E+06     59.2240E+06     58.0497E+06     3.95910E+06    -211.041E-03     358.474E-03    -147.433E-03     73.3771E-03    -213.810E-03     361.169E-03    -147.179E-03     58.7943E-03
            2368     10.9252E-03     6.55997E-03    -41.4443E+06     46.8680E+06     47.5700E+06     5.38846E+06    -198.120E-03     341.464E-03    -143.343E-03     66.7020E-03    -200.494E-03     343.725E-03    -143.114E-03     54.2345E-03
            2369     10.1863E-03     6.49729E-03    -49.0492E+06     28.6082E+06     40.0850E+06     6.47846E+06    -184.834E-03     324.470E-03    -139.636E-03     63.8012E-03    -186.860E-03     326.313E-03    -139.406E-03     53.3557E-03
            2370     9.43451E-03     6.45644E-03    -56.7055E+06    -9.42965E+06     30.3284E+06     5.86064E+06    -172.347E-03     308.724E-03    -136.378E-03     62.4228E-03    -174.026E-03     310.086E-03    -136.130E-03     53.7916E-03
            2371     8.67313E-03     6.42246E-03    -63.4273E+06    -50.8958E+06     20.1913E+06     3.75783E+06    -161.573E-03     295.134E-03    -133.561E-03     62.1527E-03    -162.947E-03     296.049E-03    -133.294E-03     55.0342E-03
            2372     7.90438E-03     6.40147E-03    -69.5343E+06    -85.8806E+06     10.1289E+06     1.92809E+06    -152.786E-03     283.914E-03    -131.128E-03     61.6424E-03    -153.894E-03     284.446E-03    -130.852E-03     55.7940E-03
            2373     7.12871E-03     6.38444E-03    -75.1518E+06    -118.368E+06     1.00137E+06     350.639E+03    -145.566E-03     274.596E-03    -129.030E-03     60.5056E-03    -146.448E-03     274.791E-03    -128.744E-03     55.7231E-03
            2374     6.34887E-03     6.37387E-03    -80.1828E+06    -147.062E+06    -7.49290E+06    -1.09029E+06    -139.509E-03     266.734E-03    -127.225E-03     58.1402E-03    -140.196E-03     266.638E-03    -126.933E-03     54.2637E-03
            2375     5.56327E-03     6.36591E-03    -84.5905E+06    -175.018E+06    -16.8271E+06    -2.60332E+06    -134.557E-03     260.243E-03    -125.686E-03     54.7524E-03    -135.075E-03     259.888E-03    -125.394E-03     51.6374E-03
            2376     4.77507E-03     6.36009E-03    -88.7812E+06    -199.204E+06    -29.0293E+06    -4.14734E+06    -130.618E-03     254.985E-03    -124.367E-03     50.0719E-03    -130.995E-03     254.422E-03    -124.095E-03     47.5912E-03
            2377     3.98247E-03     6.35671E-03    -92.9555E+06    -219.558E+06    -44.4425E+06    -4.81926E+06    -127.486E-03     250.723E-03    -123.237E-03     43.9837E-03    -127.745E-03     249.998E-03    -123.006E-03     42.0511E-03
            2378     3.18932E-03     6.35296E-03    -97.9507E+06    -238.048E+06    -61.3504E+06    -4.26305E+06    -124.980E-03     247.271E-03    -122.291E-03     36.8557E-03    -125.146E-03     246.418E-03    -122.111E-03     35.4018E-03
            2379     2.39384E-03     6.35168E-03    -103.507E+06    -253.716E+06    -79.4879E+06    -2.72606E+06    -123.011E-03     244.541E-03    -121.529E-03     28.8747E-03    -123.109E-03     243.594E-03    -121.409E-03     27.8464E-03
            2380     1.59625E-03     6.35001E-03    -108.880E+06    -266.323E+06    -97.4495E+06    -1.32896E+06    -121.607E-03     242.569E-03    -120.962E-03     20.0589E-03    -121.655E-03     241.560E-03    -120.905E-03     19.4019E-03
            2381     798.805E-06     6.34937E-03    -112.655E+06    -274.475E+06    -109.789E+06    -711.535E+03    -120.689E-03     241.378E-03    -120.689E-03     11.0894E-03    -120.708E-03     240.333E-03    -120.676E-03     10.7415E-03
            2382     14.5381E-03     5.71926E-03    -4.48692E+06     95.5137E+06     95.4221E+06     2.51818E+06    -222.042E-03     385.068E-03    -163.026E-03     93.6545E-03    -224.837E-03     387.907E-03    -162.681E-03     78.9149E-03
            2383     13.8102E-03     5.59127E-03    -13.5115E+06     91.1306E+06     93.0911E+06     3.00453E+06    -229.625E-03     389.238E-03    -159.613E-03     107.496E-03    -233.329E-03     392.947E-03    -159.260E-03     89.4511E-03
            2384     13.1005E-03     5.45574E-03    -19.7714E+06     81.1966E+06     88.0225E+06     3.37168E+06    -226.425E-03     382.087E-03    -155.662E-03     92.6148E-03    -229.791E-03     385.421E-03    -155.311E-03     75.5013E-03
            2385     12.3867E-03     5.36055E-03    -25.9505E+06     70.7666E+06     77.2530E+06      4.9124E+06    -214.472E-03     366.103E-03    -151.631E-03     83.1580E-03    -217.528E-03     369.100E-03    -151.310E-03     67.7197E-03
            2386     11.6532E-03     5.28328E-03    -32.4635E+06     57.7479E+06     62.6989E+06     6.78584E+06    -199.499E-03     347.409E-03    -147.910E-03     78.8699E-03    -202.123E-03     349.949E-03    -147.633E-03     65.8017E-03
            2387     10.9165E-03     5.22966E-03    -39.5979E+06     45.6726E+06     53.8845E+06     7.72104E+06    -184.438E-03     329.165E-03    -144.727E-03     78.2141E-03    -186.662E-03     331.262E-03    -144.467E-03     67.4405E-03
            2388     10.1612E-03     5.19347E-03    -47.0738E+06     29.4780E+06     49.9805E+06     7.37679E+06    -171.430E-03     313.560E-03    -142.130E-03     79.9042E-03    -173.331E-03     315.260E-03    -141.854E-03     71.0508E-03
            2389     9.39955E-03     5.16725E-03    -53.6428E+06    -5.86582E+06     43.1538E+06     4.72930E+06    -161.332E-03     301.368E-03    -140.036E-03     81.3385E-03    -162.912E-03     302.617E-03    -139.734E-03     74.0375E-03
            2390     8.63118E-03     5.15330E-03    -59.9404E+06    -47.8914E+06     33.9260E+06     1.02779E+06    -153.667E-03     292.002E-03    -138.334E-03     81.8232E-03    -154.958E-03     292.815E-03    -138.008E-03     75.7509E-03
            2391     7.85629E-03     5.14121E-03    -65.7162E+06    -83.2950E+06     25.2912E+06    -2.86971E+06    -147.777E-03     284.719E-03    -136.942E-03     80.4356E-03    -148.820E-03     285.162E-03    -136.600E-03     75.3718E-03
            2392     7.07888E-03     5.13587E-03    -70.1201E+06    -116.331E+06     16.2042E+06    -7.11196E+06    -143.313E-03     279.112E-03    -135.800E-03     77.3983E-03    -144.135E-03     279.226E-03    -135.448E-03     73.1616E-03
            2393     6.29687E-03     5.13201E-03    -73.0896E+06    -146.818E+06     5.80316E+06    -10.7128E+06    -139.974E-03     274.825E-03    -134.851E-03     73.1509E-03    -140.604E-03     274.656E-03    -134.503E-03     69.6049E-03
            2394     5.51431E-03     5.13100E-03    -75.5508E+06    -176.566E+06    -7.24577E+06    -12.5192E+06    -137.556E-03     271.606E-03    -134.050E-03     67.4016E-03    -138.014E-03     271.186E-03    -133.721E-03     64.4608E-03
            2395     4.72853E-03     5.13027E-03    -79.1196E+06    -202.615E+06    -23.7439E+06    -12.2512E+06    -135.716E-03     269.073E-03    -133.357E-03     60.3010E-03    -136.030E-03     268.450E-03    -133.068E-03     57.9032E-03
            2396     3.94356E-03     5.12989E-03    -84.6881E+06    -225.638E+06    -42.9324E+06    -10.0120E+06    -134.269E-03     267.033E-03    -132.764E-03     51.9701E-03    -134.471E-03     266.251E-03    -132.529E-03     50.0721E-03
            2397     3.15552E-03     5.13088E-03    -91.6021E+06    -244.857E+06    -63.5216E+06    -6.33447E+06    -133.115E-03     265.389E-03    -132.273E-03     42.8817E-03    -133.234E-03     264.488E-03    -132.103E-03     41.4478E-03
            2398     2.36685E-03     5.13098E-03    -98.7783E+06    -259.028E+06    -82.5074E+06    -3.08517E+06    -132.340E-03     264.227E-03    -131.888E-03     32.9472E-03    -132.401E-03     263.248E-03    -131.781E-03     31.9230E-03
            2399     1.57875E-03     5.13158E-03    -104.330E+06    -269.247E+06    -96.7521E+06    -1.03679E+06    -131.767E-03     263.385E-03    -131.619E-03     22.4715E-03    -131.790E-03     262.352E-03    -131.561E-03     21.8100E-03
            2400     788.756E-06     5.13207E-03    -107.881E+06    -275.652E+06    -106.167E+06    -90.6425E+03    -131.408E-03     262.947E-03    -131.539E-03     12.2444E-03    -131.408E-03     261.882E-03    -131.514E-03     11.8973E-03
            2401     14.5153E-03     4.32259E-03    -5.44649E+06     92.1884E+06     92.0577E+06     4.04539E+06    -229.988E-03     393.304E-03    -163.316E-03     99.5311E-03    -232.752E-03     396.107E-03    -162.981E-03     84.8805E-03
            2402     13.8189E-03     4.16760E-03    -9.89807E+06     91.4607E+06     93.7820E+06     5.46200E+06    -229.207E-03     388.954E-03    -159.747E-03     107.037E-03    -232.757E-03     392.526E-03    -159.397E-03     89.7761E-03
            2403     13.1047E-03     4.07517E-03    -15.9827E+06     80.9260E+06     89.7143E+06     5.92612E+06    -215.739E-03     371.868E-03    -156.130E-03     94.8861E-03    -218.875E-03     374.983E-03    -155.775E-03     79.5590E-03
            2404     12.3688E-03     3.99412E-03    -23.7061E+06     68.2314E+06     81.1032E+06     6.56691E+06    -198.152E-03     351.106E-03    -152.954E-03     91.4277E-03    -200.850E-03     353.736E-03    -152.613E-03     78.5589E-03
            2405     11.6316E-03     3.95018E-03    -30.3124E+06     56.5812E+06     70.7562E+06     7.16535E+06    -182.088E-03     332.501E-03    -150.414E-03     91.4512E-03    -184.303E-03     334.614E-03    -150.098E-03     81.1109E-03
            2406     10.8707E-03     3.91865E-03    -35.9120E+06     46.0517E+06     64.5930E+06     6.96385E+06    -169.243E-03     317.759E-03    -148.516E-03     93.8098E-03    -171.089E-03     319.460E-03    -148.208E-03     85.5189E-03
            2407     10.1089E-03     3.90051E-03    -40.9685E+06     32.2313E+06     64.3163E+06     5.38247E+06    -160.096E-03     307.264E-03    -147.168E-03     94.6014E-03    -161.641E-03     308.597E-03    -146.834E-03     87.8516E-03
            2408     9.33774E-03     3.88806E-03    -47.1952E+06    -969.937E+03     58.6595E+06     1.33832E+06    -153.983E-03     300.187E-03    -146.204E-03     93.4835E-03    -155.256E-03     301.122E-03    -145.841E-03     87.8660E-03
            2409     8.56393E-03     3.88051E-03    -52.8161E+06    -42.3725E+06     46.0698E+06    -5.15795E+06    -150.080E-03     295.558E-03    -145.479E-03     90.6851E-03    -151.104E-03     296.111E-03    -145.110E-03     85.8980E-03
            2410     7.78960E-03     3.87694E-03    -55.7630E+06    -78.7840E+06     32.5956E+06    -12.0064E+06    -147.351E-03     292.275E-03    -144.924E-03     86.6453E-03    -148.159E-03     292.510E-03    -144.566E-03     82.5007E-03
            2411     7.01184E-03     3.87577E-03    -57.8613E+06    -114.832E+06     17.6873E+06    -17.1170E+06    -145.565E-03     290.068E-03    -144.503E-03     81.0913E-03    -146.177E-03     290.012E-03    -144.164E-03     77.4970E-03
            2412     6.23474E-03     3.87612E-03    -61.2008E+06    -149.358E+06     1.00102E+06    -19.4380E+06    -144.550E-03     288.723E-03    -144.173E-03     74.5270E-03    -144.995E-03     288.412E-03    -143.862E-03     71.4250E-03
            2413     5.45551E-03     3.87693E-03    -66.7493E+06    -184.258E+06    -16.7427E+06    -18.4954E+06    -143.963E-03     287.868E-03    -143.905E-03     67.1384E-03    -144.271E-03     287.327E-03    -143.625E-03     64.5023E-03
            2414     4.67783E-03     3.87842E-03    -73.9409E+06    -213.396E+06    -36.1072E+06    -14.2055E+06    -143.528E-03     287.201E-03    -143.674E-03     59.0846E-03    -143.728E-03     286.479E-03    -143.438E-03     56.9172E-03
            2415     3.89729E-03     3.88024E-03    -81.9758E+06    -236.862E+06    -55.0767E+06    -8.70166E+06    -143.243E-03     286.728E-03    -143.485E-03     50.3063E-03    -143.363E-03     285.868E-03    -143.298E-03     48.5832E-03
            2416     3.11849E-03     3.88215E-03    -89.2835E+06    -253.877E+06    -71.2430E+06    -3.84563E+06    -143.184E-03     286.514E-03    -143.331E-03     40.9794E-03    -143.246E-03     285.555E-03    -143.189E-03     39.6680E-03
            2417     2.33955E-03     3.88317E-03    -95.0924E+06    -264.033E+06    -84.9225E+06    -776.886E+03    -143.078E-03     286.279E-03    -143.200E-03     31.2198E-03    -143.099E-03     285.261E-03    -143.104E-03     30.2765E-03
            2418     1.55921E-03     3.88476E-03    -99.3648E+06    -271.117E+06    -94.7780E+06     400.047E+03    -143.057E-03     286.163E-03    -143.106E-03     21.2332E-03    -143.050E-03     285.106E-03    -143.043E-03     20.6129E-03
            2419     780.329E-06     3.88513E-03    -101.776E+06    -275.100E+06    -100.470E+06     636.653E+03    -143.078E-03     286.066E-03    -142.988E-03     11.6404E-03    -143.055E-03     284.986E-03    -142.944E-03     11.3125E-03
            2420     14.5365E-03     2.89998E-03    -8.20587E+06     87.8812E+06     89.2777E+06     2.30964E+06    -236.058E-03     400.633E-03    -164.575E-03     129.770E-03    -239.249E-03     403.851E-03    -164.244E-03     114.898E-03
            2421     13.8071E-03     2.77795E-03    -7.84316E+06     87.4418E+06     94.4166E+06     5.26101E+06    -220.770E-03     381.945E-03    -161.175E-03     124.167E-03    -224.207E-03     385.395E-03    -160.818E-03     108.862E-03
            2422     13.0724E-03     2.69986E-03    -12.2261E+06     79.8572E+06     93.3263E+06     7.73717E+06    -199.313E-03     357.667E-03    -158.355E-03     106.830E-03    -201.814E-03     360.148E-03    -157.986E-03     95.1347E-03
            2423     12.3336E-03     2.66105E-03    -17.7739E+06     69.0037E+06     87.4614E+06     8.15915E+06    -181.816E-03     338.120E-03    -156.304E-03     101.393E-03    -183.739E-03     339.978E-03    -155.941E-03     92.4337E-03
            2424     11.5668E-03     2.63388E-03    -24.7798E+06     58.4084E+06     75.5066E+06     6.66198E+06    -169.283E-03     324.182E-03    -154.899E-03     97.2280E-03    -170.785E-03     325.587E-03    -154.570E-03     90.3317E-03
            2425     10.8066E-03     2.62034E-03    -30.8250E+06     48.9923E+06     65.2604E+06     4.13487E+06    -161.549E-03     315.544E-03    -153.996E-03     93.5234E-03    -162.765E-03     316.638E-03    -153.696E-03     88.0084E-03
            2426     10.0348E-03     2.60890E-03    -35.8812E+06     35.7448E+06     57.9244E+06     1.21909E+06    -156.785E-03     310.228E-03    -153.443E-03     88.9054E-03    -157.788E-03     311.062E-03    -153.153E-03     84.3527E-03
            2427     9.26571E-03     2.60368E-03    -39.7652E+06      6.8948E+06     45.7922E+06    -4.63800E+06    -153.890E-03     307.003E-03    -153.112E-03     83.8051E-03    -154.703E-03     307.565E-03    -152.836E-03     79.8931E-03
            2428     8.49429E-03     2.59915E-03    -42.1534E+06    -33.7935E+06     28.2816E+06    -13.2469E+06    -152.163E-03     305.092E-03    -152.929E-03     78.1951E-03    -152.787E-03     305.363E-03    -152.678E-03     74.7268E-03
            2429     7.72070E-03     2.59868E-03    -45.1640E+06    -76.9951E+06     9.49098E+06    -19.3476E+06    -151.352E-03     304.207E-03    -152.855E-03     72.2784E-03    -151.813E-03     304.204E-03    -152.630E-03     69.1685E-03
            2430     6.94876E-03     2.59819E-03    -50.4090E+06    -119.018E+06    -7.38473E+06    -20.4311E+06    -151.157E-03     304.013E-03    -152.856E-03     66.2864E-03    -151.488E-03     303.761E-03    -152.647E-03     63.5291E-03
            2431     6.17557E-03     2.59967E-03    -58.0506E+06    -158.164E+06    -23.3787E+06    -18.1444E+06    -151.249E-03     304.145E-03    -152.896E-03     59.9964E-03    -151.479E-03     303.671E-03    -152.700E-03     57.6063E-03
            2432     5.40386E-03     2.60094E-03    -67.0588E+06    -196.608E+06    -38.1628E+06    -14.1335E+06    -151.452E-03     304.418E-03    -152.966E-03     53.4767E-03    -151.601E-03     303.737E-03    -152.774E-03     51.4404E-03
            2433     4.63023E-03     2.60301E-03    -75.8554E+06    -227.240E+06    -52.2635E+06    -9.09252E+06    -151.770E-03     304.810E-03    -153.040E-03     46.4106E-03    -151.857E-03     303.967E-03    -152.862E-03     44.7273E-03
            2434     3.85914E-03     2.60507E-03    -82.9978E+06    -247.849E+06    -65.4741E+06    -4.06439E+06    -152.165E-03     305.266E-03    -153.100E-03     39.2020E-03    -152.205E-03     304.315E-03    -152.948E-03     37.8595E-03
            2435     3.08672E-03     2.60611E-03    -88.2665E+06    -260.287E+06    -76.1244E+06    -866.285E+03    -152.479E-03     305.632E-03    -153.153E-03     31.7728E-03    -152.485E-03     304.616E-03    -153.029E-03     30.7367E-03
            2436     2.31436E-03     2.60832E-03     -91.826E+06    -266.564E+06    -84.8522E+06     681.228E+03    -152.764E-03     305.965E-03    -153.201E-03     24.2474E-03    -152.745E-03     304.913E-03    -153.106E-03     23.4914E-03
            2437     1.54326E-03     2.60885E-03    -93.9737E+06    -270.707E+06    -90.8992E+06     1.17692E+06    -153.036E-03     306.281E-03    -153.245E-03     16.6040E-03    -152.998E-03     305.205E-03    -153.170E-03     16.1069E-03
            2438     771.114E-06     2.60982E-03    -95.3520E+06    -273.169E+06    -94.5599E+06     765.007E+03    -153.253E-03     306.482E-03    -153.230E-03     9.06917E-03    -153.204E-03     305.393E-03    -153.168E-03     8.80092E-03
            2439     14.4529E-03     1.45556E-03    -3.91636E+06     87.7787E+06     95.3057E+06     1.93620E+06    -250.318E-03     418.225E-03    -167.908E-03     143.101E-03    -252.968E-03     420.895E-03    -167.553E-03     130.896E-03
            2440     13.7547E-03     1.38745E-03    -7.01636E+06     82.4857E+06     95.6600E+06     3.07852E+06    -218.118E-03     382.509E-03    -164.391E-03     111.354E-03    -220.232E-03     384.621E-03    -164.022E-03     101.591E-03
            2441     13.0191E-03     1.35579E-03    -11.2414E+06     76.6846E+06     94.5514E+06     4.65601E+06    -192.556E-03     354.574E-03    -162.018E-03     90.2822E-03    -193.847E-03     355.829E-03    -161.640E-03     83.9073E-03
            2442     12.2574E-03     1.33249E-03    -15.0761E+06     69.4769E+06     87.4344E+06     5.55307E+06    -177.451E-03     337.969E-03    -160.518E-03     76.5331E-03    -178.392E-03     338.851E-03    -160.160E-03     72.0152E-03
            2443     11.5075E-03     1.32367E-03    -18.9388E+06     62.1956E+06     71.1611E+06     5.10208E+06    -168.704E-03     328.246E-03    -159.542E-03     66.7652E-03    -169.423E-03     328.911E-03    -159.248E-03     63.3264E-03
            2444     10.7400E-03     1.31408E-03    -23.4206E+06     54.1210E+06     50.5156E+06     2.65058E+06    -163.331E-03     322.244E-03    -158.912E-03     59.7244E-03    -163.911E-03     322.784E-03    -158.704E-03     56.9419E-03
            2445     9.97852E-03     1.31008E-03    -27.9807E+06     41.7686E+06     28.1840E+06    -1.85444E+06    -159.934E-03     318.470E-03    -158.536E-03     53.8171E-03    -160.408E-03     318.909E-03    -158.415E-03     51.4497E-03
            2446     9.21002E-03     1.30579E-03    -31.7585E+06     16.1589E+06     6.95345E+06    -7.92103E+06    -157.797E-03     316.168E-03    -158.371E-03     48.9985E-03    -158.169E-03     316.464E-03    -158.314E-03     46.8873E-03
            2447     8.44159E-03     1.30497E-03    -37.3629E+06    -28.5659E+06    -10.1425E+06    -13.0196E+06    -156.653E-03     315.050E-03    -158.397E-03     44.5895E-03    -156.926E-03     315.117E-03    -158.352E-03     42.6702E-03
            2448     7.67378E-03     1.30382E-03    -45.8519E+06    -80.7737E+06    -24.1405E+06    -14.2372E+06    -156.257E-03     314.805E-03    -158.549E-03     40.6061E-03    -156.446E-03     314.614E-03    -158.486E-03     38.8798E-03
            2449     6.90424E-03     1.30439E-03    -55.5849E+06    -127.496E+06    -34.9372E+06    -12.4096E+06    -156.324E-03     315.093E-03    -158.769E-03     36.7837E-03    -156.456E-03     314.674E-03    -158.678E-03     35.2634E-03
            2450     6.13594E-03     1.30478E-03    -64.7055E+06    -168.980E+06    -44.0231E+06    -9.25503E+06    -156.680E-03     315.701E-03    -159.022E-03     33.0656E-03    -156.764E-03     315.082E-03    -158.903E-03     31.7512E-03
            2451     5.36675E-03     1.30609E-03    -72.4450E+06    -206.662E+06    -52.3320E+06    -6.23859E+06    -157.232E-03     316.514E-03    -159.282E-03     29.2965E-03    -157.272E-03     315.713E-03    -159.139E-03     28.1806E-03
            2452     4.59991E-03     1.30716E-03    -78.4862E+06    -237.013E+06    -59.2677E+06    -3.56757E+06    -157.892E-03     317.419E-03    -159.527E-03     25.5176E-03    -157.894E-03     316.471E-03    -159.366E-03     24.5872E-03
            2453     3.83160E-03     1.30817E-03    -83.2448E+06    -254.728E+06    -67.8784E+06    -919.560E+03    -158.511E-03     318.232E-03    -159.722E-03     21.5803E-03    -158.487E-03     317.204E-03    -159.571E-03     20.8357E-03
            2454     3.06487E-03     1.30967E-03    -86.7452E+06    -262.528E+06    -77.1642E+06     483.040E+03    -159.028E-03     318.902E-03    -159.873E-03     17.4091E-03    -158.988E-03     317.843E-03    -159.753E-03     16.8294E-03
            2455     2.29853E-03     1.31020E-03    -88.8678E+06    -266.994E+06    -83.4753E+06     703.033E+03    -159.521E-03     319.522E-03    -160.001E-03     13.1608E-03    -159.469E-03     318.446E-03    -159.902E-03     12.7319E-03
            2456     1.53173E-03     1.31082E-03    -89.9998E+06    -269.692E+06    -87.4696E+06     636.078E+03    -159.858E-03     319.959E-03    -160.101E-03     8.82794E-03    -159.796E-03     318.871E-03    -160.016E-03     8.54347E-03
            2457     766.047E-06     1.31121E-03    -90.9377E+06    -271.527E+06    -90.1495E+06     556.696E+03    -160.132E-03     320.267E-03    -160.134E-03     4.79325E-03    -160.065E-03     319.172E-03    -160.059E-03     4.64105E-03


