********************************************************************************
Field Output Report, written Wed May 29 01:49:51 2024

Source 1
---------

   ODB: G:/Abaqus_calc_2019/1740/Vel_5/odb/zeides_2a_8_red_2500_cal_10_vel_5_fric_025.odb
   Step: Step-1
   Frame: Increment  34450312: Step Time =    3.460

Loc 1 : Nodal values from source 1

Output sorted by column "Nodal Label".

Field Output reported at nodes for region: DIE_2A_8_D0_36-1.Region_1
   Computation algorithm: EXTRAPOLATE_COMPUTE_AVERAGE
   Averaged at nodes
   Averaging regions: ODB_REGIONS

      Node Label     COORD.COOR1     COORD.COOR2
                          @Loc 1          @Loc 1
-------------------------------------------------
               1     14.4417E-03     217.804E-03


Field Output reported at nodes for region: DIE_2A_8_D0_36-1.Region_2
   Computation algorithm: EXTRAPOLATE_COMPUTE_AVERAGE
   Averaged at nodes
   Averaging regions: ODB_REGIONS

      Node Label     COORD.COOR1     COORD.COOR2
                          @Loc 1          @Loc 1
-------------------------------------------------
               1     14.4417E-03     217.804E-03


Field Output reported at nodes for part: WIRE-1
   Computation algorithm: EXTRAPOLATE_COMPUTE_AVERAGE
   Averaged at nodes
   Averaging regions: ODB_REGIONS

      Node Label     COORD.COOR1     COORD.COOR2           S.S11           S.S22           S.S33           S.S12         PE.PE11         PE.PE22         PE.PE33         PE.PE12         LE.LE11         LE.LE22         LE.LE33         LE.LE12
                          @Loc 1          @Loc 1          @Loc 1          @Loc 1          @Loc 1          @Loc 1          @Loc 1          @Loc 1          @Loc 1          @Loc 1          @Loc 1          @Loc 1          @Loc 1          @Loc 1
-------------------------------------------------------------------------------------------------------------------------------------------------------------------------------------------------------------------------------------------------
               1     22.5780E-09     97.5895E-03    -120.376E+06    -244.018E+06    -120.381E+06     90.0237E+03    -289.432E-03     578.797E-03    -289.365E-03     1.81755E-03    -289.506E-03     577.926E-03    -289.438E-03     2.01871E-03
               2     13.4826E-03     98.4112E-03    -2.49743E+06     86.2515E+06     98.6421E+06    -406.502E+03    -288.417E-03     577.770E-03    -289.353E-03     26.2317E-03    -288.803E-03     578.168E-03    -288.982E-03     21.2087E-03
               3     13.5058E-03     196.391E-03    -15.9438E+06     21.1480E+06     57.0855E+06    -12.7159E+06    -245.930E-03     534.233E-03    -288.303E-03    -4.58263E-03    -246.120E-03     534.296E-03    -288.025E-03    -3.69034E-03
               4    -739.166E-09     195.266E-03     25.1663E+06    -16.4278E+06     17.9665E+06    -4.38442E+06    -304.156E-03     607.956E-03    -303.800E-03    -10.6563E-03    -304.053E-03     607.789E-03    -303.722E-03    -10.8977E-03
               5    -250.028E-09    -1.22125E-15    -62.3769E+06    -240.521E+06    -62.4718E+06       69.44E+03    -265.283E-03     531.261E-03    -265.978E-03     338.242E-06    -265.155E-03     530.240E-03    -265.852E-03     310.245E-06
               6     13.3927E-03    -1.22125E-15     2.74239E+06     88.5416E+06     110.758E+06    -5.29748E+06    -385.574E-03     677.105E-03    -291.532E-03     95.1134E-03    -386.599E-03     678.138E-03    -291.110E-03     82.6711E-03
               7     673.794E-06     97.5932E-03    -119.442E+06    -241.583E+06    -117.562E+06     139.216E+03    -289.408E-03     578.795E-03    -289.387E-03     3.01870E-03    -289.484E-03     577.931E-03    -289.451E-03     3.34893E-03
               8     1.34760E-03     97.6017E-03    -116.841E+06    -232.074E+06    -110.146E+06     243.934E+03    -289.362E-03     578.775E-03    -289.413E-03     5.54583E-03    -289.450E-03     577.944E-03    -289.458E-03     6.13316E-03
               9     2.02144E-03     97.6154E-03    -112.828E+06    -217.806E+06    -98.7642E+06     366.839E+03    -289.321E-03     578.748E-03    -289.427E-03     8.20566E-03    -289.426E-03     577.966E-03    -289.442E-03     9.02718E-03
              10     2.69530E-03     97.6344E-03    -107.559E+06    -201.974E+06    -84.1499E+06     513.917E+03    -289.278E-03     578.727E-03    -289.449E-03     10.8869E-03    -289.401E-03     577.995E-03    -289.421E-03     11.8869E-03
              11     3.36921E-03     97.6585E-03    -101.323E+06    -183.705E+06    -68.0390E+06     674.205E+03    -289.234E-03     578.705E-03    -289.470E-03     13.5744E-03    -289.376E-03     578.032E-03    -289.397E-03     14.6789E-03
              12     4.04316E-03     97.6877E-03    -94.4488E+06    -163.499E+06    -51.5057E+06     839.229E+03    -289.192E-03     578.679E-03    -289.487E-03     16.2413E-03    -289.354E-03     578.074E-03    -289.371E-03     17.3632E-03
              13     4.71716E-03     97.7215E-03    -87.2044E+06    -141.693E+06    -35.3079E+06     1.01847E+06    -289.153E-03     578.651E-03    -289.498E-03     18.8893E-03    -289.335E-03     578.123E-03    -289.343E-03     19.9289E-03
              14     5.39119E-03     97.7600E-03    -79.8047E+06    -118.424E+06    -19.8503E+06     1.21420E+06    -289.115E-03     578.617E-03    -289.501E-03     21.5099E-03    -289.320E-03     578.175E-03    -289.313E-03     22.3580E-03
              15     6.06528E-03     97.8026E-03    -72.3955E+06    -92.9288E+06    -5.22076E+06     1.42659E+06    -289.075E-03     578.572E-03    -289.497E-03     24.1182E-03    -289.306E-03     578.231E-03    -289.283E-03     24.6566E-03
              16     6.73940E-03     97.8494E-03    -65.0717E+06    -64.6222E+06     8.76084E+06     1.65350E+06    -289.028E-03     578.512E-03    -289.484E-03     26.7011E-03    -289.292E-03     578.290E-03    -289.252E-03     26.8072E-03
              17     7.41358E-03     97.8999E-03    -57.8452E+06    -31.0760E+06     22.4806E+06     1.87635E+06    -288.961E-03     578.422E-03    -289.462E-03     29.1920E-03    -289.268E-03     578.349E-03    -289.221E-03     28.7493E-03
              18     8.08781E-03     97.9537E-03    -50.6644E+06     10.5080E+06     36.6404E+06     2.12497E+06    -288.858E-03     578.286E-03    -289.429E-03     31.6428E-03    -289.225E-03     578.405E-03    -289.187E-03     30.5291E-03
              19     8.76211E-03     98.0107E-03    -43.6412E+06     38.1905E+06     48.4185E+06     2.19953E+06    -288.802E-03     578.205E-03    -289.403E-03     34.0686E-03    -289.213E-03     578.456E-03    -289.153E-03     32.1637E-03
              20     9.43642E-03     98.0705E-03    -36.9152E+06     42.9359E+06     58.0892E+06     1.92577E+06    -288.818E-03     578.221E-03    -289.402E-03     36.2652E-03    -289.243E-03     578.498E-03    -289.120E-03     33.4831E-03
              21     10.1107E-03     98.1322E-03    -30.3076E+06     54.5672E+06     70.8189E+06     1.51489E+06    -288.778E-03     578.188E-03    -289.410E-03     38.0004E-03    -289.235E-03     578.525E-03    -289.091E-03     34.2792E-03
              22     10.7851E-03     98.1948E-03    -23.7272E+06     58.5372E+06     80.5117E+06     1.00714E+06    -288.747E-03     578.163E-03    -289.416E-03     38.9875E-03    -289.221E-03     578.527E-03    -289.064E-03     34.3160E-03
              23     11.4594E-03     98.2566E-03    -17.2090E+06     61.9146E+06     90.3240E+06     677.233E+03    -288.686E-03     578.111E-03    -289.425E-03     38.8176E-03    -289.170E-03     578.492E-03    -289.039E-03     33.3318E-03
              24     12.1338E-03     98.3157E-03    -10.9079E+06     76.2157E+06     98.7022E+06     349.150E+03    -288.567E-03     577.981E-03    -289.414E-03     38.6322E-03    -289.090E-03     578.449E-03    -289.015E-03     32.0385E-03
              25     12.8082E-03     98.3728E-03    -5.18091E+06     82.8395E+06     99.0351E+06    -179.770E+03    -288.473E-03     577.848E-03    -289.375E-03     32.5524E-03    -288.937E-03     578.300E-03    -288.992E-03     26.3644E-03
              26     13.4826E-03     100.101E-03    -2.34212E+06     85.5837E+06     98.7677E+06     125.600E+03    -288.410E-03     577.762E-03    -289.352E-03     26.2670E-03    -288.795E-03     578.156E-03    -288.979E-03     21.2543E-03
              27     13.4827E-03     101.792E-03    -2.57023E+06     87.1910E+06     99.1621E+06     519.656E+03    -288.367E-03     577.713E-03    -289.346E-03     26.3111E-03    -288.756E-03     578.115E-03    -288.973E-03     21.3064E-03
              28     13.4828E-03     103.482E-03    -2.59726E+06     89.3184E+06     99.7958E+06     343.401E+03    -288.309E-03     577.645E-03    -289.336E-03     26.3900E-03    -288.702E-03     578.057E-03    -288.963E-03     21.3830E-03
              29     13.4831E-03     105.171E-03    -2.58213E+06     90.6285E+06     100.349E+06     209.176E+03    -288.218E-03     577.536E-03    -289.318E-03     26.5307E-03    -288.615E-03     577.954E-03    -288.944E-03     21.5205E-03
              30     13.4835E-03     106.861E-03    -2.53236E+06     92.0701E+06     101.574E+06     420.980E+03    -288.144E-03     577.439E-03    -289.294E-03     26.6309E-03    -288.545E-03     577.863E-03    -288.916E-03     21.6192E-03
              31     13.4840E-03     108.551E-03    -2.69540E+06     94.1551E+06     102.838E+06     467.297E+03    -288.117E-03     577.383E-03    -289.266E-03     26.6285E-03    -288.524E-03     577.816E-03    -288.884E-03     21.6055E-03
              32     13.4844E-03     110.240E-03    -2.59731E+06     96.2561E+06     103.034E+06     416.160E+03    -288.075E-03     577.306E-03    -289.231E-03     26.6325E-03    -288.485E-03     577.750E-03    -288.852E-03     21.5903E-03
              33     13.4849E-03     111.930E-03    -2.80488E+06     97.3540E+06     102.458E+06     94.8169E+03    -288.014E-03     577.207E-03    -289.192E-03     26.6534E-03    -288.427E-03     577.658E-03    -288.817E-03     21.5844E-03
              34     13.4854E-03     113.619E-03    -2.57298E+06     97.0403E+06     102.369E+06    -162.164E+03    -287.992E-03     577.147E-03    -289.155E-03     26.6851E-03    -288.403E-03     577.597E-03    -288.780E-03     21.5888E-03
              35     13.4859E-03     115.308E-03    -2.50023E+06     97.3962E+06     102.919E+06     355.188E+03    -288.020E-03     577.135E-03    -289.115E-03     26.7808E-03    -288.434E-03     577.587E-03    -288.738E-03     21.6681E-03
              36     13.4865E-03     116.997E-03    -2.75784E+06     99.0943E+06     103.738E+06     417.473E+03    -288.038E-03     577.106E-03    -289.068E-03     26.8415E-03    -288.457E-03     577.566E-03    -288.689E-03     21.7031E-03
              37     13.4873E-03     118.686E-03    -2.62366E+06     100.574E+06     104.720E+06     276.607E+03    -287.964E-03     576.981E-03    -289.017E-03     26.8696E-03    -288.387E-03     577.448E-03    -288.636E-03     21.7077E-03
              38     13.4881E-03     120.375E-03    -2.67651E+06     102.548E+06     106.145E+06     624.447E+03    -287.895E-03     576.864E-03    -288.968E-03     26.8400E-03    -288.324E-03     577.338E-03    -288.582E-03     21.6653E-03
              39     13.4887E-03     122.064E-03    -2.90358E+06     104.568E+06     106.793E+06     238.179E+03    -287.820E-03     576.734E-03    -288.914E-03     26.8966E-03    -288.254E-03     577.219E-03    -288.527E-03     21.6903E-03
              40     13.4897E-03     123.752E-03    -2.68744E+06     105.160E+06     107.922E+06     167.712E+03    -287.779E-03     576.637E-03    -288.859E-03     26.9635E-03    -288.215E-03     577.124E-03    -288.468E-03     21.7302E-03
              41     13.4903E-03     125.441E-03    -2.70044E+06     107.258E+06     110.580E+06     826.489E+03    -287.937E-03     576.759E-03    -288.823E-03     26.5080E-03    -288.379E-03     577.252E-03    -288.422E-03     21.2580E-03
              42     13.4902E-03     127.130E-03    -2.97673E+06     110.979E+06     111.073E+06     583.994E+03    -287.979E-03     576.783E-03    -288.804E-03     26.1556E-03    -288.428E-03     577.294E-03    -288.405E-03     20.8733E-03
              43     13.4905E-03     128.818E-03    -3.00465E+06     112.317E+06     109.990E+06    -45.2120E+03    -287.948E-03     576.728E-03    -288.779E-03     26.5551E-03    -288.400E-03     577.249E-03    -288.388E-03     21.2445E-03
              44     13.4910E-03     130.507E-03    -2.70925E+06     111.317E+06     109.736E+06    -226.802E+03    -288.046E-03     576.783E-03    -288.737E-03     26.8255E-03    -288.496E-03     577.301E-03    -288.346E-03     21.4744E-03
              45     13.4918E-03     132.196E-03    -2.57154E+06     111.736E+06     110.658E+06     538.287E+03    -287.987E-03     576.676E-03    -288.690E-03     26.7905E-03    -288.438E-03     577.195E-03    -288.295E-03     21.4338E-03
              46     13.4925E-03     133.884E-03    -3.11940E+06     114.249E+06     111.953E+06     544.870E+03    -287.773E-03     576.416E-03    -288.643E-03     26.8219E-03    -288.233E-03     576.946E-03    -288.245E-03     21.4740E-03
              47     13.4932E-03     135.572E-03    -2.68820E+06     116.408E+06     113.159E+06     409.274E+03    -287.497E-03     576.085E-03    -288.588E-03     27.0079E-03    -287.960E-03     576.624E-03    -288.188E-03     21.6499E-03
              48     13.4944E-03     137.259E-03    -3.09765E+06     118.821E+06     114.607E+06     878.106E+03    -287.457E-03     576.003E-03    -288.546E-03     26.5599E-03    -287.927E-03     576.552E-03    -288.141E-03     21.2043E-03
              49     13.4938E-03     138.947E-03    -3.04257E+06     121.970E+06     115.436E+06     212.341E+03    -287.668E-03     576.207E-03    -288.539E-03     25.9600E-03    -288.142E-03     576.768E-03    -288.135E-03     20.5785E-03
              50     13.4938E-03     140.635E-03    -2.78110E+06     123.539E+06     116.264E+06     316.180E+03    -287.654E-03     576.189E-03    -288.535E-03     26.5783E-03    -288.133E-03     576.759E-03    -288.129E-03     21.1843E-03
              51     13.4947E-03     142.323E-03    -3.02133E+06     125.450E+06     118.795E+06     846.611E+03    -287.435E-03     575.951E-03    -288.515E-03     26.6508E-03    -287.921E-03     576.526E-03    -288.099E-03     21.2932E-03
              52     13.4948E-03     144.010E-03    -3.12477E+06     129.384E+06     120.734E+06     597.233E+03    -286.993E-03     575.484E-03    -288.491E-03     26.6353E-03    -287.486E-03     576.075E-03    -288.070E-03     21.3401E-03
              53     13.4958E-03     145.696E-03    -3.13177E+06     132.281E+06     121.647E+06     670.069E+03    -286.498E-03     574.943E-03    -288.445E-03     27.2450E-03    -286.998E-03     575.549E-03    -288.024E-03     21.9700E-03
              54     13.4968E-03     147.382E-03    -3.21356E+06     135.064E+06     123.940E+06     770.235E+03    -286.317E-03     574.709E-03    -288.392E-03     27.0270E-03    -286.825E-03     575.325E-03    -287.963E-03     21.7302E-03
              55     13.4972E-03     149.067E-03    -3.22554E+06     138.354E+06     126.406E+06     562.959E+03    -286.164E-03     574.517E-03    -288.353E-03     26.9053E-03    -286.679E-03     575.146E-03    -287.917E-03     21.6202E-03
              56     13.4981E-03     150.752E-03    -3.35849E+06     140.362E+06     128.330E+06     409.714E+03    -285.824E-03     574.136E-03    -288.312E-03     27.1773E-03    -286.346E-03     574.772E-03    -287.869E-03     21.9174E-03
              57     13.4989E-03     152.436E-03    -3.29377E+06     142.390E+06     130.344E+06     634.054E+03    -285.654E-03     573.925E-03    -288.271E-03     26.9698E-03    -286.180E-03     574.567E-03    -287.821E-03     21.7294E-03
              58     13.4991E-03     154.120E-03    -3.58623E+06     144.462E+06     130.668E+06     174.577E+03    -285.685E-03     573.928E-03    -288.243E-03     26.7089E-03    -286.215E-03     574.580E-03    -287.794E-03     21.4661E-03
              59     13.4993E-03     155.804E-03    -3.28118E+06     143.944E+06     129.622E+06    -354.482E+03    -285.633E-03     573.845E-03    -288.212E-03     27.0605E-03    -286.160E-03     574.496E-03    -287.768E-03     21.8163E-03
              60     13.5002E-03     157.488E-03    -3.10287E+06     143.416E+06     129.658E+06     355.628E+03    -285.499E-03     573.669E-03    -288.170E-03     27.2647E-03    -286.025E-03     574.318E-03    -287.726E-03     22.0495E-03
              61     13.5006E-03     159.172E-03    -3.45328E+06     145.906E+06     131.718E+06     703.442E+03    -285.337E-03     573.471E-03    -288.134E-03     27.2102E-03    -285.871E-03     574.129E-03    -287.682E-03     22.0148E-03
              62     13.5013E-03     160.855E-03    -3.41515E+06     148.988E+06     133.774E+06     651.369E+03    -285.205E-03     573.305E-03    -288.100E-03     27.2927E-03    -285.747E-03     573.976E-03    -287.642E-03     22.0998E-03
              63     13.5018E-03     162.538E-03    -3.46952E+06     152.074E+06     134.524E+06     744.092E+03    -285.187E-03     573.250E-03    -288.062E-03     27.2991E-03    -285.734E-03     573.934E-03    -287.605E-03     22.1141E-03
              64     13.5022E-03     164.222E-03    -3.54305E+06     155.254E+06     136.070E+06     568.563E+03    -285.208E-03     573.235E-03    -288.027E-03     27.5141E-03    -285.762E-03     573.934E-03    -287.567E-03     22.3358E-03
              65     13.5029E-03     165.905E-03    -3.49199E+06     158.023E+06     139.374E+06     764.522E+03    -285.277E-03     573.274E-03    -287.996E-03     27.6738E-03    -285.841E-03     573.981E-03    -287.524E-03     22.5046E-03
              66     13.5033E-03     167.588E-03    -3.82950E+06     160.983E+06     141.438E+06     533.789E+03    -285.466E-03     573.433E-03    -287.967E-03     27.5861E-03    -286.037E-03     574.152E-03    -287.487E-03     22.4285E-03
              67     13.5034E-03     169.272E-03    -3.82946E+06     161.157E+06     140.410E+06    -448.334E+03    -285.764E-03     573.697E-03    -287.932E-03     27.8201E-03    -286.335E-03     574.419E-03    -287.458E-03     22.6618E-03
              68     13.5038E-03     170.956E-03    -3.62046E+06     156.942E+06     136.909E+06    -1.07848E+06    -286.279E-03     574.165E-03    -287.886E-03     28.1409E-03    -286.837E-03     574.870E-03    -287.424E-03     22.9937E-03
              69     13.5040E-03     172.641E-03    -3.11851E+06     153.114E+06     135.905E+06    -458.439E+03    -286.892E-03     574.741E-03    -287.849E-03     28.3140E-03    -287.441E-03     575.428E-03    -287.387E-03     23.1912E-03
              70     13.5044E-03     174.328E-03    -3.81336E+06     151.178E+06     137.019E+06    -277.691E+03    -287.502E-03     575.323E-03    -287.821E-03     28.6322E-03    -288.054E-03     576.001E-03    -287.350E-03     23.5132E-03
              71     13.5046E-03     176.015E-03    -3.58592E+06     147.373E+06     136.761E+06    -1.12565E+06    -288.264E-03     576.044E-03    -287.780E-03     29.1082E-03    -288.809E-03     576.703E-03    -287.305E-03     23.9878E-03
              72     13.5052E-03     177.704E-03    -3.81580E+06     138.843E+06     132.503E+06    -2.17156E+06    -289.335E-03     577.049E-03    -287.714E-03     29.7116E-03    -289.864E-03     577.673E-03    -287.247E-03     24.5962E-03
              73     13.5055E-03     179.394E-03    -2.53491E+06     130.737E+06     131.425E+06    -951.300E+03    -290.760E-03     578.400E-03    -287.639E-03     30.5270E-03    -291.270E-03     578.984E-03    -287.168E-03     25.4676E-03
              74     13.5066E-03     181.087E-03    -4.68256E+06     123.305E+06     133.109E+06    -1.73942E+06    -292.792E-03     580.352E-03    -287.560E-03     31.4073E-03    -293.305E-03     580.900E-03    -287.066E-03     26.4005E-03
              75     13.5067E-03     182.785E-03    -2.60534E+06     111.965E+06     132.644E+06    -2.51391E+06    -295.676E-03     583.132E-03    -287.457E-03     32.2432E-03    -296.159E-03     583.620E-03    -286.952E-03     27.3166E-03
              76     13.5075E-03     184.488E-03    -4.15075E+06     97.9539E+06     127.267E+06    -2.82114E+06    -299.116E-03     586.458E-03    -287.343E-03     32.9428E-03    -299.577E-03     586.884E-03    -286.842E-03     28.1157E-03
              77     13.5070E-03     186.197E-03    -2.97041E+06     77.5413E+06     119.811E+06    -5.13637E+06    -302.650E-03     589.886E-03    -287.236E-03     33.8269E-03    -303.064E-03     590.217E-03    -286.745E-03     29.0629E-03
              78     13.5078E-03     187.911E-03    -2.89273E+06     50.5719E+06     114.201E+06    -5.33841E+06    -305.819E-03     592.963E-03    -287.144E-03     35.0868E-03    -306.184E-03     593.167E-03    -286.642E-03     30.4501E-03
              79     13.5081E-03     189.630E-03    -771.692E+03     34.7336E+06     113.647E+06    -679.024E+03    -308.083E-03     595.141E-03    -287.057E-03     35.6353E-03    -308.407E-03     595.255E-03    -286.538E-03     31.3553E-03
              80     13.5093E-03     191.352E-03    -3.83611E+06     31.0569E+06     110.627E+06    -441.022E+03    -307.879E-03     594.869E-03    -286.989E-03     35.3300E-03    -308.188E-03     594.954E-03    -286.476E-03     31.7870E-03
              81     13.5102E-03     193.070E-03     510.782E+03     29.9596E+06     107.608E+06     1.09747E+06    -302.470E-03     589.468E-03    -286.998E-03     34.2196E-03    -302.709E-03     589.503E-03    -286.504E-03     32.4410E-03
              82     13.5130E-03     194.775E-03     2.48725E+06     26.0126E+06     84.4168E+06    -2.68545E+06    -272.013E-03     559.680E-03    -287.667E-03     14.3813E-03    -272.166E-03     559.699E-03    -287.286E-03     14.5918E-03
              83     12.7735E-03     196.322E-03    -13.0910E+06    -8.62170E+06     63.4678E+06    -7.16961E+06    -246.436E-03     535.856E-03    -289.420E-03    -30.9864E-03    -246.591E-03     535.779E-03    -289.071E-03    -30.0518E-03
              84     12.0515E-03     196.237E-03    -9.04295E+06    -3.17318E+06     86.3483E+06    -2.22222E+06    -248.263E-03     539.806E-03    -291.543E-03    -78.5292E-03    -248.499E-03     539.785E-03    -291.093E-03    -77.0973E-03
              85     11.3442E-03     196.145E-03    -5.96450E+06     10.8231E+06     97.0507E+06    -6.14428E+06    -251.381E-03     544.816E-03    -293.435E-03    -111.774E-03    -251.705E-03     544.903E-03    -292.957E-03    -109.886E-03
              86     10.6484E-03     196.052E-03    -2.17142E+06    -6.37929E+06     93.6814E+06    -7.57335E+06    -255.251E-03     550.391E-03    -295.140E-03    -130.136E-03    -255.558E-03     550.408E-03    -294.659E-03    -128.221E-03
              87     9.96027E-03     195.963E-03    -395.792E+03    -275.081E+03     97.9434E+06    -5.99043E+06    -259.896E-03     556.608E-03    -296.712E-03    -139.243E-03    -260.221E-03     556.649E-03    -296.221E-03    -137.324E-03
              88     9.27782E-03     195.877E-03    -741.544E+03     1.38953E+06     99.9093E+06    -7.56347E+06    -265.321E-03     563.451E-03    -298.130E-03    -142.872E-03    -265.652E-03     563.489E-03    -297.631E-03    -141.041E-03
              89     8.60035E-03     195.797E-03    -633.438E+03     257.108E+03     99.4074E+06    -9.87645E+06    -270.942E-03     570.306E-03    -299.364E-03    -142.771E-03    -271.259E-03     570.322E-03    -298.867E-03    -141.094E-03
              90     7.92735E-03     195.721E-03     82.8754E+03    -1.63980E+06     97.9992E+06    -11.3196E+06    -276.258E-03     576.677E-03    -300.418E-03    -139.557E-03    -276.549E-03     576.661E-03    -299.926E-03    -138.067E-03
              91     7.25804E-03     195.650E-03     755.212E+03    -2.70318E+06     96.3634E+06    -11.9366E+06    -281.101E-03     582.412E-03    -301.310E-03    -133.835E-03    -281.363E-03     582.366E-03    -300.826E-03    -132.555E-03
              92     6.59142E-03     195.585E-03     1.19406E+06    -1.84490E+06     93.6134E+06    -12.7559E+06    -285.439E-03     587.492E-03    -302.052E-03    -126.337E-03    -285.673E-03     587.427E-03    -301.583E-03    -125.290E-03
              93     5.92708E-03     195.526E-03     1.97389E+06    -1.38751E+06     88.3417E+06    -14.2941E+06    -289.287E-03     591.942E-03    -302.655E-03    -117.476E-03    -289.487E-03     591.861E-03    -302.214E-03    -116.679E-03
              94     5.26465E-03     195.472E-03     3.71331E+06    -2.25161E+06     81.1803E+06    -15.9860E+06    -292.671E-03     595.804E-03    -303.133E-03    -107.430E-03    -292.831E-03     595.704E-03    -302.729E-03    -106.890E-03
              95     4.60375E-03     195.425E-03     6.38108E+06    -3.84901E+06     73.4582E+06    -17.0458E+06    -295.603E-03     599.104E-03    -303.502E-03    -96.4295E-03    -295.719E-03     598.984E-03    -303.138E-03    -96.1292E-03
              96     3.94405E-03     195.384E-03     9.67425E+06    -5.38028E+06     65.3725E+06    -17.2886E+06    -298.063E-03     601.832E-03    -303.769E-03    -84.6310E-03    -298.136E-03     601.696E-03    -303.449E-03    -84.5398E-03
              97     3.28536E-03     195.349E-03     13.1963E+06    -6.81616E+06     56.6620E+06    -16.7508E+06    -300.053E-03     603.999E-03    -303.946E-03    -72.0459E-03    -300.084E-03     603.852E-03    -303.672E-03    -72.1234E-03
              98     2.62749E-03     195.320E-03     16.6777E+06    -8.15641E+06     47.4627E+06    -15.4913E+06    -301.602E-03     605.647E-03    -304.045E-03    -58.7225E-03    -301.596E-03     605.495E-03    -303.820E-03    -58.9249E-03
              99     1.97017E-03     195.297E-03     19.7680E+06    -10.2170E+06     38.7682E+06    -13.3604E+06    -302.741E-03     606.826E-03    -304.085E-03    -44.8098E-03    -302.702E-03     606.668E-03    -303.905E-03    -45.0963E-03
             100     1.31325E-03     195.281E-03     21.8339E+06    -12.2772E+06     30.9641E+06    -10.0946E+06    -303.498E-03     607.574E-03    -304.076E-03    -30.5118E-03    -303.434E-03     607.413E-03    -303.935E-03    -30.8274E-03
             101     656.627E-06     195.271E-03     23.8417E+06    -14.5637E+06     22.5943E+06    -6.27685E+06    -303.970E-03     607.900E-03    -303.930E-03    -16.9775E-03    -303.882E-03     607.737E-03    -303.830E-03    -17.2542E-03
             102     994.543E-09     193.525E-03    -20.8108E+06    -33.7735E+06    -19.5889E+06    -4.55078E+06    -295.569E-03     590.337E-03    -294.768E-03    -7.58347E-03    -295.610E-03     590.213E-03    -294.786E-03    -7.52275E-03
             103    -92.5047E-09     191.844E-03    -108.416E+06    -76.1285E+06    -105.731E+06    -6.66731E+06    -282.688E-03     564.622E-03    -281.935E-03    -2.30788E-03    -282.971E-03     564.550E-03    -282.196E-03    -1.93388E-03
             104     253.255E-09     190.189E-03    -189.863E+06    -123.757E+06    -189.938E+06    -6.28317E+06    -277.655E-03     555.003E-03    -277.348E-03     1.15830E-03    -278.150E-03     554.935E-03    -277.843E-03     1.64686E-03
             105     2.82800E-09     188.540E-03    -213.232E+06    -159.300E+06    -213.076E+06    -3.48172E+06    -277.575E-03     554.881E-03    -277.306E-03     2.68039E-03    -278.101E-03     554.702E-03    -277.831E-03     3.23708E-03
             106     103.307E-09     186.887E-03    -164.846E+06    -175.457E+06    -165.630E+06    -910.884E+03    -279.012E-03     557.835E-03    -278.823E-03     2.81156E-03    -279.341E-03     557.436E-03    -279.158E-03     3.32357E-03
             107     33.4971E-09     185.228E-03    -126.409E+06    -179.744E+06    -126.073E+06    -310.146E+03    -280.142E-03     560.081E-03    -279.939E-03     2.60252E-03    -280.330E-03     559.548E-03    -280.126E-03     3.04701E-03
             108     102.129E-09     183.568E-03    -123.107E+06    -186.400E+06    -123.274E+06    -1.57261E+06    -280.671E-03     561.112E-03    -280.441E-03     2.51379E-03    -280.838E-03     560.537E-03    -280.609E-03     2.88093E-03
             109     68.3707E-09     181.906E-03    -129.770E+06    -198.708E+06    -129.598E+06    -1.83852E+06    -281.047E-03     561.849E-03    -280.802E-03     2.54944E-03    -281.220E-03     561.231E-03    -280.973E-03     2.87230E-03
             110     91.1440E-09     180.244E-03    -138.421E+06    -213.074E+06    -138.505E+06    -2.10049E+06    -281.561E-03     562.894E-03    -281.333E-03     2.61108E-03    -281.743E-03     562.230E-03    -281.516E-03     2.90269E-03
             111     52.8410E-09     178.579E-03    -145.860E+06    -227.773E+06    -145.816E+06    -1.90112E+06    -282.313E-03     564.437E-03    -282.124E-03     2.62584E-03    -282.500E-03     563.721E-03    -282.311E-03     2.90536E-03
             112     54.5109E-09     176.911E-03    -150.128E+06    -240.800E+06    -150.242E+06    -1.62419E+06    -283.264E-03     566.386E-03    -283.122E-03     2.57783E-03    -283.447E-03     565.617E-03    -283.306E-03     2.85422E-03
             113     23.7132E-09     175.240E-03    -152.388E+06    -251.726E+06    -152.392E+06    -1.31914E+06    -284.308E-03     568.519E-03    -284.211E-03     2.46919E-03    -284.484E-03     567.702E-03    -284.387E-03     2.74760E-03
             114     25.1116E-09     173.566E-03    -152.893E+06    -260.716E+06    -152.998E+06    -1.09102E+06    -285.347E-03     570.628E-03    -285.281E-03     2.33194E-03    -285.511E-03     569.768E-03    -285.446E-03     2.61395E-03
             115     9.75042E-09     171.888E-03    -152.453E+06    -267.753E+06    -152.490E+06    -789.297E+03    -286.314E-03     572.583E-03    -286.269E-03     2.18970E-03    -286.467E-03     571.686E-03    -286.422E-03     2.47800E-03
             116     12.6998E-09     170.207E-03    -151.175E+06    -272.945E+06    -151.250E+06    -591.263E+03    -287.176E-03     574.320E-03    -287.144E-03     2.05803E-03    -287.316E-03     573.393E-03    -287.285E-03     2.35148E-03
             117     3.10478E-09     168.523E-03    -149.638E+06    -276.709E+06    -149.675E+06    -404.862E+03    -287.913E-03     575.806E-03    -287.893E-03     1.94105E-03    -288.043E-03     574.856E-03    -288.023E-03     2.23940E-03
             118     4.71603E-09     166.837E-03    -147.842E+06    -279.203E+06    -147.905E+06    -252.208E+03    -288.516E-03     577.018E-03    -288.502E-03     1.83547E-03    -288.636E-03     576.051E-03    -288.622E-03     2.13736E-03
             119     3.43114E-09     165.149E-03    -146.164E+06    -280.713E+06    -146.191E+06    -146.014E+03    -288.979E-03     577.944E-03    -288.965E-03     1.74751E-03    -289.091E-03     576.965E-03    -289.077E-03     2.04982E-03
             120     4.48558E-09     163.460E-03    -144.735E+06    -281.509E+06    -144.783E+06    -59.9696E+03    -289.308E-03     578.602E-03    -289.294E-03     1.68288E-03    -289.414E-03     577.614E-03    -289.399E-03     1.98341E-03
             121     4.71293E-09     161.770E-03    -143.512E+06    -281.724E+06    -143.522E+06     5.88452E+03    -289.528E-03     579.036E-03    -289.509E-03     1.64290E-03    -289.629E-03     578.044E-03    -289.610E-03     1.94021E-03
             122     9.27754E-09     160.079E-03    -142.346E+06    -281.639E+06    -142.368E+06     20.9561E+03    -289.667E-03     579.306E-03    -289.639E-03     1.63018E-03    -289.764E-03     578.311E-03    -289.736E-03     1.92199E-03
             123     12.1586E-09     158.388E-03    -141.202E+06    -281.325E+06    -141.209E+06     67.6619E+03    -289.759E-03     579.482E-03    -289.723E-03     1.64501E-03    -289.852E-03     578.485E-03    -289.817E-03     1.93176E-03
             124     12.3508E-09     156.697E-03    -140.208E+06    -280.695E+06    -140.225E+06     107.789E+03    -289.826E-03     579.613E-03    -289.786E-03     1.66992E-03    -289.917E-03     578.616E-03    -289.877E-03     1.95293E-03
             125     14.1933E-09     155.005E-03    -139.533E+06    -279.686E+06    -139.564E+06     164.672E+03    -289.852E-03     579.659E-03    -289.807E-03     1.67362E-03    -289.942E-03     578.666E-03    -289.897E-03     1.95228E-03
             126     17.1238E-09     153.314E-03    -139.086E+06    -278.254E+06    -139.113E+06     212.586E+03    -289.803E-03     579.553E-03    -289.750E-03     1.66544E-03    -289.893E-03     578.565E-03    -289.841E-03     1.93761E-03
             127     19.5262E-09     151.623E-03    -139.072E+06    -276.727E+06    -139.070E+06     191.014E+03    -289.686E-03     579.314E-03    -289.628E-03     1.67823E-03    -289.778E-03     578.334E-03    -289.720E-03     1.94428E-03
             128     19.4374E-09     149.932E-03    -139.622E+06    -275.581E+06    -139.632E+06     113.479E+03    -289.529E-03     578.998E-03    -289.469E-03     1.69305E-03    -289.625E-03     578.025E-03    -289.565E-03     1.95313E-03
             129     19.9973E-09     148.242E-03    -139.701E+06    -274.948E+06    -139.713E+06     50.4825E+03    -289.330E-03     578.595E-03    -289.265E-03     1.68834E-03    -289.427E-03     577.625E-03    -289.363E-03     1.93999E-03
             130     24.9103E-09     146.553E-03    -138.247E+06    -274.655E+06    -138.245E+06     21.1030E+03    -289.092E-03     578.114E-03    -289.022E-03     1.69290E-03    -289.184E-03     577.141E-03    -289.114E-03     1.93621E-03
             131     22.1348E-09     144.864E-03    -136.251E+06    -274.505E+06    -136.239E+06     14.5422E+03    -288.862E-03     577.660E-03    -288.799E-03     1.73674E-03    -288.947E-03     576.683E-03    -288.884E-03     1.97458E-03
             132     12.9820E-09     143.177E-03    -134.831E+06    -274.222E+06    -134.775E+06     70.1884E+03    -288.705E-03     577.341E-03    -288.635E-03     1.78176E-03    -288.786E-03     576.360E-03    -288.716E-03     2.01799E-03
             133     43.9426E-09     141.489E-03    -133.385E+06    -273.395E+06    -133.468E+06     152.144E+03    -288.624E-03     577.155E-03    -288.530E-03     1.81971E-03    -288.701E-03     576.175E-03    -288.608E-03     2.05703E-03
             134     22.5308E-09     139.802E-03    -132.016E+06    -271.994E+06    -132.029E+06     215.083E+03    -288.560E-03     577.042E-03    -288.482E-03     1.84473E-03    -288.634E-03     576.065E-03    -288.556E-03     2.08118E-03
             135     13.7700E-09     138.115E-03    -131.278E+06    -270.255E+06    -131.214E+06     256.227E+03    -288.501E-03     576.935E-03    -288.434E-03     1.83079E-03    -288.575E-03     575.964E-03    -288.508E-03     2.06347E-03
             136     38.0407E-09     136.429E-03    -130.935E+06    -268.426E+06    -130.910E+06     236.626E+03    -288.443E-03     576.803E-03    -288.360E-03     1.82415E-03    -288.519E-03     575.841E-03    -288.436E-03     2.05230E-03
             137     19.3133E-09     134.742E-03    -130.773E+06    -266.864E+06    -130.766E+06     174.133E+03    -288.391E-03     576.691E-03    -288.300E-03     1.83524E-03    -288.468E-03     575.736E-03    -288.377E-03     2.05916E-03
             138     43.2618E-09     133.056E-03    -130.724E+06    -265.582E+06    -130.695E+06     171.961E+03    -288.368E-03     576.646E-03    -288.278E-03     1.85429E-03    -288.447E-03     575.697E-03    -288.357E-03     2.07804E-03
             139     12.7940E-09     131.369E-03    -130.291E+06    -264.417E+06    -130.322E+06     142.219E+03    -288.383E-03     576.683E-03    -288.301E-03     1.87036E-03    -288.462E-03     575.739E-03    -288.380E-03     2.09248E-03
             140     38.3406E-09     129.683E-03    -129.469E+06    -263.349E+06    -129.495E+06     145.326E+03    -288.443E-03     576.807E-03    -288.364E-03     1.87979E-03    -288.521E-03     575.866E-03    -288.442E-03     2.09795E-03
             141     13.6604E-09     127.996E-03    -128.806E+06    -261.967E+06    -128.781E+06     220.230E+03    -288.531E-03     576.981E-03    -288.450E-03     1.87865E-03    -288.608E-03     576.044E-03    -288.527E-03     2.09521E-03
             142     41.6844E-09     126.309E-03    -128.473E+06    -260.239E+06    -128.483E+06     240.233E+03    -288.625E-03     577.174E-03    -288.548E-03     1.88179E-03    -288.704E-03     576.245E-03    -288.627E-03     2.09786E-03
             143     3.63108E-09     124.621E-03    -128.147E+06    -258.485E+06    -128.250E+06     215.133E+03    -288.723E-03     577.382E-03    -288.659E-03     1.88012E-03    -288.803E-03     576.461E-03    -288.739E-03     2.09421E-03
             144     33.7720E-09     122.934E-03    -127.856E+06    -256.864E+06    -127.911E+06     202.323E+03    -288.823E-03     577.580E-03    -288.757E-03     1.86542E-03    -288.904E-03     576.666E-03    -288.839E-03     2.07644E-03
             145     14.1517E-09     121.245E-03    -127.342E+06    -255.474E+06    -127.320E+06     167.021E+03    -288.909E-03     577.748E-03    -288.839E-03     1.85788E-03    -288.990E-03     576.840E-03    -288.921E-03     2.06694E-03
             146     29.3086E-09     119.557E-03    -126.496E+06    -254.484E+06    -126.514E+06     92.3022E+03    -288.985E-03     577.902E-03    -288.917E-03     1.85521E-03    -289.065E-03     576.997E-03    -288.997E-03     2.06194E-03
             147     16.4469E-09     117.868E-03    -125.603E+06    -253.724E+06    -125.604E+06     112.110E+03    -289.067E-03     578.065E-03    -288.998E-03     1.85783E-03    -289.145E-03     577.161E-03    -289.076E-03     2.06387E-03
             148     27.5954E-09     116.179E-03    -124.485E+06    -252.786E+06    -124.502E+06     136.923E+03    -289.154E-03     578.241E-03    -289.086E-03     1.85838E-03    -289.230E-03     577.338E-03    -289.162E-03     2.06400E-03
             149     17.3275E-09     114.490E-03    -123.341E+06    -251.578E+06    -123.357E+06     189.345E+03    -289.239E-03     578.410E-03    -289.171E-03     1.85360E-03    -289.312E-03     577.510E-03    -289.244E-03     2.05953E-03
             150     26.3401E-09     112.800E-03    -122.593E+06    -250.017E+06    -122.605E+06     221.382E+03    -289.309E-03     578.551E-03    -289.241E-03     1.84660E-03    -289.382E-03     577.656E-03    -289.314E-03     2.05230E-03
             151     18.8147E-09     111.111E-03    -122.389E+06    -248.222E+06    -122.408E+06     258.803E+03    -289.365E-03     578.663E-03    -289.298E-03     1.84221E-03    -289.440E-03     577.777E-03    -289.372E-03     2.04768E-03
             152     24.5160E-09     109.421E-03    -122.427E+06    -246.345E+06    -122.426E+06     241.335E+03    -289.406E-03     578.744E-03    -289.338E-03     1.83365E-03    -289.483E-03     577.867E-03    -289.416E-03     2.03828E-03
             153     20.0294E-09     107.730E-03    -122.099E+06    -244.969E+06    -122.094E+06     123.842E+03    -289.428E-03     578.789E-03    -289.361E-03     1.82587E-03    -289.506E-03     577.919E-03    -289.440E-03     2.02814E-03
             154     22.6171E-09     106.040E-03    -121.874E+06    -244.377E+06    -121.872E+06     34.1354E+03    -289.438E-03     578.809E-03    -289.371E-03     1.82296E-03    -289.516E-03     577.940E-03    -289.449E-03     2.02362E-03
             155     21.8418E-09     104.350E-03    -121.776E+06    -244.653E+06    -121.761E+06    -105.587E+03    -289.441E-03     578.814E-03    -289.373E-03     1.82030E-03    -289.518E-03     577.944E-03    -289.451E-03     2.01863E-03
             156     22.0567E-09     102.660E-03    -121.174E+06    -245.144E+06    -121.227E+06    -21.6228E+03    -289.440E-03     578.813E-03    -289.372E-03     1.81735E-03    -289.515E-03     577.939E-03    -289.447E-03     2.01685E-03
             157     22.6732E-09     100.970E-03    -120.803E+06    -244.954E+06    -120.790E+06     71.0790E+03    -289.437E-03     578.807E-03    -289.369E-03     1.81703E-03    -289.511E-03     577.932E-03    -289.443E-03     2.01792E-03
             158     21.5478E-09     99.2796E-03    -120.589E+06    -244.528E+06    -120.611E+06     45.6447E+03    -289.434E-03     578.801E-03    -289.367E-03     1.81716E-03    -289.508E-03     577.928E-03    -289.440E-03     2.01765E-03
             159     21.7993E-09     95.8994E-03    -120.249E+06    -243.420E+06    -120.254E+06     70.9572E+03    -289.432E-03     578.795E-03    -289.364E-03     1.81843E-03    -289.505E-03     577.927E-03    -289.438E-03     2.01926E-03
             160     22.2703E-09     94.2092E-03    -120.158E+06    -242.884E+06    -120.167E+06     71.7659E+03    -289.432E-03     578.795E-03    -289.364E-03     1.81853E-03    -289.506E-03     577.929E-03    -289.438E-03     2.01938E-03
             161     22.2721E-09     92.5191E-03    -120.108E+06    -242.383E+06    -120.111E+06     62.4440E+03    -289.433E-03     578.797E-03    -289.365E-03     1.81968E-03    -289.508E-03     577.934E-03    -289.440E-03     2.02029E-03
             162     22.0730E-09     90.8289E-03    -120.108E+06    -241.947E+06    -120.118E+06     53.6218E+03    -289.434E-03     578.801E-03    -289.366E-03     1.82036E-03    -289.510E-03     577.939E-03    -289.442E-03     2.02072E-03
             163     22.5630E-09     89.1387E-03    -120.155E+06    -241.564E+06    -120.159E+06     48.1151E+03    -289.437E-03     578.805E-03    -289.368E-03     1.82122E-03    -289.513E-03     577.946E-03    -289.445E-03     2.02138E-03
             164     22.3398E-09     87.4485E-03    -120.231E+06    -241.251E+06    -120.239E+06     35.6090E+03    -289.440E-03     578.811E-03    -289.371E-03     1.82226E-03    -289.517E-03     577.954E-03    -289.448E-03     2.02208E-03
             165     22.5882E-09     85.7583E-03    -120.326E+06    -241.023E+06    -120.331E+06     24.1120E+03    -289.444E-03     578.819E-03    -289.375E-03     1.82296E-03    -289.521E-03     577.963E-03    -289.453E-03     2.02245E-03
             166     22.2006E-09     84.0681E-03    -120.402E+06    -240.862E+06    -120.411E+06     18.1761E+03    -289.448E-03     578.828E-03    -289.380E-03     1.82386E-03    -289.526E-03     577.973E-03    -289.458E-03     2.02316E-03
             167     22.5034E-09     82.3779E-03    -120.438E+06    -240.740E+06    -120.443E+06     13.7542E+03    -289.454E-03     578.839E-03    -289.385E-03     1.82464E-03    -289.532E-03     577.985E-03    -289.464E-03     2.02377E-03
             168     22.3027E-09     80.6876E-03    -120.472E+06    -240.685E+06    -120.479E+06        -155.888    -289.460E-03     578.851E-03    -289.391E-03     1.82546E-03    -289.538E-03     577.996E-03    -289.470E-03     2.02422E-03
             169     22.3667E-09     78.9974E-03    -120.529E+06    -240.684E+06    -120.537E+06        -29.4579    -289.466E-03     578.863E-03    -289.397E-03     1.82669E-03    -289.545E-03     578.009E-03    -289.476E-03     2.02530E-03
             170     22.5074E-09     77.3071E-03    -120.577E+06    -240.714E+06    -120.582E+06    -8.48499E+03    -289.473E-03     578.878E-03    -289.404E-03     1.82819E-03    -289.552E-03     578.024E-03    -289.483E-03     2.02648E-03
             171     22.6653E-09     75.6167E-03    -120.569E+06    -240.743E+06    -120.582E+06         484.150    -289.482E-03     578.894E-03    -289.413E-03     1.83009E-03    -289.561E-03     578.040E-03    -289.492E-03     2.02820E-03
             172     22.5319E-09     73.9264E-03    -120.564E+06    -240.711E+06    -120.569E+06     7.90343E+03    -289.491E-03     578.914E-03    -289.422E-03     1.83255E-03    -289.570E-03     578.060E-03    -289.501E-03     2.03049E-03
             173     22.5746E-09     72.2360E-03    -120.563E+06    -240.689E+06    -120.572E+06    -1.90140E+03    -289.502E-03     578.936E-03    -289.433E-03     1.83495E-03    -289.581E-03     578.082E-03    -289.512E-03     2.03245E-03
             174     22.7181E-09     70.5456E-03    -120.553E+06    -240.681E+06    -120.562E+06     4.33642E+03    -289.515E-03     578.960E-03    -289.445E-03     1.83813E-03    -289.594E-03     578.106E-03    -289.524E-03     2.03529E-03
             175     22.8845E-09     68.8551E-03    -120.541E+06    -240.652E+06    -120.548E+06     4.39629E+03    -289.529E-03     578.989E-03    -289.460E-03     1.84237E-03    -289.608E-03     578.135E-03    -289.539E-03     2.03903E-03
             176     22.7778E-09     67.1646E-03    -120.525E+06    -240.622E+06    -120.534E+06     4.56771E+03    -289.546E-03     579.023E-03    -289.476E-03     1.84675E-03    -289.625E-03     578.169E-03    -289.555E-03     2.04285E-03
             177     23.3693E-09     65.4740E-03    -120.514E+06    -240.620E+06    -120.519E+06    -2.33252E+03    -289.567E-03     579.062E-03    -289.496E-03     1.85217E-03    -289.646E-03     578.209E-03    -289.574E-03     2.04760E-03
             178     23.7049E-09     63.7833E-03    -120.501E+06    -240.659E+06    -120.510E+06    -5.87139E+03    -289.591E-03     579.110E-03    -289.518E-03     1.85851E-03    -289.670E-03     578.256E-03    -289.597E-03     2.05323E-03
             179     24.5702E-09     62.0926E-03    -120.499E+06    -240.696E+06    -120.505E+06    -1.68712E+03    -289.620E-03     579.168E-03    -289.547E-03     1.86772E-03    -289.699E-03     578.313E-03    -289.626E-03     2.06146E-03
             180     22.8184E-09     60.4017E-03    -120.495E+06    -240.740E+06    -120.501E+06    -7.20290E+03    -289.655E-03     579.238E-03    -289.583E-03     1.87834E-03    -289.734E-03     578.384E-03    -289.662E-03     2.07073E-03
             181     23.1248E-09     58.7107E-03    -120.482E+06    -240.772E+06    -120.491E+06     1.11184E+03    -289.696E-03     579.320E-03    -289.624E-03     1.88816E-03    -289.775E-03     578.465E-03    -289.702E-03     2.07957E-03
             182     25.2898E-09     57.0196E-03    -120.493E+06    -240.756E+06    -120.498E+06     4.81321E+03    -289.745E-03     579.413E-03    -289.668E-03     1.90007E-03    -289.824E-03     578.559E-03    -289.747E-03     2.09030E-03
             183     26.7607E-09     55.3283E-03    -120.514E+06    -240.741E+06    -120.522E+06     1.80546E+03    -289.804E-03     579.529E-03    -289.725E-03     1.91620E-03    -289.883E-03     578.675E-03    -289.804E-03     2.10472E-03
             184     24.3090E-09     53.6367E-03    -120.516E+06    -240.717E+06    -120.522E+06     7.21484E+03    -289.875E-03     579.672E-03    -289.797E-03     1.93196E-03    -289.953E-03     578.818E-03    -289.876E-03     2.11917E-03
             185     26.0432E-09     51.9449E-03    -120.520E+06    -240.675E+06    -120.526E+06     7.03877E+03    -289.959E-03     579.842E-03    -289.883E-03     1.95179E-03    -290.038E-03     578.989E-03    -289.962E-03     2.13727E-03
             186     22.1114E-09     50.2528E-03    -120.529E+06    -240.620E+06    -120.535E+06     10.3144E+03    -290.057E-03     580.041E-03    -289.984E-03     1.97345E-03    -290.136E-03     579.187E-03    -290.063E-03     2.15685E-03
             187     24.7760E-09     48.5603E-03    -120.538E+06    -240.559E+06    -120.542E+06     8.60296E+03    -290.169E-03     580.264E-03    -290.095E-03     1.99714E-03    -290.248E-03     579.411E-03    -290.175E-03     2.17843E-03
             188     23.9761E-09     46.8675E-03    -120.541E+06    -240.491E+06    -120.548E+06     11.6154E+03    -290.296E-03     580.515E-03    -290.219E-03     2.02727E-03    -290.375E-03     579.662E-03    -290.299E-03     2.20580E-03
             189     26.9708E-09     45.1741E-03    -120.556E+06    -240.393E+06    -120.559E+06     16.3729E+03    -290.442E-03     580.802E-03    -290.361E-03     2.06241E-03    -290.521E-03     579.950E-03    -290.440E-03     2.23802E-03
             190     27.9309E-09     43.4803E-03    -120.567E+06    -240.266E+06    -120.571E+06     18.1046E+03    -290.613E-03     581.139E-03    -290.526E-03     2.10600E-03    -290.692E-03     580.287E-03    -290.605E-03     2.27785E-03
             191     30.5889E-09     41.7858E-03    -120.583E+06    -240.115E+06    -120.584E+06     23.6145E+03    -290.817E-03     581.540E-03    -290.723E-03     2.15796E-03    -290.897E-03     580.689E-03    -290.803E-03     2.32527E-03
             192     33.3393E-09     40.0906E-03    -120.598E+06    -239.934E+06    -120.599E+06     26.5869E+03    -291.065E-03     582.025E-03    -290.960E-03     2.22015E-03    -291.145E-03     581.175E-03    -291.040E-03     2.38236E-03
             193     40.5368E-09     38.3944E-03    -120.624E+06    -239.738E+06    -120.621E+06     22.2526E+03    -291.371E-03     582.622E-03    -291.251E-03     2.29631E-03    -291.452E-03     581.773E-03    -291.331E-03     2.45163E-03
             194     43.7121E-09     36.6972E-03    -120.614E+06    -239.488E+06    -120.617E+06     49.2049E+03    -291.753E-03     583.371E-03    -291.617E-03     2.38826E-03    -291.834E-03     582.523E-03    -291.698E-03     2.53656E-03
             195     50.8443E-09     34.9984E-03    -120.620E+06    -239.220E+06    -120.605E+06     21.9182E+03    -292.223E-03     584.297E-03    -292.074E-03     2.49372E-03    -292.305E-03     583.451E-03    -292.155E-03     2.63244E-03
             196     50.6188E-09     33.2980E-03    -120.780E+06    -239.082E+06    -120.789E+06     16.5478E+03    -292.785E-03     585.418E-03    -292.633E-03     2.61736E-03    -292.867E-03     584.573E-03    -292.715E-03     2.74449E-03
             197     47.0478E-09     31.5955E-03    -120.862E+06    -238.729E+06    -120.869E+06     83.7486E+03    -293.435E-03     586.738E-03    -293.302E-03     2.75084E-03    -293.518E-03     585.895E-03    -293.385E-03     2.86680E-03
             198     28.0828E-09     29.8905E-03    -120.516E+06    -237.918E+06    -120.539E+06     129.842E+03    -294.134E-03     588.185E-03    -294.051E-03     2.86057E-03    -294.217E-03     587.345E-03    -294.134E-03     2.96612E-03
             199     2.91304E-09     28.1830E-03    -120.270E+06    -236.800E+06    -120.296E+06     170.235E+03    -294.803E-03     589.591E-03    -294.789E-03     2.92069E-03    -294.886E-03     588.756E-03    -294.872E-03     3.02134E-03
             200    -21.2588E-09     26.4731E-03    -120.455E+06    -236.124E+06    -120.468E+06     4.84333E+03    -295.324E-03     590.700E-03    -295.376E-03     2.90142E-03    -295.409E-03     589.868E-03    -295.461E-03     2.99705E-03
             201    -35.9893E-09     24.7618E-03    -120.474E+06    -236.398E+06    -120.559E+06    -84.5124E+03    -295.561E-03     591.257E-03    -295.696E-03     2.83958E-03    -295.646E-03     590.425E-03    -295.781E-03     2.92899E-03
             202    -92.9757E-09     23.0501E-03    -120.331E+06    -236.721E+06    -120.404E+06    -7.48769E+03    -295.398E-03     591.008E-03    -295.610E-03     2.66636E-03    -295.482E-03     590.173E-03    -295.694E-03     2.76068E-03
             203    -67.5756E-09     21.3396E-03    -120.030E+06    -236.628E+06    -120.149E+06         740.717    -294.705E-03     589.633E-03    -294.928E-03     2.38732E-03    -294.788E-03     588.798E-03    -295.011E-03     2.47964E-03
             204    -75.0968E-09     19.6327E-03    -119.395E+06    -236.327E+06    -119.541E+06     44.2718E+03    -293.327E-03     586.879E-03    -293.552E-03     2.05197E-03    -293.408E-03     586.044E-03    -293.634E-03     2.12770E-03
             205    -86.8333E-09     17.9317E-03    -118.631E+06    -235.936E+06    -118.789E+06     7.35756E+03    -291.110E-03     582.471E-03    -291.361E-03     1.56499E-03    -291.189E-03     581.635E-03    -291.441E-03     1.61359E-03
             206    -90.5395E-09     16.2400E-03    -118.030E+06    -235.543E+06    -118.255E+06     27.3754E+03    -287.897E-03     576.064E-03    -288.167E-03     934.735E-06    -287.975E-03     575.228E-03    -288.246E-03     937.821E-06
             207    -94.6372E-09     14.5609E-03    -117.329E+06    -234.963E+06    -117.531E+06     65.5905E+03    -283.569E-03     567.402E-03    -283.833E-03     177.853E-06    -283.646E-03     566.567E-03    -283.910E-03     115.114E-06
             208    -71.1735E-09     12.8984E-03    -116.858E+06    -234.466E+06    -117.022E+06    -32.2503E+03    -278.138E-03     556.480E-03    -278.342E-03    -610.136E-06    -278.214E-03     555.645E-03    -278.418E-03    -769.079E-06
             209    -31.8020E-09     11.2559E-03    -117.318E+06    -233.666E+06    -117.279E+06     144.173E+03    -272.071E-03     544.265E-03    -272.194E-03    -1.02167E-03    -272.151E-03     543.435E-03    -272.271E-03    -1.28253E-03
             210    -21.0462E-09     9.63375E-03    -117.981E+06    -233.035E+06    -117.379E+06    -4.54861E+03    -266.612E-03     533.336E-03    -266.724E-03    -603.610E-06    -266.695E-03     532.511E-03    -266.802E-03    -921.823E-06
             211    -68.6106E-09     8.02686E-03    -119.240E+06    -234.962E+06    -118.594E+06    -448.071E+03    -263.174E-03     526.553E-03    -263.379E-03     415.213E-06    -263.258E-03     525.723E-03    -263.458E-03     114.475E-06
             212    -117.778E-09     6.42641E-03    -114.403E+06    -238.806E+06    -114.029E+06    -514.449E+03    -262.188E-03     524.713E-03    -262.525E-03     1.24131E-03    -262.249E-03     523.850E-03    -262.583E-03     1.00405E-03
             213    -158.728E-09     4.82523E-03    -98.3872E+06    -242.201E+06    -98.3191E+06    -371.315E+03    -262.847E-03     526.158E-03    -263.311E-03     1.44873E-03    -262.845E-03     525.232E-03    -263.309E-03     1.27550E-03
             214    -206.351E-09     3.22016E-03    -80.3809E+06    -243.104E+06    -80.5122E+06     149.730E+03    -264.009E-03     528.597E-03    -264.588E-03     1.17178E-03    -263.942E-03     527.615E-03    -264.522E-03     1.06156E-03
             215    -230.382E-09     1.61124E-03    -67.4432E+06    -241.550E+06    -67.4808E+06     301.209E+03    -264.937E-03     530.538E-03    -265.601E-03     642.314E-06    -264.826E-03     529.526E-03    -265.491E-03     589.698E-06
             216     690.010E-06    -1.22125E-15    -62.3324E+06    -238.361E+06    -62.1828E+06     155.569E+03    -265.574E-03     531.417E-03    -265.843E-03     559.647E-06    -265.450E-03     530.406E-03    -265.718E-03     513.320E-06
             217     1.37986E-03    -1.22125E-15    -62.1884E+06    -232.198E+06    -61.4579E+06     261.173E+03    -266.095E-03     531.878E-03    -265.783E-03     1.03645E-03    -265.981E-03     530.897E-03    -265.663E-03     949.852E-06
             218     2.06937E-03    -1.22125E-15    -61.9454E+06    -222.339E+06    -60.4407E+06     289.644E+03    -266.680E-03     532.652E-03    -265.972E-03     1.55665E-03    -266.580E-03     531.718E-03    -265.862E-03     1.42480E-03
             219     2.75839E-03    -1.22125E-15    -61.5166E+06    -208.711E+06    -59.1269E+06     85.6459E+03    -267.522E-03     533.762E-03    -266.240E-03     2.09658E-03    -267.442E-03     532.894E-03    -266.144E-03     1.91318E-03
             220     3.44672E-03    -1.22125E-15    -60.7546E+06    -191.232E+06    -57.5285E+06    -321.151E+03    -268.642E-03     535.232E-03    -266.590E-03     2.65998E-03    -268.586E-03     534.448E-03    -266.513E-03     2.41838E-03
             221     4.13416E-03    -1.22125E-15    -59.6217E+06    -169.988E+06    -55.7391E+06    -741.881E+03    -270.062E-03     537.090E-03    -267.028E-03     3.25597E-03    -270.033E-03     536.408E-03    -266.974E-03     2.95132E-03
             222     4.82049E-03    -1.22125E-15    -57.9924E+06    -144.946E+06    -53.8531E+06    -1.56869E+06    -271.811E-03     539.370E-03    -267.558E-03     3.89098E-03    -271.815E-03     538.809E-03    -267.533E-03     3.51080E-03
             223     5.50548E-03    -1.22125E-15    -55.3978E+06    -116.040E+06    -51.8685E+06    -3.27251E+06    -273.933E-03     542.120E-03    -268.187E-03     4.57060E-03    -273.968E-03     541.697E-03    -268.198E-03     4.09260E-03
             224     6.18886E-03    -1.22125E-15    -51.2554E+06    -83.0090E+06    -49.6694E+06    -5.75065E+06    -276.484E-03     545.406E-03    -268.922E-03     5.32395E-03    -276.550E-03     545.140E-03    -268.976E-03     4.72584E-03
             225     6.87031E-03    -1.22125E-15    -46.0623E+06    -41.7506E+06    -46.3391E+06    -6.50257E+06    -279.542E-03     549.318E-03    -269.776E-03     6.14112E-03    -279.648E-03     549.247E-03    -269.880E-03     5.43578E-03
             226     7.54948E-03    -1.22125E-15    -42.0638E+06    -3.58212E+06    -37.7500E+06    -2.52767E+06    -283.264E-03     554.071E-03    -270.807E-03     7.16525E-03    -283.419E-03     554.174E-03    -270.930E-03     6.40962E-03
             227     8.22550E-03    -1.22125E-15    -40.2515E+06     15.9641E+06    -22.4019E+06     867.871E+03    -287.812E-03     559.884E-03    -272.071E-03     8.81512E-03    -288.011E-03     560.061E-03    -272.148E-03     7.98590E-03
             228     8.89790E-03    -1.22125E-15    -38.3510E+06     27.9929E+06    -6.46518E+06    -510.241E+03    -293.337E-03     566.883E-03    -273.547E-03     11.1464E-03    -293.569E-03     567.098E-03    -273.564E-03     10.1331E-03
             229     9.56630E-03    -1.22125E-15    -34.6407E+06     40.9118E+06     13.2241E+06    -150.172E+03    -300.118E-03     575.387E-03    -275.268E-03     14.7182E-03    -300.384E-03     575.637E-03    -275.211E-03     13.4935E-03
             230     10.2282E-03    -1.22125E-15    -29.4655E+06     51.9441E+06     36.5360E+06     327.305E+03    -308.445E-03     585.727E-03    -277.282E-03     21.7172E-03    -308.744E-03     586.001E-03    -277.132E-03     20.2364E-03
             231     10.8818E-03    -1.22125E-15    -23.4366E+06     61.9672E+06     62.1135E+06    -1.06656E+06    -318.608E-03     598.239E-03    -279.631E-03     32.9649E-03    -318.952E-03     598.541E-03    -279.377E-03     30.9456E-03
             232     11.5281E-03    -1.22125E-15    -17.5851E+06     70.9320E+06     87.4044E+06     646.503E+03    -331.491E-03     613.864E-03    -282.372E-03     46.4727E-03    -331.912E-03     614.222E-03    -282.013E-03     43.2283E-03
             233     12.1658E-03    -1.22125E-15    -11.8161E+06     78.2142E+06     100.707E+06     1.06510E+06    -349.048E-03     634.619E-03    -285.571E-03     61.9716E-03    -349.607E-03     635.125E-03    -285.163E-03     56.2477E-03
             234     12.7898E-03    -1.22125E-15    -3.00359E+06     84.9800E+06     107.204E+06    -2.80854E+06    -372.442E-03     661.858E-03    -289.416E-03     82.8035E-03    -373.279E-03     662.680E-03    -288.999E-03     72.9055E-03
             235     13.4540E-03     1.90120E-03    -1.86127E+06     87.1595E+06     103.013E+06    -4.07764E+06    -370.427E-03     660.714E-03    -290.287E-03     76.9403E-03    -371.290E-03     661.582E-03    -289.896E-03     65.9804E-03
             236     13.4759E-03     3.71378E-03    -4.24110E+06     87.4572E+06     96.4428E+06    -1.73949E+06    -343.507E-03     632.324E-03    -288.817E-03     51.8046E-03    -344.127E-03     632.959E-03    -288.455E-03     43.2063E-03
             237     13.4807E-03     5.47239E-03    -2.50021E+06     88.1054E+06     98.1476E+06    -269.848E+03    -325.270E-03     613.909E-03    -288.639E-03     40.9845E-03    -325.785E-03     614.442E-03    -288.272E-03     33.5758E-03
             238     13.4819E-03     7.20991E-03    -2.86142E+06     86.6414E+06     98.7278E+06    -21.2679E+03    -313.713E-03     602.492E-03    -288.779E-03     35.9030E-03    -314.190E-03     602.980E-03    -288.407E-03     29.0444E-03
             239     13.4825E-03     8.93115E-03    -2.70804E+06     85.2790E+06     98.4203E+06    -182.518E+03    -304.798E-03     593.753E-03    -288.955E-03     33.8143E-03    -305.253E-03     594.216E-03    -288.583E-03     27.3633E-03
             240     13.4826E-03     10.6404E-03    -2.62511E+06     83.9358E+06     97.9286E+06    -160.625E+03    -298.007E-03     587.115E-03    -289.109E-03     32.4107E-03    -298.445E-03     587.559E-03    -288.737E-03     26.2782E-03
             241     13.4827E-03     12.3399E-03    -2.64556E+06     82.9227E+06     97.4955E+06    -190.959E+03    -292.703E-03     581.941E-03    -289.239E-03     31.3367E-03    -293.128E-03     582.368E-03    -288.868E-03     25.4819E-03
             242     13.4827E-03     14.0320E-03    -2.53840E+06     82.0057E+06     97.1699E+06    -133.730E+03    -288.544E-03     577.888E-03    -289.345E-03     30.3461E-03    -288.956E-03     578.301E-03    -288.974E-03     24.7318E-03
             243     13.4826E-03     15.7182E-03    -2.57107E+06     81.8202E+06     97.0269E+06     76.9481E+03    -285.350E-03     574.780E-03    -289.430E-03     29.4550E-03    -285.753E-03     575.183E-03    -289.060E-03     24.0423E-03
             244     13.4825E-03     17.4000E-03    -2.63959E+06     82.0119E+06     96.8796E+06     34.0993E+03    -283.050E-03     572.545E-03    -289.495E-03     28.6824E-03    -283.448E-03     572.943E-03    -289.125E-03     23.4243E-03
             245     13.4824E-03     19.0790E-03    -2.58557E+06     81.9210E+06     96.6928E+06    -47.4736E+03    -281.599E-03     571.139E-03    -289.540E-03     28.0662E-03    -281.990E-03     571.531E-03    -289.171E-03     22.9232E-03
             246     13.4823E-03     20.7564E-03    -2.56077E+06     81.7049E+06     96.6060E+06    -7.85358E+03    -280.905E-03     570.471E-03    -289.566E-03     27.5894E-03    -281.292E-03     570.858E-03    -289.197E-03     22.5287E-03
             247     13.4822E-03     22.4335E-03    -2.54738E+06     81.6717E+06     96.5434E+06     34.3152E+03    -280.823E-03     570.396E-03    -289.573E-03     27.2222E-03    -281.207E-03     570.781E-03    -289.205E-03     22.2153E-03
             248     13.4822E-03     24.1110E-03    -2.53847E+06     81.7686E+06     96.4969E+06     43.2059E+03    -281.207E-03     570.773E-03    -289.566E-03     26.9360E-03    -281.588E-03     571.156E-03    -289.198E-03     21.9605E-03
             249     13.4822E-03     25.7895E-03    -2.50456E+06     81.8988E+06     96.5772E+06     46.7312E+03    -281.902E-03     571.451E-03    -289.549E-03     26.7179E-03    -282.282E-03     571.833E-03    -289.181E-03     21.7596E-03
             250     13.4822E-03     27.4695E-03    -2.50422E+06     82.0308E+06     96.6028E+06     38.4833E+03    -282.745E-03     572.271E-03    -289.526E-03     26.5333E-03    -283.124E-03     572.652E-03    -289.159E-03     21.5827E-03
             251     13.4822E-03     29.1511E-03    -2.48238E+06     82.1277E+06     96.7134E+06     27.2226E+03    -283.618E-03     573.120E-03    -289.503E-03     26.3697E-03    -283.996E-03     573.501E-03    -289.135E-03     21.4220E-03
             252     13.4822E-03     30.8340E-03    -2.46915E+06     82.2787E+06     96.8043E+06     50.6162E+03    -284.431E-03     573.911E-03    -289.480E-03     26.2291E-03    -284.809E-03     574.291E-03    -289.112E-03     21.2820E-03
             253     13.4823E-03     32.5183E-03    -2.48787E+06     82.4966E+06     96.8086E+06     47.7178E+03    -285.135E-03     574.595E-03    -289.460E-03     26.1276E-03    -285.513E-03     574.976E-03    -289.092E-03     21.1793E-03
             254     13.4823E-03     34.2036E-03    -2.47920E+06     82.6471E+06     96.9459E+06     25.1625E+03    -285.728E-03     575.172E-03    -289.443E-03     26.0531E-03    -286.106E-03     575.553E-03    -289.075E-03     21.1025E-03
             255     13.4823E-03     35.8899E-03    -2.47516E+06     82.7963E+06     97.0513E+06     42.6698E+03    -286.213E-03     575.642E-03    -289.429E-03     25.9894E-03    -286.590E-03     576.023E-03    -289.061E-03     21.0364E-03
             256     13.4823E-03     37.5768E-03    -2.49811E+06     82.9772E+06     97.0443E+06     33.1173E+03    -286.606E-03     576.024E-03    -289.418E-03     25.9441E-03    -286.984E-03     576.406E-03    -289.049E-03     20.9883E-03
             257     13.4823E-03     39.2643E-03    -2.48316E+06     83.0861E+06     97.1095E+06     12.2578E+03    -286.932E-03     576.341E-03    -289.409E-03     25.9258E-03    -287.310E-03     576.723E-03    -289.041E-03     20.9665E-03
             258     13.4823E-03     40.9524E-03    -2.49469E+06     83.1137E+06     97.1510E+06     3.64046E+03    -287.198E-03     576.600E-03    -289.402E-03     25.9143E-03    -287.576E-03     576.982E-03    -289.033E-03     20.9518E-03
             259     13.4823E-03     42.6408E-03    -2.48467E+06     83.1334E+06     97.1560E+06     4.13366E+03    -287.416E-03     576.811E-03    -289.396E-03     25.9096E-03    -287.793E-03     577.194E-03    -289.027E-03     20.9441E-03
             260     13.4824E-03     44.3295E-03    -2.49360E+06     83.1616E+06     97.1846E+06     10.3640E+03    -287.599E-03     576.989E-03    -289.390E-03     25.9125E-03    -287.977E-03     577.372E-03    -289.021E-03     20.9441E-03
             261     13.4824E-03     46.0185E-03    -2.49183E+06     83.1871E+06     97.1934E+06         185.548    -287.752E-03     577.138E-03    -289.386E-03     25.9197E-03    -288.130E-03     577.521E-03    -289.017E-03     20.9478E-03
             262     13.4824E-03     47.7077E-03    -2.48621E+06     83.2212E+06     97.2124E+06     15.6535E+03    -287.882E-03     577.264E-03    -289.382E-03     25.9316E-03    -288.260E-03     577.646E-03    -289.013E-03     20.9568E-03
             263     13.4824E-03     49.3972E-03    -2.50488E+06     83.2501E+06     97.2302E+06    -2.91534E+03    -287.992E-03     577.371E-03    -289.379E-03     25.9414E-03    -288.371E-03     577.754E-03    -289.009E-03     20.9632E-03
             264     13.4824E-03     51.0868E-03    -2.48196E+06     83.2190E+06     97.2086E+06    -10.5974E+03    -288.082E-03     577.458E-03    -289.375E-03     25.9601E-03    -288.461E-03     577.841E-03    -289.007E-03     20.9788E-03
             265     13.4824E-03     52.7765E-03    -2.50269E+06     83.1627E+06     97.2172E+06    -8.18895E+03    -288.158E-03     577.531E-03    -289.373E-03     25.9728E-03    -288.537E-03     577.914E-03    -289.004E-03     20.9887E-03
             266     13.4824E-03     54.4664E-03    -2.48075E+06     83.1342E+06     97.2303E+06    -6.17513E+03    -288.222E-03     577.593E-03    -289.371E-03     25.9824E-03    -288.600E-03     577.976E-03    -289.002E-03     20.9956E-03
             267     13.4824E-03     56.1563E-03    -2.50092E+06     83.1077E+06     97.1308E+06    -3.96344E+03    -288.270E-03     577.639E-03    -289.369E-03     25.9972E-03    -288.648E-03     578.022E-03    -289.001E-03     21.0082E-03
             268     13.4824E-03     57.8463E-03    -2.49408E+06     83.0393E+06     97.1798E+06    -26.7212E+03    -288.313E-03     577.682E-03    -289.369E-03     26.0196E-03    -288.692E-03     578.065E-03    -288.999E-03     21.0278E-03
             269     13.4824E-03     59.5363E-03    -2.47469E+06     82.9577E+06     97.1717E+06    -1.62551E+03    -288.343E-03     577.711E-03    -289.367E-03     26.0334E-03    -288.722E-03     578.093E-03    -288.998E-03     21.0398E-03
             270     13.4824E-03     61.2265E-03    -2.53168E+06     82.8441E+06     97.1008E+06    -48.0456E+03    -288.367E-03     577.734E-03    -289.366E-03     26.0435E-03    -288.746E-03     578.116E-03    -288.997E-03     21.0473E-03
             271     13.4824E-03     62.9166E-03    -2.39299E+06     82.9720E+06     97.2632E+06     97.7406E+03    -288.389E-03     577.754E-03    -289.366E-03     26.0677E-03    -288.767E-03     578.137E-03    -288.996E-03     21.0721E-03
             272     13.4825E-03     64.6068E-03    -2.60818E+06     83.3373E+06     97.1675E+06     54.3950E+03    -288.394E-03     577.758E-03    -289.364E-03     26.0683E-03    -288.774E-03     578.143E-03    -288.995E-03     21.0703E-03
             273     13.4824E-03     66.2969E-03    -2.42941E+06     83.3720E+06     97.2628E+06    -45.7332E+03    -288.413E-03     577.777E-03    -289.364E-03     26.0811E-03    -288.792E-03     578.161E-03    -288.995E-03     21.0799E-03
             274     13.4824E-03     67.9871E-03    -2.53294E+06     83.2482E+06     97.2294E+06        -130.016    -288.425E-03     577.789E-03    -289.364E-03     26.1028E-03    -288.805E-03     578.173E-03    -288.995E-03     21.1009E-03
             275     13.4824E-03     69.6773E-03    -2.46953E+06     83.1976E+06     97.2123E+06    -20.2400E+03    -288.431E-03     577.793E-03    -289.363E-03     26.1088E-03    -288.810E-03     578.177E-03    -288.994E-03     21.1051E-03
             276     13.4824E-03     71.3676E-03    -2.51050E+06     83.1229E+06     97.1853E+06    -10.5019E+03    -288.438E-03     577.801E-03    -289.362E-03     26.1236E-03    -288.818E-03     578.184E-03    -288.993E-03     21.1185E-03
             277     13.4824E-03     73.0578E-03    -2.47929E+06     83.0591E+06     97.1745E+06    -12.2547E+03    -288.444E-03     577.806E-03    -289.362E-03     26.1344E-03    -288.823E-03     578.189E-03    -288.993E-03     21.1280E-03
             278     13.4824E-03     74.7480E-03    -2.50607E+06     82.9822E+06     97.1360E+06    -19.4013E+03    -288.448E-03     577.809E-03    -289.361E-03     26.1449E-03    -288.827E-03     578.192E-03    -288.992E-03     21.1371E-03
             279     13.4825E-03     76.4383E-03    -2.48441E+06     82.8446E+06     97.1040E+06    -32.6655E+03    -288.451E-03     577.811E-03    -289.361E-03     26.1565E-03    -288.830E-03     578.194E-03    -288.992E-03     21.1471E-03
             280     13.4825E-03     78.1285E-03    -2.49154E+06     82.7000E+06     97.0607E+06    -25.6232E+03    -288.452E-03     577.812E-03    -289.360E-03     26.1674E-03    -288.831E-03     578.194E-03    -288.991E-03     21.1569E-03
             281     13.4825E-03     79.8187E-03    -2.48876E+06     82.5792E+06     97.0748E+06    -20.4128E+03    -288.454E-03     577.814E-03    -289.359E-03     26.1801E-03    -288.833E-03     578.195E-03    -288.990E-03     21.1683E-03
             282     13.4825E-03     81.5090E-03    -2.49708E+06     82.4124E+06     97.0536E+06    -43.6964E+03    -288.455E-03     577.814E-03    -289.359E-03     26.1851E-03    -288.833E-03     578.194E-03    -288.989E-03     21.1716E-03
             283     13.4825E-03     83.1992E-03    -2.53833E+06     81.8368E+06     96.9391E+06    -186.759E+03    -288.457E-03     577.815E-03    -289.358E-03     26.1997E-03    -288.834E-03     578.193E-03    -288.988E-03     21.1828E-03
             284     13.4825E-03     84.8895E-03    -2.32497E+06     81.6222E+06     97.1191E+06     103.112E+03    -288.461E-03     577.819E-03    -289.358E-03     26.2061E-03    -288.838E-03     578.195E-03    -288.987E-03     21.1927E-03
             285     13.4825E-03     86.5797E-03    -2.50164E+06     83.0987E+06     97.3269E+06     482.042E+03    -288.448E-03     577.804E-03    -289.356E-03     26.1930E-03    -288.828E-03     578.188E-03    -288.986E-03     21.1849E-03
             286     13.4825E-03     88.2699E-03    -2.67465E+06     84.3470E+06     97.3884E+06     26.2984E+03    -288.434E-03     577.789E-03    -289.354E-03     26.2007E-03    -288.817E-03     578.179E-03    -288.986E-03     21.1843E-03
             287     13.4826E-03     89.9601E-03    -2.49491E+06     83.4237E+06     97.3808E+06    -383.530E+03    -288.446E-03     577.801E-03    -289.355E-03     26.2162E-03    -288.826E-03     578.186E-03    -288.985E-03     21.1922E-03
             288     13.4825E-03     91.6504E-03    -2.28380E+06     82.9055E+06     97.5848E+06     167.107E+03    -288.459E-03     577.815E-03    -289.356E-03     26.2122E-03    -288.838E-03     578.197E-03    -288.985E-03     21.1963E-03
             289     13.4826E-03     93.3406E-03    -2.60213E+06     84.4444E+06     97.7866E+06     442.178E+03    -288.443E-03     577.798E-03    -289.354E-03     26.2066E-03    -288.826E-03     578.188E-03    -288.984E-03     21.1948E-03
             290     13.4826E-03     95.0308E-03    -2.46433E+06     86.4644E+06     98.3535E+06     373.539E+03    -288.427E-03     577.781E-03    -289.353E-03     26.2175E-03    -288.814E-03     578.180E-03    -288.984E-03     21.2048E-03
             291     13.4826E-03     96.7210E-03    -2.73261E+06     87.3253E+06     98.5960E+06    -15.7441E+03    -288.414E-03     577.767E-03    -289.353E-03     26.2238E-03    -288.803E-03     578.171E-03    -288.983E-03     21.2056E-03
             292     673.792E-06     99.2833E-03    -119.641E+06    -242.136E+06    -117.781E+06     103.080E+03    -289.410E-03     578.799E-03    -289.389E-03     3.01778E-03    -289.486E-03     577.932E-03    -289.453E-03     3.34745E-03
             293     1.34760E-03     99.2918E-03    -117.011E+06    -232.660E+06    -110.340E+06     222.861E+03    -289.365E-03     578.780E-03    -289.415E-03     5.54358E-03    -289.452E-03     577.946E-03    -289.460E-03     6.13069E-03
             294     2.02143E-03     99.3056E-03    -112.990E+06    -218.455E+06    -98.9425E+06     360.077E+03    -289.324E-03     578.753E-03    -289.430E-03     8.20240E-03    -289.428E-03     577.968E-03    -289.444E-03     9.02398E-03
             295     2.69530E-03     99.3245E-03    -107.727E+06    -202.714E+06    -84.3317E+06     522.523E+03    -289.282E-03     578.734E-03    -289.452E-03     10.8821E-03    -289.405E-03     577.999E-03    -289.423E-03     11.8825E-03
             296     3.36920E-03     99.3487E-03    -101.477E+06    -184.469E+06    -68.2302E+06     698.408E+03    -289.238E-03     578.712E-03    -289.473E-03     13.5672E-03    -289.380E-03     578.036E-03    -289.400E-03     14.6725E-03
             297     4.04315E-03     99.3778E-03    -94.5790E+06    -164.315E+06    -51.7007E+06     886.635E+03    -289.195E-03     578.685E-03    -289.490E-03     16.2332E-03    -289.356E-03     578.077E-03    -289.373E-03     17.3564E-03
             298     4.71714E-03     99.4117E-03    -87.3160E+06    -142.570E+06    -35.5011E+06     1.09394E+06    -289.154E-03     578.655E-03    -289.501E-03     18.8819E-03    -289.335E-03     578.123E-03    -289.345E-03     19.9229E-03
             299     5.39118E-03     99.4501E-03    -79.8931E+06    -119.353E+06    -20.0399E+06     1.31695E+06    -289.116E-03     578.620E-03    -289.504E-03     21.5036E-03    -289.320E-03     578.174E-03    -289.315E-03     22.3534E-03
             300     6.06527E-03     99.4928E-03    -72.4515E+06    -93.9236E+06    -5.40443E+06     1.55731E+06    -289.078E-03     578.577E-03    -289.499E-03     24.1150E-03    -289.307E-03     578.231E-03    -289.285E-03     24.6550E-03
             301     6.73939E-03     99.5396E-03    -65.0662E+06    -65.7136E+06     8.58676E+06     1.83382E+06    -289.032E-03     578.519E-03    -289.487E-03     26.7004E-03    -289.294E-03     578.291E-03    -289.254E-03     26.8086E-03
             302     7.41356E-03     99.5901E-03    -57.8028E+06    -32.2007E+06     22.3299E+06     2.15355E+06    -288.964E-03     578.429E-03    -289.465E-03     29.1932E-03    -289.269E-03     578.350E-03    -289.223E-03     28.7540E-03
             303     8.08779E-03     99.6439E-03    -50.6627E+06     9.34311E+06     36.4894E+06     2.46485E+06    -288.860E-03     578.291E-03    -289.431E-03     31.6435E-03    -289.226E-03     578.405E-03    -289.189E-03     30.5343E-03
             304     8.76209E-03     99.7009E-03    -43.6200E+06     37.9816E+06     48.3743E+06     2.57853E+06    -288.799E-03     578.203E-03    -289.404E-03     34.0647E-03    -289.209E-03     578.453E-03    -289.154E-03     32.1654E-03
             305     9.43641E-03     99.7607E-03    -36.7779E+06     43.6859E+06     58.2277E+06     2.31973E+06    -288.809E-03     578.211E-03    -289.403E-03     36.2655E-03    -289.233E-03     578.492E-03    -289.121E-03     33.4887E-03
             306     10.1107E-03     99.8224E-03    -30.0650E+06     55.7924E+06     71.2149E+06     1.70162E+06    -288.764E-03     578.174E-03    -289.410E-03     38.0092E-03    -289.222E-03     578.517E-03    -289.091E-03     34.2898E-03
             307     10.7851E-03     99.8850E-03    -23.3905E+06     60.0952E+06     81.2283E+06     936.369E+03    -288.732E-03     578.147E-03    -289.416E-03     38.9972E-03    -289.207E-03     578.518E-03    -289.063E-03     34.3240E-03
             308     11.4594E-03     99.9468E-03    -16.9144E+06     62.0928E+06     90.7495E+06     479.824E+03    -288.678E-03     578.103E-03    -289.426E-03     38.8309E-03    -289.162E-03     578.484E-03    -289.037E-03     33.3422E-03
             309     12.1338E-03     100.006E-03    -10.7023E+06     76.9579E+06     99.1940E+06     377.312E+03    -288.556E-03     577.969E-03    -289.413E-03     38.6508E-03    -289.080E-03     578.440E-03    -289.013E-03     32.0586E-03
             310     12.8082E-03     100.063E-03    -4.99853E+06     83.7414E+06     99.5821E+06     240.328E+03    -288.459E-03     577.833E-03    -289.374E-03     32.5794E-03    -288.925E-03     578.289E-03    -288.990E-03     26.3998E-03
             311     673.790E-06     100.973E-03    -119.867E+06    -242.570E+06    -117.976E+06     91.2237E+03    -289.413E-03     578.805E-03    -289.392E-03     3.01773E-03    -289.489E-03     577.937E-03    -289.456E-03     3.34725E-03
             312     1.34759E-03     100.982E-03    -117.253E+06    -233.184E+06    -110.568E+06     167.341E+03    -289.368E-03     578.786E-03    -289.418E-03     5.54314E-03    -289.456E-03     577.951E-03    -289.463E-03     6.12943E-03
             313     2.02143E-03     100.996E-03    -113.213E+06    -219.117E+06    -99.1696E+06     304.938E+03    -289.328E-03     578.762E-03    -289.433E-03     8.20121E-03    -289.433E-03     577.974E-03    -289.447E-03     9.02189E-03
             314     2.69529E-03     101.015E-03    -107.912E+06    -203.471E+06    -84.5379E+06     477.853E+03    -289.287E-03     578.743E-03    -289.456E-03     10.8795E-03    -289.409E-03     578.004E-03    -289.427E-03     11.8793E-03
             315     3.36919E-03     101.039E-03    -101.646E+06    -185.279E+06    -68.4440E+06     669.009E+03    -289.242E-03     578.720E-03    -289.477E-03     13.5635E-03    -289.383E-03     578.040E-03    -289.403E-03     14.6686E-03
             316     4.04314E-03     101.068E-03    -94.7444E+06    -165.183E+06    -51.9294E+06     870.251E+03    -289.198E-03     578.693E-03    -289.494E-03     16.2280E-03    -289.358E-03     578.081E-03    -289.377E-03     17.3514E-03
             317     4.71713E-03     101.102E-03    -87.4645E+06    -143.508E+06    -35.7386E+06     1.08422E+06    -289.156E-03     578.661E-03    -289.505E-03     18.8763E-03    -289.337E-03     578.125E-03    -289.348E-03     19.9177E-03
             318     5.39117E-03     101.140E-03    -80.0175E+06    -120.354E+06    -20.2811E+06     1.31793E+06    -289.117E-03     578.625E-03    -289.508E-03     21.5003E-03    -289.319E-03     578.174E-03    -289.318E-03     22.3505E-03
             319     6.06525E-03     101.183E-03    -72.5531E+06    -95.0134E+06    -5.64793E+06     1.57682E+06    -289.078E-03     578.581E-03    -289.503E-03     24.1155E-03    -289.306E-03     578.231E-03    -289.288E-03     24.6558E-03
             320     6.73937E-03     101.230E-03    -65.1575E+06    -66.9085E+06     8.33511E+06     1.85746E+06    -289.032E-03     578.522E-03    -289.490E-03     26.7029E-03    -289.292E-03     578.289E-03    -289.257E-03     26.8115E-03
             321     7.41355E-03     101.280E-03    -57.8193E+06    -33.6253E+06     22.0606E+06     2.20601E+06    -288.964E-03     578.431E-03    -289.467E-03     29.1975E-03    -289.266E-03     578.345E-03    -289.224E-03     28.7592E-03
             322     8.08778E-03     101.334E-03    -50.5502E+06     7.72605E+06     36.2440E+06     2.70945E+06    -288.859E-03     578.292E-03    -289.434E-03     31.6481E-03    -289.221E-03     578.398E-03    -289.190E-03     30.5429E-03
             323     8.76208E-03     101.391E-03    -43.5013E+06     37.7148E+06     48.2962E+06     2.92817E+06    -288.792E-03     578.197E-03    -289.405E-03     34.0686E-03    -289.201E-03     578.446E-03    -289.155E-03     32.1750E-03
             324     9.43640E-03     101.451E-03    -36.6707E+06     44.8187E+06     58.3357E+06     2.46200E+06    -288.795E-03     578.197E-03    -289.401E-03     36.2776E-03    -289.221E-03     578.482E-03    -289.121E-03     33.5025E-03
             325     10.1108E-03     101.513E-03    -29.9050E+06     57.2668E+06     71.5126E+06     1.76094E+06    -288.748E-03     578.156E-03    -289.408E-03     38.0290E-03    -289.207E-03     578.505E-03    -289.090E-03     34.3098E-03
             326     10.7851E-03     101.575E-03    -23.3886E+06     61.5195E+06     81.6773E+06     1.19904E+06    -288.712E-03     578.126E-03    -289.414E-03     39.0173E-03    -289.191E-03     578.503E-03    -289.061E-03     34.3482E-03
             327     11.4595E-03     101.637E-03    -17.1498E+06     62.9164E+06     91.1089E+06     681.721E+03    -288.656E-03     578.079E-03    -289.424E-03     38.8563E-03    -289.143E-03     578.465E-03    -289.034E-03     33.3713E-03
             328     12.1339E-03     101.696E-03    -11.0361E+06     76.7608E+06     99.2356E+06     494.436E+03    -288.533E-03     577.943E-03    -289.410E-03     38.6859E-03    -289.058E-03     578.414E-03    -289.009E-03     32.0970E-03
             329     12.8083E-03     101.753E-03    -5.29702E+06     84.0579E+06     99.6951E+06     548.101E+03    -288.426E-03     577.795E-03    -289.369E-03     32.6213E-03    -288.894E-03     578.254E-03    -288.985E-03     26.4483E-03
             330     673.788E-06     102.664E-03    -120.209E+06    -242.799E+06    -118.361E+06     7.84404E+03    -289.416E-03     578.811E-03    -289.395E-03     3.01814E-03    -289.493E-03     577.943E-03    -289.461E-03     3.34648E-03
             331     1.34759E-03     102.672E-03    -117.547E+06    -233.602E+06    -110.841E+06     93.7206E+03    -289.372E-03     578.794E-03    -289.422E-03     5.54475E-03    -289.460E-03     577.957E-03    -289.467E-03     6.12991E-03
             332     2.02141E-03     102.686E-03    -113.501E+06    -219.773E+06    -99.4100E+06     243.480E+03    -289.332E-03     578.770E-03    -289.438E-03     8.20394E-03    -289.437E-03     577.980E-03    -289.451E-03     9.02356E-03
             333     2.69527E-03     102.705E-03    -108.232E+06    -204.228E+06    -84.8251E+06     435.310E+03    -289.290E-03     578.750E-03    -289.460E-03     10.8813E-03    -289.412E-03     578.009E-03    -289.431E-03     11.8805E-03
             334     3.36918E-03     102.729E-03    -101.974E+06    -186.042E+06    -68.7470E+06     610.091E+03    -289.245E-03     578.727E-03    -289.481E-03     13.5650E-03    -289.386E-03     578.044E-03    -289.407E-03     14.6694E-03
             335     4.04312E-03     102.758E-03    -95.0406E+06    -165.980E+06    -52.2342E+06     766.818E+03    -289.201E-03     578.699E-03    -289.498E-03     16.2289E-03    -289.361E-03     578.084E-03    -289.381E-03     17.3513E-03
             336     4.71711E-03     102.792E-03    -87.7119E+06    -144.401E+06    -36.0537E+06     945.210E+03    -289.158E-03     578.667E-03    -289.508E-03     18.8772E-03    -289.338E-03     578.127E-03    -289.352E-03     19.9175E-03
             337     5.39115E-03     102.830E-03    -80.2098E+06    -121.378E+06    -20.6104E+06     1.17388E+06    -289.118E-03     578.629E-03    -289.511E-03     21.5048E-03    -289.320E-03     578.175E-03    -289.322E-03     22.3535E-03
             338     6.06523E-03     102.873E-03    -72.6956E+06    -96.1901E+06    -5.98539E+06     1.46636E+06    -289.078E-03     578.583E-03    -289.506E-03     24.1230E-03    -289.304E-03     578.228E-03    -289.291E-03     24.6623E-03
             339     6.73936E-03     102.920E-03    -65.2810E+06    -68.2474E+06     7.99127E+06     1.83637E+06    -289.029E-03     578.521E-03    -289.492E-03     26.7111E-03    -289.287E-03     578.282E-03    -289.259E-03     26.8206E-03
             340     7.41353E-03     102.970E-03    -58.0338E+06    -35.1018E+06     21.6867E+06     2.22936E+06    -288.957E-03     578.427E-03    -289.469E-03     29.2077E-03    -289.258E-03     578.334E-03    -289.226E-03     28.7714E-03
             341     8.08777E-03     103.024E-03    -50.8319E+06     5.76169E+06     35.7490E+06     2.67809E+06    -288.852E-03     578.287E-03    -289.435E-03     31.6596E-03    -289.212E-03     578.384E-03    -289.191E-03     30.5560E-03
             342     8.76208E-03     103.081E-03    -43.6256E+06     37.1770E+06     47.9357E+06     2.99519E+06    -288.778E-03     578.181E-03    -289.403E-03     34.0774E-03    -289.186E-03     578.428E-03    -289.154E-03     32.1873E-03
             343     9.43643E-03     103.141E-03    -36.7561E+06     46.1286E+06     58.2402E+06     2.73719E+06    -288.773E-03     578.170E-03    -289.397E-03     36.2934E-03    -289.201E-03     578.463E-03    -289.120E-03     33.5244E-03
             344     10.1108E-03     103.203E-03    -30.2141E+06     58.6244E+06     71.4537E+06     2.08119E+06    -288.723E-03     578.126E-03    -289.403E-03     38.0580E-03    -289.186E-03     578.483E-03    -289.087E-03     34.3448E-03
             345     10.7852E-03     103.265E-03    -23.6326E+06     62.6321E+06     81.8173E+06     1.47082E+06    -288.683E-03     578.092E-03    -289.409E-03     39.0524E-03    -289.164E-03     578.474E-03    -289.057E-03     34.3889E-03
             346     11.4595E-03     103.327E-03    -17.1938E+06     63.7483E+06     91.4870E+06     1.10481E+06    -288.621E-03     578.039E-03    -289.418E-03     38.8983E-03    -289.110E-03     578.428E-03    -289.028E-03     33.4216E-03
             347     12.1340E-03     103.386E-03    -11.1341E+06     76.7180E+06     99.4215E+06     925.199E+03    -288.496E-03     577.900E-03    -289.403E-03     38.7399E-03    -289.023E-03     578.370E-03    -289.001E-03     32.1593E-03
             348     12.8084E-03     103.443E-03    -5.39120E+06     84.6486E+06     99.9872E+06     594.760E+03    -288.380E-03     577.740E-03    -289.360E-03     32.6912E-03    -288.850E-03     578.201E-03    -288.975E-03     26.5199E-03
             349     673.783E-06     104.354E-03    -120.798E+06    -242.484E+06    -118.916E+06    -161.519E+03    -289.417E-03     578.813E-03    -289.396E-03     3.02299E-03    -289.497E-03     577.948E-03    -289.464E-03     3.34882E-03
             350     1.34758E-03     104.362E-03    -118.100E+06    -234.034E+06    -111.349E+06    -68.6142E+03    -289.374E-03     578.798E-03    -289.424E-03     5.55124E-03    -289.463E-03     577.960E-03    -289.471E-03     6.13392E-03
             351     2.02141E-03     104.376E-03    -114.016E+06    -220.610E+06    -99.8193E+06     235.994E+03    -289.334E-03     578.775E-03    -289.441E-03     8.20967E-03    -289.439E-03     577.981E-03    -289.455E-03     9.02932E-03
             352     2.69527E-03     104.395E-03    -108.709E+06    -204.840E+06    -85.1832E+06     428.160E+03    -289.291E-03     578.753E-03    -289.463E-03     10.8881E-03    -289.414E-03     578.010E-03    -289.434E-03     11.8876E-03
             353     3.36916E-03     104.419E-03    -102.407E+06    -186.595E+06    -69.1062E+06     498.060E+03    -289.245E-03     578.729E-03    -289.483E-03     13.5752E-03    -289.387E-03     578.045E-03    -289.410E-03     14.6783E-03
             354     4.04311E-03     104.448E-03    -95.4417E+06    -166.575E+06    -52.6253E+06     575.347E+03    -289.201E-03     578.700E-03    -289.500E-03     16.2418E-03    -289.361E-03     578.083E-03    -289.383E-03     17.3621E-03
             355     4.71710E-03     104.482E-03    -88.0943E+06    -145.143E+06    -36.4689E+06     697.430E+03    -289.158E-03     578.668E-03    -289.510E-03     18.8936E-03    -289.338E-03     578.125E-03    -289.354E-03     19.9312E-03
             356     5.39113E-03     104.521E-03    -80.5721E+06    -122.310E+06    -21.0555E+06      883.45E+03    -289.117E-03     578.629E-03    -289.512E-03     21.5270E-03    -289.318E-03     578.171E-03    -289.323E-03     22.3724E-03
             357     6.06522E-03     104.563E-03    -73.0080E+06    -97.3658E+06    -6.46616E+06     1.14780E+06    -289.073E-03     578.579E-03    -289.506E-03     24.1496E-03    -289.299E-03     578.219E-03    -289.291E-03     24.6857E-03
             358     6.73935E-03     104.610E-03    -65.4722E+06    -69.7931E+06     7.48140E+06     1.53968E+06    -289.020E-03     578.512E-03    -289.492E-03     26.7400E-03    -289.276E-03     578.267E-03    -289.259E-03     26.8474E-03
             359     7.41354E-03     104.661E-03    -58.0462E+06    -37.0706E+06     21.1777E+06     2.17810E+06    -288.946E-03     578.414E-03    -289.468E-03     29.2394E-03    -289.243E-03     578.312E-03    -289.224E-03     28.8054E-03
             360     8.08779E-03     104.714E-03    -50.9091E+06     3.63944E+06     35.2713E+06     2.94247E+06    -288.839E-03     578.272E-03    -289.433E-03     31.6983E-03    -289.195E-03     578.358E-03    -289.188E-03     30.6024E-03
             361     8.76210E-03     104.771E-03    -44.0860E+06     36.6095E+06     47.4956E+06     3.22756E+06    -288.757E-03     578.156E-03    -289.399E-03     34.1213E-03    -289.166E-03     578.401E-03    -289.150E-03     32.2383E-03
             362     9.43646E-03     104.831E-03    -37.2752E+06     47.2416E+06     57.8541E+06     2.82241E+06    -288.742E-03     578.131E-03    -289.389E-03     36.3415E-03    -289.174E-03     578.430E-03    -289.114E-03     33.5762E-03
             363     10.1108E-03     104.893E-03    -30.3317E+06     59.9687E+06     71.2460E+06     2.16579E+06    -288.685E-03     578.078E-03    -289.393E-03     38.1174E-03    -289.150E-03     578.442E-03    -289.080E-03     34.4069E-03
             364     10.7852E-03     104.955E-03    -23.7215E+06     63.1472E+06     81.7307E+06     1.81440E+06    -288.641E-03     578.040E-03    -289.399E-03     39.1192E-03    -289.124E-03     578.426E-03    -289.047E-03     34.4626E-03
             365     11.4597E-03     105.017E-03    -17.5416E+06     64.1214E+06     91.6343E+06     1.67842E+06    -288.573E-03     577.981E-03    -289.407E-03     38.9690E-03    -289.065E-03     578.372E-03    -289.017E-03     33.5028E-03
             366     12.1341E-03     105.076E-03    -11.3528E+06     77.8275E+06     99.9564E+06     1.14580E+06    -288.434E-03     577.824E-03    -289.391E-03     38.8293E-03    -288.964E-03     578.301E-03    -288.987E-03     32.2522E-03
             367     12.8086E-03     105.133E-03    -5.40239E+06     85.8618E+06     100.598E+06     467.267E+03    -288.299E-03     577.644E-03    -289.345E-03     32.8138E-03    -288.772E-03     578.110E-03    -288.958E-03     26.6395E-03
             368     673.785E-06     106.044E-03    -120.962E+06    -241.931E+06    -118.990E+06    -54.8420E+03    -289.413E-03     578.807E-03    -289.394E-03     3.02889E-03    -289.495E-03     577.945E-03    -289.462E-03     3.35663E-03
             369     1.34758E-03     106.052E-03    -118.332E+06    -234.529E+06    -111.189E+06     8.18965E+03    -289.373E-03     578.798E-03    -289.425E-03     5.56100E-03    -289.464E-03     577.958E-03    -289.469E-03     6.14489E-03
             370     2.02140E-03     106.066E-03    -114.233E+06    -221.686E+06    -99.7911E+06     311.000E+03    -289.334E-03     578.775E-03    -289.442E-03     8.22153E-03    -289.439E-03     577.977E-03    -289.454E-03     9.04257E-03
             371     2.69526E-03     106.085E-03    -108.939E+06    -205.175E+06    -85.5220E+06     451.869E+03    -289.286E-03     578.746E-03    -289.460E-03     10.9056E-03    -289.409E-03     578.003E-03    -289.433E-03     11.9064E-03
             372     3.36917E-03     106.109E-03    -102.719E+06    -186.973E+06    -69.4830E+06     464.861E+03    -289.239E-03     578.719E-03    -289.480E-03     13.6002E-03    -289.381E-03     578.034E-03    -289.408E-03     14.7042E-03
             373     4.04311E-03     106.138E-03    -95.8718E+06    -167.021E+06    -53.0203E+06     531.688E+03    -289.194E-03     578.690E-03    -289.496E-03     16.2738E-03    -289.355E-03     578.071E-03    -289.380E-03     17.3950E-03
             374     4.71711E-03     106.172E-03    -88.6599E+06    -145.661E+06    -36.9038E+06     610.718E+03    -289.150E-03     578.656E-03    -289.505E-03     18.9328E-03    -289.332E-03     578.112E-03    -289.350E-03     19.9709E-03
             375     5.39115E-03     106.211E-03    -81.2561E+06    -122.936E+06    -21.5503E+06     687.179E+03    -289.107E-03     578.615E-03    -289.507E-03     21.5749E-03    -289.310E-03     578.155E-03    -289.319E-03     22.4195E-03
             376     6.06524E-03     106.253E-03    -73.7766E+06    -98.2109E+06    -7.04951E+06     795.441E+03    -289.061E-03     578.561E-03    -289.501E-03     24.2056E-03    -289.288E-03     578.199E-03    -289.287E-03     24.7390E-03
             377     6.73938E-03     106.300E-03    -66.2855E+06    -71.0517E+06     6.77530E+06     991.301E+03    -289.005E-03     578.491E-03    -289.486E-03     26.8015E-03    -289.262E-03     578.241E-03    -289.253E-03     26.9039E-03
             378     7.41358E-03     106.351E-03    -58.7127E+06    -39.1596E+06     20.3143E+06     1.37162E+06    -288.927E-03     578.388E-03    -289.461E-03     29.3044E-03    -289.223E-03     578.278E-03    -289.217E-03     28.8622E-03
             379     8.08785E-03     106.404E-03    -50.9789E+06     277.196E+03     34.3323E+06     2.37506E+06    -288.816E-03     578.241E-03    -289.425E-03     31.7645E-03    -289.167E-03     578.313E-03    -289.180E-03     30.6646E-03
             380     8.76220E-03     106.461E-03    -43.5107E+06     35.1833E+06     47.0521E+06     3.50364E+06    -288.724E-03     578.112E-03    -289.387E-03     34.1921E-03    -289.128E-03     578.349E-03    -289.140E-03     32.3182E-03
             381     9.43658E-03     106.521E-03    -36.8197E+06     48.8388E+06     57.9157E+06     3.36302E+06    -288.698E-03     578.071E-03    -289.373E-03     36.4324E-03    -289.130E-03     578.378E-03    -289.101E-03     33.6795E-03
             382     10.1110E-03     106.583E-03    -30.5554E+06     61.2816E+06     71.0554E+06     2.51530E+06    -288.638E-03     578.013E-03    -289.375E-03     38.2251E-03    -289.106E-03     578.384E-03    -289.064E-03     34.5227E-03
             383     10.7855E-03     106.645E-03    -24.0702E+06     63.1318E+06      81.427E+06     2.10655E+06    -288.592E-03     577.972E-03    -289.380E-03     39.2242E-03    -289.076E-03     578.359E-03    -289.030E-03     34.5743E-03
             384     11.4599E-03     106.707E-03    -17.3668E+06     64.7954E+06     92.0764E+06     1.75989E+06    -288.507E-03     577.896E-03    -289.389E-03     39.0840E-03    -289.000E-03     578.290E-03    -288.997E-03     33.6199E-03
             385     12.1344E-03     106.766E-03    -10.9672E+06     79.4109E+06     101.005E+06     1.23199E+06    -288.348E-03     577.718E-03    -289.370E-03     38.9606E-03    -288.881E-03     578.201E-03    -288.964E-03     32.3825E-03
             386     12.8090E-03     106.823E-03    -5.22717E+06     87.1541E+06     101.744E+06     696.774E+03    -288.217E-03     577.539E-03    -289.322E-03     32.9309E-03    -288.693E-03     578.011E-03    -288.932E-03     26.7557E-03
             387     673.792E-06     107.734E-03    -121.183E+06    -242.166E+06    -119.264E+06     192.826E+03    -289.402E-03     578.785E-03    -289.383E-03     3.03305E-03    -289.484E-03     577.923E-03    -289.452E-03     3.36524E-03
             388     1.34760E-03     107.743E-03    -118.517E+06    -235.146E+06    -111.303E+06     326.077E+03    -289.363E-03     578.778E-03    -289.415E-03     5.57383E-03    -289.453E-03     577.935E-03    -289.459E-03     6.16357E-03
             389     2.02142E-03     107.756E-03    -114.373E+06    -222.646E+06    -99.7902E+06     475.293E+03    -289.323E-03     578.756E-03    -289.433E-03     8.24845E-03    -289.427E-03     577.953E-03    -289.443E-03     9.07324E-03
             390     2.69529E-03     107.775E-03    -109.118E+06    -205.692E+06    -85.6848E+06     642.827E+03    -289.272E-03     578.721E-03    -289.449E-03     10.9421E-03    -289.395E-03     577.975E-03    -289.421E-03     11.9477E-03
             391     3.36920E-03     107.799E-03    -103.038E+06    -187.473E+06    -69.7018E+06     785.340E+03    -289.223E-03     578.691E-03    -289.468E-03     13.6430E-03    -289.365E-03     578.004E-03    -289.396E-03     14.7545E-03
             392     4.04316E-03     107.829E-03    -96.3410E+06    -167.493E+06    -53.2167E+06     879.147E+03    -289.176E-03     578.659E-03    -289.483E-03     16.3251E-03    -289.338E-03     578.040E-03    -289.367E-03     17.4547E-03
             393     4.71716E-03     107.862E-03    -89.2503E+06    -146.056E+06    -37.0984E+06     934.012E+03    -289.130E-03     578.622E-03    -289.492E-03     18.9940E-03    -289.314E-03     578.078E-03    -289.336E-03     20.0407E-03
             394     5.39122E-03     107.901E-03    -81.9995E+06    -123.283E+06    -21.7864E+06     957.798E+03    -289.085E-03     578.578E-03    -289.493E-03     21.6472E-03    -289.291E-03     578.118E-03    -289.304E-03     22.5001E-03
             395     6.06532E-03     107.943E-03    -74.7448E+06    -98.5979E+06    -7.38056E+06     958.266E+03    -289.036E-03     578.522E-03    -289.486E-03     24.2892E-03    -289.268E-03     578.159E-03    -289.271E-03     24.8297E-03
             396     6.73948E-03     107.990E-03    -67.5482E+06    -71.6152E+06     6.27315E+06     957.419E+03    -288.979E-03     578.448E-03    -289.470E-03     26.8949E-03    -289.240E-03     578.198E-03    -289.237E-03     27.0020E-03
             397     7.41369E-03     108.041E-03    -60.4543E+06    -40.0852E+06     19.5208E+06     964.386E+03    -288.898E-03     578.342E-03    -289.444E-03     29.4069E-03    -289.200E-03     578.231E-03    -289.201E-03     28.9646E-03
             398     8.08797E-03     108.094E-03    -53.2481E+06    -2.28619E+06     32.9003E+06     1.06763E+06    -288.785E-03     578.192E-03    -289.407E-03     31.8789E-03    -289.142E-03     578.256E-03    -289.162E-03     30.7650E-03
             399     8.76234E-03     108.151E-03    -45.5054E+06     32.1615E+06     45.1092E+06     1.72392E+06    -288.679E-03     578.045E-03    -289.366E-03     34.3005E-03    -289.085E-03     578.273E-03    -289.121E-03     32.4038E-03
             400     9.43680E-03     108.211E-03    -37.6189E+06     48.3640E+06     56.4963E+06     2.74894E+06    -288.631E-03     577.977E-03    -289.346E-03     36.5192E-03    -289.064E-03     578.285E-03    -289.079E-03     33.7612E-03
             401     10.1113E-03     108.273E-03    -30.3155E+06     62.4241E+06     70.6032E+06     2.92455E+06    -288.569E-03     577.915E-03    -289.346E-03     38.3211E-03    -289.037E-03     578.292E-03    -289.039E-03     34.6287E-03
             402     10.7857E-03     108.335E-03    -23.6736E+06     63.8210E+06     81.5332E+06     2.30102E+06    -288.525E-03     577.877E-03    -289.351E-03     39.3497E-03    -289.009E-03     578.266E-03    -289.002E-03     34.7048E-03
             403     11.4602E-03     108.397E-03    -17.4943E+06     65.2954E+06     92.4447E+06     1.95392E+06    -288.442E-03     577.801E-03    -289.359E-03     39.2057E-03    -288.937E-03     578.198E-03    -288.966E-03     33.7444E-03
             404     12.1348E-03     108.456E-03    -11.4720E+06     80.5352E+06     101.769E+06     1.67960E+06    -288.299E-03     577.640E-03    -289.341E-03     39.0303E-03    -288.837E-03     578.128E-03    -288.932E-03     32.4524E-03
             405     12.8094E-03     108.513E-03    -5.57456E+06     88.9407E+06     102.911E+06     943.504E+03    -288.185E-03     577.479E-03    -289.294E-03     32.9466E-03    -288.668E-03     577.959E-03    -288.900E-03     26.7635E-03
             406     673.802E-06     109.424E-03    -121.547E+06    -243.410E+06    -119.714E+06     369.739E+03    -289.378E-03     578.737E-03    -289.359E-03     3.04600E-03    -289.460E-03     577.870E-03    -289.428E-03     3.38186E-03
             407     1.34762E-03     109.433E-03    -118.929E+06    -235.869E+06    -111.933E+06     494.249E+03    -289.335E-03     578.724E-03    -289.388E-03     5.59793E-03    -289.425E-03     577.879E-03    -289.434E-03     6.19219E-03
             408     2.02148E-03     109.446E-03    -114.785E+06    -223.581E+06    -100.182E+06     626.422E+03    -289.295E-03     578.701E-03    -289.407E-03     8.28321E-03    -289.399E-03     577.895E-03    -289.417E-03     9.11291E-03
             409     2.69536E-03     109.465E-03    -109.474E+06    -206.949E+06    -85.6451E+06     975.540E+03    -289.245E-03     578.671E-03    -289.425E-03     10.9859E-03    -289.368E-03     577.918E-03    -289.395E-03     11.9997E-03
             410     3.36929E-03     109.490E-03    -103.268E+06    -188.321E+06    -69.4779E+06     1.26696E+06    -289.195E-03     578.639E-03    -289.444E-03     13.6964E-03    -289.337E-03     577.947E-03    -289.369E-03     14.8191E-03
             411     4.04327E-03     109.519E-03    -96.4399E+06    -168.203E+06    -52.9127E+06     1.41581E+06    -289.145E-03     578.604E-03    -289.459E-03     16.3892E-03    -289.308E-03     577.980E-03    -289.339E-03     17.5315E-03
             412     4.71730E-03     109.552E-03    -89.2954E+06    -146.705E+06    -36.7468E+06     1.56148E+06    -289.097E-03     578.564E-03    -289.467E-03     19.0689E-03    -289.280E-03     578.015E-03    -289.308E-03     20.1304E-03
             413     5.39137E-03     109.591E-03    -82.0578E+06    -123.809E+06    -21.3996E+06     1.69771E+06    -289.050E-03     578.517E-03    -289.467E-03     21.7338E-03    -289.255E-03     578.053E-03    -289.275E-03     22.6040E-03
             414     6.06550E-03     109.633E-03    -74.8764E+06    -99.0252E+06    -6.97512E+06     1.80426E+06    -289.000E-03     578.458E-03    -289.458E-03     24.3876E-03    -289.232E-03     578.093E-03    -289.241E-03     24.9476E-03
             415     6.73969E-03     109.680E-03    -67.8451E+06    -71.9192E+06     6.66028E+06     1.85814E+06    -288.940E-03     578.382E-03    -289.441E-03     27.0043E-03    -289.204E-03     578.130E-03    -289.205E-03     27.1324E-03
             416     7.41393E-03     109.731E-03    -60.9451E+06    -40.3017E+06     19.8559E+06     1.85314E+06    -288.859E-03     578.273E-03    -289.415E-03     29.5292E-03    -289.164E-03     578.161E-03    -289.168E-03     29.1085E-03
             417     8.08824E-03     109.784E-03    -54.1974E+06    -2.06224E+06     33.2355E+06     1.56487E+06    -288.748E-03     578.125E-03    -289.377E-03     32.0250E-03    -289.110E-03     578.191E-03    -289.129E-03     30.9261E-03
             418     8.76261E-03     109.841E-03    -47.5659E+06     31.7942E+06     44.9774E+06     759.972E+03    -288.649E-03     577.985E-03    -289.336E-03     34.4692E-03    -289.065E-03     578.214E-03    -289.088E-03     32.5632E-03
             419     9.43705E-03     109.901E-03    -40.3848E+06     46.8276E+06     54.9845E+06     160.966E+03    -288.593E-03     577.906E-03    -289.313E-03     36.6719E-03    -289.036E-03     578.212E-03    -289.047E-03     33.8753E-03
             420     10.1116E-03     109.962E-03    -32.5664E+06     60.5576E+06     67.8479E+06     953.756E+03    -288.504E-03     577.809E-03    -289.305E-03     38.4156E-03    -288.977E-03     578.184E-03    -289.006E-03     34.6910E-03
             421     10.7862E-03     110.025E-03    -25.2810E+06     63.1544E+06     79.7161E+06     2.28047E+06    -288.461E-03     577.772E-03    -289.310E-03     39.3749E-03    -288.949E-03     578.163E-03    -288.967E-03     34.7283E-03
             422     11.4607E-03     110.087E-03    -18.6052E+06     66.2143E+06     92.2665E+06     2.26494E+06    -288.414E-03     577.738E-03    -289.323E-03     39.1812E-03    -288.916E-03     578.141E-03    -288.931E-03     33.7194E-03
             423     12.1352E-03     110.145E-03    -11.8616E+06     81.8700E+06     102.090E+06     1.40673E+06    -288.289E-03     577.596E-03    -289.307E-03     38.9928E-03    -288.832E-03     578.092E-03    -288.898E-03     32.3951E-03
             424     12.8098E-03     110.202E-03    -5.52805E+06     90.7738E+06     103.248E+06     722.550E+03    -288.157E-03     577.416E-03    -289.260E-03     32.9316E-03    -288.643E-03     577.906E-03    -288.867E-03     26.7250E-03
             425     673.838E-06     111.114E-03    -121.450E+06    -245.178E+06    -119.595E+06     425.976E+03    -289.338E-03     578.657E-03    -289.318E-03     3.05984E-03    -289.417E-03     577.780E-03    -289.385E-03     3.39750E-03
             426     1.34769E-03     111.123E-03    -118.785E+06    -236.783E+06    -111.700E+06     632.784E+03    -289.294E-03     578.641E-03    -289.347E-03     5.62204E-03    -289.382E-03     577.791E-03    -289.390E-03     6.22035E-03
             427     2.02156E-03     111.136E-03    -114.641E+06    -224.873E+06    -99.7487E+06     856.916E+03    -289.255E-03     578.622E-03    -289.367E-03     8.31531E-03    -289.357E-03     577.808E-03    -289.374E-03     9.15106E-03
             428     2.69548E-03     111.155E-03    -109.233E+06    -208.690E+06    -85.1345E+06     1.23067E+06    -289.205E-03     578.592E-03    -289.387E-03     11.0277E-03    -289.325E-03     577.830E-03    -289.352E-03     12.0485E-03
             429     3.36944E-03     111.179E-03    -102.873E+06    -189.469E+06    -68.9974E+06     1.52918E+06    -289.152E-03     578.556E-03    -289.404E-03     13.7518E-03    -289.291E-03     577.857E-03    -289.325E-03     14.8826E-03
             430     4.04345E-03     111.209E-03    -95.9057E+06    -169.387E+06    -52.2790E+06     1.78262E+06    -289.101E-03     578.519E-03    -289.419E-03     16.4560E-03    -289.260E-03     577.888E-03    -289.295E-03     17.6088E-03
             431     4.71751E-03     111.242E-03    -88.5952E+06    -147.855E+06    -35.9570E+06     2.06624E+06    -289.052E-03     578.478E-03    -289.426E-03     19.1448E-03    -289.231E-03     577.922E-03    -289.263E-03     20.2197E-03
             432     5.39162E-03     111.281E-03    -81.1540E+06    -124.897E+06    -20.4467E+06     2.34520E+06    -289.004E-03     578.430E-03    -289.426E-03     21.8184E-03    -289.205E-03     577.958E-03    -289.229E-03     22.7047E-03
             433     6.06579E-03     111.323E-03    -73.7324E+06    -100.018E+06    -5.84465E+06     2.61632E+06    -288.954E-03     578.371E-03    -289.417E-03     24.4784E-03    -289.180E-03     577.997E-03    -289.194E-03     25.0576E-03
             434     6.74002E-03     111.370E-03    -66.4096E+06    -72.6612E+06     8.02294E+06     2.83341E+06    -288.894E-03     578.294E-03    -289.400E-03     27.0991E-03    -289.151E-03     578.034E-03    -289.158E-03     27.2498E-03
             435     7.41430E-03     111.420E-03    -59.2073E+06    -40.5485E+06     21.5250E+06     2.85361E+06    -288.815E-03     578.187E-03    -289.372E-03     29.6301E-03    -289.113E-03     578.069E-03    -289.120E-03     29.2326E-03
             436     8.08865E-03     111.474E-03    -52.0549E+06    -1.52209E+06     35.3660E+06     2.71360E+06    -288.709E-03     578.044E-03    -289.335E-03     32.1299E-03    -289.064E-03     578.106E-03    -289.081E-03     31.0559E-03
             437     8.76308E-03     111.531E-03    -45.0624E+06     34.4415E+06     47.8976E+06     2.04544E+06    -288.615E-03     577.909E-03    -289.295E-03     34.5902E-03    -289.026E-03     578.144E-03    -289.040E-03     32.7106E-03
             438     9.43753E-03     111.591E-03    -38.5864E+06     50.2203E+06     58.4334E+06     173.510E+03    -288.583E-03     577.858E-03    -289.275E-03     36.8367E-03    -289.027E-03     578.174E-03    -289.000E-03     34.0438E-03
             439     10.1120E-03     111.652E-03    -32.2272E+06     56.3638E+06     70.0105E+06    -309.756E+03    -288.559E-03     577.838E-03    -289.278E-03     38.5585E-03    -289.028E-03     578.189E-03    -288.963E-03     34.8152E-03
             440     10.7865E-03     111.714E-03    -25.3406E+06     58.8793E+06     80.5742E+06     1.49845E+06    -288.520E-03     577.804E-03    -289.284E-03     39.4017E-03    -289.004E-03     578.173E-03    -288.930E-03     34.7411E-03
             441     11.4610E-03     111.776E-03    -18.3832E+06     68.6830E+06     92.5949E+06     1.88517E+06    -288.406E-03     577.694E-03    -289.288E-03     39.1474E-03    -288.911E-03     578.109E-03    -288.898E-03     33.6705E-03
             442     12.1356E-03     111.835E-03    -11.8743E+06     83.6952E+06     101.734E+06     838.034E+03    -288.242E-03     577.512E-03    -289.270E-03     38.9858E-03    -288.788E-03     578.018E-03    -288.866E-03     32.3591E-03
             443     12.8102E-03     111.892E-03    -5.76788E+06     91.8739E+06     102.710E+06     256.014E+03    -288.097E-03     577.319E-03    -289.222E-03     32.9487E-03    -288.585E-03     577.815E-03    -288.833E-03     26.7108E-03
             444     673.873E-06     112.804E-03    -121.628E+06    -246.946E+06    -119.738E+06     361.089E+03    -289.282E-03     578.545E-03    -289.262E-03     3.06869E-03    -289.358E-03     577.660E-03    -289.327E-03     3.40646E-03
             445     1.34777E-03     112.813E-03    -118.880E+06    -238.277E+06    -111.761E+06     708.512E+03    -289.237E-03     578.528E-03    -289.291E-03     5.63895E-03    -289.323E-03     577.671E-03    -289.332E-03     6.24038E-03
             446     2.02169E-03     112.826E-03    -114.594E+06    -226.331E+06    -99.6390E+06     1.01361E+06    -289.199E-03     578.510E-03    -289.311E-03     8.34400E-03    -289.299E-03     577.689E-03    -289.315E-03     9.18485E-03
             447     2.69563E-03     112.845E-03    -109.037E+06    -210.176E+06    -84.8934E+06     1.20420E+06    -289.149E-03     578.481E-03    -289.331E-03     11.0711E-03    -289.266E-03     577.711E-03    -289.293E-03     12.0949E-03
             448     3.36964E-03     112.869E-03    -102.543E+06    -190.870E+06    -68.6955E+06     1.45393E+06    -289.095E-03     578.443E-03    -289.348E-03     13.8039E-03    -289.231E-03     577.736E-03    -289.266E-03     14.9376E-03
             449     4.04369E-03     112.898E-03    -95.4072E+06    -170.827E+06    -51.8047E+06     1.74844E+06    -289.044E-03     578.407E-03    -289.363E-03     16.5126E-03    -289.199E-03     577.767E-03    -289.236E-03     17.6697E-03
             450     4.71780E-03     112.932E-03    -87.8770E+06    -149.301E+06    -35.2816E+06     2.03621E+06    -288.997E-03     578.368E-03    -289.371E-03     19.2068E-03    -289.171E-03     577.802E-03    -289.203E-03     20.2863E-03
             451     5.39196E-03     112.970E-03    -80.1605E+06    -126.348E+06    -19.5625E+06     2.33674E+06    -288.951E-03     578.322E-03    -289.371E-03     21.8839E-03    -289.146E-03     577.840E-03    -289.169E-03     22.7753E-03
             452     6.06617E-03     113.013E-03    -72.4066E+06    -101.414E+06    -4.73838E+06      2.6286E+06    -288.902E-03     578.265E-03    -289.363E-03     24.5427E-03    -289.121E-03     577.880E-03    -289.134E-03     25.1278E-03
             453     6.74043E-03     113.060E-03    -64.7145E+06    -73.8987E+06     9.37340E+06     2.89941E+06    -288.846E-03     578.192E-03    -289.346E-03     27.1584E-03    -289.094E-03     577.921E-03    -289.098E-03     27.3164E-03
             454     7.41476E-03     113.110E-03    -57.1925E+06    -41.3060E+06     23.2055E+06     3.14159E+06    -288.772E-03     578.091E-03    -289.319E-03     29.6829E-03    -289.061E-03     577.964E-03    -289.061E-03     29.2961E-03
             455     8.08914E-03     113.164E-03    -49.9175E+06    -1.77776E+06     37.3359E+06     3.20906E+06    -288.673E-03     577.956E-03    -289.284E-03     32.1767E-03    -289.019E-03     578.011E-03    -289.022E-03     31.1164E-03
             456     8.76358E-03     113.221E-03    -42.8013E+06     36.5663E+06     50.4510E+06     2.74154E+06    -288.580E-03     577.823E-03    -289.243E-03     34.6123E-03    -288.987E-03     578.062E-03    -288.982E-03     32.7486E-03
             457     9.43813E-03     113.280E-03    -35.9559E+06     54.4040E+06     62.1161E+06     1.93545E+06    -288.569E-03     577.798E-03    -289.228E-03     36.8144E-03    -289.011E-03     578.125E-03    -288.945E-03     34.0548E-03
             458     10.1126E-03     113.342E-03    -29.7325E+06     54.4133E+06     73.3281E+06     1.60136E+06    -288.612E-03     577.856E-03    -289.243E-03     38.5810E-03    -289.070E-03     578.188E-03    -288.912E-03     34.8753E-03
             459     10.7869E-03     113.404E-03    -23.8578E+06     55.6030E+06     82.2836E+06     1.79352E+06    -288.587E-03     577.837E-03    -289.250E-03     39.5542E-03    -289.062E-03     578.186E-03    -288.885E-03     34.8987E-03
             460     11.4614E-03     113.466E-03    -17.6830E+06     70.4491E+06     93.3504E+06     1.75720E+06    -288.423E-03     577.670E-03    -289.248E-03     39.3382E-03    -288.928E-03     578.093E-03    -288.857E-03     33.8511E-03
             461     12.1360E-03     113.524E-03    -11.3319E+06     86.0748E+06     102.344E+06     1.00754E+06    -288.227E-03     577.458E-03    -289.231E-03     39.1074E-03    -288.776E-03     577.975E-03    -288.827E-03     32.4644E-03
             462     12.8107E-03     113.581E-03    -5.38741E+06     93.0269E+06     103.071E+06     137.355E+03    -288.073E-03     577.257E-03    -289.184E-03     33.0030E-03    -288.563E-03     577.759E-03    -288.796E-03     26.7372E-03
             463     673.923E-06     114.494E-03    -122.401E+06    -248.450E+06    -120.527E+06     308.908E+03    -289.211E-03     578.403E-03    -289.192E-03     3.07993E-03    -289.288E-03     577.513E-03    -289.257E-03     3.41804E-03
             464     1.34786E-03     114.502E-03    -119.655E+06    -239.940E+06    -112.619E+06     575.325E+03    -289.165E-03     578.385E-03    -289.220E-03     5.65846E-03    -289.252E-03     577.522E-03    -289.261E-03     6.25977E-03
             465     2.02183E-03     114.516E-03    -115.308E+06    -227.520E+06    -100.564E+06     772.558E+03    -289.125E-03     578.363E-03    -289.238E-03     8.37055E-03    -289.225E-03     577.538E-03    -289.244E-03     9.21080E-03
             466     2.69584E-03     114.535E-03    -109.667E+06    -211.193E+06    -85.5259E+06     890.463E+03    -289.077E-03     578.336E-03    -289.259E-03     11.1038E-03    -289.195E-03     577.563E-03    -289.221E-03     12.1265E-03
             467     3.36988E-03     114.559E-03    -103.071E+06    -192.273E+06    -68.9086E+06     1.09877E+06    -289.027E-03     578.305E-03    -289.279E-03     13.8421E-03    -289.163E-03     577.593E-03    -289.195E-03     14.9743E-03
             468     4.04398E-03     114.588E-03    -95.8269E+06    -172.133E+06    -51.8810E+06     1.36166E+06    -288.979E-03     578.274E-03    -289.294E-03     16.5532E-03    -289.134E-03     577.628E-03    -289.165E-03     17.7087E-03
             469     4.71813E-03     114.622E-03    -88.2000E+06    -150.600E+06    -35.2717E+06     1.58747E+06    -288.935E-03     578.239E-03    -289.304E-03     19.2470E-03    -289.109E-03     577.667E-03    -289.134E-03     20.3243E-03
             470     5.39233E-03     114.660E-03    -80.4036E+06    -127.697E+06    -19.4829E+06     1.81422E+06    -288.894E-03     578.199E-03    -289.305E-03     21.9213E-03    -289.088E-03     577.711E-03    -289.101E-03     22.8094E-03
             471     6.06658E-03     114.703E-03    -72.6077E+06    -102.821E+06    -4.60672E+06     2.08817E+06    -288.850E-03     578.149E-03    -289.298E-03     24.5722E-03    -289.068E-03     577.757E-03    -289.067E-03     25.1539E-03
             472     6.74088E-03     114.749E-03    -64.9440E+06    -75.4026E+06     9.52608E+06     2.43961E+06    -288.802E-03     578.085E-03    -289.284E-03     27.1749E-03    -289.049E-03     577.807E-03    -289.033E-03     27.3305E-03
             473     7.41524E-03     114.800E-03    -57.4357E+06    -42.8773E+06     23.3495E+06     2.88254E+06    -288.737E-03     577.996E-03    -289.260E-03     29.6829E-03    -289.025E-03     577.861E-03    -288.998E-03     29.2963E-03
             474     8.08965E-03     114.853E-03    -50.0775E+06    -2.98757E+06     37.6422E+06     3.39842E+06    -288.648E-03     577.874E-03    -289.227E-03     32.1528E-03    -288.994E-03     577.923E-03    -288.961E-03     31.0987E-03
             475     8.76414E-03     114.910E-03    -43.1850E+06     36.8920E+06     50.9593E+06     3.74632E+06    -288.564E-03     577.753E-03    -289.189E-03     34.5667E-03    -288.974E-03     577.993E-03    -288.925E-03     32.7230E-03
             476     9.43857E-03     114.970E-03    -36.9526E+06     55.2571E+06     61.4067E+06     3.70448E+06    -288.545E-03     577.716E-03    -289.171E-03     36.7757E-03    -288.992E-03     578.050E-03    -288.890E-03     34.0518E-03
             477     10.1130E-03     115.031E-03    -30.8035E+06     54.6849E+06     70.9917E+06     3.34564E+06    -288.553E-03     577.733E-03    -289.180E-03     38.5708E-03    -289.013E-03     578.072E-03    -288.859E-03     34.8996E-03
             478     10.7877E-03     115.094E-03    -24.3203E+06     56.2174E+06     80.7866E+06     2.64670E+06    -288.527E-03     577.716E-03    -289.189E-03     39.5822E-03    -289.003E-03     578.071E-03    -288.831E-03     34.9383E-03
             479     11.4622E-03     115.155E-03    -17.6885E+06     71.6669E+06     93.7425E+06     1.76218E+06    -288.418E-03     577.613E-03    -289.196E-03     39.4199E-03    -288.926E-03     578.042E-03    -288.805E-03     33.9210E-03
             480     12.1367E-03     115.214E-03    -11.1767E+06     88.0086E+06     103.554E+06     1.06553E+06    -288.256E-03     577.441E-03    -289.185E-03     39.2208E-03    -288.810E-03     577.967E-03    -288.779E-03     32.5548E-03
             481     12.8112E-03     115.270E-03    -5.24368E+06     94.3353E+06     104.023E+06     576.119E+03    -288.102E-03     577.245E-03    -289.143E-03     33.1083E-03    -288.596E-03     577.753E-03    -288.752E-03     26.8210E-03
             482     673.977E-06     116.183E-03    -123.523E+06    -249.689E+06    -121.645E+06     240.044E+03    -289.128E-03     578.235E-03    -289.107E-03     3.08783E-03    -289.207E-03     577.342E-03    -289.174E-03     3.42581E-03
             483     1.34797E-03     116.191E-03    -120.755E+06    -241.079E+06    -113.619E+06     399.647E+03    -289.083E-03     578.220E-03    -289.137E-03     5.67271E-03    -289.173E-03     577.355E-03    -289.180E-03     6.27310E-03
             484     2.02200E-03     116.205E-03    -116.423E+06    -228.207E+06    -101.468E+06     456.803E+03    -289.045E-03     578.201E-03    -289.156E-03     8.38874E-03    -289.148E-03     577.375E-03    -289.164E-03     9.22692E-03
             485     2.69605E-03     116.224E-03    -110.808E+06    -212.010E+06    -86.4004E+06     549.759E+03    -288.999E-03     578.178E-03    -289.178E-03     11.1209E-03    -289.120E-03     577.403E-03    -289.142E-03     12.1419E-03
             486     3.37016E-03     116.248E-03    -104.233E+06    -193.459E+06    -69.6821E+06     784.016E+03    -288.954E-03     578.154E-03    -289.200E-03     13.8570E-03    -289.093E-03     577.439E-03    -289.117E-03     14.9883E-03
             487     4.04430E-03     116.277E-03    -97.0009E+06    -173.119E+06    -52.5124E+06     994.685E+03    -288.912E-03     578.131E-03    -289.218E-03     16.5669E-03    -289.071E-03     577.483E-03    -289.089E-03     17.7208E-03
             488     4.71849E-03     116.311E-03    -89.3792E+06    -151.593E+06    -35.8471E+06     1.15796E+06    -288.875E-03     578.105E-03    -289.230E-03     19.2566E-03    -289.053E-03     577.531E-03    -289.060E-03     20.3312E-03
             489     5.39273E-03     116.349E-03    -81.6341E+06    -128.893E+06    -20.1064E+06     1.40293E+06    -288.841E-03     578.076E-03    -289.235E-03     21.9219E-03    -289.039E-03     577.584E-03    -289.030E-03     22.8076E-03
             490     6.06701E-03     116.392E-03    -73.9645E+06    -104.305E+06    -5.38056E+06     1.78107E+06    -288.807E-03     578.038E-03    -289.231E-03     24.5611E-03    -289.028E-03     577.642E-03    -288.999E-03     25.1417E-03
             491     6.74133E-03     116.438E-03    -66.4665E+06    -77.2259E+06     8.51315E+06     2.30449E+06    -288.768E-03     577.987E-03    -289.219E-03     27.1537E-03    -289.019E-03     577.703E-03    -288.968E-03     27.3107E-03
             492     7.41569E-03     116.489E-03    -59.2154E+06    -45.0560E+06     21.9934E+06     2.97525E+06    -288.711E-03     577.908E-03    -289.197E-03     29.6567E-03    -289.003E-03     577.767E-03    -288.936E-03     29.2753E-03
             493     8.09010E-03     116.543E-03    -52.2545E+06    -5.79827E+06     35.7352E+06     3.92377E+06    -288.625E-03     577.792E-03    -289.167E-03     32.1306E-03    -288.975E-03     577.832E-03    -288.904E-03     31.0908E-03
             494     8.76454E-03     116.599E-03    -45.3339E+06     35.3028E+06     48.7108E+06     4.75229E+06    -288.525E-03     577.653E-03    -289.128E-03     34.5648E-03    -288.940E-03     577.891E-03    -288.870E-03     32.7467E-03
             495     9.43912E-03     116.659E-03    -38.2151E+06     55.8577E+06     59.4415E+06     4.63324E+06    -288.491E-03     577.598E-03    -289.108E-03     36.7977E-03    -288.942E-03     577.940E-03    -288.836E-03     34.0963E-03
             496     10.1137E-03     116.721E-03    -31.1835E+06     56.0605E+06     69.8951E+06     3.71681E+06    -288.506E-03     577.624E-03    -289.118E-03     38.5826E-03    -288.968E-03     577.972E-03    -288.805E-03     34.9181E-03
             497     10.7881E-03     116.783E-03    -24.5296E+06     58.0564E+06     80.5539E+06     2.71874E+06    -288.473E-03     577.605E-03    -289.132E-03     39.5501E-03    -288.952E-03     577.969E-03    -288.778E-03     34.9054E-03
             498     11.4627E-03     116.845E-03    -18.1005E+06     73.4944E+06     93.8491E+06     1.89872E+06    -288.354E-03     577.494E-03    -289.140E-03     39.3667E-03    -288.867E-03     577.932E-03    -288.752E-03     33.8648E-03
             499     12.1374E-03     116.903E-03    -11.7953E+06     89.1718E+06     103.909E+06     1.28410E+06    -288.220E-03     577.353E-03    -289.133E-03     39.1971E-03    -288.780E-03     577.886E-03    -288.726E-03     32.5122E-03
             500     12.8120E-03     116.959E-03    -5.72346E+06     95.5660E+06     104.707E+06     725.585E+03    -288.105E-03     577.199E-03    -289.094E-03     33.1394E-03    -288.605E-03     577.715E-03    -288.701E-03     26.8237E-03
             501     674.041E-06     117.872E-03    -124.620E+06    -250.583E+06    -122.676E+06     161.297E+03    -289.041E-03     578.061E-03    -289.020E-03     3.08696E-03    -289.123E-03     577.167E-03    -289.090E-03     3.42498E-03
             502     1.34809E-03     117.880E-03    -121.795E+06    -241.849E+06    -114.498E+06     284.251E+03    -288.999E-03     578.050E-03    -289.051E-03     5.67120E-03    -289.091E-03     577.184E-03    -289.096E-03     6.27194E-03
             503     2.02217E-03     117.894E-03    -117.427E+06    -228.640E+06    -102.179E+06     382.324E+03    -288.964E-03     578.036E-03    -289.072E-03     8.38726E-03    -289.071E-03     577.211E-03    -289.081E-03     9.22716E-03
             504     2.69628E-03     117.913E-03    -111.827E+06    -212.794E+06    -86.9347E+06     514.810E+03    -288.926E-03     578.024E-03    -289.098E-03     11.1167E-03    -289.050E-03     577.248E-03    -289.062E-03     12.1403E-03
             505     3.37042E-03     117.937E-03    -105.266E+06    -194.397E+06    -70.3017E+06     696.489E+03    -288.887E-03     578.010E-03    -289.122E-03     13.8478E-03    -289.030E-03     577.292E-03    -289.039E-03     14.9812E-03
             506     4.04461E-03     117.966E-03    -98.0319E+06    -173.729E+06    -53.3509E+06     799.087E+03    -288.851E-03     577.992E-03    -289.142E-03     16.5540E-03    -289.012E-03     577.344E-03    -289.014E-03     17.7091E-03
             507     4.71884E-03     118.000E-03    -90.4399E+06    -152.500E+06    -36.7621E+06     947.893E+03    -288.822E-03     577.978E-03    -289.157E-03     19.2408E-03    -289.002E-03     577.403E-03    -288.988E-03     20.3165E-03
             508     5.39310E-03     118.038E-03    -82.7300E+06    -130.121E+06    -21.1423E+06     1.24490E+06    -288.796E-03     577.960E-03    -289.164E-03     21.9057E-03    -288.996E-03     577.465E-03    -288.961E-03     22.7937E-03
             509     6.06740E-03     118.081E-03    -75.0342E+06    -105.974E+06    -6.58010E+06     1.67543E+06    -288.768E-03     577.931E-03    -289.163E-03     24.5499E-03    -288.991E-03     577.530E-03    -288.933E-03     25.1345E-03
             510     6.74174E-03     118.128E-03    -67.4367E+06    -79.3931E+06     7.12640E+06     2.27607E+06    -288.733E-03     577.887E-03    -289.154E-03     27.1552E-03    -288.984E-03     577.596E-03    -288.905E-03     27.3189E-03
             511     7.41612E-03     118.178E-03    -59.9835E+06    -48.0537E+06     20.4039E+06     3.18802E+06    -288.678E-03     577.813E-03    -289.135E-03     29.6771E-03    -288.968E-03     577.660E-03    -288.876E-03     29.3082E-03
             512     8.09055E-03     118.232E-03    -52.6914E+06    -9.99365E+06     33.9230E+06     4.53939E+06    -288.595E-03     577.701E-03    -289.106E-03     32.1663E-03    -288.938E-03     577.723E-03    -288.845E-03     31.1470E-03
             513     8.76509E-03     118.289E-03    -45.5954E+06     33.9908E+06     47.4969E+06     5.21293E+06    -288.488E-03     577.555E-03    -289.067E-03     34.5960E-03    -288.900E-03     577.789E-03    -288.813E-03     32.7957E-03
             514     9.43963E-03     118.348E-03    -38.6391E+06     57.7454E+06     58.9667E+06     4.37966E+06    -288.450E-03     577.497E-03    -289.047E-03     36.8051E-03    -288.905E-03     577.849E-03    -288.780E-03     34.1077E-03
             515     10.1142E-03     118.410E-03    -31.6875E+06     57.7258E+06     69.6160E+06     3.29353E+06    -288.469E-03     577.530E-03    -289.061E-03     38.5832E-03    -288.935E-03     577.887E-03    -288.751E-03     34.9152E-03
             516     10.7888E-03     118.472E-03    -24.8747E+06     59.3093E+06     80.4694E+06     2.71442E+06    -288.440E-03     577.517E-03    -289.077E-03     39.5669E-03    -288.922E-03     577.889E-03    -288.725E-03     34.9198E-03
             517     11.4633E-03     118.534E-03    -18.3012E+06     74.7813E+06     93.9943E+06     2.23284E+06    -288.311E-03     577.399E-03    -289.088E-03     39.3713E-03    -288.828E-03     577.844E-03    -288.700E-03     33.8696E-03
             518     12.1379E-03     118.592E-03    -11.7625E+06     90.8907E+06     104.671E+06     1.47454E+06    -288.151E-03     577.234E-03    -289.083E-03     39.1715E-03    -288.715E-03     577.775E-03    -288.674E-03     32.4750E-03
             519     12.8126E-03     118.649E-03    -5.54807E+06     97.1404E+06     105.777E+06     630.741E+03    -288.028E-03     577.072E-03    -289.044E-03     33.1359E-03    -288.532E-03     577.595E-03    -288.648E-03     26.7960E-03
             520     674.090E-06     119.561E-03    -125.542E+06    -251.320E+06    -123.589E+06     168.078E+03    -288.960E-03     577.899E-03    -288.939E-03     3.08258E-03    -289.044E-03     577.003E-03    -289.010E-03     3.42227E-03
             521     1.34820E-03     119.569E-03    -122.779E+06    -242.549E+06    -115.424E+06     303.445E+03    -288.920E-03     577.890E-03    -288.970E-03     5.66306E-03    -289.014E-03     577.023E-03    -289.018E-03     6.26678E-03
             522     2.02233E-03     119.583E-03    -118.453E+06    -229.325E+06    -103.135E+06     471.120E+03    -288.888E-03     577.880E-03    -288.992E-03     8.37451E-03    -288.998E-03     577.054E-03    -289.004E-03     9.21950E-03
             523     2.69648E-03     119.602E-03    -112.826E+06    -213.518E+06     -87.863E+06     623.565E+03    -288.855E-03     577.875E-03    -289.020E-03     11.1035E-03    -288.982E-03     577.098E-03    -288.986E-03     12.1334E-03
             524     3.37067E-03     119.626E-03    -106.212E+06    -194.961E+06    -71.1875E+06      677.05E+03    -288.822E-03     577.868E-03    -289.046E-03     13.8418E-03    -288.967E-03     577.150E-03    -288.966E-03     14.9807E-03
             525     4.04489E-03     119.655E-03    -99.0032E+06    -174.284E+06    -54.3075E+06     754.696E+03    -288.789E-03     577.857E-03    -289.067E-03     16.5561E-03    -288.953E-03     577.208E-03    -288.943E-03     17.7175E-03
             526     4.71915E-03     119.689E-03    -91.4811E+06    -153.327E+06    -37.8233E+06     905.025E+03    -288.764E-03     577.848E-03    -289.084E-03     19.2507E-03    -288.946E-03     577.271E-03    -288.918E-03     20.3345E-03
             527     5.39345E-03     119.727E-03    -83.7854E+06    -131.153E+06    -22.2570E+06     1.07813E+06    -288.741E-03     577.835E-03    -289.094E-03     21.9286E-03    -288.943E-03     577.338E-03    -288.893E-03     22.8244E-03
             528     6.06779E-03     119.770E-03    -76.0216E+06    -107.390E+06    -7.71868E+06     1.31403E+06    -288.717E-03     577.812E-03    -289.095E-03     24.5882E-03    -288.941E-03     577.407E-03    -288.867E-03     25.1789E-03
             529     6.74217E-03     119.816E-03    -68.2537E+06    -81.3969E+06     5.98068E+06     1.70744E+06    -288.688E-03     577.775E-03    -289.088E-03     27.2037E-03    -288.938E-03     577.477E-03    -288.841E-03     27.3710E-03
             530     7.41659E-03     119.867E-03    -60.4603E+06    -51.1056E+06     19.2824E+06     2.34961E+06    -288.642E-03     577.714E-03    -289.072E-03     29.7228E-03    -288.927E-03     577.547E-03    -288.814E-03     29.3531E-03
             531     8.09108E-03     119.921E-03    -52.5413E+06    -14.6249E+06     32.8924E+06     3.46024E+06    -288.573E-03     577.620E-03    -289.047E-03     32.1957E-03    -288.907E-03     577.620E-03    -288.785E-03     31.1707E-03
             532     8.76557E-03     119.978E-03    -44.7407E+06     31.4453E+06     47.2390E+06     4.88552E+06    -288.464E-03     577.474E-03    -289.010E-03     34.6124E-03    -288.868E-03     577.694E-03    -288.755E-03     32.8180E-03
             533     9.44016E-03     120.037E-03    -37.7664E+06     59.6353E+06     59.4543E+06     5.23936E+06    -288.409E-03     577.398E-03    -288.989E-03     36.8368E-03    -288.863E-03     577.757E-03    -288.723E-03     34.1639E-03
             534     10.1148E-03     120.099E-03    -31.5946E+06     60.3745E+06     69.8302E+06     3.97653E+06    -288.428E-03     577.430E-03    -289.002E-03     38.6319E-03    -288.898E-03     577.800E-03    -288.695E-03     34.9829E-03
             535     10.7893E-03     120.161E-03    -25.3137E+06     60.4663E+06     80.2801E+06     2.65709E+06    -288.407E-03     577.428E-03    -289.021E-03     39.6015E-03    -288.893E-03     577.806E-03    -288.670E-03     34.9537E-03
             536     11.4639E-03     120.223E-03    -18.4966E+06     76.0883E+06     94.2586E+06     1.85441E+06    -288.271E-03     577.305E-03    -289.034E-03     39.4078E-03    -288.792E-03     577.757E-03    -288.647E-03     33.8893E-03
             537     12.1386E-03     120.281E-03    -11.6983E+06     92.4130E+06     105.561E+06     1.26467E+06    -288.091E-03     577.123E-03    -289.032E-03     39.2199E-03    -288.659E-03     577.671E-03    -288.621E-03     32.5013E-03
             538     12.8133E-03     120.338E-03    -5.55193E+06     98.5410E+06     106.976E+06     845.645E+03    -287.958E-03     576.954E-03    -288.995E-03     33.1437E-03    -288.467E-03     577.482E-03    -288.595E-03     26.7871E-03
             539     674.143E-06     121.249E-03    -126.380E+06    -252.301E+06    -124.410E+06     265.596E+03    -288.883E-03     577.744E-03    -288.861E-03     3.08545E-03    -288.969E-03     576.847E-03    -288.934E-03     3.42870E-03
             540     1.34829E-03     121.258E-03    -123.631E+06    -243.480E+06    -116.293E+06     478.133E+03    -288.843E-03     577.737E-03    -288.893E-03     5.66808E-03    -288.940E-03     576.867E-03    -288.942E-03     6.27859E-03
             541     2.02246E-03     121.271E-03    -119.357E+06    -230.300E+06    -104.090E+06     685.994E+03    -288.812E-03     577.727E-03    -288.915E-03     8.38678E-03    -288.924E-03     576.899E-03    -288.929E-03     9.24138E-03
             542     2.69667E-03     121.290E-03    -113.808E+06    -214.005E+06    -88.9484E+06     741.856E+03    -288.778E-03     577.719E-03    -288.942E-03     11.1267E-03    -288.907E-03     576.943E-03    -288.911E-03     12.1674E-03
             543     3.37091E-03     121.314E-03    -107.278E+06    -195.371E+06    -72.1954E+06     734.990E+03    -288.745E-03     577.713E-03    -288.968E-03     13.8755E-03    -288.893E-03     576.997E-03    -288.891E-03     15.0263E-03
             544     4.04518E-03     121.344E-03    -100.100E+06    -175.040E+06    -55.0495E+06     865.684E+03    -288.717E-03     577.709E-03    -288.992E-03     16.6006E-03    -288.884E-03     577.059E-03    -288.868E-03     17.7760E-03
             545     4.71949E-03     121.377E-03    -92.5539E+06    -153.875E+06    -38.4074E+06     971.395E+03    -288.695E-03     577.705E-03    -289.010E-03     19.3059E-03    -288.881E-03     577.128E-03    -288.845E-03     20.4044E-03
             546     5.39384E-03     121.416E-03    -84.8540E+06    -131.694E+06    -22.7728E+06     977.284E+03    -288.677E-03     577.698E-03    -289.021E-03     21.9899E-03    -288.883E-03     577.201E-03    -288.821E-03     22.8986E-03
             547     6.06822E-03     121.458E-03    -77.1602E+06    -108.169E+06    -8.23777E+06     1.01549E+06    -288.663E-03     577.687E-03    -289.024E-03     24.6489E-03    -288.890E-03     577.280E-03    -288.797E-03     25.2494E-03
             548     6.74263E-03     121.505E-03    -69.5519E+06    -82.5503E+06     5.36599E+06     1.11587E+06    -288.645E-03     577.664E-03    -289.020E-03     27.2593E-03    -288.898E-03     577.363E-03    -288.772E-03     27.4316E-03
             549     7.41708E-03     121.556E-03    -62.0362E+06    -52.9480E+06     18.4540E+06     1.33455E+06    -288.611E-03     577.618E-03    -289.007E-03     29.7771E-03    -288.900E-03     577.446E-03    -288.748E-03     29.4055E-03
             550     8.09153E-03     121.609E-03    -54.5527E+06    -17.8584E+06     31.5874E+06     1.80327E+06    -288.548E-03     577.533E-03    -288.986E-03     32.2632E-03    -288.885E-03     577.522E-03    -288.723E-03     31.2270E-03
             551     8.76609E-03     121.666E-03    -46.7672E+06     27.0384E+06     45.4294E+06     2.81893E+06    -288.432E-03     577.383E-03    -288.951E-03     34.6815E-03    -288.837E-03     577.586E-03    -288.695E-03     32.8684E-03
             552     9.44073E-03     121.726E-03    -38.6272E+06     57.7499E+06     57.6989E+06     4.23459E+06    -288.360E-03     577.286E-03    -288.926E-03     36.8654E-03    -288.813E-03     577.639E-03    -288.665E-03     34.1858E-03
             553     10.1154E-03     121.788E-03    -31.0524E+06     62.5532E+06     69.2185E+06     4.71860E+06    -288.368E-03     577.305E-03    -288.937E-03     38.6433E-03    -288.837E-03     577.686E-03    -288.637E-03     35.0121E-03
             554     10.7900E-03     121.850E-03    -24.6388E+06     63.2594E+06     80.8361E+06     3.62015E+06    -288.350E-03     577.311E-03    -288.960E-03     39.6601E-03    -288.838E-03     577.701E-03    -288.612E-03     35.0307E-03
             555     11.4645E-03     121.912E-03    -18.7324E+06     78.1834E+06     94.9385E+06     2.22037E+06    -288.223E-03     577.200E-03    -288.977E-03     39.4857E-03    -288.749E-03     577.662E-03    -288.589E-03     33.9665E-03
             556     12.1393E-03     121.970E-03    -12.5220E+06     93.6669E+06     106.090E+06     1.31691E+06    -288.059E-03     577.036E-03    -288.978E-03     39.2550E-03    -288.634E-03     577.592E-03    -288.565E-03     32.5128E-03
             557     12.8140E-03     122.026E-03    -6.09065E+06     99.7843E+06     107.552E+06     590.447E+03    -287.910E-03     576.852E-03    -288.942E-03     33.1754E-03    -288.425E-03     577.387E-03    -288.540E-03     26.7843E-03
             558     674.192E-06     122.937E-03    -126.908E+06    -253.656E+06    -124.980E+06     337.061E+03    -288.798E-03     577.576E-03    -288.778E-03     3.10099E-03    -288.883E-03     576.673E-03    -288.851E-03     3.44851E-03
             559     1.34840E-03     122.946E-03    -124.131E+06    -244.778E+06    -116.790E+06     603.981E+03    -288.759E-03     577.568E-03    -288.809E-03     5.69875E-03    -288.855E-03     576.694E-03    -288.858E-03     6.31745E-03
             560     2.02263E-03     122.960E-03    -119.750E+06    -231.427E+06    -104.409E+06     834.199E+03    -288.728E-03     577.559E-03    -288.831E-03     8.43065E-03    -288.839E-03     576.727E-03    -288.844E-03     9.29632E-03
             561     2.69690E-03     122.979E-03    -114.115E+06    -214.577E+06    -89.0170E+06     975.429E+03    -288.693E-03     577.552E-03    -288.858E-03     11.1805E-03    -288.823E-03     576.773E-03    -288.827E-03     12.2359E-03
             562     3.37119E-03     123.003E-03    -107.585E+06    -196.024E+06    -72.0685E+06     1.08564E+06    -288.664E-03     577.551E-03    -288.886E-03     13.9343E-03    -288.813E-03     576.831E-03    -288.806E-03     15.1032E-03
             563     4.04552E-03     123.032E-03    -100.435E+06    -175.814E+06    -54.8930E+06     1.19326E+06    -288.641E-03     577.552E-03    -288.911E-03     16.6621E-03    -288.809E-03     576.898E-03    -288.785E-03     17.8565E-03
             564     4.71989E-03     123.066E-03    -92.9047E+06    -154.251E+06    -38.2677E+06     1.23025E+06    -288.625E-03     577.555E-03    -288.930E-03     19.3687E-03    -288.813E-03     576.976E-03    -288.763E-03     20.4862E-03
             565     5.39427E-03     123.104E-03    -85.2672E+06    -132.087E+06    -22.5963E+06     1.25669E+06    -288.618E-03     577.561E-03    -288.943E-03     22.0519E-03    -288.825E-03     577.062E-03    -288.741E-03     22.9805E-03
             566     6.06869E-03     123.147E-03    -77.7207E+06    -108.650E+06    -8.07198E+06     1.32361E+06    -288.613E-03     577.563E-03    -288.949E-03     24.7125E-03    -288.843E-03     577.154E-03    -288.720E-03     25.3339E-03
             567     6.74312E-03     123.194E-03    -70.3612E+06    -83.0815E+06     5.44412E+06     1.39860E+06    -288.603E-03     577.551E-03    -288.948E-03     27.3321E-03    -288.859E-03     577.247E-03    -288.699E-03     27.5257E-03
             568     7.41758E-03     123.244E-03    -63.2104E+06    -53.7937E+06     18.3155E+06     1.50446E+06    -288.572E-03     577.511E-03    -288.939E-03     29.8657E-03    -288.866E-03     577.336E-03    -288.678E-03     29.5139E-03
             569     8.09211E-03     123.298E-03    -56.1928E+06    -19.1427E+06     31.1644E+06     1.64307E+06    -288.514E-03     577.435E-03    -288.920E-03     32.3599E-03    -288.857E-03     577.420E-03    -288.655E-03     31.3367E-03
             570     8.76665E-03     123.355E-03    -49.1666E+06     25.0956E+06     44.6019E+06     1.59260E+06    -288.413E-03     577.302E-03    -288.889E-03     34.7816E-03    -288.826E-03     577.500E-03    -288.631E-03     32.9626E-03
             571     9.44124E-03     123.415E-03    -41.8486E+06     54.9726E+06     55.8169E+06     1.55270E+06    -288.344E-03     577.209E-03    -288.865E-03     36.9616E-03    -288.807E-03     577.556E-03    -288.605E-03     34.2487E-03
             572     10.1159E-03     123.476E-03    -33.9330E+06     61.0225E+06     66.4252E+06     2.13052E+06    -288.317E-03     577.189E-03    -288.872E-03     38.6851E-03    -288.795E-03     577.570E-03    -288.579E-03     35.0141E-03
             573     10.7906E-03     123.539E-03    -25.8137E+06     64.8178E+06     79.1536E+06     2.66495E+06    -288.265E-03     577.159E-03    -288.893E-03     39.6260E-03    -288.759E-03     577.561E-03    -288.554E-03     34.9775E-03
             574     11.4653E-03     123.600E-03    -18.2087E+06     79.6973E+06     94.8025E+06     2.50593E+06    -288.154E-03     577.069E-03    -288.915E-03     39.4415E-03    -288.680E-03     577.539E-03    -288.530E-03     33.9167E-03
             575     12.1400E-03     123.659E-03    -11.3863E+06     95.6649E+06     107.168E+06     1.78731E+06    -287.991E-03     576.910E-03    -288.919E-03     39.2780E-03    -288.566E-03     577.473E-03    -288.505E-03     32.5167E-03
             576     12.8147E-03     123.715E-03    -5.43466E+06     102.109E+06     109.108E+06     716.725E+03    -287.844E-03     576.730E-03    -288.886E-03     33.2442E-03    -288.363E-03     577.275E-03    -288.480E-03     26.8235E-03
             577     674.267E-06     124.625E-03    -127.213E+06    -255.239E+06    -125.282E+06     361.675E+03    -288.699E-03     577.379E-03    -288.680E-03     3.11999E-03    -288.784E-03     576.469E-03    -288.752E-03     3.47166E-03
             578     1.34854E-03     124.634E-03    -124.424E+06    -246.251E+06    -116.951E+06     647.232E+03    -288.663E-03     577.375E-03    -288.712E-03     5.72741E-03    -288.758E-03     576.493E-03    -288.759E-03     6.35265E-03
             579     2.02284E-03     124.647E-03    -119.994E+06    -232.709E+06    -104.384E+06     906.103E+03    -288.635E-03     577.371E-03    -288.736E-03     8.46846E-03    -288.746E-03     576.532E-03    -288.746E-03     9.34345E-03
             580     2.69716E-03     124.666E-03    -114.272E+06    -215.708E+06    -88.8653E+06     1.16967E+06    -288.605E-03     577.370E-03    -288.764E-03     11.2240E-03    -288.734E-03     576.585E-03    -288.730E-03     12.2927E-03
             581     3.37152E-03     124.691E-03    -107.562E+06    -197.002E+06    -71.7729E+06     1.39456E+06    -288.583E-03     577.378E-03    -288.795E-03     13.9818E-03    -288.731E-03     576.652E-03    -288.712E-03     15.1677E-03
             582     4.04590E-03     124.720E-03    -100.211E+06    -176.544E+06    -54.4032E+06     1.50676E+06    -288.567E-03     577.390E-03    -288.822E-03     16.7143E-03    -288.734E-03     576.731E-03    -288.693E-03     17.9275E-03
             583     4.72031E-03     124.754E-03    -92.5713E+06    -154.924E+06    -37.6395E+06     1.62091E+06    -288.560E-03     577.404E-03    -288.844E-03     19.4238E-03    -288.745E-03     576.820E-03    -288.674E-03     20.5628E-03
             584     5.39474E-03     124.792E-03    -84.8760E+06    -132.801E+06    -21.8706E+06     1.78578E+06    -288.560E-03     577.421E-03    -288.861E-03     22.1108E-03    -288.765E-03     576.917E-03    -288.655E-03     23.0643E-03
             585     6.06920E-03     124.835E-03    -77.2416E+06    -109.327E+06    -7.23292E+06     1.94097E+06    -288.561E-03     577.432E-03    -288.871E-03     24.7795E-03    -288.788E-03     577.017E-03    -288.636E-03     25.4279E-03
             586     6.74367E-03     124.882E-03    -69.7346E+06    -83.7232E+06     6.40618E+06     2.08624E+06    -288.555E-03     577.428E-03    -288.873E-03     27.4049E-03    -288.809E-03     577.119E-03    -288.618E-03     27.6263E-03
             587     7.41819E-03     124.933E-03    -62.3899E+06    -54.5118E+06     19.4263E+06     2.24348E+06    -288.534E-03     577.401E-03    -288.867E-03     29.9352E-03    -288.824E-03     577.219E-03    -288.600E-03     29.6106E-03
             588     8.09270E-03     124.986E-03    -55.2188E+06    -19.8044E+06     32.4247E+06     2.38797E+06    -288.490E-03     577.342E-03    -288.852E-03     32.4280E-03    -288.829E-03     577.320E-03    -288.581E-03     31.4314E-03
             589     8.76727E-03     125.044E-03    -48.2319E+06     25.4000E+06     46.2082E+06     2.33075E+06    -288.396E-03     577.220E-03    -288.824E-03     34.8622E-03    -288.806E-03     577.416E-03    -288.560E-03     33.0694E-03
             590     9.44192E-03     125.103E-03    -41.5493E+06     56.0051E+06     57.7415E+06     1.62511E+06    -288.342E-03     577.149E-03    -288.806E-03     37.0647E-03    -288.807E-03     577.497E-03    -288.538E-03     34.3636E-03
             591     10.1165E-03     125.165E-03    -35.0136E+06     61.0954E+06     67.4907E+06     351.645E+03    -288.345E-03     577.163E-03    -288.818E-03     38.7898E-03    -288.831E-03     577.545E-03    -288.518E-03     35.0881E-03
             592     10.7911E-03     125.227E-03    -27.9463E+06     64.4556E+06     77.9738E+06    -454.880E+03    -288.273E-03     577.108E-03    -288.835E-03     39.6704E-03    -288.776E-03     577.515E-03    -288.499E-03     34.9553E-03
             593     11.4658E-03     125.289E-03    -20.2158E+06     78.6178E+06     91.7116E+06    -60.4151E+03    -288.093E-03     576.943E-03    -288.850E-03     39.3908E-03    -288.623E-03     577.415E-03    -288.477E-03     33.8018E-03
             594     12.1407E-03     125.347E-03    -12.6363E+06     95.5636E+06     105.585E+06     969.276E+03    -287.933E-03     576.793E-03    -288.860E-03     39.0976E-03    -288.513E-03     577.361E-03    -288.452E-03     32.2930E-03
             595     12.8157E-03     125.403E-03    -5.85895E+06     104.179E+06     110.680E+06     1.15429E+06    -287.914E-03     576.755E-03    -288.842E-03     32.8846E-03    -288.439E-03     577.309E-03    -288.431E-03     26.4393E-03
             596     674.338E-06     126.313E-03    -127.468E+06    -256.933E+06    -125.446E+06     389.699E+03    -288.599E-03     577.173E-03    -288.573E-03     3.12327E-03    -288.682E-03     576.255E-03    -288.643E-03     3.47807E-03
             597     1.34869E-03     126.321E-03    -124.573E+06    -247.815E+06    -116.992E+06     686.931E+03    -288.563E-03     577.173E-03    -288.610E-03     5.73523E-03    -288.657E-03     576.284E-03    -288.655E-03     6.36604E-03
             598     2.02305E-03     126.335E-03    -120.061E+06    -234.150E+06    -104.322E+06     976.774E+03    -288.540E-03     577.175E-03    -288.636E-03     8.48196E-03    -288.649E-03     576.329E-03    -288.644E-03     9.36544E-03
             599     2.69744E-03     126.354E-03    -114.244E+06    -217.113E+06    -88.7032E+06     1.23804E+06    -288.517E-03     577.184E-03    -288.667E-03     11.2435E-03    -288.644E-03     576.392E-03    -288.630E-03     12.3230E-03
             600     3.37186E-03     126.378E-03    -107.432E+06    -197.987E+06    -71.5175E+06     1.38225E+06    -288.500E-03     577.200E-03    -288.699E-03     14.0074E-03    -288.646E-03     576.469E-03    -288.614E-03     15.2055E-03
             601     4.04630E-03     126.408E-03    -99.9436E+06    -177.452E+06    -53.9387E+06     1.50066E+06    -288.492E-03     577.222E-03    -288.730E-03     16.7449E-03    -288.657E-03     576.558E-03    -288.598E-03     17.9723E-03
             602     4.72076E-03     126.442E-03    -92.0875E+06    -156.059E+06    -36.8518E+06     1.72787E+06    -288.493E-03     577.250E-03    -288.757E-03     19.4591E-03    -288.675E-03     576.658E-03    -288.581E-03     20.6152E-03
             603     5.39524E-03     126.480E-03    -84.0918E+06    -133.747E+06    -20.8107E+06     1.93266E+06    -288.499E-03     577.277E-03    -288.777E-03     22.1493E-03    -288.700E-03     576.765E-03    -288.565E-03     23.1212E-03
             604     6.06974E-03     126.523E-03    -76.1128E+06    -110.247E+06    -5.96732E+06     2.08546E+06    -288.508E-03     577.298E-03    -288.790E-03     24.8162E-03    -288.729E-03     576.876E-03    -288.550E-03     25.4828E-03
             605     6.74425E-03     126.570E-03    -68.2736E+06    -84.6532E+06     7.86366E+06     2.26306E+06    -288.512E-03     577.308E-03    -288.796E-03     27.4356E-03    -288.760E-03     576.990E-03    -288.535E-03     27.6752E-03
             606     7.41878E-03     126.621E-03    -60.6331E+06    -55.5211E+06     21.0974E+06     2.47849E+06    -288.503E-03     577.297E-03    -288.794E-03     29.9630E-03    -288.785E-03     577.105E-03    -288.520E-03     29.6573E-03
             607     8.09335E-03     126.675E-03    -53.1530E+06    -20.6118E+06     34.3589E+06      2.6684E+06    -288.465E-03     577.248E-03    -288.783E-03     32.4550E-03    -288.795E-03     577.217E-03    -288.505E-03     31.4773E-03
             608     8.76794E-03     126.732E-03    -45.8317E+06     24.5665E+06     48.3777E+06     3.03138E+06    -288.377E-03     577.137E-03    -288.760E-03     34.8735E-03    -288.777E-03     577.322E-03    -288.487E-03     33.1034E-03
             609     9.44259E-03     126.792E-03    -38.8407E+06     57.7712E+06     60.3157E+06     3.06728E+06    -288.324E-03     577.067E-03    -288.743E-03     37.0662E-03    -288.782E-03     577.417E-03    -288.469E-03     34.3974E-03
             610     10.1172E-03     126.854E-03    -32.2489E+06     65.9657E+06     71.1588E+06     1.54804E+06    -288.340E-03     577.098E-03    -288.759E-03     38.8491E-03    -288.824E-03     577.495E-03    -288.452E-03     35.1746E-03
             611     10.7918E-03     126.916E-03    -25.9836E+06     67.3205E+06     82.2189E+06    -677.321E+03    -288.340E-03     577.129E-03    -288.789E-03     39.7984E-03    -288.844E-03     577.542E-03    -288.438E-03     35.0745E-03
             612     11.4664E-03     126.977E-03    -19.7610E+06     76.7647E+06     94.0438E+06    -1.39524E+06    -288.287E-03     577.101E-03    -288.815E-03     39.4021E-03    -288.816E-03     577.561E-03    -288.427E-03     33.7756E-03
             613     12.1412E-03     127.036E-03    -13.0752E+06     91.9071E+06     105.552E+06    -334.572E+03    -288.192E-03     577.024E-03    -288.832E-03     38.8191E-03    -288.768E-03     577.574E-03    -288.418E-03     31.9662E-03
             614     12.8157E-03     127.092E-03    -6.26730E+06     104.577E+06     110.587E+06     532.536E+03    -288.061E-03     576.881E-03    -288.820E-03     32.4903E-03    -288.588E-03     577.437E-03    -288.410E-03     26.0009E-03
             615     674.406E-06     128.000E-03    -127.757E+06    -258.583E+06    -125.725E+06     348.527E+03    -288.504E-03     576.980E-03    -288.476E-03     3.12190E-03    -288.586E-03     576.054E-03    -288.544E-03     3.47855E-03
             616     1.34882E-03     128.008E-03    -124.776E+06    -249.339E+06    -117.181E+06     611.125E+03    -288.468E-03     576.982E-03    -288.514E-03     5.73525E-03    -288.560E-03     576.085E-03    -288.557E-03     6.37054E-03
             617     2.02325E-03     128.022E-03    -120.156E+06    -235.570E+06    -104.325E+06     861.221E+03    -288.449E-03     576.990E-03    -288.541E-03     8.48134E-03    -288.557E-03     576.137E-03    -288.547E-03     9.37139E-03
             618     2.69771E-03     128.041E-03    -114.177E+06    -218.334E+06    -88.4373E+06     1.05406E+06    -288.432E-03     577.006E-03    -288.575E-03     11.2435E-03    -288.557E-03     576.208E-03    -288.535E-03     12.3308E-03
             619     3.37218E-03     128.066E-03    -107.199E+06    -198.803E+06     -70.964E+06     1.16857E+06    -288.421E-03     577.031E-03    -288.610E-03     14.0084E-03    -288.565E-03     576.294E-03    -288.521E-03     15.2156E-03
             620     4.04667E-03     128.095E-03    -99.5864E+06    -178.413E+06    -53.2210E+06     1.27233E+06    -288.419E-03     577.064E-03    -288.644E-03     16.7451E-03    -288.582E-03     576.393E-03    -288.507E-03     17.9825E-03
             621     4.72118E-03     128.129E-03    -91.5892E+06    -157.105E+06    -36.0995E+06     1.39140E+06    -288.427E-03     577.100E-03    -288.674E-03     19.4581E-03    -288.606E-03     576.502E-03    -288.493E-03     20.6232E-03
             622     5.39571E-03     128.168E-03    -83.4147E+06    -134.588E+06    -19.9814E+06     1.49186E+06    -288.441E-03     577.137E-03    -288.696E-03     22.1463E-03    -288.638E-03     576.619E-03    -288.480E-03     23.1261E-03
             623     6.07025E-03     128.211E-03    -75.2871E+06    -111.287E+06    -5.00580E+06     1.66112E+06    -288.460E-03     577.174E-03    -288.713E-03     24.8087E-03    -288.677E-03     576.743E-03    -288.468E-03     25.4833E-03
             624     6.74479E-03     128.258E-03    -67.3605E+06    -85.8467E+06     8.91779E+06     1.95111E+06    -288.474E-03     577.197E-03    -288.723E-03     27.4224E-03    -288.717E-03     576.870E-03    -288.456E-03     27.6716E-03
             625     7.41936E-03     128.309E-03    -59.7157E+06    -56.9432E+06     22.1990E+06     2.35602E+06    -288.472E-03     577.198E-03    -288.725E-03     29.9398E-03    -288.749E-03     576.996E-03    -288.445E-03     29.6454E-03
             626     8.09394E-03     128.363E-03    -52.4193E+06    -21.9315E+06     35.4743E+06     2.83818E+06    -288.443E-03     577.161E-03    -288.719E-03     32.4133E-03    -288.769E-03     577.120E-03    -288.433E-03     31.4493E-03
             627     8.76855E-03     128.420E-03    -45.2735E+06     22.8922E+06     49.4479E+06     3.24546E+06    -288.368E-03     577.068E-03    -288.700E-03     34.8141E-03    -288.764E-03     577.241E-03    -288.420E-03     33.0554E-03
             628     9.44321E-03     128.480E-03    -37.9193E+06     58.7410E+06     61.7837E+06     3.03199E+06    -288.314E-03     576.998E-03    -288.684E-03     36.9789E-03    -288.770E-03     577.349E-03    -288.405E-03     34.3135E-03
             629     10.1179E-03     128.542E-03    -30.6566E+06     70.1604E+06     73.6071E+06     2.16116E+06    -288.341E-03     577.044E-03    -288.703E-03     38.6705E-03    -288.826E-03     577.456E-03    -288.393E-03     35.0081E-03
             630     10.7926E-03     128.605E-03    -24.0423E+06     71.0632E+06     86.3155E+06     1.22715E+06    -288.425E-03     577.174E-03    -288.749E-03     39.5104E-03    -288.930E-03     577.596E-03    -288.386E-03     34.8214E-03
             631     11.4671E-03     128.666E-03    -17.9281E+06     77.2506E+06     97.7745E+06     417.784E+03    -288.494E-03     577.284E-03    -288.790E-03     39.2119E-03    -289.020E-03     577.737E-03    -288.387E-03     33.6300E-03
             632     12.1412E-03     128.725E-03    -11.9639E+06     89.8934E+06     106.469E+06    -13.2692E+03    -288.395E-03     577.205E-03    -288.810E-03     38.9547E-03    -288.965E-03     577.743E-03    -288.391E-03     32.1015E-03
             633     12.8156E-03     128.781E-03    -6.00282E+06     104.407E+06     109.835E+06    -59.2290E+03    -288.115E-03     576.912E-03    -288.797E-03     32.8519E-03    -288.642E-03     577.470E-03    -288.391E-03     26.3260E-03
             634     674.463E-06     129.687E-03    -128.439E+06    -259.931E+06    -126.399E+06     252.303E+03    -288.419E-03     576.809E-03    -288.390E-03     3.12044E-03    -288.501E-03     575.879E-03    -288.459E-03     3.47954E-03
             635     1.34894E-03     129.695E-03    -125.450E+06    -250.599E+06    -117.722E+06     455.430E+03    -288.387E-03     576.817E-03    -288.430E-03     5.72797E-03    -288.480E-03     575.916E-03    -288.473E-03     6.36735E-03
             636     2.02342E-03     129.709E-03    -120.764E+06    -236.662E+06    -104.659E+06     618.607E+03    -288.370E-03     576.830E-03    -288.460E-03     8.46806E-03    -288.479E-03     575.973E-03    -288.465E-03     9.36332E-03
             637     2.69793E-03     129.728E-03    -114.717E+06    -219.217E+06    -88.5599E+06     731.658E+03    -288.356E-03     576.851E-03    -288.495E-03     11.2242E-03    -288.483E-03     576.049E-03    -288.454E-03     12.3174E-03
             638     3.37245E-03     129.753E-03    -107.664E+06    -199.554E+06    -70.9341E+06     836.014E+03    -288.349E-03     576.882E-03    -288.533E-03     13.9817E-03    -288.495E-03     576.143E-03    -288.442E-03     15.1960E-03
             639     4.04700E-03     129.782E-03    -99.9350E+06    -179.030E+06    -53.0449E+06     888.608E+03    -288.355E-03     576.924E-03    -288.570E-03     16.7111E-03    -288.518E-03     576.251E-03    -288.430E-03     17.9554E-03
             640     4.72154E-03     129.816E-03    -91.8392E+06    -157.611E+06    -35.7959E+06     861.803E+03    -288.371E-03     576.973E-03    -288.602E-03     19.4152E-03    -288.552E-03     576.372E-03    -288.419E-03     20.5848E-03
             641     5.39611E-03     129.855E-03    -83.6399E+06    -135.211E+06    -19.6499E+06     885.605E+03    -288.395E-03     577.024E-03    -288.628E-03     22.0882E-03    -288.594E-03     576.502E-03    -288.409E-03     23.0709E-03
             642     6.07068E-03     129.898E-03    -75.4830E+06    -112.251E+06    -4.67497E+06     1.03429E+06    -288.426E-03     577.075E-03    -288.649E-03     24.7306E-03    -288.643E-03     576.639E-03    -288.401E-03     25.4065E-03
             643     6.74526E-03     129.946E-03    -67.4351E+06    -87.1938E+06     9.25806E+06     1.33477E+06    -288.452E-03     577.115E-03    -288.664E-03     27.3187E-03    -288.693E-03     576.781E-03    -288.393E-03     27.5668E-03
             644     7.41983E-03     129.997E-03    -59.5267E+06    -58.8110E+06     22.5169E+06     1.84585E+06    -288.464E-03     577.134E-03    -288.670E-03     29.8034E-03    -288.737E-03     576.922E-03    -288.386E-03     29.5058E-03
             645     8.09443E-03     130.051E-03    -51.7815E+06    -24.4701E+06     35.7258E+06     2.70610E+06    -288.450E-03     577.119E-03    -288.669E-03     32.2396E-03    -288.769E-03     577.063E-03    -288.379E-03     31.2743E-03
             646     8.76903E-03     130.108E-03    -44.3693E+06     21.1400E+06     49.9503E+06     3.54840E+06    -288.389E-03     577.044E-03    -288.655E-03     34.6000E-03    -288.779E-03     577.206E-03    -288.371E-03     32.8434E-03
             647     9.44368E-03     130.168E-03    -37.5734E+06     59.9816E+06     62.7546E+06     3.49483E+06    -288.350E-03     576.994E-03    -288.644E-03     36.7245E-03    -288.807E-03     577.349E-03    -288.362E-03     34.0595E-03
             648     10.1183E-03     130.230E-03    -31.0868E+06     72.1057E+06     74.2714E+06     2.70862E+06    -288.388E-03     577.056E-03    -288.668E-03     38.4254E-03    -288.879E-03     577.477E-03    -288.356E-03     34.7747E-03
             649     10.7927E-03     130.293E-03    -24.4274E+06     71.9531E+06     85.6655E+06     2.23671E+06    -288.419E-03     577.132E-03    -288.713E-03     39.4033E-03    -288.925E-03     577.558E-03    -288.353E-03     34.7680E-03
             650     11.4671E-03     130.355E-03    -17.9649E+06     78.5235E+06     96.3491E+06     2.08110E+06    -288.366E-03     577.112E-03    -288.746E-03     39.3225E-03    -288.890E-03     577.571E-03    -288.352E-03     33.8261E-03
             651     12.1419E-03     130.414E-03    -11.8122E+06     92.0552E+06     106.104E+06     1.26460E+06    -288.246E-03     577.010E-03    -288.765E-03     39.1994E-03    -288.818E-03     577.560E-03    -288.350E-03     32.3850E-03
             652     12.8166E-03     130.470E-03    -5.72398E+06     105.304E+06     110.027E+06     170.591E+03    -288.112E-03     576.865E-03    -288.753E-03     33.1222E-03    -288.641E-03     577.429E-03    -288.348E-03     26.5704E-03
             653     674.514E-06     131.373E-03    -129.241E+06    -261.002E+06    -127.129E+06     223.583E+03    -288.359E-03     576.688E-03    -288.329E-03     3.10380E-03    -288.442E-03     575.754E-03    -288.399E-03     3.46692E-03
             654     1.34902E-03     131.382E-03    -126.213E+06    -251.567E+06    -118.283E+06     379.412E+03    -288.328E-03     576.698E-03    -288.370E-03     5.69920E-03    -288.422E-03     575.795E-03    -288.414E-03     6.34333E-03
             655     2.02355E-03     131.396E-03    -121.504E+06    -237.456E+06    -105.071E+06     511.675E+03    -288.314E-03     576.715E-03    -288.402E-03     8.42836E-03    -288.424E-03     575.856E-03    -288.407E-03     9.32986E-03
             656     2.69809E-03     131.415E-03    -115.460E+06    -219.864E+06    -88.8497E+06     611.540E+03    -288.303E-03     576.742E-03    -288.439E-03     11.1707E-03    -288.432E-03     575.938E-03    -288.397E-03     12.2716E-03
             657     3.37265E-03     131.440E-03    -108.427E+06    -200.135E+06    -71.1481E+06     675.221E+03    -288.302E-03     576.781E-03    -288.479E-03     13.9110E-03    -288.450E-03     576.040E-03    -288.387E-03     15.1332E-03
             658     4.04722E-03     131.469E-03    -100.759E+06    -179.273E+06    -53.2169E+06     660.839E+03    -288.315E-03     576.833E-03    -288.518E-03     16.6197E-03    -288.481E-03     576.160E-03    -288.378E-03     17.8712E-03
             659     4.72180E-03     131.504E-03    -92.7653E+06    -157.770E+06    -35.9143E+06     607.263E+03    -288.341E-03     576.895E-03    -288.554E-03     19.3003E-03    -288.526E-03     576.295E-03    -288.370E-03     20.4759E-03
             660     5.39637E-03     131.543E-03    -84.6694E+06    -135.567E+06    -19.7662E+06     587.163E+03    -288.377E-03     576.962E-03    -288.585E-03     21.9489E-03    -288.580E-03     576.440E-03    -288.364E-03     22.9350E-03
             661     6.07094E-03     131.586E-03    -76.6143E+06    -112.769E+06    -4.96209E+06     591.535E+03    -288.418E-03     577.028E-03    -288.610E-03     24.5672E-03    -288.640E-03     576.591E-03    -288.360E-03     25.2424E-03
             662     6.74550E-03     131.633E-03    -68.6510E+06    -88.0752E+06     8.70250E+06     637.988E+03    -288.454E-03     577.081E-03    -288.628E-03     27.1360E-03    -288.699E-03     576.745E-03    -288.357E-03     27.3775E-03
             663     7.42006E-03     131.684E-03    -60.7519E+06    -60.2772E+06     21.6800E+06     802.855E+03    -288.473E-03     577.112E-03    -288.639E-03     29.6116E-03    -288.749E-03     576.896E-03    -288.355E-03     29.3011E-03
             664     8.09461E-03     131.739E-03    -52.7764E+06    -27.0388E+06     34.6225E+06     1.20317E+06    -288.463E-03     577.104E-03    -288.641E-03     32.0538E-03    -288.782E-03     577.039E-03    -288.352E-03     31.0687E-03
             665     8.76918E-03     131.796E-03    -44.7488E+06     16.9073E+06     48.4878E+06     2.61314E+06    -288.397E-03     577.027E-03    -288.630E-03     34.4403E-03    -288.780E-03     577.171E-03    -288.347E-03     32.6769E-03
             666     9.44376E-03     131.857E-03    -37.2575E+06     58.1523E+06     61.3719E+06     4.54449E+06    -288.318E-03     576.933E-03    -288.616E-03     36.6476E-03    -288.768E-03     577.280E-03    -288.339E-03     34.0160E-03
             667     10.1183E-03     131.919E-03    -30.8746E+06     74.1989E+06     72.9019E+06     4.74830E+06    -288.283E-03     576.914E-03    -288.631E-03     38.5118E-03    -288.772E-03     577.345E-03    -288.329E-03     34.9227E-03
             668     10.7931E-03     131.982E-03    -25.0606E+06     73.6884E+06     83.8821E+06     3.39958E+06    -288.261E-03     576.929E-03    -288.668E-03     39.6068E-03    -288.768E-03     577.366E-03    -288.320E-03     35.0303E-03
             669     11.4679E-03     132.044E-03    -18.6144E+06     79.4665E+06     95.5521E+06     2.27948E+06    -288.210E-03     576.911E-03    -288.700E-03     39.4435E-03    -288.737E-03     577.376E-03    -288.311E-03     33.9854E-03
             670     12.1425E-03     132.102E-03    -11.6844E+06     94.3754E+06     107.148E+06     1.59781E+06    -288.114E-03     576.834E-03    -288.719E-03     39.1465E-03    -288.690E-03     577.392E-03    -288.304E-03     32.3505E-03
             671     12.8171E-03     132.158E-03    -5.42079E+06     107.326E+06     111.382E+06     909.196E+03    -288.020E-03     576.727E-03    -288.707E-03     33.0416E-03    -288.552E-03     577.298E-03    -288.298E-03     26.4930E-03
             672     674.518E-06     133.059E-03    -129.650E+06    -262.058E+06    -127.510E+06     255.529E+03    -288.339E-03     576.646E-03    -288.307E-03     3.07739E-03    -288.422E-03     575.708E-03    -288.376E-03     3.44356E-03
             673     1.34906E-03     133.068E-03    -126.611E+06    -252.510E+06    -118.615E+06     437.964E+03    -288.304E-03     576.653E-03    -288.349E-03     5.65048E-03    -288.399E-03     575.746E-03    -288.392E-03     6.30048E-03
             674     2.02360E-03     133.082E-03    -121.918E+06    -238.294E+06    -105.291E+06     622.472E+03    -288.292E-03     576.673E-03    -288.381E-03     8.35560E-03    -288.403E-03     575.811E-03    -288.385E-03     9.26565E-03
             675     2.69816E-03     133.102E-03    -115.885E+06    -220.570E+06    -88.9620E+06     775.659E+03    -288.286E-03     576.706E-03    -288.420E-03     11.0737E-03    -288.417E-03     575.900E-03    -288.377E-03     12.1854E-03
             676     3.37272E-03     133.126E-03    -108.889E+06    -200.667E+06    -71.1806E+06     878.723E+03    -288.291E-03     576.753E-03    -288.462E-03     13.7912E-03    -288.441E-03     576.010E-03    -288.369E-03     15.0257E-03
             677     4.04729E-03     133.156E-03    -101.302E+06    -179.564E+06    -53.2514E+06     934.955E+03    -288.308E-03     576.811E-03    -288.503E-03     16.4812E-03    -288.477E-03     576.137E-03    -288.362E-03     17.7469E-03
             678     4.72186E-03     133.191E-03    -93.4451E+06    -157.991E+06    -36.0685E+06     956.798E+03    -288.337E-03     576.877E-03    -288.540E-03     19.1509E-03    -288.524E-03     576.277E-03    -288.356E-03     20.3428E-03
             679     5.39642E-03     133.230E-03    -85.5527E+06    -135.774E+06    -20.0832E+06     954.579E+03    -288.373E-03     576.945E-03    -288.572E-03     21.8016E-03    -288.579E-03     576.424E-03    -288.352E-03     22.8056E-03
             680     6.07097E-03     133.273E-03    -77.7899E+06    -112.937E+06    -5.43348E+06     932.920E+03    -288.410E-03     577.008E-03    -288.599E-03     24.4398E-03    -288.637E-03     576.574E-03    -288.349E-03     25.1343E-03
             681     6.74552E-03     133.321E-03    -70.2757E+06    -88.2538E+06     7.98768E+06     875.003E+03    -288.436E-03     577.053E-03    -288.617E-03     27.0476E-03    -288.688E-03     576.719E-03    -288.347E-03     27.3101E-03
             682     7.42006E-03     133.372E-03    -63.0686E+06    -60.7897E+06     20.5431E+06     841.792E+03    -288.440E-03     577.066E-03    -288.626E-03     29.5821E-03    -288.725E-03     576.852E-03    -288.344E-03     29.2940E-03
             683     8.09463E-03     133.427E-03    -56.2107E+06    -28.0619E+06     32.8540E+06     884.774E+03    -288.406E-03     577.032E-03    -288.626E-03     32.1029E-03    -288.737E-03     576.968E-03    -288.339E-03     31.1403E-03
             684     8.76923E-03     133.484E-03    -49.2258E+06     12.9602E+06     45.4851E+06     1.18698E+06    -288.313E-03     576.924E-03    -288.611E-03     34.5723E-03    -288.708E-03     577.058E-03    -288.331E-03     32.8180E-03
             685     9.44396E-03     133.545E-03    -41.2519E+06     53.4516E+06     57.4621E+06     2.19569E+06    -288.192E-03     576.778E-03    -288.586E-03     36.7981E-03    -288.650E-03     577.113E-03    -288.317E-03     34.1582E-03
             686     10.1189E-03     133.607E-03    -32.5735E+06     73.2796E+06     69.6876E+06     3.60104E+06    -288.136E-03     576.725E-03    -288.589E-03     38.5511E-03    -288.628E-03     577.159E-03    -288.299E-03     34.9588E-03
             687     10.7936E-03     133.670E-03    -24.7232E+06     74.9318E+06     82.5187E+06     4.30594E+06    -288.156E-03     576.780E-03    -288.624E-03     39.4972E-03    -288.662E-03     577.224E-03    -288.284E-03     34.9387E-03
             688     11.4682E-03     133.732E-03    -18.4770E+06     82.0140E+06     96.0581E+06     3.53452E+06    -288.130E-03     576.790E-03    -288.660E-03     39.3223E-03    -288.659E-03     577.267E-03    -288.272E-03     33.8884E-03
             689     12.1429E-03     133.791E-03    -12.7217E+06     96.6807E+06     107.930E+06     2.03492E+06    -287.996E-03     576.676E-03    -288.680E-03     39.1193E-03    -288.582E-03     577.246E-03    -288.262E-03     32.3337E-03
             690     12.8177E-03     133.847E-03    -6.41883E+06     109.147E+06     112.181E+06     947.120E+03    -287.840E-03     576.503E-03    -288.663E-03     33.0675E-03    -288.381E-03     577.083E-03    -288.251E-03     26.5242E-03
             691     674.511E-06     134.746E-03    -129.741E+06    -263.346E+06    -127.601E+06     317.915E+03    -288.362E-03     576.692E-03    -288.329E-03     3.04860E-03    -288.444E-03     575.748E-03    -288.397E-03     3.41779E-03
             692     1.34902E-03     134.755E-03    -126.729E+06    -253.749E+06    -118.686E+06     596.276E+03    -288.327E-03     576.699E-03    -288.372E-03     5.59891E-03    -288.420E-03     575.786E-03    -288.414E-03     6.25710E-03
             693     2.02355E-03     134.769E-03    -122.017E+06    -239.442E+06    -105.302E+06     856.323E+03    -288.314E-03     576.718E-03    -288.404E-03     8.28014E-03    -288.423E-03     575.850E-03    -288.406E-03     9.20276E-03
             694     2.69809E-03     134.788E-03    -115.971E+06    -221.609E+06    -88.9195E+06     1.09540E+06    -288.304E-03     576.747E-03    -288.442E-03     10.9821E-03    -288.433E-03     575.935E-03    -288.398E-03     12.1105E-03
             695     3.37264E-03     134.813E-03    -108.965E+06    -201.559E+06    -71.0912E+06     1.31240E+06    -288.302E-03     576.786E-03    -288.483E-03     13.6946E-03    -288.452E-03     576.039E-03    -288.388E-03     14.9507E-03
             696     4.04719E-03     134.843E-03    -101.372E+06    -180.326E+06    -53.1401E+06     1.50286E+06    -288.309E-03     576.831E-03    -288.522E-03     16.3932E-03    -288.478E-03     576.154E-03    -288.379E-03     17.6857E-03
             697     4.72175E-03     134.878E-03    -93.5041E+06    -158.616E+06    -35.9336E+06     1.66163E+06    -288.324E-03     576.881E-03    -288.556E-03     19.0854E-03    -288.511E-03     576.277E-03    -288.370E-03     20.3096E-03
             698     5.39632E-03     134.917E-03    -85.6059E+06    -136.306E+06    -19.9105E+06     1.79389E+06    -288.342E-03     576.926E-03    -288.584E-03     21.7703E-03    -288.548E-03     576.402E-03    -288.362E-03     22.8123E-03
             699     6.07091E-03     134.960E-03    -77.8499E+06    -113.414E+06    -5.19987E+06     1.92904E+06    -288.358E-03     576.962E-03    -288.605E-03     24.4518E-03    -288.584E-03     576.525E-03    -288.353E-03     25.1902E-03
             700     6.74551E-03     135.008E-03    -70.3648E+06    -88.7404E+06     8.30682E+06     2.12403E+06    -288.362E-03     576.978E-03    -288.616E-03     27.1061E-03    -288.614E-03     576.641E-03    -288.344E-03     27.4190E-03
             701     7.42014E-03     135.060E-03    -63.2258E+06    -61.3622E+06     20.9125E+06     2.37149E+06    -288.346E-03     576.965E-03    -288.619E-03     29.6790E-03    -288.631E-03     576.747E-03    -288.334E-03     29.4463E-03
             702     8.09481E-03     135.114E-03    -56.3773E+06    -28.8547E+06     33.1694E+06     2.69935E+06    -288.303E-03     576.913E-03    -288.611E-03     32.2125E-03    -288.634E-03     576.845E-03    -288.321E-03     31.3079E-03
             703     8.76954E-03     135.172E-03    -49.9053E+06     12.9361E+06     45.9295E+06     2.56069E+06    -288.221E-03     576.810E-03    -288.589E-03     34.6642E-03    -288.620E-03     576.945E-03    -288.306E-03     32.9554E-03
             704     9.44428E-03     135.232E-03    -43.6888E+06     53.6665E+06      57.548E+06     1.24698E+06    -288.146E-03     576.708E-03    -288.562E-03     36.8496E-03    -288.616E-03     577.047E-03    -288.289E-03     34.2095E-03
             705     10.1190E-03     135.294E-03    -36.7388E+06     71.5114E+06     67.9401E+06     35.6009E+03    -288.127E-03     576.689E-03    -288.562E-03     38.5555E-03    -288.634E-03     577.123E-03    -288.273E-03     34.9157E-03
             706     10.7937E-03     135.358E-03    -28.4079E+06     71.6119E+06     78.8685E+06     769.457E+03    -288.097E-03     576.686E-03    -288.589E-03     39.4783E-03    -288.611E-03     577.125E-03    -288.258E-03     34.8690E-03
             707     11.4687E-03     135.420E-03    -19.6337E+06     81.4919E+06     93.7156E+06     2.55978E+06    -287.959E-03     576.578E-03    -288.620E-03     39.3042E-03    -288.490E-03     577.058E-03    -288.241E-03     33.8555E-03
             708     12.1435E-03     135.479E-03    -11.8852E+06     99.8010E+06     108.530E+06     2.71688E+06    -287.756E-03     576.393E-03    -288.636E-03     39.1409E-03    -288.343E-03     576.977E-03    -288.221E-03     32.3588E-03
             709     12.8183E-03     135.535E-03    -5.55203E+06     112.066E+06     113.592E+06     1.23195E+06    -287.577E-03     576.189E-03    -288.613E-03     33.1900E-03    -288.121E-03     576.782E-03    -288.199E-03     26.6404E-03
             710     674.464E-06     136.432E-03    -129.845E+06    -264.975E+06    -127.653E+06     396.587E+03    -288.417E-03     576.805E-03    -288.388E-03     3.03276E-03    -288.497E-03     575.853E-03    -288.454E-03     3.40827E-03
             711     1.34894E-03     136.441E-03    -126.744E+06    -255.370E+06    -118.636E+06     729.112E+03    -288.380E-03     576.809E-03    -288.429E-03     5.57705E-03    -288.471E-03     575.887E-03    -288.468E-03     6.24678E-03
             712     2.02342E-03     136.455E-03    -121.964E+06    -240.962E+06    -105.184E+06     1.06076E+06    -288.356E-03     576.814E-03    -288.458E-03     8.25866E-03    -288.464E-03     575.938E-03    -288.458E-03     9.19877E-03
             713     2.69793E-03     136.475E-03    -115.843E+06    -223.052E+06    -88.7037E+06     1.37133E+06    -288.331E-03     576.823E-03    -288.492E-03     10.9673E-03    -288.458E-03     576.004E-03    -288.444E-03     12.1187E-03
             714     3.37247E-03     136.500E-03    -108.736E+06    -202.909E+06    -70.7814E+06     1.66209E+06    -288.309E-03     576.836E-03    -288.526E-03     13.6923E-03    -288.456E-03     576.081E-03    -288.428E-03     14.9765E-03
             715     4.04703E-03     136.530E-03    -100.998E+06    -181.558E+06    -52.6945E+06     1.92363E+06    -288.294E-03     576.852E-03    -288.558E-03     16.4075E-03    -288.460E-03     576.167E-03    -288.411E-03     17.7326E-03
             716     4.72162E-03     136.565E-03    -92.9378E+06    -159.724E+06    -35.3183E+06     2.15168E+06    -288.286E-03     576.869E-03    -288.583E-03     19.1174E-03    -288.469E-03     576.258E-03    -288.394E-03     20.3777E-03
             717     5.39625E-03     136.604E-03    -84.7866E+06    -137.326E+06    -19.1043E+06     2.35688E+06    -288.281E-03     576.883E-03    -288.602E-03     21.8164E-03    -288.483E-03     576.351E-03    -288.375E-03     22.8967E-03
             718     6.07090E-03     136.648E-03    -76.7079E+06    -114.500E+06    -4.20361E+06     2.58466E+06    -288.279E-03     576.892E-03    -288.613E-03     24.5008E-03    -288.499E-03     576.446E-03    -288.357E-03     25.2785E-03
             719     6.74558E-03     136.695E-03    -68.7740E+06    -90.0193E+06     9.51701E+06     2.88112E+06    -288.274E-03     576.889E-03    -288.616E-03     27.1401E-03    -288.517E-03     576.541E-03    -288.338E-03     27.4917E-03
             720     7.42029E-03     136.747E-03    -60.9993E+06    -62.7923E+06     22.4548E+06     3.27352E+06    -288.261E-03     576.872E-03    -288.611E-03     29.6796E-03    -288.534E-03     576.640E-03    -288.319E-03     29.4847E-03
             721     8.09503E-03     136.802E-03    -53.3843E+06    -30.3355E+06     35.1970E+06     3.66288E+06    -288.234E-03     576.832E-03    -288.597E-03     32.1729E-03    -288.551E-03     576.749E-03    -288.300E-03     31.3039E-03
             722     8.76976E-03     136.859E-03    -45.9934E+06     11.8051E+06     48.6773E+06     4.41863E+06    -288.175E-03     576.748E-03    -288.574E-03     34.5967E-03    -288.555E-03     576.867E-03    -288.281E-03     32.9373E-03
             723     9.44454E-03     136.920E-03    -39.4021E+06     56.9545E+06     61.5554E+06     4.55015E+06    -288.097E-03     576.641E-03    -288.544E-03     36.8354E-03    -288.556E-03     576.983E-03    -288.261E-03     34.2730E-03
             724     10.1193E-03     136.982E-03    -34.0698E+06     76.5061E+06     72.1422E+06     2.35217E+06    -288.073E-03     576.615E-03    -288.542E-03     38.6975E-03    -288.580E-03     577.064E-03    -288.243E-03     35.1212E-03
             725     10.7940E-03     137.045E-03    -28.9298E+06     72.1116E+06     80.4684E+06    -605.379E+03    -288.053E-03     576.619E-03    -288.566E-03     39.7126E-03    -288.573E-03     577.059E-03    -288.226E-03     35.0898E-03
             726     11.4688E-03     137.107E-03    -22.2561E+06     77.9802E+06     90.9567E+06    -1.44988E+06    -287.877E-03     576.459E-03    -288.582E-03     39.4435E-03    -288.414E-03     576.930E-03    -288.208E-03     33.9021E-03
             727     12.1439E-03     137.166E-03    -14.1761E+06     98.3798E+06     105.260E+06     18.5193E+03    -287.570E-03     576.157E-03    -288.587E-03     39.0871E-03    -288.163E-03     576.744E-03    -288.183E-03     32.2163E-03
             728     12.8192E-03     137.222E-03    -6.54512E+06     114.554E+06     113.617E+06     995.373E+03    -287.432E-03     575.998E-03    -288.566E-03     32.8892E-03    -287.985E-03     576.605E-03    -288.155E-03     26.3127E-03
             729     674.418E-06     138.119E-03    -130.141E+06    -266.793E+06    -127.926E+06     410.688E+03    -288.475E-03     576.932E-03    -288.457E-03     3.04400E-03    -288.553E-03     575.972E-03    -288.521E-03     3.42666E-03
             730     1.34885E-03     138.128E-03    -126.957E+06    -257.173E+06    -118.800E+06     741.480E+03    -288.432E-03     576.922E-03    -288.490E-03     5.59714E-03    -288.521E-03     575.992E-03    -288.527E-03     6.27897E-03
             731     2.02331E-03     138.142E-03    -122.080E+06    -242.712E+06    -105.190E+06     1.09321E+06    -288.394E-03     576.908E-03    -288.514E-03     8.28727E-03    -288.499E-03     576.024E-03    -288.512E-03     9.24410E-03
             732     2.69780E-03     138.162E-03    -115.819E+06    -224.692E+06    -88.5285E+06     1.41922E+06    -288.350E-03     576.892E-03    -288.542E-03     11.0029E-03    -288.475E-03     576.065E-03    -288.491E-03     12.1748E-03
             733     3.37234E-03     138.187E-03    -108.545E+06    -204.432E+06    -70.4206E+06     1.69861E+06    -288.309E-03     576.878E-03    -288.569E-03     13.7299E-03    -288.453E-03     576.115E-03    -288.467E-03     15.0371E-03
             734     4.04692E-03     138.217E-03    -100.624E+06    -182.957E+06    -52.1834E+06     1.93910E+06    -288.274E-03     576.865E-03    -288.592E-03     16.4397E-03    -288.436E-03     576.172E-03    -288.441E-03     17.7889E-03
             735     4.72154E-03     138.252E-03    -92.3615E+06    -160.946E+06    -34.6615E+06     2.12444E+06    -288.248E-03     576.856E-03    -288.608E-03     19.1358E-03    -288.427E-03     576.237E-03    -288.414E-03     20.4199E-03
             736     5.39620E-03     138.291E-03    -83.9940E+06    -138.522E+06    -18.2888E+06     2.28691E+06    -288.231E-03     576.849E-03    -288.619E-03     21.8110E-03    -288.427E-03     576.309E-03    -288.387E-03     22.9136E-03
             737     6.07090E-03     138.335E-03    -75.6752E+06    -115.699E+06    -3.21230E+06     2.44410E+06    -288.223E-03     576.846E-03    -288.622E-03     24.4640E-03    -288.438E-03     576.390E-03    -288.361E-03     25.2617E-03
             738     6.74562E-03     138.383E-03    -67.4957E+06    -91.3640E+06     10.6735E+06     2.60312E+06    -288.219E-03     576.838E-03    -288.619E-03     27.0714E-03    -288.455E-03     576.479E-03    -288.336E-03     27.4403E-03
             739     7.42035E-03     138.434E-03    -59.5171E+06    -64.5800E+06     23.6900E+06     2.89369E+06    -288.208E-03     576.818E-03    -288.610E-03     29.5888E-03    -288.473E-03     576.574E-03    -288.311E-03     29.4105E-03
             740     8.09511E-03     138.489E-03    -51.8555E+06    -32.4856E+06     36.4644E+06     3.48560E+06    -288.177E-03     576.770E-03    -288.593E-03     32.0823E-03    -288.484E-03     576.671E-03    -288.288E-03     31.2356E-03
             741     8.76990E-03     138.547E-03    -44.5321E+06     7.56078E+06     49.5867E+06     4.65465E+06    -288.101E-03     576.666E-03    -288.566E-03     34.5271E-03    -288.469E-03     576.759E-03    -288.264E-03     32.8975E-03
             742     9.44475E-03     138.607E-03    -37.2350E+06     55.8197E+06     62.9298E+06     5.97548E+06    -287.962E-03     576.487E-03    -288.525E-03     36.7582E-03    -288.410E-03     576.818E-03    -288.237E-03     34.2401E-03
             743     10.1197E-03     138.670E-03    -30.0651E+06     82.4053E+06     74.6867E+06     5.77291E+06    -287.885E-03     576.391E-03    -288.507E-03     38.5974E-03    -288.383E-03     576.859E-03    -288.209E-03     35.0888E-03
             744     10.7947E-03     138.733E-03    -23.8289E+06     80.0588E+06     85.4105E+06     3.16419E+06    -287.915E-03     576.445E-03    -288.529E-03     39.7134E-03    -288.428E-03     576.909E-03    -288.184E-03     35.1640E-03
             745     11.4695E-03     138.795E-03    -18.6129E+06     81.4610E+06     97.1027E+06    -301.813E+03    -287.921E-03     576.480E-03    -288.559E-03     39.5663E-03    -288.454E-03     576.954E-03    -288.165E-03     34.0371E-03
             746     12.1443E-03     138.853E-03    -13.1465E+06     94.4681E+06     106.858E+06    -1.46424E+06    -287.853E-03     576.420E-03    -288.567E-03     39.0042E-03    -288.438E-03     576.984E-03    -288.151E-03     32.0707E-03
             747     12.8192E-03     138.909E-03    -6.58507E+06     112.745E+06     112.989E+06    -405.340E+03    -287.735E-03     576.285E-03    -288.551E-03     32.4350E-03    -288.283E-03     576.883E-03    -288.140E-03     25.8047E-03
             748     674.384E-06     139.806E-03    -130.903E+06    -268.503E+06    -128.705E+06     352.860E+03    -288.528E-03     577.035E-03    -288.506E-03     3.05461E-03    -288.607E-03     576.069E-03    -288.571E-03     3.44218E-03
             749     1.34879E-03     139.815E-03    -127.701E+06    -258.860E+06    -119.453E+06     640.517E+03    -288.475E-03     577.016E-03    -288.541E-03     5.60366E-03    -288.565E-03     576.079E-03    -288.577E-03     6.29279E-03
             750     2.02323E-03     139.829E-03    -122.722E+06    -244.352E+06    -105.655E+06     927.974E+03    -288.427E-03     576.988E-03    -288.562E-03     8.28962E-03    -288.532E-03     576.097E-03    -288.558E-03     9.25586E-03
             751     2.69770E-03     139.849E-03    -116.326E+06    -226.208E+06    -88.8105E+06     1.18724E+06    -288.372E-03     576.957E-03    -288.585E-03     10.9949E-03    -288.496E-03     576.123E-03    -288.533E-03     12.1778E-03
             752     3.37223E-03     139.874E-03    -108.906E+06    -205.817E+06    -70.5248E+06     1.41523E+06    -288.319E-03     576.926E-03    -288.607E-03     13.7051E-03    -288.462E-03     576.157E-03    -288.504E-03     15.0242E-03
             753     4.04681E-03     139.904E-03    -100.844E+06    -184.218E+06    -52.1161E+06     1.60921E+06    -288.273E-03     576.898E-03    -288.625E-03     16.3913E-03    -288.435E-03     576.199E-03    -288.472E-03     17.7530E-03
             754     4.72144E-03     139.938E-03    -92.4845E+06    -162.081E+06    -34.4650E+06     1.78871E+06    -288.238E-03     576.875E-03    -288.637E-03     19.0585E-03    -288.417E-03     576.250E-03    -288.440E-03     20.3558E-03
             755     5.39611E-03     139.978E-03    -84.0933E+06    -139.658E+06    -18.0057E+06     1.97226E+06    -288.215E-03     576.858E-03    -288.643E-03     21.7039E-03    -288.411E-03     576.312E-03    -288.408E-03     22.8208E-03
             756     6.07081E-03     140.022E-03    -75.8648E+06    -116.805E+06    -2.87300E+06     2.17124E+06    -288.201E-03     576.844E-03    -288.643E-03     24.3307E-03    -288.415E-03     576.382E-03    -288.378E-03     25.1444E-03
             757     6.74554E-03     140.070E-03    -67.9428E+06    -92.5989E+06     11.0110E+06     2.42567E+06    -288.188E-03     576.824E-03    -288.636E-03     26.9186E-03    -288.425E-03     576.459E-03    -288.348E-03     27.3058E-03
             758     7.42030E-03     140.121E-03    -60.3900E+06    -66.3388E+06     23.8817E+06     2.81424E+06    -288.165E-03     576.788E-03    -288.623E-03     29.4218E-03    -288.432E-03     576.536E-03    -288.320E-03     29.2621E-03
             759     8.09511E-03     140.176E-03    -53.1086E+06    -35.4306E+06     36.2443E+06     3.55763E+06    -288.117E-03     576.719E-03    -288.602E-03     31.8908E-03    -288.425E-03     576.607E-03    -288.292E-03     31.0615E-03
             760     8.76998E-03     140.234E-03    -45.9106E+06     3.12115E+06     49.0289E+06     4.71670E+06    -288.029E-03     576.600E-03    -288.571E-03     34.2841E-03    -288.397E-03     576.673E-03    -288.263E-03     32.6626E-03
             761     9.44492E-03     140.295E-03    -38.6870E+06     52.9618E+06     62.8897E+06     5.52852E+06    -287.887E-03     576.413E-03    -288.526E-03     36.4289E-03    -288.337E-03     576.732E-03    -288.232E-03     33.8941E-03
             762     10.1199E-03     140.357E-03    -31.4222E+06     84.0688E+06     74.4259E+06     5.34628E+06    -287.805E-03     576.301E-03    -288.496E-03     38.1007E-03    -288.312E-03     576.779E-03    -288.201E-03     34.5562E-03
             763     10.7950E-03     140.420E-03    -24.1564E+06     86.2095E+06     85.1684E+06     4.20541E+06    -287.820E-03     576.328E-03    -288.508E-03     38.9409E-03    -288.342E-03     576.824E-03    -288.172E-03     34.3615E-03
             764     11.4701E-03     140.483E-03    -17.0089E+06     88.5502E+06     99.6338E+06     2.27597E+06    -287.866E-03     576.412E-03    -288.546E-03     38.6756E-03    -288.403E-03     576.914E-03    -288.151E-03     33.1522E-03
             765     12.1448E-03     140.542E-03    -10.5031E+06     94.7708E+06     108.724E+06     673.968E+03    -287.923E-03     576.484E-03    -288.561E-03     38.5574E-03    -288.497E-03     577.042E-03    -288.139E-03     31.6608E-03
             766     12.8189E-03     140.598E-03    -5.15035E+06     110.898E+06     113.021E+06     256.848E+03    -287.800E-03     576.344E-03    -288.544E-03     32.7213E-03    -288.339E-03     576.931E-03    -288.132E-03     26.1053E-03
             767     674.353E-06     141.493E-03    -132.274E+06    -269.838E+06    -130.075E+06     242.703E+03    -288.587E-03     577.145E-03    -288.558E-03     3.02371E-03    -288.668E-03     576.176E-03    -288.626E-03     3.41269E-03
             768     1.34872E-03     141.502E-03    -129.018E+06    -260.136E+06    -120.647E+06     425.916E+03    -288.526E-03     577.122E-03    -288.596E-03     5.55500E-03    -288.619E-03     576.183E-03    -288.635E-03     6.24650E-03
             769     2.02313E-03     141.516E-03    -123.918E+06    -245.548E+06    -106.628E+06     597.156E+03    -288.475E-03     577.091E-03    -288.616E-03     8.21495E-03    -288.583E-03     576.197E-03    -288.614E-03     9.18443E-03
             770     2.69758E-03     141.536E-03    -117.386E+06    -227.335E+06    -89.5362E+06     755.611E+03    -288.416E-03     577.056E-03    -288.639E-03     10.8897E-03    -288.543E-03     576.219E-03    -288.587E-03     12.0766E-03
             771     3.37208E-03     141.561E-03    -109.826E+06    -206.908E+06    -71.0122E+06     920.895E+03    -288.359E-03     577.020E-03    -288.661E-03     13.5654E-03    -288.505E-03     576.247E-03    -288.557E-03     14.8892E-03
             772     4.04663E-03     141.591E-03    -101.638E+06    -185.288E+06    -52.4047E+06      1.1093E+06    -288.310E-03     576.988E-03    -288.678E-03     16.2136E-03    -288.473E-03     576.285E-03    -288.524E-03     17.5811E-03
             773     4.72124E-03     141.625E-03    -93.1571E+06    -163.212E+06    -34.5938E+06     1.33710E+06    -288.271E-03     576.960E-03    -288.689E-03     18.8411E-03    -288.451E-03     576.330E-03    -288.490E-03     20.1454E-03
             774     5.39589E-03     141.665E-03    -84.6390E+06    -140.893E+06    -18.0319E+06     1.62879E+06    -288.242E-03     576.936E-03    -288.693E-03     21.4455E-03    -288.439E-03     576.384E-03    -288.457E-03     22.5706E-03
             775     6.07058E-03     141.709E-03    -76.2594E+06    -118.177E+06    -2.84217E+06     1.99779E+06    -288.221E-03     576.913E-03    -288.692E-03     24.0283E-03    -288.435E-03     576.445E-03    -288.424E-03     24.8511E-03
             776     6.74531E-03     141.757E-03    -68.1147E+06    -94.2824E+06     11.0400E+06     2.48215E+06    -288.199E-03     576.882E-03    -288.683E-03     26.5661E-03    -288.435E-03     576.509E-03    -288.392E-03     26.9617E-03
             777     7.42008E-03     141.808E-03    -60.2363E+06    -68.3602E+06     23.9092E+06     3.07214E+06    -288.170E-03     576.838E-03    -288.668E-03     29.0100E-03    -288.433E-03     576.575E-03    -288.362E-03     28.8553E-03
             778     8.09488E-03     141.863E-03    -52.5598E+06    -38.1314E+06     36.2429E+06     3.66187E+06    -288.124E-03     576.768E-03    -288.644E-03     31.4140E-03    -288.425E-03     576.642E-03    -288.331E-03     30.5779E-03
             779     8.76971E-03     141.921E-03    -44.8992E+06     -411.89E+03     48.9065E+06     4.33306E+06    -288.043E-03     576.655E-03    -288.611E-03     33.7497E-03    -288.400E-03     576.709E-03    -288.301E-03     32.1057E-03
             780     9.44457E-03     141.982E-03    -37.3960E+06     49.5802E+06     63.0684E+06     5.51954E+06    -287.911E-03     576.477E-03    -288.567E-03     35.8556E-03    -288.349E-03     576.777E-03    -288.269E-03     33.2983E-03
             781     10.1195E-03     142.044E-03    -30.5791E+06     84.3588E+06     75.5537E+06     6.14244E+06    -287.823E-03     576.360E-03    -288.537E-03     37.5670E-03    -288.327E-03     576.836E-03    -288.237E-03     34.0098E-03
             782     10.7942E-03     142.108E-03    -24.4859E+06     90.0163E+06     84.5890E+06     4.93142E+06    -287.778E-03     576.313E-03    -288.535E-03     38.5992E-03    -288.306E-03     576.828E-03    -288.207E-03     34.0126E-03
             783     11.4688E-03     142.170E-03    -18.7106E+06     92.7097E+06     95.9726E+06     3.14816E+06    -287.613E-03     576.162E-03    -288.549E-03     38.6139E-03    -288.159E-03     576.692E-03    -288.176E-03     33.1230E-03
             784     12.1440E-03     142.229E-03    -12.9157E+06     97.1965E+06     105.618E+06     2.04347E+06    -287.433E-03     575.981E-03    -288.549E-03     38.6681E-03    -288.015E-03     576.557E-03    -288.143E-03     31.8679E-03
             785     12.8198E-03     142.285E-03    -6.49755E+06     112.142E+06     113.410E+06     1.26602E+06    -287.407E-03     575.933E-03    -288.526E-03     32.8281E-03    -287.954E-03     576.526E-03    -288.112E-03     26.2916E-03
             786     674.289E-06     143.180E-03    -133.645E+06    -270.615E+06    -131.343E+06     109.239E+03    -288.674E-03     577.331E-03    -288.658E-03     2.96386E-03    -288.759E-03     576.363E-03    -288.728E-03     3.35301E-03
             787     1.34860E-03     143.189E-03    -130.295E+06    -260.846E+06    -121.779E+06     185.319E+03    -288.620E-03     577.310E-03    -288.690E-03     5.44620E-03    -288.716E-03     576.371E-03    -288.732E-03     6.13958E-03
             788     2.02295E-03     143.203E-03    -125.145E+06    -246.162E+06    -107.563E+06     241.959E+03    -288.568E-03     577.280E-03    -288.712E-03     8.05185E-03    -288.681E-03     576.386E-03    -288.711E-03     9.02362E-03
             789     2.69734E-03     143.223E-03    -118.553E+06    -227.975E+06    -90.2773E+06     301.965E+03    -288.510E-03     577.246E-03    -288.736E-03     10.6717E-03    -288.641E-03     576.408E-03    -288.685E-03     11.8608E-03
             790     3.37177E-03     143.248E-03    -110.930E+06    -207.631E+06    -71.6250E+06     401.693E+03    -288.452E-03     577.211E-03    -288.759E-03     13.2929E-03    -288.601E-03     576.437E-03    -288.655E-03     14.6189E-03
             791     4.04626E-03     143.278E-03    -102.657E+06    -186.057E+06    -53.0060E+06     515.528E+03    -288.400E-03     577.176E-03    -288.776E-03     15.8887E-03    -288.567E-03     576.471E-03    -288.622E-03     17.2574E-03
             792     4.72080E-03     143.313E-03    -94.0386E+06    -164.123E+06    -35.2653E+06     648.176E+03    -288.355E-03     577.142E-03    -288.787E-03     18.4677E-03    -288.538E-03     576.510E-03    -288.588E-03     19.7715E-03
             793     5.39538E-03     143.352E-03    -85.2897E+06    -142.011E+06    -18.7968E+06     827.401E+03    -288.318E-03     577.107E-03    -288.790E-03     21.0318E-03    -288.515E-03     576.553E-03    -288.554E-03     22.1541E-03
             794     6.07000E-03     143.396E-03    -76.5473E+06    -119.549E+06    -3.66943E+06     1.07285E+06    -288.283E-03     577.068E-03    -288.785E-03     23.5862E-03    -288.496E-03     576.596E-03    -288.519E-03     24.4038E-03
             795     6.74466E-03     143.444E-03    -67.9003E+06    -96.1142E+06     10.2326E+06     1.43548E+06    -288.245E-03     577.018E-03    -288.773E-03     26.1145E-03    -288.476E-03     576.637E-03    -288.484E-03     26.5037E-03
             796     7.41935E-03     143.495E-03    -59.4273E+06    -70.6365E+06     23.2373E+06     1.98043E+06    -288.195E-03     576.948E-03    -288.754E-03     28.5801E-03    -288.449E-03     576.674E-03    -288.449E-03     28.4218E-03
             797     8.09408E-03     143.550E-03    -51.2748E+06    -40.5809E+06     35.8899E+06     2.69593E+06    -288.120E-03     576.845E-03    -288.725E-03     31.0549E-03    -288.411E-03     576.706E-03    -288.413E-03     30.2239E-03
             798     8.76886E-03     143.608E-03    -43.6879E+06    -3.74921E+06     48.6835E+06     3.68264E+06    -288.004E-03     576.690E-03    -288.686E-03     33.5212E-03    -288.349E-03     576.725E-03    -288.374E-03     31.8969E-03
             799     9.44372E-03     143.669E-03    -36.5389E+06     43.5680E+06     62.2312E+06     5.47662E+06    -287.816E-03     576.448E-03    -288.632E-03     35.8254E-03    -288.239E-03     576.716E-03    -288.331E-03     33.3140E-03
             800     10.1187E-03     143.732E-03    -29.5245E+06     82.3683E+06     74.8740E+06     7.16856E+06    -287.607E-03     576.188E-03    -288.581E-03     37.7938E-03    -288.101E-03     576.653E-03    -288.284E-03     34.3120E-03
             801     10.7939E-03     143.795E-03    -23.0978E+06     92.8575E+06     85.5714E+06     7.32898E+06    -287.451E-03     576.010E-03    -288.559E-03     39.0605E-03    -287.977E-03     576.536E-03    -288.232E-03     34.5692E-03
             802     11.4694E-03     143.857E-03    -17.4706E+06     96.0932E+06     99.9559E+06     6.27114E+06    -287.327E-03     575.894E-03    -288.567E-03     39.0885E-03    -287.877E-03     576.433E-03    -288.181E-03     33.6911E-03
             803     12.1448E-03     143.915E-03    -11.8368E+06     101.092E+06     110.451E+06     4.13817E+06    -287.246E-03     575.803E-03    -288.557E-03     38.8688E-03    -287.835E-03     576.388E-03    -288.134E-03     32.1405E-03
             804     12.8195E-03     143.972E-03    -6.00493E+06     115.519E+06     116.212E+06     1.66241E+06    -287.110E-03     575.623E-03    -288.513E-03     32.8247E-03    -287.661E-03     576.226E-03    -288.091E-03     26.3494E-03
             805     674.187E-06     144.868E-03    -135.091E+06    -270.927E+06    -132.775E+06     33.4191E+03    -288.833E-03     577.653E-03    -288.820E-03     2.88249E-03    -288.923E-03     576.686E-03    -288.895E-03     3.27457E-03
             806     1.34838E-03     144.877E-03    -131.771E+06    -261.085E+06    -123.162E+06     44.6159E+03    -288.780E-03     577.631E-03    -288.851E-03     5.29431E-03    -288.881E-03     576.695E-03    -288.897E-03     5.99291E-03
             807     2.02261E-03     144.891E-03    -126.638E+06    -246.314E+06    -108.896E+06     29.6498E+03    -288.725E-03     577.598E-03    -288.873E-03     7.83448E-03    -288.843E-03     576.708E-03    -288.877E-03     8.81354E-03
             808     2.69689E-03     144.911E-03    -120.082E+06    -228.196E+06    -91.5823E+06     22.8954E+03    -288.660E-03     577.557E-03    -288.897E-03     10.3971E-03    -288.797E-03     576.723E-03    -288.850E-03     11.5955E-03
             809     3.37121E-03     144.936E-03    -112.494E+06    -207.862E+06    -72.9915E+06         843.506    -288.592E-03     577.509E-03    -288.917E-03     12.9753E-03    -288.747E-03     576.739E-03    -288.818E-03     14.3117E-03
             810     4.04558E-03     144.965E-03    -104.261E+06    -186.273E+06    -54.4992E+06    -49.0989E+03    -288.523E-03     577.454E-03    -288.931E-03     15.5470E-03    -288.696E-03     576.753E-03    -288.782E-03     16.9274E-03
             811     4.72001E-03     145.000E-03    -95.7212E+06    -164.408E+06    -36.9023E+06    -107.633E+03    -288.454E-03     577.390E-03    -288.936E-03     18.1263E-03    -288.643E-03     576.762E-03    -288.743E-03     19.4435E-03
             812     5.39450E-03     145.040E-03    -87.1206E+06    -142.391E+06    -20.5682E+06    -165.920E+03    -288.383E-03     577.314E-03    -288.931E-03     20.7194E-03    -288.587E-03     576.762E-03    -288.701E-03     21.8577E-03
             813     6.06906E-03     145.083E-03    -78.6327E+06    -120.233E+06    -5.56528E+06    -159.531E+03    -288.306E-03     577.223E-03    -288.917E-03     23.3330E-03    -288.525E-03     576.752E-03    -288.656E-03     24.1709E-03
             814     6.74369E-03     145.131E-03    -70.3846E+06    -97.3164E+06     8.19446E+06     9.97863E+03    -288.216E-03     577.109E-03    -288.893E-03     25.9507E-03    -288.455E-03     576.728E-03    -288.609E-03     26.3670E-03
             815     7.41842E-03     145.183E-03    -62.4529E+06    -72.6842E+06     20.9542E+06     469.043E+03    -288.106E-03     576.964E-03    -288.858E-03     28.5297E-03    -288.369E-03     576.686E-03    -288.558E-03     28.4073E-03
             816     8.09326E-03     145.238E-03    -54.8609E+06    -43.7555E+06     33.2415E+06     1.44839E+06    -287.963E-03     576.775E-03    -288.812E-03     31.1249E-03    -288.263E-03     576.628E-03    -288.502E-03     30.3436E-03
             817     8.76824E-03     145.296E-03    -47.5907E+06    -8.78732E+06     45.7306E+06     3.24435E+06    -287.783E-03     576.536E-03    -288.753E-03     33.6955E-03    -288.134E-03     576.555E-03    -288.443E-03     32.1371E-03
             818     9.44336E-03     145.356E-03    -40.6008E+06     37.0856E+06     59.1190E+06     5.38124E+06    -287.541E-03     576.219E-03    -288.678E-03     36.0565E-03    -287.970E-03     576.464E-03    -288.377E-03     33.6091E-03
             819     10.1188E-03     145.418E-03    -33.7684E+06     78.5354E+06     71.6733E+06     6.94359E+06    -287.309E-03     575.910E-03    -288.601E-03     37.9327E-03    -287.814E-03     576.366E-03    -288.307E-03     34.4864E-03
             820     10.7942E-03     145.481E-03    -26.7462E+06     92.1464E+06     83.6863E+06     7.67940E+06    -287.199E-03     575.761E-03    -288.562E-03     38.9158E-03    -287.739E-03     576.291E-03    -288.238E-03     34.4333E-03
             821     11.4694E-03     145.543E-03    -19.4205E+06     96.8820E+06     100.186E+06     7.85011E+06    -287.131E-03     575.694E-03    -288.563E-03     38.7785E-03    -287.692E-03     576.240E-03    -288.174E-03     33.3997E-03
             822     12.1445E-03     145.603E-03    -12.5371E+06     108.050E+06     113.083E+06     6.15839E+06    -286.956E-03     575.498E-03    -288.542E-03     38.8525E-03    -287.563E-03     576.116E-03    -288.115E-03     32.1366E-03
             823     12.8201E-03     145.659E-03    -6.24547E+06     122.952E+06     118.802E+06     2.56836E+06    -286.664E-03     575.143E-03    -288.479E-03     33.2611E-03    -287.233E-03     575.782E-03    -288.055E-03     26.7905E-03
             824     674.011E-06     146.556E-03    -137.095E+06    -271.071E+06    -134.777E+06     27.1878E+03    -289.057E-03     578.101E-03    -289.044E-03     2.81537E-03    -289.154E-03     577.140E-03    -289.126E-03     3.21569E-03
             825     1.34805E-03     146.565E-03    -133.795E+06    -261.098E+06    -125.151E+06     18.6190E+03    -288.992E-03     578.066E-03    -289.073E-03     5.18182E-03    -289.101E-03     577.135E-03    -289.126E-03     5.89484E-03
             826     2.02212E-03     146.579E-03    -128.687E+06    -246.278E+06    -110.825E+06    -10.0038E+03    -288.921E-03     578.011E-03    -289.090E-03     7.68505E-03    -289.047E-03     577.127E-03    -289.100E-03     8.68555E-03
             827     2.69625E-03     146.599E-03    -122.147E+06    -228.133E+06    -93.4249E+06    -58.7627E+03    -288.832E-03     577.939E-03    -289.107E-03     10.2281E-03    -288.977E-03     577.111E-03    -289.066E-03     11.4548E-03
             828     3.37044E-03     146.624E-03    -114.606E+06    -207.690E+06    -74.7312E+06    -139.750E+03    -288.731E-03     577.849E-03    -289.118E-03     12.8078E-03    -288.895E-03     577.085E-03    -289.024E-03     14.1793E-03
             829     4.04472E-03     146.654E-03    -106.502E+06    -186.118E+06    -56.1298E+06    -213.818E+03    -288.621E-03     577.741E-03    -289.119E-03     15.4003E-03    -288.803E-03     577.046E-03    -288.975E-03     16.8229E-03
             830     4.71909E-03     146.688E-03    -98.1857E+06    -164.229E+06    -38.4668E+06    -272.132E+03    -288.504E-03     577.614E-03    -289.109E-03     18.0157E-03    -288.703E-03     576.992E-03    -288.921E-03     19.3822E-03
             831     5.39357E-03     146.728E-03    -89.9212E+06    -142.296E+06    -22.1572E+06    -298.816E+03    -288.380E-03     577.467E-03    -289.087E-03     20.6533E-03    -288.595E-03     576.922E-03    -288.861E-03     21.8470E-03
             832     6.06817E-03     146.771E-03    -81.8696E+06    -120.369E+06    -7.30063E+06    -263.624E+03    -288.247E-03     577.301E-03    -289.053E-03     23.3094E-03    -288.480E-03     576.836E-03    -288.797E-03     24.2064E-03
             833     6.74289E-03     146.819E-03    -74.0816E+06    -97.9700E+06     6.13156E+06    -111.258E+03    -288.103E-03     577.111E-03    -289.008E-03     25.9542E-03    -288.355E-03     576.734E-03    -288.728E-03     26.4287E-03
             834     7.41776E-03     146.870E-03    -66.5212E+06    -74.1718E+06     18.4076E+06     240.543E+03    -287.944E-03     576.895E-03    -288.950E-03     28.5309E-03    -288.221E-03     576.619E-03    -288.654E-03     28.4601E-03
             835     8.09276E-03     146.925E-03    -59.0832E+06    -46.9972E+06     29.9369E+06     998.555E+03    -287.767E-03     576.648E-03    -288.881E-03     31.0827E-03    -288.077E-03     576.495E-03    -288.577E-03     30.3391E-03
             836     8.76789E-03     146.982E-03    -51.5723E+06    -14.4296E+06     41.5279E+06     2.40777E+06    -287.569E-03     576.369E-03    -288.800E-03     33.5643E-03    -287.926E-03     576.371E-03    -288.497E-03     32.0238E-03
             837     9.44317E-03     147.043E-03    -44.0965E+06     29.3914E+06     54.3030E+06     5.00641E+06    -287.341E-03     576.047E-03    -288.706E-03     35.7990E-03    -287.768E-03     576.265E-03    -288.413E-03     33.3604E-03
             838     10.1185E-03     147.105E-03    -37.0921E+06     74.1123E+06     67.2205E+06     7.41439E+06    -287.124E-03     575.735E-03    -288.611E-03     37.6366E-03    -287.632E-03     576.179E-03    -288.329E-03     34.2043E-03
             839     10.7937E-03     147.168E-03    -30.4633E+06     92.2634E+06     78.4701E+06     7.35368E+06    -286.974E-03     575.522E-03    -288.549E-03     38.8561E-03    -287.524E-03     576.065E-03    -288.246E-03     34.3908E-03
             840     11.4692E-03     147.230E-03    -23.3835E+06     97.0605E+06     93.5722E+06     6.03108E+06    -286.765E-03     575.290E-03    -288.526E-03     39.0805E-03    -287.336E-03     575.852E-03    -288.165E-03     33.7078E-03
             841     12.1451E-03     147.288E-03    -15.2293E+06     114.342E+06     112.165E+06     4.37743E+06    -286.454E-03     574.953E-03    -288.499E-03     39.1630E-03    -287.084E-03     575.610E-03    -288.082E-03     32.4122E-03
             842     12.8211E-03     147.344E-03    -7.03699E+06     130.656E+06     122.364E+06     2.03225E+06    -286.306E-03     574.740E-03    -288.434E-03     33.2330E-03    -286.897E-03     575.415E-03    -288.002E-03     26.7186E-03
             843     673.835E-06     148.246E-03    -138.538E+06    -271.298E+06    -136.182E+06     71.9917E+03    -289.290E-03     578.574E-03    -289.284E-03     2.80771E-03    -289.392E-03     577.615E-03    -289.370E-03     3.22175E-03
             844     1.34770E-03     148.254E-03    -135.210E+06    -261.233E+06    -126.400E+06     120.198E+03    -289.208E-03     578.514E-03    -289.306E-03     5.16893E-03    -289.322E-03     577.587E-03    -289.363E-03     5.90690E-03
             845     2.02162E-03     148.269E-03    -130.073E+06    -246.335E+06    -111.882E+06     151.322E+03    -289.109E-03     578.423E-03    -289.314E-03     7.67050E-03    -289.240E-03     577.542E-03    -289.328E-03     8.70674E-03
             846     2.69563E-03     148.288E-03    -123.534E+06    -228.075E+06    -94.2792E+06     147.506E+03    -288.984E-03     578.303E-03    -289.319E-03     10.2152E-03    -289.135E-03     577.479E-03    -289.280E-03     11.4869E-03
             847     3.36974E-03     148.313E-03    -116.021E+06    -207.638E+06    -75.4064E+06     159.765E+03    -288.842E-03     578.157E-03    -289.315E-03     12.7950E-03    -289.011E-03     577.396E-03    -289.223E-03     14.2193E-03
             848     4.04398E-03     148.342E-03    -107.948E+06    -186.127E+06    -56.7035E+06     210.648E+03    -288.688E-03     577.987E-03    -289.300E-03     15.3812E-03    -288.876E-03     577.296E-03    -289.157E-03     16.8622E-03
             849     4.71833E-03     148.377E-03    -99.6583E+06    -164.273E+06    -39.0815E+06     290.984E+03    -288.526E-03     577.797E-03    -289.271E-03     17.9798E-03    -288.731E-03     577.178E-03    -289.084E-03     19.4075E-03
             850     5.39283E-03     148.416E-03    -91.3816E+06    -142.404E+06    -22.9314E+06     384.306E+03    -288.359E-03     577.588E-03    -289.229E-03     20.5885E-03    -288.580E-03     577.045E-03    -289.004E-03     21.8427E-03
             851     6.06746E-03     148.459E-03    -83.2365E+06    -120.487E+06    -8.28033E+06     444.031E+03    -288.188E-03     577.362E-03    -289.174E-03     23.2048E-03    -288.425E-03     576.900E-03    -288.920E-03     24.1579E-03
             852     6.74223E-03     148.506E-03    -75.2636E+06    -98.2603E+06     4.98085E+06     452.061E+03    -288.012E-03     577.120E-03    -289.108E-03     25.8043E-03    -288.268E-03     576.745E-03    -288.832E-03     26.3266E-03
             853     7.41713E-03     148.557E-03    -67.4610E+06    -74.9127E+06     17.1220E+06     477.079E+03    -287.828E-03     576.860E-03    -289.032E-03     28.3421E-03    -288.106E-03     576.583E-03    -288.740E-03     28.3085E-03
             854     8.09216E-03     148.612E-03    -59.8026E+06    -48.9542E+06     28.4866E+06     691.916E+03    -287.633E-03     576.579E-03    -288.946E-03     30.8805E-03    -287.942E-03     576.419E-03    -288.646E-03     30.1622E-03
             855     8.76732E-03     148.669E-03    -52.3017E+06    -18.4831E+06     39.6425E+06     1.42496E+06    -287.419E-03     576.269E-03    -288.850E-03     33.4003E-03    -287.770E-03     576.253E-03    -288.549E-03     31.8766E-03
             856     9.44259E-03     148.729E-03    -44.7295E+06     20.3846E+06     51.0879E+06     3.51725E+06    -287.160E-03     575.900E-03    -288.740E-03     35.7600E-03    -287.572E-03     576.077E-03    -288.449E-03     33.3428E-03
             857     10.1181E-03     148.791E-03    -36.7219E+06     68.9227E+06     64.1167E+06     5.86592E+06    -286.838E-03     575.458E-03    -288.620E-03     37.7829E-03    -287.331E-03     575.879E-03    -288.346E-03     34.3832E-03
             858     10.7940E-03     148.853E-03    -28.7694E+06     94.1104E+06     75.7694E+06     6.27335E+06    -286.595E-03     575.119E-03    -288.524E-03     39.0648E-03    -287.136E-03     575.672E-03    -288.240E-03     34.6222E-03
             859     11.4700E-03     148.915E-03    -21.3286E+06     100.624E+06     93.2507E+06     4.69868E+06    -286.442E-03     574.931E-03    -288.489E-03     39.1022E-03    -287.008E-03     575.508E-03    -288.138E-03     33.6993E-03
             860     12.1458E-03     148.973E-03    -14.0300E+06     119.166E+06     115.419E+06     2.38374E+06    -286.279E-03     574.746E-03    -288.468E-03     38.9612E-03    -286.915E-03     575.421E-03    -288.043E-03     32.1441E-03
             861     12.8215E-03     149.029E-03    -6.79143E+06     134.191E+06     125.477E+06     902.972E+03    -286.184E-03     574.584E-03    -288.400E-03     33.0363E-03    -286.783E-03     575.272E-03    -287.957E-03     26.4959E-03
             862     673.701E-06     149.936E-03    -138.458E+06    -271.884E+06    -136.062E+06     187.566E+03    -289.485E-03     578.970E-03    -289.485E-03     2.81341E-03    -289.586E-03     578.008E-03    -289.570E-03     3.24103E-03
             863     1.34745E-03     149.944E-03    -135.112E+06    -261.780E+06    -126.176E+06     336.523E+03    -289.391E-03     578.892E-03    -289.502E-03     5.17393E-03    -289.503E-03     577.962E-03    -289.557E-03     5.93574E-03
             864     2.02126E-03     149.958E-03    -129.936E+06    -246.797E+06    -111.542E+06     480.806E+03    -289.270E-03     578.773E-03    -289.502E-03     7.66635E-03    -289.400E-03     577.889E-03    -289.514E-03     8.73604E-03
             865     2.69518E-03     149.978E-03    -123.349E+06    -228.422E+06    -93.8606E+06     602.479E+03    -289.119E-03     578.616E-03    -289.498E-03     10.1908E-03    -289.268E-03     577.789E-03    -289.457E-03     11.5036E-03
             866     3.36921E-03     150.002E-03    -115.774E+06    -208.027E+06    -74.9890E+06     706.439E+03    -288.946E-03     578.429E-03    -289.482E-03     12.7417E-03    -289.115E-03     577.665E-03    -289.388E-03     14.2121E-03
             867     4.04338E-03     150.031E-03    -107.613E+06    -186.554E+06    -56.3825E+06     815.476E+03    -288.759E-03     578.212E-03    -289.453E-03     15.2948E-03    -288.945E-03     577.518E-03    -289.309E-03     16.8246E-03
             868     4.71769E-03     150.065E-03    -99.1928E+06    -164.708E+06    -38.8631E+06     916.813E+03    -288.562E-03     577.972E-03    -289.410E-03     17.8626E-03    -288.765E-03     577.350E-03    -289.221E-03     19.3406E-03
             869     5.39215E-03     150.104E-03    -90.7463E+06    -142.729E+06    -22.7415E+06     965.683E+03    -288.358E-03     577.710E-03    -289.352E-03     20.4519E-03    -288.576E-03     577.164E-03    -289.127E-03     21.7574E-03
             870     6.06677E-03     150.147E-03    -82.4357E+06    -120.623E+06    -8.01558E+06     936.922E+03    -288.147E-03     577.428E-03    -289.281E-03     23.0685E-03    -288.381E-03     576.964E-03    -289.026E-03     24.0745E-03
             871     6.74155E-03     150.194E-03    -74.3858E+06    -98.2349E+06     5.42670E+06     836.789E+03    -287.930E-03     577.129E-03    -289.198E-03     25.6941E-03    -288.182E-03     576.752E-03    -288.921E-03     26.2727E-03
             872     7.41650E-03     150.245E-03    -66.6727E+06    -74.9668E+06     17.7664E+06     708.204E+03    -287.704E-03     576.810E-03    -289.106E-03     28.2856E-03    -287.978E-03     576.530E-03    -288.812E-03     28.3123E-03
             873     8.09164E-03     150.298E-03    -59.3019E+06    -49.6571E+06     29.2520E+06     682.590E+03    -287.466E-03     576.469E-03    -289.003E-03     30.9013E-03    -287.771E-03     576.302E-03    -288.699E-03     30.2461E-03
             874     8.76697E-03     150.355E-03    -52.1405E+06    -20.8860E+06     40.3177E+06     1.03159E+06    -287.211E-03     576.101E-03    -288.890E-03     33.5007E-03    -287.557E-03     576.071E-03    -288.583E-03     32.0366E-03
             875     9.44255E-03     150.415E-03    -44.8854E+06     15.0283E+06     51.3795E+06     1.71631E+06    -286.929E-03     575.693E-03    -288.764E-03     35.8861E-03    -287.333E-03     575.842E-03    -288.464E-03     33.4982E-03
             876     10.1183E-03     150.476E-03    -37.1565E+06     65.5026E+06     64.6933E+06     2.25127E+06    -286.615E-03     575.241E-03    -288.626E-03     37.7875E-03    -287.105E-03     575.644E-03    -288.344E-03     34.3657E-03
             877     10.7943E-03     150.538E-03    -28.8918E+06     93.5582E+06     76.1619E+06     2.62437E+06    -286.437E-03     574.950E-03    -288.514E-03     38.8374E-03    -286.977E-03     575.499E-03    -288.226E-03     34.3371E-03
             878     11.4700E-03     150.600E-03    -20.7926E+06     102.118E+06     94.1413E+06     3.05172E+06    -286.308E-03     574.778E-03    -288.470E-03     38.7785E-03    -286.875E-03     575.361E-03    -288.117E-03     33.3249E-03
             879     12.1459E-03     150.658E-03    -13.4305E+06     123.222E+06     117.137E+06     2.63822E+06    -286.050E-03     574.490E-03    -288.441E-03     38.8139E-03    -286.692E-03     575.183E-03    -288.014E-03     31.9783E-03
             880     12.8219E-03     150.714E-03    -6.64697E+06     137.094E+06     127.099E+06     1.20871E+06    -285.865E-03     574.228E-03    -288.363E-03     33.1746E-03    -286.471E-03     574.928E-03    -287.916E-03     26.6452E-03
             881     673.605E-06     151.626E-03    -137.895E+06    -273.001E+06    -135.506E+06     310.283E+03    -289.640E-03     579.283E-03    -289.642E-03     2.78760E-03    -289.737E-03     578.314E-03    -289.724E-03     3.22501E-03
             882     1.34725E-03     151.635E-03    -134.519E+06    -262.800E+06    -125.619E+06     538.443E+03    -289.539E-03     579.195E-03    -289.656E-03     5.12481E-03    -289.648E-03     578.258E-03    -289.708E-03     5.90419E-03
             883     2.02097E-03     151.649E-03    -129.290E+06    -247.728E+06    -110.964E+06     742.842E+03    -289.405E-03     579.058E-03    -289.653E-03     7.59439E-03    -289.532E-03     578.168E-03    -289.661E-03     8.68931E-03
             884     2.69479E-03     151.668E-03    -122.605E+06    -229.196E+06    -93.2569E+06     901.230E+03    -289.234E-03     578.875E-03    -289.642E-03     10.1013E-03    -289.379E-03     578.042E-03    -289.598E-03     11.4467E-03
             885     3.36874E-03     151.692E-03    -114.891E+06    -208.684E+06    -74.2901E+06     1.00186E+06    -289.034E-03     578.653E-03    -289.618E-03     12.6440E-03    -289.199E-03     577.883E-03    -289.520E-03     14.1536E-03
             886     4.04285E-03     151.721E-03    -106.567E+06    -187.210E+06    -55.5109E+06     1.08287E+06    -288.814E-03     578.393E-03    -289.579E-03     15.2007E-03    -288.996E-03     577.693E-03    -289.431E-03     16.7761E-03
             887     4.71713E-03     151.754E-03    -97.9892E+06    -165.240E+06    -37.7816E+06     1.14251E+06    -288.578E-03     578.101E-03    -289.523E-03     17.7839E-03    -288.775E-03     577.473E-03    -289.330E-03     19.3141E-03
             888     5.39160E-03     151.793E-03    -89.4229E+06    -143.111E+06    -21.4088E+06     1.17102E+06    -288.330E-03     577.781E-03    -289.451E-03     20.3974E-03    -288.542E-03     577.230E-03    -289.221E-03     21.7618E-03
             889     6.06626E-03     151.835E-03    -81.0515E+06    -120.859E+06    -6.39624E+06     1.19237E+06    -288.075E-03     577.439E-03    -289.364E-03     23.0398E-03    -288.303E-03     576.969E-03    -289.104E-03     24.1116E-03
             890     6.74114E-03     151.881E-03    -72.9816E+06    -98.3492E+06     7.31257E+06     1.21985E+06    -287.816E-03     577.081E-03    -289.265E-03     25.6807E-03    -288.062E-03     576.698E-03    -288.980E-03     26.3309E-03
             891     7.41624E-03     151.932E-03    -65.2725E+06    -75.0959E+06     19.8677E+06     1.27964E+06    -287.556E-03     576.712E-03    -289.156E-03     28.2648E-03    -287.825E-03     576.425E-03    -288.853E-03     28.3663E-03
             892     8.09153E-03     151.985E-03    -57.9522E+06    -50.1165E+06     31.4559E+06     1.41419E+06    -287.301E-03     576.338E-03    -289.037E-03     30.8369E-03    -287.600E-03     576.162E-03    -288.723E-03     30.2524E-03
             893     8.76703E-03     152.041E-03    -50.9292E+06    -21.7568E+06     42.5391E+06     1.47547E+06    -287.056E-03     575.967E-03    -288.911E-03     33.3484E-03    -287.397E-03     575.926E-03    -288.593E-03     31.9382E-03
             894     9.44265E-03     152.100E-03    -44.0735E+06     13.8418E+06     53.5967E+06     1.44016E+06    -286.820E-03     575.595E-03    -288.776E-03     35.6394E-03    -287.220E-03     575.733E-03    -288.464E-03     33.2789E-03
             895     10.1183E-03     152.161E-03    -37.5028E+06     64.4536E+06     66.8255E+06     1.51452E+06    -286.548E-03     575.181E-03    -288.633E-03     37.5515E-03    -287.040E-03     575.574E-03    -288.338E-03     34.1437E-03
             896     10.7941E-03     152.224E-03    -31.3240E+06     93.7805E+06     77.1639E+06     1.07436E+06    -286.327E-03     574.839E-03    -288.511E-03     38.7769E-03    -286.881E-03     575.390E-03    -288.216E-03     34.2770E-03
             897     11.4701E-03     152.285E-03    -24.3910E+06     101.954E+06     92.3898E+06     221.677E+03    -286.090E-03     574.538E-03    -288.448E-03     38.9031E-03    -286.673E-03     575.128E-03    -288.099E-03     33.4091E-03
             898     12.1463E-03     152.343E-03    -15.8680E+06     123.486E+06     115.202E+06     298.811E+03    -285.758E-03     574.161E-03    -288.403E-03     38.9152E-03    -286.412E-03     574.863E-03    -287.983E-03     32.0141E-03
             899     12.8227E-03     152.398E-03    -7.28410E+06     139.116E+06     127.889E+06     672.298E+03    -285.626E-03     573.948E-03    -288.322E-03     33.0797E-03    -286.240E-03     574.658E-03    -287.873E-03     26.5280E-03
             900     673.515E-06     153.317E-03    -137.885E+06    -274.457E+06    -135.503E+06     338.781E+03    -289.755E-03     579.517E-03    -289.762E-03     2.76819E-03    -289.850E-03     578.542E-03    -289.842E-03     3.21584E-03
             901     1.34707E-03     153.326E-03    -134.433E+06    -264.065E+06    -125.499E+06     571.850E+03    -289.645E-03     579.417E-03    -289.772E-03     5.09424E-03    -289.752E-03     578.473E-03    -289.821E-03     5.89243E-03
             902     2.02072E-03     153.339E-03    -129.081E+06    -248.785E+06    -110.648E+06     749.062E+03    -289.495E-03     579.258E-03    -289.763E-03     7.55867E-03    -289.619E-03     578.361E-03    -289.768E-03     8.68091E-03
             903     2.69449E-03     153.358E-03    -122.241E+06    -230.026E+06    -92.6500E+06     857.771E+03    -289.300E-03     579.045E-03    -289.745E-03     10.0667E-03    -289.443E-03     578.206E-03    -289.697E-03     11.4474E-03
             904     3.36841E-03     153.382E-03    -114.351E+06    -209.321E+06    -73.3378E+06     914.185E+03    -289.072E-03     578.785E-03    -289.713E-03     12.6133E-03    -289.234E-03     578.010E-03    -289.610E-03     14.1656E-03
             905     4.04252E-03     153.410E-03    -105.838E+06    -187.809E+06    -54.2013E+06     953.054E+03    -288.822E-03     578.485E-03    -289.663E-03     15.1716E-03    -289.000E-03     577.779E-03    -289.509E-03     16.7956E-03
             906     4.71682E-03     153.444E-03    -97.0664E+06    -165.800E+06    -36.1694E+06     1.02086E+06    -288.556E-03     578.152E-03    -289.596E-03     17.7457E-03    -288.750E-03     577.518E-03    -289.396E-03     19.3290E-03
             907     5.39134E-03     153.481E-03    -88.3101E+06    -143.603E+06    -19.6006E+06     1.10741E+06    -288.283E-03     577.794E-03    -289.511E-03     20.3327E-03    -288.491E-03     577.236E-03    -289.273E-03     21.7531E-03
             908     6.06607E-03     153.523E-03    -79.7205E+06    -121.361E+06    -4.48595E+06     1.20695E+06    -288.008E-03     577.421E-03    -289.412E-03     22.9277E-03    -288.231E-03     576.943E-03    -289.143E-03     24.0559E-03
             909     6.74102E-03     153.569E-03    -71.3751E+06    -98.8640E+06     9.29239E+06     1.33264E+06    -287.739E-03     577.041E-03    -289.302E-03     25.5002E-03    -287.979E-03     576.650E-03    -289.009E-03     26.2057E-03
             910     7.41616E-03     153.618E-03    -63.3121E+06    -75.7938E+06     21.9362E+06     1.52074E+06    -287.479E-03     576.662E-03    -289.183E-03     28.0036E-03    -287.740E-03     576.365E-03    -288.871E-03     28.1582E-03
             911     8.09149E-03     153.671E-03    -55.5317E+06    -51.0352E+06     33.6822E+06     1.80179E+06    -287.233E-03     576.290E-03    -289.057E-03     30.5075E-03    -287.521E-03     576.102E-03    -288.734E-03     29.9750E-03
             912     8.76695E-03     153.727E-03    -48.1259E+06    -22.3776E+06     45.0247E+06     2.11469E+06    -286.995E-03     575.920E-03    -288.925E-03     33.0089E-03    -287.324E-03     575.867E-03    -288.597E-03     31.6552E-03
             913     9.44256E-03     153.786E-03    -41.2463E+06     13.1060E+06     56.1336E+06     2.45003E+06    -286.736E-03     575.520E-03    -288.784E-03     35.3898E-03    -287.123E-03     575.644E-03    -288.463E-03     33.0957E-03
             914     10.1184E-03     153.847E-03    -34.7283E+06     62.8148E+06     69.1233E+06     3.11298E+06    -286.395E-03     575.028E-03    -288.633E-03     37.4471E-03    -286.872E-03     575.405E-03    -288.328E-03     34.1115E-03
             915     10.7945E-03     153.908E-03    -28.2955E+06     97.0958E+06     79.8879E+06     2.72403E+06    -286.103E-03     574.597E-03    -288.494E-03     38.7720E-03    -286.649E-03     575.156E-03    -288.195E-03     34.3244E-03
             916     11.4706E-03     153.969E-03    -21.8112E+06     108.353E+06     95.7173E+06    -323.086E+03    -285.925E-03     574.345E-03    -288.420E-03     38.9104E-03    -286.509E-03     574.958E-03    -288.067E-03     33.4045E-03
             917     12.1468E-03     154.027E-03    -14.8250E+06     121.644E+06     115.700E+06    -2.19183E+06    -285.784E-03     574.156E-03    -288.373E-03     38.8119E-03    -286.431E-03     574.847E-03    -287.949E-03     31.8381E-03
             918     12.8230E-03     154.082E-03    -7.34999E+06     136.275E+06     126.865E+06    -854.849E+03    -285.707E-03     573.998E-03    -288.291E-03     32.8503E-03    -286.315E-03     574.696E-03    -287.844E-03     26.2527E-03
             919     673.476E-06     155.009E-03    -138.291E+06    -275.808E+06    -135.863E+06     263.369E+03    -289.803E-03     579.619E-03    -289.816E-03     2.77957E-03    -289.897E-03     578.638E-03    -289.895E-03     3.23788E-03
             920     1.34701E-03     155.017E-03    -134.734E+06    -265.196E+06    -125.617E+06     442.120E+03    -289.686E-03     579.507E-03    -289.821E-03     5.10913E-03    -289.792E-03     578.558E-03    -289.870E-03     5.92637E-03
             921     2.02063E-03     155.030E-03    -129.234E+06    -249.617E+06    -110.421E+06     556.750E+03    -289.524E-03     579.333E-03    -289.809E-03     7.56906E-03    -289.648E-03     578.432E-03    -289.812E-03     8.71810E-03
             922     2.69439E-03     155.049E-03    -122.217E+06    -230.636E+06    -92.0404E+06     608.494E+03    -289.317E-03     579.104E-03    -289.787E-03     10.0599E-03    -289.460E-03     578.261E-03    -289.736E-03     11.4737E-03
             923     3.36832E-03     155.072E-03    -114.140E+06    -209.772E+06    -72.3925E+06     627.609E+03    -289.078E-03     578.829E-03    -289.751E-03     12.5745E-03    -289.239E-03     578.050E-03    -289.643E-03     14.1645E-03
             924     4.04244E-03     155.100E-03    -105.448E+06    -188.209E+06    -53.0237E+06     633.325E+03    -288.819E-03     578.516E-03    -289.697E-03     15.0860E-03    -288.997E-03     577.805E-03    -289.536E-03     16.7502E-03
             925     4.71675E-03     155.133E-03    -96.5006E+06    -166.304E+06    -34.8846E+06     666.328E+03    -288.550E-03     578.175E-03    -289.625E-03     17.6005E-03    -288.742E-03     577.535E-03    -289.419E-03     19.2249E-03
             926     5.39127E-03     155.170E-03    -87.5504E+06    -144.107E+06    -18.3076E+06     734.233E+03    -288.275E-03     577.811E-03    -289.537E-03     20.1219E-03    -288.480E-03     577.248E-03    -289.292E-03     21.5837E-03
             927     6.06599E-03     155.211E-03    -78.7746E+06    -121.916E+06    -3.23760E+06     814.681E+03    -288.001E-03     577.436E-03    -289.435E-03     22.6549E-03    -288.220E-03     576.952E-03    -289.160E-03     23.8251E-03
             928     6.74092E-03     155.256E-03    -70.2628E+06    -99.4649E+06     10.4865E+06     904.065E+03    -287.731E-03     577.052E-03    -289.321E-03     25.1804E-03    -287.965E-03     576.654E-03    -289.023E-03     25.9295E-03
             929     7.41604E-03     155.305E-03    -62.0409E+06    -76.6314E+06     23.0955E+06     1.03471E+06    -287.462E-03     576.662E-03    -289.200E-03     27.6672E-03    -287.716E-03     576.357E-03    -288.883E-03     27.8687E-03
             930     8.09136E-03     155.357E-03    -54.1186E+06    -52.1700E+06     34.8272E+06     1.25800E+06    -287.191E-03     576.261E-03    -289.070E-03     30.1984E-03    -287.471E-03     576.063E-03    -288.742E-03     29.7178E-03
             931     8.76690E-03     155.413E-03    -46.4640E+06    -24.0657E+06     46.1656E+06     1.75995E+06    -286.904E-03     575.837E-03    -288.933E-03     32.7541E-03    -287.222E-03     575.770E-03    -288.600E-03     31.4587E-03
             932     9.44265E-03     155.471E-03    -39.0704E+06     10.9156E+06      57.523E+06     2.65360E+06    -286.588E-03     575.372E-03    -288.784E-03     35.1637E-03    -286.961E-03     575.479E-03    -288.456E-03     32.9295E-03
             933     10.1187E-03     155.531E-03    -31.8379E+06     60.3796E+06     70.8846E+06     3.51230E+06    -286.235E-03     574.859E-03    -288.624E-03     37.1916E-03    -286.695E-03     575.215E-03    -288.311E-03     33.8972E-03
             934     10.7948E-03     155.593E-03    -24.7254E+06     100.458E+06     83.0516E+06     3.16075E+06    -285.982E-03     574.457E-03    -288.475E-03     38.4486E-03    -286.519E-03     575.022E-03    -288.169E-03     34.0226E-03
             935     11.4711E-03     155.653E-03    -18.1066E+06     116.333E+06     100.211E+06     1.48152E+06    -285.876E-03     574.273E-03    -288.397E-03     38.5602E-03    -286.458E-03     574.913E-03    -288.038E-03     33.0913E-03
             936     12.1471E-03     155.711E-03    -12.2051E+06     122.475E+06     116.887E+06    -11.2942E+03    -285.803E-03     574.149E-03    -288.346E-03     38.6332E-03    -286.440E-03     574.838E-03    -287.921E-03     31.6900E-03
             937     12.8231E-03     155.766E-03    -6.34971E+06     133.596E+06     125.259E+06    -428.836E+03    -285.702E-03     573.961E-03    -288.259E-03     33.0167E-03    -286.300E-03     574.647E-03    -287.817E-03     26.4212E-03
             938     673.502E-06     156.700E-03    -138.945E+06    -276.754E+06    -136.450E+06     166.718E+03    -289.779E-03     579.574E-03    -289.795E-03     2.77018E-03    -289.875E-03     578.590E-03    -289.874E-03     3.23549E-03
             939     1.34706E-03     156.708E-03    -135.320E+06    -265.947E+06    -126.012E+06     262.981E+03    -289.667E-03     579.468E-03    -289.801E-03     5.08326E-03    -289.775E-03     578.517E-03    -289.849E-03     5.91311E-03
             940     2.02070E-03     156.721E-03    -129.720E+06    -250.102E+06    -110.562E+06     310.864E+03    -289.511E-03     579.303E-03    -289.792E-03     7.51497E-03    -289.637E-03     578.401E-03    -289.794E-03     8.68245E-03
             941     2.69447E-03     156.739E-03    -122.587E+06    -230.921E+06    -91.9088E+06     302.116E+03    -289.313E-03     579.086E-03    -289.773E-03     9.96578E-03    -289.458E-03     578.243E-03    -289.720E-03     11.4033E-03
             942     3.36839E-03     156.762E-03    -114.382E+06    -209.946E+06    -72.0409E+06     258.168E+03    -289.084E-03     578.825E-03    -289.741E-03     12.4326E-03    -289.247E-03     578.046E-03    -289.631E-03     14.0508E-03
             943     4.04248E-03     156.790E-03    -105.556E+06    -188.344E+06    -52.5370E+06     208.403E+03    -288.835E-03     578.528E-03    -289.692E-03     14.8951E-03    -289.014E-03     577.816E-03    -289.529E-03     16.5915E-03
             944     4.71677E-03     156.822E-03    -96.4987E+06    -166.538E+06    -34.3460E+06     179.722E+03    -288.573E-03     578.198E-03    -289.625E-03     17.3651E-03    -288.766E-03     577.557E-03    -289.416E-03     19.0254E-03
             945     5.39125E-03     156.858E-03    -87.4948E+06    -144.435E+06    -17.7941E+06     197.654E+03    -288.301E-03     577.842E-03    -289.541E-03     19.8520E-03    -288.507E-03     577.276E-03    -289.294E-03     21.3540E-03
             946     6.06595E-03     156.899E-03    -78.7082E+06    -122.300E+06    -2.78882E+06     255.720E+03    -288.023E-03     577.464E-03    -289.442E-03     22.3649E-03    -288.241E-03     576.977E-03    -289.164E-03     23.5805E-03
             947     6.74086E-03     156.944E-03    -70.2324E+06    -99.8773E+06     10.8629E+06     329.411E+03    -287.737E-03     577.067E-03    -289.330E-03     24.8840E-03    -287.971E-03     576.665E-03    -289.029E-03     25.6834E-03
             948     7.41599E-03     156.992E-03    -62.1151E+06    -77.2339E+06     23.3741E+06     437.993E+03    -287.442E-03     576.649E-03    -289.208E-03     27.3717E-03    -287.695E-03     576.340E-03    -288.889E-03     27.6264E-03
             949     8.09136E-03     157.044E-03    -54.3517E+06    -53.0403E+06     34.9547E+06     621.179E+03    -287.137E-03     576.211E-03    -289.075E-03     29.8953E-03    -287.416E-03     576.008E-03    -288.744E-03     29.4659E-03
             950     8.76695E-03     157.099E-03    -46.8765E+06    -25.8293E+06     45.9850E+06     959.189E+03    -286.822E-03     575.755E-03    -288.932E-03     32.4128E-03    -287.138E-03     575.679E-03    -288.597E-03     31.1583E-03
             951     9.44278E-03     157.156E-03    -39.5282E+06     7.98417E+06     56.9405E+06     1.65820E+06    -286.503E-03     575.281E-03    -288.778E-03     34.7670E-03    -286.872E-03     575.373E-03    -288.448E-03     32.5604E-03
             952     10.1188E-03     157.216E-03    -32.3646E+06     57.1308E+06     70.1437E+06     2.88035E+06    -286.170E-03     574.784E-03    -288.614E-03     36.7820E-03    -286.625E-03     575.124E-03    -288.299E-03     33.5150E-03
             953     10.7949E-03     157.277E-03    -25.8423E+06     101.330E+06     82.5568E+06     3.70556E+06    -285.908E-03     574.366E-03    -288.458E-03     38.1313E-03    -286.448E-03     574.935E-03    -288.155E-03     33.7561E-03
             954     11.4710E-03     157.337E-03    -19.7317E+06     119.916E+06     98.2270E+06     3.24676E+06    -285.734E-03     574.098E-03    -288.364E-03     38.4314E-03    -286.324E-03     574.759E-03    -288.018E-03     33.0319E-03
             955     12.1473E-03     157.395E-03    -13.1938E+06     125.342E+06     114.573E+06     2.10488E+06    -285.576E-03     573.879E-03    -288.303E-03     38.6795E-03    -286.218E-03     574.587E-03    -287.893E-03     31.7823E-03
             956     12.8239E-03     157.450E-03    -6.42045E+06     135.109E+06     124.810E+06     926.606E+03    -285.501E-03     573.718E-03    -288.217E-03     33.1748E-03    -286.101E-03     574.412E-03    -287.779E-03     26.6048E-03
             957     673.548E-06     158.391E-03    -139.915E+06    -277.289E+06    -137.377E+06     88.0561E+03    -289.717E-03     579.450E-03    -289.732E-03     2.72981E-03    -289.815E-03     578.465E-03    -289.814E-03     3.20104E-03
             958     1.34714E-03     158.399E-03    -136.241E+06    -266.300E+06    -126.780E+06     116.259E+03    -289.616E-03     579.358E-03    -289.741E-03     5.01043E-03    -289.727E-03     578.407E-03    -289.792E-03     5.85116E-03
             959     2.02081E-03     158.412E-03    -130.577E+06    -250.239E+06    -111.125E+06     98.0097E+03    -289.475E-03     579.214E-03    -289.739E-03     7.40807E-03    -289.604E-03     578.313E-03    -289.742E-03     8.59229E-03
             960     2.69459E-03     158.430E-03    -123.367E+06    -230.860E+06    -92.2722E+06     25.1351E+03    -289.294E-03     579.022E-03    -289.728E-03     9.82601E-03    -289.442E-03     578.181E-03    -289.676E-03     11.2866E-03
             961     3.36851E-03     158.452E-03    -115.093E+06    -209.773E+06    -72.2326E+06    -85.7792E+03    -289.082E-03     578.787E-03    -289.705E-03     12.2635E-03    -289.249E-03     578.010E-03    -289.595E-03     13.9112E-03
             962     4.04259E-03     158.480E-03    -106.225E+06    -188.177E+06    -52.6185E+06    -196.292E+03    -288.847E-03     578.511E-03    -289.664E-03     14.7007E-03    -289.030E-03     577.801E-03    -289.500E-03     16.4328E-03
             963     4.71686E-03     158.511E-03    -97.1494E+06    -166.496E+06    -34.3924E+06    -256.033E+03    -288.594E-03     578.199E-03    -289.605E-03     17.1490E-03    -288.790E-03     577.559E-03    -289.394E-03     18.8508E-03
             964     5.39132E-03     158.547E-03    -88.1416E+06    -144.551E+06    -17.8761E+06    -250.378E+03    -288.325E-03     577.851E-03    -289.527E-03     19.6174E-03    -288.533E-03     577.285E-03    -289.279E-03     21.1660E-03
             965     6.06600E-03     158.587E-03    -79.3803E+06    -122.557E+06    -2.98836E+06    -178.869E+03    -288.041E-03     577.473E-03    -289.432E-03     22.1120E-03    -288.262E-03     576.986E-03    -289.154E-03     23.3781E-03
             966     6.74090E-03     158.631E-03    -70.9603E+06    -100.223E+06     10.5066E+06    -49.2633E+03    -287.744E-03     577.067E-03    -289.322E-03     24.6052E-03    -287.980E-03     576.665E-03    -289.022E-03     25.4582E-03
             967     7.41604E-03     158.679E-03    -62.9173E+06    -77.7646E+06     22.8765E+06     138.072E+03    -287.436E-03     576.637E-03    -289.201E-03     27.0579E-03    -287.690E-03     576.326E-03    -288.883E-03     27.3671E-03
             968     8.09139E-03     158.730E-03    -55.2513E+06    -53.7529E+06     34.3345E+06     375.629E+03    -287.118E-03     576.187E-03    -289.069E-03     29.5467E-03    -287.399E-03     575.981E-03    -288.739E-03     29.1709E-03
             969     8.76698E-03     158.784E-03    -47.9650E+06    -27.1536E+06     45.1834E+06     743.583E+03    -286.799E-03     575.725E-03    -288.926E-03     32.0496E-03    -287.115E-03     575.644E-03    -288.591E-03     30.8472E-03
             970     9.44275E-03     158.841E-03    -41.0874E+06     5.64070E+06     55.6816E+06     1.32930E+06    -286.470E-03     575.241E-03    -288.771E-03     34.4427E-03    -286.839E-03     575.323E-03    -288.441E-03     32.2883E-03
             971     10.1188E-03     158.900E-03    -34.4545E+06     51.9538E+06     67.7514E+06     2.81600E+06    -286.102E-03     574.706E-03    -288.603E-03     36.5580E-03    -286.555E-03     575.024E-03    -288.290E-03     33.3517E-03
             972     10.7949E-03     158.961E-03    -27.8378E+06     99.1294E+06     79.0449E+06     4.49538E+06    -285.752E-03     574.183E-03    -288.431E-03     38.0317E-03    -286.292E-03     574.747E-03    -288.139E-03     33.7258E-03
             973     11.4715E-03     159.021E-03    -21.0888E+06     123.403E+06     94.8837E+06     4.02854E+06    -285.518E-03     573.837E-03    -288.319E-03     38.4179E-03    -286.114E-03     574.521E-03    -287.993E-03     33.0671E-03
             974     12.1480E-03     159.078E-03    -14.1318E+06     128.325E+06     113.360E+06     2.31622E+06    -285.399E-03     573.658E-03    -288.260E-03     38.6471E-03    -286.047E-03     574.384E-03    -287.858E-03     31.7507E-03
             975     12.8243E-03     159.133E-03    -7.03047E+06     137.439E+06     126.056E+06     1.15597E+06    -285.349E-03     573.529E-03    -288.179E-03     33.1099E-03    -285.957E-03     574.234E-03    -287.738E-03     26.5373E-03
             976     673.598E-06     160.082E-03    -141.056E+06    -277.519E+06    -138.489E+06     27.8594E+03    -289.630E-03     579.277E-03    -289.647E-03     2.70644E-03    -289.732E-03     578.295E-03    -289.733E-03     3.18600E-03
             977     1.34724E-03     160.090E-03    -137.352E+06    -266.353E+06    -127.762E+06     13.6492E+03    -289.539E-03     579.196E-03    -289.657E-03     4.97053E-03    -289.654E-03     578.248E-03    -289.711E-03     5.82618E-03
             978     2.02095E-03     160.103E-03    -131.632E+06    -250.067E+06    -111.931E+06    -58.4219E+03    -289.411E-03     579.070E-03    -289.660E-03     7.35259E-03    -289.544E-03     578.173E-03    -289.666E-03     8.55851E-03
             979     2.69476E-03     160.120E-03    -124.363E+06    -230.493E+06    -92.9005E+06    -188.109E+03    -289.247E-03     578.902E-03    -289.656E-03     9.75470E-03    -289.399E-03     578.065E-03    -289.606E-03     11.2436E-03
             980     3.36870E-03     160.142E-03    -116.027E+06    -209.305E+06    -72.7116E+06    -346.252E+03    -289.054E-03     578.694E-03    -289.640E-03     12.1738E-03    -289.225E-03     577.921E-03    -289.532E-03     13.8562E-03
             981     4.04280E-03     160.169E-03    -107.098E+06    -187.746E+06    -52.9960E+06    -493.637E+03    -288.837E-03     578.445E-03    -289.608E-03     14.5896E-03    -289.024E-03     577.739E-03    -289.446E-03     16.3622E-03
             982     4.71706E-03     160.200E-03    -97.9643E+06    -166.230E+06    -34.7540E+06    -596.063E+03    -288.598E-03     578.156E-03    -289.557E-03     17.0145E-03    -288.798E-03     577.518E-03    -289.348E-03     18.7615E-03
             983     5.39151E-03     160.236E-03    -88.9069E+06    -144.508E+06    -18.3052E+06    -615.176E+03    -288.338E-03     577.825E-03    -289.487E-03     19.4581E-03    -288.549E-03     577.260E-03    -289.240E-03     21.0557E-03
             984     6.06618E-03     160.275E-03    -80.0966E+06    -122.774E+06    -3.52776E+06    -531.161E+03    -288.059E-03     577.457E-03    -289.398E-03     21.9278E-03    -288.282E-03     576.971E-03    -289.122E-03     23.2464E-03
             985     6.74105E-03     160.319E-03    -71.6223E+06    -100.638E+06     9.83837E+06    -358.715E+03    -287.761E-03     577.055E-03    -289.294E-03     24.3968E-03    -287.999E-03     576.653E-03    -288.995E-03     25.3068E-03
             986     7.41616E-03     160.366E-03    -63.5135E+06    -78.4116E+06     22.0987E+06    -111.359E+03    -287.447E-03     576.624E-03    -289.177E-03     26.8335E-03    -287.701E-03     576.310E-03    -288.860E-03     27.2054E-03
             987     8.09150E-03     160.416E-03    -55.7946E+06    -54.7105E+06     33.4837E+06     260.256E+03    -287.118E-03     576.164E-03    -289.047E-03     29.3274E-03    -287.397E-03     575.954E-03    -288.719E-03     29.0213E-03
             988     8.76708E-03     160.470E-03    -48.4818E+06    -28.8092E+06     44.2910E+06     859.391E+03    -286.778E-03     575.684E-03    -288.906E-03     31.8581E-03    -287.091E-03     575.594E-03    -288.572E-03     30.7337E-03
             989     9.44292E-03     160.526E-03    -41.6004E+06     2.87461E+06     54.7023E+06     1.90606E+06    -286.420E-03     575.171E-03    -288.751E-03     34.2949E-03    -286.784E-03     575.239E-03    -288.421E-03     32.2262E-03
             990     10.1190E-03     160.585E-03    -35.0614E+06     46.5841E+06     66.2988E+06     3.44097E+06    -286.032E-03     574.614E-03    -288.582E-03     36.4504E-03    -286.475E-03     574.906E-03    -288.267E-03     33.3196E-03
             991     10.7954E-03     160.645E-03    -28.4113E+06     97.2851E+06     77.4510E+06     4.19571E+06    -285.669E-03     574.068E-03    -288.400E-03     37.9211E-03    -286.204E-03     574.623E-03    -288.112E-03     33.6512E-03
             992     11.4718E-03     160.704E-03    -21.3062E+06     127.130E+06     93.7617E+06     3.33743E+06    -285.426E-03     573.705E-03    -288.278E-03     38.2713E-03    -286.026E-03     574.408E-03    -287.963E-03     32.9246E-03
             993     12.1483E-03     160.762E-03    -13.9603E+06     130.918E+06     113.002E+06     2.12907E+06    -285.296E-03     573.516E-03    -288.220E-03     38.5420E-03    -285.947E-03     574.255E-03    -287.825E-03     31.6352E-03
             994     12.8248E-03     160.817E-03    -6.84962E+06     139.705E+06     127.180E+06     1.16288E+06    -285.225E-03     573.369E-03    -288.144E-03     33.1280E-03    -285.838E-03     574.084E-03    -287.701E-03     26.5474E-03
             995     673.681E-06     161.773E-03    -142.201E+06    -277.523E+06    -139.611E+06    -14.3227E+03    -289.495E-03     579.011E-03    -289.515E-03     2.72585E-03    -289.601E-03     578.032E-03    -289.605E-03     3.21419E-03
             996     1.34740E-03     161.781E-03    -138.460E+06    -266.167E+06    -128.803E+06    -75.1377E+03    -289.414E-03     578.940E-03    -289.526E-03     5.00372E-03    -289.534E-03     577.997E-03    -289.583E-03     5.87490E-03
             997     2.02118E-03     161.793E-03    -132.699E+06    -249.658E+06    -112.853E+06    -186.837E+03    -289.300E-03     578.833E-03    -289.533E-03     7.39674E-03    -289.438E-03     577.941E-03    -289.543E-03     8.62499E-03
             998     2.69506E-03     161.810E-03    -125.376E+06    -229.869E+06    -93.6727E+06    -357.878E+03    -289.156E-03     578.692E-03    -289.536E-03     9.80289E-03    -289.314E-03     577.861E-03    -289.489E-03     11.3207E-03
             999     3.36904E-03     161.832E-03    -116.978E+06    -208.567E+06    -73.3498E+06    -578.031E+03    -288.988E-03     578.517E-03    -289.529E-03     12.2182E-03    -289.164E-03     577.750E-03    -289.424E-03     13.9354E-03
            1000     4.04317E-03     161.859E-03    -107.970E+06    -187.031E+06    -53.5541E+06    -805.856E+03    -288.795E-03     578.303E-03    -289.507E-03     14.6230E-03    -288.986E-03     577.602E-03    -289.347E-03     16.4360E-03
            1001     4.71744E-03     161.890E-03    -98.7449E+06    -165.657E+06    -35.2732E+06    -994.374E+03    -288.579E-03     578.045E-03    -289.467E-03     17.0320E-03    -288.782E-03     577.412E-03    -289.260E-03     18.8244E-03
            1002     5.39190E-03     161.925E-03    -89.5799E+06    -144.223E+06    -18.8285E+06    -1.10098E+06    -288.336E-03     577.742E-03    -289.406E-03     19.4573E-03    -288.550E-03     577.181E-03    -289.161E-03     21.1049E-03
            1003     6.06655E-03     161.964E-03    -80.6407E+06    -122.827E+06    -4.09934E+06    -1.09108E+06    -288.068E-03     577.395E-03    -289.327E-03     21.9098E-03    -288.292E-03     576.909E-03    -289.053E-03     23.2829E-03
            1004     6.74142E-03     162.006E-03    -72.0062E+06    -100.958E+06     9.23567E+06    -974.438E+03    -287.774E-03     577.005E-03    -289.231E-03     24.3615E-03    -288.011E-03     576.601E-03    -288.934E-03     25.3311E-03
            1005     7.41653E-03     162.053E-03    -63.7152E+06    -79.0980E+06     21.4885E+06    -734.920E+03    -287.459E-03     576.579E-03    -289.121E-03     26.7770E-03    -287.711E-03     576.263E-03    -288.806E-03     27.2139E-03
            1006     8.09188E-03     162.102E-03    -55.7455E+06    -55.8531E+06     32.8937E+06    -353.016E+03    -287.124E-03     576.120E-03    -288.996E-03     29.2442E-03    -287.399E-03     575.903E-03    -288.670E-03     29.0073E-03
            1007     8.76750E-03     162.155E-03    -48.0598E+06    -31.0289E+06     43.7030E+06     340.280E+03    -286.777E-03     575.637E-03    -288.860E-03     31.7353E-03    -287.082E-03     575.535E-03    -288.527E-03     30.6814E-03
            1008     9.44335E-03     162.211E-03    -40.6210E+06    -1.02208E+06     54.0820E+06     1.58578E+06    -286.419E-03     575.128E-03    -288.709E-03     34.1207E-03    -286.769E-03     575.173E-03    -288.378E-03     32.1198E-03
            1009     10.1195E-03     162.269E-03    -33.4066E+06     41.2040E+06     65.8851E+06     3.46043E+06    -286.048E-03     574.593E-03    -288.544E-03     36.2508E-03    -286.472E-03     574.853E-03    -288.226E-03     33.1807E-03
            1010     10.7957E-03     162.328E-03    -26.7571E+06     96.7922E+06     78.0957E+06     4.55270E+06    -285.679E-03     574.043E-03    -288.363E-03     37.7882E-03    -286.204E-03     574.590E-03    -288.074E-03     33.5683E-03
            1011     11.4721E-03     162.388E-03    -20.6039E+06     131.090E+06     94.0123E+06     3.50274E+06    -285.399E-03     573.636E-03    -288.236E-03     38.2781E-03    -286.000E-03     574.356E-03    -287.927E-03     32.9551E-03
            1012     12.1487E-03     162.445E-03    -14.1723E+06     132.966E+06     112.046E+06     1.99954E+06    -285.239E-03     573.415E-03    -288.176E-03     38.6146E-03    -285.893E-03     574.166E-03    -287.788E-03     31.7002E-03
            1013     12.8253E-03     162.500E-03    -7.13012E+06     141.875E+06     127.093E+06     1.14183E+06    -285.182E-03     573.285E-03    -288.104E-03     33.1634E-03    -285.799E-03     574.012E-03    -287.664E-03     26.5770E-03
            1014     673.818E-06     163.463E-03    -143.422E+06    -277.232E+06    -140.848E+06    -102.800E+03    -289.282E-03     578.583E-03    -289.301E-03     2.78844E-03    -289.393E-03     577.609E-03    -289.395E-03     3.28279E-03
            1015     1.34767E-03     163.471E-03    -139.648E+06    -265.712E+06    -129.960E+06    -215.071E+03    -289.215E-03     578.529E-03    -289.315E-03     5.11283E-03    -289.339E-03     577.592E-03    -289.377E-03     5.99566E-03
            1016     2.02157E-03     163.483E-03    -133.815E+06    -248.991E+06    -113.893E+06    -384.284E+03    -289.120E-03     578.449E-03    -289.329E-03     7.55079E-03    -289.263E-03     577.563E-03    -289.343E-03     8.79653E-03
            1017     2.69555E-03     163.500E-03    -126.399E+06    -228.973E+06    -94.5779E+06    -617.548E+03    -289.002E-03     578.343E-03    -289.341E-03     9.99373E-03    -289.164E-03     577.518E-03    -289.298E-03     11.5350E-03
            1018     3.36963E-03     163.522E-03    -117.895E+06    -207.498E+06    -74.0919E+06    -905.180E+03    -288.864E-03     578.209E-03    -289.345E-03     12.4331E-03    -289.045E-03     577.450E-03    -289.244E-03     14.1801E-03
            1019     4.04382E-03     163.548E-03    -108.790E+06    -185.920E+06    -54.1275E+06    -1.22306E+06    -288.706E-03     578.042E-03    -289.336E-03     14.8466E-03    -288.901E-03     577.348E-03    -289.180E-03     16.6956E-03
            1020     4.71814E-03     163.579E-03    -99.4686E+06    -164.603E+06    -35.7295E+06    -1.54572E+06    -288.523E-03     577.833E-03    -289.310E-03     17.2495E-03    -288.730E-03     577.206E-03    -289.106E-03     19.0833E-03
            1021     5.39263E-03     163.613E-03    -90.2053E+06    -143.461E+06    -19.2545E+06    -1.80347E+06    -288.310E-03     577.574E-03    -289.264E-03     19.6537E-03    -288.527E-03     577.017E-03    -289.021E-03     21.3471E-03
            1022     6.06730E-03     163.651E-03    -81.1768E+06    -122.446E+06    -4.56255E+06    -1.93126E+06    -288.068E-03     577.267E-03    -289.199E-03     22.0706E-03    -288.294E-03     576.783E-03    -288.927E-03     23.4929E-03
            1023     6.74217E-03     163.694E-03    -72.4695E+06    -100.868E+06     8.70450E+06    -1.94347E+06    -287.796E-03     576.913E-03    -289.116E-03     24.4717E-03    -288.034E-03     576.509E-03    -288.821E-03     25.4932E-03
            1024     7.41727E-03     163.739E-03    -64.0737E+06    -79.4213E+06     20.9010E+06    -1.85687E+06    -287.502E-03     576.521E-03    -289.019E-03     26.8186E-03    -287.754E-03     576.203E-03    -288.706E-03     27.3089E-03
            1025     8.09259E-03     163.788E-03    -55.9600E+06    -56.5797E+06     32.2873E+06    -1.66369E+06    -287.185E-03     576.092E-03    -288.907E-03     29.2058E-03    -287.457E-03     575.871E-03    -288.583E-03     29.0222E-03
            1026     8.76815E-03     163.840E-03    -48.0656E+06    -32.9453E+06     43.0074E+06    -1.23859E+06    -286.853E-03     575.637E-03    -288.784E-03     31.6183E-03    -287.152E-03     575.523E-03    -288.451E-03     30.6141E-03
            1027     9.44395E-03     163.895E-03    -40.3170E+06    -4.80472E+06     53.1666E+06    -289.911E+03    -286.502E-03     575.146E-03    -288.645E-03     33.9588E-03    -286.841E-03     575.171E-03    -288.313E-03     32.0017E-03
            1028     10.1199E-03     163.953E-03    -32.6408E+06     35.0509E+06     64.5936E+06     1.51058E+06    -286.115E-03     574.605E-03    -288.490E-03     36.1177E-03    -286.522E-03     574.833E-03    -288.170E-03     33.0877E-03
            1029     10.7963E-03     164.012E-03    -25.1107E+06     92.9875E+06     77.5067E+06     3.90922E+06    -285.693E-03     574.005E-03    -288.313E-03     37.7177E-03    -286.201E-03     574.530E-03    -288.023E-03     33.5414E-03
            1030     11.4728E-03     164.071E-03    -18.4470E+06     132.821E+06     94.0146E+06     5.33162E+06    -285.392E-03     573.574E-03    -288.182E-03     38.2386E-03    -285.983E-03     574.299E-03    -287.878E-03     32.9612E-03
            1031     12.1493E-03     164.128E-03    -12.7057E+06     136.887E+06     112.265E+06     4.27034E+06    -285.280E-03     573.405E-03    -288.124E-03     38.6312E-03    -285.933E-03     574.172E-03    -287.743E-03     31.7388E-03
            1032     12.8257E-03     164.182E-03    -6.73911E+06     145.693E+06     128.260E+06     1.80013E+06    -285.228E-03     573.291E-03    -288.063E-03     33.3050E-03    -285.851E-03     574.036E-03    -287.623E-03     26.7225E-03
            1033     674.033E-06     165.152E-03    -144.820E+06    -276.450E+06    -142.213E+06    -238.850E+03    -288.959E-03     577.934E-03    -288.974E-03     2.89399E-03    -289.076E-03     576.967E-03    -289.075E-03     3.39143E-03
            1034     1.34809E-03     165.160E-03    -140.985E+06    -264.829E+06    -131.251E+06    -450.318E+03    -288.910E-03     577.904E-03    -288.994E-03     5.30195E-03    -289.040E-03     576.974E-03    -289.062E-03     6.19095E-03
            1035     2.02218E-03     165.172E-03    -135.086E+06    -247.894E+06    -115.096E+06     -720.08E+03    -288.842E-03     577.859E-03    -289.017E-03     7.82111E-03    -288.990E-03     576.982E-03    -289.037E-03     9.07656E-03
            1036     2.69634E-03     165.189E-03    -127.589E+06    -227.666E+06    -95.6515E+06    -1.04650E+06    -288.759E-03     577.800E-03    -289.041E-03     10.3317E-03    -288.927E-03     576.984E-03    -289.004E-03     11.8869E-03
            1037     3.37056E-03     165.211E-03    -118.990E+06    -206.018E+06    -75.0077E+06    -1.41993E+06    -288.664E-03     577.725E-03    -289.061E-03     12.8166E-03    -288.850E-03     576.975E-03    -288.964E-03     14.5826E-03
            1038     4.04487E-03     165.237E-03    -109.762E+06    -184.322E+06    -54.8606E+06    -1.83248E+06    -288.556E-03     577.625E-03    -289.070E-03     15.2501E-03    -288.757E-03     576.941E-03    -288.917E-03     17.1236E-03
            1039     4.71928E-03     165.267E-03    -100.326E+06    -162.990E+06    -36.2871E+06    -2.25718E+06    -288.427E-03     577.491E-03    -289.063E-03     17.6463E-03    -288.639E-03     576.873E-03    -288.863E-03     19.5101E-03
            1040     5.39382E-03     165.301E-03    -90.9937E+06    -142.150E+06    -19.7265E+06    -2.61311E+06    -288.271E-03     577.311E-03    -289.040E-03     20.0149E-03    -288.492E-03     576.761E-03    -288.800E-03     21.7435E-03
            1041     6.06849E-03     165.339E-03    -81.9477E+06    -121.525E+06    -5.06708E+06    -2.83808E+06    -288.081E-03     577.079E-03    -288.998E-03     22.3715E-03    -288.310E-03     576.601E-03    -288.728E-03     23.8340E-03
            1042     6.74334E-03     165.381E-03    -73.2620E+06    -100.230E+06     8.09223E+06    -2.95277E+06    -287.855E-03     576.793E-03    -288.938E-03     24.7025E-03    -288.095E-03     576.394E-03    -288.646E-03     25.7685E-03
            1043     7.41838E-03     165.426E-03    -64.9846E+06    -79.1553E+06     20.1147E+06    -2.96182E+06    -287.600E-03     576.464E-03    -288.864E-03     26.9715E-03    -287.854E-03     576.148E-03    -288.554E-03     27.5113E-03
            1044     8.09361E-03     165.474E-03    -57.1266E+06    -56.6682E+06     31.2885E+06    -2.85654E+06    -287.311E-03     576.085E-03    -288.774E-03     29.2790E-03    -287.586E-03     575.865E-03    -288.452E-03     29.1507E-03
            1045     8.76908E-03     165.526E-03    -49.6811E+06    -33.8646E+06     41.7175E+06    -2.59261E+06    -286.991E-03     575.662E-03    -288.671E-03     31.6279E-03    -287.293E-03     575.547E-03    -288.341E-03     30.6817E-03
            1046     9.44476E-03     165.580E-03    -42.5715E+06    -7.22097E+06     51.3495E+06    -2.04347E+06    -286.632E-03     575.181E-03    -288.550E-03     33.9294E-03    -286.974E-03     575.198E-03    -288.221E-03     32.0244E-03
            1047     10.1208E-03     165.637E-03    -35.5597E+06     30.0294E+06     61.8497E+06    -882.016E+03    -286.227E-03     574.636E-03    -288.410E-03     36.0661E-03    -286.634E-03     574.845E-03    -288.092E-03     33.0683E-03
            1048     10.7969E-03     165.695E-03    -28.5580E+06     84.9331E+06     73.7814E+06     1.70067E+06    -285.799E-03     574.044E-03    -288.245E-03     37.6364E-03    -286.305E-03     574.536E-03    -287.957E-03     33.4711E-03
            1049     11.4734E-03     165.754E-03    -21.4944E+06     127.332E+06     89.0173E+06     5.15604E+06    -285.483E-03     573.597E-03    -288.114E-03     38.1378E-03    -286.073E-03     574.304E-03    -287.822E-03     32.8709E-03
            1050     12.1499E-03     165.811E-03    -14.3307E+06     142.282E+06     109.605E+06     5.61652E+06    -285.297E-03     573.352E-03    -288.056E-03     38.6025E-03    -285.961E-03     574.154E-03    -287.693E-03     31.7148E-03
            1051     12.8264E-03     165.866E-03    -7.11909E+06     153.318E+06     130.190E+06     2.58579E+06    -285.243E-03     573.259E-03    -288.017E-03     33.4063E-03    -285.882E-03     574.040E-03    -287.578E-03     26.8247E-03
            1052     674.336E-06     166.840E-03    -146.485E+06    -274.948E+06    -143.868E+06    -421.585E+03    -288.504E-03     577.018E-03    -288.514E-03     3.03930E-03    -288.629E-03     576.064E-03    -288.622E-03     3.53582E-03
            1053     1.34869E-03     166.848E-03    -142.593E+06    -263.244E+06    -132.786E+06    -793.118E+03    -288.477E-03     577.018E-03    -288.541E-03     5.56257E-03    -288.616E-03     576.101E-03    -288.617E-03     6.44994E-03
            1054     2.02306E-03     166.860E-03    -136.598E+06    -246.160E+06    -116.488E+06    -1.20738E+06    -288.446E-03     577.023E-03    -288.576E-03     8.19012E-03    -288.603E-03     576.158E-03    -288.604E-03     9.44414E-03
            1055     2.69746E-03     166.877E-03    -128.989E+06    -225.785E+06    -96.8899E+06    -1.64992E+06    -288.413E-03     577.030E-03    -288.617E-03     10.7901E-03    -288.589E-03     576.228E-03    -288.587E-03     12.3455E-03
            1056     3.37190E-03     166.899E-03    -120.268E+06    -203.967E+06    -76.0935E+06    -2.13565E+06    -288.380E-03     577.037E-03    -288.658E-03     13.3388E-03    -288.573E-03     576.300E-03    -288.568E-03     15.1082E-03
            1057     4.04638E-03     166.925E-03    -110.931E+06    -182.173E+06    -55.7889E+06    -2.65261E+06    -288.343E-03     577.034E-03    -288.691E-03     15.8051E-03    -288.550E-03     576.363E-03    -288.545E-03     17.6869E-03
            1058     4.72091E-03     166.955E-03    -101.393E+06    -160.955E+06    -37.0716E+06    -3.12285E+06    -288.294E-03     577.008E-03    -288.714E-03     18.2007E-03    -288.512E-03     576.402E-03    -288.519E-03     20.0798E-03
            1059     5.39550E-03     166.989E-03    -91.9735E+06    -140.431E+06    -20.4089E+06    -3.48553E+06    -288.220E-03     576.942E-03    -288.722E-03     20.5378E-03    -288.446E-03     576.403E-03    -288.487E-03     22.2904E-03
            1060     6.07019E-03     167.027E-03    -82.8633E+06    -120.143E+06    -5.73626E+06    -3.74599E+06    -288.107E-03     576.821E-03    -288.714E-03     22.8368E-03    -288.341E-03     576.350E-03    -288.448E-03     24.3328E-03
            1061     6.74499E-03     167.068E-03    -74.1676E+06     -99.293E+06     7.31882E+06    -3.85143E+06    -287.947E-03     576.634E-03    -288.687E-03     25.1018E-03    -288.190E-03     576.241E-03    -288.399E-03     26.2104E-03
            1062     7.41995E-03     167.113E-03    -65.9294E+06    -78.6950E+06     19.1744E+06    -3.75825E+06    -287.744E-03     576.390E-03    -288.645E-03     27.2943E-03    -288.001E-03     576.077E-03    -288.340E-03     27.8870E-03
            1063     8.09508E-03     167.160E-03    -58.1611E+06      -56.64E+06     30.1612E+06    -3.49046E+06    -287.492E-03     576.078E-03    -288.586E-03     29.5096E-03    -287.768E-03     575.860E-03    -288.269E-03     29.4450E-03
            1064     8.77042E-03     167.211E-03    -50.8391E+06    -34.4439E+06     40.4184E+06    -3.04645E+06    -287.192E-03     575.704E-03    -288.512E-03     31.7583E-03    -287.495E-03     575.587E-03    -288.186E-03     30.8832E-03
            1065     9.44600E-03     167.265E-03    -43.9529E+06    -8.55865E+06     49.8492E+06    -2.42945E+06    -286.844E-03     575.262E-03    -288.417E-03     33.9601E-03    -287.187E-03     575.273E-03    -288.092E-03     32.1252E-03
            1066     10.1218E-03     167.321E-03    -37.4473E+06     26.8777E+06     59.7921E+06    -1.51853E+06    -286.454E-03     574.755E-03    -288.301E-03     36.0409E-03    -286.861E-03     574.951E-03    -287.987E-03     33.0990E-03
            1067     10.7979E-03     167.379E-03    -31.1060E+06     75.8983E+06     70.2076E+06     833.246E+03    -286.043E-03     574.202E-03    -288.159E-03     37.6399E-03    -286.542E-03     574.656E-03    -287.873E-03     33.5078E-03
            1068     11.4740E-03     167.437E-03    -24.4033E+06     120.799E+06     83.7525E+06     3.21903E+06    -285.687E-03     573.721E-03    -288.034E-03     38.2234E-03    -286.274E-03     574.407E-03    -287.755E-03     32.9434E-03
            1069     12.1505E-03     167.494E-03    -16.5709E+06     146.893E+06     106.676E+06     2.84942E+06    -285.439E-03     573.423E-03    -287.984E-03     38.6752E-03    -286.117E-03     574.255E-03    -287.640E-03     31.7275E-03
            1070     12.8270E-03     167.548E-03    -8.05467E+06     159.192E+06     131.226E+06     1.20860E+06    -285.400E-03     573.373E-03    -287.973E-03     33.3702E-03    -286.054E-03     574.183E-03    -287.536E-03     26.7581E-03
            1071     674.742E-06     168.526E-03    -148.238E+06    -272.446E+06    -145.590E+06    -679.461E+03    -287.910E-03     575.819E-03    -287.910E-03     3.21342E-03    -288.044E-03     574.883E-03    -288.028E-03     3.70404E-03
            1072     1.34948E-03     168.534E-03    -144.263E+06    -260.687E+06    -134.374E+06    -1.25475E+06    -287.912E-03     575.861E-03    -287.949E-03     5.87502E-03    -288.060E-03     574.960E-03    -288.033E-03     6.75235E-03
            1073     2.02422E-03     168.546E-03    -138.160E+06    -243.537E+06    -117.901E+06    -1.86797E+06    -287.929E-03     575.929E-03    -288.000E-03     8.63423E-03    -288.094E-03     575.081E-03    -288.036E-03     9.87533E-03
            1074     2.69895E-03     168.564E-03    -130.409E+06    -223.095E+06    -98.1443E+06    -2.49468E+06    -287.960E-03     576.023E-03    -288.063E-03     11.3475E-03    -288.144E-03     575.236E-03    -288.041E-03     12.8889E-03
            1075     3.37366E-03     168.585E-03    -121.530E+06    -201.199E+06    -77.2037E+06    -3.12117E+06    -288.004E-03     576.134E-03    -288.130E-03     13.9850E-03    -288.206E-03     575.414E-03    -288.048E-03     15.7421E-03
            1076     4.04836E-03     168.612E-03    -112.031E+06    -179.448E+06    -56.7546E+06    -3.71663E+06    -288.059E-03     576.255E-03    -288.196E-03     16.5098E-03    -288.274E-03     575.599E-03    -288.057E-03     18.3839E-03
            1077     4.72305E-03     168.642E-03    -102.337E+06    -158.490E+06    -37.9341E+06    -4.23990E+06    -288.111E-03     576.366E-03    -288.255E-03     18.9292E-03    -288.335E-03     575.774E-03    -288.066E-03     20.8082E-03
            1078     5.39773E-03     168.676E-03    -92.7408E+06    -138.329E+06    -21.2083E+06    -4.65096E+06    -288.140E-03     576.443E-03    -288.303E-03     21.2559E-03    -288.371E-03     575.915E-03    -288.074E-03     23.0184E-03
            1079     6.07244E-03     168.714E-03    -83.4470E+06    -118.434E+06    -6.49888E+06    -4.91498E+06    -288.128E-03     576.464E-03    -288.336E-03     23.5080E-03    -288.365E-03     576.003E-03    -288.076E-03     25.0259E-03
            1080     6.74721E-03     168.755E-03    -74.5699E+06    -98.2972E+06     6.51459E+06    -4.96350E+06    -288.059E-03     576.412E-03    -288.353E-03     25.7021E-03    -288.304E-03     576.024E-03    -288.070E-03     26.8437E-03
            1081     7.42207E-03     168.799E-03    -66.1255E+06    -78.2401E+06     18.3080E+06    -4.80770E+06    -287.932E-03     576.285E-03    -288.354E-03     27.8030E-03    -288.187E-03     575.975E-03    -288.053E-03     28.4390E-03
            1082     8.09706E-03     168.847E-03    -58.0603E+06    -56.8125E+06     29.2392E+06    -4.46837E+06    -287.740E-03     576.076E-03    -288.336E-03     29.8963E-03    -288.013E-03     575.856E-03    -288.023E-03     29.8850E-03
            1083     8.77223E-03     168.897E-03    -50.3407E+06    -35.2980E+06     39.5348E+06    -3.90317E+06    -287.488E-03     575.789E-03    -288.301E-03     32.0065E-03    -287.784E-03     575.666E-03    -287.979E-03     31.1935E-03
            1084     9.44757E-03     168.950E-03    -42.9478E+06    -10.0609E+06     49.1157E+06    -3.10576E+06    -287.173E-03     575.416E-03    -288.243E-03     34.0829E-03    -287.505E-03     575.417E-03    -287.921E-03     32.3168E-03
            1085     10.1232E-03     169.005E-03    -35.8821E+06     23.9376E+06     59.2059E+06    -1.89169E+06    -286.801E-03     574.962E-03    -288.162E-03     36.0900E-03    -287.191E-03     575.138E-03    -287.848E-03     33.2153E-03
            1086     10.7990E-03     169.063E-03    -28.9755E+06     68.4580E+06     69.3808E+06     71.8965E+03    -286.403E-03     574.456E-03    -288.053E-03     37.6787E-03    -286.876E-03     574.869E-03    -287.764E-03     33.5801E-03
            1087     11.4751E-03     169.121E-03    -21.9329E+06     118.493E+06     83.6015E+06     1.38646E+06    -286.036E-03     573.986E-03    -287.950E-03     38.2804E-03    -286.606E-03     574.656E-03    -287.672E-03     32.9787E-03
            1088     12.1513E-03     169.177E-03    -14.8251E+06     151.376E+06     105.813E+06     484.191E+03    -285.788E-03     573.700E-03    -287.912E-03     38.7852E-03    -286.464E-03     574.553E-03    -287.581E-03     31.7873E-03
            1089     12.8273E-03     169.232E-03    -7.56216E+06     160.542E+06     129.427E+06    -485.584E+03    -285.735E-03     573.658E-03    -287.923E-03     33.5642E-03    -286.387E-03     574.477E-03    -287.497E-03     26.9250E-03
            1090     675.236E-06     170.210E-03    -149.775E+06    -268.701E+06    -147.105E+06     -977.47E+03    -287.182E-03     574.350E-03    -287.168E-03     3.41070E-03    -287.328E-03     573.437E-03    -287.297E-03     3.89297E-03
            1091     1.35046E-03     170.218E-03    -145.758E+06    -256.936E+06    -135.766E+06    -1.79394E+06    -287.217E-03     574.439E-03    -287.222E-03     6.23507E-03    -287.375E-03     573.561E-03    -287.317E-03     7.09749E-03
            1092     2.02564E-03     170.231E-03    -139.573E+06    -239.727E+06    -119.164E+06    -2.66773E+06    -287.289E-03     574.581E-03    -287.292E-03     9.15118E-03    -287.464E-03     573.756E-03    -287.338E-03     10.3721E-03
            1093     2.70078E-03     170.248E-03    -131.727E+06    -219.281E+06    -99.2816E+06    -3.55133E+06    -287.393E-03     574.773E-03    -287.380E-03     12.0038E-03    -287.587E-03     574.009E-03    -287.367E-03     13.5217E-03
            1094     3.37585E-03     170.270E-03    -122.730E+06    -197.495E+06    -78.2546E+06    -4.39300E+06    -287.530E-03     575.007E-03    -287.478E-03     14.7581E-03    -287.740E-03     574.308E-03    -287.405E-03     16.4910E-03
            1095     4.05083E-03     170.297E-03    -113.078E+06    -175.942E+06    -57.7596E+06    -5.16169E+06    -287.691E-03     575.271E-03    -287.580E-03     17.3689E-03    -287.913E-03     574.634E-03    -287.450E-03     19.2215E-03
            1096     4.72574E-03     170.327E-03    -103.170E+06    -155.239E+06    -38.8639E+06    -5.86012E+06    -287.859E-03     575.540E-03    -287.681E-03     19.8369E-03    -288.089E-03     574.965E-03    -287.500E-03     21.6998E-03
            1097     5.40056E-03     170.362E-03    -93.3168E+06    -135.533E+06    -22.0583E+06    -6.44418E+06    -288.013E-03     575.788E-03    -287.775E-03     22.1734E-03    -288.248E-03     575.274E-03    -287.553E-03     23.9273E-03
            1098     6.07532E-03     170.400E-03    -83.7110E+06    -116.253E+06    -7.31194E+06    -6.82899E+06    -288.129E-03     575.987E-03    -287.858E-03     24.3889E-03    -288.368E-03     575.537E-03    -287.605E-03     25.9082E-03
            1099     6.75004E-03     170.441E-03    -74.4339E+06    -96.8313E+06     5.74429E+06    -7.00769E+06    -288.184E-03     576.111E-03    -287.927E-03     26.5074E-03    -288.427E-03     575.729E-03    -287.650E-03     27.6604E-03
            1100     7.42480E-03     170.485E-03    -65.5146E+06    -77.5068E+06     17.5888E+06    -6.94856E+06    -288.166E-03     576.147E-03    -287.981E-03     28.5046E-03    -288.417E-03     575.839E-03    -287.686E-03     29.1612E-03
            1101     8.09961E-03     170.533E-03    -56.9811E+06    -56.7176E+06     28.5964E+06    -6.67310E+06    -288.068E-03     576.083E-03    -288.016E-03     30.4577E-03    -288.332E-03     575.861E-03    -287.708E-03     30.4770E-03
            1102     8.77454E-03     170.583E-03    -48.8108E+06    -36.1793E+06     38.9210E+06    -6.14315E+06    -287.887E-03     575.919E-03    -288.032E-03     32.4042E-03    -288.171E-03     575.788E-03    -287.715E-03     31.6315E-03
            1103     9.44965E-03     170.635E-03    -41.0258E+06    -11.9054E+06     48.5350E+06    -5.23780E+06    -287.616E-03     575.639E-03    -288.023E-03     34.3211E-03    -287.932E-03     575.626E-03    -287.704E-03     32.6037E-03
            1104     10.1249E-03     170.690E-03    -33.6262E+06     20.1086E+06     58.5739E+06    -3.73935E+06    -287.266E-03     575.253E-03    -287.987E-03     36.2025E-03    -287.636E-03     575.405E-03    -287.674E-03     33.3754E-03
            1105     10.8005E-03     170.747E-03    -26.6617E+06     62.4903E+06     68.9901E+06    -1.55100E+06    -286.882E-03     574.803E-03    -287.922E-03     37.7546E-03    -287.332E-03     575.181E-03    -287.629E-03     33.6852E-03
            1106     11.4761E-03     170.805E-03    -20.2248E+06     116.491E+06     83.0696E+06     255.114E+03    -286.484E-03     574.331E-03    -287.847E-03     38.4209E-03    -287.040E-03     574.988E-03    -287.571E-03     33.1189E-03
            1107     12.1520E-03     170.861E-03    -13.8787E+06     155.559E+06     103.948E+06     158.164E+03    -286.180E-03     574.002E-03    -287.822E-03     39.0439E-03    -286.855E-03     574.878E-03    -287.508E-03     32.0408E-03
            1108     12.8280E-03     170.916E-03    -7.12307E+06     161.404E+06     126.323E+06    -794.168E+03    -286.178E-03     574.036E-03    -287.858E-03     33.8873E-03    -286.825E-03     574.864E-03    -287.450E-03     27.2565E-03
            1109     675.819E-06     171.891E-03    -150.993E+06    -263.506E+06    -148.285E+06    -1.32887E+06    -286.330E-03     572.631E-03    -286.300E-03     3.63294E-03    -286.488E-03     571.747E-03    -286.441E-03     4.10576E-03
            1110     1.35160E-03     171.899E-03    -146.867E+06    -251.785E+06    -136.785E+06    -2.43308E+06    -286.398E-03     572.768E-03    -286.370E-03     6.64138E-03    -286.568E-03     571.919E-03    -286.476E-03     7.48660E-03
            1111     2.02732E-03     171.912E-03    -140.570E+06    -234.528E+06    -120.004E+06    -3.58596E+06    -286.529E-03     572.989E-03    -286.460E-03     9.73690E-03    -286.715E-03     572.191E-03    -286.516E-03     10.9346E-03
            1112     2.70294E-03     171.930E-03    -132.603E+06    -214.061E+06    -99.9806E+06    -4.76734E+06    -286.714E-03     573.289E-03    -286.574E-03     12.7522E-03    -286.919E-03     572.552E-03    -286.572E-03     14.2419E-03
            1113     3.37844E-03     171.953E-03    -123.468E+06    -192.447E+06    -78.8814E+06    -5.93285E+06    -286.952E-03     573.658E-03    -286.706E-03     15.6462E-03    -287.171E-03     572.984E-03    -286.642E-03     17.3473E-03
            1114     4.05379E-03     171.980E-03    -113.652E+06    -171.158E+06    -58.3922E+06    -7.02777E+06    -287.230E-03     574.078E-03    -286.848E-03     18.3646E-03    -287.460E-03     573.466E-03    -286.727E-03     20.1844E-03
            1115     4.72896E-03     172.012E-03    -103.584E+06    -150.754E+06    -39.5113E+06    -8.02120E+06    -287.529E-03     574.522E-03    -286.993E-03     20.9016E-03    -287.765E-03     573.970E-03    -286.822E-03     22.7345E-03
            1116     5.40397E-03     172.047E-03    -93.5626E+06    -131.518E+06    -22.7104E+06    -8.89376E+06    -287.827E-03     574.965E-03    -287.138E-03     23.2705E-03    -288.066E-03     574.471E-03    -286.925E-03     24.9987E-03
            1117     6.07881E-03     172.085E-03    -83.7643E+06    -112.939E+06    -7.99593E+06    -9.59655E+06    -288.097E-03     575.375E-03    -287.278E-03     25.4702E-03    -288.338E-03     574.940E-03    -287.032E-03     26.9700E-03
            1118     6.75353E-03     172.127E-03    -74.3160E+06    -94.3557E+06     4.98630E+06    -10.0213E+06    -288.306E-03     575.713E-03    -287.407E-03     27.5187E-03    -288.550E-03     575.343E-03    -287.137E-03     28.6618E-03
            1119     7.42816E-03     172.172E-03    -65.2700E+06    -75.8805E+06     16.7569E+06    -10.1700E+06    -288.435E-03     575.958E-03    -287.523E-03     29.4108E-03    -288.683E-03     575.657E-03    -287.235E-03     30.0663E-03
            1120     8.10275E-03     172.219E-03    -56.5949E+06    -56.0095E+06     27.7052E+06    -10.0100E+06    -288.461E-03     576.084E-03    -287.622E-03     31.2096E-03    -288.722E-03     575.864E-03    -287.321E-03     31.2387E-03
            1121     8.77740E-03     172.269E-03     -48.322E+06    -36.6632E+06     37.9157E+06    -9.45786E+06    -288.376E-03     576.078E-03    -287.702E-03     32.9659E-03    -288.653E-03     575.943E-03    -287.389E-03     32.2152E-03
            1122     9.45212E-03     172.321E-03    -40.4776E+06    -13.9903E+06     47.2317E+06    -8.37622E+06    -288.167E-03     575.919E-03    -287.752E-03     34.6949E-03    -288.472E-03     575.894E-03    -287.437E-03     33.0090E-03
            1123     10.1271E-03     172.376E-03    -33.1109E+06     15.3993E+06     56.7346E+06    -6.42419E+06    -287.845E-03     575.616E-03    -287.771E-03     36.4292E-03    -288.200E-03     575.743E-03    -287.462E-03     33.6400E-03
            1124     10.8022E-03     172.432E-03    -26.2907E+06     55.1224E+06     66.5434E+06    -3.33530E+06    -287.449E-03     575.204E-03    -287.755E-03     37.9337E-03    -287.881E-03     575.545E-03    -287.464E-03     33.9016E-03
            1125     11.4776E-03     172.489E-03    -19.8362E+06     112.689E+06     79.9324E+06    -497.548E+03    -287.017E-03     574.730E-03    -287.712E-03     38.6091E-03    -287.561E-03     575.371E-03    -287.447E-03     33.3160E-03
            1126     12.1533E-03     172.545E-03    -13.3429E+06     158.502E+06     102.544E+06    -23.6372E+03    -286.723E-03     574.445E-03    -287.722E-03     39.2166E-03    -287.397E-03     575.337E-03    -287.420E-03     32.2086E-03
            1127     12.8288E-03     172.601E-03    -6.57265E+06     162.056E+06     126.188E+06    -497.194E+03    -286.770E-03     574.572E-03    -287.802E-03     34.0511E-03    -287.414E-03     575.402E-03    -287.396E-03     27.4363E-03
            1128     676.473E-06     173.569E-03    -151.446E+06    -256.578E+06    -148.747E+06    -1.76936E+06    -285.371E-03     570.693E-03    -285.322E-03     3.86986E-03    -285.540E-03     569.845E-03    -285.474E-03     4.33293E-03
            1129     1.35290E-03     173.578E-03    -147.289E+06    -244.997E+06    -137.154E+06    -3.19452E+06    -285.471E-03     570.880E-03    -285.409E-03     7.07245E-03    -285.652E-03     570.066E-03    -285.526E-03     7.90065E-03
            1130     2.02923E-03     173.591E-03    -140.899E+06    -227.743E+06    -120.289E+06    -4.68740E+06    -285.662E-03     571.181E-03    -285.519E-03     10.3609E-03    -285.860E-03     570.418E-03    -285.585E-03     11.5349E-03
            1131     2.70542E-03     173.610E-03    -132.824E+06    -207.250E+06    -100.189E+06    -6.19058E+06    -285.934E-03     571.594E-03    -285.660E-03     13.5536E-03    -286.148E-03     570.891E-03    -285.668E-03     15.0145E-03
            1132     3.38142E-03     173.634E-03    -123.610E+06    -185.757E+06    -79.0363E+06    -7.68248E+06    -286.278E-03     572.104E-03    -285.826E-03     16.6014E-03    -286.506E-03     571.463E-03    -285.773E-03     18.2697E-03
            1133     4.05718E-03     173.662E-03    -113.768E+06    -164.727E+06    -58.5469E+06    -9.11996E+06    -286.680E-03     572.689E-03    -286.010E-03     19.4425E-03    -286.918E-03     572.108E-03    -285.899E-03     21.2274E-03
            1134     4.73270E-03     173.694E-03    -103.680E+06    -144.689E+06    -39.7143E+06    -10.4616E+06    -287.119E-03     573.322E-03    -286.203E-03     22.0673E-03    -287.362E-03     572.799E-03    -286.042E-03     23.8651E-03
            1135     5.40794E-03     173.730E-03    -93.6568E+06    -126.002E+06    -23.0039E+06    -11.6358E+06    -287.575E-03     573.977E-03    -286.402E-03     24.4893E-03    -287.820E-03     573.510E-03    -286.199E-03     26.1844E-03
            1136     6.08292E-03     173.769E-03    -83.9490E+06    -108.175E+06    -8.42515E+06    -12.5642E+06    -288.019E-03     574.621E-03    -286.602E-03     26.6902E-03    -288.265E-03     574.209E-03    -286.366E-03     28.1621E-03
            1137     6.75764E-03     173.812E-03    -74.6577E+06    -90.6120E+06     4.31768E+06    -13.2028E+06    -288.409E-03     575.206E-03    -286.797E-03     28.6829E-03    -288.657E-03     574.855E-03    -286.536E-03     29.8059E-03
            1138     7.43215E-03     173.857E-03    -65.8012E+06    -73.1139E+06     15.7460E+06    -13.5009E+06    -288.714E-03     575.698E-03    -286.984E-03     30.4797E-03    -288.966E-03     575.411E-03    -286.703E-03     31.1237E-03
            1139     8.10651E-03     173.905E-03    -57.4076E+06    -54.4598E+06     26.2700E+06    -13.4324E+06    -288.896E-03     576.051E-03    -287.155E-03     32.1216E-03    -289.159E-03     575.841E-03    -286.861E-03     32.1508E-03
            1140     8.78081E-03     173.955E-03    -49.4275E+06    -36.7008E+06     35.9757E+06    -12.8762E+06    -288.933E-03     576.239E-03    -287.306E-03     33.6776E-03    -289.211E-03     576.107E-03    -287.002E-03     32.9400E-03
            1141     9.45516E-03     174.008E-03    -41.8595E+06    -16.0239E+06     44.7082E+06    -11.6761E+06    -288.809E-03     576.235E-03    -287.426E-03     35.1971E-03    -289.113E-03     576.204E-03    -287.119E-03     33.5336E-03
            1142     10.1296E-03     174.062E-03    -34.6276E+06     10.0218E+06     53.4162E+06    -9.51992E+06    -288.536E-03     576.047E-03    -287.511E-03     36.7277E-03    -288.883E-03     576.152E-03    -287.208E-03     33.9631E-03
            1143     10.8044E-03     174.118E-03    -27.6437E+06     45.7512E+06     62.3660E+06    -5.93805E+06    -288.166E-03     575.721E-03    -287.555E-03     38.0768E-03    -288.582E-03     576.020E-03    -287.269E-03     34.0576E-03
            1144     11.4792E-03     174.175E-03    -20.8895E+06     107.010E+06     75.6793E+06    -2.40772E+06    -287.740E-03     575.298E-03    -287.559E-03     38.6723E-03    -288.273E-03     575.918E-03    -287.305E-03     33.3670E-03
            1145     12.1543E-03     174.231E-03    -14.1529E+06     159.072E+06     100.023E+06    -815.792E+03    -287.417E-03     575.032E-03    -287.615E-03     39.3326E-03    -288.091E-03     575.931E-03    -287.325E-03     32.3183E-03
            1146     12.8293E-03     174.286E-03    -7.28335E+06     161.707E+06     126.196E+06    -420.543E+03    -287.410E-03     575.158E-03    -287.748E-03     34.3038E-03    -288.057E-03     575.988E-03    -287.341E-03     27.6981E-03
            1147     677.194E-06     175.244E-03    -150.892E+06    -247.733E+06    -148.128E+06    -2.20135E+06    -284.338E-03     568.602E-03    -284.264E-03     4.09771E-03    -284.518E-03     567.797E-03    -284.427E-03     4.55404E-03
            1148     1.35431E-03     175.253E-03    -146.688E+06    -236.346E+06    -136.548E+06    -4.01214E+06    -284.468E-03     568.840E-03    -284.372E-03     7.48729E-03    -284.659E-03     568.067E-03    -284.499E-03     8.30279E-03
            1149     2.03131E-03     175.267E-03    -140.311E+06    -219.225E+06    -119.720E+06    -5.85279E+06    -284.721E-03     569.221E-03    -284.500E-03     10.9644E-03    -284.927E-03     568.499E-03    -284.578E-03     12.1204E-03
            1150     2.70812E-03     175.287E-03    -132.281E+06    -198.831E+06    -99.6471E+06    -7.65117E+06    -285.076E-03     569.745E-03    -284.669E-03     14.3301E-03    -285.300E-03     569.082E-03    -284.687E-03     15.7693E-03
            1151     3.38468E-03     175.311E-03    -123.113E+06    -177.432E+06    -78.4865E+06    -9.42539E+06    -285.526E-03     570.395E-03    -284.870E-03     17.5263E-03    -285.763E-03     569.793E-03    -284.826E-03     19.1701E-03
            1152     4.06093E-03     175.341E-03    -113.290E+06    -156.619E+06    -57.9717E+06    -11.1681E+06    -286.052E-03     571.147E-03    -285.095E-03     20.4903E-03    -286.299E-03     570.604E-03    -284.993E-03     22.2481E-03
            1153     4.73683E-03     175.374E-03    -103.272E+06    -137.082E+06    -39.2050E+06    -12.7718E+06    -286.637E-03     571.974E-03    -285.337E-03     23.2118E-03    -286.889E-03     571.486E-03    -285.184E-03     24.9810E-03
            1154     5.41237E-03     175.411E-03    -93.3780E+06    -119.028E+06    -22.6655E+06    -14.1782E+06    -287.259E-03     572.850E-03    -285.591E-03     25.7022E-03    -287.512E-03     572.415E-03    -285.396E-03     27.3678E-03
            1155     6.08750E-03     175.452E-03    -83.7581E+06    -102.136E+06    -8.35880E+06    -15.3246E+06    -287.883E-03     573.735E-03    -285.852E-03     27.9291E-03    -288.135E-03     573.352E-03    -285.624E-03     29.3738E-03
            1156     6.76226E-03     175.496E-03    -74.5623E+06    -85.7836E+06     4.03697E+06    -16.0603E+06    -288.467E-03     574.582E-03    -286.115E-03     29.9023E-03    -288.719E-03     574.253E-03    -285.862E-03     31.0048E-03
            1157     7.43667E-03     175.542E-03    -65.8782E+06    -69.3791E+06     15.0628E+06    -16.4218E+06    -288.966E-03     575.339E-03    -286.374E-03     31.6383E-03    -289.222E-03     575.071E-03    -286.102E-03     32.2708E-03
            1158     8.11080E-03     175.591E-03    -57.6573E+06    -52.1679E+06     25.1201E+06    -16.3653E+06    -289.329E-03     575.950E-03    -286.621E-03     33.1518E-03    -289.594E-03     575.752E-03    -286.336E-03     33.1834E-03
            1159     8.78476E-03     175.642E-03    -49.8829E+06    -36.0382E+06     34.3016E+06    -15.8426E+06    -289.524E-03     576.375E-03    -286.850E-03     34.5247E-03    -289.801E-03     576.247E-03    -286.554E-03     33.8034E-03
            1160     9.45865E-03     175.694E-03     -42.485E+06    -17.6801E+06     42.3895E+06    -14.6925E+06    -289.530E-03     576.577E-03    -287.047E-03     35.8308E-03    -289.829E-03     576.540E-03    -286.748E-03     34.1943E-03
            1161     10.1326E-03     175.749E-03    -35.4511E+06     4.96720E+06     50.3283E+06    -12.5689E+06    -289.355E-03     576.562E-03    -287.208E-03     37.1433E-03    -289.692E-03     576.645E-03    -286.912E-03     34.4097E-03
            1162     10.8067E-03     175.804E-03    -28.6798E+06     36.0531E+06     58.3299E+06    -9.12739E+06    -289.046E-03     576.369E-03    -287.324E-03     38.3769E-03    -289.444E-03     576.625E-03    -287.043E-03     34.3819E-03
            1163     11.4810E-03     175.861E-03    -22.0469E+06        99.1E+06     71.6708E+06    -5.02141E+06    -288.590E-03     575.978E-03    -287.388E-03     39.0186E-03    -289.109E-03     576.563E-03    -287.142E-03     33.7301E-03
            1164     12.1555E-03     175.917E-03    -15.2201E+06     157.635E+06     97.3816E+06    -2.65191E+06    -288.181E-03     575.676E-03    -287.495E-03     39.7756E-03    -288.854E-03     576.573E-03    -287.215E-03     32.7713E-03
            1165     12.8302E-03     175.973E-03    -7.62376E+06     160.014E+06     125.146E+06    -1.69876E+06    -288.155E-03     575.835E-03    -287.680E-03     34.7818E-03    -288.800E-03     576.658E-03    -287.275E-03     28.1781E-03
            1166     677.924E-06     176.915E-03    -148.665E+06    -236.893E+06    -145.958E+06    -2.67628E+06    -283.295E-03     566.486E-03    -283.191E-03     4.27762E-03    -283.483E-03     565.728E-03    -283.361E-03     4.73141E-03
            1167     1.35577E-03     176.925E-03    -144.471E+06    -225.776E+06    -134.311E+06    -4.84351E+06    -283.451E-03     566.772E-03    -283.321E-03     7.81331E-03    -283.649E-03     566.045E-03    -283.456E-03     8.62487E-03
            1168     2.03345E-03     176.940E-03    -138.057E+06    -209.092E+06    -117.427E+06    -6.97975E+06    -283.759E-03     567.228E-03    -283.469E-03     11.4419E-03    -283.973E-03     566.550E-03    -283.553E-03     12.5925E-03
            1169     2.71090E-03     176.960E-03    -130.006E+06    -188.990E+06    -97.3932E+06    -8.99173E+06    -284.191E-03     567.853E-03    -283.662E-03     14.9530E-03    -284.420E-03     567.232E-03    -283.687E-03     16.3860E-03
            1170     3.38804E-03     176.986E-03    -120.876E+06    -167.684E+06    -76.3570E+06    -10.9702E+06    -284.734E-03     568.627E-03    -283.893E-03     18.2795E-03    -284.977E-03     568.067E-03    -283.857E-03     19.9172E-03
            1171     4.06480E-03     177.017E-03    -111.185E+06    -147.117E+06    -55.9729E+06    -12.9090E+06    -285.373E-03     569.528E-03    -284.155E-03     21.3652E-03    -285.625E-03     569.025E-03    -284.060E-03     23.1166E-03
            1172     4.74114E-03     177.052E-03    -101.287E+06    -128.100E+06    -37.3312E+06    -14.7514E+06    -286.091E-03     570.532E-03    -284.441E-03     24.2064E-03    -286.348E-03     570.082E-03    -284.295E-03     25.9667E-03
            1173     5.41699E-03     177.091E-03    -91.4605E+06    -110.763E+06    -20.9824E+06    -16.3972E+06    -286.864E-03     571.608E-03    -284.744E-03     26.8107E-03    -287.120E-03     571.207E-03    -284.556E-03     28.4654E-03
            1174     6.09235E-03     177.133E-03    -81.9859E+06    -94.9154E+06    -6.97839E+06    -17.7308E+06    -287.655E-03     572.716E-03    -285.061E-03     29.1329E-03    -287.909E-03     572.363E-03    -284.839E-03     30.5675E-03
            1175     6.76720E-03     177.179E-03    -72.9281E+06    -79.9430E+06     5.02577E+06    -18.6862E+06    -288.423E-03     573.808E-03    -285.385E-03     31.1702E-03    -288.675E-03     573.503E-03    -285.139E-03     32.2660E-03
            1176     7.44159E-03     177.227E-03    -64.2822E+06    -64.9237E+06     15.6674E+06    -19.1374E+06    -289.115E-03     574.826E-03    -285.711E-03     32.9284E-03    -289.368E-03     574.575E-03    -285.445E-03     33.5650E-03
            1177     8.11556E-03     177.277E-03    -56.1535E+06    -49.4439E+06     25.3398E+06    -19.0201E+06    -289.677E-03     575.707E-03    -286.031E-03     34.4003E-03    -289.936E-03     575.518E-03    -285.751E-03     34.4549E-03
            1178     8.78921E-03     177.329E-03    -48.5351E+06    -34.7378E+06     34.1729E+06    -18.4206E+06    -290.067E-03     576.404E-03    -286.336E-03     35.6708E-03    -290.337E-03     576.279E-03    -286.045E-03     34.9967E-03
            1179     9.46268E-03     177.382E-03    -41.3826E+06    -18.4888E+06     41.7744E+06    -17.3725E+06    -290.253E-03     576.865E-03    -286.613E-03     36.8330E-03    -290.541E-03     576.820E-03    -286.317E-03     35.2642E-03
            1180     10.1361E-03     177.436E-03    -34.4957E+06     817.198E+03     48.9804E+06    -15.5141E+06    -290.218E-03     577.071E-03    -286.853E-03     37.9906E-03    -290.539E-03     577.131E-03    -286.559E-03     35.3400E-03
            1181     10.8096E-03     177.492E-03    -27.6916E+06     28.0334E+06     56.2318E+06    -12.5823E+06    -289.985E-03     577.031E-03    -287.046E-03     39.1337E-03    -290.360E-03     577.245E-03    -286.766E-03     35.2178E-03
            1182     11.4833E-03     177.549E-03    -20.8393E+06     88.9205E+06     69.3211E+06    -8.37551E+06    -289.554E-03     576.736E-03    -287.182E-03     39.7328E-03    -290.046E-03     577.269E-03    -286.934E-03     34.4973E-03
            1183     12.1573E-03     177.605E-03    -13.8888E+06     154.021E+06     95.9565E+06    -4.67766E+06    -289.154E-03     576.501E-03    -287.346E-03     40.4481E-03    -289.812E-03     577.378E-03    -287.070E-03     33.4865E-03
            1184     12.8312E-03     177.661E-03    -7.11694E+06     157.164E+06     122.708E+06    -2.82197E+06    -289.179E-03     576.764E-03    -287.585E-03     35.4113E-03    -289.814E-03     577.576E-03    -287.189E-03     28.8333E-03
            1185     678.613E-06     178.583E-03    -144.334E+06    -223.872E+06    -141.579E+06    -3.20026E+06    -282.341E-03     564.548E-03    -282.207E-03     4.36141E-03    -282.532E-03     563.842E-03    -282.381E-03     4.81984E-03
            1186     1.35712E-03     178.593E-03    -140.054E+06    -213.238E+06    -129.965E+06    -5.78393E+06    -282.507E-03     564.864E-03    -282.357E-03     7.97174E-03    -282.708E-03     564.188E-03    -282.494E-03     8.79249E-03
            1187     2.03545E-03     178.609E-03    -133.584E+06    -197.457E+06    -113.136E+06    -8.21195E+06    -282.851E-03     565.368E-03    -282.517E-03     11.6925E-03    -283.065E-03     564.734E-03    -282.603E-03     12.8573E-03
            1188     2.71351E-03     178.631E-03    -125.502E+06    -177.980E+06    -93.2983E+06    -10.3870E+06    -283.326E-03     566.051E-03    -282.724E-03     15.3146E-03    -283.555E-03     565.472E-03    -282.751E-03     16.7673E-03
            1189     3.39123E-03     178.658E-03    -116.414E+06    -157.072E+06    -72.4644E+06    -12.3729E+06    -283.926E-03     566.898E-03    -282.973E-03     18.7640E-03    -284.167E-03     566.378E-03    -282.938E-03     20.4296E-03
            1190     4.06852E-03     178.690E-03    -106.835E+06    -136.788E+06    -52.2112E+06    -14.2699E+06    -284.637E-03     567.892E-03    -283.256E-03     21.9999E-03    -284.886E-03     567.428E-03    -283.163E-03     23.7870E-03
            1191     4.74532E-03     178.727E-03    -97.1912E+06    -118.013E+06    -33.6690E+06    -16.1684E+06    -285.443E-03     569.010E-03    -283.567E-03     25.0229E-03    -285.697E-03     568.598E-03    -283.424E-03     26.8235E-03
            1192     5.42159E-03     178.768E-03    -87.7145E+06    -101.208E+06    -17.4364E+06    -18.0576E+06    -286.322E-03     570.225E-03    -283.903E-03     27.8300E-03    -286.577E-03     569.860E-03    -283.716E-03     29.5263E-03
            1193     6.09727E-03     178.813E-03    -78.4264E+06    -86.3849E+06    -3.63377E+06    -19.7625E+06    -287.245E-03     571.502E-03    -284.256E-03     30.3648E-03    -287.497E-03     571.179E-03    -284.036E-03     31.8411E-03
            1194     6.77236E-03     178.860E-03    -69.4753E+06    -72.8500E+06     8.01163E+06    -21.0313E+06    -288.168E-03     572.792E-03    -284.623E-03     32.6009E-03    -288.415E-03     572.510E-03    -284.377E-03     33.7438E-03
            1195     7.44686E-03     178.910E-03    -60.9979E+06    -59.6954E+06     18.1111E+06    -21.7100E+06    -289.039E-03     574.037E-03    -284.998E-03     34.5235E-03    -289.284E-03     573.802E-03    -284.733E-03     35.2205E-03
            1196     8.12083E-03     178.962E-03    -52.9423E+06    -46.3866E+06     27.2337E+06    -21.6274E+06    -289.809E-03     575.184E-03    -285.375E-03     36.1016E-03    -290.057E-03     575.000E-03    -285.094E-03     36.2408E-03
            1197     8.79434E-03     179.016E-03    -45.3266E+06    -33.0522E+06     35.6998E+06    -20.9650E+06    -290.433E-03     576.177E-03    -285.744E-03     37.3995E-03    -290.688E-03     576.050E-03    -285.452E-03     36.8441E-03
            1198     9.46751E-03     179.070E-03    -38.2231E+06    -18.9249E+06     42.9502E+06    -19.7153E+06    -290.862E-03     576.956E-03    -286.094E-03     38.5001E-03    -291.132E-03     576.898E-03    -285.796E-03     37.0866E-03
            1199     10.1405E-03     179.125E-03    -31.7192E+06    -1.82691E+06     49.7324E+06    -17.9441E+06    -291.055E-03     577.468E-03    -286.414E-03     39.5006E-03    -291.355E-03     577.505E-03    -286.116E-03     37.0304E-03
            1200     10.8134E-03     179.181E-03    -25.5558E+06     22.5511E+06     56.3273E+06    -15.6744E+06    -291.020E-03     577.710E-03    -286.690E-03     40.4331E-03    -291.372E-03     577.888E-03    -286.404E-03     36.6903E-03
            1201     11.4865E-03     179.238E-03    -19.3306E+06     77.9762E+06     68.2555E+06    -11.7965E+06    -290.769E-03     577.681E-03    -286.912E-03     40.8663E-03    -291.233E-03     578.155E-03    -286.656E-03     35.7680E-03
            1202     12.1595E-03     179.294E-03    -12.7901E+06     145.506E+06     94.1808E+06    -6.81606E+06    -290.480E-03     577.632E-03    -287.152E-03     41.4428E-03    -291.114E-03     578.464E-03    -286.874E-03     34.5979E-03
            1203     12.8328E-03     179.351E-03    -5.96584E+06     151.560E+06     121.281E+06    -2.65743E+06    -290.567E-03     578.034E-03    -287.467E-03     36.2756E-03    -291.185E-03     578.817E-03    -287.072E-03     29.7846E-03
            1204     679.138E-06     180.248E-03    -137.116E+06    -209.304E+06    -134.419E+06    -3.41700E+06    -281.576E-03     563.000E-03    -281.424E-03     4.34528E-03    -281.762E-03     562.347E-03    -281.594E-03     4.82617E-03
            1205     1.35819E-03     180.259E-03    -133.269E+06    -198.992E+06    -123.171E+06    -6.23768E+06    -281.723E-03     563.302E-03    -281.580E-03     7.96005E-03    -281.920E-03     562.677E-03    -281.714E-03     8.82158E-03
            1206     2.03707E-03     180.275E-03    -127.171E+06    -184.024E+06    -106.779E+06    -9.14798E+06    -282.051E-03     563.785E-03    -281.734E-03     11.7180E-03    -282.262E-03     563.200E-03    -281.817E-03     12.9373E-03
            1207     2.71569E-03     180.298E-03    -119.338E+06    -165.835E+06    -87.4137E+06    -11.6819E+06    -282.507E-03     564.440E-03    -281.934E-03     15.4229E-03    -282.730E-03     563.905E-03    -281.957E-03     16.9441E-03
            1208     3.39397E-03     180.327E-03    -110.396E+06    -145.998E+06    -67.0617E+06    -13.7268E+06    -283.086E-03     565.258E-03    -282.171E-03     19.0087E-03    -283.320E-03     564.776E-03    -282.135E-03     20.7610E-03
            1209     4.07183E-03     180.361E-03    -100.949E+06    -126.308E+06    -47.1416E+06    -15.4575E+06    -283.787E-03     566.231E-03    -282.444E-03     22.4503E-03    -284.029E-03     565.803E-03    -282.350E-03     24.3443E-03
            1210     4.74922E-03     180.400E-03    -91.4134E+06    -107.608E+06    -28.6379E+06    -17.1310E+06    -284.602E-03     567.349E-03    -282.747E-03     25.7444E-03    -284.847E-03     566.971E-03    -282.602E-03     27.6729E-03
            1211     5.42604E-03     180.443E-03    -82.1193E+06    -90.8754E+06    -12.3047E+06    -18.8967E+06    -285.516E-03     568.594E-03    -283.078E-03     28.8860E-03    -285.762E-03     568.262E-03    -282.889E-03     30.7295E-03
            1212     6.10225E-03     180.490E-03    -73.3560E+06    -76.5420E+06     1.42658E+06    -20.7259E+06    -286.509E-03     569.943E-03    -283.434E-03     31.8007E-03    -286.753E-03     569.651E-03    -283.209E-03     33.4401E-03
            1213     6.77780E-03     180.540E-03    -65.0528E+06    -64.2300E+06     12.6596E+06    -22.4310E+06    -287.546E-03     571.356E-03    -283.810E-03     34.4176E-03    -287.786E-03     571.100E-03    -283.559E-03     35.7391E-03
            1214     7.45271E-03     180.592E-03    -57.0976E+06    -53.3739E+06     22.0066E+06    -23.4978E+06    -288.586E-03     572.789E-03    -284.203E-03     36.6937E-03    -288.821E-03     572.568E-03    -283.933E-03     37.5906E-03
            1215     8.12695E-03     180.646E-03    -49.6250E+06    -42.7573E+06     30.1753E+06    -23.6084E+06    -289.591E-03     574.201E-03    -284.610E-03     38.5583E-03    -289.825E-03     574.019E-03    -284.325E-03     38.9281E-03
            1216     8.80058E-03     180.702E-03    -42.6787E+06    -31.0978E+06     37.8318E+06    -22.9144E+06    -290.517E-03     575.542E-03    -285.025E-03     40.0132E-03    -290.757E-03     575.411E-03    -284.729E-03     39.7305E-03
            1217     9.47366E-03     180.758E-03    -36.2044E+06    -19.3348E+06     44.4980E+06    -21.5929E+06    -291.314E-03     576.753E-03    -285.439E-03     41.0927E-03    -291.568E-03     576.681E-03    -285.136E-03     39.9934E-03
            1218     10.1463E-03     180.814E-03    -30.0730E+06    -3.84735E+06     50.9987E+06    -19.6245E+06    -291.912E-03     577.752E-03    -285.840E-03     41.8720E-03    -292.194E-03     577.766E-03    -285.536E-03     39.7500E-03
            1219     10.8186E-03     180.871E-03    -24.5882E+06     17.7537E+06     57.0642E+06    -16.8291E+06    -292.278E-03     578.493E-03    -286.215E-03     42.4557E-03    -292.611E-03     578.635E-03    -285.919E-03     39.0727E-03
            1220     11.4907E-03     180.928E-03    -19.7802E+06     67.7216E+06     67.8371E+06    -12.7487E+06    -292.365E-03     578.912E-03    -286.547E-03     42.5490E-03    -292.807E-03     579.327E-03    -286.277E-03     37.7701E-03
            1221     12.1628E-03     180.985E-03    -14.5876E+06     134.297E+06     92.2065E+06    -7.83764E+06    -292.303E-03     579.197E-03    -286.894E-03     42.8154E-03    -292.921E-03     579.972E-03    -286.607E-03     36.2148E-03
            1222     12.8346E-03     181.043E-03    -8.20358E+06     142.907E+06     120.671E+06    -3.55851E+06    -292.538E-03     579.861E-03    -287.323E-03     37.3233E-03    -293.151E-03     580.602E-03    -286.915E-03     30.9604E-03
            1223     679.506E-06     181.911E-03    -128.422E+06    -194.976E+06    -125.620E+06    -3.11991E+06    -281.035E-03     561.925E-03    -280.890E-03     4.26206E-03    -281.212E-03     561.318E-03    -281.049E-03     4.79287E-03
            1224     1.35893E-03     181.922E-03    -124.708E+06    -184.671E+06    -114.633E+06    -5.75598E+06    -281.118E-03     562.146E-03    -281.028E-03     7.84797E-03    -281.306E-03     561.568E-03    -281.153E-03     8.79988E-03
            1225     2.03823E-03     181.939E-03    -119.212E+06    -169.845E+06    -98.5937E+06    -8.53480E+06    -281.358E-03     562.508E-03    -281.150E-03     11.6250E-03    -281.561E-03     561.970E-03    -281.224E-03     12.9753E-03
            1226     2.71733E-03     181.963E-03    -112.301E+06    -152.412E+06    -79.8455E+06    -11.3935E+06    -281.699E-03     563.007E-03    -281.308E-03     15.4273E-03    -281.917E-03     562.516E-03    -281.323E-03     17.1124E-03
            1227     3.39619E-03     181.994E-03    -104.250E+06    -134.053E+06    -60.4990E+06    -13.9720E+06    -282.151E-03     563.646E-03    -281.495E-03     19.2052E-03    -282.380E-03     563.204E-03    -281.452E-03     21.1509E-03
            1228     4.07473E-03     182.029E-03    -95.4776E+06    -115.815E+06    -41.7256E+06    -15.9253E+06    -282.728E-03     564.437E-03    -281.709E-03     22.9406E-03    -282.963E-03     564.043E-03    -281.611E-03     25.0637E-03
            1229     4.75285E-03     182.070E-03    -86.5941E+06    -97.8884E+06    -24.1004E+06    -17.3161E+06    -283.437E-03     565.390E-03    -281.952E-03     26.6256E-03    -283.676E-03     565.043E-03    -281.805E-03     28.8305E-03
            1230     5.43051E-03     182.115E-03    -78.0643E+06    -81.1456E+06    -8.07345E+06    -18.5335E+06    -284.289E-03     566.516E-03    -282.227E-03     30.2466E-03    -284.530E-03     566.215E-03    -282.037E-03     32.4193E-03
            1231     6.10759E-03     182.164E-03    -70.0115E+06    -66.5414E+06     5.80198E+06    -19.9458E+06    -285.285E-03     567.821E-03    -282.536E-03     33.6977E-03    -285.526E-03     567.560E-03    -282.309E-03     35.7173E-03
            1232     6.78400E-03     182.217E-03    -62.6677E+06    -54.7421E+06     16.9831E+06    -21.4683E+06    -286.413E-03     569.291E-03    -282.878E-03     36.8535E-03    -286.652E-03     569.063E-03    -282.622E-03     38.6028E-03
            1233     7.45968E-03     182.272E-03    -56.0823E+06    -45.6792E+06     25.5947E+06    -22.8185E+06    -287.654E-03     570.908E-03    -283.254E-03     39.6225E-03    -287.890E-03     570.708E-03    -282.979E-03     40.9845E-03
            1234     8.13459E-03     182.328E-03    -49.8156E+06    -37.5157E+06     32.5797E+06    -23.6438E+06    -288.983E-03     572.648E-03    -283.666E-03     41.8694E-03    -289.216E-03     572.478E-03    -283.376E-03     42.7309E-03
            1235     8.80862E-03     182.386E-03    -43.6562E+06    -28.8221E+06     38.9047E+06    -23.4349E+06    -290.355E-03     574.467E-03    -284.112E-03     43.5141E-03    -290.592E-03     574.335E-03    -283.812E-03     43.7521E-03
            1236     9.48178E-03     182.445E-03    -37.9117E+06    -20.0433E+06     44.6112E+06    -21.8847E+06    -291.711E-03     576.301E-03    -284.590E-03     44.5348E-03    -291.960E-03     576.214E-03    -284.282E-03     43.9922E-03
            1237     10.1541E-03     182.504E-03    -32.6632E+06    -4.74611E+06     50.8578E+06    -20.1666E+06    -292.933E-03     578.019E-03    -285.085E-03     44.9945E-03    -293.213E-03     578.018E-03    -284.777E-03     43.4483E-03
            1238     10.8256E-03     182.563E-03    -26.9917E+06     13.3510E+06     56.5426E+06    -18.3013E+06    -293.923E-03     579.508E-03    -285.585E-03     45.0294E-03    -294.246E-03     579.619E-03    -285.283E-03     42.1937E-03
            1239     11.4966E-03     182.621E-03    -20.5072E+06     57.0082E+06     67.1584E+06    -14.2549E+06    -294.535E-03     580.601E-03    -286.066E-03     44.5100E-03    -294.952E-03     580.952E-03    -285.783E-03     40.2009E-03
            1240     12.1670E-03     182.680E-03    -13.5914E+06     123.759E+06     92.2793E+06    -9.20448E+06    -294.839E-03     581.404E-03    -286.565E-03     44.2166E-03    -295.425E-03     582.114E-03    -286.263E-03     37.9729E-03
            1241     12.8374E-03     182.739E-03    -6.31869E+06     132.938E+06     120.738E+06    -4.72346E+06    -295.320E-03     582.465E-03    -287.145E-03     38.3059E-03    -295.903E-03     583.148E-03    -286.725E-03     32.1297E-03
            1242     679.693E-06     183.573E-03    -122.061E+06    -182.831E+06    -119.490E+06    -2.47558E+06    -280.621E-03     561.131E-03    -280.510E-03     4.22104E-03    -280.792E-03     560.566E-03    -280.665E-03     4.82985E-03
            1243     1.35940E-03     183.584E-03    -118.923E+06    -172.903E+06    -108.956E+06    -4.32339E+06    -280.589E-03     561.192E-03    -280.603E-03     7.81763E-03    -280.773E-03     560.656E-03    -280.724E-03     8.91799E-03
            1244     2.03907E-03     183.602E-03    -113.978E+06    -158.015E+06    -93.3648E+06    -6.22242E+06    -280.649E-03     561.309E-03    -280.660E-03     11.6684E-03    -280.850E-03     560.814E-03    -280.732E-03     13.2443E-03
            1245     2.71870E-03     183.626E-03    -107.908E+06    -140.066E+06    -74.8000E+06    -8.28405E+06    -280.771E-03     561.505E-03    -280.735E-03     15.6420E-03    -280.990E-03     561.061E-03    -280.749E-03     17.6325E-03
            1246     3.39823E-03     183.657E-03    -101.318E+06    -121.929E+06    -55.6940E+06    -10.6474E+06    -280.991E-03     561.819E-03    -280.828E-03     19.7065E-03    -281.227E-03     561.423E-03    -280.782E-03     22.0299E-03
            1247     4.07761E-03     183.694E-03    -94.4145E+06    -104.929E+06    -37.8402E+06    -13.0118E+06    -281.345E-03     562.285E-03    -280.940E-03     23.8278E-03    -281.592E-03     561.933E-03    -280.840E-03     26.3942E-03
            1248     4.75679E-03     183.736E-03    -87.1863E+06    -88.9215E+06    -21.6397E+06    -14.7624E+06    -281.869E-03     562.946E-03    -281.077E-03     27.9652E-03    -282.120E-03     562.635E-03    -280.930E-03     30.6838E-03
            1249     5.43562E-03     183.783E-03    -79.8766E+06    -72.9862E+06    -6.74944E+06    -15.7930E+06    -282.601E-03     563.851E-03    -281.250E-03     32.0832E-03    -282.855E-03     563.582E-03    -281.062E-03     34.8509E-03
            1250     6.11396E-03     183.834E-03    -72.9466E+06    -57.6617E+06     6.70083E+06    -16.7808E+06    -283.579E-03     565.047E-03    -281.469E-03     36.0413E-03    -283.835E-03     564.821E-03    -281.246E-03     38.7394E-03
            1251     6.79167E-03     183.889E-03    -66.3422E+06    -45.4036E+06     17.9804E+06    -18.2310E+06    -284.833E-03     566.578E-03    -281.745E-03     39.6711E-03    -285.089E-03     566.385E-03    -281.493E-03     42.1674E-03
            1252     7.46852E-03     183.947E-03    -59.8863E+06    -36.6827E+06     26.7025E+06    -19.9729E+06    -286.373E-03     568.458E-03    -282.085E-03     42.8436E-03    -286.624E-03     568.288E-03    -281.811E-03     44.9963E-03
            1253     8.14431E-03     184.007E-03    -53.8769E+06    -30.4564E+06     33.0496E+06    -21.4296E+06    -288.174E-03     570.669E-03    -282.495E-03     45.3679E-03    -288.420E-03     570.519E-03    -282.207E-03     47.0389E-03
            1254     8.81888E-03     184.069E-03    -48.3350E+06    -24.8456E+06     38.0980E+06    -22.1181E+06    -290.176E-03     573.156E-03    -282.980E-03     47.0976E-03    -290.422E-03     573.031E-03    -282.683E-03     48.1415E-03
            1255     9.49209E-03     184.131E-03    -42.2686E+06    -17.9190E+06     43.2018E+06    -22.5796E+06    -292.275E-03     575.813E-03    -283.539E-03     47.9769E-03    -292.526E-03     575.726E-03    -283.235E-03     48.2095E-03
            1256     10.1639E-03     184.194E-03    -35.0690E+06    -3.68106E+06     49.6851E+06    -22.4599E+06    -294.297E-03     578.454E-03    -284.157E-03     48.0446E-03    -294.570E-03     578.445E-03    -283.852E-03     47.2353E-03
            1257     10.8343E-03     184.256E-03    -28.3165E+06     9.78239E+06     55.1339E+06    -20.6534E+06    -296.085E-03     580.903E-03    -284.817E-03     47.4434E-03    -296.389E-03     580.981E-03    -284.515E-03     45.2984E-03
            1258     11.5035E-03     184.318E-03    -22.2401E+06     49.3173E+06     65.6091E+06    -17.9737E+06    -297.358E-03     582.844E-03    -285.486E-03     46.2044E-03    -297.752E-03     583.144E-03    -285.197E-03     42.4645E-03
            1259     12.1721E-03     184.378E-03    -15.1497E+06     111.731E+06     89.8357E+06    -13.5816E+06    -298.077E-03     584.257E-03    -286.181E-03     45.2835E-03    -298.634E-03     584.897E-03    -285.872E-03     39.4529E-03
            1260     12.8398E-03     184.440E-03    -7.68515E+06     117.876E+06     116.244E+06    -6.67115E+06    -298.730E-03     585.675E-03    -286.944E-03     39.0489E-03    -299.283E-03     586.282E-03    -286.523E-03     33.0962E-03
            1261     679.967E-06     185.233E-03    -125.504E+06    -176.035E+06    -122.574E+06    -676.148E+03    -280.042E-03     560.024E-03    -279.982E-03     4.37902E-03    -280.235E-03     559.502E-03    -280.158E-03     5.11195E-03
            1262     1.35998E-03     185.244E-03    -122.864E+06    -166.035E+06    -112.618E+06    -1.46964E+06    -279.865E-03     559.878E-03    -280.013E-03     8.14147E-03    -280.072E-03     559.386E-03    -280.157E-03     9.46549E-03
            1263     2.04014E-03     185.262E-03    -118.739E+06    -151.303E+06    -97.6064E+06    -2.24355E+06    -279.707E-03     559.695E-03    -279.988E-03     12.1923E-03    -279.933E-03     559.246E-03    -280.084E-03     14.1033E-03
            1264     2.72047E-03     185.287E-03    -113.458E+06    -132.944E+06    -79.1762E+06    -2.91560E+06    -279.572E-03     559.534E-03    -279.962E-03     16.3881E-03    -279.820E-03     559.137E-03    -280.000E-03     18.8366E-03
            1265     3.40093E-03     185.318E-03    -107.461E+06    -113.355E+06    -59.1149E+06    -3.88877E+06    -279.536E-03     559.480E-03    -279.945E-03     20.7060E-03    -279.804E-03     559.137E-03    -279.920E-03     23.6150E-03
            1266     4.08146E-03     185.355E-03    -101.195E+06    -94.8757E+06    -39.7288E+06    -5.76135E+06    -279.677E-03     559.624E-03    -279.947E-03     25.1016E-03    -279.962E-03     559.327E-03    -279.861E-03     28.3689E-03
            1267     4.76189E-03     185.398E-03    -94.7466E+06    -79.2160E+06    -22.9082E+06    -8.40791E+06    -280.066E-03     560.045E-03    -279.979E-03     29.5052E-03    -280.357E-03     559.785E-03    -279.841E-03     33.0158E-03
            1268     5.44212E-03     185.446E-03    -87.8485E+06    -64.9459E+06    -8.57093E+06    -10.8113E+06    -280.758E-03     560.814E-03    -280.056E-03     33.8273E-03    -281.048E-03     560.586E-03    -279.877E-03     37.4665E-03
            1269     6.12192E-03     185.499E-03    -80.3595E+06    -49.4100E+06     4.55215E+06    -12.6866E+06    -281.802E-03     561.999E-03    -280.197E-03     37.9079E-03    -282.089E-03     561.812E-03    -279.986E-03     41.5567E-03
            1270     6.80098E-03     185.557E-03    -72.6569E+06    -35.1280E+06     16.3380E+06    -15.0346E+06    -283.264E-03     563.687E-03    -280.422E-03     41.6140E-03    -283.546E-03     563.538E-03    -280.184E-03     45.1223E-03
            1271     7.47899E-03     185.618E-03    -64.9696E+06    -26.0187E+06     25.6500E+06    -18.0270E+06    -285.185E-03     565.932E-03    -280.748E-03     44.8293E-03    -285.454E-03     565.804E-03    -280.487E-03     48.0223E-03
            1272     8.15563E-03     185.682E-03    -56.8893E+06    -20.7085E+06     32.5031E+06    -21.0715E+06    -287.532E-03     568.714E-03    -281.182E-03     47.3742E-03    -287.783E-03     568.595E-03    -280.907E-03     50.0765E-03
            1273     8.83055E-03     185.748E-03    -48.0442E+06    -16.9161E+06     38.0893E+06    -23.8781E+06    -290.215E-03     571.948E-03    -281.733E-03     49.1240E-03    -290.447E-03     571.839E-03    -281.448E-03     51.1526E-03
            1274     9.50354E-03     185.816E-03    -39.5351E+06    -12.0910E+06     43.5353E+06    -25.4828E+06    -293.089E-03     575.487E-03    -282.398E-03     49.9828E-03    -293.311E-03     575.400E-03    -282.106E-03     51.1474E-03
            1275     10.1745E-03     185.884E-03    -32.7763E+06    -1.99876E+06     49.1431E+06    -25.3085E+06    -295.937E-03     579.099E-03    -283.162E-03     49.8980E-03    -296.176E-03     579.073E-03    -282.866E-03     49.9624E-03
            1276     10.8436E-03     185.952E-03    -26.8128E+06     4.73296E+06     53.4752E+06    -22.8699E+06    -298.545E-03     582.550E-03    -284.005E-03     48.9425E-03    -298.809E-03     582.581E-03    -283.706E-03     47.6086E-03
            1277     11.5109E-03     186.018E-03    -20.8978E+06     47.2633E+06     65.4729E+06    -20.1577E+06    -300.487E-03     585.365E-03    -284.879E-03     47.2624E-03    -300.848E-03     585.631E-03    -284.590E-03     44.2392E-03
            1278     12.1769E-03     186.082E-03    -14.7636E+06     101.141E+06     87.9988E+06    -17.4970E+06    -301.636E-03     587.426E-03    -285.790E-03     45.9646E-03    -302.153E-03     587.994E-03    -285.475E-03     40.6556E-03
            1279     12.8426E-03     186.146E-03    -7.21516E+06     95.0353E+06     109.922E+06    -10.3628E+06    -302.358E-03     589.109E-03    -286.751E-03     39.7472E-03    -302.856E-03     589.600E-03    -286.329E-03     34.0236E-03
            1280     680.580E-06     186.891E-03    -163.008E+06    -171.592E+06    -160.727E+06    -1.38191E+06    -278.886E-03     557.739E-03    -278.854E-03     4.71461E-03    -279.217E-03     557.349E-03    -279.172E-03     5.56847E-03
            1281     1.36135E-03     186.902E-03    -157.659E+06    -161.268E+06    -147.370E+06    -2.43207E+06    -278.638E-03     557.498E-03    -278.860E-03     8.71458E-03    -278.975E-03     557.130E-03    -279.135E-03     10.2691E-03
            1282     2.04234E-03     186.919E-03    -149.234E+06    -146.561E+06    -127.684E+06    -3.62828E+06    -278.387E-03     557.194E-03    -278.807E-03     12.9418E-03    -278.727E-03     556.854E-03    -279.016E-03     15.1951E-03
            1283     2.72360E-03     186.943E-03    -138.296E+06    -128.592E+06    -103.862E+06    -4.73678E+06    -278.161E-03     556.909E-03    -278.748E-03     17.2020E-03    -278.500E-03     556.602E-03    -278.880E-03     20.1074E-03
            1284     3.40513E-03     186.974E-03    -125.532E+06    -108.615E+06    -78.4089E+06    -5.57071E+06    -278.051E-03     556.745E-03    -278.694E-03     21.4414E-03    -278.384E-03     556.474E-03    -278.746E-03     24.9333E-03
            1285     4.08681E-03     187.011E-03    -111.996E+06    -88.2803E+06    -53.3278E+06    -6.33693E+06    -278.162E-03     556.822E-03    -278.661E-03     25.6245E-03    -278.484E-03     556.588E-03    -278.637E-03     29.6151E-03
            1286     4.76848E-03     187.054E-03    -98.9576E+06    -70.6459E+06    -30.6212E+06    -7.61051E+06    -278.601E-03     557.272E-03    -278.671E-03     29.7177E-03    -278.906E-03     557.064E-03    -278.579E-03     34.0893E-03
            1287     5.44982E-03     187.104E-03    -87.1046E+06    -56.0182E+06    -11.7600E+06    -9.73457E+06    -279.431E-03     558.174E-03    -278.743E-03     33.6515E-03    -279.716E-03     557.986E-03    -278.595E-03     38.2619E-03
            1288     6.13057E-03     187.159E-03    -76.3792E+06    -41.1059E+06     3.69509E+06    -12.0204E+06    -280.671E-03     559.564E-03    -278.893E-03     37.2957E-03    -280.938E-03     559.404E-03    -278.704E-03     42.0030E-03
            1289     6.81047E-03     187.219E-03    -66.9225E+06    -26.6554E+06     16.7730E+06    -13.4558E+06    -282.373E-03     561.516E-03    -279.144E-03     40.5735E-03    -282.627E-03     561.389E-03    -278.924E-03     45.2329E-03
            1290     7.48909E-03     187.285E-03    -59.1558E+06    -13.9277E+06     27.7492E+06    -15.5971E+06    -284.580E-03     564.093E-03    -279.513E-03     43.4732E-03    -284.827E-03     564.000E-03    -279.268E-03     47.8898E-03
            1291     8.16602E-03     187.354E-03    -52.5933E+06    -4.60589E+06     35.8600E+06    -20.5286E+06    -287.273E-03     567.284E-03    -280.011E-03     45.9348E-03    -287.514E-03     567.218E-03    -279.749E-03     49.8621E-03
            1292     8.84098E-03     187.426E-03    -46.3003E+06    -1.96184E+06     41.0551E+06    -26.5698E+06    -290.383E-03     571.029E-03    -280.646E-03     47.8423E-03    -290.613E-03     570.969E-03    -280.371E-03     51.0386E-03
            1293     9.51371E-03     187.501E-03    -39.0332E+06    -3.66777E+06     44.6289E+06    -30.6205E+06    -293.778E-03     575.194E-03    -281.416E-03     49.0380E-03    -293.990E-03     575.126E-03    -281.131E-03     51.2850E-03
            1294     10.1840E-03     187.576E-03    -30.0533E+06    -818.896E+03     49.1044E+06    -31.0591E+06    -297.239E-03     579.544E-03    -282.306E-03     49.4191E-03    -297.442E-03     579.496E-03    -282.015E-03     50.4833E-03
            1295     10.8518E-03     187.651E-03    -20.7159E+06     457.015E+03     53.6881E+06    -29.2088E+06    -300.527E-03     583.826E-03    -283.299E-03     48.9581E-03    -300.728E-03     583.800E-03    -283.001E-03     48.5422E-03
            1296     11.5174E-03     187.723E-03    -12.4712E+06     38.6470E+06     65.3166E+06    -24.1162E+06    -303.118E-03     587.457E-03    -284.339E-03     47.5514E-03    -303.398E-03     587.641E-03    -284.051E-03     45.3894E-03
            1297     12.1816E-03     187.792E-03    -6.85023E+06     88.5157E+06     86.3523E+06    -16.1056E+06    -304.714E-03     590.140E-03    -285.426E-03     46.3219E-03    -305.144E-03     590.611E-03    -285.113E-03     41.7822E-03
            1298     12.8445E-03     187.858E-03    -3.94951E+06     74.0239E+06     105.788E+06    -8.73039E+06    -305.556E-03     592.125E-03    -286.569E-03     40.5708E-03    -305.989E-03     592.499E-03    -286.141E-03     35.2545E-03
            1299     681.744E-06     188.545E-03    -210.638E+06    -155.722E+06    -207.777E+06    -5.88290E+06    -277.451E-03     554.818E-03    -277.367E-03     4.46831E-03    -277.976E-03     554.645E-03    -277.874E-03     5.38295E-03
            1300     1.36355E-03     188.555E-03    -203.225E+06    -145.725E+06    -192.858E+06    -10.8348E+06    -277.250E-03     554.671E-03    -277.421E-03     8.20236E-03    -277.771E-03     554.512E-03    -277.879E-03     9.85649E-03
            1301     2.04555E-03     188.572E-03    -191.744E+06    -132.008E+06    -170.477E+06    -15.6210E+06    -277.112E-03     554.526E-03    -277.413E-03     12.0521E-03    -277.624E-03     554.383E-03    -277.796E-03     14.4598E-03
            1302     2.72772E-03     188.595E-03    -177.028E+06    -115.655E+06    -143.476E+06    -19.8029E+06    -277.046E-03     554.463E-03    -277.417E-03     15.7775E-03    -277.542E-03     554.336E-03    -277.710E-03     18.9062E-03
            1303     3.40998E-03     188.626E-03    -159.894E+06    -97.7742E+06    -114.562E+06    -23.2591E+06    -277.130E-03     554.571E-03    -277.441E-03     19.3066E-03    -277.602E-03     554.460E-03    -277.640E-03     23.1017E-03
            1304     4.09226E-03     188.663E-03    -140.950E+06    -80.0928E+06    -85.4147E+06    -25.4500E+06    -277.448E-03     554.948E-03    -277.501E-03     22.6022E-03    -277.886E-03     554.850E-03    -277.607E-03     26.9973E-03
            1305     4.77434E-03     188.707E-03    -120.876E+06    -63.5408E+06    -57.2908E+06    -26.2669E+06    -278.083E-03     555.696E-03    -277.613E-03     25.6886E-03    -278.478E-03     555.603E-03    -277.632E-03     30.5975E-03
            1306     5.45598E-03     188.758E-03    -100.841E+06    -48.5907E+06    -31.2371E+06    -26.4050E+06    -279.097E-03     556.892E-03    -277.795E-03     28.6032E-03    -279.445E-03     556.800E-03    -277.735E-03     33.9059E-03
            1307     6.13686E-03     188.816E-03    -82.0218E+06    -35.1571E+06    -8.00307E+06    -26.1555E+06    -280.518E-03     558.581E-03    -278.063E-03     31.3367E-03    -280.819E-03     558.489E-03    -277.933E-03     36.8894E-03
            1308     6.81664E-03     188.879E-03    -64.5209E+06    -23.7857E+06     11.6409E+06    -25.1660E+06    -282.353E-03     560.778E-03    -278.426E-03     33.8999E-03    -282.605E-03     560.684E-03    -278.239E-03     39.5437E-03
            1309     7.49509E-03     188.949E-03    -48.2115E+06    -7.85466E+06     28.9620E+06    -23.7930E+06    -284.567E-03     563.453E-03    -278.887E-03     36.3573E-03    -284.781E-03     563.385E-03    -278.660E-03     41.9062E-03
            1310     8.17193E-03     189.024E-03    -34.7311E+06     7.66210E+06     43.7431E+06    -23.2108E+06    -287.184E-03     566.643E-03    -279.460E-03     38.7630E-03    -287.372E-03     566.609E-03    -279.202E-03     43.9817E-03
            1311     8.84676E-03     189.103E-03    -25.7383E+06     12.6727E+06     53.1121E+06    -24.2929E+06    -290.218E-03     570.369E-03    -280.152E-03     41.1287E-03    -290.383E-03     570.335E-03    -279.867E-03     45.7319E-03
            1312     9.51927E-03     189.184E-03    -21.0780E+06     10.6519E+06     56.3290E+06    -27.5587E+06    -293.579E-03     574.533E-03    -280.954E-03     43.3835E-03    -293.729E-03     574.484E-03    -280.658E-03     47.0573E-03
            1313     10.1893E-03     189.267E-03    -19.0931E+06     4.81490E+06     56.7203E+06    -30.6076E+06    -297.165E-03     579.038E-03    -281.873E-03     45.2894E-03    -297.313E-03     578.971E-03    -281.568E-03     47.7355E-03
            1314     10.8570E-03     189.350E-03    -17.4980E+06     978.031E+03     58.4038E+06    -30.8152E+06    -300.831E-03     583.736E-03    -282.905E-03     46.4628E-03    -300.996E-03     583.673E-03    -282.589E-03     47.3753E-03
            1315     11.5222E-03     189.430E-03    -14.7938E+06     24.2231E+06     64.0410E+06    -26.9941E+06    -304.094E-03     588.097E-03    -284.003E-03     46.3946E-03    -304.331E-03     588.182E-03    -283.696E-03     45.4093E-03
            1316     12.1851E-03     189.505E-03    -9.98197E+06     61.6895E+06     80.3655E+06    -16.4464E+06    -306.392E-03     591.564E-03    -285.173E-03     45.8199E-03    -306.757E-03     591.880E-03    -284.846E-03     42.2927E-03
            1317     12.8474E-03     189.575E-03    -3.84584E+06     55.1950E+06     103.056E+06    -4.89734E+06    -307.669E-03     594.091E-03    -286.422E-03     40.6498E-03    -308.049E-03     594.354E-03    -285.981E-03     35.9983E-03
            1318     682.299E-06     190.194E-03    -187.799E+06    -120.618E+06    -185.100E+06    -10.2315E+06    -277.563E-03     554.999E-03    -277.436E-03     2.02327E-03    -278.059E-03     554.937E-03    -277.914E-03     2.84202E-03
            1319     1.36466E-03     190.204E-03    -182.282E+06    -112.241E+06    -172.121E+06    -18.1445E+06    -277.482E-03     555.032E-03    -277.550E-03     3.77524E-03    -277.982E-03     554.985E-03    -277.983E-03     5.28489E-03
            1320     2.04697E-03     190.221E-03    -174.076E+06    -100.994E+06    -153.220E+06    -25.8167E+06    -277.545E-03     555.167E-03    -277.622E-03     5.49755E-03    -278.049E-03     555.138E-03    -277.989E-03     7.71845E-03
            1321     2.72919E-03     190.244E-03    -163.470E+06    -87.3695E+06    -130.449E+06    -32.8368E+06    -277.704E-03     555.434E-03    -277.730E-03     7.08567E-03    -278.209E-03     555.426E-03    -278.018E-03     9.99504E-03
            1322     3.41124E-03     190.275E-03    -151.014E+06    -73.0740E+06    -106.003E+06    -38.8939E+06    -277.992E-03     555.866E-03    -277.874E-03     8.52065E-03    -278.493E-03     555.878E-03    -278.079E-03     12.0921E-03
            1323     4.09293E-03     190.313E-03    -137.329E+06    -60.3843E+06    -81.7046E+06    -43.7449E+06    -278.443E-03     556.501E-03    -278.058E-03     9.87297E-03    -278.932E-03     556.525E-03    -278.180E-03     14.0727E-03
            1324     4.77415E-03     190.359E-03    -122.787E+06    -48.8586E+06    -58.7316E+06    -47.1463E+06    -279.081E-03     557.364E-03    -278.283E-03     11.2405E-03    -279.550E-03     557.394E-03    -278.328E-03     16.0237E-03
            1325     5.45477E-03     190.412E-03    -107.370E+06    -38.1647E+06    -36.8729E+06    -48.8011E+06    -279.927E-03     558.483E-03    -278.556E-03     12.7261E-03    -280.369E-03     558.515E-03    -278.529E-03     18.0366E-03
            1326     6.13462E-03     190.472E-03    -91.1037E+06    -28.6322E+06    -15.8788E+06    -48.8060E+06    -281.024E-03     559.908E-03    -278.884E-03     14.4936E-03    -281.430E-03     559.935E-03    -278.790E-03     20.2509E-03
            1327     6.81345E-03     190.539E-03    -74.7014E+06    -20.6032E+06     3.31100E+06    -47.8154E+06    -282.406E-03     561.677E-03    -279.271E-03     16.7123E-03    -282.767E-03     561.690E-03    -279.116E-03     22.7947E-03
            1328     7.49110E-03     190.613E-03    -59.0070E+06    -9.15043E+06     21.0976E+06    -45.1618E+06    -284.064E-03     563.781E-03    -279.717E-03     19.4266E-03    -284.384E-03     563.798E-03    -279.513E-03     25.6932E-03
            1329     8.16750E-03     190.693E-03    -44.2974E+06     3.36122E+06     38.1860E+06    -39.5768E+06    -286.036E-03     566.271E-03    -280.235E-03     22.6028E-03    -286.316E-03     566.295E-03    -279.985E-03     28.8877E-03
            1330     8.84249E-03     190.777E-03    -31.2476E+06     11.5368E+06     52.9963E+06    -32.7872E+06    -288.418E-03     569.250E-03    -280.832E-03     26.2121E-03    -288.655E-03     569.264E-03    -280.539E-03     32.2513E-03
            1331     9.51594E-03     190.866E-03    -21.4215E+06     14.0427E+06     63.5408E+06    -26.6464E+06    -291.298E-03     572.814E-03    -281.516E-03     30.0769E-03    -291.493E-03     572.799E-03    -281.187E-03     35.5048E-03
            1332     10.1875E-03     190.956E-03    -15.9492E+06     9.14273E+06     69.7317E+06    -22.4030E+06    -294.673E-03     576.976E-03    -282.303E-03     33.8787E-03    -294.837E-03     576.914E-03    -281.944E-03     38.2442E-03
            1333     10.8566E-03     191.047E-03    -13.8934E+06     4.31484E+06     71.4219E+06    -20.9267E+06    -298.319E-03     581.505E-03    -283.186E-03     37.3327E-03    -298.475E-03     581.421E-03    -282.815E-03     40.1138E-03
            1334     11.5229E-03     191.136E-03    -12.6551E+06     20.1964E+06     72.5953E+06    -20.4864E+06    -301.863E-03     586.004E-03    -284.141E-03     39.9984E-03    -302.066E-03     586.024E-03    -283.789E-03     40.6417E-03
            1335     12.1868E-03     191.218E-03    -10.3697E+06     33.6215E+06     81.4138E+06    -15.4128E+06    -305.063E-03     590.278E-03    -285.215E-03     42.0957E-03    -305.347E-03     590.409E-03    -284.841E-03     40.0316E-03
            1336     12.8480E-03     191.293E-03    -6.34556E+06     30.6786E+06     99.5819E+06    -5.53484E+06    -307.222E-03     593.615E-03    -286.392E-03     39.2332E-03    -307.538E-03     593.728E-03    -285.930E-03     35.6813E-03
            1337     679.937E-06     191.848E-03    -106.849E+06    -74.4818E+06    -102.802E+06    -10.8770E+06    -282.504E-03     564.657E-03    -282.154E-03    -3.81708E-03    -282.787E-03     564.588E-03    -282.405E-03    -3.23795E-03
            1338     1.35978E-03     191.858E-03    -102.819E+06    -69.2636E+06    -92.8705E+06    -19.3277E+06    -282.354E-03     564.782E-03    -282.428E-03    -6.94702E-03    -282.643E-03     564.723E-03    -282.643E-03    -5.93796E-03
            1339     2.03947E-03     191.876E-03    -96.7777E+06    -60.9320E+06    -76.7697E+06    -27.4698E+06    -282.423E-03     564.984E-03    -282.560E-03    -10.1844E-03    -282.725E-03     564.942E-03    -282.716E-03    -8.72103E-03
            1340     2.71890E-03     191.900E-03    -89.1437E+06    -51.1894E+06    -58.0304E+06    -34.5435E+06    -282.482E-03     565.207E-03    -282.725E-03    -13.3633E-03    -282.798E-03     565.186E-03    -282.812E-03    -11.4252E-03
            1341     3.39800E-03     191.931E-03    -81.0957E+06    -41.8682E+06    -39.3603E+06    -39.9987E+06    -282.509E-03     565.413E-03    -282.904E-03    -16.3641E-03    -282.838E-03     565.414E-03    -282.923E-03    -13.9169E-03
            1342     4.07683E-03     191.970E-03    -73.6004E+06    -33.6366E+06    -22.3487E+06    -43.9672E+06    -282.485E-03     565.570E-03    -283.086E-03    -18.9977E-03    -282.829E-03     565.593E-03    -283.042E-03    -16.0130E-03
            1343     4.75535E-03     192.017E-03    -67.1380E+06    -26.7309E+06    -7.44434E+06    -46.8342E+06    -282.401E-03     565.662E-03    -283.261E-03    -21.0581E-03    -282.762E-03     565.707E-03    -283.162E-03    -17.5173E-03
            1344     5.43357E-03     192.071E-03    -61.9067E+06    -20.8538E+06     5.26827E+06    -48.8057E+06    -282.256E-03     565.679E-03    -283.423E-03    -22.3594E-03    -282.636E-03     565.747E-03    -283.277E-03    -18.2492E-03
            1345     6.11157E-03     192.133E-03    -57.9292E+06    -16.1016E+06     15.8823E+06    -49.7684E+06    -282.077E-03     565.646E-03    -283.569E-03    -22.7099E-03    -282.477E-03     565.734E-03    -283.382E-03    -18.0329E-03
            1346     6.78948E-03     192.202E-03    -54.9190E+06    -12.3697E+06     25.3471E+06    -49.2578E+06    -281.943E-03     565.644E-03    -283.701E-03    -21.9232E-03    -282.361E-03     565.748E-03    -283.477E-03    -16.7048E-03
            1347     7.46719E-03     192.278E-03    -52.5164E+06    -8.21211E+06     34.8151E+06    -46.9363E+06    -281.959E-03     565.787E-03    -283.828E-03    -19.8098E-03    -282.393E-03     565.904E-03    -283.566E-03    -14.1035E-03
            1348     8.14445E-03     192.360E-03    -49.8334E+06    -3.20962E+06     44.3421E+06    -43.0367E+06    -282.250E-03     566.208E-03    -283.958E-03    -16.2364E-03    -282.691E-03     566.333E-03    -283.659E-03    -10.1358E-03
            1349     8.82113E-03     192.449E-03    -45.7384E+06     2.14323E+06     53.8071E+06    -37.8125E+06    -282.977E-03     567.082E-03    -284.105E-03    -11.1411E-03    -283.409E-03     567.205E-03    -283.773E-03    -4.79897E-03
            1350     9.49668E-03     192.542E-03    -39.1206E+06     3.70286E+06     62.9212E+06    -31.7601E+06    -284.315E-03     568.607E-03    -284.292E-03    -4.39642E-03    -284.708E-03     568.695E-03    -283.926E-03     1.93368E-03
            1351     10.1705E-03     192.639E-03    -29.7183E+06     1.51322E+06     71.2701E+06    -25.4167E+06    -286.363E-03     570.901E-03    -284.538E-03     4.08906E-03    -286.685E-03     570.920E-03    -284.141E-03     10.0201E-03
            1352     10.8424E-03     192.738E-03    -19.9591E+06     1.50992E+06     77.7239E+06    -19.6428E+06    -289.170E-03     574.028E-03    -284.858E-03     13.8949E-03    -289.416E-03     573.986E-03    -284.442E-03     18.8728E-03
            1353     11.5127E-03     192.834E-03    -12.2204E+06     22.5474E+06     87.3572E+06    -16.9991E+06    -292.804E-03     578.084E-03    -285.280E-03     23.7938E-03    -293.029E-03     578.095E-03    -284.858E-03     27.0987E-03
            1354     12.1809E-03     192.925E-03    -6.28316E+06     13.1423E+06     92.1444E+06    -12.2044E+06    -297.258E-03     583.130E-03    -285.871E-03     32.7460E-03    -297.457E-03     583.087E-03    -285.421E-03     33.5194E-03
            1355     12.8469E-03     193.008E-03    -1.55361E+06     6.87084E+06     98.6805E+06    -3.21820E+06    -301.077E-03     587.685E-03    -286.609E-03     35.5750E-03    -301.274E-03     587.616E-03    -286.123E-03     34.3232E-03
            1356     671.636E-06     193.529E-03    -20.3922E+06    -32.5420E+06    -17.1093E+06    -7.90730E+06    -295.322E-03     590.331E-03    -295.009E-03    -12.3140E-03    -295.366E-03     590.210E-03    -295.018E-03    -12.2254E-03
            1357     1.34319E-03     193.540E-03    -19.1708E+06    -29.6576E+06    -9.49626E+06    -14.4530E+06    -294.937E-03     590.229E-03    -295.292E-03    -22.2780E-03    -294.993E-03     590.112E-03    -295.268E-03    -22.1082E-03
            1358     2.01459E-03     193.557E-03    -17.5139E+06    -25.2333E+06     1.72134E+06    -20.1716E+06    -294.548E-03     589.917E-03    -295.369E-03    -32.6691E-03    -294.623E-03     589.809E-03    -295.298E-03    -32.3604E-03
            1359     2.68594E-03     193.582E-03    -15.9499E+06    -20.5205E+06     14.2923E+06    -24.4268E+06    -293.910E-03     589.340E-03    -295.430E-03    -42.7726E-03    -294.010E-03     589.244E-03    -295.305E-03    -42.2644E-03
            1360     3.35738E-03     193.613E-03    -14.6938E+06    -16.6680E+06     26.9048E+06    -27.1885E+06    -292.991E-03     588.449E-03    -295.459E-03    -52.3793E-03    -293.120E-03     588.366E-03    -295.279E-03    -51.6149E-03
            1361     4.02898E-03     193.651E-03    -13.7109E+06    -12.9597E+06     38.5636E+06    -28.6378E+06    -291.757E-03     587.193E-03    -295.436E-03    -61.3155E-03    -291.918E-03     587.126E-03    -295.205E-03    -60.2413E-03
            1362     4.70096E-03     193.697E-03    -13.1013E+06    -9.64866E+06     48.9513E+06    -29.0292E+06    -290.179E-03     585.528E-03    -295.349E-03    -69.4251E-03    -290.377E-03     585.483E-03    -295.071E-03    -67.9926E-03
            1363     5.37362E-03     193.749E-03    -13.0612E+06    -6.65639E+06     58.0909E+06    -28.6536E+06    -288.262E-03     583.447E-03    -295.186E-03    -76.5809E-03    -288.499E-03     583.428E-03    -294.866E-03    -74.7502E-03
            1364     6.04710E-03     193.809E-03    -13.6470E+06    -4.83557E+06     65.7479E+06    -27.7362E+06    -286.033E-03     580.972E-03    -294.939E-03    -82.6355E-03    -286.312E-03     580.978E-03    -294.583E-03    -80.3842E-03
            1365     6.72156E-03     193.876E-03    -14.7425E+06    -4.55359E+06     71.4152E+06    -26.4124E+06    -283.521E-03     578.122E-03    -294.601E-03    -87.4105E-03    -283.839E-03     578.150E-03    -294.216E-03    -84.7335E-03
            1366     7.39727E-03     193.949E-03    -15.7684E+06    -4.38336E+06     75.5469E+06    -24.7732E+06    -280.777E-03     574.944E-03    -294.167E-03    -90.6422E-03    -281.128E-03     574.993E-03    -293.760E-03    -87.5506E-03
            1367     8.07455E-03     194.029E-03    -16.3439E+06    -2.53976E+06     79.1720E+06    -22.9706E+06    -277.906E-03     571.543E-03    -293.637E-03    -91.9220E-03    -278.285E-03     571.617E-03    -293.214E-03    -88.4454E-03
            1368     8.75329E-03     194.116E-03    -16.5903E+06    -456.548E+03     82.0649E+06    -21.1026E+06    -275.019E-03     568.031E-03    -293.012E-03    -90.7004E-03    -275.415E-03     568.124E-03    -292.577E-03    -86.8827E-03
            1369     9.43376E-03     194.209E-03    -17.1702E+06     135.289E+03     83.4206E+06    -19.4871E+06    -272.251E-03     564.545E-03    -292.294E-03    -86.3486E-03    -272.648E-03     564.640E-03    -291.852E-03    -82.2700E-03
            1370     10.1163E-03     194.306E-03    -18.2350E+06    -2.63925E+06     82.7905E+06    -18.3280E+06    -269.958E-03     561.451E-03    -291.493E-03    -78.3435E-03    -270.332E-03     561.515E-03    -291.049E-03    -74.1601E-03
            1371     10.8002E-03     194.407E-03    -17.3139E+06    -4.75901E+06     84.0061E+06    -16.3057E+06    -268.675E-03     559.325E-03    -290.650E-03    -66.3063E-03    -269.003E-03     559.341E-03    -290.198E-03    -62.2771E-03
            1372     11.4836E-03     194.510E-03    -13.7471E+06     16.9212E+06     95.1629E+06    -12.7297E+06    -268.631E-03     558.442E-03    -289.811E-03    -49.4436E-03    -268.940E-03     558.501E-03    -289.339E-03    -45.9713E-03
            1373     12.1639E-03     194.611E-03    -9.09487E+06    -160.651E+03     92.4413E+06    -7.60662E+06    -269.722E-03     558.696E-03    -288.975E-03    -26.0155E-03    -269.930E-03     558.624E-03    -288.499E-03    -23.9546E-03
            1374     12.8397E-03     194.706E-03    -2.03107E+06    -6.06688E+06     82.5382E+06    -3.60519E+06    -271.274E-03     559.384E-03    -288.110E-03     1.00171E-03    -271.401E-03     559.258E-03    -287.686E-03     1.63206E-03
            1375     12.8082E-03     96.6826E-03    -5.62884E+06     82.0958E+06     98.4413E+06     42.3238E+03    -288.477E-03     577.852E-03    -289.375E-03     32.5421E-03    -288.942E-03     578.302E-03    -288.993E-03     26.3562E-03
            1376     12.1338E-03     96.6255E-03    -11.5916E+06     74.9436E+06     97.9180E+06     335.272E+03    -288.573E-03     577.986E-03    -289.413E-03     38.6211E-03    -289.097E-03     578.451E-03    -289.015E-03     32.0260E-03
            1377     11.4594E-03     96.5665E-03    -17.7648E+06     61.5596E+06     89.8181E+06     724.385E+03    -288.689E-03     578.114E-03    -289.425E-03     38.8054E-03    -289.175E-03     578.495E-03    -289.039E-03     33.3196E-03
            1378     10.7851E-03     96.5046E-03    -24.0780E+06     57.9566E+06     80.0591E+06     859.447E+03    -288.753E-03     578.167E-03    -289.415E-03     38.9809E-03    -289.227E-03     578.530E-03    -289.064E-03     34.3065E-03
            1379     10.1107E-03     96.4420E-03    -30.5010E+06     53.8682E+06     70.4929E+06     976.733E+03    -288.785E-03     578.194E-03    -289.409E-03     38.0094E-03    -289.240E-03     578.528E-03    -289.091E-03     34.2791E-03
            1380     9.43644E-03     96.3803E-03    -36.9925E+06     42.0064E+06     57.8248E+06     1.37349E+06    -288.826E-03     578.228E-03    -289.401E-03     36.2832E-03    -289.249E-03     578.501E-03    -289.120E-03     33.4915E-03
            1381     8.76212E-03     96.3205E-03    -43.7216E+06     38.1901E+06     48.3607E+06     1.71007E+06    -288.805E-03     578.207E-03    -289.401E-03     34.0871E-03    -289.217E-03     578.458E-03    -289.151E-03     32.1735E-03
            1382     8.08782E-03     96.2636E-03    -50.7090E+06     11.4255E+06     36.7484E+06     1.70643E+06    -288.855E-03     578.281E-03    -289.426E-03     31.6555E-03    -289.224E-03     578.404E-03    -289.186E-03     30.5349E-03
            1383     7.41359E-03     96.2097E-03    -57.8140E+06    -30.1920E+06     22.6134E+06     1.52474E+06    -288.956E-03     578.416E-03    -289.460E-03     29.2001E-03    -289.264E-03     578.346E-03    -289.219E-03     28.7522E-03
            1384     6.73941E-03     96.1592E-03    -65.0185E+06    -63.7840E+06     8.90137E+06     1.34438E+06    -289.024E-03     578.506E-03    -289.482E-03     26.7094E-03    -289.288E-03     578.288E-03    -289.251E-03     26.8108E-03
            1385     6.06528E-03     96.1125E-03    -72.3302E+06    -92.1046E+06    -5.06958E+06     1.18612E+06    -289.072E-03     578.568E-03    -289.495E-03     24.1271E-03    -289.304E-03     578.231E-03    -289.282E-03     24.6617E-03
            1386     5.39120E-03     96.0698E-03    -79.7167E+06    -117.642E+06    -19.6955E+06     1.03022E+06    -289.114E-03     578.614E-03    -289.500E-03     21.5192E-03    -289.320E-03     578.176E-03    -289.312E-03     22.3644E-03
            1387     4.71716E-03     96.0314E-03    -87.1014E+06    -140.940E+06    -35.1549E+06     879.696E+03    -289.152E-03     578.648E-03    -289.496E-03     18.8977E-03    -289.335E-03     578.124E-03    -289.341E-03     19.9351E-03
            1388     4.04317E-03     95.9975E-03    -94.3354E+06    -162.793E+06    -51.3531E+06     736.133E+03    -289.190E-03     578.676E-03    -289.486E-03     16.2497E-03    -289.352E-03     578.074E-03    -289.370E-03     17.3697E-03
            1389     3.36922E-03     95.9684E-03    -101.209E+06    -183.028E+06    -67.8880E+06     603.598E+03    -289.232E-03     578.701E-03    -289.469E-03     13.5824E-03    -289.374E-03     578.031E-03    -289.396E-03     14.6853E-03
            1390     2.69531E-03     95.9442E-03    -107.442E+06    -201.308E+06    -84.0079E+06     475.978E+03    -289.276E-03     578.724E-03    -289.448E-03     10.8924E-03    -289.399E-03     577.995E-03    -289.420E-03     11.8915E-03
            1391     2.02144E-03     95.9253E-03    -112.693E+06    -217.190E+06    -98.6235E+06     350.519E+03    -289.319E-03     578.745E-03    -289.426E-03     8.20929E-03    -289.425E-03     577.966E-03    -289.441E-03     9.03034E-03
            1392     1.34760E-03     95.9115E-03    -116.701E+06    -231.497E+06    -110.011E+06     231.872E+03    -289.361E-03     578.773E-03    -289.412E-03     5.54779E-03    -289.449E-03     577.945E-03    -289.457E-03     6.13483E-03
            1393     673.794E-06     95.9030E-03    -119.312E+06    -240.998E+06    -117.436E+06     122.648E+03    -289.407E-03     578.793E-03    -289.386E-03     3.01970E-03    -289.484E-03     577.931E-03    -289.451E-03     3.34965E-03
            1394     12.8082E-03     94.9924E-03    -5.19820E+06     81.7623E+06     98.3842E+06     478.597E+03    -288.490E-03     577.864E-03    -289.375E-03     32.5362E-03    -288.952E-03     578.313E-03    -288.994E-03     26.3565E-03
            1395     12.1338E-03     94.9353E-03    -11.0162E+06     74.4006E+06     97.8546E+06     592.018E+03    -288.587E-03     578.000E-03    -289.413E-03     38.6159E-03    -289.107E-03     578.461E-03    -289.016E-03     32.0243E-03
            1396     11.4594E-03     94.8763E-03    -17.2612E+06     61.1429E+06     89.7847E+06     655.395E+03    -288.698E-03     578.122E-03    -289.424E-03     38.8042E-03    -289.181E-03     578.500E-03    -289.039E-03     33.3170E-03
            1397     10.7851E-03     94.8144E-03    -23.6149E+06     58.2825E+06     80.2170E+06     640.857E+03    -288.751E-03     578.165E-03    -289.414E-03     38.9842E-03    -289.224E-03     578.528E-03    -289.063E-03     34.3063E-03
            1398     10.1107E-03     94.7518E-03    -30.1723E+06     53.3952E+06     70.4107E+06     661.016E+03    -288.785E-03     578.194E-03    -289.409E-03     38.0167E-03    -289.239E-03     578.526E-03    -289.090E-03     34.2811E-03
            1399     9.43643E-03     94.6901E-03    -36.8480E+06     41.0440E+06     57.6180E+06     941.969E+03    -288.832E-03     578.234E-03    -289.401E-03     36.2961E-03    -289.253E-03     578.502E-03    -289.119E-03     33.4970E-03
            1400     8.76213E-03     94.6303E-03    -43.5749E+06     38.0958E+06     48.3760E+06     1.19426E+06    -288.808E-03     578.209E-03    -289.401E-03     34.1011E-03    -289.219E-03     578.460E-03    -289.151E-03     32.1789E-03
            1401     8.08783E-03     94.5734E-03    -50.5412E+06     12.0138E+06     36.8921E+06     1.20628E+06    -288.853E-03     578.279E-03    -289.425E-03     31.6655E-03    -289.223E-03     578.405E-03    -289.185E-03     30.5370E-03
            1402     7.41359E-03     94.5196E-03    -57.6679E+06    -29.5816E+06     22.7522E+06     1.12248E+06    -288.954E-03     578.413E-03    -289.459E-03     29.2066E-03    -289.262E-03     578.346E-03    -289.219E-03     28.7528E-03
            1403     6.73941E-03     94.4691E-03    -64.8755E+06    -63.1766E+06     9.03836E+06     1.03385E+06    -289.021E-03     578.503E-03    -289.482E-03     26.7169E-03    -289.286E-03     578.287E-03    -289.251E-03     26.8134E-03
            1404     6.06528E-03     94.4223E-03    -72.1966E+06    -91.5045E+06    -4.93910E+06     930.427E+03    -289.070E-03     578.565E-03    -289.495E-03     24.1356E-03    -289.302E-03     578.230E-03    -289.282E-03     24.6659E-03
            1405     5.39120E-03     94.3796E-03    -79.5994E+06    -117.046E+06    -19.5719E+06     829.961E+03    -289.112E-03     578.612E-03    -289.500E-03     21.5276E-03    -289.318E-03     578.177E-03    -289.312E-03     22.3694E-03
            1406     4.71716E-03     94.3412E-03    -86.9949E+06    -140.346E+06    -35.0392E+06     727.434E+03    -289.151E-03     578.647E-03    -289.496E-03     18.9041E-03    -289.335E-03     578.125E-03    -289.342E-03     19.9391E-03
            1407     4.04317E-03     94.3074E-03    -94.2394E+06    -162.215E+06    -51.2430E+06     624.719E+03    -289.190E-03     578.675E-03    -289.485E-03     16.2554E-03    -289.352E-03     578.076E-03    -289.370E-03     17.3736E-03
            1408     3.36921E-03     94.2782E-03    -101.116E+06    -182.461E+06    -67.7843E+06     522.054E+03    -289.232E-03     578.700E-03    -289.469E-03     13.5889E-03    -289.374E-03     578.033E-03    -289.396E-03     14.6902E-03
            1409     2.69530E-03     94.2541E-03    -107.349E+06    -200.737E+06    -83.9083E+06     416.931E+03    -289.276E-03     578.723E-03    -289.448E-03     10.8970E-03    -289.400E-03     577.997E-03    -289.421E-03     11.8950E-03
            1410     2.02144E-03     94.2351E-03    -112.608E+06    -216.640E+06    -98.5275E+06     314.920E+03    -289.319E-03     578.745E-03    -289.426E-03     8.21234E-03    -289.425E-03     577.968E-03    -289.441E-03     9.03265E-03
            1411     1.34760E-03     94.2214E-03    -116.617E+06    -230.946E+06    -109.915E+06     215.943E+03    -289.361E-03     578.773E-03    -289.412E-03     5.54965E-03    -289.450E-03     577.947E-03    -289.458E-03     6.13637E-03
            1412     673.794E-06     94.2129E-03    -119.220E+06    -240.453E+06    -117.343E+06     118.593E+03    -289.407E-03     578.793E-03    -289.386E-03     3.02045E-03    -289.484E-03     577.934E-03    -289.451E-03     3.35029E-03
            1413     12.8082E-03     93.3022E-03    -5.33141E+06     81.4220E+06     98.2317E+06     510.605E+03    -288.497E-03     577.873E-03    -289.375E-03     32.5250E-03    -288.959E-03     578.320E-03    -288.994E-03     26.3458E-03
            1414     12.1338E-03     93.2451E-03    -10.9897E+06     74.6203E+06     97.8520E+06     501.749E+03    -288.590E-03     578.003E-03    -289.413E-03     38.6136E-03    -289.110E-03     578.465E-03    -289.016E-03     32.0208E-03
            1415     11.4594E-03     93.1861E-03    -16.9448E+06     61.0997E+06     89.7840E+06     418.645E+03    -288.700E-03     578.123E-03    -289.424E-03     38.8149E-03    -289.181E-03     578.501E-03    -289.039E-03     33.3243E-03
            1416     10.7851E-03     93.1242E-03    -23.1760E+06     58.3499E+06     80.3307E+06     476.991E+03    -288.752E-03     578.167E-03    -289.414E-03     38.9949E-03    -289.223E-03     578.529E-03    -289.063E-03     34.3147E-03
            1417     10.1107E-03     93.0616E-03    -29.6833E+06     53.0344E+06     70.4790E+06     640.450E+03    -288.790E-03     578.199E-03    -289.409E-03     38.0231E-03    -289.240E-03     578.528E-03    -289.091E-03     34.2873E-03
            1418     9.43644E-03     92.9999E-03    -36.3098E+06     40.6830E+06     57.7302E+06     742.802E+03    -288.836E-03     578.238E-03    -289.402E-03     36.3031E-03    -289.253E-03     578.503E-03    -289.119E-03     33.5010E-03
            1419     8.76212E-03     92.9401E-03    -43.1175E+06     37.9219E+06     48.4943E+06     824.726E+03    -288.810E-03     578.211E-03    -289.401E-03     34.1082E-03    -289.218E-03     578.460E-03    -289.151E-03     32.1806E-03
            1420     8.08783E-03     92.8832E-03    -50.1952E+06     12.3531E+06     37.0608E+06     894.360E+03    -288.853E-03     578.278E-03    -289.425E-03     31.6708E-03    -289.221E-03     578.405E-03    -289.185E-03     30.5379E-03
            1421     7.41359E-03     92.8294E-03    -57.4060E+06    -29.2193E+06     22.8819E+06     857.301E+03    -288.953E-03     578.412E-03    -289.459E-03     29.2105E-03    -289.261E-03     578.347E-03    -289.219E-03     28.7529E-03
            1422     6.73941E-03     92.7789E-03    -64.6835E+06    -62.7753E+06     9.13925E+06     808.625E+03    -289.020E-03     578.502E-03    -289.482E-03     26.7224E-03    -289.285E-03     578.288E-03    -289.251E-03     26.8154E-03
            1423     6.06528E-03     92.7322E-03    -72.0515E+06    -91.0729E+06    -4.85402E+06     754.528E+03    -289.068E-03     578.563E-03    -289.495E-03     24.1436E-03    -289.301E-03     578.231E-03    -289.283E-03     24.6707E-03
            1424     5.39119E-03     92.6895E-03    -79.4872E+06    -116.601E+06    -19.4944E+06     685.743E+03    -289.111E-03     578.611E-03    -289.500E-03     21.5359E-03    -289.317E-03     578.178E-03    -289.313E-03     22.3749E-03
            1425     4.71715E-03     92.6511E-03    -86.9071E+06    -139.886E+06    -34.9676E+06     611.483E+03    -289.151E-03     578.647E-03    -289.497E-03     18.9092E-03    -289.335E-03     578.128E-03    -289.343E-03     19.9421E-03
            1426     4.04316E-03     92.6172E-03    -94.1636E+06    -161.750E+06    -51.1780E+06     532.625E+03    -289.190E-03     578.677E-03    -289.486E-03     16.2590E-03    -289.353E-03     578.080E-03    -289.371E-03     17.3758E-03
            1427     3.36921E-03     92.5881E-03    -101.051E+06    -181.988E+06    -67.7255E+06     451.801E+03    -289.233E-03     578.702E-03    -289.469E-03     13.5938E-03    -289.376E-03     578.037E-03    -289.398E-03     14.6937E-03
            1428     2.69530E-03     92.5639E-03    -107.295E+06    -200.253E+06    -83.8551E+06     368.695E+03    -289.277E-03     578.725E-03    -289.448E-03     10.9008E-03    -289.401E-03     578.001E-03    -289.422E-03     11.8977E-03
            1429     2.02143E-03     92.5450E-03    -112.555E+06    -216.155E+06    -98.4727E+06     280.276E+03    -289.320E-03     578.747E-03    -289.427E-03     8.21553E-03    -289.426E-03     577.972E-03    -289.443E-03     9.03499E-03
            1430     1.34760E-03     92.5312E-03    -116.565E+06    -230.454E+06    -109.864E+06     189.752E+03    -289.362E-03     578.775E-03    -289.413E-03     5.55201E-03    -289.451E-03     577.951E-03    -289.459E-03     6.13807E-03
            1431     673.792E-06     92.5227E-03    -119.173E+06    -239.953E+06    -117.292E+06     103.837E+03    -289.408E-03     578.795E-03    -289.387E-03     3.02188E-03    -289.486E-03     577.938E-03    -289.453E-03     3.35136E-03
            1432     12.8082E-03     91.6120E-03    -4.86797E+06     81.1879E+06     98.3334E+06     211.953E+03    -288.503E-03     577.879E-03    -289.376E-03     32.5335E-03    -288.962E-03     578.324E-03    -288.995E-03     26.3499E-03
            1433     12.1338E-03     91.5549E-03    -10.4461E+06     74.8204E+06     97.9849E+06     265.253E+03    -288.589E-03     578.001E-03    -289.413E-03     38.6206E-03    -289.106E-03     578.463E-03    -289.016E-03     32.0247E-03
            1434     11.4594E-03     91.4959E-03    -16.6209E+06     61.1109E+06     89.7615E+06     296.324E+03    -288.699E-03     578.123E-03    -289.424E-03     38.8174E-03    -289.179E-03     578.500E-03    -289.039E-03     33.3253E-03
            1435     10.7851E-03     91.4340E-03    -22.9947E+06     58.1924E+06     80.2587E+06     330.030E+03    -288.755E-03     578.170E-03    -289.414E-03     39.0008E-03    -289.225E-03     578.532E-03    -289.064E-03     34.3184E-03
            1436     10.1107E-03     91.3714E-03    -29.4622E+06     52.6431E+06     70.3993E+06     430.265E+03    -288.794E-03     578.204E-03    -289.410E-03     38.0353E-03    -289.243E-03     578.531E-03    -289.091E-03     34.2960E-03
            1437     9.43643E-03     91.3097E-03    -36.0638E+06     40.5367E+06     57.7317E+06     616.626E+03    -288.837E-03     578.240E-03    -289.402E-03     36.3163E-03    -289.253E-03     578.504E-03    -289.120E-03     33.5121E-03
            1438     8.76212E-03     91.2499E-03    -42.9128E+06     37.7781E+06     48.4805E+06     754.298E+03    -288.810E-03     578.211E-03    -289.402E-03     34.1160E-03    -289.217E-03     578.459E-03    -289.152E-03     32.1876E-03
            1439     8.08782E-03     91.1930E-03    -50.0568E+06     12.5934E+06     37.0944E+06     774.526E+03    -288.851E-03     578.277E-03    -289.426E-03     31.6761E-03    -289.219E-03     578.404E-03    -289.186E-03     30.5415E-03
            1440     7.41358E-03     91.1392E-03    -57.3115E+06    -28.9527E+06     22.8946E+06     745.065E+03    -288.952E-03     578.412E-03    -289.460E-03     29.2160E-03    -289.260E-03     578.347E-03    -289.220E-03     28.7568E-03
            1441     6.73940E-03     91.0888E-03    -64.6225E+06    -62.4711E+06     9.13823E+06     708.660E+03    -289.020E-03     578.503E-03    -289.483E-03     26.7287E-03    -289.285E-03     578.290E-03    -289.253E-03     26.8200E-03
            1442     6.06527E-03     91.0420E-03    -72.0185E+06    -90.7325E+06    -4.86360E+06     655.071E+03    -289.068E-03     578.564E-03    -289.496E-03     24.1530E-03    -289.301E-03     578.233E-03    -289.284E-03     24.6778E-03
            1443     5.39118E-03     90.9993E-03    -79.4689E+06    -116.230E+06    -19.5051E+06     594.506E+03    -289.111E-03     578.612E-03    -289.501E-03     21.5467E-03    -289.317E-03     578.181E-03    -289.315E-03     22.3832E-03
            1444     4.71714E-03     90.9609E-03    -86.8956E+06    -139.504E+06    -34.9739E+06     526.257E+03    -289.151E-03     578.650E-03    -289.498E-03     18.9165E-03    -289.336E-03     578.132E-03    -289.345E-03     19.9475E-03
            1445     4.04315E-03     90.9270E-03    -94.1600E+06    -161.370E+06    -51.1823E+06     462.340E+03    -289.192E-03     578.680E-03    -289.488E-03     16.2638E-03    -289.356E-03     578.085E-03    -289.373E-03     17.3791E-03
            1446     3.36920E-03     90.8979E-03    -101.052E+06    -181.588E+06    -67.7283E+06     398.524E+03    -289.235E-03     578.706E-03    -289.471E-03     13.5988E-03    -289.379E-03     578.043E-03    -289.400E-03     14.6973E-03
            1447     2.69530E-03     90.8738E-03    -107.294E+06    -199.824E+06    -83.8530E+06     322.700E+03    -289.278E-03     578.728E-03    -289.450E-03     10.9045E-03    -289.403E-03     578.006E-03    -289.424E-03     11.9003E-03
            1448     2.02143E-03     90.8548E-03    -112.555E+06    -215.725E+06    -98.4688E+06     242.013E+03    -289.321E-03     578.750E-03    -289.429E-03     8.21884E-03    -289.428E-03     577.977E-03    -289.445E-03     9.03732E-03
            1449     1.34760E-03     90.8410E-03    -116.565E+06    -230.022E+06    -109.861E+06     165.327E+03    -289.363E-03     578.778E-03    -289.415E-03     5.55464E-03    -289.453E-03     577.956E-03    -289.461E-03     6.13999E-03
            1450     673.791E-06     90.8326E-03    -119.171E+06    -239.512E+06    -117.295E+06     90.5621E+03    -289.409E-03     578.798E-03    -289.389E-03     3.02317E-03    -289.488E-03     577.943E-03    -289.455E-03     3.35228E-03
            1451     12.8082E-03     89.9217E-03    -5.19095E+06     80.5462E+06     97.8537E+06    -188.566E+03    -288.499E-03     577.875E-03    -289.376E-03     32.5370E-03    -288.958E-03     578.318E-03    -288.996E-03     26.3480E-03
            1452     12.1338E-03     89.8646E-03    -10.9055E+06     74.3687E+06     97.6064E+06     194.547E+03    -288.590E-03     578.003E-03    -289.413E-03     38.6211E-03    -289.108E-03     578.464E-03    -289.017E-03     32.0250E-03
            1453     11.4594E-03     89.8057E-03    -16.9993E+06     61.4534E+06     89.6176E+06     231.846E+03    -288.698E-03     578.122E-03    -289.424E-03     38.8176E-03    -289.179E-03     578.501E-03    -289.040E-03     33.3252E-03
            1454     10.7851E-03     89.7438E-03    -23.2728E+06     58.0107E+06     79.9555E+06     153.568E+03    -288.753E-03     578.168E-03    -289.415E-03     39.0066E-03    -289.223E-03     578.529E-03    -289.065E-03     34.3214E-03
            1455     10.1107E-03     89.6812E-03    -29.8115E+06     52.3208E+06     70.0169E+06     283.783E+03    -288.792E-03     578.202E-03    -289.410E-03     38.0451E-03    -289.242E-03     578.529E-03    -289.092E-03     34.3032E-03
            1456     9.43641E-03     89.6195E-03    -36.4651E+06     40.1514E+06     57.3423E+06     428.561E+03    -288.837E-03     578.240E-03    -289.403E-03     36.3253E-03    -289.254E-03     578.504E-03    -289.121E-03     33.5178E-03
            1457     8.76210E-03     89.5597E-03    -43.2244E+06     37.6801E+06     48.2145E+06     560.989E+03    -288.809E-03     578.211E-03    -289.402E-03     34.1199E-03    -289.216E-03     578.459E-03    -289.153E-03     32.1887E-03
            1458     8.08780E-03     89.5028E-03    -50.2615E+06     12.7305E+06     36.9182E+06     626.081E+03    -288.848E-03     578.275E-03    -289.427E-03     31.6776E-03    -289.217E-03     578.404E-03    -289.188E-03     30.5411E-03
            1459     7.41356E-03     89.4490E-03    -57.4722E+06    -28.7371E+06     22.7566E+06     628.942E+03    -288.949E-03     578.411E-03    -289.461E-03     29.2178E-03    -289.258E-03     578.348E-03    -289.222E-03     28.7569E-03
            1460     6.73938E-03     89.3986E-03    -64.7508E+06    -62.2044E+06     9.02862E+06     595.119E+03    -289.019E-03     578.503E-03    -289.484E-03     26.7312E-03    -289.284E-03     578.292E-03    -289.255E-03     26.8208E-03
            1461     6.06525E-03     89.3518E-03    -72.1160E+06    -90.4344E+06    -4.95759E+06     550.392E+03    -289.068E-03     578.565E-03    -289.498E-03     24.1593E-03    -289.301E-03     578.236E-03    -289.287E-03     24.6819E-03
            1462     5.39117E-03     89.3092E-03    -79.5474E+06    -115.906E+06    -19.5949E+06     493.799E+03    -289.111E-03     578.614E-03    -289.503E-03     21.5564E-03    -289.318E-03     578.185E-03    -289.318E-03     22.3901E-03
            1463     4.71713E-03     89.2707E-03    -86.9624E+06    -139.188E+06     -35.056E+06     440.448E+03    -289.152E-03     578.653E-03    -289.501E-03     18.9248E-03    -289.338E-03     578.137E-03    -289.348E-03     19.9533E-03
            1464     4.04314E-03     89.2369E-03    -94.2194E+06    -161.063E+06    -51.2447E+06     393.718E+03    -289.194E-03     578.685E-03    -289.490E-03     16.2699E-03    -289.359E-03     578.091E-03    -289.376E-03     17.3832E-03
            1465     3.36919E-03     89.2078E-03    -101.106E+06    -181.229E+06    -67.7779E+06     336.603E+03    -289.237E-03     578.711E-03    -289.473E-03     13.6041E-03    -289.382E-03     578.050E-03    -289.403E-03     14.7009E-03
            1466     2.69529E-03     89.1836E-03    -107.344E+06    -199.448E+06    -83.9019E+06     266.522E+03    -289.281E-03     578.733E-03    -289.452E-03     10.9087E-03    -289.406E-03     578.013E-03    -289.427E-03     11.9031E-03
            1467     2.02142E-03     89.1646E-03    -112.601E+06    -215.365E+06    -98.5148E+06     200.798E+03    -289.324E-03     578.755E-03    -289.431E-03     8.22238E-03    -289.431E-03     577.984E-03    -289.448E-03     9.03981E-03
            1468     1.34759E-03     89.1509E-03    -116.612E+06    -229.655E+06    -109.906E+06     138.603E+03    -289.366E-03     578.783E-03    -289.417E-03     5.55723E-03    -289.456E-03     577.963E-03    -289.464E-03     6.14183E-03
            1469     673.789E-06     89.1424E-03    -119.220E+06    -239.132E+06    -117.339E+06     77.5750E+03    -289.412E-03     578.803E-03    -289.391E-03     3.02462E-03    -289.491E-03     577.950E-03    -289.458E-03     3.35333E-03
            1470     12.8082E-03     88.2315E-03    -5.52409E+06     79.8507E+06     97.4532E+06     101.141E+03    -288.496E-03     577.872E-03    -289.376E-03     32.5189E-03    -288.955E-03     578.312E-03    -288.996E-03     26.3356E-03
            1471     12.1338E-03     88.1744E-03    -11.3572E+06     74.2140E+06     97.3658E+06     69.0615E+03    -288.585E-03     577.999E-03    -289.414E-03     38.6082E-03    -289.105E-03     578.460E-03    -289.018E-03     32.0111E-03
            1472     11.4594E-03     88.1154E-03    -17.4258E+06     61.9730E+06     89.4991E+06    -113.274E+03    -288.690E-03     578.114E-03    -289.424E-03     38.8169E-03    -289.174E-03     578.497E-03    -289.042E-03     33.3195E-03
            1473     10.7851E-03     88.0536E-03    -23.7021E+06     57.4801E+06     79.5059E+06    -49.8216E+03    -288.751E-03     578.167E-03    -289.415E-03     39.0112E-03    -289.222E-03     578.527E-03    -289.067E-03     34.3226E-03
            1474     10.1107E-03     87.9910E-03    -30.1484E+06     52.1533E+06     69.6920E+06     103.671E+03    -288.791E-03     578.201E-03    -289.410E-03     38.0490E-03    -289.241E-03     578.528E-03    -289.094E-03     34.3036E-03
            1475     9.43640E-03     87.9293E-03    -36.6813E+06     39.9197E+06     57.0408E+06     134.223E+03    -288.836E-03     578.240E-03    -289.403E-03     36.3290E-03    -289.254E-03     578.503E-03    -289.123E-03     33.5163E-03
            1476     8.76209E-03     87.8695E-03    -43.4216E+06     37.4069E+06     47.9263E+06      233.81E+03    -288.807E-03     578.210E-03    -289.403E-03     34.1229E-03    -289.215E-03     578.458E-03    -289.155E-03     32.1861E-03
            1477     8.08778E-03     87.8126E-03    -50.4633E+06     12.6370E+06     36.6869E+06     370.782E+03    -288.846E-03     578.274E-03    -289.428E-03     31.6791E-03    -289.216E-03     578.403E-03    -289.190E-03     30.5383E-03
            1478     7.41355E-03     87.7588E-03    -57.6416E+06    -28.5849E+06     22.5947E+06     422.689E+03    -288.947E-03     578.409E-03    -289.463E-03     29.2209E-03    -289.256E-03     578.348E-03    -289.225E-03     28.7562E-03
            1479     6.73937E-03     87.7084E-03    -64.8923E+06    -62.0259E+06     8.88234E+06     413.160E+03    -289.017E-03     578.503E-03    -289.486E-03     26.7358E-03    -289.283E-03     578.293E-03    -289.258E-03     26.8219E-03
            1480     6.06523E-03     87.6617E-03    -72.2425E+06    -90.2196E+06    -5.09301E+06     396.697E+03    -289.067E-03     578.568E-03    -289.500E-03     24.1660E-03    -289.302E-03     578.240E-03    -289.290E-03     24.6854E-03
            1481     5.39115E-03     87.6190E-03    -79.6639E+06    -115.656E+06    -19.7168E+06     369.327E+03    -289.112E-03     578.618E-03    -289.506E-03     21.5648E-03    -289.320E-03     578.190E-03    -289.321E-03     22.3955E-03
            1482     4.71711E-03     87.5805E-03    -87.0753E+06    -138.967E+06    -35.1703E+06     340.898E+03    -289.154E-03     578.657E-03    -289.503E-03     18.9322E-03    -289.340E-03     578.143E-03    -289.352E-03     19.9581E-03
            1483     4.04312E-03     87.5467E-03    -94.3272E+06    -160.799E+06    -51.3587E+06     307.795E+03    -289.197E-03     578.690E-03    -289.493E-03     16.2748E-03    -289.362E-03     578.099E-03    -289.380E-03     17.3860E-03
            1484     3.36918E-03     87.5176E-03    -101.204E+06    -180.913E+06    -67.8820E+06     250.646E+03    -289.240E-03     578.717E-03    -289.476E-03     13.6074E-03    -289.386E-03     578.057E-03    -289.407E-03     14.7024E-03
            1485     2.69528E-03     87.4934E-03    -107.431E+06    -199.162E+06    -83.9919E+06     196.309E+03    -289.284E-03     578.739E-03    -289.455E-03     10.9117E-03    -289.410E-03     578.021E-03    -289.431E-03     11.9045E-03
            1486     2.02141E-03     87.4745E-03    -112.685E+06    -215.082E+06    -98.5975E+06     153.075E+03    -289.327E-03     578.761E-03    -289.434E-03     8.22518E-03    -289.435E-03     577.992E-03    -289.452E-03     9.04138E-03
            1487     1.34759E-03     87.4607E-03    -116.692E+06    -229.358E+06    -109.985E+06     107.462E+03    -289.369E-03     578.789E-03    -289.420E-03     5.55957E-03    -289.460E-03     577.971E-03    -289.468E-03     6.14330E-03
            1488     673.786E-06     87.4522E-03    -119.295E+06    -238.820E+06    -117.419E+06     59.8983E+03    -289.415E-03     578.809E-03    -289.394E-03     3.02625E-03    -289.495E-03     577.958E-03    -289.462E-03     3.35443E-03
            1489     12.8082E-03     86.5413E-03    -5.17369E+06     79.9719E+06     97.7225E+06     390.215E+03    -288.499E-03     577.876E-03    -289.377E-03     32.5119E-03    -288.957E-03     578.316E-03    -288.997E-03     26.3343E-03
            1490     12.1338E-03     86.4842E-03    -10.8769E+06     75.1425E+06     97.7723E+06     35.7084E+03    -288.578E-03     577.992E-03    -289.414E-03     38.6029E-03    -289.098E-03     578.457E-03    -289.018E-03     32.0064E-03
            1491     11.4594E-03     86.4253E-03    -17.0727E+06     61.9595E+06     89.5539E+06    -156.632E+03    -288.686E-03     578.111E-03    -289.425E-03     38.8062E-03    -289.169E-03     578.493E-03    -289.042E-03     33.3090E-03
            1492     10.7851E-03     86.3634E-03    -23.4491E+06     57.2004E+06     79.4322E+06    -121.284E+03    -288.751E-03     578.167E-03    -289.416E-03     39.0028E-03    -289.221E-03     578.526E-03    -289.068E-03     34.3133E-03
            1493     10.1107E-03     86.3008E-03    -29.9596E+06     52.0179E+06     69.6252E+06    -125.036E+03    -288.790E-03     578.202E-03    -289.411E-03     38.0504E-03    -289.240E-03     578.527E-03    -289.095E-03     34.3011E-03
            1494     9.43638E-03     86.2391E-03    -36.5865E+06     39.7918E+06     56.9226E+06    -61.8558E+03    -288.834E-03     578.239E-03    -289.404E-03     36.3285E-03    -289.251E-03     578.501E-03    -289.124E-03     33.5126E-03
            1495     8.76207E-03     86.1793E-03    -43.3904E+06     37.0559E+06     47.7501E+06     28.6216E+03    -288.805E-03     578.210E-03    -289.405E-03     34.1197E-03    -289.212E-03     578.456E-03    -289.157E-03     32.1798E-03
            1496     8.08777E-03     86.1224E-03    -50.4600E+06     12.3728E+06     36.5284E+06     158.028E+03    -288.843E-03     578.273E-03    -289.430E-03     31.6775E-03    -289.213E-03     578.401E-03    -289.192E-03     30.5332E-03
            1497     7.41353E-03     86.0687E-03    -57.6742E+06    -28.5362E+06     22.4777E+06     236.779E+03    -288.943E-03     578.408E-03    -289.465E-03     29.2227E-03    -289.253E-03     578.347E-03    -289.227E-03     28.7544E-03
            1498     6.73934E-03     86.0182E-03    -64.9556E+06    -61.9426E+06     8.76331E+06     248.893E+03    -289.015E-03     578.503E-03    -289.489E-03     26.7412E-03    -289.282E-03     578.294E-03    -289.261E-03     26.8236E-03
            1499     6.06521E-03     85.9715E-03    -72.3227E+06    -90.1124E+06    -5.21242E+06     252.051E+03    -289.068E-03     578.571E-03    -289.503E-03     24.1732E-03    -289.302E-03     578.244E-03    -289.294E-03     24.6891E-03
            1500     5.39113E-03     85.9288E-03    -79.7527E+06    -115.511E+06    -19.8352E+06     249.259E+03    -289.113E-03     578.622E-03    -289.509E-03     21.5717E-03    -289.322E-03     578.195E-03    -289.325E-03     22.3995E-03
            1501     4.71709E-03     85.8904E-03    -87.1645E+06    -138.820E+06    -35.2717E+06     238.833E+03    -289.156E-03     578.663E-03    -289.507E-03     18.9392E-03    -289.342E-03     578.149E-03    -289.355E-03     19.9623E-03
            1502     4.04311E-03     85.8565E-03    -94.4119E+06    -160.574E+06    -51.4563E+06     208.461E+03    -289.200E-03     578.696E-03    -289.497E-03     16.2796E-03    -289.365E-03     578.106E-03    -289.384E-03     17.3884E-03
            1503     3.36916E-03     85.8274E-03    -101.287E+06    -180.669E+06    -67.9874E+06     162.376E+03    -289.243E-03     578.723E-03    -289.480E-03     13.6093E-03    -289.389E-03     578.065E-03    -289.411E-03     14.7026E-03
            1504     2.69526E-03     85.8032E-03    -107.520E+06    -198.979E+06    -84.0913E+06     127.173E+03    -289.287E-03     578.746E-03    -289.459E-03     10.9145E-03    -289.414E-03     578.029E-03    -289.435E-03     11.9057E-03
            1505     2.02141E-03     85.7843E-03    -112.775E+06    -214.882E+06    -98.6888E+06     102.530E+03    -289.331E-03     578.768E-03    -289.438E-03     8.22803E-03    -289.440E-03     578.000E-03    -289.456E-03     9.04297E-03
            1506     1.34758E-03     85.7705E-03    -116.784E+06    -229.141E+06    -110.074E+06     72.4601E+03    -289.373E-03     578.796E-03    -289.424E-03     5.56153E-03    -289.465E-03     577.980E-03    -289.473E-03     6.14438E-03
            1507     673.783E-06     85.7620E-03    -119.391E+06    -238.589E+06    -117.509E+06     40.1818E+03    -289.419E-03     578.816E-03    -289.398E-03     3.02742E-03    -289.499E-03     577.967E-03    -289.466E-03     3.35508E-03
            1508     12.8082E-03     84.8511E-03    -4.95189E+06     80.2502E+06     97.9235E+06     103.544E+03    -288.503E-03     577.881E-03    -289.378E-03     32.5223E-03    -288.961E-03     578.322E-03    -288.997E-03     26.3412E-03
            1509     12.1338E-03     84.7940E-03    -10.5957E+06     75.8158E+06     98.0443E+06     95.6367E+03    -288.580E-03     577.995E-03    -289.415E-03     38.6045E-03    -289.099E-03     578.462E-03    -289.019E-03     32.0098E-03
            1510     11.4594E-03     84.7351E-03    -16.8059E+06     61.7879E+06     89.6197E+06     93.6057E+03    -288.690E-03     578.116E-03    -289.426E-03     38.8020E-03    -289.171E-03     578.497E-03    -289.043E-03     33.3091E-03
            1511     10.7851E-03     84.6733E-03    -23.2652E+06     57.5305E+06     79.5680E+06     8.94549E+03    -288.749E-03     578.165E-03    -289.416E-03     39.0034E-03    -289.218E-03     578.525E-03    -289.068E-03     34.3156E-03
            1512     10.1107E-03     84.6106E-03    -29.8635E+06     52.0335E+06     69.6056E+06    -129.225E+03    -288.787E-03     578.199E-03    -289.412E-03     38.0548E-03    -289.236E-03     578.525E-03    -289.096E-03     34.3043E-03
            1513     9.43637E-03     84.5489E-03    -36.5108E+06     39.5909E+06     56.8279E+06    -137.485E+03    -288.833E-03     578.238E-03    -289.405E-03     36.3284E-03    -289.248E-03     578.500E-03    -289.126E-03     33.5108E-03
            1514     8.76206E-03     84.4891E-03    -43.3276E+06     36.7485E+06     47.6248E+06    -36.4601E+03    -288.803E-03     578.209E-03    -289.406E-03     34.1173E-03    -289.209E-03     578.453E-03    -289.158E-03     32.1762E-03
            1515     8.08775E-03     84.4322E-03    -50.4476E+06     12.0997E+06     36.3942E+06     73.8940E+03    -288.840E-03     578.272E-03    -289.432E-03     31.6758E-03    -289.209E-03     578.399E-03    -289.194E-03     30.5300E-03
            1516     7.41351E-03     84.3785E-03    -57.6900E+06    -28.5491E+06     22.3865E+06     134.765E+03    -288.940E-03     578.407E-03    -289.467E-03     29.2229E-03    -289.250E-03     578.346E-03    -289.230E-03     28.7526E-03
            1517     6.73932E-03     84.3280E-03    -64.9842E+06    -61.9033E+06     8.67613E+06     146.025E+03    -289.013E-03     578.504E-03    -289.491E-03     26.7461E-03    -289.280E-03     578.296E-03    -289.264E-03     26.8259E-03
            1518     6.06519E-03     84.2813E-03    -72.3633E+06    -90.0663E+06    -5.29511E+06     147.641E+03    -289.068E-03     578.574E-03    -289.506E-03     24.1806E-03    -289.303E-03     578.248E-03    -289.297E-03     24.6936E-03
            1519     5.39111E-03     84.2386E-03    -79.8011E+06    -115.457E+06    -19.9231E+06     155.339E+03    -289.115E-03     578.628E-03    -289.512E-03     21.5780E-03    -289.324E-03     578.201E-03    -289.329E-03     22.4031E-03
            1520     4.71707E-03     84.2002E-03    -87.2174E+06    -138.696E+06    -35.3708E+06     147.766E+03    -289.158E-03     578.668E-03    -289.510E-03     18.9460E-03    -289.345E-03     578.156E-03    -289.359E-03     19.9665E-03
            1521     4.04309E-03     84.1663E-03    -94.4682E+06    -160.412E+06    -51.5520E+06     119.294E+03    -289.202E-03     578.702E-03    -289.500E-03     16.2855E-03    -289.368E-03     578.113E-03    -289.389E-03     17.3920E-03
            1522     3.36915E-03     84.1372E-03    -101.348E+06    -180.526E+06    -68.0763E+06     97.2266E+03    -289.246E-03     578.730E-03    -289.484E-03     13.6127E-03    -289.392E-03     578.073E-03    -289.416E-03     14.7043E-03
            1523     2.69525E-03     84.1130E-03    -107.584E+06    -198.858E+06    -84.1784E+06     80.5074E+03    -289.291E-03     578.754E-03    -289.463E-03     10.9181E-03    -289.418E-03     578.038E-03    -289.440E-03     11.9080E-03
            1524     2.02140E-03     84.0940E-03    -112.844E+06    -214.758E+06    -98.7723E+06     64.2513E+03    -289.335E-03     578.777E-03    -289.442E-03     8.23118E-03    -289.444E-03     578.010E-03    -289.461E-03     9.04505E-03
            1525     1.34757E-03     84.0803E-03    -116.856E+06    -228.993E+06    -110.156E+06     48.2755E+03    -289.377E-03     578.805E-03    -289.428E-03     5.56381E-03    -289.469E-03     577.990E-03    -289.478E-03     6.14599E-03
            1526     673.780E-06     84.0718E-03    -119.464E+06    -238.431E+06    -117.591E+06     27.9619E+03    -289.423E-03     578.825E-03    -289.402E-03     3.02885E-03    -289.504E-03     577.977E-03    -289.471E-03     3.35616E-03
            1527     12.8081E-03     83.1609E-03    -5.22833E+06     80.1760E+06     97.7055E+06    -170.438E+03    -288.504E-03     577.882E-03    -289.378E-03     32.5168E-03    -288.962E-03     578.323E-03    -288.999E-03     26.3324E-03
            1528     12.1338E-03     83.1038E-03    -10.8900E+06     75.5735E+06     97.8437E+06    -54.9401E+03    -288.583E-03     577.999E-03    -289.416E-03     38.6021E-03    -289.104E-03     578.465E-03    -289.020E-03     32.0058E-03
            1529     11.4594E-03     83.0448E-03    -16.9145E+06     61.8136E+06     89.5648E+06     35.6068E+03    -288.690E-03     578.117E-03    -289.427E-03     38.8038E-03    -289.172E-03     578.498E-03    -289.044E-03     33.3104E-03
            1530     10.7850E-03     82.9831E-03    -23.1325E+06     57.7516E+06     79.6577E+06     31.0748E+03    -288.748E-03     578.166E-03    -289.418E-03     39.0109E-03    -289.217E-03     578.526E-03    -289.070E-03     34.3228E-03
            1531     10.1107E-03     82.9204E-03    -29.6500E+06     52.1712E+06     69.6895E+06     30.1886E+03    -288.786E-03     578.200E-03    -289.413E-03     38.0647E-03    -289.235E-03     578.526E-03    -289.097E-03     34.3153E-03
            1532     9.43636E-03     82.8587E-03    -36.4079E+06     39.5373E+06     56.7965E+06     10.5475E+03    -288.831E-03     578.237E-03    -289.407E-03     36.3322E-03    -289.246E-03     578.499E-03    -289.127E-03     33.5161E-03
            1533     8.76204E-03     82.7990E-03    -43.3289E+06     36.5422E+06     47.5229E+06     17.3659E+03    -288.801E-03     578.209E-03    -289.408E-03     34.1191E-03    -289.207E-03     578.452E-03    -289.160E-03     32.1783E-03
            1534     8.08773E-03     82.7421E-03    -50.4580E+06     11.9426E+06     36.3042E+06     61.3522E+03    -288.839E-03     578.272E-03    -289.434E-03     31.6787E-03    -289.207E-03     578.399E-03    -289.196E-03     30.5319E-03
            1535     7.41349E-03     82.6883E-03    -57.7062E+06    -28.5475E+06     22.3214E+06     80.4537E+03    -288.938E-03     578.407E-03    -289.469E-03     29.2273E-03    -289.248E-03     578.346E-03    -289.233E-03     28.7553E-03
            1536     6.73930E-03     82.6379E-03    -65.0111E+06    -61.8804E+06     8.60364E+06     80.0864E+03    -289.012E-03     578.506E-03    -289.494E-03     26.7556E-03    -289.279E-03     578.297E-03    -289.267E-03     26.8329E-03
            1537     6.06517E-03     82.5911E-03    -72.3986E+06    -90.0410E+06    -5.37363E+06     82.7207E+03    -289.069E-03     578.578E-03    -289.509E-03     24.1915E-03    -289.303E-03     578.252E-03    -289.301E-03     24.7018E-03
            1538     5.39109E-03     82.5484E-03    -79.8439E+06    -115.436E+06    -20.0011E+06     83.8085E+03    -289.117E-03     578.633E-03    -289.516E-03     21.5867E-03    -289.326E-03     578.207E-03    -289.333E-03     22.4094E-03
            1539     4.71706E-03     82.5099E-03    -87.2633E+06    -138.609E+06    -35.4637E+06     81.0478E+03    -289.160E-03     578.674E-03    -289.514E-03     18.9541E-03    -289.347E-03     578.162E-03    -289.364E-03     19.9725E-03
            1540     4.04307E-03     82.4761E-03    -94.5206E+06    -160.309E+06    -51.6625E+06     67.5530E+03    -289.203E-03     578.708E-03    -289.504E-03     16.2923E-03    -289.370E-03     578.119E-03    -289.393E-03     17.3970E-03
            1541     3.36913E-03     82.4469E-03    -101.404E+06    -180.460E+06    -68.1746E+06     54.2454E+03    -289.249E-03     578.737E-03    -289.488E-03     13.6169E-03    -289.396E-03     578.081E-03    -289.420E-03     14.7072E-03
            1542     2.69524E-03     82.4228E-03    -107.640E+06    -198.784E+06    -84.2556E+06     48.7760E+03    -289.295E-03     578.763E-03    -289.468E-03     10.9221E-03    -289.422E-03     578.047E-03    -289.445E-03     11.9108E-03
            1543     2.02138E-03     82.4038E-03    -112.896E+06    -214.683E+06    -98.8442E+06     43.3522E+03    -289.339E-03     578.787E-03    -289.447E-03     8.23458E-03    -289.449E-03     578.020E-03    -289.467E-03     9.04754E-03
            1544     1.34757E-03     82.3900E-03    -116.904E+06    -228.897E+06    -110.222E+06     34.7532E+03    -289.382E-03     578.816E-03    -289.434E-03     5.56616E-03    -289.475E-03     578.000E-03    -289.483E-03     6.14775E-03
            1545     673.776E-06     82.3816E-03    -119.506E+06    -238.315E+06    -117.635E+06     21.9664E+03    -289.429E-03     578.836E-03    -289.408E-03     3.03010E-03    -289.510E-03     577.989E-03    -289.477E-03     3.35712E-03
            1546     12.8081E-03     81.4706E-03    -5.25265E+06     80.2577E+06     97.6541E+06    -98.7445E+03    -288.501E-03     577.880E-03    -289.379E-03     32.5019E-03    -288.960E-03     578.322E-03    -289.000E-03     26.3200E-03
            1547     12.1337E-03     81.4136E-03    -11.0318E+06     75.4060E+06     97.6787E+06    -192.673E+03    -288.580E-03     577.997E-03    -289.417E-03     38.5924E-03    -289.101E-03     578.462E-03    -289.022E-03     31.9952E-03
            1548     11.4594E-03     81.3546E-03    -17.1754E+06     61.7782E+06     89.4038E+06    -226.896E+03    -288.688E-03     578.115E-03    -289.428E-03     38.7998E-03    -289.170E-03     578.497E-03    -289.045E-03     33.3030E-03
            1549     10.7850E-03     81.2929E-03    -23.5094E+06     57.4963E+06     79.4050E+06    -131.322E+03    -288.745E-03     578.164E-03    -289.419E-03     39.0113E-03    -289.215E-03     578.525E-03    -289.071E-03     34.3209E-03
            1550     10.1107E-03     81.2302E-03    -30.0148E+06     52.0160E+06     69.4775E+06     31.7962E+03    -288.783E-03     578.198E-03    -289.415E-03     38.0692E-03    -289.233E-03     578.524E-03    -289.099E-03     34.3192E-03
            1551     9.43634E-03     81.1685E-03    -36.5993E+06     39.6565E+06     56.7229E+06     77.8363E+03    -288.827E-03     578.236E-03    -289.409E-03     36.3318E-03    -289.243E-03     578.498E-03    -289.129E-03     33.5166E-03
            1552     8.76202E-03     81.1088E-03    -43.3792E+06     36.5247E+06     47.4670E+06     40.4591E+03    -288.799E-03     578.209E-03    -289.410E-03     34.1187E-03    -289.205E-03     578.453E-03    -289.163E-03     32.1780E-03
            1553     8.08771E-03     81.0519E-03    -50.4772E+06     11.8715E+06     36.2400E+06     41.2996E+03    -288.837E-03     578.274E-03    -289.436E-03     31.6821E-03    -289.206E-03     578.400E-03    -289.199E-03     30.5342E-03
            1554     7.41347E-03     80.9981E-03    -57.7179E+06    -28.5119E+06     22.2765E+06     48.4803E+03    -288.937E-03     578.409E-03    -289.472E-03     29.2334E-03    -289.247E-03     578.348E-03    -289.236E-03     28.7598E-03
            1555     6.73928E-03     80.9477E-03    -65.0259E+06    -61.8783E+06     8.54726E+06     46.7223E+03    -289.012E-03     578.509E-03    -289.497E-03     26.7673E-03    -289.279E-03     578.301E-03    -289.271E-03     26.8421E-03
            1556     6.06515E-03     80.9009E-03    -72.4192E+06    -90.0058E+06    -5.43310E+06     44.0650E+03    -289.069E-03     578.582E-03    -289.513E-03     24.2045E-03    -289.304E-03     578.256E-03    -289.304E-03     24.7121E-03
            1557     5.39107E-03     80.8582E-03    -79.8677E+06    -115.415E+06    -20.0605E+06     36.1621E+03    -289.118E-03     578.638E-03    -289.520E-03     21.5970E-03    -289.327E-03     578.212E-03    -289.337E-03     22.4174E-03
            1558     4.71703E-03     80.8197E-03    -87.2934E+06    -138.585E+06    -35.5138E+06     38.3504E+03    -289.162E-03     578.680E-03    -289.518E-03     18.9629E-03    -289.349E-03     578.168E-03    -289.368E-03     19.9792E-03
            1559     4.04305E-03     80.7858E-03    -94.5505E+06    -160.244E+06    -51.7098E+06     36.3585E+03    -289.206E-03     578.715E-03    -289.509E-03     16.2999E-03    -289.373E-03     578.127E-03    -289.398E-03     17.4029E-03
            1560     3.36911E-03     80.7567E-03    -101.431E+06    -180.422E+06    -68.2351E+06     28.3530E+03    -289.252E-03     578.745E-03    -289.493E-03     13.6226E-03    -289.399E-03     578.090E-03    -289.426E-03     14.7115E-03
            1561     2.69522E-03     80.7326E-03    -107.664E+06    -198.761E+06    -84.3129E+06     30.9294E+03    -289.299E-03     578.773E-03    -289.474E-03     10.9267E-03    -289.427E-03     578.057E-03    -289.451E-03     11.9143E-03
            1562     2.02137E-03     80.7136E-03    -112.923E+06    -214.627E+06    -98.8742E+06     32.6693E+03    -289.345E-03     578.798E-03    -289.453E-03     8.23810E-03    -289.454E-03     578.031E-03    -289.472E-03     9.05023E-03
            1563     1.34756E-03     80.6998E-03    -116.934E+06    -228.819E+06    -110.237E+06     18.7874E+03    -289.388E-03     578.827E-03    -289.439E-03     5.56862E-03    -289.481E-03     578.012E-03    -289.489E-03     6.14948E-03
            1564     673.772E-06     80.6913E-03    -119.538E+06    -238.250E+06    -117.661E+06     3.64226E+03    -289.434E-03     578.848E-03    -289.414E-03     3.03144E-03    -289.516E-03     578.000E-03    -289.483E-03     3.35792E-03
            1565     12.8081E-03     79.7804E-03    -5.17756E+06     80.4233E+06     97.6944E+06    -32.5460E+03    -288.500E-03     577.880E-03    -289.380E-03     32.4943E-03    -288.958E-03     578.322E-03    -289.000E-03     26.3150E-03
            1566     12.1337E-03     79.7234E-03    -10.9124E+06     75.6390E+06     97.7372E+06    -102.554E+03    -288.577E-03     577.994E-03    -289.417E-03     38.5821E-03    -289.097E-03     578.461E-03    -289.023E-03     31.9877E-03
            1567     11.4593E-03     79.6644E-03    -17.1081E+06     61.8959E+06     89.3908E+06    -223.067E+03    -288.684E-03     578.112E-03    -289.429E-03     38.7927E-03    -289.166E-03     578.494E-03    -289.047E-03     33.2969E-03
            1568     10.7850E-03     79.6027E-03    -23.4435E+06     57.0121E+06     79.2641E+06    -200.607E+03    -288.745E-03     578.166E-03    -289.420E-03     39.0107E-03    -289.214E-03     578.524E-03    -289.073E-03     34.3192E-03
            1569     10.1106E-03     79.5401E-03    -29.9307E+06     51.6810E+06     69.4102E+06    -51.6256E+03    -288.782E-03     578.198E-03    -289.417E-03     38.0721E-03    -289.231E-03     578.523E-03    -289.101E-03     34.3200E-03
            1570     9.43632E-03     79.4783E-03    -36.5723E+06     39.7767E+06     56.7385E+06    -8.54692E+03    -288.822E-03     578.233E-03    -289.411E-03     36.3331E-03    -289.238E-03     578.496E-03    -289.132E-03     33.5159E-03
            1571     8.76200E-03     79.4186E-03    -43.3977E+06     36.4971E+06     47.4240E+06    -6.85701E+03    -288.795E-03     578.208E-03    -289.412E-03     34.1215E-03    -289.201E-03     578.451E-03    -289.165E-03     32.1792E-03
            1572     8.08769E-03     79.3617E-03    -50.4910E+06     11.8500E+06     36.1903E+06     15.9386E+03    -288.835E-03     578.275E-03    -289.439E-03     31.6882E-03    -289.204E-03     578.401E-03    -289.202E-03     30.5388E-03
            1573     7.41344E-03     79.3080E-03    -57.7326E+06    -28.5039E+06     22.2359E+06     20.8160E+03    -288.937E-03     578.413E-03    -289.475E-03     29.2427E-03    -289.247E-03     578.352E-03    -289.239E-03     28.7672E-03
            1574     6.73925E-03     79.2575E-03    -65.0381E+06    -61.8716E+06     8.51037E+06     23.8847E+03    -289.013E-03     578.514E-03    -289.501E-03     26.7817E-03    -289.280E-03     578.306E-03    -289.274E-03     26.8541E-03
            1575     6.06512E-03     79.2107E-03    -72.4291E+06    -89.9735E+06    -5.46927E+06     20.3319E+03    -289.071E-03     578.587E-03    -289.517E-03     24.2192E-03    -289.306E-03     578.262E-03    -289.309E-03     24.7244E-03
            1576     5.39104E-03     79.1680E-03    -79.8860E+06    -115.402E+06    -20.0881E+06     19.2794E+03    -289.120E-03     578.644E-03    -289.524E-03     21.6094E-03    -289.329E-03     578.218E-03    -289.341E-03     22.4277E-03
            1577     4.71701E-03     79.1295E-03    -87.3218E+06    -138.569E+06    -35.5391E+06     15.5708E+03    -289.164E-03     578.687E-03    -289.523E-03     18.9735E-03    -289.351E-03     578.175E-03    -289.373E-03     19.9878E-03
            1578     4.04303E-03     79.0956E-03    -94.5873E+06    -160.211E+06    -51.7389E+06     9.03062E+03    -289.209E-03     578.723E-03    -289.514E-03     16.3096E-03    -289.376E-03     578.135E-03    -289.403E-03     17.4108E-03
            1579     3.36909E-03     79.0664E-03    -101.475E+06    -180.420E+06    -68.2647E+06     13.5842E+03    -289.256E-03     578.755E-03    -289.499E-03     13.6307E-03    -289.403E-03     578.099E-03    -289.431E-03     14.7181E-03
            1580     2.69521E-03     79.0423E-03    -107.720E+06    -198.781E+06    -84.3497E+06     33.5293E+03    -289.304E-03     578.784E-03    -289.479E-03     10.9323E-03    -289.432E-03     578.068E-03    -289.457E-03     11.9190E-03
            1581     2.02136E-03     79.0233E-03    -112.986E+06    -214.539E+06    -98.9486E+06     33.4466E+03    -289.350E-03     578.808E-03    -289.459E-03     8.24221E-03    -289.460E-03     578.043E-03    -289.479E-03     9.05374E-03
            1582     1.34755E-03     79.0095E-03    -116.994E+06    -228.739E+06    -110.316E+06    -3.33083E+03    -289.393E-03     578.839E-03    -289.445E-03     5.57210E-03    -289.487E-03     578.024E-03    -289.496E-03     6.15217E-03
            1583     673.768E-06     79.0010E-03    -119.594E+06    -238.271E+06    -117.718E+06    -13.2506E+03    -289.441E-03     578.860E-03    -289.420E-03     3.03362E-03    -289.522E-03     578.013E-03    -289.489E-03     3.35957E-03
            1584     12.8081E-03     78.0902E-03    -5.20444E+06     80.5476E+06     97.6792E+06     -66.107E+03    -288.498E-03     577.878E-03    -289.381E-03     32.4815E-03    -288.956E-03     578.321E-03    -289.001E-03     26.3032E-03
            1585     12.1337E-03     78.0332E-03    -10.9029E+06     75.8235E+06     97.7569E+06    -128.007E+03    -288.574E-03     577.992E-03    -289.418E-03     38.5715E-03    -289.094E-03     578.460E-03    -289.024E-03     31.9781E-03
            1586     11.4593E-03     77.9743E-03    -17.0257E+06     62.0578E+06     89.4265E+06    -160.774E+03    -288.681E-03     578.111E-03    -289.430E-03     38.7828E-03    -289.163E-03     578.493E-03    -289.048E-03     33.2886E-03
            1587     10.7850E-03     77.9125E-03    -23.4087E+06     56.7455E+06     79.1855E+06    -161.544E+03    -288.743E-03     578.165E-03    -289.422E-03     39.0046E-03    -289.211E-03     578.521E-03    -289.074E-03     34.3138E-03
            1588     10.1106E-03     77.8499E-03    -29.9608E+06     51.3877E+06     69.3165E+06    -100.823E+03    -288.778E-03     578.196E-03    -289.418E-03     38.0754E-03    -289.226E-03     578.520E-03    -289.103E-03     34.3222E-03
            1589     9.43629E-03     77.7881E-03    -36.5848E+06     39.7839E+06     56.7194E+06    -33.5785E+03    -288.816E-03     578.229E-03    -289.413E-03     36.3369E-03    -289.232E-03     578.492E-03    -289.134E-03     33.5188E-03
            1590     8.76197E-03     77.7284E-03    -43.4011E+06     36.4456E+06     47.3846E+06    -18.4857E+03    -288.790E-03     578.205E-03    -289.415E-03     34.1250E-03    -289.196E-03     578.449E-03    -289.168E-03     32.1819E-03
            1591     8.08766E-03     77.6715E-03    -50.5107E+06     11.8075E+06     36.1409E+06    -2.46948E+03    -288.832E-03     578.275E-03    -289.443E-03     31.6957E-03    -289.201E-03     578.401E-03    -289.206E-03     30.5448E-03
            1592     7.41341E-03     77.6178E-03    -57.7563E+06    -28.4925E+06     22.1913E+06     8.71563E+03    -288.937E-03     578.416E-03    -289.479E-03     29.2548E-03    -289.247E-03     578.356E-03    -289.243E-03     28.7773E-03
            1593     6.73922E-03     77.5673E-03    -65.0686E+06    -61.8669E+06     8.46991E+06     2.71650E+03    -289.015E-03     578.520E-03    -289.505E-03     26.7984E-03    -289.282E-03     578.312E-03    -289.279E-03     26.8682E-03
            1594     6.06509E-03     77.5205E-03    -72.4672E+06      -89.98E+06    -5.50982E+06     11.4435E+03    -289.072E-03     578.594E-03    -289.521E-03     24.2369E-03    -289.308E-03     578.268E-03    -289.313E-03     24.7396E-03
            1595     5.39101E-03     77.4777E-03    -79.9245E+06    -115.374E+06    -20.1345E+06     11.1306E+03    -289.122E-03     578.651E-03    -289.529E-03     21.6263E-03    -289.331E-03     578.225E-03    -289.347E-03     22.4422E-03
            1596     4.71698E-03     77.4392E-03    -87.3555E+06    -138.540E+06    -35.5813E+06    -2.28104E+03    -289.167E-03     578.695E-03    -289.528E-03     18.9882E-03    -289.354E-03     578.184E-03    -289.379E-03     20.0004E-03
            1597     4.04300E-03     77.4053E-03    -94.6222E+06    -160.221E+06    -51.7750E+06         447.061    -289.213E-03     578.733E-03    -289.520E-03     16.3221E-03    -289.380E-03     578.145E-03    -289.409E-03     17.4214E-03
            1598     3.36907E-03     77.3762E-03    -101.522E+06    -180.448E+06    -68.2912E+06     18.0262E+03    -289.261E-03     578.766E-03    -289.505E-03     13.6410E-03    -289.408E-03     578.111E-03    -289.438E-03     14.7270E-03
            1599     2.69519E-03     77.3520E-03    -107.774E+06    -198.810E+06    -84.3680E+06     36.4135E+03    -289.310E-03     578.796E-03    -289.486E-03     10.9405E-03    -289.438E-03     578.080E-03    -289.463E-03     11.9262E-03
            1600     2.02135E-03     77.3330E-03    -113.035E+06    -214.424E+06    -99.0130E+06     32.1848E+03    -289.356E-03     578.821E-03    -289.465E-03     8.24876E-03    -289.466E-03     578.056E-03    -289.485E-03     9.05951E-03
            1601     1.34754E-03     77.3192E-03    -117.033E+06    -228.659E+06    -110.399E+06         753.756    -289.400E-03     578.851E-03    -289.452E-03     5.57646E-03    -289.493E-03     578.038E-03    -289.503E-03     6.15608E-03
            1602     673.763E-06     77.3107E-03    -119.637E+06    -238.332E+06    -117.767E+06    -13.0904E+03    -289.448E-03     578.875E-03    -289.427E-03     3.03597E-03    -289.530E-03     578.027E-03    -289.497E-03     3.36160E-03
            1603     12.8081E-03     76.4000E-03    -5.19386E+06     80.7192E+06     97.7232E+06    -61.8689E+03    -288.495E-03     577.877E-03    -289.381E-03     32.4682E-03    -288.954E-03     578.320E-03    -289.002E-03     26.2914E-03
            1604     12.1337E-03     76.3430E-03    -10.9583E+06     75.9542E+06     97.7655E+06    -128.455E+03    -288.570E-03     577.990E-03    -289.419E-03     38.5577E-03    -289.091E-03     578.458E-03    -289.025E-03     31.9655E-03
            1605     11.4593E-03     76.2841E-03    -17.1607E+06     61.9776E+06     89.3569E+06    -130.627E+03    -288.677E-03     578.108E-03    -289.431E-03     38.7743E-03    -289.160E-03     578.490E-03    -289.049E-03     33.2814E-03
            1606     10.7850E-03     76.2223E-03    -23.5134E+06     56.6948E+06     79.1209E+06    -87.9872E+03    -288.737E-03     578.161E-03    -289.423E-03     39.0010E-03    -289.206E-03     578.517E-03    -289.076E-03     34.3117E-03
            1607     10.1106E-03     76.1597E-03    -30.0322E+06     51.3244E+06     69.2493E+06    -112.670E+03    -288.771E-03     578.191E-03    -289.420E-03     38.0756E-03    -289.219E-03     578.514E-03    -289.105E-03     34.3221E-03
            1608     9.43627E-03     76.0979E-03    -36.6683E+06     39.6400E+06     56.6285E+06    -110.171E+03    -288.810E-03     578.225E-03    -289.415E-03     36.3390E-03    -289.226E-03     578.488E-03    -289.137E-03     33.5194E-03
            1609     8.76194E-03     76.0382E-03    -43.4699E+06     36.3776E+06     47.3156E+06    -49.2239E+03    -288.785E-03     578.203E-03    -289.419E-03     34.1283E-03    -289.191E-03     578.447E-03    -289.172E-03     32.1843E-03
            1610     8.08762E-03     75.9813E-03    -50.5582E+06     11.7444E+06     36.0809E+06    -15.4369E+03    -288.828E-03     578.275E-03    -289.447E-03     31.7029E-03    -289.197E-03     578.401E-03    -289.210E-03     30.5508E-03
            1611     7.41337E-03     75.9276E-03    -57.8010E+06    -28.4872E+06     22.1424E+06    -2.30533E+03    -288.934E-03     578.418E-03    -289.484E-03     29.2671E-03    -289.245E-03     578.358E-03    -289.248E-03     28.7878E-03
            1612     6.73919E-03     75.8771E-03    -65.1127E+06    -61.8528E+06     8.41788E+06    -2.48469E+03    -289.015E-03     578.525E-03    -289.510E-03     26.8138E-03    -289.282E-03     578.317E-03    -289.284E-03     26.8815E-03
            1613     6.06506E-03     75.8303E-03    -72.5064E+06    -90.0034E+06    -5.55843E+06    -6.03726E+03    -289.074E-03     578.601E-03    -289.527E-03     24.2538E-03    -289.309E-03     578.275E-03    -289.319E-03     24.7541E-03
            1614     5.39098E-03     75.7875E-03    -79.9538E+06    -115.339E+06    -20.1836E+06    -7.00609E+03    -289.124E-03     578.659E-03    -289.535E-03     21.6433E-03    -289.334E-03     578.234E-03    -289.353E-03     22.4567E-03
            1615     4.71695E-03     75.7490E-03    -87.3842E+06    -138.525E+06    -35.6316E+06    -12.8491E+03    -289.171E-03     578.706E-03    -289.535E-03     19.0033E-03    -289.358E-03     578.194E-03    -289.385E-03     20.0132E-03
            1616     4.04298E-03     75.7150E-03    -94.6520E+06    -160.271E+06    -51.8147E+06    -1.76874E+03    -289.218E-03     578.745E-03    -289.527E-03     16.3360E-03    -289.385E-03     578.157E-03    -289.416E-03     17.4333E-03
            1617     3.36905E-03     75.6859E-03    -101.541E+06    -180.473E+06    -68.3211E+06     17.6522E+03    -289.267E-03     578.779E-03    -289.512E-03     13.6536E-03    -289.414E-03     578.123E-03    -289.445E-03     14.7379E-03
            1618     2.69517E-03     75.6617E-03    -107.782E+06    -198.811E+06    -84.3863E+06     25.1684E+03    -289.316E-03     578.810E-03    -289.494E-03     10.9515E-03    -289.444E-03     578.094E-03    -289.471E-03     11.9356E-03
            1619     2.02133E-03     75.6427E-03    -113.038E+06    -214.353E+06    -99.0190E+06     24.7441E+03    -289.363E-03     578.835E-03    -289.473E-03     8.25749E-03    -289.473E-03     578.071E-03    -289.493E-03     9.06701E-03
            1620     1.34753E-03     75.6289E-03    -117.034E+06    -228.593E+06    -110.397E+06     16.7047E+03    -289.407E-03     578.867E-03    -289.460E-03     5.58226E-03    -289.501E-03     578.054E-03    -289.511E-03     6.16138E-03
            1621     673.757E-06     75.6204E-03    -119.632E+06    -238.340E+06    -117.764E+06     5.65698E+03    -289.456E-03     578.891E-03    -289.435E-03     3.03906E-03    -289.538E-03     578.044E-03    -289.505E-03     3.36452E-03
            1622     12.8081E-03     74.7097E-03    -5.22355E+06     80.8478E+06     97.7550E+06    -44.4267E+03    -288.492E-03     577.874E-03    -289.382E-03     32.4558E-03    -288.951E-03     578.318E-03    -289.003E-03     26.2808E-03
            1623     12.1337E-03     74.6528E-03    -10.9577E+06     76.0302E+06     97.7934E+06    -64.9206E+03    -288.566E-03     577.986E-03    -289.420E-03     38.5476E-03    -289.087E-03     578.454E-03    -289.025E-03     31.9578E-03
            1624     11.4593E-03     74.5939E-03    -17.1142E+06     61.9228E+06     89.3555E+06    -76.7441E+03    -288.672E-03     578.104E-03    -289.432E-03     38.7682E-03    -289.154E-03     578.486E-03    -289.050E-03     33.2767E-03
            1625     10.7850E-03     74.5321E-03    -23.4565E+06     56.6928E+06     79.1343E+06    -104.721E+03    -288.732E-03     578.157E-03    -289.425E-03     38.9992E-03    -289.200E-03     578.513E-03    -289.077E-03     34.3097E-03
            1626     10.1106E-03     74.4695E-03    -29.9690E+06     51.3520E+06     69.2701E+06    -102.398E+03    -288.765E-03     578.187E-03    -289.422E-03     38.0801E-03    -289.213E-03     578.510E-03    -289.107E-03     34.3259E-03
            1627     9.43624E-03     74.4077E-03    -36.6304E+06     39.5350E+06     56.5950E+06    -85.2327E+03    -288.804E-03     578.222E-03    -289.418E-03     36.3465E-03    -289.220E-03     578.484E-03    -289.139E-03     33.5260E-03
            1628     8.76191E-03     74.3481E-03    -43.4808E+06     36.2702E+06     47.2579E+06    -69.8121E+03    -288.779E-03     578.201E-03    -289.422E-03     34.1378E-03    -289.185E-03     578.444E-03    -289.175E-03     32.1919E-03
            1629     8.08759E-03     74.2911E-03    -50.5853E+06     11.6742E+06     36.0319E+06    -39.3916E+03    -288.824E-03     578.275E-03    -289.451E-03     31.7166E-03    -289.192E-03     578.400E-03    -289.214E-03     30.5620E-03
            1630     7.41334E-03     74.2374E-03    -57.8217E+06    -28.5093E+06     22.1094E+06    -18.4149E+03    -288.932E-03     578.420E-03    -289.489E-03     29.2855E-03    -289.242E-03     578.360E-03    -289.253E-03     28.8034E-03
            1631     6.73915E-03     74.1869E-03    -65.1236E+06    -61.8288E+06     8.38943E+06    -20.1719E+03    -289.014E-03     578.530E-03    -289.516E-03     26.8332E-03    -289.281E-03     578.322E-03    -289.290E-03     26.8983E-03
            1632     6.06502E-03     74.1400E-03    -72.5110E+06    -90.0103E+06    -5.58787E+06    -26.3705E+03    -289.075E-03     578.609E-03    -289.533E-03     24.2727E-03    -289.311E-03     578.283E-03    -289.325E-03     24.7703E-03
            1633     5.39094E-03     74.0972E-03    -79.9621E+06    -115.347E+06    -20.2134E+06    -22.2826E+03    -289.128E-03     578.669E-03    -289.542E-03     21.6612E-03    -289.337E-03     578.244E-03    -289.360E-03     22.4721E-03
            1634     4.71692E-03     74.0587E-03    -87.3919E+06    -138.532E+06    -35.6641E+06    -12.3782E+03    -289.175E-03     578.717E-03    -289.542E-03     19.0190E-03    -289.363E-03     578.206E-03    -289.393E-03     20.0268E-03
            1635     4.04294E-03     74.0247E-03    -94.6567E+06    -160.316E+06    -51.8479E+06    -3.26356E+03    -289.223E-03     578.758E-03    -289.534E-03     16.3508E-03    -289.390E-03     578.170E-03    -289.424E-03     17.4461E-03
            1636     3.36902E-03     73.9956E-03    -101.546E+06    -180.491E+06    -68.3460E+06     7.66532E+03    -289.273E-03     578.793E-03    -289.521E-03     13.6671E-03    -289.420E-03     578.137E-03    -289.453E-03     14.7494E-03
            1637     2.69514E-03     73.9714E-03    -107.790E+06    -198.806E+06    -84.3999E+06     16.1247E+03    -289.323E-03     578.825E-03    -289.502E-03     10.9631E-03    -289.451E-03     578.110E-03    -289.480E-03     11.9454E-03
            1638     2.02131E-03     73.9524E-03    -113.049E+06    -214.320E+06    -99.0314E+06     17.3583E+03    -289.371E-03     578.853E-03    -289.482E-03     8.26673E-03    -289.481E-03     578.088E-03    -289.502E-03     9.07485E-03
            1639     1.34752E-03     73.9386E-03    -117.041E+06    -228.547E+06    -110.404E+06     11.3050E+03    -289.416E-03     578.885E-03    -289.469E-03     5.58890E-03    -289.510E-03     578.072E-03    -289.520E-03     6.16702E-03
            1640     673.751E-06     73.9301E-03    -119.630E+06    -238.308E+06    -117.756E+06     7.21778E+03    -289.466E-03     578.910E-03    -289.445E-03     3.04296E-03    -289.547E-03     578.063E-03    -289.515E-03     3.36795E-03
            1641     12.8081E-03     73.0195E-03    -5.19710E+06     80.9247E+06     97.7863E+06    -16.4591E+03    -288.487E-03     577.870E-03    -289.383E-03     32.4437E-03    -288.946E-03     578.314E-03    -289.004E-03     26.2707E-03
            1642     12.1337E-03     72.9626E-03    -10.9483E+06     76.0881E+06     97.8129E+06    -50.4976E+03    -288.560E-03     577.982E-03    -289.421E-03     38.5368E-03    -289.081E-03     578.450E-03    -289.027E-03     31.9485E-03
            1643     11.4593E-03     72.9037E-03    -17.1075E+06     61.9489E+06     89.3726E+06    -79.9553E+03    -288.666E-03     578.100E-03    -289.434E-03     38.7629E-03    -289.148E-03     578.482E-03    -289.052E-03     33.2719E-03
            1644     10.7849E-03     72.8420E-03    -23.4599E+06     56.7009E+06     79.1364E+06    -73.3750E+03    -288.724E-03     578.151E-03    -289.427E-03     38.9985E-03    -289.193E-03     578.508E-03    -289.079E-03     34.3095E-03
            1645     10.1105E-03     72.7794E-03    -30.0104E+06     51.3179E+06     69.2450E+06    -71.7658E+03    -288.757E-03     578.182E-03    -289.425E-03     38.0844E-03    -289.206E-03     578.505E-03    -289.110E-03     34.3300E-03
            1646     9.43621E-03     72.7176E-03    -36.6545E+06     39.4937E+06     56.5753E+06    -67.1860E+03    -288.797E-03     578.218E-03    -289.421E-03     36.3555E-03    -289.213E-03     578.481E-03    -289.143E-03     33.5339E-03
            1647     8.76188E-03     72.6579E-03    -43.4632E+06     36.2263E+06     47.2403E+06    -55.9793E+03    -288.774E-03     578.199E-03    -289.426E-03     34.1505E-03    -289.179E-03     578.442E-03    -289.179E-03     32.2029E-03
            1648     8.08755E-03     72.6010E-03    -50.5625E+06     11.6085E+06     36.0083E+06    -49.8473E+03    -288.820E-03     578.275E-03    -289.455E-03     31.7349E-03    -289.188E-03     578.401E-03    -289.219E-03     30.5776E-03
            1649     7.41330E-03     72.5472E-03    -57.8014E+06    -28.5355E+06     22.0919E+06    -40.6982E+03    -288.929E-03     578.423E-03    -289.494E-03     29.3104E-03    -289.239E-03     578.363E-03    -289.258E-03     28.8247E-03
            1650     6.73911E-03     72.4966E-03    -65.1050E+06    -61.8262E+06     8.36799E+06    -35.1477E+03    -289.013E-03     578.535E-03    -289.522E-03     26.8596E-03    -289.281E-03     578.328E-03    -289.296E-03     26.9211E-03
            1651     6.06498E-03     72.4498E-03    -72.4992E+06    -90.0296E+06    -5.61207E+06    -28.3276E+03    -289.077E-03     578.618E-03    -289.540E-03     24.2978E-03    -289.313E-03     578.292E-03    -289.332E-03     24.7921E-03
            1652     5.39090E-03     72.4069E-03    -79.9550E+06    -115.376E+06    -20.2340E+06    -18.1075E+03    -289.131E-03     578.681E-03    -289.549E-03     21.6842E-03    -289.341E-03     578.256E-03    -289.367E-03     22.4922E-03
            1653     4.71688E-03     72.3684E-03    -87.3879E+06    -138.554E+06    -35.6761E+06    -10.3091E+03    -289.180E-03     578.730E-03    -289.550E-03     19.0387E-03    -289.367E-03     578.219E-03    -289.401E-03     20.0441E-03
            1654     4.04291E-03     72.3344E-03    -94.6514E+06    -160.340E+06    -51.8503E+06    -1.04533E+03    -289.229E-03     578.772E-03    -289.543E-03     16.3688E-03    -289.396E-03     578.184E-03    -289.433E-03     17.4618E-03
            1655     3.36899E-03     72.3052E-03    -101.539E+06    -180.503E+06    -68.3394E+06     5.57344E+03    -289.280E-03     578.810E-03    -289.530E-03     13.6833E-03    -289.427E-03     578.154E-03    -289.463E-03     14.7634E-03
            1656     2.69512E-03     72.2810E-03    -107.782E+06    -198.807E+06    -84.3881E+06     8.84917E+03    -289.331E-03     578.843E-03    -289.512E-03     10.9769E-03    -289.460E-03     578.128E-03    -289.489E-03     11.9574E-03
            1657     2.02129E-03     72.2620E-03    -113.038E+06    -214.297E+06    -99.0210E+06     9.38042E+03    -289.380E-03     578.872E-03    -289.492E-03     8.27781E-03    -289.490E-03     578.108E-03    -289.513E-03     9.08440E-03
            1658     1.34750E-03     72.2482E-03    -117.032E+06    -228.519E+06    -110.399E+06     5.12976E+03    -289.426E-03     578.906E-03    -289.480E-03     5.59655E-03    -289.520E-03     578.093E-03    -289.531E-03     6.17363E-03
            1659     673.743E-06     72.2397E-03    -119.627E+06    -238.290E+06    -117.756E+06         234.792    -289.476E-03     578.932E-03    -289.456E-03     3.04706E-03    -289.558E-03     578.085E-03    -289.525E-03     3.37143E-03
            1660     12.8081E-03     71.3293E-03    -5.20976E+06     80.9821E+06     97.8057E+06    -32.1003E+03    -288.482E-03     577.865E-03    -289.383E-03     32.4305E-03    -288.941E-03     578.309E-03    -289.004E-03     26.2590E-03
            1661     12.1337E-03     71.2724E-03    -10.9232E+06     76.1384E+06     97.8405E+06    -45.6488E+03    -288.553E-03     577.976E-03    -289.422E-03     38.5251E-03    -289.074E-03     578.444E-03    -289.028E-03     31.9383E-03
            1662     11.4593E-03     71.2135E-03    -17.0961E+06     61.9426E+06     89.3732E+06    -35.7474E+03    -288.658E-03     578.093E-03    -289.435E-03     38.7567E-03    -289.140E-03     578.475E-03    -289.053E-03     33.2673E-03
            1663     10.7849E-03     71.1518E-03    -23.4582E+06     56.6946E+06     79.1465E+06    -40.0667E+03    -288.717E-03     578.146E-03    -289.429E-03     38.9964E-03    -289.185E-03     578.503E-03    -289.082E-03     34.3081E-03
            1664     10.1105E-03     71.0892E-03    -29.9628E+06     51.3478E+06     69.2864E+06    -57.1363E+03    -288.749E-03     578.177E-03    -289.428E-03     38.0880E-03    -289.198E-03     578.501E-03    -289.113E-03     34.3333E-03
            1665     9.43618E-03     71.0274E-03    -36.6041E+06     39.4611E+06     56.5926E+06    -68.0155E+03    -288.789E-03     578.214E-03    -289.425E-03     36.3650E-03    -289.205E-03     578.476E-03    -289.146E-03     33.5421E-03
            1666     8.76184E-03     70.9677E-03    -43.4360E+06     36.1754E+06     47.2364E+06    -53.5485E+03    -288.766E-03     578.197E-03    -289.430E-03     34.1644E-03    -289.172E-03     578.440E-03    -289.184E-03     32.2150E-03
            1667     8.08751E-03     70.9108E-03    -50.5371E+06     11.5967E+06     35.9944E+06    -41.5750E+03    -288.814E-03     578.275E-03    -289.461E-03     31.7549E-03    -289.182E-03     578.400E-03    -289.224E-03     30.5952E-03
            1668     7.41325E-03     70.8570E-03    -57.7811E+06    -28.5602E+06     22.0669E+06    -44.1498E+03    -288.926E-03     578.426E-03    -289.500E-03     29.3379E-03    -289.236E-03     578.366E-03    -289.265E-03     28.8487E-03
            1669     6.73906E-03     70.8064E-03    -65.0902E+06    -61.8670E+06     8.33789E+06    -31.5955E+03    -289.013E-03     578.543E-03    -289.529E-03     26.8892E-03    -289.281E-03     578.335E-03    -289.304E-03     26.9468E-03
            1670     6.06493E-03     70.7595E-03    -72.4834E+06    -90.0612E+06    -5.63717E+06    -14.7793E+03    -289.080E-03     578.628E-03    -289.548E-03     24.3260E-03    -289.315E-03     578.302E-03    -289.341E-03     24.8168E-03
            1671     5.39085E-03     70.7166E-03    -79.9361E+06    -115.401E+06    -20.2413E+06    -5.65928E+03    -289.135E-03     578.694E-03    -289.558E-03     21.7102E-03    -289.345E-03     578.268E-03    -289.376E-03     22.5149E-03
            1672     4.71684E-03     70.6781E-03    -87.3673E+06    -138.569E+06    -35.6650E+06     1.24417E+03    -289.186E-03     578.745E-03    -289.560E-03     19.0618E-03    -289.373E-03     578.234E-03    -289.410E-03     20.0643E-03
            1673     4.04287E-03     70.6441E-03    -94.6337E+06    -160.349E+06    -51.8314E+06     1.80476E+03    -289.236E-03     578.789E-03    -289.553E-03     16.3910E-03    -289.403E-03     578.201E-03    -289.443E-03     17.4812E-03
            1674     3.36895E-03     70.6149E-03    -101.522E+06    -180.509E+06    -68.3242E+06     2.70098E+03    -289.288E-03     578.828E-03    -289.541E-03     13.7040E-03    -289.435E-03     578.173E-03    -289.473E-03     14.7815E-03
            1675     2.69509E-03     70.5906E-03    -107.767E+06    -198.810E+06    -84.3789E+06     6.62508E+03    -289.341E-03     578.864E-03    -289.523E-03     10.9951E-03    -289.469E-03     578.149E-03    -289.501E-03     11.9732E-03
            1676     2.02127E-03     70.5716E-03    -113.030E+06    -214.283E+06     -99.017E+06     8.61747E+03    -289.390E-03     578.894E-03    -289.504E-03     8.29221E-03    -289.501E-03     578.130E-03    -289.524E-03     9.09704E-03
            1677     1.34749E-03     70.5578E-03    -117.025E+06    -228.498E+06    -110.394E+06     6.12471E+03    -289.438E-03     578.930E-03    -289.492E-03     5.60644E-03    -289.531E-03     578.117E-03    -289.543E-03     6.18232E-03
            1678     673.736E-06     70.5492E-03    -119.618E+06    -238.278E+06    -117.747E+06     3.81002E+03    -289.488E-03     578.956E-03    -289.468E-03     3.05249E-03    -289.570E-03     578.109E-03    -289.537E-03     3.37623E-03
            1679     12.8081E-03     69.6391E-03    -5.20082E+06     81.0407E+06     97.8157E+06    -21.8694E+03    -288.473E-03     577.857E-03    -289.384E-03     32.4158E-03    -288.932E-03     578.302E-03    -289.005E-03     26.2461E-03
            1680     12.1337E-03     69.5822E-03    -10.9760E+06     76.1173E+06     97.8127E+06    -24.2579E+03    -288.545E-03     577.968E-03    -289.423E-03     38.5134E-03    -289.066E-03     578.437E-03    -289.029E-03     31.9286E-03
            1681     11.4592E-03     69.5234E-03    -17.1299E+06     61.9579E+06     89.3721E+06    -35.5236E+03    -288.650E-03     578.087E-03    -289.437E-03     38.7501E-03    -289.132E-03     578.469E-03    -289.055E-03     33.2613E-03
            1682     10.7849E-03     69.4617E-03    -23.4409E+06     56.7630E+06     79.1776E+06    -70.5470E+03    -288.707E-03     578.139E-03    -289.432E-03     38.9955E-03    -289.176E-03     578.496E-03    -289.084E-03     34.3067E-03
            1683     10.1105E-03     69.3991E-03    -29.9520E+06     51.3246E+06     69.2895E+06    -80.8179E+03    -288.740E-03     578.171E-03    -289.431E-03     38.0956E-03    -289.188E-03     578.494E-03    -289.116E-03     34.3396E-03
            1684     9.43614E-03     69.3373E-03    -36.5913E+06     39.3994E+06     56.5853E+06    -44.8133E+03    -288.780E-03     578.209E-03    -289.429E-03     36.3795E-03    -289.196E-03     578.471E-03    -289.150E-03     33.5553E-03
            1685     8.76179E-03     69.2776E-03    -43.4212E+06     36.1253E+06     47.2287E+06    -18.3844E+03    -288.758E-03     578.194E-03    -289.436E-03     34.1831E-03    -289.164E-03     578.437E-03    -289.189E-03     32.2318E-03
            1686     8.08746E-03     69.2206E-03    -50.5375E+06     11.6066E+06     35.9846E+06    -17.3715E+03    -288.808E-03     578.275E-03    -289.467E-03     31.7795E-03    -289.176E-03     578.401E-03    -289.231E-03     30.6170E-03
            1687     7.41319E-03     69.1668E-03    -57.7906E+06    -28.5694E+06     22.0513E+06    -21.0323E+03    -288.923E-03     578.430E-03    -289.508E-03     29.3696E-03    -289.233E-03     578.370E-03    -289.272E-03     28.8767E-03
            1688     6.73900E-03     69.1161E-03    -65.1102E+06    -61.9387E+06     8.31301E+06    -7.00992E+03    -289.013E-03     578.551E-03    -289.538E-03     26.9219E-03    -289.280E-03     578.343E-03    -289.312E-03     26.9758E-03
            1689     6.06487E-03     69.0692E-03    -72.5125E+06    -90.0635E+06    -5.66910E+06     4.09755E+03    -289.081E-03     578.638E-03    -289.557E-03     24.3571E-03    -289.317E-03     578.313E-03    -289.350E-03     24.8443E-03
            1690     5.39080E-03     69.0263E-03    -79.9673E+06    -115.423E+06    -20.2811E+06     3.28426E+03    -289.139E-03     578.707E-03    -289.568E-03     21.7391E-03    -289.348E-03     578.282E-03    -289.386E-03     22.5403E-03
            1691     4.71678E-03     68.9877E-03    -87.3939E+06    -138.566E+06    -35.7076E+06     4.58544E+03    -289.191E-03     578.761E-03    -289.570E-03     19.0883E-03    -289.378E-03     578.250E-03    -289.421E-03     20.0876E-03
            1692     4.04282E-03     68.9537E-03    -94.6485E+06    -160.326E+06    -51.8602E+06    -6.74929E+03    -289.243E-03     578.808E-03    -289.565E-03     16.4173E-03    -289.410E-03     578.220E-03    -289.455E-03     17.5042E-03
            1693     3.36891E-03     68.9245E-03    -101.529E+06    -180.544E+06    -68.3406E+06    -5.26149E+03    -289.297E-03     578.850E-03    -289.553E-03     13.7286E-03    -289.444E-03     578.194E-03    -289.486E-03     14.8030E-03
            1694     2.69505E-03     68.9002E-03    -107.769E+06    -198.815E+06    -84.3903E+06     9.19390E+03    -289.352E-03     578.888E-03    -289.537E-03     11.0164E-03    -289.480E-03     578.173E-03    -289.514E-03     11.9919E-03
            1695     2.02124E-03     68.8811E-03    -113.024E+06    -214.274E+06    -99.0226E+06     11.9453E+03    -289.403E-03     578.920E-03    -289.517E-03     8.30935E-03    -289.514E-03     578.156E-03    -289.538E-03     9.11206E-03
            1696     1.34747E-03     68.8673E-03    -117.015E+06    -228.478E+06    -110.397E+06     11.6533E+03    -289.451E-03     578.957E-03    -289.506E-03     5.61855E-03    -289.545E-03     578.144E-03    -289.557E-03     6.19297E-03
            1697     673.725E-06     68.8588E-03    -119.606E+06    -238.253E+06    -117.741E+06     7.72152E+03    -289.503E-03     578.985E-03    -289.482E-03     3.05934E-03    -289.584E-03     578.137E-03    -289.552E-03     3.38227E-03
            1698     12.8080E-03     67.9489E-03    -5.23126E+06     81.0766E+06     97.8374E+06    -12.9828E+03    -288.467E-03     577.852E-03    -289.385E-03     32.4038E-03    -288.925E-03     578.296E-03    -289.006E-03     26.2360E-03
            1699     12.1336E-03     67.8920E-03    -10.9142E+06     76.2048E+06     97.8727E+06    -63.8353E+03    -288.536E-03     577.960E-03    -289.425E-03     38.5008E-03    -289.056E-03     578.429E-03    -289.030E-03     31.9167E-03
            1700     11.4592E-03     67.8332E-03    -17.0275E+06     61.9627E+06     89.4135E+06    -99.7879E+03    -288.639E-03     578.078E-03    -289.439E-03     38.7474E-03    -289.120E-03     578.460E-03    -289.057E-03     33.2581E-03
            1701     10.7849E-03     67.7715E-03    -23.3744E+06     56.7151E+06     79.1811E+06    -56.5159E+03    -288.696E-03     578.130E-03    -289.434E-03     38.9993E-03    -289.164E-03     578.487E-03    -289.087E-03     34.3105E-03
            1702     10.1105E-03     67.7089E-03    -29.9266E+06     51.2872E+06     69.2789E+06    -16.3182E+03    -288.728E-03     578.163E-03    -289.435E-03     38.1059E-03    -289.176E-03     578.486E-03    -289.120E-03     34.3496E-03
            1703     9.43609E-03     67.6471E-03    -36.6070E+06     39.3167E+06     56.5532E+06    -6.09289E+03    -288.770E-03     578.204E-03    -289.434E-03     36.3976E-03    -289.186E-03     578.466E-03    -289.155E-03     33.5716E-03
            1704     8.76174E-03     67.5874E-03    -43.4428E+06     36.1039E+06     47.2114E+06     9.73982E+03    -288.750E-03     578.192E-03    -289.442E-03     34.2067E-03    -289.156E-03     578.434E-03    -289.195E-03     32.2530E-03
            1705     8.08740E-03     67.5304E-03    -50.5460E+06     11.6070E+06     35.9801E+06     17.7790E+03    -288.802E-03     578.276E-03    -289.474E-03     31.8105E-03    -289.170E-03     578.402E-03    -289.238E-03     30.6447E-03
            1706     7.41313E-03     67.4765E-03    -57.8047E+06    -28.5808E+06     22.0534E+06     25.5816E+03    -288.920E-03     578.436E-03    -289.516E-03     29.4081E-03    -289.230E-03     578.376E-03    -289.280E-03     28.9110E-03
            1707     6.73894E-03     67.4259E-03    -65.1298E+06    -61.9702E+06     8.31559E+06     29.4068E+03    -289.013E-03     578.560E-03    -289.547E-03     26.9610E-03    -289.280E-03     578.352E-03    -289.321E-03     27.0104E-03
            1708     6.06481E-03     67.3789E-03    -72.5289E+06    -90.0354E+06    -5.67230E+06     22.4327E+03    -289.083E-03     578.650E-03    -289.567E-03     24.3940E-03    -289.318E-03     578.325E-03    -289.360E-03     24.8769E-03
            1709     5.39074E-03     67.3360E-03    -79.9801E+06    -115.419E+06    -20.2948E+06     11.0840E+03    -289.142E-03     578.722E-03    -289.580E-03     21.7736E-03    -289.352E-03     578.296E-03    -289.398E-03     22.5707E-03
            1710     4.71673E-03     67.2973E-03    -87.4030E+06    -138.539E+06    -35.7408E+06    -2.52707E+03    -289.196E-03     578.778E-03    -289.583E-03     19.1207E-03    -289.383E-03     578.267E-03    -289.434E-03     20.1161E-03
            1711     4.04277E-03     67.2633E-03    -94.6576E+06    -160.300E+06    -51.9012E+06    -16.2987E+03    -289.251E-03     578.829E-03    -289.579E-03     16.4489E-03    -289.417E-03     578.241E-03    -289.468E-03     17.5319E-03
            1712     3.36886E-03     67.2340E-03    -101.539E+06    -180.602E+06    -68.3664E+06    -12.6115E+03    -289.308E-03     578.876E-03    -289.568E-03     13.7578E-03    -289.455E-03     578.220E-03    -289.501E-03     14.8284E-03
            1713     2.69501E-03     67.2098E-03    -107.776E+06    -198.834E+06    -84.4102E+06     2.12279E+03    -289.365E-03     578.917E-03    -289.552E-03     11.0417E-03    -289.493E-03     578.201E-03    -289.529E-03     12.0140E-03
            1714     2.02121E-03     67.1906E-03    -113.026E+06    -214.271E+06    -99.0369E+06     10.8058E+03    -289.418E-03     578.951E-03    -289.533E-03     8.32942E-03    -289.528E-03     578.187E-03    -289.554E-03     9.12968E-03
            1715     1.34744E-03     67.1768E-03    -117.010E+06    -228.456E+06    -110.390E+06     10.0046E+03    -289.467E-03     578.990E-03    -289.522E-03     5.63244E-03    -289.561E-03     578.177E-03    -289.573E-03     6.20516E-03
            1716     673.714E-06     67.1683E-03    -119.594E+06    -238.225E+06    -117.724E+06     5.54076E+03    -289.519E-03     579.018E-03    -289.499E-03     3.06689E-03    -289.601E-03     578.171E-03    -289.568E-03     3.38886E-03
            1717     12.8080E-03     66.2587E-03    -5.12846E+06     81.1858E+06     97.8783E+06    -84.8956E+03    -288.455E-03     577.840E-03    -289.386E-03     32.3880E-03    -288.913E-03     578.285E-03    -289.007E-03     26.2207E-03
            1718     12.1336E-03     66.2019E-03    -10.8789E+06     76.2068E+06     97.8691E+06     -91.473E+03    -288.523E-03     577.949E-03    -289.426E-03     38.4961E-03    -289.043E-03     578.418E-03    -289.032E-03     31.9128E-03
            1719     11.4592E-03     66.1431E-03    -17.0972E+06     61.8788E+06     89.3467E+06    -28.8861E+03    -288.625E-03     578.066E-03    -289.441E-03     38.7494E-03    -289.107E-03     578.448E-03    -289.060E-03     33.2613E-03
            1720     10.7848E-03     66.0814E-03    -23.4872E+06     56.6182E+06     79.1026E+06    -1.75520E+03    -288.682E-03     578.120E-03    -289.438E-03     39.0060E-03    -289.151E-03     578.476E-03    -289.090E-03     34.3173E-03
            1721     10.1104E-03     66.0188E-03    -30.0114E+06     51.2435E+06     69.2294E+06     15.2435E+03    -288.715E-03     578.154E-03    -289.440E-03     38.1217E-03    -289.164E-03     578.478E-03    -289.124E-03     34.3641E-03
            1722     9.43604E-03     65.9570E-03    -36.6398E+06     39.3142E+06     56.5354E+06     26.1835E+03    -288.758E-03     578.198E-03    -289.440E-03     36.4236E-03    -289.174E-03     578.460E-03    -289.161E-03     33.5950E-03
            1723     8.76168E-03     65.8972E-03    -43.4644E+06     36.0695E+06     47.1938E+06     28.1689E+03    -288.741E-03     578.189E-03    -289.449E-03     34.2398E-03    -289.147E-03     578.432E-03    -289.202E-03     32.2823E-03
            1724     8.08733E-03     65.8403E-03    -50.5761E+06     11.5856E+06     35.9646E+06     45.9214E+03    -288.796E-03     578.278E-03    -289.483E-03     31.8522E-03    -289.165E-03     578.404E-03    -289.246E-03     30.6817E-03
            1725     7.41306E-03     65.7863E-03    -57.8201E+06    -28.5744E+06     22.0562E+06     47.8084E+03    -288.917E-03     578.443E-03    -289.526E-03     29.4574E-03    -289.228E-03     578.383E-03    -289.290E-03     28.9546E-03
            1726     6.73887E-03     65.7356E-03    -65.1205E+06    -61.9419E+06     8.34745E+06     33.6769E+03    -289.013E-03     578.571E-03    -289.558E-03     27.0099E-03    -289.281E-03     578.363E-03    -289.332E-03     27.0534E-03
            1727     6.06474E-03     65.6886E-03    -72.5030E+06    -90.0023E+06    -5.62673E+06     17.9652E+03    -289.084E-03     578.664E-03    -289.580E-03     24.4396E-03    -289.320E-03     578.339E-03    -289.372E-03     24.9169E-03
            1728     5.39067E-03     65.6456E-03    -79.9434E+06    -115.396E+06    -20.2584E+06     7.08919E+03    -289.145E-03     578.738E-03    -289.593E-03     21.8163E-03    -289.355E-03     578.313E-03    -289.411E-03     22.6083E-03
            1729     4.71666E-03     65.6069E-03    -87.3636E+06    -138.513E+06    -35.7167E+06        -234.234    -289.202E-03     578.799E-03    -289.598E-03     19.1616E-03    -289.389E-03     578.288E-03    -289.449E-03     20.1521E-03
            1730     4.04270E-03     65.5728E-03    -94.6214E+06    -160.299E+06    -51.8896E+06    -2.82009E+03    -289.260E-03     578.855E-03    -289.595E-03     16.4880E-03    -289.427E-03     578.267E-03    -289.485E-03     17.5665E-03
            1731     3.36880E-03     65.5435E-03    -101.509E+06    -180.636E+06    -68.3625E+06         363.379    -289.321E-03     578.906E-03    -289.585E-03     13.7932E-03    -289.468E-03     578.249E-03    -289.518E-03     14.8598E-03
            1732     2.69496E-03     65.5192E-03    -107.753E+06    -198.853E+06    -84.3884E+06     4.36913E+03    -289.380E-03     578.951E-03    -289.570E-03     11.0721E-03    -289.508E-03     578.235E-03    -289.548E-03     12.0409E-03
            1733     2.02117E-03     65.5001E-03    -113.009E+06    -214.261E+06    -99.0007E+06         27.2505    -289.435E-03     578.988E-03    -289.553E-03     8.35336E-03    -289.546E-03     578.223E-03    -289.573E-03     9.15069E-03
            1734     1.34742E-03     65.4862E-03    -116.993E+06    -228.448E+06    -110.365E+06    -6.70289E+03    -289.486E-03     579.028E-03    -289.542E-03     5.64892E-03    -289.580E-03     578.215E-03    -289.593E-03     6.21952E-03
            1735     673.701E-06     65.4777E-03    -119.580E+06    -238.228E+06    -117.708E+06    -5.10457E+03    -289.539E-03     579.057E-03    -289.518E-03     3.07594E-03    -289.621E-03     578.210E-03    -289.588E-03     3.39676E-03
            1736     12.8080E-03     64.5686E-03    -5.38588E+06     81.3889E+06     97.8008E+06     21.7243E+03    -288.433E-03     577.820E-03    -289.386E-03     32.3702E-03    -288.893E-03     578.266E-03    -289.007E-03     26.2065E-03
            1737     12.1336E-03     64.5118E-03    -11.1822E+06     76.2507E+06     97.7346E+06    -70.1638E+03    -288.503E-03     577.931E-03    -289.428E-03     38.4815E-03    -289.025E-03     578.400E-03    -289.034E-03     31.8999E-03
            1738     11.4592E-03     64.4530E-03    -17.2853E+06     61.6763E+06     89.2103E+06    -84.3778E+03    -288.609E-03     578.053E-03    -289.444E-03     38.7480E-03    -289.091E-03     578.434E-03    -289.063E-03     33.2591E-03
            1739     10.7848E-03     64.3913E-03    -23.5604E+06     56.5693E+06     79.0568E+06    -17.5696E+03    -288.666E-03     578.107E-03    -289.442E-03     39.0141E-03    -289.134E-03     578.464E-03    -289.094E-03     34.3242E-03
            1740     10.1104E-03     64.3287E-03    -30.0669E+06     51.2055E+06     69.1996E+06    -2.10578E+03    -288.699E-03     578.144E-03    -289.445E-03     38.1424E-03    -289.148E-03     578.467E-03    -289.130E-03     34.3822E-03
            1741     9.43597E-03     64.2669E-03    -36.7150E+06     39.2802E+06     56.5017E+06     15.1756E+03    -288.743E-03     578.191E-03    -289.447E-03     36.4573E-03    -289.160E-03     578.452E-03    -289.168E-03     33.6246E-03
            1742     8.76160E-03     64.2071E-03    -43.5358E+06     36.0588E+06     47.1726E+06     34.2713E+03    -288.729E-03     578.187E-03    -289.457E-03     34.2822E-03    -289.136E-03     578.430E-03    -289.211E-03     32.3198E-03
            1743     8.08725E-03     64.1501E-03    -50.6214E+06     11.5800E+06     35.9644E+06     24.0136E+03    -288.789E-03     578.282E-03    -289.493E-03     31.9053E-03    -289.158E-03     578.408E-03    -289.257E-03     30.7282E-03
            1744     7.41298E-03     64.0961E-03    -57.8431E+06    -28.5511E+06     22.0614E+06     13.6398E+03    -288.914E-03     578.452E-03    -289.538E-03     29.5183E-03    -289.225E-03     578.392E-03    -289.302E-03     29.0078E-03
            1745     6.73878E-03     64.0453E-03    -65.1326E+06    -61.8841E+06     8.35767E+06    -7.37002E+03    -289.012E-03     578.584E-03    -289.571E-03     27.0704E-03    -289.280E-03     578.377E-03    -289.345E-03     27.1063E-03
            1746     6.06465E-03     63.9982E-03    -72.5051E+06    -89.9980E+06    -5.60657E+06    -23.1525E+03    -289.086E-03     578.681E-03    -289.595E-03     24.4971E-03    -289.322E-03     578.356E-03    -289.387E-03     24.9671E-03
            1747     5.39058E-03     63.9552E-03    -79.9404E+06    -115.414E+06    -20.2331E+06    -13.9285E+03    -289.150E-03     578.759E-03    -289.609E-03     21.8712E-03    -289.359E-03     578.334E-03    -289.427E-03     22.6564E-03
            1748     4.71657E-03     63.9165E-03    -87.3578E+06    -138.523E+06    -35.6964E+06        -664.184    -289.210E-03     578.825E-03    -289.616E-03     19.2144E-03    -289.397E-03     578.314E-03    -289.467E-03     20.1989E-03
            1749     4.04262E-03     63.8823E-03     -94.611E+06    -160.319E+06    -51.8700E+06     10.4829E+03    -289.272E-03     578.886E-03    -289.614E-03     16.5374E-03    -289.439E-03     578.298E-03    -289.504E-03     17.6105E-03
            1750     3.36874E-03     63.8530E-03    -101.495E+06    -180.660E+06    -68.3310E+06     24.8736E+03    -289.336E-03     578.942E-03    -289.606E-03     13.8366E-03    -289.483E-03     578.285E-03    -289.538E-03     14.8987E-03
            1751     2.69490E-03     63.8286E-03    -107.739E+06    -198.797E+06    -84.3695E+06     12.5219E+03    -289.398E-03     578.990E-03    -289.592E-03     11.1090E-03    -289.526E-03     578.275E-03    -289.569E-03     12.0737E-03
            1752     2.02112E-03     63.8095E-03    -112.991E+06    -214.237E+06    -98.9841E+06    -22.3900E+03    -289.455E-03     579.031E-03    -289.575E-03     8.38286E-03    -289.566E-03     578.267E-03    -289.595E-03     9.17657E-03
            1753     1.34739E-03     63.7956E-03    -116.976E+06    -228.500E+06    -110.344E+06    -21.6478E+03    -289.508E-03     579.074E-03    -289.565E-03     5.66927E-03    -289.602E-03     578.261E-03    -289.616E-03     6.23741E-03
            1754     673.685E-06     63.7870E-03    -119.566E+06    -238.255E+06    -117.699E+06    -6.04282E+03    -289.563E-03     579.104E-03    -289.541E-03     3.08674E-03    -289.645E-03     578.257E-03    -289.611E-03     3.40639E-03
            1755     12.8080E-03     62.8784E-03    -5.08771E+06     81.3710E+06     97.9909E+06     142.183E+03    -288.424E-03     577.812E-03    -289.388E-03     32.3628E-03    -288.883E-03     578.257E-03    -289.009E-03     26.2030E-03
            1756     12.1336E-03     62.8217E-03    -10.8794E+06     76.5957E+06     97.9795E+06     119.557E+03    -288.486E-03     577.916E-03    -289.430E-03     38.4708E-03    -289.007E-03     578.386E-03    -289.036E-03     31.8936E-03
            1757     11.4591E-03     62.7629E-03    -17.1803E+06     61.7552E+06     89.2957E+06    -28.2371E+03    -288.588E-03     578.036E-03    -289.448E-03     38.7473E-03    -289.070E-03     578.417E-03    -289.066E-03     33.2593E-03
            1758     10.7847E-03     62.7012E-03    -23.5837E+06     56.4509E+06     79.0403E+06    -89.3821E+03    -288.645E-03     578.092E-03    -289.447E-03     39.0239E-03    -289.114E-03     578.448E-03    -289.099E-03     34.3319E-03
            1759     10.1103E-03     62.6386E-03    -30.0791E+06     51.1142E+06     69.1965E+06    -30.1061E+03    -288.679E-03     578.130E-03    -289.452E-03     38.1645E-03    -289.128E-03     578.453E-03    -289.136E-03     34.4013E-03
            1760     9.43589E-03     62.5768E-03    -36.6998E+06     39.2439E+06     56.5255E+06         119.070    -288.726E-03     578.181E-03    -289.456E-03     36.4940E-03    -289.143E-03     578.443E-03    -289.177E-03     33.6568E-03
            1761     8.76151E-03     62.5170E-03    -43.4945E+06     36.0971E+06     47.2178E+06    -22.7133E+03    -288.715E-03     578.183E-03    -289.468E-03     34.3309E-03    -289.122E-03     578.426E-03    -289.221E-03     32.3621E-03
            1762     8.08715E-03     62.4599E-03    -50.5640E+06     11.5632E+06     36.0100E+06    -29.4360E+03    -288.780E-03     578.285E-03    -289.505E-03     31.9669E-03    -289.149E-03     578.411E-03    -289.269E-03     30.7819E-03
            1763     7.41287E-03     62.4058E-03    -57.7885E+06    -28.5374E+06     22.1107E+06    -28.9970E+03    -288.909E-03     578.461E-03    -289.552E-03     29.5880E-03    -289.221E-03     578.402E-03    -289.316E-03     29.0688E-03
            1764     6.73867E-03     62.3550E-03    -65.0854E+06    -61.8428E+06     8.38339E+06    -41.5083E+03    -289.011E-03     578.598E-03    -289.587E-03     27.1398E-03    -289.279E-03     578.391E-03    -289.361E-03     27.1673E-03
            1765     6.06454E-03     62.3078E-03    -72.4767E+06    -90.0316E+06    -5.59667E+06    -43.0238E+03    -289.088E-03     578.701E-03    -289.613E-03     24.5639E-03    -289.324E-03     578.376E-03    -289.405E-03     25.0259E-03
            1766     5.39047E-03     62.2647E-03    -79.9311E+06    -115.484E+06    -20.2157E+06    -23.8579E+03    -289.156E-03     578.785E-03    -289.630E-03     21.9368E-03    -289.365E-03     578.360E-03    -289.447E-03     22.7143E-03
            1767     4.71647E-03     62.2260E-03    -87.3618E+06    -138.563E+06    -35.6649E+06        -901.827    -289.220E-03     578.858E-03    -289.638E-03     19.2794E-03    -289.408E-03     578.347E-03    -289.488E-03     20.2563E-03
            1768     4.04253E-03     62.1918E-03    -94.6283E+06    -160.371E+06    -51.8334E+06     21.1123E+03    -289.288E-03     578.925E-03    -289.638E-03     16.5974E-03    -289.454E-03     578.337E-03    -289.527E-03     17.6637E-03
            1769     3.36865E-03     62.1624E-03    -101.517E+06    -180.645E+06    -68.3148E+06     25.8511E+03    -289.355E-03     578.986E-03    -289.631E-03     13.8891E-03    -289.502E-03     578.329E-03    -289.563E-03     14.9451E-03
            1770     2.69483E-03     62.1380E-03    -107.746E+06    -198.685E+06    -84.3886E+06    -9.60013E+03    -289.420E-03     579.037E-03    -289.618E-03     11.1537E-03    -289.548E-03     578.322E-03    -289.595E-03     12.1131E-03
            1771     2.02107E-03     62.1188E-03    -112.987E+06    -214.244E+06    -99.0050E+06    -35.6263E+03    -289.480E-03     579.082E-03    -289.602E-03     8.41834E-03    -289.590E-03     578.318E-03    -289.623E-03     9.20788E-03
            1772     1.34735E-03     62.1049E-03    -116.975E+06    -228.590E+06    -110.344E+06    -26.3195E+03    -289.535E-03     579.128E-03    -289.593E-03     5.69428E-03    -289.628E-03     578.315E-03    -289.644E-03     6.25950E-03
            1773     673.667E-06     62.0963E-03    -119.566E+06    -238.297E+06    -117.694E+06    -9.71796E+03    -289.591E-03     579.161E-03    -289.570E-03     3.10122E-03    -289.673E-03     578.314E-03    -289.639E-03     3.41919E-03
            1774     12.8080E-03     61.1883E-03    -5.20267E+06     81.1935E+06     97.8616E+06    -22.4317E+03    -288.404E-03     577.793E-03    -289.389E-03     32.3465E-03    -288.863E-03     578.238E-03    -289.010E-03     26.1862E-03
            1775     12.1335E-03     61.1316E-03    -10.8167E+06     76.5498E+06     97.9922E+06     90.4699E+03    -288.467E-03     577.900E-03    -289.433E-03     38.4709E-03    -288.987E-03     578.370E-03    -289.038E-03     31.8945E-03
            1776     11.4591E-03     61.0728E-03    -16.8617E+06     62.1537E+06     89.5230E+06     108.960E+03    -288.566E-03     578.019E-03    -289.452E-03     38.7592E-03    -289.048E-03     578.401E-03    -289.070E-03     33.2731E-03
            1777     10.7847E-03     61.0112E-03    -23.2098E+06     56.4312E+06     79.2125E+06     25.0956E+03    -288.624E-03     578.077E-03    -289.453E-03     39.0437E-03    -289.091E-03     578.432E-03    -289.105E-03     34.3519E-03
            1778     10.1102E-03     60.9486E-03    -29.7974E+06     50.9343E+06     69.3156E+06     47.6061E+03    -288.659E-03     578.118E-03    -289.460E-03     38.1968E-03    -289.106E-03     578.440E-03    -289.144E-03     34.4315E-03
            1779     9.43580E-03     60.8867E-03    -36.4781E+06     39.4207E+06     56.6995E+06     24.3839E+03    -288.705E-03     578.171E-03    -289.466E-03     36.5418E-03    -289.122E-03     578.434E-03    -289.187E-03     33.6999E-03
            1780     8.76141E-03     60.8268E-03    -43.3211E+06     36.0880E+06     47.3166E+06    -22.8140E+03    -288.698E-03     578.179E-03    -289.480E-03     34.3921E-03    -289.104E-03     578.422E-03    -289.233E-03     32.4165E-03
            1781     8.08703E-03     60.7697E-03    -50.4418E+06     11.5617E+06     36.0765E+06    -20.8315E+03    -288.768E-03     578.288E-03    -289.520E-03     32.0407E-03    -289.136E-03     578.414E-03    -289.283E-03     30.8476E-03
            1782     7.41274E-03     60.7155E-03    -57.6951E+06    -28.5369E+06     22.1661E+06    -33.9571E+03    -288.902E-03     578.471E-03    -289.569E-03     29.6683E-03    -289.213E-03     578.412E-03    -289.333E-03     29.1401E-03
            1783     6.73854E-03     60.6646E-03    -65.0124E+06    -61.8650E+06     8.43083E+06    -27.1749E+03    -289.008E-03     578.615E-03    -289.607E-03     27.2189E-03    -289.276E-03     578.408E-03    -289.381E-03     27.2377E-03
            1784     6.06441E-03     60.6174E-03    -72.4182E+06    -90.0760E+06    -5.56246E+06    -11.8205E+03    -289.090E-03     578.725E-03    -289.635E-03     24.6406E-03    -289.326E-03     578.400E-03    -289.427E-03     25.0945E-03
            1785     5.39034E-03     60.5743E-03    -79.8837E+06    -115.543E+06    -20.1781E+06         684.766    -289.163E-03     578.817E-03    -289.654E-03     22.0134E-03    -289.373E-03     578.392E-03    -289.472E-03     22.7825E-03
            1786     4.71635E-03     60.5354E-03    -87.3232E+06    -138.610E+06    -35.6075E+06     14.4108E+03    -289.234E-03     578.898E-03    -289.664E-03     19.3561E-03    -289.421E-03     578.387E-03    -289.515E-03     20.3244E-03
            1787     4.04242E-03     60.5012E-03    -94.5891E+06    -160.408E+06    -51.7617E+06     24.5199E+03    -289.307E-03     578.974E-03    -289.666E-03     16.6687E-03    -289.474E-03     578.385E-03    -289.556E-03     17.7269E-03
            1788     3.36855E-03     60.4717E-03    -101.472E+06    -180.564E+06    -68.2657E+06     5.29845E+03    -289.379E-03     579.039E-03    -289.661E-03     13.9511E-03    -289.526E-03     578.383E-03    -289.593E-03     14.9999E-03
            1789     2.69475E-03     60.4472E-03    -107.708E+06    -198.623E+06    -84.3615E+06    -25.2298E+03    -289.446E-03     579.095E-03    -289.649E-03     11.2058E-03    -289.574E-03     578.380E-03    -289.626E-03     12.1593E-03
            1790     2.02100E-03     60.4280E-03    -112.964E+06    -214.301E+06    -98.9804E+06    -25.0541E+03    -289.509E-03     579.144E-03    -289.635E-03     8.45961E-03    -289.619E-03     578.379E-03    -289.655E-03     9.24469E-03
            1791     1.34730E-03     60.4140E-03    -116.960E+06    -228.646E+06    -110.333E+06    -14.6343E+03    -289.567E-03     579.194E-03    -289.627E-03     5.72385E-03    -289.660E-03     578.380E-03    -289.678E-03     6.28589E-03
            1792     673.642E-06     60.4054E-03    -119.557E+06    -238.352E+06    -117.690E+06    -10.5380E+03    -289.625E-03     579.230E-03    -289.605E-03     3.11834E-03    -289.707E-03     578.383E-03    -289.675E-03     3.43430E-03
            1793     12.8080E-03     59.4983E-03    -5.22290E+06     81.2288E+06     97.8559E+06    -43.1247E+03    -288.377E-03     577.767E-03    -289.391E-03     32.3305E-03    -288.835E-03     578.212E-03    -289.012E-03     26.1719E-03
            1794     12.1335E-03     59.4415E-03    -10.9985E+06     76.3958E+06     97.8594E+06    -117.589E+03    -288.436E-03     577.873E-03    -289.436E-03     38.4625E-03    -288.957E-03     578.342E-03    -289.042E-03     31.8840E-03
            1795     11.4590E-03     59.3828E-03    -17.1345E+06     62.0874E+06     89.4013E+06    -61.2695E+03    -288.537E-03     577.994E-03    -289.457E-03     38.7725E-03    -289.019E-03     578.377E-03    -289.075E-03     33.2827E-03
            1796     10.7846E-03     59.3212E-03    -23.4219E+06     56.4251E+06     79.1531E+06     47.0353E+03    -288.596E-03     578.057E-03    -289.460E-03     39.0710E-03    -289.064E-03     578.412E-03    -289.112E-03     34.3771E-03
            1797     10.1101E-03     59.2585E-03    -29.8730E+06     50.9250E+06     69.3162E+06     33.3052E+03    -288.633E-03     578.102E-03    -289.470E-03     38.2434E-03    -289.081E-03     578.424E-03    -289.154E-03     34.4734E-03
            1798     9.43569E-03     59.1966E-03    -36.4707E+06     39.4932E+06     56.7503E+06     33.3963E+03    -288.681E-03     578.160E-03    -289.478E-03     36.6079E-03    -289.098E-03     578.423E-03    -289.199E-03     33.7594E-03
            1799     8.76128E-03     59.1367E-03    -43.2983E+06     36.0994E+06     47.3553E+06     50.2397E+03    -288.679E-03     578.174E-03    -289.496E-03     34.4713E-03    -289.085E-03     578.418E-03    -289.248E-03     32.4883E-03
            1800     8.08689E-03     59.0795E-03    -50.4174E+06     11.6025E+06     36.1123E+06     26.5328E+03    -288.753E-03     578.291E-03    -289.538E-03     32.1322E-03    -289.123E-03     578.418E-03    -289.301E-03     30.9298E-03
            1801     7.41259E-03     59.0253E-03    -57.6800E+06    -28.5275E+06     22.1925E+06     11.3828E+03    -288.893E-03     578.483E-03    -289.590E-03     29.7641E-03    -289.204E-03     578.424E-03    -289.354E-03     29.2260E-03
            1802     6.73838E-03     58.9742E-03    -65.0099E+06    -61.9158E+06     8.45318E+06     12.3207E+03    -289.004E-03     578.635E-03    -289.631E-03     27.3130E-03    -289.272E-03     578.428E-03    -289.404E-03     27.3220E-03
            1803     6.06425E-03     58.9269E-03    -72.4194E+06    -90.1220E+06    -5.53274E+06     29.7666E+03    -289.092E-03     578.754E-03    -289.661E-03     24.7329E-03    -289.328E-03     578.429E-03    -289.453E-03     25.1771E-03
            1804     5.39018E-03     58.8837E-03    -79.8834E+06    -115.535E+06    -20.1552E+06     29.4974E+03    -289.172E-03     578.856E-03    -289.684E-03     22.1055E-03    -289.382E-03     578.430E-03    -289.501E-03     22.8649E-03
            1805     4.71619E-03     58.8448E-03    -87.3154E+06    -138.635E+06    -35.5995E+06     18.3376E+03    -289.251E-03     578.947E-03    -289.696E-03     19.4480E-03    -289.438E-03     578.435E-03    -289.547E-03     20.4062E-03
            1806     4.04228E-03     58.8104E-03    -94.5736E+06    -160.392E+06    -51.7699E+06     10.1120E+03    -289.330E-03     579.031E-03    -289.701E-03     16.7533E-03    -289.497E-03     578.442E-03    -289.590E-03     17.8019E-03
            1807     3.36843E-03     58.7809E-03    -101.457E+06    -180.493E+06    -68.2687E+06    -9.85480E+03    -289.407E-03     579.103E-03    -289.697E-03     14.0237E-03    -289.554E-03     578.447E-03    -289.629E-03     15.0644E-03
            1808     2.69465E-03     58.7564E-03    -107.697E+06    -198.648E+06    -84.3511E+06    -12.1310E+03    -289.479E-03     579.165E-03    -289.687E-03     11.2668E-03    -289.607E-03     578.450E-03    -289.664E-03     12.2138E-03
            1809     2.02093E-03     58.7371E-03    -112.955E+06    -214.341E+06    -98.9696E+06        -989.729    -289.545E-03     579.219E-03    -289.674E-03     8.50769E-03    -289.655E-03     578.454E-03    -289.694E-03     9.28789E-03
            1810     1.34725E-03     58.7231E-03    -116.951E+06    -228.670E+06    -110.321E+06     1.95280E+03    -289.606E-03     579.273E-03    -289.667E-03     5.75713E-03    -289.699E-03     578.459E-03    -289.718E-03     6.31573E-03
            1811     673.615E-06     58.7144E-03    -119.546E+06    -238.373E+06    -117.679E+06     3.07789E+03    -289.666E-03     579.311E-03    -289.646E-03     3.13608E-03    -289.747E-03     578.463E-03    -289.715E-03     3.45025E-03
            1812     12.8079E-03     57.8082E-03    -5.18504E+06     81.3014E+06     97.8980E+06    -19.4700E+03    -288.346E-03     577.739E-03    -289.393E-03     32.3214E-03    -288.805E-03     578.184E-03    -289.014E-03     26.1656E-03
            1813     12.1335E-03     57.7516E-03    -10.9422E+06     76.4826E+06     97.9235E+06    -13.8520E+03    -288.403E-03     577.843E-03    -289.440E-03     38.4658E-03    -288.924E-03     578.313E-03    -289.046E-03     31.8900E-03
            1814     11.4589E-03     57.6928E-03    -17.1624E+06     62.0029E+06     89.3830E+06    -77.9770E+03    -288.501E-03     577.964E-03    -289.464E-03     38.7915E-03    -288.984E-03     578.347E-03    -289.082E-03     33.3000E-03
            1815     10.7845E-03     57.6312E-03    -23.4822E+06     56.3564E+06     79.1042E+06    -140.885E+03    -288.560E-03     578.029E-03    -289.469E-03     39.1074E-03    -289.028E-03     578.385E-03    -289.121E-03     34.4071E-03
            1816     10.1100E-03     57.5686E-03    -29.9479E+06     50.8403E+06     69.2459E+06    -83.4044E+03    -288.598E-03     578.080E-03    -289.482E-03     38.3015E-03    -289.047E-03     578.402E-03    -289.166E-03     34.5238E-03
            1817     9.43555E-03     57.5066E-03    -36.5762E+06     39.3558E+06     56.6742E+06    -4.68227E+03    -288.653E-03     578.146E-03    -289.493E-03     36.6885E-03    -289.071E-03     578.410E-03    -289.214E-03     33.8306E-03
            1818     8.76112E-03     57.4466E-03    -43.3774E+06     36.1072E+06     47.3380E+06     29.5310E+03    -288.657E-03     578.171E-03    -289.514E-03     34.5701E-03    -289.064E-03     578.415E-03    -289.267E-03     32.5760E-03
            1819     8.08671E-03     57.3893E-03    -50.4604E+06     11.6074E+06     36.1100E+06     46.2897E+03    -288.737E-03     578.297E-03    -289.560E-03     32.2442E-03    -289.107E-03     578.425E-03    -289.323E-03     31.0298E-03
            1820     7.41241E-03     57.3349E-03    -57.7089E+06    -28.5184E+06     22.2040E+06     51.9443E+03    -288.883E-03     578.498E-03    -289.615E-03     29.8805E-03    -289.195E-03     578.440E-03    -289.379E-03     29.3303E-03
            1821     6.73819E-03     57.2838E-03    -65.0346E+06    -61.9478E+06     8.46153E+06     58.2758E+03    -289.001E-03     578.660E-03    -289.659E-03     27.4280E-03    -289.269E-03     578.453E-03    -289.433E-03     27.4251E-03
            1822     6.06405E-03     57.2364E-03    -72.4451E+06    -90.1283E+06    -5.53166E+06     57.5738E+03    -289.096E-03     578.790E-03    -289.694E-03     24.8459E-03    -289.332E-03     578.465E-03    -289.485E-03     25.2784E-03
            1823     5.38999E-03     57.1931E-03    -79.9033E+06    -115.473E+06    -20.1648E+06     37.4501E+03    -289.184E-03     578.903E-03    -289.719E-03     22.2167E-03    -289.394E-03     578.478E-03    -289.536E-03     22.9645E-03
            1824     4.71601E-03     57.1541E-03    -87.3357E+06    -138.633E+06    -35.6243E+06     19.9914E+03    -289.271E-03     579.005E-03    -289.734E-03     19.5563E-03    -289.458E-03     578.494E-03    -289.585E-03     20.5029E-03
            1825     4.04211E-03     57.1196E-03    -94.6031E+06    -160.357E+06    -51.8188E+06     9.91841E+03    -289.357E-03     579.098E-03    -289.741E-03     16.8517E-03    -289.524E-03     578.510E-03    -289.631E-03     17.8898E-03
            1826     3.36829E-03     57.0900E-03    -101.494E+06    -180.464E+06    -68.3299E+06    -3.82106E+03    -289.440E-03     579.179E-03    -289.740E-03     14.1079E-03    -289.587E-03     578.524E-03    -289.672E-03     15.1399E-03
            1827     2.69453E-03     57.0654E-03    -107.734E+06    -198.703E+06    -84.3943E+06    -3.60387E+03    -289.518E-03     579.250E-03    -289.732E-03     11.3388E-03    -289.646E-03     578.535E-03    -289.710E-03     12.2783E-03
            1828     2.02083E-03     57.0460E-03    -112.982E+06    -214.356E+06    -98.9939E+06     6.37488E+03    -289.589E-03     579.310E-03    -289.721E-03     8.56516E-03    -289.700E-03     578.545E-03    -289.741E-03     9.33929E-03
            1829     1.34719E-03     57.0320E-03    -116.969E+06    -228.671E+06    -110.337E+06     7.91217E+03    -289.653E-03     579.367E-03    -289.714E-03     5.79614E-03    -289.746E-03     578.553E-03    -289.765E-03     6.35070E-03
            1830     673.584E-06     57.0233E-03    -119.560E+06    -238.360E+06    -117.690E+06     5.12640E+03    -289.714E-03     579.405E-03    -289.691E-03     3.15679E-03    -289.796E-03     578.558E-03    -289.761E-03     3.46884E-03
            1831     12.8079E-03     56.1182E-03    -5.22948E+06     81.3750E+06     97.8505E+06    -38.8886E+03    -288.302E-03     577.697E-03    -289.395E-03     32.3011E-03    -288.760E-03     578.142E-03    -289.017E-03     26.1474E-03
            1832     12.1334E-03     56.0616E-03    -10.9021E+06     76.5526E+06     97.9267E+06    -110.744E+03    -288.359E-03     577.805E-03    -289.445E-03     38.4681E-03    -288.880E-03     578.274E-03    -289.051E-03     31.8916E-03
            1833     11.4589E-03     56.0029E-03    -16.9232E+06     62.1471E+06     89.4792E+06    -154.114E+03    -288.458E-03     577.930E-03    -289.472E-03     38.8265E-03    -288.940E-03     578.313E-03    -289.090E-03     33.3317E-03
            1834     10.7844E-03     55.9412E-03    -23.2523E+06     56.1807E+06     79.1254E+06    -97.2991E+03    -288.518E-03     577.999E-03    -289.481E-03     39.1594E-03    -288.986E-03     578.354E-03    -289.133E-03     34.4556E-03
            1835     10.1098E-03     55.8786E-03    -29.8474E+06     50.6036E+06     69.2138E+06     1.30678E+03    -288.560E-03     578.057E-03    -289.497E-03     38.3727E-03    -289.009E-03     578.378E-03    -289.181E-03     34.5893E-03
            1836     9.43537E-03     55.8166E-03    -36.5341E+06     39.3508E+06     56.6717E+06     18.9013E+03    -288.618E-03     578.130E-03    -289.512E-03     36.7853E-03    -289.037E-03     578.394E-03    -289.233E-03     33.9178E-03
            1837     8.76092E-03     55.7565E-03    -43.3836E+06     36.0244E+06     47.3089E+06     19.9962E+03    -288.630E-03     578.166E-03    -289.537E-03     34.6883E-03    -289.038E-03     578.411E-03    -289.290E-03     32.6815E-03
            1838     8.08650E-03     55.6991E-03    -50.5039E+06     11.5564E+06     36.0834E+06     53.1249E+03    -288.719E-03     578.306E-03    -289.587E-03     32.3772E-03    -289.090E-03     578.433E-03    -289.350E-03     31.1486E-03
            1839     7.41218E-03     55.6446E-03    -57.7585E+06    -28.5282E+06     22.1757E+06     69.1474E+03    -288.872E-03     578.518E-03    -289.646E-03     30.0183E-03    -289.185E-03     578.460E-03    -289.410E-03     29.4536E-03
            1840     6.73796E-03     55.5934E-03    -65.0716E+06    -61.9517E+06     8.44175E+06     68.8492E+03    -288.998E-03     578.692E-03    -289.694E-03     27.5658E-03    -289.267E-03     578.486E-03    -289.468E-03     27.5485E-03
            1841     6.06382E-03     55.5458E-03    -72.4600E+06    -90.0872E+06    -5.54929E+06     57.3995E+03    -289.103E-03     578.835E-03    -289.732E-03     24.9827E-03    -289.340E-03     578.511E-03    -289.524E-03     25.4008E-03
            1842     5.38977E-03     55.5024E-03    -79.9115E+06    -115.419E+06    -20.1835E+06     40.0691E+03    -289.201E-03     578.962E-03    -289.761E-03     22.3495E-03    -289.412E-03     578.538E-03    -289.579E-03     23.0834E-03
            1843     4.71580E-03     55.4632E-03    -87.3434E+06    -138.627E+06    -35.6377E+06     30.8021E+03    -289.297E-03     579.077E-03    -289.780E-03     19.6821E-03    -289.484E-03     578.566E-03    -289.631E-03     20.6156E-03
            1844     4.04192E-03     55.4287E-03    -94.6076E+06    -160.327E+06    -51.8244E+06     24.4532E+03    -289.389E-03     579.180E-03    -289.790E-03     16.9649E-03    -289.556E-03     578.592E-03    -289.680E-03     17.9914E-03
            1845     3.36811E-03     55.3989E-03    -101.498E+06    -180.452E+06    -68.3348E+06     17.3236E+03    -289.479E-03     579.270E-03    -289.791E-03     14.2060E-03    -289.626E-03     578.615E-03    -289.724E-03     15.2282E-03
            1846     2.69438E-03     55.3743E-03    -107.741E+06    -198.718E+06    -84.4085E+06     12.1857E+03    -289.565E-03     579.351E-03    -289.786E-03     11.4231E-03    -289.693E-03     578.636E-03    -289.764E-03     12.3541E-03
            1847     2.02072E-03     55.3548E-03    -112.997E+06    -214.365E+06    -99.0149E+06     8.46173E+03    -289.642E-03     579.418E-03    -289.776E-03     8.63225E-03    -289.752E-03     578.654E-03    -289.797E-03     9.39944E-03
            1848     1.34711E-03     55.3407E-03    -116.987E+06    -228.662E+06    -110.358E+06     7.71802E+03    -289.708E-03     579.480E-03    -289.771E-03     5.84259E-03    -289.802E-03     578.666E-03    -289.822E-03     6.39246E-03
            1849     673.546E-06     55.3320E-03    -119.579E+06    -238.345E+06    -117.713E+06     4.74409E+03    -289.772E-03     579.520E-03    -289.748E-03     3.18273E-03    -289.853E-03     578.673E-03    -289.818E-03     3.49219E-03
            1850     12.8079E-03     54.4283E-03    -5.19037E+06     81.4761E+06     97.9386E+06    -16.2689E+03    -288.249E-03     577.648E-03    -289.398E-03     32.2884E-03    -288.708E-03     578.093E-03    -289.019E-03     26.1376E-03
            1851     12.1333E-03     54.3718E-03    -11.0070E+06     76.8924E+06     97.9678E+06    -126.714E+03    -288.298E-03     577.749E-03    -289.451E-03     38.4743E-03    -288.820E-03     578.221E-03    -289.057E-03     31.8982E-03
            1852     11.4587E-03     54.3131E-03    -17.2953E+06     62.0791E+06     89.2904E+06    -211.606E+03    -288.399E-03     577.880E-03    -289.481E-03     38.8621E-03    -288.883E-03     578.264E-03    -289.100E-03     33.3638E-03
            1853     10.7842E-03     54.2514E-03    -23.6390E+06     55.7949E+06     78.8546E+06    -113.560E+03    -288.467E-03     577.962E-03    -289.494E-03     39.2175E-03    -288.936E-03     578.316E-03    -289.147E-03     34.5084E-03
            1854     10.1097E-03     54.1887E-03    -30.0665E+06     50.5062E+06     69.0892E+06    -31.1072E+03    -288.513E-03     578.027E-03    -289.515E-03     38.4590E-03    -288.963E-03     578.350E-03    -289.199E-03     34.6670E-03
            1855     9.43516E-03     54.1266E-03    -36.6501E+06     39.3020E+06     56.5915E+06     4.65009E+03    -288.577E-03     578.112E-03    -289.535E-03     36.9017E-03    -288.996E-03     578.376E-03    -289.256E-03     34.0224E-03
            1856     8.76068E-03     54.0664E-03    -43.4576E+06     35.9685E+06     47.2428E+06     46.0801E+03    -288.597E-03     578.161E-03    -289.564E-03     34.8271E-03    -289.005E-03     578.406E-03    -289.317E-03     32.8065E-03
            1857     8.08624E-03     54.0088E-03    -50.5571E+06     11.4954E+06     36.0345E+06     58.2237E+03    -288.696E-03     578.315E-03    -289.619E-03     32.5317E-03    -289.067E-03     578.443E-03    -289.382E-03     31.2870E-03
            1858     7.41190E-03     53.9542E-03    -57.7971E+06    -28.5231E+06     22.1414E+06     59.6088E+03    -288.860E-03     578.543E-03    -289.683E-03     30.1790E-03    -289.173E-03     578.485E-03    -289.447E-03     29.5975E-03
            1859     6.73767E-03     53.9028E-03    -65.1012E+06    -61.9326E+06     8.40769E+06     47.0141E+03    -288.997E-03     578.733E-03    -289.736E-03     27.7282E-03    -289.266E-03     578.527E-03    -289.510E-03     27.6936E-03
            1860     6.06354E-03     53.8552E-03    -72.4929E+06    -90.0694E+06    -5.57952E+06     41.3218E+03    -289.114E-03     578.892E-03    -289.779E-03     25.1448E-03    -289.351E-03     578.568E-03    -289.571E-03     25.5458E-03
            1861     5.38949E-03     53.8116E-03    -79.9438E+06    -115.394E+06    -20.2092E+06     39.0677E+03    -289.224E-03     579.036E-03    -289.812E-03     22.5071E-03    -289.434E-03     578.611E-03    -289.630E-03     23.2245E-03
            1862     4.71554E-03     53.7723E-03    -87.3727E+06    -138.622E+06    -35.6633E+06     33.4837E+03    -289.329E-03     579.163E-03    -289.835E-03     19.8295E-03    -289.517E-03     578.652E-03    -289.685E-03     20.7477E-03
            1863     4.04168E-03     53.7376E-03    -94.6355E+06    -160.312E+06    -51.8487E+06     30.9725E+03    -289.429E-03     579.277E-03    -289.848E-03     17.0977E-03    -289.596E-03     578.689E-03    -289.738E-03     18.1106E-03
            1864     3.36790E-03     53.7077E-03    -101.520E+06    -180.441E+06    -68.3532E+06     28.1272E+03    -289.526E-03     579.379E-03    -289.853E-03     14.3235E-03    -289.673E-03     578.723E-03    -289.786E-03     15.3339E-03
            1865     2.69421E-03     53.6829E-03    -107.753E+06    -198.705E+06    -84.4185E+06     24.4419E+03    -289.620E-03     579.470E-03    -289.850E-03     11.5230E-03    -289.748E-03     578.755E-03    -289.828E-03     12.4441E-03
            1866     2.02059E-03     53.6634E-03    -113.001E+06    -214.354E+06    -99.0230E+06     20.1470E+03    -289.702E-03     579.546E-03    -289.843E-03     8.70983E-03    -289.813E-03     578.781E-03    -289.864E-03     9.46953E-03
            1867     1.34702E-03     53.6492E-03    -116.992E+06    -228.648E+06    -110.368E+06     15.1457E+03    -289.773E-03     579.614E-03    -289.840E-03     5.89668E-03    -289.867E-03     578.800E-03    -289.891E-03     6.44134E-03
            1868     673.497E-06     53.6405E-03    -119.584E+06    -238.319E+06    -117.718E+06     9.97602E+03    -289.841E-03     579.660E-03    -289.819E-03     3.21169E-03    -289.923E-03     578.813E-03    -289.889E-03     3.51847E-03
            1869     12.8078E-03     52.7385E-03    -5.22415E+06     81.5414E+06     97.9378E+06    -21.8942E+03    -288.184E-03     577.586E-03    -289.402E-03     32.2851E-03    -288.643E-03     578.032E-03    -289.023E-03     26.1369E-03
            1870     12.1332E-03     52.6820E-03    -10.9455E+06     77.0593E+06     98.0411E+06    -3.94413E+03    -288.233E-03     577.691E-03    -289.459E-03     38.4935E-03    -288.755E-03     578.164E-03    -289.065E-03     31.9197E-03
            1871     11.4586E-03     52.6233E-03    -17.1119E+06     62.0957E+06     89.3644E+06     2.34080E+03    -288.335E-03     577.828E-03    -289.493E-03     38.9099E-03    -288.819E-03     578.212E-03    -289.112E-03     33.4111E-03
            1872     10.7840E-03     52.5616E-03    -23.5338E+06     55.7293E+06     78.8523E+06    -80.1647E+03    -288.405E-03     577.916E-03    -289.511E-03     39.2904E-03    -288.874E-03     578.270E-03    -289.163E-03     34.5753E-03
            1873     10.1094E-03     52.4988E-03    -30.1065E+06     50.4189E+06     69.0200E+06    -116.011E+03    -288.456E-03     577.992E-03    -289.536E-03     38.5645E-03    -288.906E-03     578.315E-03    -289.221E-03     34.7612E-03
            1874     9.43490E-03     52.4366E-03    -36.7468E+06     39.1228E+06     56.4884E+06    -63.7012E+03    -288.529E-03     578.091E-03    -289.562E-03     37.0417E-03    -288.949E-03     578.356E-03    -289.283E-03     34.1475E-03
            1875     8.76039E-03     52.3763E-03    -43.5451E+06     35.8870E+06     47.1633E+06    -8.32398E+03    -288.558E-03     578.155E-03    -289.597E-03     34.9934E-03    -288.968E-03     578.401E-03    -289.350E-03     32.9551E-03
            1876     8.08592E-03     52.3186E-03    -50.6152E+06     11.4665E+06     35.9634E+06     14.1809E+03    -288.669E-03     578.327E-03    -289.658E-03     32.7148E-03    -289.041E-03     578.456E-03    -289.422E-03     31.4510E-03
            1877     7.41157E-03     52.2638E-03    -57.8352E+06    -28.5327E+06     22.0853E+06     14.3782E+03    -288.845E-03     578.573E-03    -289.728E-03     30.3687E-03    -289.159E-03     578.517E-03    -289.492E-03     29.7673E-03
            1878     6.73733E-03     52.2123E-03    -65.1318E+06    -61.9432E+06     8.37006E+06     23.1964E+03    -288.996E-03     578.783E-03    -289.787E-03     27.9191E-03    -289.267E-03     578.578E-03    -289.561E-03     27.8646E-03
            1879     6.06320E-03     52.1644E-03    -72.5200E+06    -90.0757E+06    -5.60850E+06     27.3823E+03    -289.127E-03     578.962E-03    -289.835E-03     25.3357E-03    -289.365E-03     578.638E-03    -289.627E-03     25.7168E-03
            1880     5.38917E-03     52.1206E-03    -79.9684E+06    -115.397E+06    -20.2355E+06     26.8651E+03    -289.251E-03     579.123E-03    -289.872E-03     22.6927E-03    -289.462E-03     578.699E-03    -289.690E-03     23.3909E-03
            1881     4.71524E-03     52.0812E-03    -87.3935E+06    -138.626E+06    -35.6897E+06     30.4546E+03    -289.367E-03     579.267E-03    -289.900E-03     20.0010E-03    -289.555E-03     578.756E-03    -289.751E-03     20.9018E-03
            1882     4.04140E-03     52.0463E-03    -94.6519E+06    -160.307E+06    -51.8750E+06     31.3031E+03    -289.476E-03     579.394E-03    -289.917E-03     17.2527E-03    -289.644E-03     578.806E-03    -289.807E-03     18.2501E-03
            1883     3.36766E-03     52.0163E-03    -101.533E+06    -180.427E+06    -68.3787E+06     28.3866E+03    -289.582E-03     579.508E-03    -289.926E-03     14.4646E-03    -289.729E-03     578.853E-03    -289.859E-03     15.4607E-03
            1884     2.69400E-03     51.9914E-03    -107.767E+06    -198.691E+06    -84.4398E+06     23.9737E+03    -289.684E-03     579.611E-03    -289.927E-03     11.6451E-03    -289.812E-03     578.896E-03    -289.905E-03     12.5539E-03
            1885     2.02042E-03     51.9718E-03    -113.013E+06    -214.340E+06    -99.0321E+06     22.6695E+03    -289.774E-03     579.698E-03    -289.923E-03     8.80556E-03    -289.885E-03     578.933E-03    -289.944E-03     9.55566E-03
            1886     1.34691E-03     51.9575E-03    -116.999E+06    -228.619E+06    -110.370E+06     21.1444E+03    -289.852E-03     579.775E-03    -289.923E-03     5.96463E-03    -289.945E-03     578.962E-03    -289.974E-03     6.50238E-03
            1887     673.441E-06     51.9487E-03    -119.587E+06    -238.275E+06    -117.721E+06     12.8953E+03    -289.924E-03     579.829E-03    -289.905E-03     3.24850E-03    -290.006E-03     578.981E-03    -289.974E-03     3.55164E-03
            1888     12.8078E-03     51.0489E-03    -5.19747E+06     81.5589E+06     97.9360E+06    -6.90071E+03    -288.107E-03     577.514E-03    -289.407E-03     32.2762E-03    -288.566E-03     577.960E-03    -289.028E-03     26.1310E-03
            1889     12.1331E-03     50.9924E-03    -10.9735E+06     76.9645E+06     98.0115E+06     3.13482E+03    -288.155E-03     577.623E-03    -289.468E-03     38.5151E-03    -288.677E-03     578.095E-03    -289.074E-03     31.9413E-03
            1890     11.4584E-03     50.9336E-03    -17.1499E+06     62.1207E+06     89.3746E+06     25.5531E+03    -288.258E-03     577.765E-03    -289.508E-03     38.9774E-03    -288.742E-03     578.150E-03    -289.126E-03     33.4743E-03
            1891     10.7838E-03     50.8719E-03    -23.4570E+06     55.9053E+06     78.9412E+06     31.3663E+03    -288.331E-03     577.863E-03    -289.531E-03     39.3871E-03    -288.801E-03     578.218E-03    -289.184E-03     34.6658E-03
            1892     10.1092E-03     50.8090E-03    -29.9791E+06     50.4346E+06     69.0729E+06    -11.1161E+03    -288.390E-03     577.952E-03    -289.563E-03     38.6910E-03    -288.840E-03     578.276E-03    -289.247E-03     34.8778E-03
            1893     9.43459E-03     50.7467E-03    -36.6553E+06     39.0313E+06     56.4925E+06    -41.5547E+03    -288.473E-03     578.068E-03    -289.595E-03     37.2054E-03    -288.893E-03     578.333E-03    -289.316E-03     34.2956E-03
            1894     8.76004E-03     50.6862E-03    -43.4954E+06     35.7961E+06     47.1459E+06    -32.0320E+03    -288.514E-03     578.151E-03    -289.637E-03     35.1861E-03    -288.924E-03     578.397E-03    -289.390E-03     33.1284E-03
            1895     8.08554E-03     50.6283E-03    -50.6016E+06     11.4254E+06     35.9328E+06    -17.1605E+03    -288.638E-03     578.343E-03    -289.705E-03     32.9255E-03    -289.011E-03     578.473E-03    -289.468E-03     31.6404E-03
            1896     7.41117E-03     50.5733E-03    -57.8498E+06    -28.5772E+06     22.0402E+06    -5.24212E+03    -288.831E-03     578.612E-03    -289.781E-03     30.5852E-03    -289.145E-03     578.556E-03    -289.546E-03     29.9619E-03
            1897     6.73693E-03     50.5216E-03    -65.1603E+06    -61.9814E+06     8.31739E+06     1.05736E+03    -288.998E-03     578.844E-03    -289.846E-03     28.1344E-03    -289.268E-03     578.639E-03    -289.621E-03     28.0582E-03
            1898     6.06280E-03     50.4735E-03    -72.5461E+06    -90.0886E+06    -5.65163E+06     2.77234E+03    -289.144E-03     579.045E-03    -289.900E-03     25.5502E-03    -289.382E-03     578.721E-03    -289.693E-03     25.9096E-03
            1899     5.38878E-03     50.4295E-03    -79.9896E+06    -115.435E+06    -20.2737E+06     11.4435E+03    -289.283E-03     579.227E-03    -289.944E-03     22.9003E-03    -289.494E-03     578.803E-03    -289.762E-03     23.5776E-03
            1900     4.71487E-03     50.3898E-03    -87.4128E+06    -138.644E+06    -35.7210E+06     22.6072E+03    -289.412E-03     579.389E-03    -289.977E-03     20.1913E-03    -289.600E-03     578.878E-03    -289.828E-03     21.0734E-03
            1901     4.04107E-03     50.3548E-03    -94.6690E+06    -160.312E+06    -51.8990E+06     26.9518E+03    -289.532E-03     579.531E-03    -289.999E-03     17.4250E-03    -289.699E-03     578.944E-03    -289.889E-03     18.4058E-03
            1902     3.36737E-03     50.3247E-03    -101.548E+06    -180.414E+06    -68.3992E+06     26.2414E+03    -289.647E-03     579.660E-03    -290.012E-03     14.6227E-03    -289.795E-03     579.005E-03    -289.946E-03     15.6034E-03
            1903     2.69375E-03     50.2996E-03    -107.778E+06    -198.680E+06    -84.4560E+06     23.0124E+03    -289.759E-03     579.778E-03    -290.018E-03     11.7824E-03    -289.888E-03     579.063E-03    -289.996E-03     12.6775E-03
            1904     2.02023E-03     50.2798E-03    -113.023E+06    -214.332E+06    -99.0435E+06     21.8869E+03    -289.860E-03     579.879E-03    -290.018E-03     8.91173E-03    -289.971E-03     579.114E-03    -290.039E-03     9.65117E-03
            1905     1.34677E-03     50.2655E-03    -117.009E+06    -228.587E+06    -110.380E+06     18.8434E+03    -289.946E-03     579.967E-03    -290.021E-03     6.03790E-03    -290.039E-03     579.153E-03    -290.071E-03     6.56815E-03
            1906     673.372E-06     50.2566E-03    -119.597E+06    -238.224E+06    -117.731E+06     13.1827E+03    -290.021E-03     580.025E-03    -290.004E-03     3.28810E-03    -290.103E-03     579.178E-03    -290.074E-03     3.58719E-03
            1907     12.8077E-03     49.3593E-03    -5.22691E+06     81.5288E+06     97.9290E+06     6.17695E+03    -288.014E-03     577.427E-03    -289.412E-03     32.2692E-03    -288.473E-03     577.872E-03    -289.033E-03     26.1271E-03
            1908     12.1330E-03     49.3028E-03    -10.9585E+06     76.9283E+06     98.0019E+06     25.6076E+03    -288.059E-03     577.538E-03    -289.479E-03     38.5480E-03    -288.581E-03     578.010E-03    -289.085E-03     31.9742E-03
            1909     11.4583E-03     49.2441E-03    -17.1158E+06     62.1315E+06     89.3787E+06     14.3029E+03    -288.164E-03     577.690E-03    -289.525E-03     39.0573E-03    -288.649E-03     578.075E-03    -289.143E-03     33.5484E-03
            1910     10.7836E-03     49.1822E-03    -23.4681E+06     55.9028E+06     78.9401E+06     5.22271E+03    -288.246E-03     577.801E-03    -289.556E-03     39.5002E-03    -288.716E-03     578.158E-03    -289.208E-03     34.7693E-03
            1911     10.1089E-03     49.1193E-03    -29.9687E+06     50.4765E+06     69.1009E+06     30.6347E+03    -288.314E-03     577.908E-03    -289.595E-03     38.8399E-03    -288.765E-03     578.232E-03    -289.279E-03     35.0142E-03
            1912     9.43422E-03     49.0569E-03    -36.6042E+06     39.0702E+06     56.5263E+06     28.2630E+03    -288.408E-03     578.042E-03    -289.634E-03     37.3940E-03    -288.829E-03     578.308E-03    -289.355E-03     34.4677E-03
            1913     8.75963E-03     48.9962E-03    -43.4441E+06     35.7668E+06     47.1591E+06     15.7934E+03    -288.464E-03     578.148E-03    -289.684E-03     35.4064E-03    -288.875E-03     578.395E-03    -289.437E-03     33.3283E-03
            1914     8.08510E-03     48.9380E-03    -50.5624E+06     11.3825E+06     35.9414E+06     18.1546E+03    -288.606E-03     578.365E-03    -289.759E-03     33.1671E-03    -288.979E-03     578.496E-03    -289.523E-03     31.8590E-03
            1915     7.41071E-03     48.8828E-03    -57.8194E+06    -28.6164E+06     22.0427E+06     18.4554E+03    -288.817E-03     578.661E-03    -289.844E-03     30.8336E-03    -289.132E-03     578.605E-03    -289.608E-03     30.1865E-03
            1916     6.73646E-03     48.8308E-03    -65.1392E+06    -61.9832E+06     8.30364E+06     10.4631E+03    -289.002E-03     578.918E-03    -289.916E-03     28.3796E-03    -289.273E-03     578.714E-03    -289.690E-03     28.2800E-03
            1917     6.06233E-03     48.7825E-03    -72.5419E+06    -90.1114E+06    -5.67964E+06     1.06577E+03    -289.166E-03     579.142E-03    -289.977E-03     25.7913E-03    -289.404E-03     578.820E-03    -289.769E-03     26.1274E-03
            1918     5.38833E-03     48.7382E-03    -79.9970E+06    -115.490E+06    -20.3008E+06     7.36235E+03    -289.319E-03     579.346E-03    -290.027E-03     23.1317E-03    -289.530E-03     578.922E-03    -289.845E-03     23.7865E-03
            1919     4.71445E-03     48.6983E-03    -87.4232E+06    -138.668E+06    -35.7431E+06     17.9229E+03    -289.461E-03     579.527E-03    -290.066E-03     20.4061E-03    -289.650E-03     579.017E-03    -289.917E-03     21.2677E-03
            1920     4.04069E-03     48.6631E-03    -94.6811E+06    -160.322E+06    -51.9205E+06     21.9951E+03    -289.595E-03     579.690E-03    -290.095E-03     17.6228E-03    -289.763E-03     579.103E-03    -289.985E-03     18.5849E-03
            1921     3.36703E-03     48.6327E-03    -101.561E+06    -180.409E+06    -68.4193E+06     21.9885E+03    -289.726E-03     579.839E-03    -290.113E-03     14.8021E-03    -289.873E-03     579.184E-03    -290.047E-03     15.7656E-03
            1922     2.69347E-03     48.6075E-03    -107.789E+06    -198.674E+06    -84.4721E+06     20.7637E+03    -289.851E-03     579.975E-03    -290.124E-03     11.9347E-03    -289.980E-03     579.260E-03    -290.102E-03     12.8151E-03
            1923     2.02001E-03     48.5876E-03    -113.032E+06    -214.326E+06    -99.0559E+06     21.3329E+03    -289.963E-03     580.089E-03    -290.127E-03     9.02635E-03    -290.073E-03     579.325E-03    -290.147E-03     9.75490E-03
            1924     1.34662E-03     48.5731E-03    -117.016E+06    -228.556E+06    -110.393E+06     21.0082E+03    -290.054E-03     580.185E-03    -290.131E-03     6.11350E-03    -290.148E-03     579.372E-03    -290.182E-03     6.63686E-03
            1925     673.299E-06     48.5642E-03    -119.605E+06    -238.169E+06    -117.741E+06     14.0106E+03    -290.132E-03     580.248E-03    -290.115E-03     3.32880E-03    -290.214E-03     579.401E-03    -290.185E-03     3.62425E-03
            1926     12.8076E-03     47.6699E-03    -5.20095E+06     81.5100E+06     97.9170E+06     15.7580E+03    -287.902E-03     577.321E-03    -289.419E-03     32.2694E-03    -288.360E-03     577.766E-03    -289.040E-03     26.1305E-03
            1927     12.1328E-03     47.6135E-03    -10.9573E+06     76.9126E+06     97.9881E+06     12.5592E+03    -287.946E-03     577.438E-03    -289.492E-03     38.5909E-03    -288.468E-03     577.910E-03    -289.098E-03     32.0160E-03
            1928     11.4580E-03     47.5547E-03    -17.1281E+06     62.1397E+06     89.3742E+06     25.8630E+03    -288.056E-03     577.602E-03    -289.546E-03     39.1565E-03    -288.542E-03     577.988E-03    -289.164E-03     33.6406E-03
            1929     10.7833E-03     47.4927E-03    -23.4710E+06     55.9051E+06     78.9354E+06     33.8529E+03    -288.146E-03     577.730E-03    -289.584E-03     39.6384E-03    -288.617E-03     578.088E-03    -289.236E-03     34.8967E-03
            1930     10.1085E-03     47.4297E-03    -29.9975E+06     50.4461E+06     69.0777E+06     20.8859E+03    -288.226E-03     577.857E-03    -289.631E-03     39.0166E-03    -288.679E-03     578.182E-03    -289.316E-03     35.1754E-03
            1931     9.43379E-03     47.3670E-03    -36.6344E+06     39.0686E+06     56.5162E+06     34.5264E+03    -288.334E-03     578.014E-03    -289.680E-03     37.6146E-03    -288.757E-03     578.281E-03    -289.401E-03     34.6683E-03
            1932     8.75915E-03     47.3061E-03    -43.4497E+06     35.7671E+06     47.1585E+06     52.1067E+03    -288.407E-03     578.146E-03    -289.739E-03     35.6634E-03    -288.819E-03     578.394E-03    -289.492E-03     33.5619E-03
            1933     8.08459E-03     47.2477E-03    -50.5513E+06     11.3598E+06     35.9434E+06     51.2324E+03    -288.570E-03     578.393E-03    -289.823E-03     33.4490E-03    -288.944E-03     578.524E-03    -289.587E-03     32.1147E-03
            1934     7.41018E-03     47.1922E-03    -57.7988E+06    -28.6268E+06     22.0548E+06     45.6504E+03    -288.803E-03     578.719E-03    -289.916E-03     31.1229E-03    -289.119E-03     578.664E-03    -289.680E-03     30.4488E-03
            1935     6.73592E-03     47.1399E-03    -65.1156E+06    -61.9762E+06     8.31789E+06     39.3339E+03    -289.010E-03     579.006E-03    -289.997E-03     28.6658E-03    -289.281E-03     578.803E-03    -289.771E-03     28.5397E-03
            1936     6.06180E-03     47.0913E-03    -72.5188E+06    -90.1191E+06    -5.67261E+06     34.3696E+03    -289.192E-03     579.258E-03    -290.065E-03     26.0709E-03    -289.431E-03     578.935E-03    -289.858E-03     26.3814E-03
            1937     5.38782E-03     47.0467E-03    -79.9816E+06    -115.516E+06    -20.3044E+06     28.7494E+03    -289.360E-03     579.483E-03    -290.123E-03     23.3971E-03    -289.571E-03     579.059E-03    -289.941E-03     24.0278E-03
            1938     4.71396E-03     47.0065E-03    -87.4171E+06    -138.684E+06    -35.7520E+06     27.2120E+03    -289.516E-03     579.686E-03    -290.170E-03     20.6549E-03    -289.705E-03     579.176E-03    -290.021E-03     21.4942E-03
            1939     4.04024E-03     46.9710E-03    -94.6787E+06    -160.327E+06    -51.9325E+06     26.4384E+03    -289.670E-03     579.876E-03    -290.205E-03     17.8536E-03    -289.838E-03     579.289E-03    -290.095E-03     18.7948E-03
            1940     3.36663E-03     46.9405E-03    -101.558E+06    -180.412E+06    -68.4320E+06     24.6090E+03    -289.822E-03     580.051E-03    -290.230E-03     15.0063E-03    -289.969E-03     579.396E-03    -290.163E-03     15.9509E-03
            1941     2.69315E-03     46.9150E-03    -107.787E+06    -198.668E+06    -84.4832E+06     23.0843E+03    -289.961E-03     580.205E-03    -290.244E-03     12.1040E-03    -290.090E-03     579.491E-03    -290.222E-03     12.9687E-03
            1942     2.01976E-03     46.8949E-03    -113.031E+06    -214.323E+06    -99.0572E+06     23.9390E+03    -290.080E-03     580.330E-03    -290.249E-03     9.15469E-03    -290.191E-03     579.565E-03    -290.270E-03     9.87151E-03
            1943     1.34646E-03     46.8803E-03    -117.020E+06    -228.524E+06    -110.390E+06     25.7615E+03    -290.176E-03     580.431E-03    -290.255E-03     6.19897E-03    -290.270E-03     579.618E-03    -290.306E-03     6.71484E-03
            1944     673.214E-06     46.8713E-03    -119.610E+06    -238.099E+06    -117.746E+06     18.7792E+03    -290.257E-03     580.497E-03    -290.240E-03     3.37641E-03    -290.340E-03     579.651E-03    -290.310E-03     3.66771E-03
            1945     12.8075E-03     45.9807E-03    -5.20618E+06     81.4807E+06     97.9021E+06     12.3245E+03    -287.771E-03     577.197E-03    -289.426E-03     32.2732E-03    -288.229E-03     577.642E-03    -289.047E-03     26.1371E-03
            1946     12.1326E-03     45.9243E-03    -10.9477E+06     76.8993E+06     97.9832E+06     35.8666E+03    -287.813E-03     577.321E-03    -289.508E-03     38.6489E-03    -288.336E-03     577.794E-03    -289.114E-03     32.0726E-03
            1947     11.4577E-03     45.8654E-03    -17.1196E+06     62.1288E+06     89.3673E+06     34.8710E+03    -287.929E-03     577.499E-03    -289.570E-03     39.2808E-03    -288.415E-03     577.886E-03    -289.188E-03     33.7562E-03
            1948     10.7829E-03     45.8033E-03    -23.4587E+06     55.9059E+06     78.9377E+06     35.5640E+03    -288.030E-03     577.648E-03    -289.618E-03     39.8097E-03    -288.503E-03     578.007E-03    -289.270E-03     35.0545E-03
            1949     10.1081E-03     45.7402E-03    -29.9627E+06     50.4468E+06     69.0902E+06     49.9862E+03    -288.125E-03     577.799E-03    -289.675E-03     39.2307E-03    -288.579E-03     578.126E-03    -289.359E-03     35.3719E-03
            1950     9.43329E-03     45.6773E-03    -36.6142E+06     39.0381E+06     56.5149E+06     49.6791E+03    -288.250E-03     577.983E-03    -289.734E-03     37.8768E-03    -288.673E-03     578.252E-03    -289.454E-03     34.9073E-03
            1951     8.75859E-03     45.6161E-03    -43.4477E+06     35.7345E+06     47.1499E+06     64.6293E+03    -288.343E-03     578.146E-03    -289.803E-03     35.9692E-03    -288.757E-03     578.395E-03    -289.556E-03     33.8400E-03
            1952     8.08399E-03     45.5573E-03    -50.5535E+06     11.3542E+06     35.9336E+06     74.7640E+03    -288.530E-03     578.427E-03    -289.897E-03     33.7834E-03    -288.905E-03     578.559E-03    -289.661E-03     32.4186E-03
            1953     7.40955E-03     45.5014E-03    -57.8056E+06    -28.6309E+06     22.0465E+06     66.3654E+03    -288.787E-03     578.788E-03    -290.000E-03     31.4658E-03    -289.104E-03     578.734E-03    -289.765E-03     30.7604E-03
            1954     6.73529E-03     45.4488E-03    -65.1229E+06    -61.9876E+06     8.31104E+06     64.4349E+03    -289.018E-03     579.108E-03    -290.091E-03     29.0072E-03    -289.290E-03     578.906E-03    -289.865E-03     28.8500E-03
            1955     6.06118E-03     45.3998E-03    -72.5226E+06    -90.1177E+06    -5.67863E+06     62.9782E+03    -289.222E-03     579.390E-03    -290.168E-03     26.4042E-03    -289.461E-03     579.068E-03    -289.961E-03     26.6847E-03
            1956     5.38722E-03     45.3550E-03    -79.9809E+06    -115.509E+06    -20.3099E+06     58.7285E+03    -289.407E-03     579.642E-03    -290.235E-03     23.7139E-03    -289.619E-03     579.219E-03    -290.053E-03     24.3169E-03
            1957     4.71340E-03     45.3145E-03    -87.4168E+06    -138.673E+06    -35.7608E+06     50.1405E+03    -289.585E-03     579.875E-03    -290.290E-03     20.9554E-03    -289.774E-03     579.365E-03    -290.141E-03     21.7682E-03
            1958     4.03972E-03     45.2787E-03    -94.6798E+06    -160.321E+06    -51.9445E+06     40.9999E+03    -289.764E-03     580.097E-03    -290.333E-03     18.1308E-03    -289.932E-03     579.510E-03    -290.223E-03     19.0471E-03
            1959     3.36619E-03     45.2478E-03    -101.560E+06    -180.410E+06    -68.4461E+06     36.9611E+03    -289.936E-03     580.299E-03    -290.363E-03     15.2436E-03    -290.084E-03     579.644E-03    -290.296E-03     16.1674E-03
            1960     2.69278E-03     45.2221E-03    -107.791E+06    -198.658E+06    -84.4964E+06     35.5155E+03    -290.088E-03     580.469E-03    -290.381E-03     12.2963E-03    -290.217E-03     579.755E-03    -290.359E-03     13.1445E-03
            1961     2.01948E-03     45.2018E-03    -113.039E+06    -214.311E+06    -99.0652E+06     35.7498E+03    -290.214E-03     580.603E-03    -290.389E-03     9.30182E-03    -290.325E-03     579.839E-03    -290.410E-03     10.0062E-03
            1962     1.34627E-03     45.1871E-03    -117.031E+06    -228.479E+06    -110.400E+06     33.8839E+03    -290.315E-03     580.712E-03    -290.397E-03     6.29822E-03    -290.409E-03     579.899E-03    -290.448E-03     6.80587E-03
            1963     673.119E-06     45.1780E-03    -119.623E+06    -238.008E+06    -117.758E+06     23.7097E+03    -290.401E-03     580.782E-03    -290.382E-03     3.43153E-03    -290.483E-03     579.937E-03    -290.452E-03     3.71833E-03
            1964     12.8074E-03     44.2917E-03    -5.21230E+06     81.4529E+06     97.8833E+06     11.8631E+03    -287.615E-03     577.050E-03    -289.435E-03     32.2862E-03    -288.073E-03     577.495E-03    -289.056E-03     26.1527E-03
            1965     12.1324E-03     44.2353E-03    -10.9547E+06     76.8606E+06     97.9556E+06     19.0022E+03    -287.657E-03     577.183E-03    -289.526E-03     38.7270E-03    -288.180E-03     577.656E-03    -289.132E-03     32.1474E-03
            1966     11.4574E-03     44.1764E-03    -17.1071E+06     62.1195E+06     89.3581E+06     39.5146E+03    -287.779E-03     577.378E-03    -289.598E-03     39.4375E-03    -288.267E-03     577.766E-03    -289.217E-03     33.9015E-03
            1967     10.7825E-03     44.1141E-03    -23.4555E+06     55.8980E+06     78.9287E+06     52.1139E+03    -287.894E-03     577.551E-03    -289.657E-03     40.0242E-03    -288.368E-03     577.912E-03    -289.309E-03     35.2522E-03
            1968     10.1075E-03     44.0507E-03    -29.9814E+06     50.4187E+06     69.0709E+06     56.3464E+03    -288.007E-03     577.732E-03    -289.726E-03     39.4949E-03    -288.462E-03     578.060E-03    -289.410E-03     35.6141E-03
            1969     9.43270E-03     43.9876E-03    -36.6194E+06     39.0145E+06     56.5029E+06     80.7094E+03    -288.152E-03     577.949E-03    -289.796E-03     38.1958E-03    -288.578E-03     578.219E-03    -289.517E-03     35.1990E-03
            1970     8.75794E-03     43.9260E-03    -43.4522E+06     35.7027E+06     47.1373E+06     100.378E+03    -288.270E-03     578.148E-03    -289.878E-03     36.3400E-03    -288.685E-03     578.399E-03    -289.631E-03     34.1781E-03
            1971     8.08329E-03     43.8669E-03    -50.5658E+06     11.3491E+06     35.9147E+06     100.984E+03    -288.484E-03     578.468E-03    -289.984E-03     34.1853E-03    -288.861E-03     578.602E-03    -289.748E-03     32.7844E-03
            1972     7.40883E-03     43.8106E-03    -57.8183E+06    -28.6323E+06     22.0202E+06     94.2771E+03    -288.769E-03     578.868E-03    -290.099E-03     31.8762E-03    -289.087E-03     578.815E-03    -289.863E-03     31.1341E-03
            1973     6.73455E-03     43.7575E-03    -65.1383E+06    -62.0012E+06     8.28551E+06     88.8882E+03    -289.025E-03     579.225E-03    -290.201E-03     29.4148E-03    -289.298E-03     579.023E-03    -289.975E-03     29.2213E-03
            1974     6.06045E-03     43.7082E-03    -72.5420E+06    -90.1170E+06    -5.70353E+06     88.5577E+03    -289.252E-03     579.541E-03    -290.289E-03     26.8007E-03    -289.491E-03     579.220E-03    -290.082E-03     27.0467E-03
            1975     5.38651E-03     43.6629E-03    -80.0039E+06    -115.492E+06    -20.3382E+06     84.1430E+03    -289.465E-03     579.832E-03    -290.367E-03     24.0949E-03    -289.677E-03     579.409E-03    -290.185E-03     24.6652E-03
            1976     4.71273E-03     43.6221E-03    -87.4366E+06    -138.643E+06    -35.7905E+06     72.8338E+03    -289.674E-03     580.105E-03    -290.431E-03     21.3190E-03    -289.863E-03     579.596E-03    -290.282E-03     22.0999E-03
            1977     4.03912E-03     43.5859E-03    -94.6971E+06    -160.303E+06    -51.9730E+06     60.6994E+03    -289.880E-03     580.362E-03    -290.482E-03     18.4628E-03    -290.048E-03     579.775E-03    -290.372E-03     19.3495E-03
            1978     3.36567E-03     43.5547E-03    -101.579E+06    -180.399E+06    -68.4717E+06     55.3017E+03    -290.070E-03     580.587E-03    -290.517E-03     15.5256E-03    -290.218E-03     579.932E-03    -290.451E-03     16.4250E-03
            1979     2.69236E-03     43.5288E-03    -107.809E+06    -198.635E+06    -84.5219E+06     52.8330E+03    -290.233E-03     580.773E-03    -290.539E-03     12.5245E-03    -290.362E-03     580.059E-03    -290.518E-03     13.3538E-03
            1980     2.01916E-03     43.5083E-03    -113.055E+06    -214.285E+06    -99.0861E+06     51.2633E+03    -290.368E-03     580.919E-03    -290.551E-03     9.47832E-03    -290.479E-03     580.156E-03    -290.572E-03     10.1682E-03
            1981     1.34605E-03     43.4934E-03    -117.045E+06    -228.410E+06    -110.418E+06     47.6337E+03    -290.476E-03     581.038E-03    -290.562E-03     6.41969E-03    -290.570E-03     580.226E-03    -290.613E-03     6.91745E-03
            1982     673.006E-06     43.4842E-03    -119.636E+06    -237.888E+06    -117.775E+06     30.9052E+03    -290.568E-03     581.116E-03    -290.547E-03     3.49981E-03    -290.651E-03     580.271E-03    -290.618E-03     3.78101E-03
            1983     12.8073E-03     42.6030E-03    -5.19760E+06     81.4267E+06     97.8628E+06     14.3849E+03    -287.429E-03     576.875E-03    -289.446E-03     32.3105E-03    -287.888E-03     577.320E-03    -289.067E-03     26.1791E-03
            1984     12.1322E-03     42.5466E-03    -10.9506E+06     76.8383E+06     97.9376E+06     30.5979E+03    -287.471E-03     577.018E-03    -289.547E-03     38.8317E-03    -287.995E-03     577.492E-03    -289.153E-03     32.2476E-03
            1985     11.4570E-03     42.4875E-03    -17.1330E+06     62.0789E+06     89.3248E+06     36.4678E+03    -287.602E-03     577.233E-03    -289.632E-03     39.6365E-03    -288.090E-03     577.623E-03    -289.250E-03     34.0859E-03
            1986     10.7820E-03     42.4251E-03    -23.4682E+06     55.8654E+06     78.9008E+06     60.4155E+03    -287.733E-03     577.436E-03    -289.704E-03     40.2958E-03    -288.208E-03     577.798E-03    -289.356E-03     35.5021E-03
            1987     10.1069E-03     42.3614E-03    -29.9811E+06     50.3854E+06     69.0443E+06     89.3812E+03    -287.867E-03     577.653E-03    -289.786E-03     39.8236E-03    -288.324E-03     577.983E-03    -289.470E-03     35.9159E-03
            1988     9.43200E-03     42.2980E-03    -36.6398E+06     38.9748E+06     56.4691E+06     101.132E+03    -288.037E-03     577.908E-03    -289.871E-03     38.5873E-03    -288.465E-03     578.180E-03    -289.592E-03     35.5569E-03
            1989     8.75717E-03     42.2360E-03    -43.4662E+06     35.6761E+06     47.1147E+06     123.656E+03    -288.185E-03     578.152E-03    -289.966E-03     36.7938E-03    -288.603E-03     578.405E-03    -289.720E-03     34.5917E-03
            1990     8.08246E-03     42.1764E-03    -50.5735E+06     11.3271E+06     35.8946E+06     139.925E+03    -288.431E-03     578.519E-03    -290.087E-03     34.6734E-03    -288.810E-03     578.654E-03    -289.851E-03     33.2293E-03
            1991     7.40797E-03     42.1196E-03    -57.8370E+06    -28.6261E+06     21.9920E+06     136.208E+03    -288.746E-03     578.962E-03    -290.216E-03     32.3736E-03    -289.066E-03     578.911E-03    -289.980E-03     31.5878E-03
            1992     6.73368E-03     42.0660E-03    -65.1665E+06    -61.9948E+06     8.24777E+06     126.006E+03    -289.030E-03     579.361E-03    -290.331E-03     29.9062E-03    -289.305E-03     579.160E-03    -290.105E-03     29.6701E-03
            1993     6.05958E-03     42.0162E-03    -72.5758E+06    -90.1081E+06    -5.74402E+06     117.254E+03    -289.288E-03     579.721E-03    -290.433E-03     27.2795E-03    -289.528E-03     579.401E-03    -290.226E-03     27.4846E-03
            1994     5.38567E-03     41.9705E-03    -80.0344E+06    -115.464E+06    -20.3792E+06     107.393E+03    -289.538E-03     580.062E-03    -290.523E-03     24.5581E-03    -289.752E-03     579.640E-03    -290.342E-03     25.0886E-03
            1995     4.71195E-03     41.9293E-03    -87.4633E+06    -138.605E+06    -35.8332E+06     92.2530E+03    -289.785E-03     580.383E-03    -290.598E-03     21.7548E-03    -289.975E-03     579.874E-03    -290.449E-03     22.4979E-03
            1996     4.03842E-03     41.8927E-03    -94.7212E+06    -160.275E+06    -52.0131E+06     79.8247E+03    -290.017E-03     580.674E-03    -290.656E-03     18.8546E-03    -290.186E-03     580.088E-03    -290.547E-03     19.7077E-03
            1997     3.36506E-03     41.8611E-03    -101.599E+06    -180.371E+06    -68.5064E+06     71.7456E+03    -290.224E-03     580.923E-03    -290.699E-03     15.8604E-03    -290.372E-03     580.269E-03    -290.632E-03     16.7314E-03
            1998     2.69185E-03     41.8348E-03    -107.825E+06    -198.601E+06    -84.5448E+06     66.0183E+03    -290.402E-03     581.129E-03    -290.727E-03     12.7975E-03    -290.531E-03     580.415E-03    -290.706E-03     13.6040E-03
            1999     2.01877E-03     41.8141E-03    -113.069E+06    -214.249E+06    -99.0951E+06     66.4311E+03    -290.549E-03     581.293E-03    -290.744E-03     9.68922E-03    -290.660E-03     580.530E-03    -290.765E-03     10.3616E-03
            2000     1.34578E-03     41.7991E-03    -117.060E+06    -228.308E+06    -110.426E+06     60.5982E+03    -290.667E-03     581.426E-03    -290.759E-03     6.56587E-03    -290.761E-03     580.614E-03    -290.810E-03     7.05151E-03
            2001     672.873E-06     41.7898E-03    -119.651E+06    -237.736E+06    -117.787E+06     38.0040E+03    -290.768E-03     581.513E-03    -290.745E-03     3.58238E-03    -290.851E-03     580.669E-03    -290.816E-03     3.85661E-03
            2002     12.8071E-03     40.9146E-03    -5.21172E+06     81.3969E+06     97.8419E+06     8.52810E+03    -287.208E-03     576.666E-03    -289.458E-03     32.3503E-03    -287.666E-03     577.111E-03    -289.079E-03     26.2202E-03
            2003     12.1319E-03     40.8582E-03    -10.9454E+06     76.7941E+06     97.9063E+06     28.0100E+03    -287.248E-03     576.821E-03    -289.573E-03     38.9694E-03    -287.773E-03     577.296E-03    -289.179E-03     32.3784E-03
            2004     11.4566E-03     40.7990E-03    -17.1006E+06     62.0293E+06     89.2996E+06     61.4022E+03    -287.388E-03     577.061E-03    -289.672E-03     39.8864E-03    -287.879E-03     577.452E-03    -289.291E-03     34.3178E-03
            2005     10.7814E-03     40.7363E-03    -23.4667E+06     55.8105E+06     78.8656E+06     90.6035E+03    -287.539E-03     577.298E-03    -289.760E-03     40.6357E-03    -288.017E-03     577.663E-03    -289.412E-03     35.8154E-03
            2006     10.1062E-03     40.6722E-03    -29.9954E+06     50.3497E+06     69.0092E+06     107.935E+03    -287.699E-03     577.557E-03    -289.859E-03     40.2319E-03    -288.159E-03     577.890E-03    -289.543E-03     36.2908E-03
            2007     9.43117E-03     40.6084E-03    -36.6334E+06     38.9307E+06     56.4340E+06     137.224E+03    -287.900E-03     577.860E-03    -289.960E-03     39.0694E-03    -288.330E-03     578.134E-03    -289.681E-03     35.9985E-03
            2008     8.75624E-03     40.5460E-03    -43.4830E+06     35.6197E+06     47.0665E+06     177.074E+03    -288.083E-03     578.156E-03    -290.073E-03     37.3501E-03    -288.503E-03     578.411E-03    -289.826E-03     35.0997E-03
            2009     8.08147E-03     40.4858E-03    -50.6158E+06     11.3095E+06     35.8497E+06     192.120E+03    -288.366E-03     578.577E-03    -290.211E-03     35.2707E-03    -288.747E-03     578.715E-03    -289.975E-03     33.7741E-03
            2010     7.40694E-03     40.4284E-03    -57.8797E+06    -28.6105E+06     21.9550E+06     181.078E+03    -288.717E-03     579.073E-03    -290.356E-03     32.9845E-03    -289.039E-03     579.024E-03    -290.121E-03     32.1451E-03
            2011     6.73263E-03     40.3743E-03    -65.2070E+06    -61.9630E+06     8.21178E+06     163.948E+03    -289.037E-03     579.526E-03    -290.488E-03     30.5114E-03    -289.313E-03     579.327E-03    -290.263E-03     30.2230E-03
            2012     6.05854E-03     40.3240E-03    -72.6131E+06    -90.0743E+06    -5.78195E+06     144.585E+03    -289.337E-03     579.943E-03    -290.606E-03     27.8759E-03    -289.578E-03     579.624E-03    -290.399E-03     28.0294E-03
            2013     5.38467E-03     40.2777E-03    -80.0708E+06    -115.424E+06    -20.4184E+06     124.510E+03    -289.633E-03     580.343E-03    -290.710E-03     25.1387E-03    -289.847E-03     579.922E-03    -290.529E-03     25.6183E-03
            2014     4.71102E-03     40.2359E-03    -87.4982E+06    -138.563E+06    -35.8759E+06     106.906E+03    -289.918E-03     580.715E-03    -290.797E-03     22.2949E-03    -290.108E-03     580.207E-03    -290.649E-03     22.9911E-03
            2015     4.03758E-03     40.1988E-03    -94.7529E+06    -160.238E+06    -52.0588E+06      92.112E+03    -290.177E-03     581.043E-03    -290.866E-03     19.3360E-03    -290.346E-03     580.458E-03    -290.757E-03     20.1481E-03
            2016     3.36434E-03     40.1668E-03    -101.625E+06    -180.334E+06    -68.5488E+06     82.5070E+03    -290.406E-03     581.324E-03    -290.918E-03     16.2755E-03    -290.554E-03     580.670E-03    -290.852E-03     17.1115E-03
            2017     2.69125E-03     40.1403E-03    -107.849E+06    -198.565E+06    -84.5755E+06     77.9055E+03    -290.604E-03     581.558E-03    -290.954E-03     13.1403E-03    -290.733E-03     580.845E-03    -290.933E-03     13.9179E-03
            2018     2.01831E-03     40.1193E-03    -113.093E+06    -214.200E+06    -99.1095E+06     74.8126E+03    -290.768E-03     581.746E-03    -290.978E-03     9.95422E-03    -290.879E-03     580.983E-03    -290.999E-03     10.6043E-03
            2019     1.34547E-03     40.1040E-03    -117.082E+06    -228.188E+06    -110.442E+06     65.8285E+03    -290.898E-03     581.896E-03    -290.998E-03     6.74926E-03    -290.993E-03     581.085E-03    -291.049E-03     7.21940E-03
            2020     672.711E-06     40.0946E-03    -119.669E+06    -237.558E+06    -117.807E+06     42.5475E+03    -291.010E-03     581.994E-03    -290.984E-03     3.68452E-03    -291.093E-03     581.151E-03    -291.055E-03     3.95018E-03
            2021     12.8069E-03     39.2267E-03    -5.20344E+06     81.3701E+06     97.8075E+06     19.8600E+03    -286.939E-03     576.412E-03    -289.473E-03     32.4096E-03    -287.398E-03     576.858E-03    -289.094E-03     26.2804E-03
            2022     12.1315E-03     39.1702E-03    -10.9710E+06     76.7427E+06     97.8604E+06     36.9882E+03    -286.979E-03     576.583E-03    -289.604E-03     39.1513E-03    -287.506E-03     577.059E-03    -289.210E-03     32.5509E-03
            2023     11.4560E-03     39.1107E-03    -17.1543E+06     61.9307E+06     89.2303E+06     65.5258E+03    -287.131E-03     576.852E-03    -289.721E-03     40.2020E-03    -287.624E-03     577.245E-03    -289.339E-03     34.6101E-03
            2024     10.7806E-03     39.0477E-03    -23.4808E+06     55.7474E+06     78.8133E+06     114.031E+03    -287.303E-03     577.130E-03    -289.827E-03     41.0628E-03    -287.784E-03     577.497E-03    -289.480E-03     36.2084E-03
            2025     10.1053E-03     38.9833E-03    -30.0086E+06     50.2686E+06     68.9466E+06     170.228E+03    -287.494E-03     577.440E-03    -289.946E-03     40.7435E-03    -287.957E-03     577.775E-03    -289.631E-03     36.7611E-03
            2026     9.43015E-03     38.9190E-03    -36.7088E+06     38.8504E+06     56.3538E+06     224.520E+03    -287.732E-03     577.801E-03    -290.069E-03     39.6679E-03    -288.165E-03     578.078E-03    -289.790E-03     36.5474E-03
            2027     8.75512E-03     38.8559E-03    -43.5714E+06     35.6249E+06     47.0072E+06     248.022E+03    -287.956E-03     578.159E-03    -290.202E-03     38.0336E-03    -288.379E-03     578.417E-03    -289.956E-03     35.7245E-03
            2028     8.08027E-03     38.7951E-03    -50.6882E+06     11.3287E+06     35.8002E+06     228.134E+03    -288.282E-03     578.643E-03    -290.361E-03     36.0009E-03    -288.666E-03     578.784E-03    -290.125E-03     34.4406E-03
            2029     7.40568E-03     38.7371E-03    -57.9431E+06    -28.5809E+06     21.9139E+06     199.983E+03    -288.678E-03     579.206E-03    -290.528E-03     33.7322E-03    -289.002E-03     579.159E-03    -290.293E-03     32.8277E-03
            2030     6.73135E-03     38.6823E-03    -65.2591E+06    -61.9239E+06     8.17857E+06     176.540E+03    -289.048E-03     579.728E-03    -290.680E-03     31.2573E-03    -289.326E-03     579.531E-03    -290.455E-03     30.9042E-03
            2031     6.05727E-03     38.6313E-03    -72.6551E+06    -90.0300E+06    -5.81310E+06     154.749E+03    -289.401E-03     580.218E-03    -290.817E-03     28.6171E-03    -289.644E-03     579.901E-03    -290.611E-03     28.7057E-03
            2032     5.38345E-03     38.5844E-03    -80.1056E+06    -115.378E+06    -20.4520E+06     132.648E+03    -289.746E-03     580.685E-03    -290.939E-03     25.8592E-03    -289.961E-03     580.265E-03    -290.757E-03     26.2752E-03
            2033     4.70988E-03     38.5419E-03    -87.5300E+06    -138.522E+06    -35.9119E+06     113.920E+03    -290.072E-03     581.112E-03    -291.041E-03     22.9638E-03    -290.263E-03     580.605E-03    -290.893E-03     23.6016E-03
            2034     4.03656E-03     38.5043E-03    -94.7833E+06    -160.198E+06    -52.0989E+06     99.8329E+03    -290.366E-03     581.489E-03    -291.124E-03     19.9340E-03    -290.535E-03     580.904E-03    -291.014E-03     20.6946E-03
            2035     3.36344E-03     38.4719E-03    -101.656E+06    -180.307E+06    -68.5897E+06     92.4187E+03    -290.625E-03     581.813E-03    -291.188E-03     16.7938E-03    -290.774E-03     581.159E-03    -291.122E-03     17.5855E-03
            2036     2.69050E-03     38.4449E-03    -107.875E+06    -198.515E+06    -84.6136E+06     87.7778E+03    -290.851E-03     582.086E-03    -291.235E-03     13.5711E-03    -290.980E-03     581.373E-03    -291.213E-03     14.3119E-03
            2037     2.01773E-03     38.4236E-03    -113.115E+06    -214.134E+06    -99.1338E+06     77.7833E+03    -291.039E-03     582.306E-03    -291.267E-03     10.2882E-03    -291.150E-03     581.543E-03    -291.288E-03     10.9097E-03
            2038     1.34507E-03     38.4081E-03    -117.106E+06    -228.072E+06    -110.458E+06     67.0470E+03    -291.186E-03     582.478E-03    -291.292E-03     6.98027E-03    -291.280E-03     581.667E-03    -291.344E-03     7.43042E-03
            2039     672.515E-06     38.3986E-03    -119.695E+06    -237.365E+06    -117.829E+06     42.2837E+03    -291.310E-03     582.588E-03    -291.278E-03     3.81200E-03    -291.394E-03     581.746E-03    -291.349E-03     4.06639E-03
            2040     12.8067E-03     37.5391E-03    -5.22471E+06     81.3088E+06     97.7475E+06     57.9246E+03    -286.609E-03     576.100E-03    -289.491E-03     32.4879E-03    -287.069E-03     576.546E-03    -289.113E-03     26.3593E-03
            2041     12.1310E-03     37.4826E-03    -10.9837E+06     76.7291E+06     97.8131E+06     84.7917E+03    -286.650E-03     576.292E-03    -289.641E-03     39.3817E-03    -287.178E-03     576.770E-03    -289.248E-03     32.7694E-03
            2042     11.4554E-03     37.4229E-03    -17.1701E+06     61.8273E+06     89.1585E+06     107.287E+03    -286.818E-03     576.597E-03    -289.780E-03     40.5953E-03    -287.313E-03     576.993E-03    -289.399E-03     34.9753E-03
            2043     10.7798E-03     37.3595E-03    -23.5800E+06     55.5524E+06     78.6892E+06     198.595E+03    -287.016E-03     576.926E-03    -289.910E-03     41.5896E-03    -287.500E-03     577.295E-03    -289.563E-03     36.6945E-03
            2044     10.1042E-03     37.2945E-03    -30.1649E+06     50.1903E+06     68.8432E+06     282.182E+03    -287.242E-03     577.295E-03    -290.053E-03     41.3726E-03    -287.710E-03     577.634E-03    -289.738E-03     37.3402E-03
            2045     9.42891E-03     37.2296E-03    -36.8196E+06     38.8982E+06     56.3113E+06     268.040E+03    -287.525E-03     577.726E-03    -290.201E-03     40.3998E-03    -287.963E-03     578.008E-03    -289.922E-03     37.2178E-03
            2046     8.75374E-03     37.1659E-03    -43.6307E+06     35.6742E+06     46.9908E+06     240.349E+03    -287.798E-03     578.158E-03    -290.361E-03     38.8630E-03    -288.225E-03     578.421E-03    -290.114E-03     36.4815E-03
            2047     8.07879E-03     37.1043E-03    -50.7246E+06     11.3621E+06     35.7878E+06     224.626E+03    -288.175E-03     578.721E-03    -290.546E-03     36.8866E-03    -288.563E-03     578.865E-03    -290.310E-03     35.2490E-03
            2048     7.40413E-03     37.0455E-03    -57.9693E+06    -28.5498E+06     21.8984E+06     194.360E+03    -288.628E-03     579.366E-03    -290.738E-03     34.6442E-03    -288.955E-03     579.323E-03    -290.503E-03     33.6601E-03
            2049     6.72977E-03     36.9899E-03    -65.2818E+06    -61.8953E+06     8.16222E+06     168.219E+03    -289.062E-03     579.978E-03    -290.916E-03     32.1742E-03    -289.342E-03     579.783E-03    -290.691E-03     31.7410E-03
            2050     6.05571E-03     36.9381E-03    -72.6759E+06    -90.0023E+06    -5.82974E+06     147.639E+03    -289.478E-03     580.554E-03    -291.077E-03     29.5289E-03    -289.723E-03     580.239E-03    -290.870E-03     29.5370E-03
            2051     5.38195E-03     36.8904E-03    -80.1267E+06    -115.344E+06    -20.4723E+06     129.653E+03    -289.879E-03     581.098E-03    -291.219E-03     26.7395E-03    -290.095E-03     580.680E-03    -291.038E-03     27.0776E-03
            2052     4.70848E-03     36.8473E-03    -87.5498E+06    -138.493E+06    -35.9385E+06     114.969E+03    -290.253E-03     581.595E-03    -291.342E-03     23.7804E-03    -290.445E-03     581.089E-03    -291.194E-03     24.3464E-03
            2053     4.03527E-03     36.8090E-03    -94.8000E+06    -160.175E+06    -52.1277E+06     107.334E+03    -290.593E-03     582.036E-03    -291.443E-03     20.6668E-03    -290.763E-03     581.452E-03    -291.334E-03     21.3635E-03
            2054     3.36232E-03     36.7760E-03    -101.669E+06    -180.279E+06    -68.6145E+06     101.488E+03    -290.895E-03     582.419E-03    -291.524E-03     17.4306E-03    -291.044E-03     581.766E-03    -291.458E-03     18.1669E-03
            2055     2.68957E-03     36.7485E-03    -107.884E+06    -198.458E+06    -84.6398E+06     90.0765E+03    -291.158E-03     582.742E-03    -291.584E-03     14.0996E-03    -291.288E-03     582.030E-03    -291.563E-03     14.7943E-03
            2056     2.01700E-03     36.7268E-03    -113.116E+06    -214.078E+06    -99.1601E+06     86.9979E+03    -291.375E-03     583.002E-03    -291.627E-03     10.6960E-03    -291.487E-03     582.240E-03    -291.649E-03     11.2820E-03
            2057     1.34458E-03     36.7111E-03    -117.102E+06    -227.950E+06    -110.486E+06     85.4585E+03    -291.543E-03     583.203E-03    -291.660E-03     7.26198E-03    -291.638E-03     582.394E-03    -291.712E-03     7.68794E-03
            2058     672.266E-06     36.7014E-03    -119.687E+06    -237.135E+06    -117.844E+06     64.7591E+03    -291.685E-03     583.331E-03    -291.646E-03     3.96706E-03    -291.768E-03     582.490E-03    -291.718E-03     4.20862E-03
            2059     12.8064E-03     35.8522E-03    -5.19209E+06     81.1526E+06     97.7343E+06     87.5361E+03    -286.210E-03     575.723E-03    -289.513E-03     32.6052E-03    -286.670E-03     576.170E-03    -289.135E-03     26.4759E-03
            2060     12.1305E-03     35.7956E-03    -10.9825E+06     76.5896E+06     97.7535E+06     202.274E+03    -286.250E-03     575.937E-03    -289.688E-03     39.6755E-03    -286.780E-03     576.417E-03    -289.294E-03     33.0489E-03
            2061     11.4545E-03     35.7355E-03    -17.2562E+06     61.7338E+06     89.0752E+06     300.761E+03    -286.436E-03     576.288E-03    -289.852E-03     41.0755E-03    -286.935E-03     576.687E-03    -289.471E-03     35.4233E-03
            2062     10.7787E-03     35.6716E-03    -23.6598E+06     55.5008E+06     78.6440E+06     306.652E+03    -286.667E-03     576.678E-03    -290.011E-03     42.2264E-03    -287.156E-03     577.052E-03    -289.663E-03     37.2825E-03
            2063     10.1029E-03     35.6060E-03    -30.1427E+06     50.2498E+06     68.8803E+06     251.672E+03    -286.936E-03     577.120E-03    -290.184E-03     42.1382E-03    -287.408E-03     577.464E-03    -289.869E-03     38.0428E-03
            2064     9.42740E-03     35.5405E-03    -36.7452E+06     39.0053E+06     56.3777E+06     217.836E+03    -287.271E-03     577.633E-03    -290.363E-03     41.2834E-03    -287.713E-03     577.920E-03    -290.084E-03     38.0266E-03
            2065     8.75206E-03     35.4759E-03    -43.5635E+06     35.6906E+06     47.0325E+06     223.725E+03    -287.601E-03     578.155E-03    -290.554E-03     39.8506E-03    -288.032E-03     578.422E-03    -290.308E-03     37.3841E-03
            2066     8.07697E-03     35.4134E-03    -50.6745E+06     11.3659E+06     35.8183E+06     218.665E+03    -288.041E-03     578.813E-03    -290.772E-03     37.9424E-03    -288.433E-03     578.961E-03    -290.536E-03     36.2131E-03
            2067     7.40222E-03     35.3536E-03    -57.9299E+06    -28.5392E+06     21.9201E+06     193.539E+03    -288.566E-03     579.562E-03    -290.996E-03     35.7360E-03    -288.897E-03     579.522E-03    -290.761E-03     34.6564E-03
            2068     6.72783E-03     35.2971E-03    -65.2522E+06    -61.8864E+06     8.17508E+06     171.239E+03    -289.076E-03     580.280E-03    -291.205E-03     33.2748E-03    -289.359E-03     580.089E-03    -290.980E-03     32.7446E-03
            2069     6.05379E-03     35.2443E-03    -72.6587E+06    -89.9931E+06    -5.82252E+06     152.726E+03    -289.566E-03     580.961E-03    -291.395E-03     30.6174E-03    -289.813E-03     580.648E-03    -291.188E-03     30.5291E-03
            2070     5.38009E-03     35.1957E-03    -80.1201E+06    -115.330E+06    -20.4667E+06     135.820E+03    -290.035E-03     581.600E-03    -291.565E-03     27.7826E-03    -290.253E-03     581.184E-03    -291.384E-03     28.0284E-03
            2071     4.70673E-03     35.1517E-03    -87.5540E+06    -138.484E+06    -35.9313E+06     124.175E+03    -290.471E-03     582.184E-03    -291.714E-03     24.7472E-03    -290.664E-03     581.679E-03    -291.565E-03     25.2278E-03
            2072     4.03368E-03     35.1126E-03    -94.8127E+06    -160.162E+06    -52.1259E+06     114.681E+03    -290.869E-03     582.708E-03    -291.838E-03     21.5353E-03    -291.040E-03     582.125E-03    -291.729E-03     22.1553E-03
            2073     3.36092E-03     35.0789E-03    -101.680E+06    -180.242E+06    -68.6343E+06     102.928E+03    -291.227E-03     583.166E-03    -291.939E-03     18.1857E-03    -291.377E-03     582.514E-03    -291.874E-03     18.8551E-03
            2074     2.68841E-03     35.0509E-03    -107.892E+06    -198.415E+06    -84.6572E+06     95.3732E+03    -291.538E-03     583.555E-03    -292.017E-03     14.7266E-03    -291.667E-03     582.843E-03    -291.996E-03     15.3656E-03
            2075     2.01611E-03     35.0288E-03    -113.133E+06    -214.041E+06    -99.1451E+06     96.2155E+03    -291.792E-03     583.866E-03    -292.074E-03     11.1795E-03    -291.904E-03     583.103E-03    -292.095E-03     11.7224E-03
            2076     1.34397E-03     35.0127E-03    -117.124E+06    -227.805E+06    -110.459E+06      90.998E+03    -291.986E-03     584.102E-03    -292.116E-03     7.59179E-03    -292.081E-03     583.293E-03    -292.168E-03     7.98810E-03
            2077     671.953E-06     35.0027E-03    -119.701E+06    -236.876E+06    -117.827E+06     52.5551E+03    -292.146E-03     584.250E-03    -292.105E-03     4.14521E-03    -292.230E-03     583.410E-03    -292.177E-03     4.37066E-03
            2078     12.8061E-03     34.1660E-03    -5.19432E+06     80.9102E+06     97.6269E+06     84.8078E+03    -285.724E-03     575.265E-03    -289.541E-03     32.7634E-03    -286.185E-03     575.712E-03    -289.163E-03     26.6316E-03
            2079     12.1298E-03     34.1092E-03    -10.9280E+06     76.0889E+06     97.6314E+06     291.311E+03    -285.772E-03     575.517E-03    -289.744E-03     40.0499E-03    -286.304E-03     575.997E-03    -289.351E-03     33.4038E-03
            2080     11.4535E-03     34.0487E-03    -17.0666E+06     61.7133E+06     89.1587E+06     438.193E+03    -285.979E-03     575.920E-03    -289.941E-03     41.6652E-03    -286.482E-03     576.323E-03    -289.560E-03     35.9718E-03
            2081     10.7774E-03     33.9842E-03    -23.3982E+06     55.9128E+06     78.8752E+06     327.043E+03    -286.244E-03     576.377E-03    -290.133E-03     42.9959E-03    -286.738E-03     576.758E-03    -289.786E-03     37.9914E-03
            2082     10.1013E-03     33.9179E-03    -29.9298E+06     50.3307E+06     68.9969E+06     212.347E+03    -286.565E-03     576.908E-03    -290.343E-03     43.0642E-03    -287.042E-03     577.257E-03    -290.027E-03     38.8923E-03
            2083     9.42555E-03     33.8515E-03    -36.5999E+06     38.9875E+06     56.4485E+06     233.098E+03    -286.965E-03     577.525E-03    -290.559E-03     42.3387E-03    -287.413E-03     577.817E-03    -290.280E-03     38.9934E-03
            2084     8.75001E-03     33.7859E-03    -43.4591E+06     35.6901E+06     47.0958E+06     265.475E+03    -287.366E-03     578.155E-03    -290.789E-03     41.0090E-03    -287.803E-03     578.428E-03    -290.542E-03     38.4440E-03
            2085     8.07476E-03     33.7223E-03    -50.5939E+06     11.3539E+06     35.8642E+06     257.545E+03    -287.883E-03     578.928E-03    -291.045E-03     39.1741E-03    -288.279E-03     579.082E-03    -290.809E-03     37.3386E-03
            2086     7.39991E-03     33.6614E-03    -57.8698E+06    -28.5515E+06     21.9491E+06     229.164E+03    -288.494E-03     579.802E-03    -291.308E-03     37.0027E-03    -288.828E-03     579.766E-03    -291.073E-03     35.8125E-03
            2087     6.72548E-03     33.6037E-03    -65.2095E+06    -61.8902E+06     8.19317E+06     206.546E+03    -289.092E-03     580.646E-03    -291.554E-03     34.5434E-03    -289.378E-03     580.458E-03    -291.329E-03     33.9015E-03
            2088     6.05145E-03     33.5498E-03    -72.6284E+06    -89.9922E+06    -5.81247E+06     186.438E+03    -289.669E-03     581.449E-03    -291.780E-03     31.8600E-03    -289.919E-03     581.139E-03    -291.574E-03     31.6618E-03
            2089     5.37783E-03     33.5001E-03    -80.1022E+06    -115.324E+06    -20.4551E+06     169.602E+03    -290.220E-03     582.204E-03    -291.984E-03     28.9643E-03    -290.440E-03     581.790E-03    -291.803E-03     29.1055E-03
            2090     4.70461E-03     33.4550E-03    -87.5491E+06    -138.479E+06    -35.9039E+06     155.417E+03    -290.733E-03     582.897E-03    -292.164E-03     25.8401E-03    -290.928E-03     582.394E-03    -292.016E-03     26.2236E-03
            2091     4.03174E-03     33.4150E-03    -94.8237E+06    -160.117E+06    -52.0682E+06     132.697E+03    -291.205E-03     583.522E-03    -292.317E-03     22.5190E-03    -291.377E-03     582.940E-03    -292.208E-03     23.0509E-03
            2092     3.35922E-03     33.3805E-03    -101.713E+06    -180.181E+06    -68.5608E+06     95.7031E+03    -291.629E-03     584.072E-03    -292.443E-03     19.0408E-03    -291.779E-03     583.421E-03    -292.378E-03     19.6327E-03
            2093     2.68699E-03     33.3518E-03    -107.936E+06    -198.389E+06    -84.5989E+06     69.2727E+03    -291.996E-03     584.539E-03    -292.542E-03     15.4333E-03    -292.127E-03     583.827E-03    -292.521E-03     16.0075E-03
            2094     2.01501E-03     33.3291E-03    -113.178E+06    -214.011E+06    -99.0624E+06     64.8740E+03    -292.297E-03     584.912E-03    -292.615E-03     11.7234E-03    -292.409E-03     584.150E-03    -292.636E-03     12.2158E-03
            2095     1.34323E-03     33.3126E-03    -117.200E+06    -227.668E+06    -110.409E+06     50.5887E+03    -292.523E-03     585.191E-03    -292.668E-03     7.96363E-03    -292.619E-03     584.383E-03    -292.720E-03     8.32494E-03
            2096     671.581E-06     33.3024E-03    -119.833E+06    -236.693E+06    -117.928E+06     26.1393E+03    -292.701E-03     585.363E-03    -292.662E-03     4.34874E-03    -292.786E-03     584.524E-03    -292.735E-03     4.55493E-03
            2097     12.8057E-03     32.4806E-03    -5.20232E+06     80.6842E+06     97.4967E+06     86.3934E+03    -285.133E-03     574.707E-03    -289.575E-03     32.9493E-03    -285.595E-03     575.154E-03    -289.197E-03     26.8135E-03
            2098     12.1290E-03     32.4236E-03    -10.9013E+06     75.6179E+06     97.4884E+06     174.289E+03    -285.195E-03     575.008E-03    -289.813E-03     40.4966E-03    -285.729E-03     575.489E-03    -289.419E-03     33.8234E-03
            2099     11.4523E-03     32.3626E-03    -16.9671E+06     61.6319E+06     89.1772E+06     261.790E+03    -285.433E-03     575.480E-03    -290.048E-03     42.3717E-03    -285.940E-03     575.888E-03    -289.666E-03     36.6246E-03
            2100     10.7758E-03     32.2974E-03    -23.2525E+06     56.1969E+06     79.0173E+06     329.924E+03    -285.743E-03     576.024E-03    -290.281E-03     43.8982E-03    -286.243E-03     576.412E-03    -289.934E-03     38.8240E-03
            2101     10.0994E-03     32.2302E-03    -29.8078E+06     50.3726E+06     69.0580E+06     349.409E+03    -286.130E-03     576.664E-03    -290.534E-03     44.1336E-03    -286.614E-03     577.020E-03    -290.218E-03     39.8762E-03
            2102     9.42333E-03     32.1627E-03    -36.5209E+06     38.9917E+06     56.4899E+06     336.474E+03    -286.612E-03     577.406E-03    -290.794E-03     43.5405E-03    -287.066E-03     577.705E-03    -290.516E-03     40.0954E-03
            2103     8.74755E-03     32.0959E-03    -43.3963E+06     35.6933E+06     47.1347E+06     343.832E+03    -287.101E-03     578.170E-03    -291.069E-03     42.3072E-03    -287.544E-03     578.449E-03    -290.822E-03     39.6320E-03
            2104     8.07212E-03     32.0310E-03    -50.5440E+06     11.3411E+06     35.8889E+06     336.759E+03    -287.712E-03     579.082E-03    -291.370E-03     40.5417E-03    -288.114E-03     579.241E-03    -291.134E-03     38.5878E-03
            2105     7.39716E-03     31.9687E-03    -57.8343E+06    -28.5582E+06     21.9581E+06     301.467E+03    -288.422E-03     580.099E-03    -291.677E-03     38.3925E-03    -288.761E-03     580.068E-03    -291.442E-03     37.0806E-03
            2106     6.72268E-03     31.9097E-03    -65.1838E+06    -61.8897E+06     8.19012E+06     269.913E+03    -289.120E-03     581.086E-03    -291.966E-03     35.9180E-03    -289.411E-03     580.902E-03    -291.741E-03     35.1550E-03
            2107     6.04868E-03     31.8544E-03    -72.6106E+06    -89.9866E+06    -5.82651E+06     245.289E+03    -289.796E-03     582.029E-03    -292.233E-03     33.1892E-03    -290.049E-03     581.722E-03    -292.026E-03     32.8733E-03
            2108     5.37516E-03     31.8033E-03    -80.0882E+06    -115.315E+06    -20.4806E+06     224.430E+03    -290.441E-03     582.916E-03    -292.476E-03     30.2165E-03    -290.663E-03     582.505E-03    -292.295E-03     30.2462E-03
            2109     4.70209E-03     31.7570E-03    -87.5348E+06    -138.448E+06    -35.9329E+06     203.032E+03    -291.043E-03     583.735E-03    -292.691E-03     26.9926E-03    -291.240E-03     583.233E-03    -292.543E-03     27.2726E-03
            2110     4.02946E-03     31.7159E-03    -94.8126E+06    -160.043E+06    -52.0811E+06     174.209E+03    -291.598E-03     584.476E-03    -292.878E-03     23.5543E-03    -291.772E-03     583.896E-03    -292.769E-03     23.9921E-03
            2111     3.35721E-03     31.6804E-03    -101.725E+06    -180.060E+06    -68.5201E+06     129.552E+03    -292.099E-03     585.131E-03    -293.033E-03     19.9408E-03    -292.250E-03     584.482E-03    -292.967E-03     20.4499E-03
            2112     2.68532E-03     31.6508E-03    -107.998E+06    -198.249E+06    -84.5562E+06     44.1750E+03    -292.532E-03     585.688E-03    -293.156E-03     16.1782E-03    -292.664E-03     584.978E-03    -293.135E-03     16.6825E-03
            2113     2.01372E-03     31.6274E-03    -113.277E+06    -214.081E+06    -99.1558E+06     1.12034E+03    -292.885E-03     586.133E-03    -293.248E-03     12.2973E-03    -292.998E-03     585.371E-03    -293.269E-03     12.7350E-03
            2114     1.34235E-03     31.6105E-03    -117.300E+06    -227.692E+06    -110.642E+06     80.6673E+03    -293.149E-03     586.464E-03    -293.315E-03     8.35529E-03    -293.245E-03     585.656E-03    -293.368E-03     8.68032E-03
            2115     671.130E-06     31.6000E-03    -119.921E+06    -236.405E+06    -118.105E+06     114.689E+03    -293.347E-03     586.670E-03    -293.323E-03     4.56444E-03    -293.432E-03     585.833E-03    -293.397E-03     4.75197E-03
            2116     12.8052E-03     30.7963E-03    -5.17940E+06     80.5420E+06     97.4736E+06     77.5325E+03    -284.429E-03     574.044E-03    -289.614E-03     33.1773E-03    -284.892E-03     574.492E-03    -289.236E-03     27.0364E-03
            2117     12.1280E-03     30.7390E-03    -10.9254E+06     75.5470E+06     97.4104E+06     91.3590E+03    -284.509E-03     574.403E-03    -289.894E-03     41.0085E-03    -285.047E-03     574.888E-03    -289.500E-03     34.3062E-03
            2118     11.4509E-03     30.6774E-03    -17.0991E+06     61.4389E+06     89.0156E+06     107.712E+03    -284.795E-03     574.968E-03    -290.173E-03     43.1522E-03    -285.308E-03     575.381E-03    -289.792E-03     37.3474E-03
            2119     10.7739E-03     30.6112E-03    -23.4309E+06     55.9242E+06     78.8456E+06     244.231E+03    -285.175E-03     575.629E-03    -290.454E-03     44.8747E-03    -285.683E-03     576.024E-03    -290.107E-03     39.7245E-03
            2120     10.0971E-03     30.5429E-03    -29.9167E+06     50.3295E+06     68.9954E+06     379.342E+03    -285.647E-03     576.402E-03    -290.756E-03     45.2773E-03    -286.138E-03     576.766E-03    -290.440E-03     40.9276E-03
            2121     9.42073E-03     30.4741E-03    -36.5548E+06     39.0630E+06     56.4880E+06     410.230E+03    -286.227E-03     577.293E-03    -291.066E-03     44.8029E-03    -286.689E-03     577.600E-03    -290.787E-03     41.2528E-03
            2122     8.74469E-03     30.4059E-03    -43.4171E+06     35.6990E+06     47.1267E+06     423.911E+03    -286.824E-03     578.214E-03    -291.390E-03     43.6422E-03    -287.274E-03     578.500E-03    -291.143E-03     40.8536E-03
            2123     8.06909E-03     30.3395E-03    -50.5619E+06     11.3418E+06     35.8797E+06     408.831E+03    -287.547E-03     579.287E-03    -291.740E-03     41.9252E-03    -287.956E-03     579.452E-03    -291.503E-03     39.8506E-03
            2124     7.39402E-03     30.2755E-03    -57.8396E+06    -28.5547E+06     21.9448E+06     364.036E+03    -288.368E-03     580.462E-03    -292.094E-03     39.7751E-03    -288.713E-03     580.437E-03    -291.859E-03     38.3407E-03
            2125     6.71951E-03     30.2148E-03    -65.1770E+06    -61.8721E+06     8.17612E+06     327.340E+03    -289.176E-03     581.604E-03    -292.428E-03     37.2632E-03    -289.471E-03     581.424E-03    -292.203E-03     36.3796E-03
            2126     6.04556E-03     30.1579E-03    -72.5881E+06    -89.9678E+06    -5.84641E+06     294.926E+03    -289.957E-03     582.695E-03    -292.738E-03     34.4673E-03    -290.213E-03     582.392E-03    -292.532E-03     34.0356E-03
            2127     5.37216E-03     30.1053E-03    -80.0437E+06    -115.283E+06    -20.5142E+06     265.821E+03    -290.702E-03     583.724E-03    -293.022E-03     31.4003E-03    -290.927E-03     583.315E-03    -292.841E-03     31.3218E-03
            2128     4.69928E-03     30.0575E-03    -87.4596E+06    -138.396E+06    -35.9897E+06     236.352E+03    -291.399E-03     584.675E-03    -293.275E-03     28.0649E-03    -291.597E-03     584.175E-03    -293.128E-03     28.2459E-03
            2129     4.02690E-03     30.0150E-03    -94.6887E+06    -159.957E+06    -52.1649E+06     203.938E+03    -292.043E-03     585.538E-03    -293.496E-03     24.5026E-03    -292.217E-03     584.959E-03    -293.387E-03     24.8521E-03
            2130     3.35497E-03     29.9783E-03    -101.521E+06    -179.920E+06    -68.6215E+06     161.740E+03    -292.622E-03     586.302E-03    -293.681E-03     20.7529E-03    -292.773E-03     585.654E-03    -293.616E-03     21.1861E-03
            2131     2.68345E-03     29.9477E-03    -107.676E+06    -197.833E+06    -84.6188E+06     26.4470E+03    -293.123E-03     586.952E-03    -293.829E-03     16.8426E-03    -293.254E-03     586.244E-03    -293.810E-03     17.2842E-03
            2132     2.01227E-03     29.9236E-03    -112.878E+06    -214.444E+06    -98.8386E+06    -22.2977E+03    -293.534E-03     587.479E-03    -293.945E-03     12.8027E-03    -293.645E-03     586.715E-03    -293.965E-03     13.1920E-03
            2133     1.34136E-03     29.9060E-03    -116.933E+06    -227.945E+06    -110.144E+06     211.146E+03    -293.840E-03     587.868E-03    -294.028E-03     8.69135E-03    -293.935E-03     587.058E-03    -294.079E-03     8.98582E-03
            2134     670.630E-06     29.8952E-03    -119.584E+06    -235.560E+06    -117.770E+06     256.318E+03    -294.049E-03     588.104E-03    -294.055E-03     4.74422E-03    -294.134E-03     587.271E-03    -294.129E-03     4.91623E-03
            2135     12.8046E-03     29.1132E-03    -5.19855E+06     80.4289E+06     97.3833E+06     54.5803E+03    -283.628E-03     573.287E-03    -289.659E-03     33.4473E-03    -284.093E-03     573.736E-03    -289.281E-03     27.3001E-03
            2136     12.1269E-03     29.0555E-03    -10.9417E+06     75.5223E+06     97.3379E+06     111.877E+03    -283.748E-03     573.733E-03    -289.985E-03     41.5578E-03    -284.290E-03     574.223E-03    -289.592E-03     34.8270E-03
            2137     11.4492E-03     28.9930E-03    -17.1331E+06     61.2870E+06     88.9054E+06     163.891E+03    -284.104E-03     574.418E-03    -290.314E-03     43.9503E-03    -284.623E-03     574.836E-03    -289.934E-03     38.0906E-03
            2138     10.7718E-03     28.9258E-03    -23.5268E+06     55.6543E+06     78.6866E+06     217.156E+03    -284.576E-03     575.222E-03    -290.646E-03     45.8407E-03    -285.090E-03     575.622E-03    -290.299E-03     40.6168E-03
            2139     10.0946E-03     28.8562E-03    -30.0636E+06     50.1508E+06     68.8568E+06     278.786E+03    -285.155E-03     576.154E-03    -290.999E-03     46.3750E-03    -285.654E-03     576.525E-03    -290.684E-03     41.9348E-03
            2140     9.41788E-03     28.7857E-03    -36.6958E+06     38.9868E+06     56.4031E+06     362.338E+03    -285.854E-03     577.214E-03    -291.360E-03     45.9733E-03    -286.323E-03     577.528E-03    -291.082E-03     42.3237E-03
            2141     8.74159E-03     28.7158E-03    -43.5097E+06     35.7072E+06     47.0999E+06     421.387E+03    -286.574E-03     578.308E-03    -291.734E-03     44.8318E-03    -287.031E-03     578.601E-03    -291.487E-03     41.9400E-03
            2142     8.06582E-03     28.6476E-03    -50.6090E+06     11.3363E+06     35.8751E+06     407.308E+03    -287.419E-03     579.551E-03    -292.132E-03     43.1113E-03    -287.833E-03     579.721E-03    -291.895E-03     40.9306E-03
            2143     7.39068E-03     28.5817E-03    -57.8549E+06    -28.5550E+06     21.9505E+06     367.283E+03    -288.357E-03     580.889E-03    -292.531E-03     40.9170E-03    -288.707E-03     580.867E-03    -292.296E-03     39.3782E-03
            2144     6.71617E-03     28.5191E-03    -65.1630E+06    -61.8481E+06     8.19394E+06     329.847E+03    -289.277E-03     582.185E-03    -292.908E-03     38.3315E-03    -289.575E-03     582.009E-03    -292.683E-03     37.3485E-03
            2145     6.04230E-03     28.4602E-03    -72.5465E+06    -89.9333E+06    -5.82336E+06     294.781E+03    -290.163E-03     583.420E-03    -293.258E-03     35.4377E-03    -290.422E-03     583.120E-03    -293.051E-03     34.9146E-03
            2146     5.36904E-03     28.4058E-03    -79.9733E+06    -115.226E+06    -20.4960E+06     257.313E+03    -291.005E-03     584.583E-03    -293.578E-03     32.2550E-03    -291.232E-03     584.176E-03    -293.397E-03     32.0952E-03
            2147     4.69639E-03     28.3563E-03    -87.3522E+06    -138.327E+06    -35.9882E+06     217.398E+03    -291.791E-03     585.655E-03    -293.864E-03     28.7980E-03    -291.990E-03     585.157E-03    -293.716E-03     28.9083E-03
            2148     4.02430E-03     28.3123E-03    -94.5332E+06    -159.855E+06    -52.1897E+06     173.116E+03    -292.513E-03     586.625E-03    -294.113E-03     25.1160E-03    -292.687E-03     586.048E-03    -294.005E-03     25.4056E-03
            2149     3.35271E-03     28.2742E-03    -101.295E+06    -179.748E+06    -68.6741E+06     106.053E+03    -293.159E-03     587.482E-03    -294.323E-03     21.2506E-03    -293.310E-03     586.834E-03    -294.259E-03     21.6346E-03
            2150     2.68158E-03     28.2425E-03    -107.386E+06    -197.485E+06    -84.6897E+06     27.9409E+03    -293.716E-03     588.209E-03    -294.492E-03     17.2258E-03    -293.847E-03     587.502E-03    -294.474E-03     17.6296E-03
            2151     2.01083E-03     28.2173E-03    -112.603E+06    -214.891E+06    -98.5724E+06     55.5963E+03    -294.176E-03     588.805E-03    -294.628E-03     13.0783E-03    -294.286E-03     588.038E-03    -294.646E-03     13.4410E-03
            2152     1.34038E-03     28.1991E-03    -116.717E+06    -228.138E+06    -109.654E+06     189.306E+03    -294.517E-03     589.241E-03    -294.724E-03     8.87355E-03    -294.611E-03     588.429E-03    -294.772E-03     9.14934E-03
            2153     670.140E-06     28.1878E-03    -119.365E+06    -234.510E+06    -117.461E+06     215.175E+03    -294.727E-03     589.500E-03    -294.774E-03     4.84405E-03    -294.813E-03     588.671E-03    -294.848E-03     5.00588E-03
            2154     12.8040E-03     27.4315E-03    -5.22639E+06     80.3144E+06     97.2773E+06     66.0538E+03    -282.781E-03     572.488E-03    -289.707E-03     33.7268E-03    -283.248E-03     572.939E-03    -289.329E-03     27.5719E-03
            2155     12.1257E-03     27.3732E-03    -10.9892E+06     75.3711E+06     97.2314E+06     130.632E+03    -282.971E-03     573.053E-03    -290.082E-03     42.0859E-03    -283.518E-03     573.547E-03    -289.689E-03     35.3270E-03
            2156     11.4475E-03     27.3097E-03    -17.1596E+06     61.1547E+06     88.8257E+06     191.269E+03    -283.428E-03     573.889E-03    -290.460E-03     44.6788E-03    -283.954E-03     574.313E-03    -290.080E-03     38.7675E-03
            2157     10.7696E-03     27.2411E-03    -23.5016E+06     55.5833E+06     78.6537E+06     242.201E+03    -284.023E-03     574.865E-03    -290.841E-03     46.6613E-03    -284.544E-03     575.271E-03    -290.495E-03     41.3742E-03
            2158     10.0921E-03     27.1698E-03    -30.0378E+06     50.0302E+06     68.8226E+06     270.629E+03    -284.736E-03     575.978E-03    -291.242E-03     47.2292E-03    -285.241E-03     576.354E-03    -290.927E-03     42.7181E-03
            2159     9.41504E-03     27.0975E-03    -36.6974E+06     38.8520E+06     56.3790E+06     292.029E+03    -285.568E-03     577.216E-03    -291.648E-03     46.8022E-03    -286.043E-03     577.535E-03    -291.369E-03     43.0798E-03
            2160     8.73856E-03     27.0256E-03    -43.5170E+06     35.6695E+06     47.1277E+06     333.509E+03    -286.418E-03     578.481E-03    -292.063E-03     45.5845E-03    -286.879E-03     578.777E-03    -291.816E-03     42.6250E-03
            2161     8.06270E-03     26.9552E-03    -50.6049E+06     11.3050E+06     35.9269E+06     336.531E+03    -287.383E-03     579.881E-03    -292.498E-03     43.7663E-03    -287.800E-03     580.054E-03    -292.261E-03     41.5256E-03
            2162     7.38753E-03     26.8872E-03    -57.8329E+06    -28.5740E+06     22.0130E+06     308.029E+03    -288.427E-03     581.359E-03    -292.931E-03     41.4536E-03    -288.778E-03     581.339E-03    -292.696E-03     39.8647E-03
            2163     6.71308E-03     26.8223E-03    -65.1256E+06    -61.8257E+06     8.27249E+06     281.726E+03    -289.443E-03     582.782E-03    -293.339E-03     38.7419E-03    -289.743E-03     582.607E-03    -293.113E-03     37.7192E-03
            2164     6.03934E-03     26.7614E-03    -72.4968E+06    -89.8920E+06    -5.73592E+06     249.484E+03    -290.414E-03     584.128E-03    -293.714E-03     35.7212E-03    -290.674E-03     583.828E-03    -293.508E-03     35.1684E-03
            2165     5.36629E-03     26.7049E-03    -79.9157E+06    -115.152E+06    -20.4088E+06     213.953E+03    -291.328E-03     585.385E-03    -294.057E-03     32.4256E-03    -291.555E-03     584.978E-03    -293.876E-03     32.2445E-03
            2166     4.69389E-03     26.6535E-03    -87.3000E+06    -138.242E+06    -35.9129E+06     175.456E+03    -292.175E-03     586.536E-03    -294.361E-03     28.8790E-03    -292.374E-03     586.038E-03    -294.214E-03     28.9735E-03
            2167     4.02208E-03     26.6078E-03    -94.5020E+06    -159.741E+06    -52.1308E+06     133.693E+03    -292.945E-03     587.570E-03    -294.626E-03     25.1335E-03    -293.119E-03     586.993E-03    -294.518E-03     25.4105E-03
            2168     3.35082E-03     26.5682E-03    -101.325E+06    -179.607E+06    -68.6295E+06     97.0022E+03    -293.629E-03     588.478E-03    -294.848E-03     21.2273E-03    -293.781E-03     587.831E-03    -294.784E-03     21.6009E-03
            2169     2.68004E-03     26.5351E-03    -107.500E+06    -197.511E+06     -84.681E+06     128.733E+03    -294.216E-03     589.245E-03    -295.028E-03     17.1779E-03    -294.347E-03     588.538E-03    -295.009E-03     17.5743E-03
            2170     2.00966E-03     26.5089E-03    -112.751E+06    -214.964E+06    -98.7143E+06     173.929E+03    -294.698E-03     589.870E-03    -295.172E-03     13.0259E-03    -294.808E-03     589.103E-03    -295.190E-03     13.3828E-03
            2171     1.33959E-03     26.4899E-03    -116.868E+06    -227.945E+06    -109.911E+06     109.410E+03    -295.055E-03     590.328E-03    -295.273E-03     8.83062E-03    -295.150E-03     589.517E-03    -295.322E-03     9.09958E-03
            2172     669.733E-06     26.4782E-03    -119.537E+06    -234.000E+06    -117.674E+06     25.2114E+03    -295.260E-03     590.603E-03    -295.343E-03     4.81642E-03    -295.348E-03     589.777E-03    -295.419E-03     4.97190E-03
            2173     12.8033E-03     25.7511E-03    -5.22798E+06     80.1780E+06     97.2320E+06     83.7228E+03    -281.980E-03     571.732E-03    -289.752E-03     34.0001E-03    -282.449E-03     572.186E-03    -289.375E-03     27.8346E-03
            2174     12.1245E-03     25.6920E-03    -10.9744E+06     75.2501E+06     97.1733E+06     141.054E+03    -282.278E-03     572.450E-03    -290.172E-03     42.5383E-03    -282.829E-03     572.947E-03    -289.779E-03     35.7528E-03
            2175     11.4459E-03     25.6272E-03    -17.1423E+06     61.0484E+06     88.7765E+06     170.593E+03    -282.878E-03     573.471E-03    -290.593E-03     45.2363E-03    -283.408E-03     573.899E-03    -290.213E-03     39.2816E-03
            2176     10.7676E-03     25.5569E-03    -23.4927E+06     55.4924E+06     78.6327E+06     210.939E+03    -283.630E-03     574.643E-03    -291.013E-03     47.2005E-03    -284.155E-03     575.054E-03    -290.666E-03     41.8672E-03
            2177     10.0899E-03     25.4837E-03    -29.9948E+06     49.9876E+06     68.8534E+06     241.240E+03    -284.495E-03     575.942E-03    -291.448E-03     47.6840E-03    -285.003E-03     576.322E-03    -291.132E-03     43.1301E-03
            2178     9.41269E-03     25.4093E-03     -36.623E+06     38.8160E+06     56.4486E+06     248.990E+03    -285.462E-03     577.344E-03    -291.882E-03     47.1300E-03    -285.939E-03     577.665E-03    -291.603E-03     43.3724E-03
            2179     8.73618E-03     25.3351E-03    -43.4438E+06     35.6492E+06     47.2314E+06     249.700E+03    -286.431E-03     578.750E-03    -292.320E-03     45.7517E-03    -286.892E-03     579.048E-03    -292.072E-03     42.7679E-03
            2180     8.06035E-03     25.2623E-03    -50.5291E+06     11.2683E+06     36.0476E+06     233.409E+03    -287.491E-03     580.263E-03    -292.772E-03     43.7661E-03    -287.908E-03     580.436E-03    -292.535E-03     41.5129E-03
            2181     7.38529E-03     25.1919E-03    -57.7501E+06    -28.6083E+06     22.1392E+06     220.940E+03    -288.608E-03     581.825E-03    -293.217E-03     41.2994E-03    -288.958E-03     581.805E-03    -292.981E-03     39.7083E-03
            2182     6.71100E-03     25.1247E-03    -65.0369E+06    -61.8047E+06     8.42066E+06     208.539E+03    -289.676E-03     583.308E-03    -293.632E-03     38.4572E-03    -289.975E-03     583.132E-03    -293.406E-03     37.4391E-03
            2183     6.03745E-03     25.0615E-03    -72.4105E+06    -89.8494E+06    -5.57035E+06     192.847E+03    -290.683E-03     584.695E-03    -294.012E-03     35.3335E-03    -290.942E-03     584.394E-03    -293.804E-03     34.7892E-03
            2184     5.36460E-03     25.0028E-03    -79.8468E+06    -115.073E+06    -20.2325E+06     172.265E+03    -291.618E-03     585.973E-03    -294.355E-03     31.9745E-03    -291.844E-03     585.566E-03    -294.174E-03     31.8017E-03
            2185     4.69242E-03     24.9495E-03    -87.2540E+06    -138.161E+06    -35.7363E+06     148.032E+03    -292.475E-03     587.134E-03    -294.659E-03     28.4033E-03    -292.674E-03     586.636E-03    -294.510E-03     28.5034E-03
            2186     4.02084E-03     24.9020E-03    -94.4872E+06    -159.656E+06     -51.978E+06     138.078E+03    -293.251E-03     588.171E-03    -294.920E-03     24.6629E-03    -293.426E-03     587.594E-03    -294.812E-03     24.9427E-03
            2187     3.34980E-03     24.8607E-03    -101.332E+06    -179.574E+06    -68.4891E+06     154.875E+03    -293.934E-03     589.073E-03    -295.139E-03     20.7873E-03    -294.086E-03     588.426E-03    -295.074E-03     21.1615E-03
            2188     2.67924E-03     24.8263E-03    -107.503E+06    -197.598E+06    -84.5018E+06     194.419E+03    -294.512E-03     589.827E-03    -295.315E-03     16.7940E-03    -294.643E-03     589.120E-03    -295.295E-03     17.1888E-03
            2189     2.00906E-03     24.7991E-03    -112.742E+06    -214.731E+06    -98.5417E+06     205.213E+03    -294.985E-03     590.439E-03    -295.455E-03     12.7220E-03    -295.096E-03     589.673E-03    -295.472E-03     13.0751E-03
            2190     1.33920E-03     24.7793E-03    -116.861E+06    -227.436E+06    -109.852E+06     105.318E+03    -295.336E-03     590.888E-03    -295.553E-03     8.61985E-03    -295.431E-03     590.080E-03    -295.603E-03     8.88437E-03
            2191     669.547E-06     24.7671E-03    -119.546E+06    -233.931E+06    -117.728E+06    -33.0441E+03    -295.519E-03     591.161E-03    -295.642E-03     4.70454E-03    -295.607E-03     590.336E-03    -295.718E-03     4.85468E-03
            2192     12.8029E-03     24.0720E-03    -5.24802E+06     80.0527E+06     97.1679E+06     66.6687E+03    -281.352E-03     571.139E-03    -289.787E-03     34.2671E-03    -281.824E-03     571.594E-03    -289.409E-03     28.0831E-03
            2193     12.1236E-03     24.0118E-03    -10.9875E+06     75.1381E+06     97.1242E+06     118.243E+03    -281.805E-03     572.044E-03    -290.239E-03     42.8886E-03    -282.359E-03     572.544E-03    -289.847E-03     36.0740E-03
            2194     11.4447E-03     23.9454E-03    -17.1460E+06     60.9849E+06     88.7562E+06     153.890E+03    -282.585E-03     573.273E-03    -290.688E-03     45.5695E-03    -283.118E-03     573.704E-03    -290.308E-03     39.5781E-03
            2195     10.7663E-03     23.8731E-03    -23.4744E+06     55.4596E+06     78.6507E+06     153.554E+03    -283.513E-03     574.640E-03    -291.127E-03     47.3856E-03    -284.040E-03     575.053E-03    -290.780E-03     42.0214E-03
            2196     10.0884E-03     23.7976E-03    -29.9711E+06     49.9493E+06     68.8914E+06     146.202E+03    -284.526E-03     576.098E-03    -291.572E-03     47.6585E-03    -285.035E-03     576.478E-03    -291.257E-03     43.0852E-03
            2197     9.41134E-03     23.7208E-03    -36.5743E+06     38.8207E+06     56.5323E+06     138.486E+03    -285.606E-03     577.615E-03    -292.009E-03     46.8785E-03    -286.082E-03     577.935E-03    -291.730E-03     43.1138E-03
            2198     8.73495E-03     23.6441E-03    -43.3433E+06     35.6935E+06     47.3781E+06     119.195E+03    -286.652E-03     579.094E-03    -292.442E-03     45.2753E-03    -287.112E-03     579.390E-03    -292.194E-03     42.2961E-03
            2199     8.05931E-03     23.5689E-03    -50.3994E+06     11.2405E+06     36.2113E+06     107.644E+03    -287.757E-03     580.639E-03    -292.882E-03     43.0853E-03    -288.171E-03     580.810E-03    -292.644E-03     40.8464E-03
            2200     7.38445E-03     23.4960E-03    -57.6093E+06    -28.6406E+06     22.3084E+06     117.324E+03    -288.885E-03     582.196E-03    -293.310E-03     40.4635E-03    -289.234E-03     582.173E-03    -293.074E-03     38.8897E-03
            2201     6.71037E-03     23.4264E-03    -64.8977E+06    -61.7781E+06     8.61433E+06     129.370E+03    -289.942E-03     583.646E-03    -293.704E-03     37.5126E-03    -290.238E-03     583.468E-03    -293.477E-03     36.5098E-03
            2202     6.03700E-03     23.3609E-03    -72.2803E+06    -89.8043E+06    -5.35311E+06     132.036E+03    -290.920E-03     584.981E-03    -294.061E-03     34.3138E-03    -291.178E-03     584.678E-03    -293.852E-03     33.7814E-03
            2203     5.36433E-03     23.3001E-03    -79.7212E+06    -114.996E+06    -19.9846E+06     131.952E+03    -291.816E-03     586.195E-03    -294.379E-03     30.9140E-03    -292.042E-03     585.787E-03    -294.196E-03     30.7499E-03
            2204     4.69228E-03     23.2448E-03    -87.1411E+06    -138.070E+06    -35.4498E+06     125.666E+03    -292.630E-03     587.286E-03    -294.656E-03     27.3454E-03    -292.828E-03     586.787E-03    -294.507E-03     27.4516E-03
            2205     4.02081E-03     23.1955E-03    -94.3779E+06    -159.581E+06    -51.6695E+06     115.369E+03    -293.357E-03     588.248E-03    -294.891E-03     23.6391E-03    -293.532E-03     587.671E-03    -294.781E-03     23.9241E-03
            2206     3.34985E-03     23.1528E-03    -101.206E+06    -179.544E+06    -68.2051E+06     118.573E+03    -293.984E-03     589.068E-03    -295.083E-03     19.8328E-03    -294.136E-03     588.420E-03    -295.017E-03     20.2127E-03
            2207     2.67933E-03     23.1171E-03    -107.371E+06    -197.612E+06    -84.2093E+06     159.490E+03    -294.506E-03     589.742E-03    -295.236E-03     15.9592E-03    -294.637E-03     589.034E-03    -295.215E-03     16.3602E-03
            2208     2.00917E-03     23.0888E-03    -112.638E+06    -214.429E+06    -98.3468E+06     174.323E+03    -294.928E-03     590.282E-03    -295.354E-03     12.0493E-03    -295.039E-03     589.517E-03    -295.372E-03     12.4088E-03
            2209     1.33928E-03     23.0682E-03    -116.763E+06    -226.911E+06    -109.829E+06     90.4364E+03    -295.238E-03     590.675E-03    -295.437E-03     8.14522E-03    -295.334E-03     589.870E-03    -295.488E-03     8.41531E-03
            2210     669.579E-06     23.0555E-03    -119.418E+06    -233.888E+06    -117.661E+06     8.52660E+03    -295.380E-03     590.919E-03    -295.539E-03     4.43391E-03    -295.468E-03     590.094E-03    -295.615E-03     4.58889E-03
            2211     12.8026E-03     22.3937E-03    -5.27317E+06      79.969E+06     97.1900E+06     52.1741E+03    -281.056E-03     570.858E-03    -289.802E-03     34.5511E-03    -281.530E-03     571.315E-03    -289.424E-03     28.3331E-03
            2212     12.1232E-03     22.3321E-03    -11.0061E+06     75.0737E+06     97.1232E+06     67.0123E+03    -281.699E-03     571.966E-03    -290.267E-03     43.1410E-03    -282.257E-03     572.470E-03    -289.874E-03     36.2831E-03
            2213     11.4442E-03     22.2637E-03    -17.1246E+06     60.9501E+06     88.7732E+06     60.2142E+03    -282.681E-03     573.397E-03    -290.717E-03     45.6714E-03    -283.217E-03     573.832E-03    -290.337E-03     39.6343E-03
            2214     10.7659E-03     22.1891E-03    -23.4172E+06     55.4753E+06     78.7028E+06     50.3782E+03    -283.780E-03     574.927E-03    -291.146E-03     47.1956E-03    -284.309E-03     575.341E-03    -290.799E-03     41.7984E-03
            2215     10.0883E-03     22.1112E-03    -29.8714E+06     49.9894E+06     68.9781E+06     14.6985E+03    -284.913E-03     576.482E-03    -291.570E-03     47.1223E-03    -285.421E-03     576.862E-03    -291.254E-03     42.5327E-03
            2216     9.41155E-03     22.0319E-03    -36.4472E+06     38.8373E+06     56.6377E+06    -24.5268E+03    -286.053E-03     578.027E-03    -291.974E-03     46.0129E-03    -286.527E-03     578.345E-03    -291.694E-03     42.2463E-03
            2217     8.73549E-03     21.9527E-03    -43.2207E+06     35.7381E+06     47.5039E+06    -49.7425E+03    -287.107E-03     579.473E-03    -292.366E-03     44.1156E-03    -287.564E-03     579.765E-03    -292.118E-03     41.1450E-03
            2218     8.06018E-03     21.8749E-03    -50.2737E+06     11.2417E+06     36.3522E+06    -50.4106E+03    -288.178E-03     580.937E-03    -292.759E-03     41.6776E-03    -288.590E-03     581.105E-03    -292.521E-03     39.4527E-03
            2219     7.38563E-03     21.7997E-03    -57.4743E+06    -28.6613E+06     22.4555E+06    -10.5580E+03    -289.245E-03     582.380E-03    -293.135E-03     38.8739E-03    -289.591E-03     582.355E-03    -292.898E-03     37.3121E-03
            2220     6.71179E-03     21.7278E-03    -64.7455E+06    -61.7346E+06     8.78481E+06     25.0475E+03    -290.220E-03     583.693E-03    -293.472E-03     35.7910E-03    -290.515E-03     583.513E-03    -293.245E-03     34.7957E-03
            2221     6.03864E-03     21.6602E-03    -72.1018E+06    -89.7521E+06    -5.15897E+06     50.7587E+03    -291.103E-03     584.873E-03    -293.770E-03     32.4985E-03    -291.359E-03     584.570E-03    -293.561E-03     31.9700E-03
            2222     5.36609E-03     21.5974E-03    -79.5241E+06    -114.906E+06    -19.7661E+06     72.0077E+03    -291.894E-03     585.921E-03    -294.027E-03     29.0504E-03    -292.118E-03     585.512E-03    -293.844E-03     28.8884E-03
            2223     4.69411E-03     21.5404E-03    -86.9227E+06    -137.956E+06    -35.1941E+06     84.4493E+03    -292.590E-03     586.833E-03    -294.243E-03     25.4992E-03    -292.787E-03     586.334E-03    -294.093E-03     25.6062E-03
            2224     4.02262E-03     21.4895E-03    -94.1662E+06    -159.425E+06    -51.3529E+06     79.6754E+03    -293.189E-03     587.607E-03    -294.418E-03     21.8767E-03    -293.362E-03     587.029E-03    -294.307E-03     22.1606E-03
            2225     3.35156E-03     21.4454E-03    -101.037E+06    -179.382E+06    -67.8777E+06     38.5085E+03    -293.687E-03     588.241E-03    -294.554E-03     18.2228E-03    -293.839E-03     587.594E-03    -294.487E-03     18.5992E-03
            2226     2.68084E-03     21.4086E-03    -107.223E+06    -197.702E+06    -84.0121E+06     59.6507E+03    -294.089E-03     588.744E-03    -294.655E-03     14.5767E-03    -294.219E-03     588.035E-03    -294.633E-03     14.9725E-03
            2227     2.01039E-03     21.3795E-03    -112.462E+06    -214.251E+06    -98.3422E+06     164.149E+03    -294.403E-03     589.133E-03    -294.729E-03     10.9508E-03    -294.513E-03     588.368E-03    -294.747E-03     11.3061E-03
            2228     1.34014E-03     21.3584E-03    -116.549E+06    -226.398E+06    -109.810E+06     155.221E+03    -294.629E-03     589.407E-03    -294.778E-03     7.37320E-03    -294.725E-03     588.604E-03    -294.830E-03     7.64027E-03
            2229     670.037E-06     21.3453E-03    -119.153E+06    -233.660E+06    -117.471E+06     46.9316E+03    -294.712E-03     589.573E-03    -294.862E-03     3.99423E-03    -294.799E-03     588.748E-03    -294.937E-03     4.14680E-03
            2230     12.8027E-03     20.7157E-03    -5.24468E+06     79.9635E+06     97.2746E+06    -25.8776E+03    -281.245E-03     571.034E-03    -289.789E-03     34.8781E-03    -281.723E-03     571.496E-03    -289.411E-03     28.5987E-03
            2231     12.1235E-03     20.6523E-03    -10.9307E+06     75.0553E+06     97.2065E+06    -43.6005E+03    -282.107E-03     572.343E-03    -290.236E-03     43.3262E-03    -282.669E-03     572.851E-03    -289.843E-03     36.3946E-03
            2232     11.4448E-03     20.5816E-03    -17.0444E+06     60.9432E+06     88.8333E+06    -46.4147E+03    -283.289E-03     573.943E-03    -290.654E-03     45.5517E-03    -283.828E-03     574.380E-03    -290.274E-03     39.4416E-03
            2233     10.7670E-03     20.5045E-03    -23.3277E+06     55.5278E+06     78.7673E+06    -95.7100E+03    -284.528E-03     575.564E-03    -291.035E-03     46.6296E-03    -285.058E-03     575.979E-03    -290.688E-03     41.1739E-03
            2234     10.0900E-03     20.4240E-03    -29.7810E+06     50.0413E+06     69.0257E+06    -133.824E+03    -285.722E-03     577.118E-03    -291.396E-03     46.0788E-03    -286.229E-03     577.496E-03    -291.080E-03     41.4489E-03
            2235     9.41376E-03     20.3422E-03    -36.3756E+06     38.8839E+06     56.6827E+06    -158.081E+03    -286.848E-03     578.573E-03    -291.726E-03     44.5372E-03    -287.319E-03     578.889E-03    -291.446E-03     40.7427E-03
            2236     8.73827E-03     20.2607E-03    -43.1411E+06     35.8691E+06     47.5841E+06    -242.311E+03    -287.824E-03     579.858E-03    -292.034E-03     42.2765E-03    -288.279E-03     580.149E-03    -291.786E-03     39.2806E-03
            2237     8.06346E-03     20.1807E-03    -50.1640E+06     11.2789E+06     36.4364E+06    -262.996E+03    -288.783E-03     581.120E-03    -292.336E-03     39.5368E-03    -289.193E-03     581.285E-03    -292.098E-03     37.2827E-03
            2238     7.38933E-03     20.1034E-03    -57.3165E+06    -28.6532E+06     22.5540E+06    -196.298E+03    -289.714E-03     582.330E-03    -292.615E-03     36.4932E-03    -290.058E-03     582.302E-03    -292.378E-03     34.8954E-03
            2239     6.71583E-03     20.0296E-03    -64.5332E+06    -61.6663E+06     8.91346E+06    -136.843E+03    -290.529E-03     583.380E-03    -292.851E-03     33.2318E-03    -290.822E-03     583.200E-03    -292.623E-03     32.1931E-03
            2240     6.04288E-03     19.9601E-03    -71.8361E+06    -89.6819E+06    -5.00459E+06    -92.1080E+03    -291.230E-03     584.273E-03    -293.043E-03     29.8250E-03    -291.485E-03     583.969E-03    -292.834E-03     29.2462E-03
            2241     5.37044E-03     19.8958E-03    -79.1859E+06    -114.804E+06    -19.5760E+06    -52.4843E+03    -291.818E-03     585.011E-03    -293.193E-03     26.3435E-03    -292.041E-03     584.602E-03    -293.010E-03     26.1241E-03
            2242     4.69841E-03     19.8374E-03    -86.5114E+06    -137.828E+06    -34.9774E+06    -20.3227E+03    -292.290E-03     585.593E-03    -293.303E-03     22.8547E-03    -292.486E-03     585.094E-03    -293.153E-03     22.8981E-03
            2243     4.02671E-03     19.7853E-03    -93.6621E+06    -159.238E+06    -51.1094E+06         5.77930    -292.655E-03     586.033E-03    -293.378E-03     19.3948E-03    -292.827E-03     585.455E-03    -293.267E-03     19.6112E-03
            2244     3.35526E-03     19.7404E-03    -100.412E+06    -178.951E+06    -67.5451E+06    -72.7459E+03    -292.932E-03     586.354E-03    -293.422E-03     15.9974E-03    -293.082E-03     585.708E-03    -293.355E-03     16.3049E-03
            2245     2.68401E-03     19.7029E-03    -106.541E+06    -198.045E+06    -83.2939E+06    -46.1579E+03    -293.138E-03     586.584E-03    -293.446E-03     12.6877E-03    -293.266E-03     585.872E-03    -293.420E-03     13.0181E-03
            2246     2.01290E-03     19.6732E-03    -111.828E+06    -214.344E+06    -97.5002E+06     204.560E+03    -293.282E-03     586.734E-03    -293.452E-03     9.46442E-03    -293.391E-03     585.968E-03    -293.467E-03     9.76530E-03
            2247     1.34189E-03     19.6517E-03    -115.943E+06    -225.623E+06    -109.145E+06     211.248E+03    -293.372E-03     586.819E-03    -293.447E-03     6.34215E-03    -293.467E-03     586.018E-03    -293.497E-03     6.56918E-03
            2248     670.934E-06     19.6384E-03    -118.525E+06    -233.300E+06    -116.830E+06     58.9321E+03    -293.366E-03     586.864E-03    -293.497E-03     3.43059E-03    -293.452E-03     586.039E-03    -293.571E-03     3.55820E-03
            2249     12.8033E-03     19.0369E-03    -5.31433E+06     80.1226E+06     97.3395E+06    -101.825E+03    -282.059E-03     571.800E-03    -289.741E-03     35.2633E-03    -282.543E-03     572.267E-03    -289.362E-03     28.8852E-03
            2250     12.1246E-03     18.9715E-03    -11.0386E+06     75.0630E+06     97.2073E+06    -183.559E+03    -283.152E-03     573.284E-03    -290.132E-03     43.4440E-03    -283.721E-03     573.799E-03    -289.739E-03     36.3916E-03
            2251     11.4468E-03     18.8982E-03    -17.1256E+06     60.9214E+06     88.8068E+06    -206.411E+03    -284.515E-03     574.990E-03    -290.475E-03     45.2085E-03    -285.059E-03     575.433E-03    -290.095E-03     38.9771E-03
            2252     10.7699E-03     18.8185E-03    -23.4064E+06     55.5508E+06     78.7368E+06    -220.297E+03    -285.842E-03     576.604E-03    -290.762E-03     45.6691E-03    -286.374E-03     577.022E-03    -290.415E-03     40.1057E-03
            2253     10.0938E-03     18.7357E-03    -29.8709E+06     50.1521E+06     69.0035E+06    -274.081E+03    -287.019E-03     578.031E-03    -291.012E-03     44.4852E-03    -287.527E-03     578.411E-03    -290.697E-03     39.7607E-03
            2254     9.41844E-03     18.6517E-03    -36.4065E+06     39.0837E+06     56.6777E+06    -397.397E+03    -288.047E-03     579.264E-03    -291.218E-03     42.3879E-03    -288.517E-03     579.580E-03    -290.938E-03     38.5011E-03
            2255     8.74377E-03     18.5682E-03    -43.0851E+06     36.0771E+06     47.5935E+06    -548.532E+03    -288.871E-03     580.262E-03    -291.391E-03     39.6557E-03    -289.325E-03     580.553E-03    -291.143E-03     36.5580E-03
            2256     8.06967E-03     18.4865E-03    -50.0268E+06     11.3741E+06     36.4618E+06    -570.527E+03    -289.640E-03     581.188E-03    -291.548E-03     36.5141E-03    -290.048E-03     581.354E-03    -291.310E-03     34.1440E-03
            2257     7.39614E-03     18.4075E-03    -57.1066E+06    -28.6120E+06     22.5900E+06    -475.402E+03    -290.347E-03     582.020E-03    -291.673E-03     33.1384E-03    -290.689E-03     581.993E-03    -291.436E-03     31.4100E-03
            2258     6.72307E-03     18.3323E-03    -64.2462E+06    -61.5629E+06     9.00804E+06    -395.454E+03    -290.895E-03     582.644E-03    -291.748E-03     29.6272E-03    -291.188E-03     582.464E-03    -291.521E-03     28.4429E-03
            2259     6.05039E-03     18.2617E-03    -71.4574E+06    -89.5984E+06    -4.84695E+06    -331.856E+03    -291.287E-03     583.063E-03    -291.776E-03     26.0742E-03    -291.541E-03     582.760E-03    -291.567E-03     25.3353E-03
            2260     5.37798E-03     18.1965E-03    -78.7320E+06    -114.691E+06    -19.3714E+06    -265.155E+03    -291.531E-03     583.295E-03    -291.763E-03     22.5736E-03    -291.754E-03     582.887E-03    -291.580E-03     22.1839E-03
            2261     4.70574E-03     18.1373E-03    -85.9798E+06    -137.673E+06    -34.7059E+06    -217.125E+03    -291.646E-03     583.362E-03    -291.716E-03     19.1951E-03    -291.842E-03     582.865E-03    -291.565E-03     19.0634E-03
            2262     4.03358E-03     18.0848E-03    -93.0432E+06    -159.014E+06    -50.7651E+06    -209.367E+03    -291.660E-03     583.303E-03    -291.644E-03     15.9738E-03    -291.831E-03     582.727E-03    -291.532E-03     16.0176E-03
            2263     3.36143E-03     18.0396E-03    -99.7320E+06    -178.584E+06    -67.1763E+06    -216.379E+03    -291.606E-03     583.161E-03    -291.555E-03     12.9329E-03    -291.755E-03     582.516E-03    -291.487E-03     13.0804E-03
            2264     2.68925E-03     18.0019E-03    -105.860E+06    -198.489E+06    -82.6326E+06    -94.2673E+03    -291.523E-03     582.989E-03    -291.466E-03     10.0838E-03    -291.649E-03     582.274E-03    -291.438E-03     10.2747E-03
            2265     2.01703E-03     17.9723E-03    -111.135E+06    -214.483E+06    -96.6574E+06     98.3151E+03    -291.422E-03     582.801E-03    -291.379E-03     7.41815E-03    -291.529E-03     582.032E-03    -291.390E-03     7.60567E-03
            2266     1.34474E-03     17.9507E-03    -115.189E+06    -224.873E+06    -108.414E+06     139.719E+03    -291.324E-03     582.626E-03    -291.301E-03     4.91676E-03    -291.418E-03     581.826E-03    -291.350E-03     5.06452E-03
            2267     672.379E-06     17.9374E-03    -117.751E+06    -232.889E+06    -116.086E+06     56.9337E+03    -291.196E-03     582.511E-03    -291.315E-03     2.63461E-03    -291.279E-03     581.686E-03    -291.387E-03     2.71864E-03
            2268     12.8044E-03     17.3563E-03    -5.40071E+06     80.3033E+06     97.5241E+06     11.8288E+03    -283.633E-03     573.284E-03    -289.651E-03     35.7392E-03    -284.126E-03     573.761E-03    -289.272E-03     29.2176E-03
            2269     12.1269E-03     17.2886E-03    -11.2348E+06     75.4700E+06     97.3330E+06    -166.381E+03    -284.949E-03     574.892E-03    -289.942E-03     43.5149E-03    -285.530E-03     575.418E-03    -289.549E-03     36.2797E-03
            2270     11.4503E-03     17.2127E-03    -17.4077E+06     61.0884E+06     88.7532E+06    -400.681E+03    -286.459E-03     576.620E-03    -290.161E-03     44.6256E-03    -287.013E-03     577.071E-03    -289.780E-03     38.2020E-03
            2271     10.7747E-03     17.1306E-03    -23.5998E+06     55.4999E+06     78.6156E+06    -532.594E+03    -287.811E-03     578.112E-03    -290.301E-03     44.2776E-03    -288.348E-03     578.534E-03    -289.954E-03     38.5243E-03
            2272     10.1000E-03     17.0457E-03    -29.8831E+06     50.3844E+06     69.0125E+06    -624.688E+03    -288.901E-03     579.284E-03    -290.384E-03     42.2963E-03    -289.411E-03     579.667E-03    -290.068E-03     37.3794E-03
            2273     9.42598E-03     16.9600E-03    -36.3140E+06     39.3975E+06     56.7170E+06    -770.768E+03    -289.764E-03     580.169E-03    -290.405E-03     39.4835E-03    -290.236E-03     580.487E-03    -290.126E-03     35.3908E-03
            2274     8.75249E-03     16.8751E-03    -42.9310E+06     36.3063E+06     47.5418E+06    -960.767E+03    -290.368E-03     580.745E-03    -290.378E-03     36.1211E-03    -290.823E-03     581.039E-03    -290.130E-03     32.7932E-03
            2275     8.07943E-03     16.7923E-03    -49.8078E+06     11.4888E+06     36.3959E+06    -965.227E+03    -290.862E-03     581.182E-03    -290.320E-03     32.4253E-03    -291.272E-03     581.350E-03    -290.082E-03     29.7972E-03
            2276     7.40673E-03     16.7126E-03    -56.8083E+06    -28.5026E+06     22.6035E+06    -837.296E+03    -291.223E-03     581.442E-03    -290.218E-03     28.5762E-03    -291.567E-03     581.417E-03    -289.982E-03     26.5625E-03
            2277     6.73428E-03     16.6368E-03    -63.8636E+06    -61.4389E+06     9.07219E+06    -730.856E+03    -291.349E-03     581.408E-03    -290.059E-03     24.7213E-03    -291.643E-03     581.231E-03    -289.832E-03     23.2274E-03
            2278     6.06190E-03     16.5660E-03    -71.0211E+06    -89.5017E+06    -4.74282E+06    -620.230E+03    -291.258E-03     581.109E-03    -289.851E-03     20.9873E-03    -291.514E-03     580.808E-03    -289.642E-03     19.9218E-03
            2279     5.38945E-03     16.5009E-03    -78.2394E+06    -114.567E+06    -19.2064E+06    -518.994E+03    -290.987E-03     580.594E-03    -289.607E-03     17.4758E-03    -291.211E-03     580.189E-03    -289.423E-03     16.7522E-03
            2280     4.71680E-03     16.4421E-03    -85.4403E+06    -137.537E+06    -34.5061E+06    -418.704E+03    -290.582E-03     579.922E-03    -289.340E-03     14.2619E-03    -290.779E-03     579.427E-03    -289.189E-03     13.8016E-03
            2281     4.04388E-03     16.3901E-03    -92.5209E+06    -158.824E+06    -50.5044E+06    -315.139E+03    -290.095E-03     579.161E-03    -289.066E-03     11.3823E-03    -290.267E-03     578.587E-03    -288.954E-03     11.1160E-03
            2282     3.37063E-03     16.3455E-03    -99.2813E+06    -178.504E+06    -66.8630E+06    -201.573E+03    -289.580E-03     578.377E-03    -288.797E-03     8.84844E-03    -289.729E-03     577.733E-03    -288.729E-03     8.71711E-03
            2283     2.69704E-03     16.3085E-03    -105.430E+06    -198.596E+06    -82.4575E+06    -89.8993E+03    -289.093E-03     577.647E-03    -288.555E-03     6.64454E-03    -289.218E-03     576.932E-03    -288.526E-03     6.59786E-03
            2284     2.02311E-03     16.2795E-03    -110.681E+06    -214.437E+06    -96.5574E+06    -26.2461E+03    -288.666E-03     577.010E-03    -288.344E-03     4.73043E-03    -288.772E-03     576.241E-03    -288.355E-03     4.72882E-03
            2285     1.34891E-03     16.2584E-03    -114.708E+06    -224.559E+06    -108.090E+06     11.7381E+03    -288.328E-03     576.504E-03    -288.176E-03     3.05275E-03    -288.421E-03     575.705E-03    -288.224E-03     3.06770E-03
            2286     674.519E-06     16.2455E-03    -117.198E+06    -232.495E+06    -115.578E+06     30.9726E+03    -288.042E-03     576.179E-03    -288.137E-03     1.60023E-03    -288.125E-03     575.354E-03    -288.208E-03     1.61025E-03
            2287     12.8060E-03     15.6727E-03    -5.24739E+06     80.5112E+06     97.8088E+06    -1.36674E+03    -286.070E-03     575.588E-03    -289.519E-03     36.3279E-03    -286.573E-03     576.075E-03    -289.139E-03     29.6026E-03
            2288     12.1302E-03     15.6025E-03    -10.8647E+06     76.1006E+06     97.7583E+06    -202.480E+03    -287.616E-03     577.275E-03    -289.659E-03     43.5527E-03    -288.209E-03     577.816E-03    -289.264E-03     36.0511E-03
            2289     11.4556E-03     15.5240E-03    -16.8898E+06     61.7118E+06     89.1461E+06    -486.880E+03    -289.236E-03     578.932E-03    -289.696E-03     43.7925E-03    -289.799E-03     579.396E-03    -289.315E-03     37.0843E-03
            2290     10.7819E-03     15.4397E-03    -23.1276E+06     55.7092E+06     78.8085E+06    -806.120E+03    -290.558E-03     580.185E-03    -289.628E-03     42.4179E-03    -291.100E-03     580.615E-03    -289.281E-03     36.3642E-03
            2291     10.1091E-03     15.3533E-03    -29.5194E+06     50.5206E+06     69.0689E+06    -945.271E+03    -291.510E-03     580.987E-03    -289.477E-03     39.4428E-03    -292.023E-03     581.375E-03    -289.162E-03     34.1995E-03
            2292     9.43683E-03     15.2667E-03    -36.0037E+06     39.8071E+06     56.7577E+06    -1.07432E+06    -292.163E-03     581.404E-03    -289.241E-03     35.7212E-03    -292.639E-03     581.729E-03    -288.963E-03     31.2673E-03
            2293     8.76500E-03     15.1812E-03    -42.6232E+06     36.6007E+06     47.4712E+06    -1.34212E+06    -292.477E-03     581.409E-03    -288.932E-03     31.5224E-03    -292.935E-03     581.708E-03    -288.686E-03     27.7882E-03
            2294     8.09339E-03     15.0982E-03    -49.4352E+06     11.6854E+06     36.2840E+06    -1.38335E+06    -292.565E-03     581.139E-03    -288.574E-03     27.0969E-03    -292.977E-03     581.312E-03    -288.338E-03     24.0128E-03
            2295     7.42191E-03     15.0188E-03    -56.3616E+06    -28.3250E+06     22.5302E+06    -1.20857E+06    -292.406E-03     580.563E-03    -288.157E-03     22.6685E-03    -292.751E-03     580.543E-03    -287.922E-03     20.1554E-03
            2296     6.75025E-03     14.9439E-03    -63.3758E+06    -61.2909E+06     9.01564E+06    -1.04387E+06    -291.914E-03     579.590E-03    -287.676E-03     18.4091E-03    -292.209E-03     579.417E-03    -287.450E-03     16.3815E-03
            2297     6.07822E-03     14.8743E-03    -70.4597E+06    -89.4104E+06    -4.78922E+06    -883.153E+03    -291.132E-03     578.281E-03    -287.149E-03     14.4806E-03    -291.388E-03     577.983E-03    -286.941E-03     12.8594E-03
            2298     5.40564E-03     14.8108E-03    -77.6197E+06    -114.514E+06    -19.2471E+06    -676.116E+03    -290.138E-03     576.735E-03    -286.597E-03     11.0113E-03    -290.361E-03     576.332E-03    -286.415E-03     9.72958E-03
            2299     4.73236E-03     14.7538E-03    -84.8033E+06    -137.471E+06    -34.5520E+06    -453.009E+03    -289.016E-03     575.058E-03    -286.042E-03     8.07052E-03    -289.212E-03     574.565E-03    -285.893E-03     7.07076E-03
            2300     4.05830E-03     14.7038E-03    -91.8346E+06    -158.791E+06    -50.5605E+06    -219.769E+03    -287.852E-03     573.358E-03    -285.506E-03     5.67760E-03    -288.023E-03     572.785E-03    -285.395E-03     4.91074E-03
            2301     3.38343E-03     14.6610E-03    -98.4913E+06    -178.395E+06    -66.7780E+06    -8.55513E+03    -286.729E-03     571.738E-03    -285.009E-03     3.81461E-03    -286.876E-03     571.094E-03    -284.941E-03     3.23902E-03
            2302     2.70779E-03     14.6258E-03    -104.584E+06    -198.254E+06    -81.9976E+06     96.4071E+03    -285.723E-03     570.299E-03    -284.576E-03     2.43087E-03    -285.846E-03     569.583E-03    -284.546E-03     2.01008E-03
            2303     2.03150E-03     14.5982E-03    -109.849E+06    -214.100E+06    -95.8863E+06     90.0592E+03    -284.881E-03     569.094E-03    -284.214E-03     1.45273E-03    -284.985E-03     568.325E-03    -284.224E-03     1.15915E-03
            2304     1.35466E-03     14.5783E-03    -113.911E+06    -224.332E+06    -107.471E+06     73.7660E+03    -284.241E-03     568.177E-03    -283.936E-03     792.522E-06    -284.332E-03     567.377E-03    -283.983E-03     606.354E-06
            2305     677.429E-06     14.5661E-03    -116.462E+06    -232.094E+06    -114.924E+06     74.2825E+03    -283.775E-03     567.603E-03    -283.828E-03     353.925E-06    -283.856E-03     566.777E-03    -283.897E-03     253.987E-06
            2306     12.8082E-03     13.9844E-03    -5.19266E+06     80.9705E+06     98.0696E+06    -260.327E+03    -289.424E-03     578.765E-03    -289.341E-03     37.0037E-03    -289.941E-03     579.267E-03    -288.960E-03     30.0084E-03
            2307     12.1348E-03     13.9116E-03    -10.7995E+06     76.7217E+06     98.0170E+06    -575.767E+03    -291.242E-03     580.516E-03    -289.275E-03     43.5322E-03    -291.853E-03     581.077E-03    -288.880E-03     35.6695E-03
            2308     11.4626E-03     13.8308E-03    -16.7520E+06     62.1856E+06     89.2851E+06    -806.870E+03    -292.969E-03     582.037E-03    -289.069E-03     42.6370E-03    -293.546E-03     582.517E-03    -288.688E-03     35.5251E-03
            2309     10.7916E-03     13.7449E-03    -22.8935E+06     55.8973E+06     78.8882E+06    -885.844E+03    -294.223E-03     582.945E-03    -288.722E-03     39.9971E-03    -294.776E-03     583.387E-03    -288.376E-03     33.5058E-03
            2310     10.1213E-03     13.6577E-03    -29.2991E+06     50.8219E+06     69.0961E+06    -1.00669E+06    -295.015E-03     583.276E-03    -288.261E-03     35.8337E-03    -295.537E-03     583.674E-03    -287.946E-03     30.1055E-03
            2311     9.45143E-03     13.5709E-03    -35.7582E+06     40.4437E+06     56.6879E+06    -1.32417E+06    -295.398E-03     583.078E-03    -287.680E-03     30.9995E-03    -295.880E-03     583.413E-03    -287.403E-03     25.9902E-03
            2312     8.78187E-03     13.4859E-03    -42.2408E+06     37.0938E+06     47.2289E+06    -1.72950E+06    -295.279E-03     582.278E-03    -286.998E-03     25.8252E-03    -295.742E-03     582.585E-03    -286.755E-03     21.4613E-03
            2313     8.11226E-03     13.4042E-03    -48.9581E+06     11.9605E+06     35.9024E+06    -1.76351E+06    -294.770E-03     581.015E-03    -286.245E-03     20.6149E-03    -295.184E-03     581.195E-03    -286.012E-03     16.8305E-03
            2314     7.44224E-03     13.3268E-03    -55.8036E+06    -28.1359E+06     22.0392E+06    -1.50533E+06    -293.858E-03     579.282E-03    -285.423E-03     15.6256E-03    -294.205E-03     579.267E-03    -285.191E-03     12.3493E-03
            2315     6.77158E-03     13.2545E-03    -62.7093E+06    -61.2193E+06     8.44807E+06    -1.20106E+06    -292.505E-03     577.042E-03    -284.537E-03     11.0786E-03    -292.799E-03     576.873E-03    -284.315E-03     8.24477E-03
            2316     6.09995E-03     13.1881E-03    -69.8189E+06    -89.4414E+06    -5.45271E+06    -811.378E+03    -290.808E-03     574.425E-03    -283.617E-03     7.15131E-03    -291.062E-03     574.129E-03    -283.413E-03     4.70970E-03
            2317     5.42708E-03     13.1282E-03    -77.0884E+06    -114.485E+06    -19.9665E+06    -443.433E+03    -288.891E-03     571.584E-03    -282.693E-03     3.93712E-03    -289.112E-03     571.183E-03    -282.515E-03     1.84609E-03
            2318     4.75283E-03     13.0750E-03    -84.3502E+06    -137.394E+06    -35.2151E+06    -121.131E+03    -286.881E-03     568.675E-03    -281.795E-03     1.45576E-03    -287.074E-03     568.183E-03    -281.649E-03    -318.272E-06
            2319     4.07715E-03     13.0287E-03    -91.4422E+06    -158.637E+06    -51.0957E+06     152.178E+03    -284.896E-03     565.846E-03    -280.951E-03    -306.895E-06    -285.064E-03     565.274E-03    -280.844E-03    -1.78970E-03
            2320     3.40009E-03     12.9894E-03    -98.1607E+06    -178.285E+06     -67.176E+06     447.567E+03    -283.043E-03     563.229E-03    -280.186E-03    -1.40304E-03    -283.188E-03     562.585E-03    -280.121E-03    -2.61201E-03
            2321     2.72176E-03     12.9572E-03    -104.276E+06    -197.215E+06    -82.3230E+06     556.733E+03    -281.415E-03     560.942E-03    -279.527E-03    -1.90146E-03    -281.538E-03     560.231E-03    -279.502E-03    -2.85318E-03
            2322     2.04235E-03     12.9321E-03    -109.506E+06    -213.120E+06    -95.7398E+06     279.638E+03    -280.078E-03     559.069E-03    -278.990E-03    -1.89945E-03    -280.182E-03     558.302E-03    -279.001E-03    -2.60930E-03
            2323     1.36206E-03     12.9141E-03    -113.521E+06    -223.989E+06    -106.851E+06     130.366E+03    -279.081E-03     557.667E-03    -278.585E-03    -1.52340E-03    -279.172E-03     556.866E-03    -278.630E-03    -1.99764E-03
            2324     681.186E-06     12.9031E-03    -116.020E+06    -231.449E+06    -114.354E+06     76.5171E+03    -278.406E-03     556.786E-03    -278.380E-03    -934.260E-06    -278.486E-03     555.962E-03    -278.448E-03    -1.19217E-03
            2325     12.8110E-03     12.2901E-03    -5.38100E+06     81.7307E+06     98.3022E+06    -407.556E+03    -293.783E-03     582.897E-03    -289.114E-03     37.7038E-03    -294.318E-03     583.418E-03    -288.733E-03     30.3785E-03
            2326     12.1406E-03     12.2145E-03    -11.0889E+06     77.5162E+06     98.1128E+06    -836.227E+03    -295.921E-03     584.703E-03    -288.782E-03     43.3062E-03    -296.555E-03     585.288E-03    -288.388E-03     34.9882E-03
            2327     11.4718E-03     12.1315E-03    -17.1814E+06     62.4261E+06     89.0892E+06    -1.08825E+06    -297.781E-03     586.044E-03    -288.263E-03     40.9859E-03    -298.377E-03     586.543E-03    -287.883E-03     33.3442E-03
            2328     10.8040E-03     12.0448E-03    -23.3348E+06     55.8207E+06     78.5858E+06    -1.27521E+06    -298.968E-03     586.528E-03    -287.560E-03     36.8406E-03    -299.535E-03     586.983E-03    -287.214E-03     29.7437E-03
            2329     10.1369E-03     11.9576E-03    -29.3635E+06     51.3499E+06     68.9438E+06    -1.50098E+06    -299.503E-03     586.204E-03    -286.700E-03     31.3196E-03    -300.036E-03     586.615E-03    -286.387E-03     24.9042E-03
            2330     9.47026E-03     11.8717E-03    -35.4400E+06     41.1104E+06     56.2529E+06    -1.77308E+06    -299.429E-03     585.115E-03    -285.686E-03     25.3284E-03    -299.918E-03     585.462E-03    -285.413E-03     19.5343E-03
            2331     8.80350E-03     11.7890E-03    -41.7733E+06     37.5393E+06     46.2386E+06    -2.08856E+06    -298.624E-03     583.169E-03    -284.545E-03     19.2651E-03    -299.089E-03     583.487E-03    -284.308E-03     14.0152E-03
            2332     8.13614E-03     11.7104E-03    -48.3701E+06     12.0473E+06     34.6293E+06    -1.92342E+06    -297.198E-03     580.524E-03    -283.326E-03     13.5132E-03    -297.612E-03     580.710E-03    -283.100E-03     8.76224E-03
            2333     7.46787E-03     11.6372E-03    -55.2658E+06    -28.2629E+06     20.5240E+06    -1.24093E+06    -295.219E-03     577.263E-03    -282.045E-03     8.41274E-03    -295.563E-03     577.253E-03    -281.821E-03     4.12715E-03
            2334     6.79811E-03     11.5700E-03    -62.5313E+06    -61.3429E+06     6.65720E+06    -536.851E+03    -292.759E-03     573.479E-03    -280.719E-03     4.12711E-03    -293.052E-03     573.313E-03    -280.507E-03     274.490E-06
            2335     6.12651E-03     11.5093E-03    -69.9561E+06    -89.3678E+06    -7.24981E+06    -15.5725E+03    -289.988E-03     569.377E-03    -279.389E-03     700.476E-06    -290.241E-03     569.086E-03    -279.194E-03    -2.74762E-03
            2336     5.45294E-03     11.4553E-03    -77.3791E+06    -114.229E+06    -21.6221E+06     377.181E+03    -287.051E-03     565.140E-03    -278.090E-03    -1.84497E-03    -287.271E-03     564.743E-03    -277.920E-03    -4.90672E-03
            2337     4.77726E-03     11.4080E-03    -84.7514E+06    -136.998E+06    -36.5987E+06     682.933E+03    -284.101E-03     560.956E-03    -276.855E-03    -3.55073E-03    -284.294E-03     560.467E-03    -276.716E-03    -6.23379E-03
            2338     4.09948E-03     11.3674E-03    -91.9354E+06    -158.090E+06    -52.1036E+06     914.865E+03    -281.280E-03     556.995E-03    -275.715E-03    -4.50300E-03    -281.449E-03     556.426E-03    -275.613E-03    -6.80869E-03
            2339     3.41971E-03     11.3334E-03    -98.6892E+06    -177.740E+06    -67.8208E+06     1.06607E+06    -278.703E-03     553.400E-03    -274.697E-03    -4.79919E-03    -278.850E-03     552.761E-03    -274.635E-03    -6.72568E-03
            2340     2.73814E-03     11.3058E-03    -104.704E+06    -195.597E+06    -83.0331E+06     1.00120E+06    -276.467E-03     550.290E-03    -273.823E-03    -4.54570E-03    -276.593E-03     549.588E-03    -273.803E-03    -6.09232E-03
            2341     2.05503E-03     11.2844E-03    -109.808E+06    -211.176E+06    -96.4580E+06     583.547E+03    -274.646E-03     547.761E-03    -273.115E-03    -3.84627E-03    -274.753E-03     547.006E-03    -273.132E-03    -5.01605E-03
            2342     1.37075E-03     11.2691E-03    -113.819E+06    -223.338E+06    -107.197E+06     93.2012E+03    -273.293E-03     545.880E-03    -272.587E-03    -2.81192E-03    -273.385E-03     545.083E-03    -272.635E-03    -3.60668E-03
            2343     685.609E-06     11.2598E-03    -116.416E+06    -230.975E+06    -114.580E+06     27.5624E+03    -272.404E-03     544.686E-03    -272.282E-03    -1.62400E-03    -272.487E-03     543.865E-03    -272.351E-03    -2.05789E-03
            2344     12.8144E-03     10.5878E-03    -5.32258E+06     82.7690E+06     98.7705E+06    -380.903E+03    -299.339E-03     588.170E-03    -288.831E-03     38.3747E-03    -299.894E-03     588.714E-03    -288.450E-03     30.6594E-03
            2345     12.1480E-03     10.5093E-03    -11.0279E+06     78.4822E+06     98.3850E+06    -910.769E+03    -301.850E-03     590.014E-03    -288.164E-03     42.6675E-03    -302.508E-03     590.626E-03    -287.770E-03     33.7756E-03
            2346     11.4831E-03     10.4246E-03    -16.9725E+06     62.7918E+06     89.0443E+06    -1.25070E+06    -303.805E-03     591.058E-03    -287.253E-03     38.4985E-03    -304.418E-03     591.575E-03    -286.874E-03     30.1841E-03
            2347     10.8195E-03     10.3377E-03    -22.9452E+06     56.2106E+06     78.3982E+06    -1.59579E+06    -304.799E-03     590.907E-03    -286.108E-03     32.6674E-03    -305.377E-03     591.377E-03    -285.764E-03     24.7845E-03
            2348     10.1565E-03     10.2518E-03    -29.1202E+06     51.9438E+06     68.4708E+06    -2.05474E+06    -304.789E-03     589.558E-03    -284.769E-03     25.8152E-03    -305.331E-03     589.984E-03    -284.460E-03     18.4677E-03
            2349     9.49340E-03     10.1688E-03    -35.2975E+06     41.1111E+06     55.0057E+06    -2.18007E+06    -303.779E-03     587.037E-03    -283.257E-03     18.9466E-03    -304.274E-03     587.394E-03    -282.991E-03     12.1174E-03
            2350     8.82967E-03     10.0903E-03    -41.6423E+06     37.0985E+06     43.8288E+06    -1.88147E+06    -301.765E-03     583.390E-03    -281.625E-03     12.6658E-03    -302.232E-03     583.715E-03    -281.399E-03     6.32360E-03
            2351     8.16456E-03     10.0177E-03    -48.7486E+06     11.2224E+06     31.6903E+06    -840.872E+03    -299.020E-03     578.964E-03    -279.944E-03     7.31366E-03    -299.435E-03     579.156E-03    -279.731E-03     1.46583E-03
            2352     7.49729E-03     9.95163E-03    -56.4063E+06    -28.6110E+06     17.7438E+06     357.395E+03    -295.731E-03     573.977E-03    -278.246E-03     3.00222E-03    -296.082E-03     573.975E-03    -278.034E-03    -2.35437E-03
            2353     6.82761E-03     9.89226E-03    -63.9777E+06    -60.8407E+06     4.13331E+06     941.533E+03    -292.030E-03     568.582E-03    -276.552E-03    -231.341E-06    -292.331E-03     568.428E-03    -276.350E-03    -5.11284E-03
            2354     6.15533E-03     9.83973E-03    -71.4106E+06    -88.6636E+06    -9.26934E+06     1.20338E+06    -288.140E-03     563.049E-03    -274.910E-03    -2.42791E-03    -288.402E-03     562.770E-03    -274.724E-03    -6.83540E-03
            2355     5.48024E-03     9.79402E-03    -78.8310E+06    -113.398E+06    -23.0144E+06     1.38763E+06    -284.262E-03     557.616E-03    -273.354E-03    -3.71296E-03    -284.494E-03     557.231E-03    -273.190E-03    -7.63650E-03
            2356     4.80239E-03     9.75475E-03    -86.1607E+06    -135.965E+06    -37.4000E+06     1.46632E+06    -280.550E-03     552.464E-03    -271.913E-03    -4.26558E-03    -280.756E-03     551.988E-03    -271.778E-03    -7.69613E-03
            2357     4.12188E-03     9.72162E-03    -93.2516E+06    -156.920E+06    -52.3589E+06     1.41123E+06    -277.130E-03     547.743E-03    -270.613E-03    -4.28226E-03    -277.311E-03     547.186E-03    -270.512E-03    -7.21399E-03
            2358     3.43895E-03     9.69427E-03    -99.9028E+06    -176.263E+06    -67.5748E+06     1.17467E+06    -274.099E-03     543.570E-03    -269.471E-03    -3.92432E-03    -274.258E-03     542.943E-03    -269.409E-03    -6.35783E-03
            2359     2.75391E-03     9.67238E-03    -105.873E+06    -193.829E+06    -82.5988E+06     777.844E+03    -271.526E-03     540.030E-03    -268.505E-03    -3.32543E-03    -271.663E-03     539.341E-03    -268.483E-03    -5.26570E-03
            2360     2.06710E-03     9.65566E-03    -110.817E+06    -209.196E+06    -96.7185E+06     321.044E+03    -269.461E-03     537.187E-03    -267.726E-03    -2.58339E-03    -269.577E-03     536.446E-03    -267.746E-03    -4.03805E-03
            2361     1.37887E-03     9.64386E-03    -114.519E+06    -222.664E+06    -107.952E+06    -7.14361E+03    -267.950E-03     535.103E-03    -267.153E-03    -1.77474E-03    -268.046E-03     534.313E-03    -267.204E-03    -2.75375E-03
            2362     689.696E-06     9.63674E-03    -117.020E+06    -231.078E+06    -114.932E+06    -53.9915E+03    -266.975E-03     533.797E-03    -266.823E-03    -983.168E-06    -267.060E-03     532.978E-03    -266.893E-03    -1.51423E-03
            2363     12.8187E-03     8.87567E-03    -5.40253E+06     83.8627E+06     99.2452E+06    -522.508E+03    -306.481E-03     594.964E-03    -288.483E-03     39.0614E-03    -307.058E-03     595.532E-03    -288.101E-03     30.8755E-03
            2364     12.1570E-03     8.79377E-03    -10.8894E+06     79.5805E+06     98.7851E+06    -1.20681E+06    -309.357E-03     596.748E-03    -287.391E-03     41.3174E-03    -310.041E-03     597.389E-03    -286.996E-03     31.6694E-03
            2365     11.4974E-03     8.70815E-03    -16.5997E+06     63.0592E+06     88.8994E+06    -1.59137E+06    -311.046E-03     597.044E-03    -285.998E-03     34.8276E-03    -311.675E-03     597.581E-03    -285.621E-03     25.6130E-03
            2366     10.8387E-03     8.62222E-03    -22.4429E+06     56.2068E+06     77.2417E+06    -1.63353E+06    -311.227E-03     595.565E-03    -284.339E-03     27.3949E-03    -311.812E-03     596.048E-03    -284.001E-03     18.5277E-03
            2367     10.1800E-03     8.53968E-03    -28.5824E+06     52.2476E+06     66.7593E+06    -1.45597E+06    -309.911E-03     592.400E-03    -282.489E-03     19.8583E-03    -310.458E-03     592.839E-03    -282.190E-03     11.4220E-03
            2368     9.52059E-03     8.46252E-03    -35.4432E+06     40.2427E+06     53.2171E+06    -928.419E+03    -307.244E-03     587.752E-03    -280.508E-03     13.2743E-03    -307.742E-03     588.115E-03    -280.249E-03     5.35271E-03
            2369     8.85890E-03     8.39203E-03    -43.0898E+06     34.7333E+06     41.0427E+06     315.880E+03    -303.489E-03     581.955E-03    -278.466E-03     7.98557E-03    -303.962E-03     582.281E-03    -278.249E-03     624.092E-06
            2370     8.19432E-03     8.32867E-03    -50.9444E+06     10.3920E+06     28.8899E+06     1.75853E+06    -299.103E-03     575.558E-03    -276.455E-03     4.10370E-03    -299.532E-03     575.759E-03    -276.251E-03    -2.67111E-03
            2371     7.52683E-03     8.27256E-03    -58.3935E+06    -26.9574E+06     16.7439E+06     2.07976E+06    -294.371E-03     568.888E-03    -274.517E-03     1.65089E-03    -294.741E-03     568.907E-03    -274.310E-03    -4.52333E-03
            2372     6.85596E-03     8.22374E-03    -65.5769E+06    -59.2566E+06     4.53286E+06     1.84021E+06    -289.510E-03     562.183E-03    -272.673E-03     426.693E-06    -289.833E-03     562.050E-03    -272.469E-03    -5.12328E-03
            2373     6.18148E-03     8.18167E-03    -72.7775E+06    -87.1876E+06    -7.91627E+06     1.77543E+06    -284.781E-03     555.739E-03    -270.958E-03     68.1102E-06    -285.067E-03     555.479E-03    -270.765E-03    -4.83574E-03
            2374     5.50362E-03     8.14581E-03    -80.0044E+06    -111.806E+06    -20.7336E+06     1.57283E+06    -280.374E-03     549.769E-03    -269.396E-03     228.637E-06    -280.629E-03     549.403E-03    -269.221E-03    -4.02851E-03
            2375     4.82263E-03     8.11567E-03    -87.1735E+06    -134.186E+06    -34.2524E+06     1.14864E+06    -276.397E-03     544.397E-03    -268.000E-03     644.317E-06    -276.625E-03     543.938E-03    -267.850E-03    -2.98192E-03
            2376     4.13886E-03     8.09070E-03    -94.1155E+06    -154.991E+06    -48.6980E+06     491.268E+03    -272.911E-03     539.689E-03    -266.778E-03     1.10495E-03    -273.114E-03     539.148E-03    -266.660E-03    -1.91803E-03
            2377     3.45269E-03     8.07042E-03    -100.632E+06    -174.531E+06    -64.1071E+06    -239.699E+03    -269.955E-03     535.688E-03    -265.733E-03     1.45509E-03    -270.132E-03     535.074E-03    -265.655E-03    -997.284E-06
            2378     2.76452E-03     8.05443E-03    -106.497E+06    -192.444E+06    -79.9973E+06    -902.891E+03    -267.545E-03     532.412E-03    -264.868E-03     1.60033E-03    -267.695E-03     531.733E-03    -264.834E-03    -316.402E-06
            2379     2.07475E-03     8.04239E-03    -111.517E+06    -209.268E+06    -94.9527E+06    -1.14434E+06    -265.686E-03     529.874E-03    -264.187E-03     1.49424E-03    -265.810E-03     529.134E-03    -264.197E-03     82.3616E-06
            2380     1.38382E-03     8.03399E-03    -115.499E+06    -223.553E+06    -107.332E+06    -778.439E+03    -264.368E-03     528.061E-03    -263.693E-03     1.14941E-03    -264.469E-03     527.269E-03    -263.738E-03     216.524E-06
            2381     692.117E-06     8.02893E-03    -118.218E+06    -232.244E+06    -115.643E+06    -468.360E+03    -263.507E-03     526.942E-03    -263.435E-03     669.568E-06    -263.595E-03     526.121E-03    -263.505E-03     169.174E-06
            2382     12.8238E-03     7.14989E-03    -5.42915E+06     85.3444E+06     99.6525E+06    -682.551E+03    -315.652E-03     603.712E-03    -288.060E-03     39.8040E-03    -316.258E-03     604.313E-03    -287.678E-03     30.9934E-03
            2383     12.1687E-03     7.06486E-03    -10.8183E+06     80.9556E+06     98.8546E+06    -1.68412E+06    -318.402E-03     604.846E-03    -286.444E-03     39.2848E-03    -319.116E-03     605.523E-03    -286.052E-03     28.6922E-03
            2384     11.5151E-03     6.98031E-03    -16.4682E+06     62.4188E+06     88.2922E+06    -1.80399E+06    -318.869E-03     603.374E-03    -284.504E-03     30.5532E-03    -319.513E-03     603.927E-03    -284.130E-03     20.2946E-03
            2385     10.8615E-03     6.89842E-03    -22.4072E+06     54.3924E+06     76.0297E+06    -1.06289E+06    -316.986E-03     599.318E-03    -282.332E-03     22.2749E-03    -317.575E-03     599.802E-03    -281.998E-03     12.4191E-03
            2386     10.2064E-03     6.82342E-03    -29.0754E+06     50.6066E+06     64.0006E+06     419.882E+03    -313.219E-03     593.266E-03    -280.047E-03     15.3326E-03    -313.766E-03     593.705E-03    -279.758E-03     6.01666E-03
            2387     9.54828E-03     6.75650E-03    -36.3325E+06     38.1615E+06     51.4079E+06     2.18510E+06    -308.205E-03     585.964E-03    -277.758E-03     10.4309E-03    -308.707E-03     586.325E-03    -277.504E-03     1.78343E-03
            2388     8.88666E-03     6.69767E-03    -43.6075E+06     33.3983E+06     43.5519E+06     3.13620E+06    -302.384E-03     577.933E-03    -275.549E-03     7.56848E-03    -302.869E-03     578.257E-03    -275.317E-03    -309.557E-06
            2389     8.22115E-03     6.64688E-03    -50.5848E+06     12.7582E+06     34.4636E+06     2.80729E+06    -296.357E-03     569.845E-03    -273.488E-03     6.46809E-03    -296.807E-03     570.061E-03    -273.261E-03    -581.703E-06
            2390     7.55101E-03     6.60365E-03    -57.3769E+06    -23.2351E+06     23.1324E+06     1.85859E+06    -290.563E-03     562.171E-03    -271.608E-03     6.54016E-03    -290.957E-03     562.212E-03    -271.376E-03     346.829E-06
            2391     6.87657E-03     6.56700E-03    -64.2006E+06    -57.3417E+06     11.3525E+06     1.20677E+06    -285.218E-03     555.131E-03    -269.913E-03     7.14105E-03    -285.560E-03     555.009E-03    -269.681E-03     1.79502E-03
            2392     6.19843E-03     6.53610E-03    -71.1059E+06    -85.2149E+06    -282.422E+03     691.614E+03    -280.424E-03     548.831E-03    -268.407E-03     7.84260E-03    -280.727E-03     548.580E-03    -268.182E-03     3.29902E-03
            2393     5.51697E-03     6.51019E-03    -77.9576E+06    -109.362E+06    -12.6988E+06    -259.073E+03    -276.236E-03     543.323E-03    -267.088E-03     8.37025E-03    -276.506E-03     542.965E-03    -266.879E-03     4.55841E-03
            2394     4.83270E-03     6.48867E-03    -84.5079E+06    -131.775E+06    -26.5582E+06    -1.58156E+06    -272.670E-03     538.618E-03    -265.947E-03     8.56622E-03    -272.908E-03     538.164E-03    -265.766E-03     5.40880E-03
            2395     4.14610E-03     6.47101E-03    -90.6671E+06    -153.439E+06    -42.2648E+06    -2.75061E+06    -269.710E-03     534.687E-03    -264.976E-03     8.36302E-03    -269.913E-03     534.145E-03    -264.834E-03     5.78977E-03
            2396     3.45761E-03     6.45678E-03    -96.4676E+06    -174.271E+06    -59.2616E+06    -3.39309E+06    -267.320E-03     531.487E-03    -264.167E-03     7.73146E-03    -267.487E-03     530.865E-03    -264.070E-03     5.68170E-03
            2397     2.76766E-03     6.44561E-03    -101.908E+06    -193.733E+06    -76.2431E+06    -3.32683E+06    -265.458E-03     528.971E-03    -263.513E-03     6.69387E-03    -265.591E-03     528.276E-03    -263.465E-03     5.11731E-03
            2398     2.07663E-03     6.43719E-03    -106.840E+06    -212.259E+06    -91.2605E+06    -2.61925E+06    -264.079E-03     527.091E-03    -263.012E-03     5.31996E-03    -264.182E-03     526.326E-03    -263.006E-03     4.17489E-03
            2399     1.38484E-03     6.43134E-03    -110.828E+06    -226.723E+06    -103.188E+06    -1.77546E+06    -263.127E-03     525.781E-03    -262.654E-03     3.71460E-03    -263.207E-03     524.962E-03    -262.681E-03     2.96298E-03
            2400     692.549E-06     6.42786E-03    -113.457E+06    -235.427E+06    -111.204E+06     -953.53E+03    -262.469E-03     524.985E-03    -262.516E-03     2.05495E-03    -262.535E-03     524.135E-03    -262.566E-03     1.65432E-03
            2401     12.8303E-03     5.40597E-03    -5.18488E+06     86.5224E+06     98.7698E+06    -737.172E+03    -327.142E-03     614.758E-03    -287.616E-03     42.1786E-03    -327.786E-03     615.404E-03    -287.240E-03     32.6711E-03
            2402     12.1823E-03     5.32071E-03    -10.6298E+06     81.6692E+06     97.3930E+06    -1.39730E+06    -328.421E-03     613.819E-03    -285.397E-03     37.3602E-03    -329.159E-03     614.527E-03    -285.013E-03     25.9321E-03
            2403     11.5348E-03     5.24065E-03    -16.4924E+06     60.8786E+06     86.9050E+06    -863.124E+03    -325.585E-03     608.512E-03    -282.927E-03     26.8821E-03    -326.231E-03     609.066E-03    -282.557E-03     15.8681E-03
            2404     10.8849E-03     5.16940E-03    -23.0718E+06     51.1579E+06     77.5337E+06     680.224E+03    -319.926E-03     600.317E-03    -280.391E-03     19.4953E-03    -320.512E-03     600.780E-03    -280.044E-03     9.16150E-03
            2405     10.2307E-03     5.10782E-03    -29.7471E+06     49.0443E+06     68.6088E+06     1.88683E+06    -312.773E-03     590.700E-03    -277.927E-03     15.2663E-03    -313.322E-03     591.120E-03    -277.612E-03     5.88501E-03
            2406     9.57179E-03     5.05582E-03    -35.5283E+06     38.4082E+06     57.1663E+06     1.88485E+06    -305.262E-03     580.895E-03    -275.633E-03     13.8104E-03    -305.767E-03     581.245E-03    -275.351E-03     5.51544E-03
            2407     8.90719E-03     5.01264E-03    -40.6242E+06     35.2967E+06     51.1861E+06     1.05912E+06    -298.002E-03     571.574E-03    -273.572E-03     14.0244E-03    -298.485E-03     571.891E-03    -273.309E-03     6.87950E-03
            2408     8.23684E-03     4.97683E-03    -46.0615E+06     15.5044E+06     43.7967E+06     517.540E+03    -291.487E-03     563.252E-03    -271.764E-03     14.7692E-03    -291.931E-03     563.460E-03    -271.501E-03     8.72724E-03
            2409     7.56212E-03     4.94680E-03    -52.3034E+06    -20.6217E+06     32.5315E+06     162.594E+03    -285.857E-03     556.045E-03    -270.188E-03     15.3744E-03    -286.239E-03     556.075E-03    -269.920E-03     10.3300E-03
            2410     6.88381E-03     4.92163E-03    -58.8483E+06    -54.5320E+06     19.1572E+06    -953.005E+03    -281.033E-03     549.843E-03    -268.810E-03     15.6167E-03    -281.359E-03     549.711E-03    -268.550E-03     11.4284E-03
            2411     6.20235E-03     4.90053E-03    -64.7383E+06    -82.0235E+06     5.01812E+06    -2.95670E+06    -276.946E-03     544.558E-03    -267.612E-03     15.4336E-03    -277.223E-03     544.300E-03    -267.374E-03     11.9605E-03
            2412     5.51837E-03     4.88287E-03    -69.6246E+06    -106.579E+06    -9.98048E+06    -5.07614E+06    -273.538E-03     540.119E-03    -266.581E-03     14.8008E-03    -273.767E-03     539.752E-03    -266.375E-03     11.9256E-03
            2413     4.83233E-03     4.86820E-03    -74.0447E+06    -131.127E+06    -25.8189E+06    -6.33376E+06    -270.746E-03     536.452E-03    -265.706E-03     13.7349E-03    -270.926E-03     535.979E-03    -265.538E-03     11.3701E-03
            2414     4.14463E-03     4.85613E-03    -78.6141E+06    -155.147E+06    -41.9259E+06    -6.31633E+06    -268.496E-03     533.472E-03    -264.975E-03     12.2954E-03    -268.631E-03     532.898E-03    -264.846E-03     10.3795E-03
            2415     3.45565E-03     4.84633E-03    -83.4574E+06    -177.837E+06    -57.4711E+06    -5.33498E+06    -266.719E-03     531.095E-03    -264.376E-03     10.5642E-03    -266.813E-03     530.428E-03    -264.285E-03     9.04762E-03
            2416     2.76565E-03     4.83858E-03    -88.2312E+06    -198.686E+06    -71.4546E+06    -3.77815E+06    -265.349E-03     529.250E-03    -263.900E-03     8.62661E-03    -265.410E-03     528.499E-03    -263.841E-03     7.46928E-03
            2417     2.07489E-03     4.83273E-03    -92.3817E+06    -216.723E+06    -82.9994E+06    -2.31904E+06    -264.336E-03     527.875E-03    -263.539E-03     6.56384E-03    -264.370E-03     527.052E-03    -263.506E-03     5.72835E-03
            2418     1.38356E-03     4.82865E-03    -95.5524E+06    -230.500E+06    -91.4158E+06    -1.36885E+06    -263.638E-03     526.923E-03    -263.284E-03     4.44685E-03    -263.652E-03     526.044E-03    -263.269E-03     3.89913E-03
            2419     691.873E-06     4.82621E-03    -97.6313E+06    -239.162E+06    -96.5454E+06    -691.522E+03    -263.105E-03     526.352E-03    -263.247E-03     2.41584E-03    -263.108E-03     525.439E-03    -263.241E-03     2.12360E-03
            2420     12.8343E-03     3.63828E-03    -5.40207E+06     85.7867E+06     97.4949E+06    -1.16577E+06    -342.446E-03     629.855E-03    -287.409E-03     47.2937E-03    -343.141E-03     630.554E-03    -287.038E-03     37.0602E-03
            2421     12.1954E-03     3.55873E-03    -9.39213E+06     80.9249E+06     96.6029E+06     324.560E+03    -337.280E-03     621.832E-03    -284.552E-03     36.4723E-03    -338.001E-03     622.529E-03    -284.173E-03     24.9858E-03
            2422     11.5524E-03     3.49406E-03    -15.6904E+06     61.5785E+06     88.0344E+06     1.41520E+06    -328.166E-03     609.903E-03    -281.736E-03     27.4037E-03    -328.783E-03     610.430E-03    -281.363E-03     16.9073E-03
            2423     10.9026E-03     3.44181E-03    -22.0924E+06     52.8303E+06     82.6051E+06     657.798E+03    -318.126E-03     597.272E-03    -279.146E-03     23.6852E-03    -318.681E-03     597.699E-03    -278.778E-03     14.6294E-03
            2424     10.2455E-03     3.40035E-03    -27.6089E+06     51.4437E+06     76.0685E+06    -1.06503E+06    -308.692E-03     585.521E-03    -276.829E-03     22.5550E-03    -309.204E-03     585.899E-03    -276.483E-03     15.0835E-03
            2425     9.58080E-03     3.36713E-03    -32.7795E+06     40.1455E+06     60.6715E+06    -2.08319E+06    -300.525E-03     575.297E-03    -274.773E-03     22.1485E-03    -300.982E-03     575.605E-03    -274.480E-03     16.0678E-03
            2426     8.91057E-03     3.33977E-03    -38.3106E+06     35.2276E+06     46.2997E+06    -1.91059E+06    -293.589E-03     566.569E-03    -272.979E-03     21.4805E-03    -294.013E-03     566.848E-03    -272.743E-03     16.5632E-03
            2427     8.23674E-03     3.31691E-03    -44.2241E+06     15.3360E+06     31.4587E+06    -1.41910E+06    -287.831E-03     559.272E-03    -271.440E-03     20.4971E-03    -288.208E-03     559.456E-03    -271.241E-03     16.5194E-03
            2428     7.55960E-03     3.29792E-03    -49.4729E+06    -17.8197E+06     16.5435E+06    -2.41174E+06    -283.077E-03     553.199E-03    -270.122E-03     19.2951E-03    -283.390E-03     553.225E-03    -269.942E-03     16.0443E-03
            2429     6.87956E-03     3.28201E-03    -53.2453E+06    -49.4245E+06     3.07986E+06    -5.24880E+06    -279.098E-03     548.081E-03    -268.984E-03     17.9025E-03    -279.348E-03     547.959E-03    -268.819E-03     15.1977E-03
            2430     6.19726E-03     3.26863E-03    -56.1081E+06    -78.8532E+06    -11.1776E+06    -8.00144E+06    -275.772E-03     543.766E-03    -267.995E-03     16.3409E-03    -275.961E-03     543.509E-03    -267.855E-03     14.0700E-03
            2431     5.51298E-03     3.25739E-03    -59.2184E+06    -106.997E+06    -25.7187E+06    -8.93543E+06    -273.013E-03     540.157E-03    -267.145E-03     14.6406E-03    -273.145E-03     539.775E-03    -267.032E-03     12.7434E-03
            2432     4.82706E-03     3.24799E-03    -63.0074E+06    -135.324E+06     -38.793E+06    -8.02296E+06    -270.749E-03     537.179E-03    -266.430E-03     12.8387E-03    -270.833E-03     536.672E-03    -266.337E-03     11.2739E-03
            2433     4.13980E-03     3.24020E-03    -67.1116E+06    -161.263E+06    -50.0046E+06    -6.02775E+06    -268.906E-03     534.742E-03    -265.836E-03     10.9836E-03    -268.950E-03     534.120E-03    -265.755E-03     9.71940E-03
            2434     3.45143E-03     3.23385E-03     -70.998E+06    -184.395E+06    -59.2986E+06    -3.77059E+06    -267.424E-03     532.776E-03    -265.351E-03     9.11566E-03    -267.436E-03     532.053E-03    -265.278E-03     8.12157E-03
            2435     2.76217E-03     3.22883E-03    -74.2832E+06    -204.285E+06    -66.8164E+06    -1.87555E+06    -266.263E-03     531.229E-03    -264.966E-03     7.25952E-03    -266.248E-03     530.419E-03    -264.896E-03     6.50538E-03
            2436     2.07221E-03     3.22503E-03    -76.8356E+06    -220.383E+06    -72.6231E+06    -599.641E+03    -265.391E-03     530.064E-03    -264.673E-03     5.42736E-03    -265.354E-03     529.182E-03    -264.605E-03     4.88596E-03
            2437     1.38176E-03     3.22237E-03    -78.7182E+06    -232.508E+06    -76.8107E+06     72.8123E+03    -264.785E-03     529.251E-03    -264.466E-03     3.63212E-03    -264.732E-03     528.315E-03    -264.399E-03     3.28086E-03
            2438     690.963E-06     3.22080E-03    -79.9419E+06    -240.325E+06    -79.5157E+06     203.046E+03    -264.277E-03     528.763E-03    -264.486E-03     1.95896E-03    -264.214E-03     527.793E-03    -264.419E-03     1.77312E-03
            2439     12.8332E-03     1.83777E-03    -4.33008E+06     84.9154E+06     102.297E+06    -2.16274E+06    -361.920E-03     650.335E-03    -288.416E-03     66.6081E-03    -362.701E-03     651.109E-03    -288.021E-03     56.3453E-03
            2440     12.2009E-03     1.78624E-03    -10.0914E+06     79.2454E+06     98.9201E+06     1.28719E+06    -345.009E-03     629.912E-03    -284.904E-03     49.1805E-03    -345.636E-03     630.503E-03    -284.509E-03     40.7088E-03
            2441     11.5561E-03     1.75071E-03    -16.2948E+06     67.0038E+06     88.6996E+06     1.67290E+06    -329.719E-03     611.566E-03    -281.848E-03     37.9760E-03    -330.225E-03     611.998E-03    -281.478E-03     31.4811E-03
            2442     10.9012E-03     1.72412E-03    -21.9127E+06     59.1623E+06     74.0910E+06    -786.849E+03    -317.246E-03     596.462E-03    -279.217E-03     30.6915E-03    -317.681E-03     596.816E-03    -278.900E-03     25.8105E-03
            2443     10.2389E-03     1.70295E-03    -27.5325E+06     52.8759E+06     57.0348E+06    -1.97671E+06    -307.241E-03     584.196E-03    -276.955E-03     25.0320E-03    -307.627E-03     584.508E-03    -276.706E-03     21.3831E-03
            2444     9.57278E-03     1.68538E-03    -33.1787E+06     40.5250E+06     35.3640E+06    -2.06638E+06    -299.254E-03     574.246E-03    -274.993E-03     20.6647E-03    -299.591E-03     574.509E-03    -274.827E-03     17.8353E-03
            2445     8.90316E-03     1.67124E-03    -38.2671E+06     30.8640E+06     15.4965E+06    -1.17609E+06    -292.718E-03     566.012E-03    -273.294E-03     17.3689E-03    -293.020E-03     566.244E-03    -273.206E-03     15.1106E-03
            2446     8.22936E-03     1.65971E-03    -42.6663E+06     15.3969E+06    -3.11876E+06    -339.641E+03    -287.321E-03     559.149E-03    -271.829E-03     14.8631E-03    -287.583E-03     559.325E-03    -271.805E-03     13.0409E-03
            2447     7.55242E-03     1.65000E-03    -46.0746E+06    -9.63579E+06    -20.4350E+06    -3.27520E+06    -282.878E-03     553.449E-03    -270.571E-03     12.9186E-03    -283.087E-03     553.521E-03    -270.593E-03     11.3796E-03
            2448     6.87299E-03     1.64196E-03    -48.6494E+06    -43.9671E+06    -30.9685E+06    -7.31065E+06    -279.205E-03     548.728E-03    -269.523E-03     11.3358E-03    -279.357E-03     548.641E-03    -269.544E-03     9.98699E-03
            2449     6.19123E-03     1.63531E-03    -51.5422E+06    -80.4119E+06    -38.4416E+06    -8.09537E+06    -276.148E-03     544.784E-03    -268.636E-03     9.92546E-03    -276.246E-03     544.526E-03    -268.637E-03     8.77051E-03
            2450     5.50757E-03     1.62974E-03    -55.1547E+06    -112.387E+06    -45.3192E+06    -6.40769E+06    -273.591E-03     541.465E-03    -267.874E-03     8.60668E-03    -273.648E-03     541.059E-03    -267.858E-03     7.65085E-03
            2451     4.82231E-03     1.62506E-03    -58.8325E+06    -141.892E+06    -50.8970E+06    -4.33800E+06    -271.465E-03     538.694E-03    -267.229E-03     7.36638E-03    -271.486E-03     538.151E-03    -267.193E-03     6.58859E-03
            2452     4.13570E-03     1.62119E-03    -61.9091E+06    -167.621E+06    -55.5318E+06    -2.60005E+06    -269.710E-03     536.399E-03    -266.688E-03     6.19703E-03    -269.701E-03     535.736E-03    -266.633E-03     5.57355E-03
            2453     3.44800E-03     1.61803E-03    -64.1316E+06    -189.573E+06    -59.2641E+06    -1.24937E+06    -268.288E-03     534.531E-03    -266.243E-03     5.08479E-03    -268.251E-03     533.765E-03    -266.171E-03     4.59596E-03
            2454     2.75941E-03     1.61553E-03    -65.6177E+06    -207.697E+06    -62.1990E+06    -276.524E+03    -267.167E-03     533.054E-03    -265.887E-03     4.01782E-03    -267.105E-03     532.203E-03    -265.802E-03     3.64773E-03
            2455     2.07014E-03     1.61364E-03    -66.5758E+06    -222.042E+06    -64.4601E+06     312.059E+03    -266.323E-03     531.938E-03    -265.616E-03     2.98797E-03    -266.241E-03     531.019E-03    -265.519E-03     2.72324E-03
            2456     1.38036E-03     1.61232E-03    -67.1197E+06    -232.512E+06    -66.0648E+06     505.963E+03    -265.737E-03     531.160E-03    -265.424E-03     1.99340E-03    -265.640E-03     530.191E-03    -265.320E-03     1.82224E-03
            2457     690.265E-06     1.61155E-03    -67.3709E+06    -239.153E+06    -67.0911E+06     405.679E+03    -265.222E-03     530.696E-03    -265.474E-03     1.07374E-03    -265.115E-03     529.695E-03    -265.365E-03     983.883E-06


