********************************************************************************
Field Output Report, written Wed May 29 00:24:55 2024

Source 1
---------

   ODB: G:/Abaqus_calc_2019/1740/Vel_5/odb/zeides_2a_24_red_150_cal_0_vel_5_fric_050.odb
   Step: Step-1
   Frame: Increment  12177036: Step Time =    1.601

Loc 1 : Nodal values from source 1

Output sorted by column "Nodal Label".

Field Output reported at nodes for region: DIE_2A_24_D0_36-1.Region_1
   Computation algorithm: EXTRAPOLATE_COMPUTE_AVERAGE
   Averaged at nodes
   Averaging regions: ODB_REGIONS

      Node Label     COORD.COOR1     COORD.COOR2
                          @Loc 1          @Loc 1
-------------------------------------------------
               1     21.4163E-03     122.093E-03


Field Output reported at nodes for region: DIE_2A_24_D0_36-1.Region_2
   Computation algorithm: EXTRAPOLATE_COMPUTE_AVERAGE
   Averaged at nodes
   Averaging regions: ODB_REGIONS

      Node Label     COORD.COOR1     COORD.COOR2
                          @Loc 1          @Loc 1
-------------------------------------------------
               1     21.4163E-03     122.093E-03


Field Output reported at nodes for part: WIRE-1
   Computation algorithm: EXTRAPOLATE_COMPUTE_AVERAGE
   Averaged at nodes
   Averaging regions: ODB_REGIONS

      Node Label     COORD.COOR1     COORD.COOR2           S.S11           S.S22           S.S33           S.S12         PE.PE11         PE.PE22         PE.PE33         PE.PE12         LE.LE11         LE.LE22         LE.LE33         LE.LE12
                          @Loc 1          @Loc 1          @Loc 1          @Loc 1          @Loc 1          @Loc 1          @Loc 1          @Loc 1          @Loc 1          @Loc 1          @Loc 1          @Loc 1          @Loc 1          @Loc 1
-------------------------------------------------------------------------------------------------------------------------------------------------------------------------------------------------------------------------------------------------
               1     35.3034E-09     56.2659E-03    -6.51746E+06    -48.9398E+06    -6.18498E+06     199.403E+03    -14.7200E-03     29.4991E-03    -14.7791E-03     1.78395E-03    -14.6722E-03     29.2733E-03    -14.7296E-03     1.78630E-03
               2     17.7386E-03     57.1961E-03    -1.14010E+06     155.895E+06     43.6941E+06     609.417E+03    -20.9517E-03     35.4859E-03    -14.5342E-03     162.450E-03    -24.2417E-03     39.1987E-03    -14.5401E-03     165.955E-03
               3     17.5367E-03     113.870E-03     11.7127E+06    -18.4044E+06     4.88751E+06     11.9730E+06     11.0905E-03     10.5095E-03    -21.6000E-03     1.40374E-03     11.1467E-03     10.3714E-03    -21.5659E-03     1.55813E-03
               4    -20.9586E-09     112.801E-03     9.74680E+06     894.218E+03     9.41510E+06    -434.323E+03    -17.5445E-03     35.2714E-03    -17.7269E-03    -701.450E-06    -17.5104E-03     35.2487E-03    -17.6953E-03    -706.207E-06
               5     154.188E-09    -534.295E-18    -10.0166E+06    -49.5503E+06    -9.92430E+06     473.940E+03    -12.3939E-03     24.7871E-03    -12.3932E-03     86.7810E-06    -12.3567E-03     24.5688E-03    -12.3564E-03     93.3393E-06
               6     17.6870E-03    -534.295E-18     1.22240E+06     107.557E+06     64.5015E+06     8.39963E+06    -45.0835E-03     61.6753E-03    -16.5918E-03     36.2387E-03    -45.4386E-03     62.2342E-03    -16.4271E-03     36.0820E-03
               7     886.780E-06     56.2678E-03    -5.86192E+06    -48.4541E+06    -5.04539E+06     111.335E+03    -14.7295E-03     29.4954E-03    -14.7659E-03     3.19505E-03    -14.6810E-03     29.2692E-03    -14.7124E-03     3.19608E-03
               8     1.77378E-03     56.2720E-03    -5.21849E+06    -47.1714E+06    -3.45735E+06     41.9254E+03    -14.7510E-03     29.5045E-03    -14.7535E-03     6.07202E-03    -14.7037E-03     29.2812E-03    -14.6948E-03     6.07176E-03
               9     2.66057E-03     56.2792E-03    -4.77591E+06    -45.8058E+06    -1.65020E+06    -306.751E+03    -14.7815E-03     29.5440E-03    -14.7625E-03     9.10557E-03    -14.7367E-03     29.3244E-03    -14.6974E-03     9.10038E-03
              10     3.54747E-03     56.2890E-03    -3.92304E+06    -44.9421E+06     35.2277E+03    -623.740E+03    -14.8077E-03     29.5816E-03    -14.7738E-03     12.3186E-03    -14.7625E-03     29.3628E-03    -14.7028E-03     12.3089E-03
              11     4.43423E-03     56.3022E-03    -2.49348E+06    -44.0873E+06     2.27076E+06    -193.076E+03    -14.8282E-03     29.6134E-03    -14.7852E-03     15.6691E-03    -14.7805E-03     29.3938E-03    -14.7063E-03     15.6644E-03
              12     5.32118E-03     56.3183E-03    -1.24262E+06    -43.4227E+06     4.95692E+06    -108.669E+03    -14.8784E-03     29.6774E-03    -14.7989E-03     19.1869E-03    -14.8296E-03     29.4556E-03    -14.7094E-03     19.1826E-03
              13     6.20794E-03     56.3380E-03    -395.695E+03    -44.0427E+06     5.51471E+06    -494.281E+03    -14.9422E-03     29.7484E-03    -14.8062E-03     22.9284E-03    -14.8894E-03     29.5218E-03    -14.7142E-03     22.9184E-03
              14     7.09480E-03     56.3609E-03     311.348E+03    -45.3491E+06     6.47742E+06    -526.654E+03    -14.9768E-03     29.7925E-03    -14.8157E-03     26.8983E-03    -14.9206E-03     29.5576E-03    -14.7180E-03     26.8869E-03
              15     7.98157E-03     56.3876E-03     640.202E+03    -45.0231E+06     6.42777E+06    -198.627E+03    -14.9865E-03     29.7998E-03    -14.8133E-03     31.1496E-03    -14.9298E-03     29.5669E-03    -14.7168E-03     31.1412E-03
              16     8.86856E-03     56.4183E-03     320.873E+03    -45.3369E+06     5.22591E+06     557.524E+03    -14.9530E-03     29.7521E-03    -14.7991E-03     35.6646E-03    -14.8970E-03     29.5211E-03    -14.7077E-03     35.6643E-03
              17     9.75568E-03     56.4533E-03     201.685E+03    -45.9781E+06     2.36376E+06     1.23690E+06    -14.9388E-03     29.7074E-03    -14.7685E-03     40.2655E-03    -14.8804E-03     29.4796E-03    -14.6903E-03     40.2715E-03
              18     10.6427E-03     56.4922E-03    -844.099E+03    -45.2521E+06    -721.134E+03     1.92549E+06    -14.9496E-03     29.6803E-03    -14.7307E-03     45.2428E-03    -14.8966E-03     29.4657E-03    -14.6674E-03     45.2543E-03
              19     11.5301E-03     56.5363E-03    -1.88192E+06    -36.9273E+06    -1.73496E+06     2.97656E+06    -14.7933E-03     29.4753E-03    -14.6820E-03     50.6127E-03    -14.7615E-03     29.3108E-03    -14.6344E-03     50.6338E-03
              20     12.4174E-03     56.5845E-03    -1.15690E+06    -24.5212E+06    -1.87693E+06     2.59597E+06    -14.7149E-03     29.3294E-03    -14.6145E-03     58.3581E-03    -14.7085E-03     29.2373E-03    -14.5866E-03     58.3687E-03
              21     13.3057E-03     56.6430E-03     947.467E+03    -26.3764E+06    -7.82483E+06     4.33361E+06    -14.5338E-03     29.0553E-03    -14.5214E-03     64.5984E-03    -14.5259E-03     28.9798E-03    -14.5237E-03     64.6250E-03
              22     14.1935E-03     56.7023E-03     2.91784E+06    -20.9023E+06    -15.3703E+06     5.90654E+06    -13.9443E-03     28.3292E-03    -14.3848E-03     67.8608E-03    -13.9496E-03     28.3152E-03    -14.4356E-03     67.9088E-03
              23     15.0831E-03     56.7679E-03     1.02459E+06     22.5231E+06    -18.4376E+06     4.83776E+06    -15.4160E-03     29.6468E-03    -14.2307E-03     89.4421E-03    -15.6276E-03     29.9953E-03    -14.3571E-03     89.4973E-03
              24     15.9688E-03     56.8703E-03    -889.737E+03     60.3281E+06    -31.6900E+06     4.29011E+06    -20.2330E-03     34.3572E-03    -14.1242E-03     143.528E-03    -21.4244E-03     35.8515E-03    -14.3688E-03     143.946E-03
              25     16.8515E-03     57.0393E-03    -958.631E+03     111.080E+06     450.321E+03     2.15947E+06    -22.0948E-03     36.4108E-03    -14.3161E-03     170.280E-03    -24.7365E-03     39.4422E-03    -14.4735E-03     172.415E-03
              26     17.7392E-03     58.1747E-03    -881.819E+03     157.547E+06     43.8101E+06     536.788E+03    -20.1207E-03     34.6808E-03    -14.5601E-03     164.209E-03    -23.4556E-03     38.4449E-03    -14.5682E-03     167.806E-03
              27     17.7388E-03     59.1524E-03    -1.54200E+06     158.669E+06     45.2496E+06     397.745E+03    -20.3069E-03     34.8771E-03    -14.5701E-03     164.099E-03    -23.6611E-03     38.6579E-03    -14.5717E-03     167.698E-03
              28     17.7385E-03     60.1320E-03    -1.12186E+06     159.165E+06     42.9977E+06     150.740E+03    -20.5653E-03     35.1229E-03    -14.5576E-03     164.977E-03    -23.9505E-03     38.9445E-03    -14.5718E-03     168.591E-03
              29     17.7392E-03     61.1108E-03    -1.40956E+06     159.443E+06     42.0476E+06     658.244E+03    -19.6522E-03     34.2304E-03    -14.5781E-03     165.015E-03    -23.0338E-03     38.0510E-03    -14.5971E-03     168.694E-03
              30     17.7379E-03     62.0885E-03    -540.114E+03     160.770E+06     42.5855E+06     322.267E+03    -19.1291E-03     33.7369E-03    -14.6078E-03     165.520E-03    -22.5337E-03     37.5868E-03    -14.6272E-03     169.250E-03
              31     17.7386E-03     63.0632E-03    -454.656E+03     161.541E+06     43.8524E+06    -421.962E+03    -19.5231E-03     34.1338E-03    -14.6107E-03     163.476E-03    -22.9005E-03     37.9559E-03    -14.6250E-03     167.170E-03
              32     17.7377E-03     64.0424E-03    -1.86504E+06     161.066E+06     44.6709E+06     175.437E+03    -19.5145E-03     34.1331E-03    -14.6186E-03     164.335E-03    -22.9050E-03     37.9593E-03    -14.6261E-03     168.043E-03
              33     17.7389E-03     65.0226E-03    -2.78014E+06     160.712E+06     44.2062E+06    -180.109E+03    -19.2215E-03     33.8463E-03    -14.6248E-03     167.028E-03    -22.6731E-03     37.7304E-03    -14.6328E-03     170.776E-03
              34     17.7378E-03     65.9980E-03    -136.701E+03     161.734E+06     41.8616E+06     1.04816E+06    -18.3632E-03     32.9889E-03    -14.6257E-03     166.047E-03    -21.7763E-03     36.8543E-03    -14.6507E-03     169.841E-03
              35     17.7390E-03     66.9735E-03     882.811E+03     163.783E+06     46.0612E+06     1.17547E+06    -18.0755E-03     32.7377E-03    -14.6622E-03     164.929E-03    -21.4807E-03     36.5939E-03    -14.6706E-03     168.738E-03
              36     17.7367E-03     67.9499E-03    -2.52581E+06     159.549E+06     39.7761E+06    -763.100E+03    -18.8000E-03     33.4415E-03    -14.6415E-03     163.333E-03    -22.2093E-03     37.2929E-03    -14.6703E-03     167.101E-03
              37     17.7386E-03     68.9255E-03    -4.41710E+06     157.525E+06     36.7657E+06    -380.875E+03    -18.5951E-03     33.2199E-03    -14.6248E-03     163.336E-03    -22.0061E-03     37.0679E-03    -14.6630E-03     167.116E-03
              38     17.7379E-03     69.9065E-03     3.54098E+06     161.659E+06     36.2902E+06     1.77885E+06    -14.2743E-03     28.9353E-03    -14.6610E-03     162.951E-03    -17.5925E-03     32.7352E-03    -14.7191E-03     166.817E-03
              39     17.7412E-03     70.8700E-03    -4.25508E+06     155.741E+06     39.6838E+06    -5.82747E+06    -14.3996E-03     29.0230E-03    -14.6234E-03     173.620E-03    -17.9654E-03     33.0130E-03    -14.6447E-03     177.455E-03
              40     17.7414E-03     71.8598E-03     6.57729E+06     153.348E+06     63.0257E+06    -134.987E+03    -11.8556E-03     26.4170E-03    -14.5614E-03     170.974E-03    -15.2547E-03     30.2048E-03    -14.4782E-03     174.747E-03
              41     17.7536E-03     72.8037E-03     7.48197E+06     154.074E+06     59.0066E+06     1.54799E+06    -14.7443E-03     29.1031E-03    -14.3588E-03     167.687E-03    -18.1347E-03     32.9039E-03    -14.2980E-03     171.503E-03
              42     17.7358E-03     73.8006E-03    -10.8956E+06     152.133E+06     37.2367E+06    -1.79858E+06    -29.3571E-03     43.5312E-03    -14.1740E-03     171.237E-03    -33.0391E-03     47.6168E-03    -14.1927E-03     174.572E-03
              43     17.7405E-03     74.8064E-03    -3.56470E+06     157.471E+06     34.9149E+06     3.87474E+06    -23.7451E-03     38.2383E-03    -14.4932E-03     173.171E-03    -27.4100E-03     42.3543E-03    -14.5418E-03     176.762E-03
              44     17.7352E-03     75.7491E-03    -6.74888E+06     158.957E+06     43.8337E+06     348.216E+03    -15.7868E-03     30.5476E-03    -14.7608E-03     171.385E-03    -19.3870E-03     34.5620E-03    -14.7624E-03     175.411E-03
              45     17.7400E-03     76.7329E-03    -933.878E+03     161.950E+06     43.2328E+06     1.34356E+06    -17.1276E-03     31.7525E-03    -14.6250E-03     160.351E-03    -20.3845E-03     35.4556E-03    -14.6423E-03     164.089E-03
              46     17.7405E-03     77.7063E-03     2.65592E+06     164.864E+06     43.7682E+06    -1.00716E+06    -17.2384E-03     31.8077E-03    -14.5693E-03     163.449E-03    -20.5578E-03     35.5949E-03    -14.5934E-03     167.192E-03
              47     17.7383E-03     78.6858E-03    -2.85060E+06     161.822E+06     45.7699E+06    -1.08510E+06    -20.3795E-03     34.9413E-03    -14.5618E-03     165.094E-03    -23.7933E-03     38.7868E-03    -14.5635E-03     168.724E-03
              48     17.7388E-03     79.6658E-03    -2.34181E+06     161.335E+06     42.9026E+06     372.104E+03    -20.4309E-03     34.9942E-03    -14.5633E-03     165.484E-03    -23.8546E-03     38.8580E-03    -14.5793E-03     169.132E-03
              49     17.7388E-03     80.6440E-03    -696.379E+03     161.681E+06     39.1759E+06     184.783E+03    -18.2446E-03     32.8348E-03    -14.5902E-03     167.125E-03    -21.6921E-03     36.7402E-03    -14.6277E-03     170.949E-03
              50     17.7390E-03     81.6188E-03    -1.33730E+06     161.585E+06     39.9013E+06    -246.816E+03    -17.9361E-03     32.5373E-03    -14.6011E-03     167.449E-03    -21.3929E-03     36.4472E-03    -14.6340E-03     171.297E-03
              51     17.7387E-03     82.5942E-03    -849.136E+03     161.205E+06     38.2215E+06    -460.202E+03    -18.4816E-03     33.0595E-03    -14.5779E-03     164.750E-03    -21.8825E-03     36.9189E-03    -14.6193E-03     168.534E-03
              52     17.7388E-03     83.5701E-03    -860.432E+03     160.696E+06     36.7481E+06     54.2544E+03    -18.9074E-03     33.4764E-03    -14.5690E-03     164.466E-03    -22.3018E-03     37.3317E-03    -14.6170E-03     168.237E-03
              53     17.7383E-03     84.5505E-03    -841.209E+03     160.814E+06     36.9115E+06    -125.304E+03    -18.9833E-03     33.5578E-03    -14.5745E-03     166.579E-03    -22.4293E-03     37.4647E-03    -14.6219E-03     170.367E-03
              54     17.7390E-03     85.5265E-03    -1.07924E+06     160.095E+06     35.6060E+06    -245.496E+03    -18.2264E-03     32.7986E-03    -14.5722E-03     167.545E-03    -21.6776E-03     36.7111E-03    -14.6248E-03     171.377E-03
              55     17.7394E-03     86.5019E-03    -1.61968E+06     158.399E+06     32.3466E+06    -1.00322E+06    -18.1227E-03     32.6680E-03    -14.5452E-03     166.019E-03    -21.5452E-03     36.5532E-03    -14.6108E-03     169.844E-03
              56     17.7388E-03     87.4768E-03    -1.25994E+06     157.646E+06     30.8473E+06     255.527E+03    -18.7849E-03     33.3130E-03    -14.5281E-03     165.512E-03    -22.1830E-03     37.1768E-03    -14.6006E-03     169.296E-03
              57     17.7391E-03     88.4583E-03    -1.21053E+06     157.831E+06     32.0096E+06     644.703E+03    -18.4387E-03     32.9745E-03    -14.5357E-03     167.661E-03    -21.8704E-03     36.8693E-03    -14.6028E-03     171.462E-03
              58     17.7399E-03     89.4309E-03     433.914E+03     158.013E+06     31.1085E+06    -616.507E+03    -17.6094E-03     32.1259E-03    -14.5165E-03     165.862E-03    -20.9985E-03     35.9873E-03    -14.5907E-03     169.688E-03
              59     17.7401E-03     90.4042E-03    -787.692E+03     156.568E+06     31.5101E+06    -961.532E+03    -18.2442E-03     32.7276E-03    -14.4834E-03     164.146E-03    -21.6004E-03     36.5455E-03    -14.5517E-03     167.933E-03
              60     17.7402E-03     91.3857E-03    -572.951E+03     153.981E+06     26.8321E+06    -1.23092E+06    -18.9057E-03     33.3350E-03    -14.4292E-03     165.280E-03    -22.2929E-03     37.1890E-03    -14.5175E-03     169.044E-03
              61     17.7410E-03     92.3601E-03    -466.923E+03     151.913E+06     23.1677E+06    -606.632E+03    -18.8642E-03     33.2713E-03    -14.4071E-03     166.137E-03    -22.2668E-03     37.1444E-03    -14.5109E-03     169.941E-03
              62     17.7399E-03     93.3398E-03    -1.10447E+06     150.302E+06     23.5338E+06    -845.400E+03    -19.2652E-03     33.6735E-03    -14.4084E-03     166.326E-03    -22.6842E-03     37.5540E-03    -14.5070E-03     170.116E-03
              63     17.7409E-03     94.3142E-03    -1.22300E+06     146.863E+06     19.4361E+06    -2.44053E+06    -19.2177E-03     33.5904E-03    -14.3728E-03     164.351E-03    -22.5854E-03     37.4188E-03    -14.4868E-03     168.099E-03
              64     17.7413E-03     95.2903E-03     140.196E+03     142.642E+06     12.6861E+06    -1.08597E+06    -19.2023E-03     33.5052E-03    -14.3029E-03     164.906E-03    -22.5265E-03     37.2996E-03    -14.4465E-03     168.646E-03
              65     17.7425E-03     96.2731E-03    -1.38893E+06     140.165E+06     14.6270E+06    -526.586E+03    -20.0876E-03     34.3715E-03    -14.2839E-03     167.751E-03    -23.4791E-03     38.2132E-03    -14.4120E-03     171.464E-03
              66     17.7409E-03     97.2480E-03    -480.196E+03     138.389E+06     16.8295E+06    -1.56581E+06    -20.2670E-03     34.5464E-03    -14.2794E-03     164.305E-03    -23.6005E-03     38.3205E-03    -14.3952E-03     167.975E-03
              67     17.7434E-03     98.2212E-03     896.391E+03     135.068E+06     15.1833E+06    -823.467E+03    -20.0488E-03     34.2844E-03    -14.2357E-03     160.329E-03    -23.2510E-03     37.9253E-03    -14.3569E-03     163.942E-03
              68     17.7427E-03     99.2036E-03    -2.04753E+06     131.398E+06     22.7685E+06    -1.71472E+06    -21.6434E-03     35.8649E-03    -14.2215E-03     162.409E-03    -24.8983E-03     39.5131E-03    -14.2952E-03     165.912E-03
              69     17.7432E-03     100.186E-03    -390.837E+03     127.976E+06     23.7565E+06    -2.21618E+06    -22.4847E-03     36.6720E-03    -14.1873E-03     162.791E-03    -25.7352E-03     40.3064E-03    -14.2535E-03     166.223E-03
              70     17.7443E-03     101.161E-03     132.000E+03     121.738E+06     25.0148E+06    -2.82334E+06    -21.9450E-03     36.1096E-03    -14.1645E-03     160.307E-03    -25.1071E-03     39.6316E-03    -14.2162E-03     163.683E-03
              71     17.7450E-03     102.142E-03    -1.18364E+06     113.503E+06     32.9496E+06    -4.83281E+06    -22.3514E-03     36.4992E-03    -14.1478E-03     159.353E-03    -25.4755E-03     39.9265E-03    -14.1459E-03     162.595E-03
              72     17.7466E-03     103.122E-03    -2.10410E+06     101.666E+06     38.8973E+06    -6.17977E+06    -23.7958E-03     37.8618E-03    -14.0661E-03     161.206E-03    -26.9133E-03     41.2201E-03    -14.0159E-03     164.275E-03
              73     17.7494E-03     104.107E-03    -626.128E+03     86.7668E+06     45.1844E+06    -6.58222E+06    -24.8843E-03     38.8392E-03    -13.9549E-03     162.614E-03    -27.9634E-03     42.0931E-03    -13.8539E-03     165.515E-03
              74     17.7518E-03     105.089E-03    -2.73426E+06     68.7927E+06     44.1850E+06    -9.09469E+06    -25.3907E-03     39.2030E-03    -13.8123E-03     164.806E-03    -28.4376E-03     42.3564E-03    -13.6872E-03     167.533E-03
              75     17.7552E-03     106.072E-03    -1.73579E+06     46.1505E+06     37.3823E+06    -11.3407E+06    -27.1105E-03     40.7159E-03    -13.6053E-03     166.935E-03    -30.0738E-03     43.7286E-03    -13.4828E-03     169.375E-03
              76     17.7575E-03     107.059E-03    -1.25826E+06     17.5898E+06     24.7970E+06    -15.2476E+06    -30.7107E-03     44.0876E-03    -13.3769E-03     170.770E-03    -33.6033E-03     46.9668E-03    -13.2766E-03     172.786E-03
              77     17.7582E-03     108.053E-03    -3.82382E+06    -22.0828E+06     35.9110E+06    -19.1469E+06    -34.9828E-03     48.3141E-03    -13.3313E-03     179.487E-03    -37.8937E-03     51.0298E-03    -13.1142E-03     181.048E-03
              78     17.7597E-03     109.050E-03    -1.27124E+06    -69.9481E+06     43.7862E+06    -21.1561E+06    -39.1615E-03     52.5729E-03    -13.4114E-03     186.446E-03    -41.9884E-03     55.0209E-03    -13.0892E-03     187.539E-03
              79     17.7517E-03     110.048E-03     16.1045E+06    -87.3199E+06     20.4794E+06     2.74551E+06    -40.2278E-03     53.7678E-03    -13.5400E-03     193.111E-03    -42.6458E-03     55.8748E-03    -13.3343E-03     194.102E-03
              80     17.7492E-03     111.045E-03     2.47112E+06    -47.1329E+06    -8.78471E+06     29.4823E+06    -27.0650E-03     41.0368E-03    -13.9718E-03     192.550E-03    -28.7083E-03     42.5498E-03    -13.9510E-03     193.623E-03
              81     17.7436E-03     111.997E-03    -18.7349E+06    -7.26284E+06    -15.7001E+06     7.90860E+06     308.928E-06     14.8774E-03    -15.1864E-03     159.499E-03    -356.801E-06     15.5045E-03    -15.2272E-03     159.947E-03
              82     17.7135E-03     112.911E-03     522.514E+03    -9.28400E+06     393.814E+03    -1.21354E+06     13.3790E-03     5.46194E-03    -18.8409E-03     66.4276E-03     13.3357E-03     5.45713E-03    -18.8263E-03     66.4529E-03
              83     16.6657E-03     113.714E-03    -3.56048E+06     21.6555E+06     27.6937E+06     1.30192E+06     7.59198E-03     14.5945E-03    -22.1864E-03     14.7075E-03     7.49331E-03     14.6588E-03    -22.0742E-03     14.7241E-03
              84     15.7645E-03     113.589E-03    -19.3762E+06    -8.89206E+06     27.5207E+06      -74.75E+03    -8.77994E-03     31.6877E-03    -22.9077E-03     24.3163E-03    -8.90726E-03     31.6309E-03    -22.7291E-03     24.3090E-03
              85     14.9010E-03     113.450E-03    -19.1424E+06    -674.184E+03     14.9027E+06    -1.62962E+06    -20.4419E-03     43.2718E-03    -22.8299E-03     13.9692E-03    -20.5676E-03     43.2687E-03    -22.7267E-03     13.9377E-03
              86     14.0355E-03     113.340E-03    -17.1029E+06     3.18946E+06     10.6667E+06    -8.12363E+06    -20.0865E-03     42.6542E-03    -22.5677E-03     5.75784E-03    -20.1982E-03     42.6749E-03    -22.4942E-03     5.64469E-03
              87     13.1625E-03     113.256E-03    -16.9214E+06    -8.94371E+06     14.6390E+06    -1.66424E+06    -22.9414E-03     45.3158E-03    -22.3744E-03     2.74298E-03    -23.0376E-03     45.2720E-03    -22.2637E-03     2.71294E-03
              88     12.2925E-03     113.180E-03    -17.7100E+06     7.22399E+06     20.1360E+06    -3.46895E+06    -26.0471E-03     48.0247E-03    -21.9776E-03     474.678E-06    -26.1782E-03     48.0550E-03    -21.8617E-03     420.568E-06
              89     11.4233E-03     113.116E-03    -14.7995E+06    -5.57722E+06     19.4795E+06    -5.75243E+06    -27.1847E-03     48.6065E-03    -21.4218E-03    -585.072E-06    -27.2812E-03     48.5698E-03    -21.2949E-03    -668.401E-06
              90     10.5536E-03     113.058E-03    -10.5970E+06     1.43199E+06     24.6591E+06    -4.43716E+06    -26.5524E-03     47.3582E-03    -20.8057E-03    -814.076E-06    -26.6453E-03     47.3432E-03    -20.6691E-03    -879.180E-06
              91     9.68190E-03     113.010E-03    -8.42312E+06    -2.94611E+06     24.1836E+06    -3.41662E+06    -25.0509E-03     45.2635E-03    -20.2125E-03    -678.654E-06    -25.1254E-03     45.2245E-03    -20.0751E-03    -728.975E-06
              92     8.80745E-03     112.968E-03    -6.55984E+06     2.49167E+06     26.5073E+06    -3.84528E+06    -23.5263E-03     43.2170E-03    -19.6907E-03    -482.451E-06    -23.6024E-03     43.1995E-03    -19.5523E-03    -536.872E-06
              93     7.93137E-03     112.934E-03    -3.77593E+06    -2.71666E+06     24.1310E+06    -3.98295E+06    -22.2082E-03     41.4405E-03    -19.2323E-03    -277.773E-06    -22.2591E-03     41.3965E-03    -19.1023E-03    -332.912E-06
              94     7.05333E-03     112.903E-03    -1.44537E+06     795.761E+03     23.0907E+06    -2.90229E+06    -21.0164E-03     39.8558E-03    -18.8394E-03    -72.1072E-06    -21.0590E-03     39.8277E-03    -18.7230E-03    -112.459E-06
              95     6.17414E-03     112.879E-03     525.114E+03    -944.502E+03     19.9412E+06    -3.11969E+06    -20.0153E-03     38.5298E-03    -18.5145E-03     38.6549E-06    -20.0409E-03     38.4948E-03    -18.4142E-03    -3.84851E-06
              96     5.29359E-03     112.857E-03     2.87509E+06    -111.250E+03      16.844E+06    -2.70264E+06    -19.2477E-03     37.4976E-03    -18.2499E-03     82.2655E-06    -19.2582E-03     37.4679E-03    -18.1697E-03     45.6447E-06
              97     4.41247E-03     112.840E-03     4.76028E+06    -880.361E+03     14.6651E+06    -2.11377E+06    -18.6884E-03     36.7342E-03    -18.0459E-03     115.216E-06    -18.6851E-03     36.7012E-03    -17.9782E-03     86.5731E-06
              98     3.53042E-03     112.826E-03     6.33906E+06      53.525E+03     13.0852E+06    -1.83186E+06    -18.2632E-03     36.1504E-03    -17.8872E-03     83.2951E-06    -18.2510E-03     36.1221E-03    -17.8311E-03     58.6150E-06
              99     2.64816E-03     112.816E-03     7.64443E+06    -885.267E+03     11.2424E+06    -1.48969E+06    -17.9601E-03     35.7307E-03    -17.7707E-03    -56.0652E-06    -17.9373E-03     35.6985E-03    -17.7243E-03    -76.0071E-06
             100     1.76527E-03     112.808E-03     8.49915E+06    -99.0212E+03     10.2976E+06    -1.21737E+06    -17.7676E-03     35.4593E-03    -17.6917E-03     7.21325E-06    -17.7404E-03     35.4311E-03    -17.6524E-03    -8.95947E-06
             101     882.822E-06     112.803E-03     9.34487E+06    -758.534E+03     9.08018E+06    -967.512E+03    -17.6152E-03     35.3079E-03    -17.6927E-03    -271.885E-06    -17.5808E-03     35.2775E-03    -17.6598E-03    -284.132E-06
             102    -140.699E-09     111.819E-03     6.71231E+06    -1.72811E+06     6.47000E+06    -887.736E+03    -15.9984E-03     32.2947E-03    -16.2962E-03    -263.634E-06    -15.9713E-03     32.2675E-03    -16.2711E-03    -274.541E-06
             103    -225.946E-09     110.842E-03     2.97718E+06    -4.30453E+06     3.30590E+06    -939.126E+03    -13.5583E-03     27.2666E-03    -13.7083E-03     471.310E-06    -13.5414E-03     27.2365E-03    -13.6898E-03     459.221E-06
             104     331.142E-09     109.870E-03    -706.054E+03    -7.93445E+06    -514.861E+03    -1.42061E+06    -11.9892E-03     23.8283E-03    -11.8392E-03     1.03971E-03    -11.9801E-03     23.7910E-03    -11.8292E-03     1.02119E-03
             105    -167.738E-09     108.900E-03    -8.49475E+06    -12.9112E+06    -8.46543E+06    -1.56387E+06    -10.8269E-03     21.5598E-03    -10.7329E-03     1.43343E-03    -10.8381E-03     21.5203E-03    -10.7442E-03     1.41304E-03
             106     170.791E-09     107.933E-03    -17.4543E+06    -18.7465E+06    -17.1151E+06    -1.91151E+06    -10.0626E-03     20.2155E-03    -10.1529E-03     1.65194E-03    -10.0976E-03     20.1724E-03    -10.1859E-03     1.62707E-03
             107    -332.457E-09     106.965E-03    -26.9411E+06    -24.9440E+06    -27.2328E+06    -1.85469E+06    -9.75227E-03     19.5892E-03    -9.83694E-03     1.74907E-03    -9.81102E-03     19.5435E-03    -9.89787E-03     1.72500E-03
             108     338.001E-09     105.998E-03    -41.2203E+06    -31.8419E+06    -40.5161E+06    -2.65095E+06    -9.74826E-03     19.4861E-03    -9.73788E-03     1.88583E-03    -9.84916E-03     19.4459E-03    -9.83452E-03     1.85152E-03
             109    -318.974E-09     105.031E-03    -54.3774E+06    -39.6944E+06    -55.4399E+06    -1.87965E+06    -9.94899E-03     19.8904E-03    -9.94145E-03     2.14181E-03    -10.0827E-03     19.8517E-03    -10.0822E-03     2.11747E-03
             110     298.733E-09     104.063E-03    -53.1106E+06    -43.5001E+06    -52.7066E+06    -499.223E+03    -10.3827E-03     20.6838E-03    -10.3011E-03     2.22434E-03    -10.5085E-03     20.6202E-03    -10.4246E-03     2.21786E-03
             111    -131.299E-09     103.095E-03    -37.2132E+06    -45.5133E+06    -37.5096E+06    -681.838E+03    -10.8286E-03     21.5843E-03    -10.7558E-03     2.13010E-03    -10.8940E-03     21.4656E-03    -10.8234E-03     2.12126E-03
             112     87.7144E-09     102.126E-03    -24.9875E+06    -44.3371E+06    -25.9253E+06     1.52623E+06    -11.3100E-03     22.6049E-03    -11.2949E-03     2.04517E-03    -11.3328E-03     22.4574E-03    -11.3240E-03     2.06483E-03
             113    -30.3457E-09     101.155E-03    -17.8415E+06    -36.7744E+06    -17.8527E+06     3.09807E+06    -11.8998E-03     23.6938E-03    -11.7940E-03     2.09947E-03    -11.9096E-03     23.5621E-03    -11.8041E-03     2.13939E-03
             114     158.564E-09     100.184E-03    -15.1655E+06    -25.7562E+06    -15.3612E+06     3.61290E+06    -12.4062E-03     24.6687E-03    -12.2625E-03     2.20510E-03    -12.4222E-03     24.5846E-03    -12.2800E-03     2.25163E-03
             115    -36.2359E-09     99.2114E-03    -10.1721E+06    -14.5116E+06    -9.77538E+06     3.35464E+06    -12.7838E-03     25.4811E-03    -12.6973E-03     2.19981E-03    -12.7992E-03     25.4379E-03    -12.7104E-03     2.24300E-03
             116     69.5901E-09     98.2388E-03    -4.98634E+06    -5.72681E+06    -4.59888E+06     2.03315E+06    -13.0605E-03     26.1623E-03    -13.1018E-03     2.04258E-03    -13.0703E-03     26.1480E-03    -13.1092E-03     2.06868E-03
             117    -174.064E-09     97.2651E-03    -3.52314E+06    -2.85986E+06    -2.77536E+06    -151.401E+03    -13.3349E-03     26.8091E-03    -13.4742E-03     1.83072E-03    -13.3441E-03     26.8044E-03    -13.4788E-03     1.82864E-03
             118     37.7470E-09     96.2907E-03     203.030E+03    -4.05587E+06    -290.726E+03    -683.876E+03    -13.6865E-03     27.4111E-03    -13.7246E-03     1.82112E-03    -13.6790E-03     27.3914E-03    -13.7204E-03     1.81216E-03
             119     23.4758E-09     95.3157E-03     1.56436E+06    -5.22193E+06     1.64086E+06    -141.079E+03    -13.9897E-03     27.8989E-03    -13.9092E-03     1.87994E-03    -13.9765E-03     27.8686E-03    -13.8957E-03     1.87793E-03
             120     57.1589E-09     94.3405E-03     1.95860E+06    -6.83370E+06     2.34183E+06    -831.861E+03    -14.1613E-03     28.3010E-03    -14.1397E-03     1.91643E-03    -14.1447E-03     28.2610E-03    -14.1209E-03     1.90549E-03
             121    -97.0948E-09     93.3649E-03     1.84978E+06    -10.4305E+06     1.77542E+06    -1.37626E+06    -14.3274E-03     28.6389E-03    -14.3114E-03     1.90502E-03    -14.3054E-03     28.5819E-03    -14.2901E-03     1.88705E-03
             122     162.582E-09     92.3888E-03     1.90402E+06    -14.4682E+06     1.79840E+06    -1.05884E+06    -14.4676E-03     28.8653E-03    -14.3978E-03     1.97823E-03    -14.4395E-03     28.7881E-03    -14.3705E-03     1.96432E-03
             123    -107.538E-09     91.4129E-03     2.11757E+06    -17.9334E+06     2.21160E+06    -968.107E+03    -14.5270E-03     29.0437E-03    -14.5167E-03     2.01058E-03    -14.4933E-03     28.9482E-03    -14.4827E-03     1.99782E-03
             124     69.5702E-09     90.4365E-03     1.21751E+06    -20.9252E+06     1.13762E+06    -975.301E+03    -14.6346E-03     29.1971E-03    -14.5625E-03     1.92655E-03    -14.5996E-03     29.0895E-03    -14.5282E-03     1.91371E-03
             125     93.3475E-09     89.4604E-03    -129.850E+03    -23.7978E+06    -173.335E+03    -820.753E+03    -14.6831E-03     29.2705E-03    -14.5874E-03     1.82793E-03    -14.6488E-03     29.1524E-03    -14.5536E-03     1.81710E-03
             126    -88.8654E-09     88.4842E-03    -1.35782E+06    -25.8570E+06    -1.62269E+06    -482.634E+03    -14.5793E-03     29.2736E-03    -14.6942E-03     1.72934E-03    -14.5460E-03     29.1491E-03    -14.6629E-03     1.72290E-03
             127    -124.235E-09     87.5077E-03    -3.35213E+06    -27.4329E+06    -3.15557E+06    -668.136E+03    -14.5473E-03     29.2603E-03    -14.7129E-03     1.76281E-03    -14.5195E-03     29.1330E-03    -14.6841E-03     1.75399E-03
             128     43.9972E-09     86.5314E-03    -4.34282E+06    -30.1094E+06    -4.55090E+06    -731.117E+03    -14.6303E-03     29.2772E-03    -14.6469E-03     1.85796E-03    -14.6015E-03     29.1400E-03    -14.6197E-03     1.84831E-03
             129     2.26755E-09     85.5550E-03    -5.00612E+06    -32.3371E+06    -4.86884E+06    -602.994E+03    -14.6972E-03     29.3597E-03    -14.6625E-03     1.91996E-03    -14.6680E-03     29.2128E-03    -14.6327E-03     1.91196E-03
             130     12.4392E-09     84.5786E-03    -5.14707E+06    -34.7109E+06    -5.17137E+06    -671.980E+03    -14.7380E-03     29.4115E-03    -14.6736E-03     1.99531E-03    -14.7056E-03     29.2534E-03    -14.6416E-03     1.98640E-03
             131     84.5662E-09     83.6018E-03    -5.05753E+06    -36.8940E+06    -5.01661E+06    -480.065E+03    -14.7224E-03     29.3422E-03    -14.6198E-03     2.03623E-03    -14.6866E-03     29.1728E-03    -14.5841E-03     2.02977E-03
             132    -1.50012E-09     82.6261E-03    -5.93322E+06    -39.0099E+06    -5.83380E+06    -780.697E+03    -14.6734E-03     29.2776E-03    -14.6042E-03     1.92736E-03    -14.6378E-03     29.1001E-03    -14.5682E-03     1.91699E-03
             133     40.1749E-09     81.6495E-03    -7.41664E+06    -40.7374E+06    -7.77864E+06    -657.101E+03    -14.6409E-03     29.2653E-03    -14.6244E-03     1.82922E-03    -14.6074E-03     29.0842E-03    -14.5935E-03     1.82047E-03
             134    -55.7611E-09     80.6736E-03    -7.50640E+06    -41.5298E+06    -7.45987E+06        -641.656    -14.6497E-03     29.3155E-03    -14.6658E-03     1.91968E-03    -14.6159E-03     29.1300E-03    -14.6320E-03     1.91946E-03
             135     40.9728E-09     79.6966E-03    -7.21320E+06    -41.9682E+06    -7.11518E+06     45.1156E+03    -14.6924E-03     29.3717E-03    -14.6792E-03     1.99092E-03    -14.6570E-03     29.1831E-03    -14.6435E-03     1.99128E-03
             136    -4.02813E-09     78.7209E-03    -7.25613E+06    -42.0713E+06    -7.13238E+06    -71.4568E+03    -14.6806E-03     29.3195E-03    -14.6389E-03     1.90247E-03    -14.6452E-03     29.1304E-03    -14.6030E-03     1.90129E-03
             137     40.2740E-09     77.7442E-03    -6.41427E+06    -42.4589E+06    -6.53198E+06    -376.995E+03    -14.6676E-03     29.3257E-03    -14.6580E-03     1.87458E-03    -14.6283E-03     29.1326E-03    -14.6198E-03     1.86945E-03
             138    -63.0131E-09     76.7684E-03    -7.98761E+06    -44.4053E+06    -7.91185E+06    -618.737E+03    -14.6552E-03     29.3629E-03    -14.7077E-03     1.91280E-03    -14.6189E-03     29.1644E-03    -14.6713E-03     1.90455E-03
             139    -8.87980E-09     75.7912E-03    -8.02857E+06    -45.9098E+06    -8.24113E+06    -300.553E+03    -14.6138E-03     29.2911E-03    -14.6773E-03     1.95221E-03    -14.5750E-03     29.0856E-03    -14.6403E-03     1.94803E-03
             140    -36.8738E-09     74.8159E-03    -6.58834E+06    -46.7116E+06    -6.59358E+06    -168.609E+03    -14.6144E-03     29.2597E-03    -14.6453E-03     1.89202E-03    -14.5695E-03     29.0457E-03    -14.6010E-03     1.88955E-03
             141     25.1633E-09     73.8390E-03    -6.79833E+06    -47.3493E+06    -6.99103E+06    -401.690E+03    -14.7089E-03     29.3384E-03    -14.6295E-03     1.83870E-03    -14.6636E-03     29.1222E-03    -14.5859E-03     1.83327E-03
             142     122.744E-09     72.8633E-03    -6.66466E+06    -47.8623E+06    -6.47665E+06    -267.078E+03    -14.7629E-03     29.4125E-03    -14.6496E-03     1.86567E-03    -14.7169E-03     29.1928E-03    -14.6029E-03     1.86192E-03
             143    -70.0139E-09     71.8863E-03    -6.40316E+06    -49.1655E+06    -6.03831E+06    -180.578E+03    -14.7391E-03     29.4454E-03    -14.7063E-03     1.99527E-03    -14.6905E-03     29.2181E-03    -14.6559E-03     1.99260E-03
             144     76.9119E-09     70.9102E-03    -6.62313E+06    -49.4217E+06    -7.13108E+06    -20.3503E+03    -14.6996E-03     29.3930E-03    -14.6935E-03     2.08578E-03    -14.6501E-03     29.1664E-03    -14.6479E-03     2.08522E-03
             145    -81.7645E-09     69.9335E-03    -5.53215E+06    -48.4073E+06    -5.51377E+06     488.802E+03    -14.6537E-03     29.2800E-03    -14.6263E-03     1.95375E-03    -14.6027E-03     29.0545E-03    -14.5756E-03     1.95979E-03
             146     132.912E-09     68.9581E-03    -4.82111E+06    -48.3555E+06    -4.38219E+06    -271.186E+03    -14.6555E-03     29.2476E-03    -14.5921E-03     1.88289E-03    -14.6027E-03     29.0197E-03    -14.5369E-03     1.87909E-03
             147    -68.9541E-09     67.9811E-03    -5.45427E+06    -49.1749E+06    -5.97222E+06    -119.898E+03    -14.6384E-03     29.2269E-03    -14.5885E-03     1.91768E-03    -14.5853E-03     28.9981E-03    -14.5392E-03     1.91586E-03
             148     85.1823E-09     67.0056E-03    -4.16618E+06    -49.0118E+06    -3.94478E+06     380.100E+03    -14.5941E-03     29.2034E-03    -14.6093E-03     1.91610E-03    -14.5378E-03     28.9706E-03    -14.5519E-03     1.92078E-03
             149    -128.126E-09     66.0290E-03    -2.33972E+06    -49.1947E+06    -2.27650E+06    -383.246E+03    -14.5747E-03     29.2174E-03    -14.6427E-03     1.89851E-03    -14.5114E-03     28.9786E-03    -14.5793E-03     1.89332E-03
             150     48.8528E-09     65.0532E-03    -4.17709E+06    -50.2331E+06    -4.18393E+06    -380.010E+03    -14.5921E-03     29.1843E-03    -14.5922E-03     1.85582E-03    -14.5337E-03     28.9458E-03    -14.5342E-03     1.85063E-03
             151     27.9779E-09     64.0768E-03    -5.28484E+06    -51.0402E+06    -5.45671E+06    -63.5101E+03    -14.5941E-03     29.1711E-03    -14.5770E-03     1.98310E-03    -14.5382E-03     28.9320E-03    -14.5226E-03     1.98200E-03
             152    -78.9578E-09     63.1008E-03    -6.51898E+06    -50.9133E+06    -6.53412E+06     178.334E+03    -14.6339E-03     29.2343E-03    -14.6004E-03     2.07919E-03    -14.5829E-03     28.9991E-03    -14.5498E-03     2.08123E-03
             153     186.705E-09     62.1242E-03    -7.64377E+06    -50.2424E+06    -7.75895E+06     282.009E+03    -14.6746E-03     29.2440E-03    -14.5695E-03     2.00435E-03    -14.6283E-03     29.0156E-03    -14.5243E-03     2.00773E-03
             154    -111.783E-09     61.1487E-03    -6.86234E+06    -48.6751E+06    -6.98118E+06     701.342E+03    -14.6837E-03     29.3408E-03    -14.6571E-03     1.90085E-03    -14.6369E-03     29.1180E-03    -14.6115E-03     1.90969E-03
             155     80.3258E-09     60.1719E-03    -6.18827E+06    -47.5733E+06    -5.57083E+06    -155.387E+03    -14.7437E-03     29.5018E-03    -14.7581E-03     1.80184E-03    -14.6973E-03     29.2814E-03    -14.7079E-03     1.79965E-03
             156    -69.3144E-09     59.1957E-03    -6.11973E+06    -48.3002E+06    -6.54426E+06    -299.903E+03    -14.7996E-03     29.5436E-03    -14.7440E-03     1.89303E-03    -14.7503E-03     29.3209E-03    -14.6978E-03     1.88898E-03
             157     149.639E-09     58.2188E-03    -6.78357E+06    -49.1268E+06    -6.37543E+06    -144.539E+03    -14.8307E-03     29.5674E-03    -14.7367E-03     1.93121E-03    -14.7838E-03     29.3413E-03    -14.6875E-03     1.92910E-03
             158    -60.8130E-09     57.2427E-03    -5.34148E+06    -49.4456E+06    -5.88300E+06    -21.4438E+03    -14.8000E-03     29.5596E-03    -14.7595E-03     1.86634E-03    -14.7461E-03     29.3291E-03    -14.7095E-03     1.86582E-03
             159    -113.059E-09     55.2899E-03    -5.35023E+06    -48.5415E+06    -5.67992E+06     -94.896E+03    -14.6857E-03     29.4046E-03    -14.7189E-03     1.77300E-03    -14.6334E-03     29.1783E-03    -14.6691E-03     1.77156E-03
             160     126.072E-09     54.3130E-03    -4.29903E+06    -48.7385E+06    -4.07731E+06    -16.3120E+03    -14.6535E-03     29.3095E-03    -14.6560E-03     1.92171E-03    -14.5980E-03     29.0785E-03    -14.5995E-03     1.92127E-03
             161    -143.443E-09     53.3373E-03    -3.21213E+06    -49.1466E+06    -3.35632E+06     21.0016E+03    -14.6168E-03     29.2077E-03    -14.5909E-03     1.90703E-03    -14.5563E-03     28.9719E-03    -14.5317E-03     1.90705E-03
             162     202.766E-09     52.3607E-03    -3.20841E+06    -49.1403E+06    -2.98765E+06    -23.1768E+03    -14.5628E-03     29.0833E-03    -14.5205E-03     1.81988E-03    -14.5028E-03     28.8471E-03    -14.4595E-03     1.81933E-03
             163    -186.745E-09     51.3855E-03    -284.684E+03    -48.5330E+06    -755.425E+03     414.625E+03    -14.5506E-03     29.1081E-03    -14.5574E-03     1.87942E-03    -14.4802E-03     28.8674E-03    -14.4904E-03     1.88454E-03
             164     150.880E-09     50.4083E-03     1.39643E+06    -47.0917E+06     1.95596E+06     228.251E+03    -14.5957E-03     29.1744E-03    -14.5786E-03     1.89986E-03    -14.5229E-03     28.9346E-03    -14.5026E-03     1.90258E-03
             165    -80.6648E-09     49.4334E-03     1.53850E+06    -47.7044E+06     1.33609E+06    -517.574E+03    -14.5669E-03     29.1244E-03    -14.5575E-03     1.87718E-03    -14.4916E-03     28.8822E-03    -14.4839E-03     1.87027E-03
             166     22.5715E-09     48.4563E-03     1.58014E+06    -48.2417E+06     1.56924E+06     19.3363E+03    -14.5271E-03     29.0567E-03    -14.5296E-03     1.84108E-03    -14.4511E-03     28.8114E-03    -14.4541E-03     1.84110E-03
             167     28.6589E-09     47.4814E-03     4.00118E+06    -48.5766E+06     4.05232E+06    -116.198E+03    -14.4906E-03     28.9462E-03    -14.4556E-03     1.82367E-03    -14.4056E-03     28.6921E-03    -14.3707E-03     1.82193E-03
             168    -19.4971E-09     46.5045E-03     3.52795E+06    -49.3267E+06     3.59821E+06    -211.514E+03    -14.4071E-03     28.7861E-03    -14.3790E-03     1.85206E-03    -14.3227E-03     28.5296E-03    -14.2946E-03     1.84907E-03
             169     58.7498E-09     45.5299E-03     1.41321E+06    -50.1176E+06     1.34398E+06    -187.206E+03    -14.3379E-03     28.6287E-03    -14.2908E-03     1.83746E-03    -14.2597E-03     28.3747E-03    -14.2134E-03     1.83479E-03
             170    -17.4008E-09     44.5534E-03    -676.569E+03    -49.7807E+06    -1.03137E+06     651.732E+03    -14.2429E-03     28.4240E-03    -14.1811E-03     1.83829E-03    -14.1722E-03     28.1781E-03    -14.1131E-03     1.84647E-03
             171     79.3834E-09     43.5791E-03    -4.57388E+06    -48.2502E+06    -4.07915E+06     116.478E+03    -14.1158E-03     28.2233E-03    -14.1075E-03     1.80607E-03    -14.0624E-03     27.9951E-03    -14.0513E-03     1.80734E-03
             172    -123.185E-09     42.6032E-03    -4.67636E+06    -48.5904E+06    -4.85622E+06    -344.222E+03    -14.0843E-03     28.1222E-03    -14.0379E-03     1.70161E-03    -14.0297E-03     27.8936E-03    -13.9849E-03     1.69693E-03
             173     245.120E-09     41.6289E-03    -5.47973E+06    -50.2622E+06    -5.10224E+06    -653.144E+03    -14.0020E-03     27.9706E-03    -13.9686E-03     1.71768E-03    -13.9487E-03     27.7352E-03    -13.9133E-03     1.70902E-03
             174    -305.616E-09     40.6533E-03    -4.90454E+06    -51.2747E+06    -5.65892E+06    -11.5563E+03    -13.8735E-03     27.7649E-03    -13.8914E-03     1.71692E-03    -13.8150E-03     27.5244E-03    -13.8382E-03     1.71654E-03
             175     323.603E-09     39.6794E-03    -5.25101E+06    -50.5192E+06    -4.70898E+06     454.742E+03    -13.8062E-03     27.5640E-03    -13.7579E-03     1.69190E-03    -13.7519E-03     27.3264E-03    -13.7005E-03     1.69752E-03
             176    -251.711E-09     38.7042E-03    -5.15415E+06    -49.7527E+06    -5.37591E+06     93.6173E+03    -13.6562E-03     27.3199E-03    -13.6637E-03     1.76997E-03    -13.6016E-03     27.0869E-03    -13.6109E-03     1.77095E-03
             177     161.814E-09     37.7307E-03    -6.76576E+06    -50.2508E+06    -6.27962E+06    -341.216E+03    -13.5671E-03     27.0916E-03    -13.5245E-03     1.69204E-03    -13.5185E-03     26.8598E-03    -13.4732E-03     1.68743E-03
             178     7.23144E-09     36.7562E-03    -5.04146E+06    -50.9180E+06    -5.68507E+06    -112.048E+03    -13.4906E-03     26.8724E-03    -13.3818E-03     1.67198E-03    -13.4334E-03     26.6339E-03    -13.3291E-03     1.67033E-03
             179     7.64697E-09     35.7830E-03    -4.95171E+06    -50.6095E+06    -4.49770E+06     172.689E+03    -13.3109E-03     26.6433E-03    -13.3324E-03     1.63160E-03    -13.2553E-03     26.4045E-03    -13.2743E-03     1.63362E-03
             180    -57.5056E-09     34.8089E-03    -6.37584E+06    -51.9682E+06    -6.37783E+06    -622.963E+03    -13.1795E-03     26.3452E-03    -13.1656E-03     1.58896E-03    -13.1264E-03     26.1044E-03    -13.1129E-03     1.58074E-03
             181     130.113E-09     33.8362E-03    -6.14572E+06    -53.2352E+06    -6.23828E+06    -237.048E+03    -13.0668E-03     26.0063E-03    -12.9395E-03     1.58400E-03    -13.0108E-03     25.7586E-03    -12.8846E-03     1.58076E-03
             182     20.4706E-09     32.8630E-03    -5.56659E+06    -53.8572E+06    -5.44784E+06    -131.610E+03    -12.9045E-03     25.6699E-03    -12.7654E-03     1.53508E-03    -12.8459E-03     25.4171E-03    -12.7065E-03     1.53319E-03
             183     75.6887E-09     31.8908E-03    -4.16951E+06    -53.2009E+06    -4.51746E+06     324.411E+03    -12.6487E-03     25.2776E-03    -12.6289E-03     1.48045E-03    -12.5854E-03     25.0247E-03    -12.5683E-03     1.48447E-03
             184    -142.304E-09     30.9186E-03    -3.39736E+06    -52.1976E+06    -3.13870E+06     245.317E+03    -12.4416E-03     24.9011E-03    -12.4595E-03     1.37695E-03    -12.3779E-03     24.6501E-03    -12.3946E-03     1.37992E-03
             185     178.344E-09     29.9470E-03    -4.79420E+06    -52.2909E+06    -4.83281E+06    -135.947E+03    -12.2797E-03     24.5156E-03    -12.2360E-03     1.42370E-03    -12.2203E-03     24.2687E-03    -12.1774E-03     1.42178E-03
             186    -138.865E-09     28.9753E-03    -4.83852E+06    -52.3719E+06    -4.82347E+06     34.7494E+03    -12.0253E-03     24.0089E-03    -11.9836E-03     1.42635E-03    -11.9661E-03     23.7616E-03    -11.9248E-03     1.42665E-03
             187     171.946E-09     28.0048E-03    -4.34396E+06    -52.2996E+06    -4.29146E+06    -9.58713E+03    -11.7535E-03     23.4428E-03    -11.6892E-03     1.32647E-03    -11.6927E-03     23.1944E-03    -11.6286E-03     1.32617E-03
             188    -91.6868E-09     27.0345E-03    -4.45173E+06    -52.3864E+06    -4.48607E+06     6.37397E+03    -11.4974E-03     22.9274E-03    -11.4299E-03     1.24512E-03    -11.4367E-03     22.6790E-03    -11.3699E-03     1.24505E-03
             189     129.522E-09     26.0648E-03    -3.66059E+06    -51.7823E+06    -3.87100E+06     305.355E+03    -11.2357E-03     22.4127E-03    -11.1770E-03     1.16540E-03    -11.1728E-03     22.1653E-03    -11.1160E-03     1.16919E-03
             190    -66.8992E-09     25.0955E-03    -3.13478E+06    -51.0363E+06    -2.99097E+06     227.145E+03    -10.9497E-03     21.8462E-03    -10.8965E-03     1.12374E-03    -10.8864E-03     21.6005E-03    -10.8329E-03     1.12653E-03
             191     98.9625E-09     24.1269E-03    -1.47922E+06    -49.5765E+06    -1.81143E+06     591.085E+03    -10.6614E-03     21.2665E-03    -10.6051E-03     1.04694E-03    -10.5937E-03     21.0239E-03    -10.5401E-03     1.05445E-03
             192    -36.1289E-09     23.1587E-03    -1.17611E+06    -47.5160E+06    -922.725E+03     663.828E+03    -10.3874E-03     20.7027E-03    -10.3153E-03     999.425E-06    -10.3225E-03     20.4687E-03    -10.2493E-03     1.00788E-03
             193     103.254E-09     22.1912E-03    -1.17146E+06    -46.2816E+06    -1.06714E+06     60.0552E+03    -10.1270E-03     20.1781E-03    -10.0512E-03     988.236E-06    -10.0636E-03     19.9506E-03    -9.98770E-03     988.902E-06
             194    -35.5130E-09     21.2240E-03    -1.46040E+06    -45.6126E+06    -1.72607E+06     419.954E+03    -9.86571E-03     19.6544E-03    -9.78872E-03     952.293E-06    -9.80380E-03     19.4316E-03    -9.72910E-03     957.625E-06
             195     100.531E-09     20.2574E-03    -443.393E+03    -43.9753E+06    -208.470E+03     563.466E+03    -9.62029E-03     19.1429E-03    -9.52256E-03     880.848E-06    -9.55786E-03     18.9245E-03    -9.45920E-03     888.032E-06
             196     10.0336E-09     19.2914E-03     2.49369E+06    -42.4007E+06     2.31719E+06     442.824E+03    -9.37689E-03     18.6900E-03    -9.31307E-03     808.519E-06    -9.30572E-03     18.4715E-03    -9.24362E-03     814.135E-06
             197    -10.1530E-09     18.3256E-03     4.36397E+06    -40.6821E+06     4.41422E+06     574.488E+03    -9.16427E-03     18.2894E-03    -9.12512E-03     704.928E-06    -9.08929E-03     18.0738E-03    -9.05038E-03     712.258E-06
             198     79.4683E-09     17.3604E-03     4.73787E+06    -39.3492E+06     4.79269E+06     365.321E+03    -8.98805E-03     17.8886E-03    -8.90051E-03     642.604E-06    -8.91370E-03     17.6786E-03    -8.82636E-03     647.245E-06
             199     6.86389E-09     16.3952E-03     4.28720E+06    -38.4308E+06     4.30343E+06     145.713E+03    -8.75204E-03     17.4385E-03    -8.68648E-03     589.759E-06    -8.68059E-03     17.2345E-03    -8.61545E-03     591.559E-06
             200     22.8984E-09     15.4310E-03     2.88470E+06    -37.9477E+06     2.81772E+06     14.2085E+03    -8.53388E-03     16.9277E-03    -8.39378E-03     449.370E-06    -8.46803E-03     16.7302E-03    -8.32885E-03     449.480E-06
             201     195.746E-09     14.4668E-03     1.26673E+06    -37.5196E+06     1.22823E+06     286.640E+03    -8.30035E-03     16.3328E-03    -8.03248E-03     359.130E-06    -8.24093E-03     16.1422E-03    -7.97377E-03     362.766E-06
             202     62.6044E-09     13.5037E-03    -997.457E+03    -37.4256E+06    -807.841E+03    -20.5511E+03    -7.89650E-03     15.5819E-03    -7.68535E-03     241.608E-06    -7.84562E-03     15.3979E-03    -7.63368E-03     241.289E-06
             203     57.5945E-09     12.5409E-03    -3.56184E+06    -37.8659E+06    -3.65258E+06    -184.697E+03    -7.42681E-03     14.6568E-03    -7.23004E-03     107.740E-06    -7.38401E-03     14.4786E-03    -7.18823E-03     105.302E-06
             204     172.176E-09     11.5795E-03    -6.15022E+06    -38.1331E+06    -6.11199E+06    -119.704E+03    -6.92025E-03     13.6084E-03    -6.68813E-03     62.8987E-06    -6.88647E-03     13.4361E-03    -6.65448E-03     61.2881E-06
             205     12.9087E-09     10.6187E-03    -8.03061E+06    -38.2065E+06    -8.15375E+06     38.1741E+03    -6.44128E-03     12.6797E-03    -6.23845E-03     75.9366E-06    -6.41385E-03     12.5127E-03    -6.21217E-03     76.3796E-06
             206     162.795E-09     9.65927E-03    -9.57372E+06    -38.4887E+06    -9.23215E+06    -116.276E+03    -6.21185E-03     12.2429E-03    -6.03101E-03     123.134E-06    -6.19016E-03     12.0783E-03    -6.00748E-03     121.583E-06
             207    -11.6750E-09     8.69933E-03    -9.89248E+06    -39.0912E+06    -9.74756E+06    -205.201E+03    -6.31878E-03     12.4933E-03    -6.17456E-03     289.015E-06    -6.29707E-03     12.3269E-03    -6.15228E-03     286.311E-06
             208     119.575E-09     7.73914E-03    -8.51512E+06    -39.8142E+06    -8.40200E+06    -228.663E+03    -6.76834E-03     13.4416E-03    -6.67321E-03     490.641E-06    -6.74065E-03     13.2676E-03    -6.64515E-03     487.656E-06
             209    -56.6481E-09     6.77749E-03    -6.39835E+06    -41.1137E+06    -6.25736E+06    -471.838E+03    -7.49953E-03     14.9511E-03    -7.45158E-03     639.693E-06    -7.46250E-03     14.7644E-03    -7.41398E-03     633.577E-06
             210     80.5316E-09     5.81434E-03    -3.49776E+06    -42.2485E+06    -3.63196E+06    -390.647E+03    -8.41754E-03     16.8094E-03    -8.39184E-03     701.666E-06    -8.36815E-03     16.6090E-03    -8.34367E-03     696.581E-06
             211    -60.5977E-09     4.84921E-03    -1.20728E+06    -43.7355E+06    -969.409E+03    -514.535E+03    -9.41382E-03     18.8054E-03    -9.39158E-03     693.802E-06    -9.35464E-03     18.5904E-03    -9.33126E-03     687.130E-06
             212     82.5068E-09     3.88223E-03     377.875E+03    -45.8157E+06     226.127E+03    -831.346E+03    -10.3658E-03     20.7371E-03    -10.3713E-03     655.081E-06    -10.2974E-03     20.5077E-03    -10.3043E-03     644.326E-06
             213    -116.495E-09     2.91333E-03    -1.79185E+06    -47.9325E+06    -2.01790E+06    -475.907E+03    -11.1994E-03     22.4028E-03    -11.2034E-03     569.850E-06    -11.1355E-03     22.1693E-03    -11.1414E-03     563.574E-06
             214     140.028E-09     1.94311E-03    -6.67978E+06    -49.0668E+06    -6.70331E+06    -191.799E+03    -11.8420E-03     23.6778E-03    -11.8358E-03     439.454E-06    -11.7939E-03     23.4526E-03    -11.7884E-03     436.920E-06
             215    -153.910E-09     971.836E-06    -9.39219E+06    -49.4599E+06    -9.55404E+06    -33.6010E+03    -12.2456E-03     24.4968E-03    -12.2512E-03     223.453E-06    -12.2060E-03     24.2777E-03    -12.2137E-03     223.294E-06
             216     888.820E-06    -534.295E-18    -10.0684E+06    -49.6511E+06    -10.2736E+06    -11.9834E+03    -12.4128E-03     24.8109E-03    -12.3981E-03     175.371E-06    -12.3757E-03     24.5924E-03    -12.3628E-03     175.454E-06
             217     1.77777E-03    -534.295E-18    -10.2374E+06    -50.2156E+06    -11.4779E+06    -161.688E+03    -12.4695E-03     24.8814E-03    -12.4119E-03     345.604E-06    -12.4310E-03     24.6617E-03    -12.3816E-03     343.511E-06
             218     2.66647E-03    -534.295E-18    -10.4623E+06    -51.3354E+06    -12.5753E+06    -285.438E+03    -12.5600E-03     24.9987E-03    -12.4387E-03     516.307E-06    -12.5196E-03     24.7753E-03    -12.4119E-03     512.587E-06
             219     3.55523E-03    -534.295E-18    -10.4288E+06    -52.7116E+06    -13.8786E+06    -546.941E+03    -12.6884E-03     25.1642E-03    -12.4758E-03     707.056E-06    -12.6439E-03     24.9358E-03    -12.4537E-03     699.959E-06
             220     4.44369E-03    -534.295E-18    -10.1459E+06    -53.5739E+06    -15.8730E+06    -809.789E+03    -12.8502E-03     25.3700E-03    -12.5198E-03     908.118E-06    -12.8001E-03     25.1398E-03    -12.5068E-03     897.613E-06
             221     5.33216E-03    -534.295E-18    -9.66391E+06    -54.8895E+06    -18.1536E+06    -1.07818E+06    -13.0422E-03     25.6157E-03    -12.5735E-03     1.12091E-03    -12.9846E-03     25.3815E-03    -12.5706E-03     1.10693E-03
             222     6.22029E-03    -534.295E-18    -9.00393E+06    -57.0432E+06    -21.2596E+06    -1.35125E+06    -13.2665E-03     25.9006E-03    -12.6341E-03     1.34310E-03    -13.1979E-03     25.6592E-03    -12.6446E-03     1.32556E-03
             223     7.10836E-03    -534.295E-18    -8.12151E+06    -58.8459E+06    -24.8931E+06    -1.65422E+06    -13.5100E-03     26.2106E-03    -12.7006E-03     1.61964E-03    -13.4291E-03     25.9642E-03    -12.7280E-03     1.59817E-03
             224     7.99598E-03    -534.295E-18    -6.58863E+06    -61.0753E+06    -28.8308E+06    -2.53416E+06    -13.7756E-03     26.5491E-03    -12.7735E-03     1.91264E-03    -13.6782E-03     26.2951E-03    -12.8195E-03     1.87976E-03
             225     8.88371E-03    -534.295E-18    -4.25289E+06    -62.1926E+06    -33.0985E+06    -2.86155E+06    -14.0849E-03     26.9355E-03    -12.8505E-03     2.26387E-03    -13.9680E-03     26.6786E-03    -12.9197E-03     2.22672E-03
             226     9.77064E-03    -534.295E-18    -1.56755E+06    -60.7057E+06    -37.8899E+06    -3.42152E+06    -14.4299E-03     27.3603E-03    -12.9305E-03     2.70990E-03    -14.2947E-03     27.1140E-03    -13.0296E-03     2.66546E-03
             227     10.6577E-03    -534.295E-18     1.86710E+06    -56.9766E+06    -43.0724E+06    -4.23668E+06    -14.8448E-03     27.8607E-03    -13.0158E-03     3.17276E-03    -14.6904E-03     27.6355E-03    -13.1513E-03     3.11767E-03
             228     11.5441E-03    -534.295E-18     6.38715E+06    -49.2202E+06    -45.3078E+06    -4.79166E+06    -15.4271E-03     28.5538E-03    -13.1266E-03     3.84235E-03    -15.2581E-03     28.3641E-03    -13.2911E-03     3.77999E-03
             229     12.4298E-03    -534.295E-18     10.4761E+06    -33.7238E+06    -40.4961E+06    -3.81179E+06    -16.1866E-03     29.4763E-03    -13.2897E-03     4.78533E-03    -16.0266E-03     29.3512E-03    -13.4584E-03     4.73543E-03
             230     13.3146E-03    -534.295E-18     11.1423E+06    -4.32014E+06    -28.3165E+06    -441.237E+03    -17.2833E-03     30.7990E-03    -13.5157E-03     6.00991E-03    -17.1804E-03     30.8024E-03    -13.6671E-03     6.00296E-03
             231     14.1983E-03    -534.295E-18     8.90450E+06     31.4179E+06    -9.46654E+06     934.580E+03    -19.5352E-03     33.3870E-03    -13.8518E-03     8.00626E-03    -19.5227E-03     33.5451E-03    -13.9576E-03     8.01615E-03
             232     15.0788E-03    -534.295E-18     8.90013E+06     58.0056E+06     13.4843E+06    -1.53102E+06    -22.8965E-03     37.2491E-03    -14.3526E-03     10.1426E-03    -22.9559E-03     37.5070E-03    -14.3822E-03     10.1203E-03
             233     15.9552E-03    -534.295E-18     8.17006E+06     77.8457E+06     34.4784E+06    -858.504E+03    -27.0007E-03     42.0181E-03    -15.0173E-03     17.2563E-03    -27.1246E-03     42.3467E-03    -14.9697E-03     17.2367E-03
             234     16.8210E-03    -534.295E-18     3.72331E+06     97.6306E+06     54.0723E+06     5.33987E+06    -37.1991E-03     53.1890E-03    -15.9899E-03     29.8802E-03    -37.4581E-03     53.6527E-03    -15.8665E-03     29.8092E-03
             235     17.7013E-03     1.02267E-03    -28.4742E+03     111.943E+06     60.5892E+06     7.35919E+06    -45.0829E-03     61.1167E-03    -16.0338E-03     49.7713E-03    -45.5303E-03     61.7894E-03    -15.8931E-03     49.5990E-03
             236     17.7244E-03     2.04665E-03    -634.133E+03     122.878E+06     62.0433E+06     5.03948E+06    -45.0336E-03     60.0904E-03    -15.0568E-03     74.6692E-03    -45.6752E-03     60.9891E-03    -14.9238E-03     74.4593E-03
             237     17.7321E-03     3.06279E-03    -2.00400E+06     133.111E+06     71.8364E+06     3.94197E+06    -46.2924E-03     60.7024E-03    -14.4100E-03     93.1092E-03    -47.1986E-03     61.8691E-03    -14.2409E-03     92.8869E-03
             238     17.7397E-03     4.08465E-03    -2.81446E+06     140.271E+06     77.5448E+06     3.42180E+06    -44.0796E-03     58.1936E-03    -14.1140E-03     105.744E-03    -45.2603E-03     59.6390E-03    -13.9256E-03     105.672E-03
             239     17.7432E-03     5.08351E-03    -1.02116E+06     145.973E+06     76.8854E+06     2.15116E+06    -39.0135E-03     52.9992E-03    -13.9858E-03     110.509E-03    -40.3376E-03     54.6147E-03    -13.8115E-03     110.664E-03
             240     17.7454E-03     6.07845E-03    -910.952E+03     148.731E+06     74.1373E+06     1.57222E+06    -37.7221E-03     51.6099E-03    -13.8877E-03     108.962E-03    -39.1084E-03     53.3060E-03    -13.7314E-03     109.250E-03
             241     17.7450E-03     7.07892E-03    -2.88147E+06     149.122E+06     72.3740E+06     341.885E+03    -38.0990E-03     51.9639E-03    -13.8649E-03     112.354E-03    -39.6020E-03     53.7770E-03    -13.7150E-03     112.733E-03
             242     17.7443E-03     8.08209E-03    -2.85219E+06     151.122E+06     71.8140E+06     465.415E+03    -36.6910E-03     50.5984E-03    -13.9074E-03     119.875E-03    -38.3425E-03     52.5685E-03    -13.7634E-03     120.420E-03
             243     17.7458E-03     9.07573E-03    -2.72085E+06     152.515E+06     70.1115E+06     617.308E+03    -34.8070E-03     48.7494E-03    -13.9424E-03     125.304E-03    -36.5734E-03     50.8445E-03    -13.8090E-03     126.026E-03
             244     17.7440E-03     10.0722E-03    -2.26661E+06     153.764E+06     68.1282E+06     540.687E+03    -34.3368E-03     48.3030E-03    -13.9663E-03     129.917E-03    -36.2187E-03     50.5257E-03    -13.8453E-03     130.768E-03
             245     17.7447E-03     11.0675E-03    -1.63773E+06     155.489E+06     69.4021E+06     726.524E+03    -33.6112E-03     47.6262E-03    -14.0150E-03     133.950E-03    -35.6123E-03     49.9723E-03    -13.8911E-03     134.941E-03
             246     17.7435E-03     12.0578E-03    -2.20118E+06     155.143E+06     65.7736E+06     300.373E+03    -32.8673E-03     46.8939E-03    -14.0266E-03     136.180E-03    -34.9472E-03     49.3261E-03    -13.9195E-03     137.297E-03
             247     17.7447E-03     13.0511E-03    -1.76367E+06     155.498E+06     61.9590E+06    -142.314E+03    -32.5696E-03     46.5824E-03    -14.0129E-03     137.374E-03    -34.7138E-03     49.0928E-03    -13.9260E-03     138.603E-03
             248     17.7436E-03     14.0409E-03    -1.90154E+06     156.753E+06     66.6160E+06     495.206E+03    -32.6491E-03     46.7200E-03    -14.0710E-03     138.671E-03    -34.8852E-03     49.3129E-03    -13.9624E-03     140.026E-03
             249     17.7420E-03     15.0366E-03    -3.61213E+06     155.518E+06     63.5807E+06    -262.671E+03    -32.3904E-03     46.5070E-03    -14.1166E-03     144.035E-03    -34.7793E-03     49.2511E-03    -14.0189E-03     145.517E-03
             250     17.7434E-03     16.0275E-03     802.024E+03     152.314E+06     40.0486E+06    -3.06940E+06    -31.0355E-03     45.0450E-03    -14.0095E-03     147.112E-03    -33.4692E-03     47.9060E-03    -14.0313E-03     148.738E-03
             251     17.7441E-03     17.0125E-03     6.80788E+06     158.116E+06     48.6082E+06     5.71875E+06    -31.4445E-03     45.5434E-03    -14.0990E-03     146.666E-03    -33.9303E-03     48.4743E-03    -14.0951E-03     148.519E-03
             252     17.7360E-03     18.0138E-03    -2.90773E+06     156.308E+06     61.7442E+06     5.43716E+06    -29.7691E-03     44.1394E-03    -14.3704E-03     146.442E-03    -32.4219E-03     47.1578E-03    -14.2841E-03     148.419E-03
             253     17.7410E-03     18.9822E-03    -8.95586E+06     149.198E+06     43.6514E+06    -2.22864E+06    -25.5024E-03     39.8133E-03    -14.3109E-03     142.854E-03    -28.1315E-03     42.8133E-03    -14.2960E-03     144.989E-03
             254     17.7453E-03     19.9665E-03    -54.9813E+03     156.987E+06     46.3650E+06    -2.02813E+06    -28.3997E-03     42.4935E-03    -14.0938E-03     146.867E-03    -31.0663E-03     45.5846E-03    -14.0895E-03     149.033E-03
             255     17.7415E-03     20.9821E-03    -1.63214E+06     158.918E+06     58.1833E+06    -4.43096E+06    -31.9726E-03     46.1478E-03    -14.1752E-03     162.092E-03    -34.9995E-03     49.5657E-03    -14.1123E-03     164.213E-03
             256     17.7386E-03     21.9634E-03     1.92131E+06     153.238E+06     36.8230E+06    -3.40723E+06    -28.9484E-03     43.1739E-03    -14.2255E-03     166.657E-03    -32.0281E-03     46.6969E-03    -14.2664E-03     169.024E-03
             257     17.7433E-03     22.9355E-03     5.61860E+06     155.624E+06     40.0273E+06     6.16324E+06    -27.3510E-03     41.6462E-03    -14.2952E-03     155.495E-03    -30.1982E-03     44.9497E-03    -14.3289E-03     158.051E-03
             258     17.7339E-03     23.9319E-03    -6.90683E+06     154.295E+06     57.2916E+06     6.07835E+06    -25.0476E-03     39.6054E-03    -14.5578E-03     149.000E-03    -27.9328E-03     42.8478E-03    -14.4851E-03     151.622E-03
             259     17.7402E-03     24.8972E-03    -6.23734E+06     151.041E+06     36.9635E+06    -604.509E+03    -20.2709E-03     34.7332E-03    -14.4623E-03     145.565E-03    -23.0959E-03     37.9649E-03    -14.4874E-03     148.362E-03
             260     17.7449E-03     25.8725E-03     1.35649E+06     157.897E+06     40.5078E+06    -3.30754E+06    -25.2790E-03     39.4742E-03    -14.1952E-03     151.754E-03    -28.1979E-03     42.8433E-03    -14.2236E-03     154.474E-03
             261     17.7396E-03     26.8965E-03    -218.491E+03     160.507E+06     50.0751E+06    -3.33344E+06    -29.1612E-03     43.4206E-03    -14.2594E-03     170.095E-03    -32.5117E-03     47.1974E-03    -14.2415E-03     172.800E-03
             262     17.7395E-03     27.8684E-03    -2.25062E+06     159.353E+06     49.3203E+06     136.866E+03    -23.7733E-03     38.2651E-03    -14.4919E-03     174.647E-03    -27.2190E-03     42.1259E-03    -14.4731E-03     177.723E-03
             263     17.7389E-03     28.8329E-03    -1.90456E+06     160.130E+06     52.7103E+06    -32.3522E+03    -23.4175E-03     37.9332E-03    -14.5157E-03     159.638E-03    -26.5391E-03     41.4638E-03    -14.4816E-03     162.644E-03
             264     17.7385E-03     29.8198E-03    -1.37064E+06     160.109E+06     51.5277E+06     360.068E+03    -25.1158E-03     39.5662E-03    -14.4504E-03     153.584E-03    -28.1175E-03     42.9822E-03    -14.4230E-03     156.469E-03
             265     17.7402E-03     30.8060E-03    -1.19083E+06     160.521E+06     49.2757E+06     773.057E+03    -23.2893E-03     37.7563E-03    -14.4670E-03     159.039E-03    -26.4121E-03     41.3020E-03    -14.4517E-03     162.134E-03
             266     17.7390E-03     31.7883E-03    -1.43389E+06     161.254E+06     51.1170E+06     91.8176E+03    -21.8412E-03     36.3630E-03    -14.5218E-03     162.427E-03    -25.0693E-03     40.0103E-03    -14.4980E-03     165.691E-03
             267     17.7394E-03     32.7657E-03    -1.61687E+06     160.937E+06     49.5009E+06    -654.600E+03    -21.6832E-03     36.2038E-03    -14.5206E-03     162.357E-03    -24.9174E-03     39.8600E-03    -14.5041E-03     165.652E-03
             268     17.7396E-03     33.7457E-03    -1.33474E+06     159.918E+06     46.3800E+06    -127.690E+03    -21.7642E-03     36.2754E-03    -14.5112E-03     160.446E-03    -24.9615E-03     39.9012E-03    -14.5092E-03     163.746E-03
             269     17.7380E-03     34.7267E-03    -840.095E+03     160.330E+06     45.7435E+06    -186.072E+03    -22.2194E-03     36.7503E-03    -14.5309E-03     161.703E-03    -25.4739E-03     40.4384E-03    -14.5334E-03     165.037E-03
             270     17.7386E-03     35.7070E-03    -808.689E+03     160.532E+06     48.1900E+06     298.412E+03    -21.1662E-03     35.7540E-03    -14.5878E-03     160.066E-03    -24.4108E-03     39.4258E-03    -14.5785E-03     163.485E-03
             271     17.7375E-03     36.6841E-03     -3.0321E+06     159.164E+06     48.5217E+06     540.004E+03    -19.7076E-03     34.3240E-03    -14.6164E-03     161.526E-03    -22.9904E-03     38.0204E-03    -14.6002E-03     165.054E-03
             272     17.7403E-03     37.6632E-03    -675.823E+03     159.217E+06     46.1295E+06     154.658E+03    -18.2383E-03     32.8072E-03    -14.5688E-03     162.959E-03    -21.4901E-03     36.4881E-03    -14.5681E-03     166.482E-03
             273     17.7409E-03     38.6397E-03     322.505E+03     161.147E+06     49.8979E+06    -1.46415E+06    -19.0114E-03     33.5582E-03    -14.5468E-03     168.178E-03    -22.4081E-03     37.3836E-03    -14.5314E-03     171.742E-03
             274     17.7387E-03     39.6243E-03    -1.32797E+06     159.209E+06     50.9365E+06    -979.498E+03    -22.1234E-03     36.6596E-03    -14.5362E-03     170.873E-03    -25.6390E-03     40.5881E-03    -14.5105E-03     174.395E-03
             275     17.7387E-03     40.5999E-03    -2.53247E+06     156.354E+06     45.9348E+06    -449.205E+03    -21.1596E-03     35.7262E-03    -14.5665E-03     165.255E-03    -24.5424E-03     39.5217E-03    -14.5599E-03     168.762E-03
             276     17.7386E-03     41.5739E-03    -762.356E+03     155.022E+06     43.9285E+06    -797.902E+03    -19.6508E-03     34.2430E-03    -14.5922E-03     163.002E-03    -22.9713E-03     37.9837E-03    -14.5962E-03     166.602E-03
             277     17.7388E-03     42.5556E-03    -1.56045E+06     152.903E+06     39.4352E+06    -746.529E+03    -19.3728E-03     33.9517E-03    -14.5788E-03     163.642E-03    -22.7019E-03     37.7036E-03    -14.6011E-03     167.277E-03
             278     17.7387E-03     43.5322E-03     2.10161E+06     152.452E+06     40.5775E+06     636.108E+03    -18.7764E-03     33.3962E-03    -14.6198E-03     165.720E-03    -22.1464E-03     37.1972E-03    -14.6410E-03     169.443E-03
             279     17.7372E-03     44.5101E-03    -5.65239E+06     147.246E+06     42.6334E+06    -1.78206E+06    -19.1992E-03     33.8698E-03    -14.6706E-03     164.820E-03    -22.6060E-03     37.6556E-03    -14.6628E-03     168.507E-03
             280     17.7378E-03     45.4829E-03      589.08E+03     144.276E+06     39.2916E+06    -923.210E+03    -18.6418E-03     33.2613E-03    -14.6196E-03     162.808E-03    -21.9508E-03     36.9706E-03    -14.6331E-03     166.494E-03
             281     17.7409E-03     46.4629E-03    -3.75424E+06     140.339E+06     39.2281E+06    -5.16117E+06    -17.7908E-03     32.3913E-03    -14.6004E-03     164.162E-03    -21.1109E-03     36.0824E-03    -14.6023E-03     167.814E-03
             282     17.7379E-03     47.4403E-03     5.83390E+06     132.868E+06     27.5513E+06    -2.25505E+06    -18.9968E-03     33.5097E-03    -14.5129E-03     168.272E-03    -22.3370E-03     37.2623E-03    -14.5762E-03     171.933E-03
             283     17.7412E-03     48.4180E-03     3.49287E+06     134.179E+06     36.7501E+06     3.21055E+06    -20.5933E-03     35.1971E-03    -14.6038E-03     166.238E-03    -23.9708E-03     38.9568E-03    -14.6197E-03     169.913E-03
             284     17.7315E-03     49.3984E-03     25.6917E+06     165.203E+06     83.1563E+06      33.719E+06    -17.7495E-03     32.7230E-03    -14.9735E-03     161.252E-03    -21.0714E-03     36.4816E-03    -14.8345E-03     165.319E-03
             285     17.7371E-03     50.3638E-03    -34.4983E+06     101.547E+06     14.8329E+06     22.4813E+06    -16.2400E-03     31.1742E-03    -14.9342E-03     156.139E-03    -19.5747E-03     34.6966E-03    -14.9572E-03     160.228E-03
             286     17.7289E-03     51.3330E-03    -71.4441E+06     86.6449E+06     4.86923E+06    -38.0662E+06    -14.3613E-03     29.3513E-03    -14.9900E-03     146.705E-03    -17.6753E-03     32.6952E-03    -14.9877E-03     150.171E-03
             287     17.7395E-03     52.3140E-03     35.7059E+06     154.661E+06     85.8477E+06    -16.4530E+06    -9.71953E-03     24.7176E-03    -14.9981E-03     175.851E-03    -13.2247E-03     28.6472E-03    -14.8449E-03     179.841E-03
             288     17.7491E-03     53.3048E-03     25.8271E+06     149.165E+06     63.5219E+06     7.49308E+06    -14.6008E-03     29.1288E-03    -14.5280E-03     202.802E-03    -18.6300E-03     33.5951E-03    -14.4642E-03     206.891E-03
             289     17.7404E-03     54.2755E-03    -1.08858E+06     154.601E+06     46.6251E+06    -2.53566E+06    -20.0710E-03     34.4882E-03    -14.4172E-03     185.558E-03    -23.9471E-03     38.7741E-03    -14.4067E-03     189.220E-03
             290     17.7398E-03     55.2270E-03     2.78160E+06     155.417E+06     46.7092E+06    -2.62323E+06    -21.2135E-03     35.7047E-03    -14.4912E-03     165.588E-03    -24.5949E-03     39.5124E-03    -14.4870E-03     169.124E-03
             291     17.7397E-03     56.2154E-03     82.1647E+03     154.856E+06     44.6815E+06    -140.767E+03    -22.1400E-03     36.6161E-03    -14.4761E-03     156.965E-03    -25.2866E-03     40.1834E-03    -14.4774E-03     160.296E-03
             292     886.929E-06     57.2441E-03    -5.58470E+06    -48.6311E+06    -5.55536E+06     56.1796E+03    -14.7876E-03     29.5560E-03    -14.7684E-03     3.21167E-03    -14.7367E-03     29.3292E-03    -14.7175E-03     3.21198E-03
             293     1.77365E-03     57.2486E-03    -5.24428E+06    -47.2901E+06    -4.03366E+06     211.713E+03    -14.7699E-03     29.5486E-03    -14.7788E-03     6.08267E-03    -14.7217E-03     29.3257E-03    -14.7228E-03     6.08461E-03
             294     2.66058E-03     57.2555E-03    -4.52404E+06    -45.3258E+06    -1.50671E+06     175.735E+03    -14.7809E-03     29.5646E-03    -14.7838E-03     9.16369E-03    -14.7357E-03     29.3469E-03    -14.7190E-03     9.16474E-03
             295     3.54737E-03     57.2657E-03    -3.83753E+06    -44.2078E+06     663.760E+03    -468.158E+03    -14.8165E-03     29.6092E-03    -14.7927E-03     12.3818E-03    -14.7728E-03     29.3931E-03    -14.7197E-03     12.3741E-03
             296     4.43425E-03     57.2786E-03    -2.76647E+06    -44.5982E+06     2.33928E+06    -810.606E+03    -14.8378E-03     29.6400E-03    -14.8022E-03     15.7635E-03    -14.7908E-03     29.4180E-03    -14.7218E-03     15.7509E-03
             297     5.32102E-03     57.2949E-03    -1.44431E+06    -43.6497E+06     4.66494E+06    -157.143E+03    -14.8325E-03     29.6408E-03    -14.8082E-03     19.2909E-03    -14.7839E-03     29.4186E-03    -14.7195E-03     19.2861E-03
             298     6.20798E-03     57.3144E-03    -970.914E+03    -43.6901E+06     5.60182E+06     147.917E+03    -14.8282E-03     29.6329E-03    -14.8046E-03     22.9805E-03    -14.7789E-03     29.4088E-03    -14.7119E-03     22.9788E-03
             299     7.09489E-03     57.3374E-03    -1.21032E+06    -45.4940E+06     4.99559E+06     119.311E+03    -14.8515E-03     29.6455E-03    -14.7940E-03     26.9395E-03    -14.8005E-03     29.4142E-03    -14.7013E-03     26.9365E-03
             300     7.98191E-03     57.3640E-03    -1.32877E+06    -45.4622E+06     4.58996E+06     396.094E+03    -14.8865E-03     29.6672E-03    -14.7807E-03     31.1786E-03    -14.8363E-03     29.4377E-03    -14.6899E-03     31.1780E-03
             301     8.86882E-03     57.3947E-03    -809.504E+03    -46.2763E+06     4.00653E+06     842.602E+03    -14.8708E-03     29.6340E-03    -14.7632E-03     35.5547E-03    -14.8173E-03     29.4017E-03    -14.6749E-03     35.5581E-03
             302     9.75593E-03     57.4293E-03    -392.575E+03    -46.5145E+06     1.21280E+06     1.30195E+06    -14.8306E-03     29.5569E-03    -14.7263E-03     40.1804E-03    -14.7727E-03     29.3289E-03    -14.6522E-03     40.1873E-03
             303     10.6432E-03     57.4685E-03     259.919E+03    -46.9515E+06    -1.88921E+06     2.38185E+06    -14.7985E-03     29.4783E-03    -14.6799E-03     45.0364E-03    -14.7356E-03     29.2552E-03    -14.6216E-03     45.0540E-03
             304     11.5305E-03     57.5118E-03     1.07237E+06    -37.1640E+06    -2.15605E+06     2.74603E+06    -14.7046E-03     29.3286E-03    -14.6240E-03     50.0902E-03    -14.6570E-03     29.1591E-03    -14.5825E-03     50.1085E-03
             305     12.4184E-03     57.5603E-03     512.120E+03    -24.0966E+06    -2.00919E+06     2.53163E+06    -14.7605E-03     29.3216E-03    -14.5611E-03     57.7615E-03    -14.7462E-03     29.2294E-03    -14.5370E-03     57.7711E-03
             306     13.3057E-03     57.6179E-03    -426.477E+03    -28.8534E+06    -10.2385E+06     2.38000E+06    -14.7968E-03     29.2771E-03    -14.4803E-03     63.3620E-03    -14.7880E-03     29.1940E-03    -14.4890E-03     63.3631E-03
             307     14.1938E-03     57.6775E-03    -862.477E+03    -22.4531E+06    -18.4866E+06     3.86767E+06    -14.8308E-03     29.2135E-03    -14.3827E-03     66.8281E-03    -14.8493E-03     29.2028E-03    -14.4413E-03     66.8471E-03
             308     15.0807E-03     57.7420E-03    -584.004E+03     22.7269E+06    -19.5420E+06     5.57520E+06    -16.3791E-03     30.6655E-03    -14.2864E-03     91.0038E-03    -16.6084E-03     31.0300E-03    -14.4162E-03     91.0649E-03
             309     15.9681E-03     57.8491E-03    -1.80174E+06     61.9184E+06    -32.4145E+06     3.64396E+06    -20.2622E-03     34.4597E-03    -14.1975E-03     146.197E-03    -21.4906E-03     35.9955E-03    -14.4468E-03     146.627E-03
             310     16.8554E-03     58.0181E-03    -2.04420E+06     113.062E+06     -284.16E+03     1.26261E+06    -21.4214E-03     35.7827E-03    -14.3613E-03     172.176E-03    -24.1141E-03     38.8704E-03    -14.5237E-03     174.366E-03
             311     886.732E-06     58.2209E-03    -6.33668E+06    -48.5183E+06    -6.47775E+06    -194.470E+03    -14.8129E-03     29.5722E-03    -14.7593E-03     3.25394E-03    -14.7647E-03     29.3485E-03    -14.7121E-03     3.25101E-03
             312     1.77368E-03     58.2249E-03    -5.65734E+06    -47.4503E+06    -5.06551E+06    -182.193E+03    -14.7848E-03     29.5713E-03    -14.7865E-03     6.10856E-03    -14.7369E-03     29.3496E-03    -14.7348E-03     6.10541E-03
             313     2.66048E-03     58.2322E-03    -4.58462E+06    -45.5414E+06    -1.68506E+06     141.937E+03    -14.7717E-03     29.5646E-03    -14.7929E-03     9.21984E-03    -14.7263E-03     29.3461E-03    -14.7286E-03     9.22046E-03
             314     3.54740E-03     58.2421E-03    -3.65137E+06    -43.3418E+06     1.28147E+06     119.092E+03    -14.7866E-03     29.5833E-03    -14.7967E-03     12.4598E-03    -14.7441E-03     29.3703E-03    -14.7221E-03     12.4597E-03
             315     4.43419E-03     58.2552E-03    -3.28064E+06    -44.2809E+06     2.75016E+06    -438.752E+03    -14.8053E-03     29.6057E-03    -14.8004E-03     15.8255E-03    -14.7619E-03     29.3855E-03    -14.7177E-03     15.8177E-03
             316     5.32113E-03     58.2713E-03    -2.87050E+06    -44.7781E+06     3.06334E+06    -132.757E+03    -14.7764E-03     29.5701E-03    -14.7937E-03     19.3493E-03    -14.7310E-03     29.3467E-03    -14.7093E-03     19.3449E-03
             317     6.20804E-03     58.2909E-03    -2.10293E+06    -43.9239E+06     4.29378E+06     770.428E+03    -14.7518E-03     29.5340E-03    -14.7822E-03     23.0384E-03    -14.7059E-03     29.3123E-03    -14.6940E-03     23.0448E-03
             318     7.09511E-03     58.3137E-03    -1.51980E+06    -45.5862E+06     5.16846E+06     967.016E+03    -14.7688E-03     29.5389E-03    -14.7702E-03     26.9342E-03    -14.7194E-03     29.3073E-03    -14.6760E-03     26.9422E-03
             319     7.98211E-03     58.3404E-03    -1.10892E+06    -45.6596E+06     3.90809E+06     837.700E+03    -14.7723E-03     29.5162E-03    -14.7439E-03     31.1230E-03    -14.7198E-03     29.2863E-03    -14.6566E-03     31.1281E-03
             320     8.86924E-03     58.3709E-03    -822.099E+03    -46.5092E+06     2.90743E+06     711.108E+03    -14.7836E-03     29.5014E-03    -14.7177E-03     35.5071E-03    -14.7283E-03     29.2695E-03    -14.6346E-03     35.5088E-03
             321     9.75638E-03     58.4054E-03    -553.227E+03    -47.5230E+06     421.195E+03     1.16742E+06    -14.7907E-03     29.4721E-03    -14.6814E-03     40.0828E-03    -14.7310E-03     29.2405E-03    -14.6096E-03     40.0880E-03
             322     10.6437E-03     58.4442E-03    -70.2072E+03    -47.3962E+06    -3.54039E+06     1.10968E+06    -14.7773E-03     29.4087E-03    -14.6313E-03     44.7865E-03    -14.7131E-03     29.1862E-03    -14.5802E-03     44.7877E-03
             323     11.5312E-03     58.4877E-03     862.832E+03    -38.0190E+06    -2.67076E+06     1.56417E+06    -14.7903E-03     29.3780E-03    -14.5876E-03     49.7371E-03    -14.7419E-03     29.2054E-03    -14.5471E-03     49.7399E-03
             324     12.4184E-03     58.5357E-03     1.88186E+06    -24.9210E+06     841.809E+03     2.91479E+06    -14.9530E-03     29.5051E-03    -14.5521E-03     57.4545E-03    -14.9352E-03     29.4030E-03    -14.5145E-03     57.4686E-03
             325     13.3059E-03     58.5940E-03     1.08469E+06    -28.6616E+06    -6.34101E+06     3.33137E+06    -15.1173E-03     29.6112E-03    -14.4940E-03     62.8688E-03    -15.1075E-03     29.5219E-03    -14.4857E-03     62.8811E-03
             326     14.1932E-03     58.6521E-03    -506.424E+03    -24.8626E+06    -16.8609E+06     3.60038E+06    -15.3186E-03     29.7346E-03    -14.4160E-03     66.9907E-03    -15.3362E-03     29.7110E-03    -14.4635E-03     67.0041E-03
             327     15.0806E-03     58.7192E-03    -1.37758E+06     21.9043E+06    -19.2791E+06     3.84202E+06    -16.5495E-03     30.8775E-03    -14.3281E-03     92.7365E-03    -16.7890E-03     31.2459E-03    -14.4543E-03     92.7755E-03
             328     15.9666E-03     58.8248E-03    -841.950E+03     64.6264E+06    -30.6799E+06     2.93438E+06    -19.9631E-03     34.1905E-03    -14.2274E-03     148.575E-03    -21.2236E-03     35.7664E-03    -14.4733E-03     149.015E-03
             329     16.8513E-03     58.9960E-03    -823.549E+03     114.775E+06     1.63340E+06     1.14629E+06    -21.3193E-03     35.6944E-03    -14.3751E-03     173.295E-03    -24.0424E-03     38.8172E-03    -14.5321E-03     175.504E-03
             330     886.949E-06     59.1972E-03    -6.30563E+06    -47.8137E+06    -6.41649E+06    -519.204E+03    -14.7869E-03     29.5440E-03    -14.7571E-03     3.26568E-03    -14.7396E-03     29.3236E-03    -14.7107E-03     3.25859E-03
             331     1.77365E-03     59.2016E-03    -6.00948E+06    -47.3687E+06    -5.17832E+06    -600.789E+03    -14.7740E-03     29.5478E-03    -14.7738E-03     6.15455E-03    -14.7279E-03     29.3272E-03    -14.7223E-03     6.14600E-03
             332     2.66054E-03     59.2085E-03    -5.17466E+06    -46.1232E+06    -2.66238E+06    -195.963E+03    -14.7616E-03     29.5399E-03    -14.7783E-03     9.27410E-03    -14.7168E-03     29.3208E-03    -14.7173E-03     9.27037E-03
             333     3.54742E-03     59.2187E-03    -4.18096E+06    -43.7269E+06     386.018E+03     579.954E+03    -14.7399E-03     29.5185E-03    -14.7785E-03     12.5198E-03    -14.6982E-03     29.3056E-03    -14.7071E-03     12.5257E-03
             334     4.43436E-03     59.2316E-03    -3.65939E+06    -43.6136E+06     2.83227E+06     736.643E+03    -14.7266E-03     29.5029E-03    -14.7763E-03     15.8640E-03    -14.6862E-03     29.2865E-03    -14.6936E-03     15.8714E-03
             335     5.32125E-03     59.2478E-03    -3.24386E+06    -45.2204E+06     3.24260E+06     295.901E+03    -14.7225E-03     29.4872E-03    -14.7647E-03     19.3656E-03    -14.6785E-03     29.2618E-03    -14.6782E-03     19.3667E-03
             336     6.20833E-03     59.2670E-03    -2.36942E+06    -44.9500E+06     3.08232E+06     640.654E+03    -14.7200E-03     29.4651E-03    -14.7451E-03     23.0633E-03    -14.6722E-03     29.2404E-03    -14.6611E-03     23.0681E-03
             337     7.09529E-03     59.2901E-03    -1.20556E+06    -45.4530E+06     4.42341E+06     971.918E+03    -14.7186E-03     29.4502E-03    -14.7316E-03     26.9476E-03    -14.6668E-03     29.2199E-03    -14.6418E-03     26.9557E-03
             338     7.98240E-03     59.3165E-03    -174.294E+03    -45.5685E+06     4.35974E+06     680.501E+03    -14.6981E-03     29.4052E-03    -14.7071E-03     31.0540E-03    -14.6416E-03     29.1737E-03    -14.6190E-03     31.0571E-03
             339     8.86967E-03     59.3469E-03     417.637E+03    -46.8734E+06     3.62387E+06     933.057E+03    -14.7284E-03     29.4077E-03    -14.6794E-03     35.3884E-03    -14.6673E-03     29.1713E-03    -14.5939E-03     35.3930E-03
             340     9.75689E-03     59.3814E-03     894.701E+03    -47.6822E+06     2.14078E+06     794.196E+03    -14.8156E-03     29.4651E-03    -14.6495E-03     39.8454E-03    -14.7510E-03     29.2282E-03    -14.5709E-03     39.8456E-03
             341     10.6440E-03     59.4202E-03     1.32625E+06    -47.0041E+06    -1.26446E+06     402.060E+03    -14.8597E-03     29.4690E-03    -14.6093E-03     44.4742E-03    -14.7925E-03     29.2433E-03    -14.5494E-03     44.4660E-03
             342     11.5313E-03     59.4633E-03     1.15056E+06    -39.7141E+06    -2.00090E+06     995.697E+03    -14.9014E-03     29.4737E-03    -14.5722E-03     49.5582E-03    -14.8503E-03     29.2914E-03    -14.5263E-03     49.5533E-03
             343     12.4186E-03     59.5118E-03     855.209E+03    -26.5945E+06     605.305E+03     2.32822E+06    -15.0826E-03     29.6269E-03    -14.5443E-03     57.4063E-03    -15.0674E-03     29.5186E-03    -14.5039E-03     57.4125E-03
             344     13.3059E-03     59.5694E-03     1.38395E+06    -29.3587E+06    -5.69642E+06     3.64803E+06    -15.3132E-03     29.8120E-03    -14.4988E-03     62.9104E-03    -15.3025E-03     29.7185E-03    -14.4867E-03     62.9261E-03
             345     14.1928E-03     59.6286E-03     968.558E+03    -25.4293E+06    -15.6856E+06     3.98070E+06    -15.4857E-03     29.9180E-03    -14.4323E-03     67.3133E-03    -15.4983E-03     29.8893E-03    -14.4753E-03     67.3309E-03
             346     15.0802E-03     59.6941E-03     450.137E+03     22.5524E+06    -18.1842E+06     3.02345E+06    -16.4609E-03     30.8033E-03    -14.3424E-03     93.1717E-03    -16.6962E-03     31.1730E-03    -14.4667E-03     93.2010E-03
             347     15.9685E-03     59.8022E-03    -1.13542E+06     66.0546E+06    -31.5697E+06     1.83724E+06    -19.8346E-03     34.0592E-03    -14.2246E-03     149.604E-03    -21.1160E-03     35.6625E-03    -14.4765E-03     150.038E-03
             348     16.8557E-03     59.9747E-03    -2.02438E+06     116.089E+06    -644.957E+03     849.671E+03    -21.4440E-03     35.8064E-03    -14.3624E-03     174.602E-03    -24.2068E-03     38.9760E-03    -14.5310E-03     176.823E-03
             349     886.753E-06     60.1738E-03    -6.09580E+06    -47.3426E+06    -5.21594E+06    -42.7121E+03    -14.7330E-03     29.4843E-03    -14.7513E-03     3.24335E-03    -14.6871E-03     29.2642E-03    -14.6999E-03     3.24241E-03
             350     1.77378E-03     60.1779E-03    -6.16967E+06    -47.0556E+06    -4.31497E+06    -168.176E+03    -14.7335E-03     29.4785E-03    -14.7450E-03     6.18469E-03    -14.6899E-03     29.2584E-03    -14.6894E-03     6.18174E-03
             351     2.66063E-03     60.1851E-03    -5.86681E+06    -46.6142E+06    -3.09737E+06    -114.162E+03    -14.7330E-03     29.4778E-03    -14.7447E-03     9.28970E-03    -14.6904E-03     29.2578E-03    -14.6841E-03     9.28704E-03
             352     3.54751E-03     60.1950E-03    -4.95902E+06    -44.8186E+06    -1.13166E+06     513.929E+03    -14.6862E-03     29.4254E-03    -14.7392E-03     12.5302E-03    -14.6446E-03     29.2104E-03    -14.6727E-03     12.5352E-03
             353     4.43452E-03     60.2080E-03    -3.63215E+06    -43.7838E+06     1.59333E+06     1.15721E+06    -14.6598E-03     29.3904E-03    -14.7305E-03     15.8675E-03    -14.6173E-03     29.1749E-03    -14.6538E-03     15.8803E-03
             354     5.32160E-03     60.2240E-03    -2.66632E+06    -44.5634E+06     3.89913E+06     859.684E+03    -14.6873E-03     29.4113E-03    -14.7240E-03     19.3427E-03    -14.6423E-03     29.1874E-03    -14.6360E-03     19.3510E-03
             355     6.20850E-03     60.2434E-03    -1.77253E+06    -45.4849E+06     3.76250E+06     263.943E+03    -14.6930E-03     29.4006E-03    -14.7076E-03     23.0101E-03    -14.6424E-03     29.1713E-03    -14.6202E-03     23.0100E-03
             356     7.09566E-03     60.2661E-03    -474.855E+03    -45.4455E+06     4.34145E+06     264.269E+03    -14.6808E-03     29.3709E-03    -14.6901E-03     26.8908E-03    -14.6252E-03     29.1397E-03    -14.6018E-03     26.8898E-03
             357     7.98281E-03     60.2927E-03     704.764E+03    -45.4037E+06     5.71506E+06     276.390E+03    -14.7246E-03     29.4005E-03    -14.6759E-03     30.9139E-03    -14.6661E-03     29.1667E-03    -14.5825E-03     30.9117E-03
             358     8.86989E-03     60.3229E-03     1.68885E+06    -47.9322E+06     5.27875E+06     644.044E+03    -14.7774E-03     29.4355E-03    -14.6582E-03     35.1779E-03    -14.7109E-03     29.1896E-03    -14.5647E-03     35.1786E-03
             359     9.75702E-03     60.3576E-03     1.97541E+06    -46.9579E+06     3.62506E+06     892.356E+03    -14.8196E-03     29.4499E-03    -14.6303E-03     39.6456E-03    -14.7529E-03     29.2130E-03    -14.5469E-03     39.6470E-03
             360     10.6442E-03     60.3961E-03     1.20348E+06    -47.1741E+06     82.0260E+03     724.708E+03    -14.9023E-03     29.4989E-03    -14.5967E-03     44.2855E-03    -14.8374E-03     29.2706E-03    -14.5296E-03     44.2814E-03
             361     11.5314E-03     60.4393E-03     392.610E+03    -40.8936E+06    -1.96604E+06     1.24098E+06    -14.9775E-03     29.5393E-03    -14.5619E-03     49.4778E-03    -14.9285E-03     29.3523E-03    -14.5130E-03     49.4760E-03
             362     12.4187E-03     60.4874E-03     554.834E+03    -27.8554E+06    -107.520E+03     1.90508E+06    -15.1639E-03     29.7003E-03    -14.5364E-03     57.4129E-03    -15.1476E-03     29.5873E-03    -14.4973E-03     57.4134E-03
             363     13.3058E-03     60.5457E-03     436.583E+03    -31.1979E+06    -7.01479E+06     3.00634E+06    -15.3784E-03     29.8734E-03    -14.4950E-03     62.9020E-03    -15.3680E-03     29.7741E-03    -14.4854E-03     62.9092E-03
             364     14.1933E-03     60.6040E-03     670.400E+03    -24.8107E+06    -16.7128E+06     3.17298E+06    -15.6124E-03     30.0439E-03    -14.4315E-03     67.3635E-03    -15.6265E-03     30.0208E-03    -14.4800E-03     67.3701E-03
             365     15.0801E-03     60.6709E-03     1.19267E+06     23.9468E+06    -18.3395E+06     1.88727E+06    -16.9119E-03     31.2717E-03    -14.3598E-03     93.1907E-03    -17.1486E-03     31.6508E-03    -14.4879E-03     93.2023E-03
             366     15.9661E-03     60.7774E-03     732.153E+03     66.8634E+06    -30.9599E+06     1.68938E+06    -20.1573E-03     34.4235E-03    -14.2662E-03     149.276E-03    -21.4405E-03     36.0364E-03    -14.5190E-03     149.705E-03
             367     16.8514E-03     60.9525E-03    -553.822E+03     116.875E+06    -449.494E+03     1.28971E+06    -20.9681E-03     35.3664E-03    -14.3983E-03     174.332E-03    -23.7292E-03     38.5418E-03    -14.5692E-03     176.587E-03
             368     887.004E-06     61.1500E-03    -6.79796E+06    -47.9418E+06    -6.03448E+06     710.638E+03    -14.6937E-03     29.3659E-03    -14.6722E-03     3.30713E-03    -14.6492E-03     29.1450E-03    -14.6230E-03     3.31591E-03
             369     1.77382E-03     61.1544E-03    -6.42990E+06    -47.1592E+06    -3.99597E+06     840.876E+03    -14.6958E-03     29.3898E-03    -14.6939E-03     6.21213E-03    -14.6538E-03     29.1691E-03    -14.6362E-03     6.22221E-03
             370     2.66074E-03     61.1614E-03    -6.03759E+06    -46.4861E+06    -2.36477E+06     498.228E+03    -14.6726E-03     29.3708E-03    -14.6982E-03     9.29094E-03    -14.6321E-03     29.1507E-03    -14.6339E-03     9.29619E-03
             371     3.54775E-03     61.1713E-03    -5.15157E+06    -45.3965E+06    -1.28239E+06     220.458E+03    -14.6521E-03     29.3420E-03    -14.6899E-03     12.5006E-03    -14.6104E-03     29.1246E-03    -14.6231E-03     12.5018E-03
             372     4.43476E-03     61.1841E-03    -3.69763E+06    -44.5495E+06     634.781E+03     539.155E+03    -14.6477E-03     29.3300E-03    -14.6823E-03     15.8355E-03    -14.6029E-03     29.1121E-03    -14.6092E-03     15.8403E-03
             373     5.32172E-03     61.2003E-03    -1.89030E+06    -44.0357E+06     4.10334E+06     656.090E+03    -14.6537E-03     29.3357E-03    -14.6820E-03     19.2975E-03    -14.6060E-03     29.1130E-03    -14.5949E-03     19.3032E-03
             374     6.20886E-03     61.2195E-03    -611.632E+03    -44.9867E+06     5.96445E+06     198.406E+03    -14.6794E-03     29.3567E-03    -14.6773E-03     22.8964E-03    -14.6270E-03     29.1251E-03    -14.5813E-03     22.8954E-03
             375     7.09589E-03     61.2423E-03     7.00638E+03    -45.6984E+06     5.89276E+06    -67.4302E+03    -14.7111E-03     29.3756E-03    -14.6644E-03     26.7242E-03    -14.6550E-03     29.1402E-03    -14.5687E-03     26.7188E-03
             376     7.98297E-03     61.2687E-03     634.017E+03    -45.3485E+06     5.67055E+06     23.7171E+03    -14.7531E-03     29.4029E-03    -14.6498E-03     30.7952E-03    -14.6949E-03     29.1695E-03    -14.5566E-03     30.7896E-03
             377     8.86998E-03     61.2991E-03     889.723E+03    -48.9805E+06     4.40340E+06     509.972E+03    -14.7998E-03     29.4358E-03    -14.6361E-03     35.0714E-03    -14.7345E-03     29.1871E-03    -14.5443E-03     35.0703E-03
             378     9.75718E-03     61.3333E-03     848.870E+03    -47.1186E+06     2.97856E+06     1.19716E+06    -14.8239E-03     29.4359E-03    -14.6120E-03     39.6101E-03    -14.7616E-03     29.2007E-03    -14.5300E-03     39.6155E-03
             379     10.6444E-03     61.3722E-03     624.208E+03    -47.3536E+06     331.706E+03     1.55407E+06    -14.9090E-03     29.4934E-03    -14.5844E-03     44.2116E-03    -14.8472E-03     29.2647E-03    -14.5149E-03     44.2181E-03
             380     11.5316E-03     61.4150E-03     60.4961E+03    -41.4988E+06    -3.34407E+06     1.61630E+06    -15.0451E-03     29.5908E-03    -14.5458E-03     49.4424E-03    -14.9949E-03     29.4033E-03    -14.5024E-03     49.4453E-03
             381     12.4187E-03     61.4637E-03    -748.063E+03    -28.4152E+06    -2.08369E+06     1.80620E+06    -15.2510E-03     29.7760E-03    -14.5249E-03     57.4316E-03    -15.2376E-03     29.6651E-03    -14.4931E-03     57.4306E-03
             382     13.3060E-03     61.5213E-03    -210.393E+03    -32.3501E+06    -8.70357E+06     1.91529E+06    -15.5154E-03     30.0082E-03    -14.4927E-03     62.8391E-03    -15.5043E-03     29.9067E-03    -14.4890E-03     62.8318E-03
             383     14.1926E-03     61.5804E-03     1.12119E+06    -23.1062E+06    -18.1901E+06     755.410E+03    -15.8621E-03     30.2985E-03    -14.4364E-03     67.3454E-03    -15.8748E-03     30.2859E-03    -14.4955E-03     67.3199E-03
             384     15.0798E-03     61.6467E-03     1.44482E+06     22.3364E+06    -19.7373E+06     1.21296E+06    -17.1217E-03     31.5033E-03    -14.3816E-03     93.8889E-03    -17.3552E-03     31.8784E-03    -14.5147E-03     93.8903E-03
             385     15.9656E-03     61.7564E-03     151.667E+03     65.7270E+06    -31.8296E+06     2.23485E+06    -20.4710E-03     34.7699E-03    -14.2988E-03     151.306E-03    -21.7820E-03     36.4070E-03    -14.5535E-03     151.745E-03
             386     16.8522E-03     61.9287E-03    -760.268E+03     119.573E+06      87.484E+03     1.11045E+06    -20.9596E-03     35.3911E-03    -14.4315E-03     175.905E-03    -23.7645E-03     38.6175E-03    -14.6033E-03     178.189E-03
             387     886.977E-06     62.1265E-03    -7.16209E+06    -49.2858E+06    -6.65538E+06     694.331E+03    -14.6600E-03     29.2618E-03    -14.6018E-03     3.30889E-03    -14.6145E-03     29.0357E-03    -14.5533E-03     3.31745E-03
             388     1.77395E-03     62.1306E-03    -6.19646E+06    -47.9124E+06    -4.41877E+06     1.14193E+06    -14.6294E-03     29.2664E-03    -14.6370E-03     6.15896E-03    -14.5845E-03     29.0422E-03    -14.5806E-03     6.17294E-03
             389     2.66097E-03     62.1377E-03    -5.12184E+06    -46.1234E+06    -1.74288E+06     1.00929E+06    -14.6251E-03     29.2667E-03    -14.6417E-03     9.26258E-03    -14.5814E-03     29.0462E-03    -14.5761E-03     9.27441E-03
             390     3.54793E-03     62.1475E-03    -4.15364E+06    -44.8824E+06     401.056E+03     173.100E+03    -14.6516E-03     29.2973E-03    -14.6457E-03     12.4503E-03    -14.6082E-03     29.0786E-03    -14.5725E-03     12.4509E-03
             391     4.43489E-03     62.1605E-03    -2.74976E+06      -44.98E+06     2.12670E+06    -270.443E+03    -14.6568E-03     29.3060E-03    -14.6492E-03     15.7664E-03    -14.6088E-03     29.0825E-03    -14.5694E-03     15.7607E-03
             392     5.32198E-03     62.1764E-03    -1.24294E+06    -44.0935E+06     4.59525E+06    -60.0157E+03    -14.6473E-03     29.2978E-03    -14.6505E-03     19.2121E-03    -14.5969E-03     29.0732E-03    -14.5618E-03     19.2086E-03
             393     6.20901E-03     62.1957E-03    -98.0317E+03    -44.9571E+06     6.11217E+06     337.407E+03    -14.6868E-03     29.3355E-03    -14.6487E-03     22.8012E-03    -14.6321E-03     29.1031E-03    -14.5528E-03     22.8020E-03
             394     7.09601E-03     62.2184E-03     103.915E+03    -45.9171E+06     5.91845E+06     711.027E+03    -14.7263E-03     29.3675E-03    -14.6412E-03     26.6369E-03    -14.6695E-03     29.1309E-03    -14.5451E-03     26.6415E-03
             395     7.98304E-03     62.2448E-03    -775.823E+03    -45.4937E+06     4.30822E+06     866.422E+03    -14.7211E-03     29.3449E-03    -14.6238E-03     30.7638E-03    -14.6678E-03     29.1148E-03    -14.5352E-03     30.7691E-03
             396     8.87030E-03     62.2751E-03    -1.19564E+06    -49.2467E+06     2.43010E+06     747.653E+03    -14.7765E-03     29.3847E-03    -14.6081E-03     35.0599E-03    -14.7184E-03     29.1405E-03    -14.5229E-03     35.0619E-03
             397     9.75735E-03     62.3094E-03    -767.779E+03    -48.0126E+06     401.659E+03     961.865E+03    -14.8601E-03     29.4444E-03    -14.5842E-03     39.5786E-03    -14.8008E-03     29.2108E-03    -14.5115E-03     39.5810E-03
             398     10.6446E-03     62.3480E-03    -494.369E+03    -47.8904E+06    -1.91248E+06     1.67322E+06    -14.9740E-03     29.5370E-03    -14.5630E-03     44.1965E-03    -14.9137E-03     29.3104E-03    -14.5024E-03     44.2046E-03
             399     11.5316E-03     62.3911E-03    -696.980E+03    -41.5745E+06    -4.01418E+06     1.88865E+06    -15.1298E-03     29.6678E-03    -14.5380E-03     49.3809E-03    -15.0824E-03     29.4820E-03    -14.4968E-03     49.3872E-03
             400     12.4188E-03     62.4395E-03    -289.787E+03    -28.5576E+06    -2.41803E+06     1.61911E+06    -15.3863E-03     29.9119E-03    -14.5255E-03     57.3472E-03    -15.3700E-03     29.8002E-03    -14.4958E-03     57.3436E-03
             401     13.3056E-03     62.4977E-03     382.045E+03    -30.9493E+06    -9.33110E+06     26.3412E+03    -15.6936E-03     30.1932E-03    -14.4996E-03     62.8283E-03    -15.6809E-03     30.0991E-03    -14.5020E-03     62.7961E-03
             402     14.1927E-03     62.5565E-03     163.487E+03    -22.8407E+06    -20.0287E+06    -586.647E+03    -15.9698E-03     30.4188E-03    -14.4490E-03     67.7230E-03    -15.9854E-03     30.4120E-03    -14.5163E-03     67.6796E-03
             403     15.0786E-03     62.6240E-03    -1.39784E+06     19.8849E+06    -21.6579E+06     515.866E+03    -16.9084E-03     31.3044E-03    -14.3960E-03     94.2671E-03    -17.1509E-03     31.6752E-03    -14.5311E-03     94.2614E-03
             404     15.9671E-03     62.7315E-03    -2.81018E+06     65.4756E+06    -32.7960E+06     1.43395E+06    -20.1864E-03     34.4848E-03    -14.2983E-03     152.230E-03    -21.5173E-03     36.1333E-03    -14.5532E-03     152.668E-03
             405     16.8519E-03     62.9094E-03    -1.77672E+06     121.276E+06     270.226E+03     753.615E+03    -21.1049E-03     35.5302E-03    -14.4253E-03     175.798E-03    -23.9089E-03     38.7576E-03    -14.5972E-03     178.071E-03
             406     886.951E-06     63.1025E-03    -6.11551E+06    -50.2144E+06    -5.91247E+06     217.217E+03    -14.6053E-03     29.2076E-03    -14.6023E-03     3.32325E-03    -14.5543E-03     28.9742E-03    -14.5502E-03     3.32563E-03
             407     1.77404E-03     63.1068E-03    -4.99630E+06    -48.6949E+06    -4.23566E+06     479.174E+03    -14.5826E-03     29.1839E-03    -14.6013E-03     6.09291E-03    -14.5308E-03     28.9538E-03    -14.5446E-03     6.09831E-03
             408     2.66106E-03     63.1138E-03    -3.56888E+06    -46.2246E+06    -1.22803E+06     644.746E+03    -14.6023E-03     29.2056E-03    -14.6033E-03     9.19491E-03    -14.5514E-03     28.9816E-03    -14.5373E-03     9.20203E-03
             409     3.54808E-03     63.1238E-03    -2.32121E+06    -44.0938E+06     2.08901E+06     412.581E+03    -14.6390E-03     29.2542E-03    -14.6152E-03     12.3967E-03    -14.5900E-03     29.0343E-03    -14.5374E-03     12.4003E-03
             410     4.43507E-03     63.1366E-03    -1.72693E+06    -44.5476E+06     4.12940E+06    -260.692E+03    -14.6678E-03     29.2960E-03    -14.6281E-03     15.6716E-03    -14.6183E-03     29.0702E-03    -14.5404E-03     15.6660E-03
             411     5.32204E-03     63.1526E-03    -1.01980E+06    -44.6828E+06     4.91308E+06    -205.505E+03    -14.6635E-03     29.2942E-03    -14.6307E-03     19.1026E-03    -14.6117E-03     29.0659E-03    -14.5399E-03     19.0971E-03
             412     6.20908E-03     63.1718E-03    -392.106E+03    -45.6310E+06     4.65636E+06     489.038E+03    -14.6573E-03     29.2805E-03    -14.6232E-03     22.7510E-03    -14.6010E-03     29.0473E-03    -14.5332E-03     22.7538E-03
             413     7.09619E-03     63.1946E-03     76.7993E+03    -46.7500E+06     4.64020E+06     1.36570E+06    -14.6829E-03     29.2970E-03    -14.6141E-03     26.5998E-03    -14.6231E-03     29.0581E-03    -14.5233E-03     26.6129E-03
             414     7.98336E-03     63.2208E-03     636.744E+03    -45.6549E+06     5.30808E+06     1.89797E+06    -14.7368E-03     29.3422E-03    -14.6054E-03     30.6582E-03    -14.6776E-03     29.1078E-03    -14.5136E-03     30.6769E-03
             415     8.87041E-03     63.2511E-03     891.336E+03    -48.2994E+06     4.40593E+06     1.02558E+06    -14.8247E-03     29.4217E-03    -14.5969E-03     34.9250E-03    -14.7605E-03     29.1763E-03    -14.5062E-03     34.9306E-03
             416     9.75759E-03     63.2854E-03     792.199E+03    -49.1620E+06     417.733E+03     900.043E+03    -14.9430E-03     29.5171E-03    -14.5741E-03     39.3687E-03    -14.8743E-03     29.2755E-03    -14.5018E-03     39.3701E-03
             417     10.6446E-03     63.3240E-03     625.769E+03    -48.6030E+06    -1.63370E+06     1.62751E+06    -15.0888E-03     29.6516E-03    -14.5629E-03     43.9900E-03    -15.0223E-03     29.4196E-03    -14.5015E-03     43.9973E-03
             418     11.5316E-03     63.3672E-03     1.20946E+06    -41.0860E+06    -1.35394E+06     1.29095E+06    -15.2512E-03     29.8072E-03    -14.5560E-03     49.2073E-03    -15.1990E-03     29.6174E-03    -14.5050E-03     49.2056E-03
             419     12.4184E-03     63.4157E-03     2.27541E+06    -28.0975E+06    -223.578E+03     411.808E+03    -15.4990E-03     30.0468E-03    -14.5479E-03     57.2817E-03    -15.4739E-03     29.9307E-03    -14.5115E-03     57.2622E-03
             420     13.3055E-03     63.4740E-03     2.14155E+06    -29.2142E+06    -7.16277E+06    -83.5542E+03    -15.7981E-03     30.3250E-03    -14.5270E-03     62.8929E-03    -15.7826E-03     30.2342E-03    -14.5235E-03     62.8588E-03
             421     14.1919E-03     63.5329E-03    -42.1284E+03    -23.8843E+06    -18.1928E+06    -36.0971E+03    -15.8744E-03     30.3552E-03    -14.4808E-03     67.5295E-03    -15.8922E-03     30.3408E-03    -14.5371E-03     67.4932E-03
             422     15.0799E-03     63.6001E-03    -1.61738E+06     19.4881E+06    -20.7788E+06     498.388E+03    -16.9956E-03     31.4163E-03    -14.4207E-03     94.2527E-03    -17.2426E-03     31.7870E-03    -14.5505E-03     94.2457E-03
             423     15.9649E-03     63.7085E-03    -2.15336E+06     66.3953E+06    -32.9143E+06    -204.482E+03    -20.1426E-03     34.4578E-03    -14.3152E-03     152.344E-03    -21.4755E-03     36.1142E-03    -14.5729E-03     152.766E-03
             424     16.8529E-03     63.8863E-03    -2.21464E+06     120.612E+06    -158.961E+03    -540.957E+03    -20.8143E-03     35.2486E-03    -14.4343E-03     176.149E-03    -23.6227E-03     38.4778E-03    -14.6068E-03     178.416E-03
             425     887.065E-06     64.0788E-03    -5.11855E+06    -50.1732E+06    -5.03816E+06    -224.364E+03    -14.5911E-03     29.1722E-03    -14.5812E-03     3.27923E-03    -14.5364E-03     28.9363E-03    -14.5262E-03     3.27589E-03
             426     1.77403E-03     64.0828E-03    -4.40518E+06    -48.7967E+06    -3.80117E+06    -469.731E+03    -14.5974E-03     29.1859E-03    -14.5885E-03     6.07002E-03    -14.5431E-03     28.9538E-03    -14.5304E-03     6.06315E-03
             427     2.66106E-03     64.0900E-03    -3.14359E+06    -46.6656E+06    -1.25782E+06    -175.949E+03    -14.5967E-03     29.1922E-03    -14.5955E-03     9.13470E-03    -14.5430E-03     28.9654E-03    -14.5296E-03     9.13121E-03
             428     3.54811E-03     64.0998E-03    -1.93717E+06    -44.2628E+06     1.87786E+06     403.300E+03    -14.5988E-03     29.2010E-03    -14.6022E-03     12.3301E-03    -14.5472E-03     28.9800E-03    -14.5259E-03     12.3336E-03
             429     4.43513E-03     64.1129E-03    -1.27662E+06    -44.1383E+06     4.09340E+06     699.789E+03    -14.6362E-03     29.2458E-03    -14.6097E-03     15.6224E-03    -14.5849E-03     29.0215E-03    -14.5233E-03     15.6293E-03
             430     5.32210E-03     64.1287E-03    -1.32932E+06    -44.8647E+06     4.58826E+06     417.283E+03    -14.6543E-03     29.2663E-03    -14.6120E-03     19.0601E-03    -14.6033E-03     29.0380E-03    -14.5221E-03     19.0626E-03
             431     6.20921E-03     64.1479E-03    -720.077E+03    -46.2457E+06     4.60292E+06     390.823E+03    -14.6498E-03     29.2579E-03    -14.6081E-03     22.6711E-03    -14.5941E-03     29.0221E-03    -14.5170E-03     22.6725E-03
             432     7.09636E-03     64.1705E-03     746.583E+03    -47.7409E+06     5.13072E+06     786.665E+03    -14.6959E-03     29.2990E-03    -14.6031E-03     26.4801E-03    -14.6320E-03     29.0534E-03    -14.5093E-03     26.4857E-03
             433     7.98340E-03     64.1970E-03     2.39160E+06    -46.1723E+06     6.16236E+06     1.29700E+06    -14.8070E-03     29.4066E-03    -14.5995E-03     30.5154E-03    -14.7396E-03     29.1658E-03    -14.5052E-03     30.5262E-03
             434     8.87045E-03     64.2271E-03     3.26994E+06    -47.3122E+06     6.24124E+06     1.36959E+06    -14.9350E-03     29.5371E-03    -14.6021E-03     34.7167E-03    -14.8630E-03     29.2907E-03    -14.5071E-03     34.7265E-03
             435     9.75738E-03     64.2615E-03     3.32797E+06    -49.9581E+06     3.30552E+06     1.14673E+06    -15.0441E-03     29.6401E-03    -14.5961E-03     39.1632E-03    -14.9658E-03     29.3868E-03    -14.5119E-03     39.1676E-03
             436     10.6443E-03     64.3002E-03     3.72152E+06    -48.8393E+06     448.816E+03     1.14436E+06    -15.1850E-03     29.7709E-03    -14.5859E-03     43.9066E-03    -15.1058E-03     29.5302E-03    -14.5183E-03     43.9075E-03
             437     11.5312E-03     64.3434E-03     4.14824E+06    -40.0245E+06     280.020E+03     434.420E+03    -15.3301E-03     29.9100E-03    -14.5799E-03     49.1920E-03    -15.2672E-03     29.7189E-03    -14.5264E-03     49.1791E-03
             438     12.4182E-03     64.3920E-03     3.50098E+06    -28.3319E+06     729.035E+03     498.201E+03    -15.5426E-03     30.1175E-03    -14.5750E-03     57.3221E-03    -15.5125E-03     29.9972E-03    -14.5353E-03     57.3035E-03
             439     13.3050E-03     64.4503E-03     1.89286E+06    -28.9383E+06    -6.11751E+06     952.697E+03    -15.7847E-03     30.3398E-03    -14.5551E-03     63.0870E-03    -15.7724E-03     30.2492E-03    -14.5465E-03     63.0662E-03
             440     14.1919E-03     64.5097E-03     832.732E+03    -23.6904E+06    -15.4675E+06     627.984E+03    -16.0059E-03     30.5238E-03    -14.5180E-03     67.3905E-03    -16.0239E-03     30.5056E-03    -14.5622E-03     67.3622E-03
             441     15.0781E-03     64.5755E-03     910.002E+03     19.7043E+06    -19.3359E+06    -298.202E+03    -17.1140E-03     31.5680E-03    -14.4540E-03     94.6222E-03    -17.3527E-03     31.9360E-03    -14.5806E-03     94.6044E-03
             442     15.9656E-03     64.6872E-03     982.221E+03     66.6615E+06    -32.3315E+06    -784.676E+03    -20.0266E-03     34.3668E-03    -14.3402E-03     152.692E-03    -21.3457E-03     36.0198E-03    -14.5999E-03     153.113E-03
             443     16.8510E-03     64.8609E-03    -1.06201E+06     120.270E+06      95.753E+03    -351.780E+03    -20.5955E-03     35.0444E-03    -14.4490E-03     177.187E-03    -23.4259E-03     38.2977E-03    -14.6213E-03     179.485E-03
             444     886.989E-06     65.0547E-03    -3.98490E+06    -49.4548E+06    -3.87766E+06    -528.170E+03    -14.5951E-03     29.1875E-03    -14.5924E-03     3.21796E-03    -14.5375E-03     28.9519E-03    -14.5343E-03     3.21069E-03
             445     1.77405E-03     65.0591E-03    -3.73341E+06    -48.3281E+06    -2.76075E+06    -684.026E+03    -14.6077E-03     29.2053E-03    -14.5976E-03     6.07120E-03    -14.5523E-03     28.9731E-03    -14.5359E-03     6.06155E-03
             446     2.66101E-03     65.0660E-03    -3.31701E+06    -47.0525E+06    -920.056E+03    -546.895E+03    -14.6056E-03     29.2106E-03    -14.6050E-03     9.10943E-03    -14.5527E-03     28.9816E-03    -14.5365E-03     9.10113E-03
             447     3.54805E-03     65.0760E-03    -2.34952E+06    -45.1838E+06      1.2154E+06     160.517E+03    -14.5744E-03     29.1792E-03    -14.6048E-03     12.2832E-03    -14.5227E-03     28.9552E-03    -14.5298E-03     12.2836E-03
             448     4.43517E-03     65.0888E-03    -1.10621E+06    -44.6174E+06     3.21909E+06     888.410E+03    -14.5740E-03     29.1742E-03    -14.6002E-03     15.5742E-03    -14.5199E-03     28.9485E-03    -14.5178E-03     15.5835E-03
             449     5.32231E-03     65.1049E-03     200.124E+03    -44.4479E+06     5.71554E+06     968.828E+03    -14.6413E-03     29.2442E-03    -14.6029E-03     18.9781E-03    -14.5848E-03     29.0141E-03    -14.5101E-03     18.9877E-03
             450     6.20928E-03     65.1239E-03     993.259E+03    -46.0784E+06     6.74879E+06     303.103E+03    -14.7262E-03     29.3356E-03    -14.6094E-03     22.5341E-03    -14.6654E-03     29.0951E-03    -14.5102E-03     22.5343E-03
             451     7.09627E-03     65.1467E-03     1.79872E+06    -48.1231E+06     6.33802E+06    -28.7212E+03    -14.7896E-03     29.4022E-03    -14.6126E-03     26.3427E-03    -14.7217E-03     29.1514E-03    -14.5137E-03     26.3377E-03
             452     7.98332E-03     65.1730E-03     2.66744E+06    -47.0961E+06     6.35564E+06     458.184E+03    -14.8701E-03     29.4841E-03    -14.6141E-03     30.4240E-03    -14.8002E-03     29.2381E-03    -14.5179E-03     30.4240E-03
             453     8.87023E-03     65.2035E-03     3.48774E+06    -47.5121E+06     6.26491E+06     1.15080E+06    -14.9908E-03     29.6103E-03    -14.6195E-03     34.6586E-03    -14.9174E-03     29.3625E-03    -14.5244E-03     34.6656E-03
             454     9.75712E-03     65.2377E-03     4.02186E+06    -49.6905E+06     4.43564E+06     1.05516E+06    -15.1075E-03     29.7289E-03    -14.6214E-03     39.1362E-03    -15.0279E-03     29.4743E-03    -14.5330E-03     39.1394E-03
             455     10.6442E-03     65.2764E-03     4.34623E+06     -48.413E+06     413.435E+03     202.922E+03    -15.2352E-03     29.8433E-03    -14.6081E-03     43.9807E-03    -15.1534E-03     29.6039E-03    -14.5422E-03     43.9694E-03
             456     11.5310E-03     65.3198E-03     4.10337E+06    -40.1300E+06     245.845E+03     523.071E+03    -15.3722E-03     29.9775E-03    -14.6053E-03     49.2211E-03    -15.3093E-03     29.7860E-03    -14.5519E-03     49.2092E-03
             457     12.4179E-03     65.3682E-03     2.93623E+06    -29.8739E+06     1.98962E+06     1.89039E+06    -15.5875E-03     30.1986E-03    -14.6111E-03     57.3015E-03    -15.5599E-03     30.0696E-03    -14.5621E-03     57.3008E-03
             458     13.3048E-03     65.4268E-03     1.05686E+06    -28.7270E+06    -5.38773E+06     2.64020E+06    -15.7784E-03     30.3648E-03    -14.5864E-03     62.9598E-03    -15.7715E-03     30.2753E-03    -14.5732E-03     62.9608E-03
             459     14.1916E-03     65.4858E-03     145.797E+03    -20.5368E+06    -13.4599E+06    -239.312E+03    -16.0743E-03     30.6260E-03    -14.5518E-03     67.5830E-03    -16.1037E-03     30.6221E-03    -14.5895E-03     67.5431E-03
             460     15.0782E-03     65.5533E-03     1.09465E+06     20.4007E+06    -18.5835E+06    -3.01298E+06    -17.1983E-03     31.6853E-03    -14.4869E-03     94.7531E-03    -17.4391E-03     32.0563E-03    -14.6110E-03     94.7000E-03
             461     15.9647E-03     65.6621E-03     289.039E+03     64.2896E+06    -31.8175E+06    -1.30229E+06    -20.0868E-03     34.4678E-03    -14.3810E-03     152.346E-03    -21.4142E-03     36.1167E-03    -14.6337E-03     152.760E-03
             462     16.8525E-03     65.8400E-03    -565.260E+03     120.067E+06     501.589E+03     673.104E+03    -20.2378E-03     34.7150E-03    -14.4772E-03     176.567E-03    -23.0616E-03     37.9616E-03    -14.6480E-03     178.892E-03
             463     887.014E-06     66.0310E-03    -2.59142E+06    -48.8203E+06    -2.24934E+06    -237.629E+03    -14.5920E-03     29.2174E-03    -14.6254E-03     3.25437E-03    -14.5307E-03     28.9806E-03    -14.5621E-03     3.25087E-03
             464     1.77398E-03     66.0351E-03    -2.81878E+06    -48.0184E+06    -1.59490E+06    -179.959E+03    -14.6088E-03     29.2186E-03    -14.6098E-03     6.09151E-03    -14.5510E-03     28.9849E-03    -14.5440E-03     6.08837E-03
             465     2.66104E-03     66.0423E-03    -2.62767E+06    -47.0852E+06    -175.475E+03    -201.084E+03    -14.6071E-03     29.2196E-03    -14.6125E-03     9.10607E-03    -14.5518E-03     28.9883E-03    -14.5413E-03     9.10225E-03
             466     3.54803E-03     66.0520E-03    -1.99196E+06    -45.8969E+06     1.44776E+06    -68.8034E+03    -14.5968E-03     29.2089E-03    -14.6121E-03     12.2382E-03    -14.5426E-03     28.9805E-03    -14.5354E-03     12.2356E-03
             467     4.43512E-03     66.0650E-03    -655.572E+03    -45.1522E+06     3.64651E+06     186.508E+03    -14.5991E-03     29.2105E-03    -14.6114E-03     15.4886E-03    -14.5426E-03     28.9808E-03    -14.5268E-03     15.4888E-03
             468     5.32218E-03     66.0808E-03     957.339E+03    -44.5786E+06     6.24555E+06     444.643E+03    -14.6567E-03     29.2719E-03    -14.6152E-03     18.8831E-03    -14.5970E-03     29.0393E-03    -14.5207E-03     18.8859E-03
             469     6.20923E-03     66.1003E-03     2.35506E+06    -45.3398E+06     8.25151E+06     392.026E+03    -14.7774E-03     29.4045E-03    -14.6272E-03     22.4458E-03    -14.7129E-03     29.1636E-03    -14.5236E-03     22.4472E-03
             470     7.09612E-03     66.1227E-03     3.00985E+06    -48.0436E+06     8.10863E+06    -79.6938E+03    -14.8763E-03     29.5157E-03    -14.6394E-03     26.2560E-03    -14.8050E-03     29.2611E-03    -14.5336E-03     26.2502E-03
             471     7.98301E-03     66.1493E-03     3.56837E+06    -48.0009E+06     7.45266E+06     139.799E+03    -14.9000E-03     29.5436E-03    -14.6436E-03     30.3997E-03    -14.8259E-03     29.2901E-03    -14.5419E-03     30.3956E-03
             472     8.87002E-03     66.1796E-03     3.71911E+06    -48.5933E+06     5.80512E+06     1.13340E+06    -14.9789E-03     29.6195E-03    -14.6407E-03     34.7288E-03    -14.9021E-03     29.3666E-03    -14.5466E-03     34.7357E-03
             473     9.75702E-03     66.2141E-03     3.39383E+06    -48.7638E+06     3.96950E+06     1.14521E+06    -15.1476E-03     29.7874E-03    -14.6399E-03     39.2058E-03    -15.0717E-03     29.5390E-03    -14.5542E-03     39.2101E-03
             474     10.6437E-03     66.2526E-03     2.72938E+06    -47.5444E+06     861.742E+03     185.336E+03    -15.2861E-03     29.9213E-03    -14.6352E-03     43.9981E-03    -15.2144E-03     29.6880E-03    -14.5659E-03     43.9865E-03
             475     11.5307E-03     66.2962E-03     1.96527E+06    -42.1230E+06    -516.719E+03     932.240E+03    -15.4061E-03     30.0394E-03    -14.6333E-03     49.2841E-03    -15.3500E-03     29.8422E-03    -14.5776E-03     49.2774E-03
             476     12.4175E-03     66.3446E-03     1.65721E+06    -31.4360E+06     1.18238E+06     2.61677E+06    -15.6274E-03     30.2654E-03    -14.6379E-03     57.3905E-03    -15.6029E-03     30.1317E-03    -14.5888E-03     57.3989E-03
             477     13.3042E-03     66.4032E-03     2.71663E+06     -27.967E+06    -5.30929E+06     2.28533E+06    -15.8611E-03     30.4729E-03    -14.6118E-03     63.1348E-03    -15.8472E-03     30.3848E-03    -14.6018E-03     63.1309E-03
             478     14.1909E-03     66.4624E-03     2.84875E+06    -15.8072E+06    -12.4244E+06    -259.590E+03    -16.0061E-03     30.5788E-03    -14.5727E-03     67.8376E-03    -16.0304E-03     30.5932E-03    -14.6161E-03     67.7977E-03
             479     15.0777E-03     66.5298E-03    -511.348E+03     21.7763E+06    -16.9037E+06    -2.96769E+06    -17.1631E-03     31.6800E-03    -14.5169E-03     95.1808E-03    -17.4171E-03     32.0585E-03    -14.6323E-03     95.1281E-03
             480     15.9638E-03     66.6397E-03    -1.71100E+06     60.3207E+06    -32.7394E+06    -2.00675E+06    -20.2782E-03     34.6852E-03    -14.4070E-03     153.438E-03    -21.6288E-03     36.3388E-03    -14.6557E-03     153.847E-03
             481     16.8487E-03     66.8159E-03     58.2900E+03     119.172E+06     619.234E+03     506.748E+03    -20.1871E-03     34.6876E-03    -14.5005E-03     176.776E-03    -23.0203E-03     37.9423E-03    -14.6703E-03     179.111E-03
             482     887.000E-06     67.0070E-03    -3.79879E+06    -48.7850E+06    -3.17822E+06     228.727E+03    -14.6022E-03     29.2113E-03    -14.6091E-03     3.25985E-03    -14.5457E-03     28.9778E-03    -14.5487E-03     3.26239E-03
             483     1.77403E-03     67.0115E-03    -3.09763E+06    -47.8928E+06    -1.89694E+06     78.3511E+03    -14.6069E-03     29.2158E-03    -14.6090E-03     6.08881E-03    -14.5502E-03     28.9837E-03    -14.5445E-03     6.08903E-03
             484     2.66100E-03     67.0183E-03    -2.32034E+06    -46.9638E+06    -342.756E+03    -52.6284E+03    -14.6168E-03     29.2291E-03    -14.6124E-03     9.10219E-03    -14.5599E-03     28.9983E-03    -14.5426E-03     9.10029E-03
             485     3.54806E-03     67.0283E-03    -1.28190E+06    -45.8161E+06     2.09897E+06    -276.574E+03    -14.6526E-03     29.2749E-03    -14.6223E-03     12.2139E-03    -14.5959E-03     29.0449E-03    -14.5435E-03     12.2087E-03
             486     4.43500E-03     67.0410E-03    -258.462E+03    -45.4652E+06     4.11765E+06    -279.869E+03    -14.6920E-03     29.3265E-03    -14.6345E-03     15.4588E-03    -14.6338E-03     29.0940E-03    -14.5476E-03     15.4529E-03
             487     5.32199E-03     67.0572E-03     616.907E+03    -45.0374E+06     5.69874E+06     81.9244E+03    -14.7136E-03     29.3574E-03    -14.6438E-03     18.8581E-03    -14.6542E-03     29.1238E-03    -14.5509E-03     18.8563E-03
             488     6.20899E-03     67.0763E-03     1.30503E+06    -45.2618E+06     7.14518E+06     341.487E+03    -14.7556E-03     29.4077E-03    -14.6521E-03     22.4641E-03    -14.6949E-03     29.1702E-03    -14.5526E-03     22.4649E-03
             489     7.09594E-03     67.0993E-03     1.62577E+06    -47.7782E+06     7.10218E+06     482.960E+03    -14.8374E-03     29.4956E-03    -14.6582E-03     26.3143E-03    -14.7719E-03     29.2457E-03    -14.5558E-03     26.3159E-03
             490     7.98284E-03     67.1253E-03     1.33736E+06    -48.3734E+06     5.79849E+06     344.857E+03    -14.9006E-03     29.5578E-03    -14.6572E-03     30.4793E-03    -14.8347E-03     29.3081E-03    -14.5600E-03     30.4778E-03
             491     8.86990E-03     67.1559E-03     1.82426E+06    -50.0163E+06     3.88088E+06     859.349E+03    -14.9928E-03     29.6461E-03    -14.6533E-03     34.8634E-03    -14.9207E-03     29.3916E-03    -14.5640E-03     34.8667E-03
             492     9.75673E-03     67.1903E-03     2.55723E+06    -48.0266E+06     2.86515E+06     1.20587E+06    -15.1494E-03     29.8005E-03    -14.6511E-03     39.4033E-03    -15.0771E-03     29.5585E-03    -14.5709E-03     39.4085E-03
             493     10.6437E-03     67.2293E-03     1.83988E+06    -47.5424E+06     1.16702E+06     1.43962E+06    -15.3214E-03     29.9761E-03    -14.6548E-03     44.1464E-03    -15.2545E-03     29.7437E-03    -14.5827E-03     44.1510E-03
             494     11.5304E-03     67.2723E-03     327.372E+03    -43.2867E+06    -3.35554E+06     1.63615E+06    -15.4551E-03     30.0969E-03    -14.6418E-03     49.4760E-03    -15.4013E-03     29.9004E-03    -14.5963E-03     49.4784E-03
             495     12.4173E-03     67.3213E-03     1.55907E+06    -31.1027E+06    -3.63605E+06     374.040E+03    -15.6463E-03     30.2791E-03    -14.6328E-03     57.6118E-03    -15.6158E-03     30.1542E-03    -14.6081E-03     57.5913E-03
             496     13.3042E-03     67.3795E-03     4.02747E+06    -27.8702E+06    -8.80810E+06    -219.129E+03    -15.9079E-03     30.5192E-03    -14.6114E-03     63.4694E-03    -15.8828E-03     30.4350E-03    -14.6208E-03     63.4331E-03
             497     14.1908E-03     67.4394E-03     4.11277E+06    -14.0310E+06    -12.1969E+06     292.658E+03    -16.0703E-03     30.6602E-03    -14.5900E-03     67.9229E-03    -16.0918E-03     30.6819E-03    -14.6366E-03     67.8898E-03
             498     15.0776E-03     67.5059E-03     2.26705E+06     22.4764E+06    -14.6208E+06     742.783E+03    -16.8144E-03     31.3483E-03    -14.5339E-03     95.2285E-03    -17.0590E-03     31.7231E-03    -14.6429E-03     95.2261E-03
             499     15.9650E-03     67.6172E-03    -3.67212E+06     61.2104E+06    -33.6676E+06    -1.80381E+06    -19.9452E-03     34.3374E-03    -14.3923E-03     154.409E-03    -21.3000E-03     35.9941E-03    -14.6440E-03     154.828E-03
             500     16.8530E-03     67.7937E-03    -5.26290E+06     118.818E+06    -3.15511E+06    -2.61122E+06    -20.5897E-03     35.0680E-03    -14.4783E-03     176.713E-03    -23.4394E-03     38.3300E-03    -14.6587E-03     179.003E-03
             501     887.005E-06     67.9834E-03    -5.24653E+06    -48.6638E+06    -5.51381E+06    -220.573E+03    -14.6153E-03     29.2119E-03    -14.5966E-03     3.23822E-03    -14.5628E-03     28.9845E-03    -14.5460E-03     3.23493E-03
             502     1.77399E-03     67.9874E-03    -4.55498E+06    -47.7522E+06    -3.95561E+06    -340.592E+03    -14.6064E-03     29.2136E-03    -14.6072E-03     6.06499E-03    -14.5542E-03     28.9872E-03    -14.5511E-03     6.05979E-03
             503     2.66105E-03     67.9946E-03    -3.49971E+06    -46.6870E+06    -1.43936E+06    -428.146E+03    -14.6457E-03     29.2638E-03    -14.6181E-03     9.09477E-03    -14.5935E-03     29.0376E-03    -14.5525E-03     9.08800E-03
             504     3.54795E-03     68.0043E-03    -2.54842E+06    -45.6391E+06     732.954E+03    -465.152E+03    -14.6909E-03     29.3250E-03    -14.6341E-03     12.2180E-03    -14.6387E-03     29.0997E-03    -14.5606E-03     12.2102E-03
             505     4.43492E-03     68.0174E-03    -1.77328E+06    -45.6944E+06     2.64486E+06    -223.398E+03    -14.7328E-03     29.3851E-03    -14.6523E-03     15.4999E-03    -14.6797E-03     29.1558E-03    -14.5702E-03     15.4948E-03
             506     5.32178E-03     68.0332E-03    -1.21050E+06    -45.7245E+06     3.72371E+06     279.797E+03    -14.7461E-03     29.4095E-03    -14.6634E-03     18.9295E-03    -14.6919E-03     29.1779E-03    -14.5767E-03     18.9303E-03
             507     6.20875E-03     68.0527E-03    -1.04354E+06    -45.6637E+06     4.23629E+06     850.549E+03    -14.7163E-03     29.3806E-03    -14.6643E-03     22.5613E-03    -14.6626E-03     29.1488E-03    -14.5754E-03     22.5687E-03
             508     7.09586E-03     68.0752E-03    -844.569E+03    -47.7158E+06     4.61559E+06     892.131E+03    -14.7575E-03     29.4201E-03    -14.6626E-03     26.4351E-03    -14.7009E-03     29.1777E-03    -14.5691E-03     26.4421E-03
             509     7.98295E-03     68.1019E-03    -1.13256E+03    -48.0246E+06     4.49828E+06     583.298E+03    -14.9061E-03     29.5662E-03    -14.6601E-03     30.5690E-03    -14.8455E-03     29.3221E-03    -14.5680E-03     30.5707E-03
             510     8.86971E-03     68.1319E-03     700.141E+03    -50.5615E+06     3.05366E+06     63.8451E+03    -15.0278E-03     29.6889E-03    -14.6611E-03     34.9427E-03    -14.9592E-03     29.4344E-03    -14.5735E-03     34.9359E-03
             511     9.75676E-03     68.1668E-03     1.43069E+06    -48.5452E+06     1.64254E+06     524.645E+03    -15.1369E-03     29.7942E-03    -14.6573E-03     39.5857E-03    -15.0677E-03     29.5529E-03    -14.5807E-03     39.5822E-03
             512     10.6436E-03     68.2055E-03     2.30049E+06    -48.8378E+06     274.366E+03     1.77846E+06    -15.3560E-03     30.0171E-03    -14.6610E-03     44.2599E-03    -15.2837E-03     29.7787E-03    -14.5922E-03     44.2688E-03
             513     11.5304E-03     68.2490E-03     3.35271E+06    -42.1928E+06    -2.68739E+06     1.45972E+06    -15.5756E-03     30.2286E-03    -14.6530E-03     49.4677E-03    -15.5094E-03     30.0324E-03    -14.6102E-03     49.4675E-03
             514     12.4171E-03     68.2975E-03     2.98895E+06    -28.3737E+06    -2.53503E+06    -1.04091E+06    -15.7862E-03     30.4404E-03    -14.6542E-03     57.4330E-03    -15.7545E-03     30.3259E-03    -14.6300E-03     57.3938E-03
             515     13.3039E-03     68.3563E-03     2.22665E+06    -29.0719E+06    -8.00004E+06    -1.96631E+06    -15.9801E-03     30.6283E-03    -14.6482E-03     63.1589E-03    -15.9638E-03     30.5399E-03    -14.6492E-03     63.0996E-03
             516     14.1904E-03     68.4159E-03     1.60284E+06    -15.7446E+06    -12.2424E+06     394.866E+03    -16.1778E-03     30.8073E-03    -14.6295E-03     67.5216E-03    -16.2098E-03     30.8245E-03    -14.6702E-03     67.4892E-03
             517     15.0769E-03     68.4829E-03     1.98252E+06     24.3093E+06    -11.5408E+06    -476.697E+03    -17.0015E-03     31.5926E-03    -14.5911E-03     93.5132E-03    -17.2570E-03     31.9750E-03    -14.6870E-03     93.4931E-03
             518     15.9650E-03     68.5913E-03     4.67500E+06     63.6590E+06    -22.2548E+06    -576.338E+03    -19.4858E-03     33.9593E-03    -14.4735E-03     152.662E-03    -20.7970E-03     35.5777E-03    -14.6839E-03     153.094E-03
             519     16.8497E-03     68.7729E-03     744.903E+03     117.719E+06     2.96864E+06     632.621E+03    -19.9409E-03     34.4531E-03    -14.5122E-03     176.405E-03    -22.7436E-03     37.6678E-03    -14.6691E-03     178.740E-03
             520     886.947E-06     68.9593E-03    -5.00118E+06    -48.1327E+06    -4.85652E+06    -340.771E+03    -14.6490E-03     29.2577E-03    -14.6086E-03     3.21780E-03    -14.5970E-03     29.0315E-03    -14.5559E-03     3.21294E-03
             521     1.77400E-03     68.9638E-03    -5.17709E+06    -47.4992E+06    -4.23991E+06    -423.023E+03    -14.6489E-03     29.2819E-03    -14.6330E-03     6.03513E-03    -14.5997E-03     29.0581E-03    -14.5778E-03     6.02884E-03
             522     2.66089E-03     68.9706E-03    -4.97610E+06    -46.4567E+06    -2.24243E+06    -433.725E+03    -14.6564E-03     29.3017E-03    -14.6454E-03     9.06706E-03    -14.6107E-03     29.0800E-03    -14.5820E-03     9.06021E-03
             523     3.54789E-03     68.9808E-03    -4.43404E+06    -45.6411E+06    -861.538E+03    -333.841E+03    -14.6779E-03     29.3306E-03    -14.6526E-03     12.2444E-03    -14.6329E-03     29.1103E-03    -14.5843E-03     12.2384E-03
             524     4.43480E-03     68.9935E-03    -3.79307E+06    -46.1201E+06     392.201E+03    -47.6370E+03    -14.6979E-03     29.3580E-03    -14.6601E-03     15.5535E-03    -14.6510E-03     29.1327E-03    -14.5857E-03     15.5507E-03
             525     5.32182E-03     69.0098E-03    -3.06691E+06    -46.3807E+06     1.53144E+06     443.532E+03    -14.6978E-03     29.3608E-03    -14.6629E-03     19.0041E-03    -14.6488E-03     29.1318E-03    -14.5836E-03     19.0071E-03
             526     6.20882E-03     69.0287E-03    -1.90186E+06    -46.1638E+06     2.75117E+06     771.747E+03    -14.7224E-03     29.3841E-03    -14.6617E-03     22.6362E-03    -14.6700E-03     29.1531E-03    -14.5783E-03     22.6426E-03
             527     7.09585E-03     69.0516E-03    -344.822E+03    -47.3244E+06     4.62743E+06     543.593E+03    -14.7998E-03     29.4665E-03    -14.6666E-03     26.5162E-03    -14.7413E-03     29.2253E-03    -14.5744E-03     26.5187E-03
             528     7.98276E-03     69.0779E-03     792.768E+03    -47.7737E+06     5.11645E+06     102.148E+03    -14.9098E-03     29.5786E-03    -14.6687E-03     30.6369E-03    -14.8465E-03     29.3336E-03    -14.5750E-03     30.6324E-03
             529     8.86980E-03     69.1086E-03     1.34324E+06    -50.0782E+06     4.07882E+06    -33.6033E+03    -15.0580E-03     29.7303E-03    -14.6723E-03     34.9323E-03    -14.9884E-03     29.4759E-03    -14.5812E-03     34.9241E-03
             530     9.75658E-03     69.1426E-03     1.30529E+06    -49.8198E+06     1.87698E+06     152.227E+03    -15.2100E-03     29.8820E-03    -14.6720E-03     39.5567E-03    -15.1400E-03     29.6343E-03    -14.5923E-03     39.5483E-03
             531     10.6435E-03     69.1823E-03     2.17395E+06    -49.1417E+06     178.319E+03     150.795E+03    -15.4434E-03     30.1219E-03    -14.6785E-03     44.2852E-03    -15.3713E-03     29.8825E-03    -14.6095E-03     44.2730E-03
             532     11.5300E-03     69.2253E-03     3.79853E+06    -41.2445E+06    -1.41288E+06    -446.351E+03    -15.7058E-03     30.3877E-03    -14.6818E-03     49.3933E-03    -15.6409E-03     30.1938E-03    -14.6346E-03     49.3682E-03
             533     12.4166E-03     69.2748E-03     4.50439E+06    -26.8636E+06     405.697E+03    -213.658E+03    -15.9591E-03     30.6571E-03    -14.6981E-03     57.3861E-03    -15.9265E-03     30.5440E-03    -14.6636E-03     57.3570E-03
             534     13.3029E-03     69.3326E-03     2.59631E+06    -28.6098E+06    -5.99019E+06    -858.417E+03    -16.1428E-03     30.8424E-03    -14.6996E-03     63.1465E-03    -16.1286E-03     30.7532E-03    -14.6919E-03     63.1011E-03
             535     14.1895E-03     69.3929E-03     1.39428E+06    -19.4096E+06    -13.5771E+06    -172.531E+03    -16.2844E-03     30.9608E-03    -14.6764E-03     67.7619E-03    -16.3101E-03     30.9620E-03    -14.7182E-03     67.7220E-03
             536     15.0759E-03     69.4597E-03    -1.43243E+06     29.2158E+06    -10.3826E+06     811.387E+03    -17.9546E-03     32.6246E-03    -14.6700E-03     94.0534E-03    -18.2431E-03     33.0418E-03    -14.7622E-03     94.0436E-03
             537     15.9600E-03     69.5689E-03    -4.12834E+06     63.1044E+06    -18.2331E+06    -1.87806E+06    -20.3716E-03     35.0101E-03    -14.6384E-03     149.817E-03    -21.7342E-03     36.6348E-03    -14.8151E-03     150.223E-03
             538     16.8521E-03     69.7451E-03     236.328E+03     112.523E+06     4.61186E+06    -873.575E+03    -17.7572E-03     32.3946E-03    -14.6374E-03     173.138E-03    -20.5233E-03     35.5477E-03    -14.7779E-03     175.480E-03
             539     887.031E-06     69.9358E-03    -5.43133E+06    -47.9710E+06    -4.60465E+06     329.377E+03    -14.6809E-03     29.3286E-03    -14.6476E-03     3.25607E-03    -14.6316E-03     29.1035E-03    -14.5932E-03     3.25988E-03
             540     1.77381E-03     69.9398E-03    -5.08705E+06    -47.4130E+06    -2.93817E+06     182.013E+03    -14.6894E-03     29.3659E-03    -14.6765E-03     6.03893E-03    -14.6418E-03     29.1405E-03    -14.6150E-03     6.04045E-03
             541     2.66081E-03     69.9471E-03    -4.66896E+06    -46.4052E+06    -1.59338E+06     174.758E+03    -14.6582E-03     29.3393E-03    -14.6812E-03     9.07654E-03    -14.6120E-03     29.1165E-03    -14.6151E-03     9.07756E-03
             542     3.54779E-03     69.9568E-03    -4.23414E+06    -45.6064E+06    -549.778E+03     73.5368E+03    -14.6447E-03     29.3195E-03    -14.6748E-03     12.2647E-03    -14.5992E-03     29.0986E-03    -14.6053E-03     12.2639E-03
             543     4.43480E-03     69.9700E-03    -3.54136E+06    -46.3294E+06     248.612E+03     5.02659E+03    -14.6429E-03     29.3099E-03    -14.6669E-03     15.5415E-03    -14.5943E-03     29.0834E-03    -14.5934E-03     15.5394E-03
             544     5.32183E-03     69.9856E-03    -2.40056E+06    -46.6833E+06     1.28573E+06    -44.4725E+03    -14.6647E-03     29.3242E-03    -14.6595E-03     18.9710E-03    -14.6116E-03     29.0931E-03    -14.5819E-03     18.9676E-03
             545     6.20892E-03     70.0052E-03    -1.03740E+06    -46.3342E+06     2.84087E+06    -24.3996E+03    -14.7542E-03     29.4128E-03    -14.6586E-03     22.6402E-03    -14.6973E-03     29.1796E-03    -14.5758E-03     22.6364E-03
             546     7.09578E-03     70.0276E-03      29.746E+03    -46.9425E+06     4.50960E+06    -169.266E+03    -14.8546E-03     29.5223E-03    -14.6677E-03     26.5615E-03    -14.7945E-03     29.2826E-03    -14.5771E-03     26.5548E-03
             547     7.98276E-03     70.0544E-03     955.064E+03    -47.5321E+06     5.47801E+06    -329.337E+03    -14.9497E-03     29.6273E-03    -14.6776E-03     30.7110E-03    -14.8865E-03     29.3828E-03    -14.5826E-03     30.7010E-03
             548     8.86964E-03     70.0845E-03     1.89743E+06    -50.0775E+06     4.69787E+06    -372.032E+03    -15.1251E-03     29.8116E-03    -14.6865E-03     35.0033E-03    -15.0536E-03     29.5555E-03    -14.5932E-03     34.9907E-03
             549     9.75642E-03     70.1197E-03     2.92517E+06    -50.2597E+06     2.19171E+06    -158.865E+03    -15.3235E-03     30.0139E-03    -14.6904E-03     39.5868E-03    -15.2452E-03     29.7612E-03    -14.6108E-03     39.5742E-03
             550     10.6430E-03     70.1582E-03     2.53933E+06    -48.8297E+06    -237.541E+03    -159.335E+03    -15.5006E-03     30.1995E-03    -14.6989E-03     44.5098E-03    -15.4265E-03     29.9617E-03    -14.6330E-03     44.4936E-03
             551     11.5296E-03     70.2029E-03     912.181E+03    -40.0252E+06    -2.87764E+06    -870.504E+03    -15.7320E-03     30.4338E-03    -14.7017E-03     49.7910E-03    -15.6811E-03     30.2523E-03    -14.6594E-03     49.7605E-03
             552     12.4161E-03     70.2507E-03     670.820E+03    -27.7447E+06    -2.44079E+06    -1.38990E+06    -16.0254E-03     30.7426E-03    -14.7172E-03     57.7748E-03    -16.0066E-03     30.6348E-03    -14.6901E-03     57.7305E-03
             553     13.3028E-03     70.3105E-03     1.90760E+06    -28.1200E+06    -6.39056E+06    -184.503E+03    -16.3392E-03     31.0703E-03    -14.7311E-03     63.4781E-03    -16.3288E-03     30.9854E-03    -14.7251E-03     63.4409E-03
             554     14.1890E-03     70.3689E-03     626.437E+03    -21.3496E+06    -14.3370E+06     555.754E+03    -16.8870E-03     31.6190E-03    -14.7321E-03     67.7712E-03    -16.9145E-03     31.6146E-03    -14.7737E-03     67.7383E-03
             555     15.0757E-03     70.4376E-03     392.889E+03     27.6551E+06    -11.7483E+06     2.11500E+06    -18.5673E-03     33.3166E-03    -14.7493E-03     94.6769E-03    -18.8446E-03     33.7276E-03    -14.8487E-03     94.6808E-03
             556     15.9604E-03     70.5500E-03    -795.839E+03     68.0190E+06    -19.3582E+06     1.87502E+06    -18.9609E-03     33.6415E-03    -14.6806E-03     150.079E-03    -20.2995E-03     35.2744E-03    -14.8749E-03     150.575E-03
             557     16.8390E-03     70.7184E-03    -4.06130E+06     112.361E+06     4.17201E+06    -3.17457E+06    -16.2310E-03     30.8450E-03    -14.6140E-03     178.002E-03    -19.1106E-03     34.0972E-03    -14.7502E-03     180.392E-03
             558     886.853E-06     70.9119E-03    -6.23104E+06    -48.4717E+06    -6.10116E+06     210.773E+03    -14.6879E-03     29.3807E-03    -14.6928E-03     3.33857E-03    -14.6396E-03     29.1565E-03    -14.6440E-03     3.34083E-03
             559     1.77387E-03     70.9164E-03    -5.32550E+06    -47.4426E+06    -3.76521E+06     342.772E+03    -14.6779E-03     29.3718E-03    -14.6939E-03     6.07469E-03    -14.6303E-03     29.1478E-03    -14.6362E-03     6.07831E-03
             560     2.66077E-03     70.9232E-03    -4.25673E+06    -46.6862E+06    -1.85237E+06     398.616E+03    -14.6712E-03     29.3635E-03    -14.6922E-03     9.10771E-03    -14.6222E-03     29.1390E-03    -14.6276E-03     9.11163E-03
             561     3.54773E-03     70.9333E-03    -3.43510E+06    -45.4374E+06    -240.894E+03     407.506E+03    -14.6408E-03     29.3256E-03    -14.6849E-03     12.2546E-03    -14.5919E-03     29.1040E-03    -14.6152E-03     12.2581E-03
             562     4.43479E-03     70.9459E-03    -2.66316E+06    -45.8839E+06     1.47495E+06    -119.427E+03    -14.6330E-03     29.3102E-03    -14.6772E-03     15.4937E-03    -14.5824E-03     29.0830E-03    -14.5995E-03     15.4899E-03
             563     5.32184E-03     70.9621E-03    -1.62597E+06    -46.3963E+06     2.32818E+06    -670.490E+03    -14.6872E-03     29.3559E-03    -14.6687E-03     18.9322E-03    -14.6321E-03     29.1236E-03    -14.5875E-03     18.9207E-03
             564     6.20878E-03     70.9810E-03    -561.889E+03    -46.5151E+06     2.98427E+06    -725.506E+03    -14.7595E-03     29.4251E-03    -14.6656E-03     22.6390E-03    -14.7003E-03     29.1900E-03    -14.5824E-03     22.6261E-03
             565     7.09582E-03     71.0043E-03     344.837E+03    -46.7389E+06     3.96812E+06    -497.867E+03    -14.8572E-03     29.5275E-03    -14.6703E-03     26.5658E-03    -14.7951E-03     29.2892E-03    -14.5832E-03     26.5549E-03
             566     7.98271E-03     71.0303E-03     924.617E+03    -47.4310E+06     4.87040E+06    -550.749E+03    -14.9994E-03     29.6818E-03    -14.6823E-03     30.7714E-03    -14.9356E-03     29.4387E-03    -14.5905E-03     30.7584E-03
             567     8.86949E-03     71.0615E-03     1.33893E+06    -49.7626E+06     3.94422E+06    -821.200E+03    -15.1697E-03     29.8645E-03    -14.6948E-03     35.1853E-03    -15.1004E-03     29.6119E-03    -14.6049E-03     35.1669E-03
             568     9.75623E-03     71.0956E-03     1.56292E+06    -50.6560E+06      883.76E+03    -893.594E+03    -15.3259E-03     30.0251E-03    -14.6992E-03     39.8331E-03    -15.2519E-03     29.7743E-03    -14.6236E-03     39.8111E-03
             569     10.6429E-03     71.1356E-03     2.28182E+06    -49.1239E+06    -851.231E+03    -241.372E+03    -15.4534E-03     30.1596E-03    -14.7063E-03     44.8468E-03    -15.3791E-03     29.9216E-03    -14.6426E-03     44.8297E-03
             570     11.5298E-03     71.1786E-03     3.14439E+06    -38.7479E+06    -321.436E+03    -371.232E+03    -15.6346E-03     30.3463E-03    -14.7117E-03     50.3682E-03    -15.5779E-03     30.1641E-03    -14.6617E-03     50.3445E-03
             571     12.4162E-03     71.2289E-03     2.35149E+06    -27.5172E+06    -286.825E+03    -973.742E+03    -15.9538E-03     30.6733E-03    -14.7195E-03     58.4812E-03    -15.9299E-03     30.5609E-03    -14.6845E-03     58.4427E-03
             572     13.3023E-03     71.2862E-03     350.202E+03    -30.1413E+06    -7.78320E+06    -429.075E+03    -16.3525E-03     31.0723E-03    -14.7198E-03     64.7660E-03    -16.3449E-03     30.9815E-03    -14.7156E-03     64.7261E-03
             573     14.1883E-03     71.3481E-03    -469.592E+03    -21.8965E+06    -16.4390E+06     1.24423E+06    -17.1669E-03     31.8863E-03    -14.7194E-03     70.8089E-03    -17.1993E-03     31.8869E-03    -14.7692E-03     70.7841E-03
             574     15.0713E-03     71.4157E-03     188.998E+03     25.3295E+06    -15.8542E+06     268.071E+03    -17.7516E-03     32.4563E-03    -14.7046E-03     98.7732E-03    -18.0180E-03     32.8591E-03    -14.8209E-03     98.7623E-03
             575     15.9579E-03     71.5276E-03     1.80243E+06     69.1002E+06    -28.4238E+06    -847.332E+03    -17.6513E-03     32.1962E-03    -14.5449E-03     147.664E-03    -18.8945E-03     33.7723E-03    -14.7898E-03     148.133E-03
             576     16.8670E-03     71.6840E-03     4.78211E+06     115.951E+06     9.87985E+06     76.9603E+03    -14.7201E-03     29.2047E-03    -14.4846E-03     172.253E-03    -17.4323E-03     32.3175E-03    -14.6102E-03     174.614E-03
             577     886.914E-06     71.8885E-03    -6.29940E+06    -48.3922E+06    -6.58278E+06    -348.906E+03    -14.7018E-03     29.4022E-03    -14.7003E-03     3.29670E-03    -14.6533E-03     29.1791E-03    -14.6540E-03     3.29172E-03
             578     1.77384E-03     71.8925E-03    -5.83188E+06    -47.6710E+06    -5.76283E+06    -229.957E+03    -14.6607E-03     29.3516E-03    -14.6909E-03     6.06070E-03    -14.6124E-03     29.1301E-03    -14.6421E-03     6.05693E-03
             579     2.66080E-03     71.8997E-03    -4.94840E+06    -46.8602E+06    -3.36052E+06        -488.902    -14.6534E-03     29.3369E-03    -14.6835E-03     9.09754E-03    -14.6054E-03     29.1148E-03    -14.6252E-03     9.09631E-03
             580     3.54778E-03     71.9093E-03    -3.63264E+06    -45.4054E+06    -1.19978E+06    -9.93611E+03    -14.6576E-03     29.3355E-03    -14.6779E-03     12.2595E-03    -14.6084E-03     29.1157E-03    -14.6128E-03     12.2577E-03
             581     4.43474E-03     71.9224E-03    -2.36122E+06    -45.1159E+06     2.02001E+06    -286.301E+03    -14.6843E-03     29.3673E-03    -14.6830E-03     15.5121E-03    -14.6341E-03     29.1427E-03    -14.6041E-03     15.5061E-03
             582     5.32172E-03     71.9380E-03    -1.52357E+06    -45.8866E+06     3.75033E+06    -765.158E+03    -14.7240E-03     29.4106E-03    -14.6866E-03     18.9470E-03    -14.6712E-03     29.1786E-03    -14.5991E-03     18.9343E-03
             583     6.20873E-03     71.9577E-03    -925.829E+03    -46.4118E+06     3.18248E+06    -1.00512E+06    -14.7710E-03     29.4518E-03    -14.6808E-03     22.6196E-03    -14.7140E-03     29.2176E-03    -14.5963E-03     22.6030E-03
             584     7.09570E-03     71.9801E-03    -291.353E+03    -47.0131E+06     2.84663E+06    -872.344E+03    -14.8581E-03     29.5373E-03    -14.6792E-03     26.5881E-03    -14.7972E-03     29.3002E-03    -14.5963E-03     26.5724E-03
             585     7.98257E-03     72.0073E-03     392.793E+03    -47.1725E+06     4.03128E+06    -676.857E+03    -14.9828E-03     29.6723E-03    -14.6895E-03     30.8346E-03    -14.9207E-03     29.4325E-03    -14.6015E-03     30.8200E-03
             586     8.86950E-03     72.0373E-03     1.08476E+06    -49.1293E+06     4.27445E+06    -1.11067E+06    -15.1085E-03     29.8106E-03    -14.7021E-03     35.3220E-03    -15.0419E-03     29.5610E-03    -14.6110E-03     35.3000E-03
             587     9.75624E-03     72.0729E-03     1.78703E+06    -50.7323E+06     1.51148E+06    -1.35146E+06    -15.2167E-03     29.9165E-03    -14.6999E-03     40.0244E-03    -15.1423E-03     29.6641E-03    -14.6214E-03     39.9967E-03
             588     10.6431E-03     72.1112E-03     2.41693E+06    -49.4327E+06    -1.28908E+06    -1.57630E+06    -15.3133E-03     30.0047E-03    -14.6914E-03     45.1377E-03    -15.2371E-03     29.7653E-03    -14.6296E-03     45.1037E-03
             589     11.5297E-03     72.1562E-03     2.99806E+06    -38.6486E+06    -148.717E+03    -1.24054E+06    -15.4156E-03     30.1018E-03    -14.6862E-03     50.8771E-03    -15.3598E-03     29.9198E-03    -14.6352E-03     50.8428E-03
             590     12.4169E-03     72.2045E-03     3.81416E+06    -27.7330E+06     2.00836E+06    -446.577E+03    -15.5950E-03     30.2780E-03    -14.6829E-03     59.0997E-03    -15.5662E-03     30.1584E-03    -14.6382E-03     59.0690E-03
             591     13.3039E-03     72.2645E-03     3.78787E+06    -31.7784E+06    -6.05362E+06     863.309E+03    -15.9146E-03     30.5682E-03    -14.6536E-03     65.9163E-03    -15.8896E-03     30.4613E-03    -14.6432E-03     65.8943E-03
             592     14.1907E-03     72.3239E-03     2.48184E+06    -21.9081E+06    -13.6166E+06     364.893E+03    -16.1074E-03     30.7184E-03    -14.6110E-03     72.8062E-03    -16.1274E-03     30.7089E-03    -14.6509E-03     72.7744E-03
             593     15.0796E-03     72.3961E-03     1.00677E+06     27.3825E+06    -15.2354E+06     229.684E+03    -15.9220E-03     30.4278E-03    -14.5058E-03     98.5196E-03    -16.1629E-03     30.8136E-03    -14.6231E-03     98.5175E-03
             594     15.9702E-03     72.4992E-03    -2.57687E+06     69.1130E+06    -30.6117E+06    -741.375E+03    -17.1115E-03     31.3893E-03    -14.2777E-03     151.143E-03    -18.3197E-03     32.9190E-03    -14.5273E-03     151.565E-03
             595     16.8312E-03     72.6650E-03     1.04312E+06     115.117E+06     7.51969E+06    -887.037E+03    -16.6157E-03     30.8652E-03    -14.2494E-03     175.507E-03    -19.3120E-03     33.9527E-03    -14.3803E-03     177.813E-03
             596     886.884E-06     72.8645E-03    -6.81311E+06     -47.614E+06    -6.79233E+06    -383.785E+03    -14.7190E-03     29.3895E-03    -14.6705E-03     3.22932E-03    -14.6739E-03     29.1714E-03    -14.6255E-03     3.22389E-03
             597     1.77379E-03     72.8690E-03    -6.74100E+06    -47.5554E+06    -6.39167E+06    -661.774E+03    -14.6583E-03     29.3443E-03    -14.6860E-03     6.04718E-03    -14.6138E-03     29.1256E-03    -14.6393E-03     6.03781E-03
             598     2.66082E-03     72.8757E-03    -5.84257E+06    -46.6618E+06    -4.49278E+06    -810.192E+03    -14.6417E-03     29.3179E-03    -14.6762E-03     9.06818E-03    -14.5968E-03     29.0996E-03    -14.6225E-03     9.05648E-03
             599     3.54782E-03     72.8858E-03    -4.52106E+06    -45.2268E+06    -2.11596E+06    -892.186E+03    -14.6640E-03     29.3362E-03    -14.6722E-03     12.2364E-03    -14.6182E-03     29.1200E-03    -14.6107E-03     12.2232E-03
             600     4.43479E-03     72.8984E-03    -3.24639E+06    -45.0265E+06     317.739E+03    -676.289E+03    -14.7138E-03     29.3917E-03    -14.6779E-03     15.5440E-03    -14.6656E-03     29.1713E-03    -14.6063E-03     15.5331E-03
             601     5.32168E-03     72.9147E-03    -2.39085E+06    -45.3941E+06     2.64289E+06    -535.362E+03    -14.7720E-03     29.4623E-03    -14.6903E-03     18.9933E-03    -14.7227E-03     29.2356E-03    -14.6078E-03     18.9835E-03
             602     6.20861E-03     72.9335E-03    -1.59505E+06    -45.7305E+06     3.70564E+06    -1.12567E+06    -14.8280E-03     29.5269E-03    -14.6990E-03     22.6284E-03    -14.7761E-03     29.2963E-03    -14.6118E-03     22.6103E-03
             603     7.09551E-03     72.9568E-03    -314.401E+03    -47.0438E+06     4.28478E+06    -1.57974E+06    -14.8749E-03     29.5803E-03    -14.7053E-03     26.5864E-03    -14.8162E-03     29.3409E-03    -14.6152E-03     26.5615E-03
             604     7.98253E-03     72.9830E-03     1.35148E+06    -47.1913E+06     5.01920E+06    -1.51059E+06    -14.9180E-03     29.6254E-03    -14.7074E-03     30.8529E-03    -14.8525E-03     29.3826E-03    -14.6158E-03     30.8277E-03
             605     8.86935E-03     73.0144E-03     2.66266E+06    -48.2557E+06     5.01752E+06    -1.65931E+06    -14.9735E-03     29.6783E-03    -14.7048E-03     35.3476E-03    -14.9013E-03     29.4296E-03    -14.6136E-03     35.3187E-03
             606     9.75649E-03     73.0485E-03     3.48191E+06    -50.5743E+06     2.79890E+06    -2.09297E+06    -15.0497E-03     29.7413E-03    -14.6916E-03     40.0782E-03    -14.9689E-03     29.4852E-03    -14.6093E-03     40.0412E-03
             607     10.6433E-03     73.0885E-03     3.45436E+06    -49.3774E+06     4.17981E+03    -1.81142E+06    -15.1240E-03     29.7939E-03    -14.6699E-03     45.1771E-03    -15.0444E-03     29.5513E-03    -14.6033E-03     45.1404E-03
             608     11.5308E-03     73.1314E-03     3.01089E+06    -38.9540E+06    -77.7234E+03    -1.73503E+06    -15.1596E-03     29.8050E-03    -14.6453E-03     50.9087E-03    -15.1031E-03     29.6211E-03    -14.5936E-03     50.8685E-03
             609     12.4176E-03     73.1821E-03     3.01085E+06    -28.5836E+06     1.83966E+06    -1.37334E+06    -15.2040E-03     29.8271E-03    -14.6231E-03     58.9266E-03    -15.1770E-03     29.7040E-03    -14.5768E-03     58.8849E-03
             610     13.3051E-03     73.2390E-03     3.80564E+06    -34.0721E+06    -5.94599E+06     10.9562E+03    -15.2490E-03     29.8145E-03    -14.5655E-03     65.7477E-03    -15.2199E-03     29.6952E-03    -14.5514E-03     65.7164E-03
             611     14.1922E-03     73.3023E-03     4.23026E+06    -19.3973E+06    -12.6569E+06     407.434E+03    -14.9845E-03     29.4534E-03    -14.4689E-03     71.8350E-03    -14.9963E-03     29.4481E-03    -14.5102E-03     71.8074E-03
             612     15.0793E-03     73.3681E-03     1.80345E+06     26.8916E+06    -15.1754E+06     65.8082E+03    -14.0383E-03     28.3284E-03    -14.2901E-03     95.6990E-03    -14.2574E-03     28.6933E-03    -14.4076E-03     95.7002E-03
             613     15.9666E-03     73.4750E-03     3.94083E+06     68.5069E+06    -23.6794E+06     1.41584E+06    -14.0203E-03     27.9909E-03    -13.9705E-03     148.490E-03    -15.1385E-03     29.4302E-03    -14.1940E-03     148.953E-03
             614     16.8930E-03     73.6376E-03    -1.40471E+06     118.741E+06     4.96791E+06     535.081E+03    -22.0185E-03     35.9978E-03    -13.9793E-03     176.434E-03    -24.7921E-03     39.1740E-03    -14.1246E-03     178.550E-03
             615     886.929E-06     73.8412E-03    -6.66125E+06    -46.9972E+06    -6.47959E+06    -339.946E+03    -14.6834E-03     29.3313E-03    -14.6479E-03     3.20751E-03    -14.6388E-03     29.1156E-03    -14.6025E-03     3.20269E-03
             616     1.77391E-03     73.8450E-03    -6.36178E+06    -46.6612E+06    -5.40781E+06    -646.854E+03    -14.6718E-03     29.3406E-03    -14.6688E-03     6.05625E-03    -14.6282E-03     29.1244E-03    -14.6189E-03     6.04707E-03
             617     2.66078E-03     73.8522E-03    -5.90933E+06    -46.0169E+06    -3.94559E+06    -1.26804E+06    -14.6846E-03     29.3591E-03    -14.6745E-03     9.07051E-03    -14.6418E-03     29.1434E-03    -14.6189E-03     9.05288E-03
             618     3.54775E-03     73.8618E-03    -5.10092E+06    -44.8676E+06    -2.21773E+06    -1.47876E+06    -14.6829E-03     29.3614E-03    -14.6785E-03     12.2201E-03    -14.6403E-03     29.1479E-03    -14.6172E-03     12.1993E-03
             619     4.43471E-03     73.8749E-03    -3.98173E+06    -45.2627E+06    -809.338E+03    -1.28476E+06    -14.7192E-03     29.4013E-03    -14.6821E-03     15.5315E-03    -14.6727E-03     29.1824E-03    -14.6147E-03     15.5127E-03
             620     5.32172E-03     73.8906E-03    -2.23109E+06    -45.0896E+06     1.90198E+06    -1.17219E+06    -14.7992E-03     29.4946E-03    -14.6955E-03     19.0156E-03    -14.7484E-03     29.2704E-03    -14.6174E-03     18.9976E-03
             621     6.20850E-03     73.9104E-03    -444.254E+03    -44.5857E+06     4.80715E+06    -1.63112E+06    -14.8786E-03     29.5931E-03    -14.7145E-03     22.6812E-03    -14.8242E-03     29.3650E-03    -14.6252E-03     22.6565E-03
             622     7.09540E-03     73.9327E-03      717.85E+03    -46.6147E+06     5.86634E+06    -2.21664E+06    -14.8986E-03     29.6258E-03    -14.7272E-03     26.6041E-03    -14.8376E-03     29.3849E-03    -14.6314E-03     26.5709E-03
             623     7.98222E-03     73.9599E-03     1.33909E+06    -47.2517E+06     5.57084E+06    -2.22661E+06    -14.8464E-03     29.5685E-03    -14.7222E-03     30.8397E-03    -14.7817E-03     29.3247E-03    -14.6277E-03     30.8052E-03
             624     8.86952E-03     73.9899E-03     1.46696E+06    -48.0225E+06     4.29625E+06    -1.84590E+06    -14.8436E-03     29.5472E-03    -14.7036E-03     35.3282E-03    -14.7766E-03     29.3025E-03    -14.6146E-03     35.2970E-03
             625     9.75645E-03     74.0254E-03     1.00110E+06    -49.5803E+06     2.07861E+06    -2.18812E+06    -14.9051E-03     29.5846E-03    -14.6796E-03     39.9582E-03    -14.8370E-03     29.3381E-03    -14.5987E-03     39.9201E-03
             626     10.6439E-03     74.0637E-03     1.50783E+06    -49.7584E+06    -885.505E+03    -2.64923E+06    -14.9709E-03     29.6188E-03    -14.6479E-03     44.9521E-03    -14.8992E-03     29.3783E-03    -14.5823E-03     44.9047E-03
             627     11.5306E-03     74.1086E-03     2.47869E+06    -38.8960E+06    -1.06871E+06    -2.18391E+06    -14.9814E-03     29.5914E-03    -14.6100E-03     50.5384E-03    -14.9261E-03     29.4099E-03    -14.5625E-03     50.4926E-03
             628     12.4184E-03     74.1566E-03     2.61529E+06    -29.5367E+06     169.599E+03    -1.54339E+06    -14.9547E-03     29.5283E-03    -14.5736E-03     58.3122E-03    -14.9255E-03     29.4030E-03    -14.5337E-03     58.2688E-03
             629     13.3057E-03     74.2162E-03     2.04422E+06    -34.6742E+06    -8.95772E+06    -1.38421E+06    -14.8646E-03     29.3589E-03    -14.4943E-03     64.8154E-03    -14.8382E-03     29.2427E-03    -14.4918E-03     64.7671E-03
             630     14.1945E-03     74.2753E-03     1.71535E+06    -20.6586E+06    -16.6851E+06    -416.041E+03    -14.2287E-03     28.5950E-03    -14.3663E-03     70.0017E-03    -14.2421E-03     28.5895E-03    -14.4223E-03     69.9662E-03
             631     15.0839E-03     74.3453E-03     2.28862E+06     29.1548E+06    -14.6970E+06    -612.784E+03    -13.7611E-03     27.9456E-03    -14.1844E-03     90.6297E-03    -13.9735E-03     28.3118E-03    -14.3035E-03     90.6236E-03
             632     15.9816E-03     74.4399E-03     726.549E+03     67.5842E+06    -22.6214E+06    -1.21157E+06    -19.2960E-03     33.3412E-03    -14.0452E-03     138.165E-03    -20.4502E-03     34.8016E-03    -14.2574E-03     138.445E-03
             633     16.8385E-03     74.6065E-03    -2.28062E+06     115.546E+06     1.87988E+06     1.67546E+06    -24.2491E-03     38.5076E-03    -14.2585E-03     170.888E-03    -27.0507E-03     41.7073E-03    -14.4133E-03     172.961E-03
             634     886.993E-06     74.8171E-03    -6.36030E+06    -46.3117E+06    -6.04575E+06    -453.446E+03    -14.6420E-03     29.2871E-03    -14.6450E-03     3.20545E-03    -14.5977E-03     29.0737E-03    -14.5989E-03     3.19914E-03
             635     1.77391E-03     74.8216E-03    -5.80692E+06    -45.8709E+06    -4.71075E+06    -708.986E+03    -14.6813E-03     29.3354E-03    -14.6542E-03     6.03670E-03    -14.6370E-03     29.1214E-03    -14.6028E-03     6.02672E-03
             636     2.66086E-03     74.8283E-03    -5.26819E+06    -45.0133E+06    -3.05011E+06    -989.577E+03    -14.7067E-03     29.3779E-03    -14.6712E-03     9.08922E-03    -14.6635E-03     29.1651E-03    -14.6135E-03     9.07518E-03
             637     3.54771E-03     74.8384E-03    -4.71767E+06    -44.1379E+06    -1.59315E+06    -1.60582E+06    -14.7352E-03     29.4202E-03    -14.6850E-03     12.2508E-03    -14.6927E-03     29.2089E-03    -14.6222E-03     12.2283E-03
             638     4.43468E-03     74.8509E-03    -3.40695E+06    -44.7973E+06     535.701E+03    -2.17586E+06    -14.7679E-03     29.4695E-03    -14.7016E-03     15.5672E-03    -14.7212E-03     29.2502E-03    -14.6290E-03     15.5368E-03
             639     5.32149E-03     74.8673E-03    -1.76993E+06    -44.8031E+06     2.84448E+06    -2.37737E+06    -14.7968E-03     29.5120E-03    -14.7152E-03     19.0389E-03    -14.7456E-03     29.2872E-03    -14.6335E-03     19.0053E-03
             640     6.20853E-03     74.8864E-03    -619.275E+03    -44.1217E+06     4.07335E+06    -2.06356E+06    -14.8297E-03     29.5504E-03    -14.7207E-03     22.7338E-03    -14.7758E-03     29.3259E-03    -14.6355E-03     22.7035E-03
             641     7.09529E-03     74.9097E-03    -172.995E+03    -45.7644E+06     4.84198E+06    -2.13328E+06    -14.8585E-03     29.5842E-03    -14.7257E-03     26.6514E-03    -14.8017E-03     29.3503E-03    -14.6349E-03     26.6193E-03
             642     7.98242E-03     74.9355E-03     296.528E+03    -47.2154E+06     5.17558E+06    -2.38274E+06    -14.8522E-03     29.5754E-03    -14.7232E-03     30.8117E-03    -14.7922E-03     29.3338E-03    -14.6293E-03     30.7752E-03
             643     8.86931E-03     74.9666E-03     1.27817E+06    -48.3627E+06     4.37055E+06    -2.08022E+06    -14.8382E-03     29.5449E-03    -14.7066E-03     35.2070E-03    -14.7718E-03     29.2986E-03    -14.6165E-03     35.1727E-03
             644     9.75669E-03     75.0008E-03     2.40786E+06    -48.3363E+06     2.50638E+06    -2.18857E+06    -14.8677E-03     29.5455E-03    -14.6778E-03     39.7598E-03    -14.7950E-03     29.3025E-03    -14.5987E-03     39.7217E-03
             645     10.6435E-03     75.0405E-03     1.80532E+06    -49.4249E+06    -1.81741E+06    -2.72329E+06    -14.9357E-03     29.5751E-03    -14.6394E-03     44.6329E-03    -14.8616E-03     29.3373E-03    -14.5794E-03     44.5845E-03
             646     11.5313E-03     75.0834E-03     429.729E+03    -39.6591E+06    -3.54488E+06    -2.38087E+06    -14.9419E-03     29.5389E-03    -14.5970E-03     50.0291E-03    -14.8920E-03     29.3600E-03    -14.5578E-03     49.9808E-03
             647     12.4181E-03     75.1336E-03     190.375E+03    -29.4932E+06    -1.21784E+06    -2.07740E+06    -14.9588E-03     29.5253E-03    -14.5665E-03     57.3626E-03    -14.9396E-03     29.4057E-03    -14.5301E-03     57.3122E-03
             648     13.3064E-03     75.1898E-03      713.57E+03    -34.6888E+06    -9.55749E+06    -2.05139E+06    -15.0057E-03     29.5034E-03    -14.4978E-03     63.3122E-03    -14.9846E-03     29.3894E-03    -14.4963E-03     63.2551E-03
             649     14.1930E-03     75.2523E-03     303.393E+03    -21.9276E+06    -17.3171E+06    -1.78787E+06    -14.6024E-03     28.9953E-03    -14.3930E-03     66.3103E-03    -14.6166E-03     28.9831E-03    -14.4482E-03     66.2566E-03
             650     15.0830E-03     75.3142E-03     1.09156E+06     29.2034E+06    -14.5987E+06    -1.17049E+06    -16.4513E-03     30.7588E-03    -14.3076E-03     86.7883E-03    -16.6707E-03     31.1278E-03    -14.4245E-03     86.7548E-03
             651     15.9599E-03     75.4200E-03     525.680E+03     66.7275E+06    -26.1643E+06     926.645E+03    -23.7248E-03     38.0470E-03    -14.3222E-03     147.519E-03    -25.0479E-03     39.6849E-03    -14.5506E-03     147.804E-03
             652     16.8511E-03     75.6064E-03    -4.31771E+06     114.006E+06     2.36241E+06     1.37871E+06    -22.2672E-03     36.8364E-03    -14.5691E-03     180.351E-03    -25.2001E-03     40.1527E-03    -14.7164E-03     182.658E-03
             653     886.960E-06     75.7937E-03    -7.64326E+06    -45.2118E+06    -7.09448E+06    -637.617E+03    -14.6384E-03     29.3057E-03    -14.6672E-03     3.21878E-03    -14.6006E-03     29.1012E-03    -14.6261E-03     3.21010E-03
             654     1.77389E-03     75.7976E-03    -6.63096E+06    -45.1311E+06    -5.09806E+06    -1.08706E+06    -14.6677E-03     29.3304E-03    -14.6626E-03     6.01431E-03    -14.6281E-03     29.1218E-03    -14.6131E-03     5.99947E-03
             655     2.66083E-03     75.8049E-03    -5.21262E+06    -44.2625E+06    -2.80365E+06    -1.25139E+06    -14.6954E-03     29.3699E-03    -14.6745E-03     9.08996E-03    -14.6533E-03     29.1604E-03    -14.6168E-03     9.07256E-03
             656     3.54780E-03     75.8145E-03    -3.75492E+06    -42.8709E+06    -144.411E+03    -1.72663E+06    -14.7584E-03     29.4508E-03    -14.6924E-03     12.2884E-03    -14.7151E-03     29.2424E-03    -14.6255E-03     12.2644E-03
             657     4.43453E-03     75.8277E-03    -2.99726E+06    -43.7503E+06     1.86586E+06    -2.39780E+06    -14.7996E-03     29.5139E-03    -14.7143E-03     15.6335E-03    -14.7543E-03     29.2972E-03    -14.6372E-03     15.6003E-03
             658     5.32151E-03     75.8434E-03    -2.56057E+06    -44.4880E+06     2.96991E+06    -2.56142E+06    -14.7848E-03     29.5105E-03    -14.7257E-03     19.1126E-03    -14.7381E-03     29.2882E-03    -14.6426E-03     19.0767E-03
             659     6.20831E-03     75.8631E-03    -2.02071E+06    -44.4680E+06     3.14150E+06    -2.13293E+06    -14.7551E-03     29.4762E-03    -14.7211E-03     22.7747E-03    -14.7064E-03     29.2533E-03    -14.6380E-03     22.7436E-03
             660     7.09557E-03     75.8855E-03    -1.28239E+06    -44.8544E+06     3.35519E+06    -1.99318E+06    -14.7963E-03     29.5089E-03    -14.7127E-03     26.6686E-03    -14.7441E-03     29.2833E-03    -14.6290E-03     26.6384E-03
             661     7.98233E-03     75.9124E-03    -652.990E+03    -46.6609E+06     3.24465E+06    -2.53586E+06    -14.8865E-03     29.5940E-03    -14.7075E-03     30.7861E-03    -14.8293E-03     29.3594E-03    -14.6226E-03     30.7475E-03
             662     8.86943E-03     75.9422E-03     7.66812E+03    -48.2191E+06     1.77869E+06    -3.00612E+06    -14.9209E-03     29.6164E-03    -14.6954E-03     35.1634E-03    -14.8573E-03     29.3765E-03    -14.6166E-03     35.1170E-03
             663     9.75625E-03     75.9775E-03     592.126E+03    -47.8112E+06    -11.1091E+03    -3.10324E+06    -14.9414E-03     29.6162E-03    -14.6749E-03     39.6777E-03    -14.8749E-03     29.3822E-03    -14.6065E-03     39.6276E-03
             664     10.6438E-03     76.0158E-03     1.33316E+06    -49.5906E+06    -1.63110E+06    -2.39944E+06    -15.0368E-03     29.6931E-03    -14.6563E-03     44.3898E-03    -14.9652E-03     29.4550E-03    -14.5945E-03     44.3453E-03
             665     11.5302E-03     76.0603E-03     1.56474E+06    -39.7889E+06    -2.25895E+06    -2.07126E+06    -15.0895E-03     29.7155E-03    -14.6261E-03     49.5524E-03    -15.0358E-03     29.5327E-03    -14.5819E-03     49.5077E-03
             666     12.4182E-03     76.1083E-03     1.30560E+06    -29.1004E+06    -106.098E+03    -2.13485E+06    -15.2981E-03     29.9083E-03    -14.6102E-03     56.8243E-03    -15.2758E-03     29.7876E-03    -14.5704E-03     56.7724E-03
             667     13.3043E-03     76.1671E-03     393.418E+03    -34.8332E+06    -9.75625E+06    -2.28507E+06    -15.4825E-03     30.0460E-03    -14.5635E-03     62.4264E-03    -15.4623E-03     29.9318E-03    -14.5624E-03     62.3651E-03
             668     14.1926E-03     76.2260E-03     119.456E+03    -21.4799E+06    -17.8169E+06    -2.12251E+06    -15.7509E-03     30.2545E-03    -14.5036E-03     65.9281E-03    -15.7669E-03     30.2463E-03    -14.5617E-03     65.8658E-03
             669     15.0765E-03     76.2926E-03    -800.598E+03     26.5955E+06    -17.7259E+06    -1.69745E+06    -17.9061E-03     32.3807E-03    -14.4746E-03     91.8542E-03    -18.1535E-03     32.7711E-03    -14.6006E-03     91.8071E-03
             670     15.9670E-03     76.4016E-03    -4.84144E+06     63.0245E+06    -34.8648E+06    -844.491E+03    -20.6136E-03     35.0156E-03    -14.4020E-03     152.798E-03    -21.9758E-03     36.6855E-03    -14.6607E-03     153.217E-03
             671     16.8511E-03     76.5779E-03    -4.00849E+06     115.502E+06    -2.66339E+06     758.425E+03    -19.3038E-03     33.7922E-03    -14.4884E-03     175.325E-03    -22.0758E-03     36.9678E-03    -14.6634E-03     177.633E-03
             672     886.883E-06     76.7696E-03    -7.67285E+06    -43.8607E+06    -7.08516E+06    -762.817E+03    -14.6514E-03     29.3425E-03    -14.6910E-03     3.23347E-03    -14.6157E-03     29.1448E-03    -14.6517E-03     3.22318E-03
             673     1.77385E-03     76.7742E-03    -6.91164E+06    -43.8436E+06    -5.23269E+06    -1.37438E+06    -14.6713E-03     29.3494E-03    -14.6781E-03     6.05142E-03    -14.6347E-03     29.1478E-03    -14.6307E-03     6.03287E-03
             674     2.66080E-03     76.7809E-03    -5.68518E+06    -43.4523E+06    -2.56670E+06    -1.94946E+06    -14.7034E-03     29.3931E-03    -14.6896E-03     9.11636E-03    -14.6653E-03     29.1879E-03    -14.6312E-03     9.08995E-03
             675     3.54766E-03     76.7911E-03    -4.40457E+06    -42.0239E+06    -151.216E+03    -1.98899E+06    -14.7215E-03     29.4224E-03    -14.7009E-03     12.3192E-03    -14.6826E-03     29.2191E-03    -14.6343E-03     12.2918E-03
             676     4.43469E-03     76.8038E-03    -3.36188E+06    -42.8587E+06     1.63861E+06    -1.98643E+06    -14.7445E-03     29.4554E-03    -14.7109E-03     15.6590E-03    -14.7020E-03     29.2441E-03    -14.6357E-03     15.6311E-03
             677     5.32146E-03     76.8201E-03    -2.76534E+06    -44.1919E+06     2.72979E+06    -2.03374E+06    -14.7517E-03     29.4675E-03    -14.7158E-03     19.1410E-03    -14.7061E-03     29.2473E-03    -14.6341E-03     19.1119E-03
             678     6.20860E-03     76.8390E-03    -2.20104E+06    -44.3550E+06     2.52305E+06    -2.12186E+06    -14.7606E-03     29.4693E-03    -14.7087E-03     22.7889E-03    -14.7121E-03     29.2481E-03    -14.6285E-03     22.7579E-03
             679     7.09537E-03     76.8621E-03    -1.53493E+06    -44.4558E+06     1.64971E+06    -2.23624E+06    -14.7907E-03     29.4863E-03    -14.6957E-03     26.6855E-03    -14.7379E-03     29.2655E-03    -14.6207E-03     26.6522E-03
             680     7.98261E-03     76.8883E-03    -1.16530E+06    -45.6110E+06     1.78774E+06    -2.44124E+06    -14.8692E-03     29.5600E-03    -14.6908E-03     30.8095E-03    -14.8140E-03     29.3336E-03    -14.6141E-03     30.7722E-03
             681     8.86939E-03     76.9190E-03    -1.31311E+06    -47.3655E+06     1.30534E+06    -3.07396E+06    -14.9948E-03     29.6838E-03    -14.6891E-03     35.1495E-03    -14.9384E-03     29.4508E-03    -14.6120E-03     35.1021E-03
             682     9.75656E-03     76.9531E-03    -1.48854E+06    -47.5935E+06    -1.20553E+06    -3.38910E+06    -15.0920E-03     29.7703E-03    -14.6782E-03     39.6706E-03    -15.0347E-03     29.5422E-03    -14.6131E-03     39.6166E-03
             683     10.6430E-03     76.9926E-03    -1.33261E+06    -49.9015E+06    -3.72931E+06    -3.53451E+06    -15.1705E-03     29.8393E-03    -14.6689E-03     44.4601E-03    -15.1089E-03     29.6067E-03    -14.6132E-03     44.4007E-03
             684     11.5306E-03     77.0357E-03    -275.352E+03    -39.8556E+06    -4.00630E+06    -3.09586E+06    -15.2686E-03     29.9184E-03    -14.6498E-03     49.7251E-03    -15.2216E-03     29.7405E-03    -14.6116E-03     49.6669E-03
             685     12.4167E-03     77.0853E-03     799.820E+03    -29.3192E+06    -1.13728E+06    -2.49461E+06    -15.5141E-03     30.1613E-03    -14.6472E-03     57.4339E-03    -15.4931E-03     30.0423E-03    -14.6115E-03     57.3768E-03
             686     13.3041E-03     77.1428E-03     1.58954E+06    -34.1077E+06    -9.37876E+06    -2.48260E+06    -15.7815E-03     30.3980E-03    -14.6165E-03     63.2278E-03    -15.7576E-03     30.2859E-03    -14.6163E-03     63.1630E-03
             687     14.1896E-03     77.2029E-03     826.052E+03    -22.3164E+06    -18.5916E+06    -2.43635E+06    -16.0046E-03     30.5691E-03    -14.5645E-03     67.9606E-03    -16.0186E-03     30.5608E-03    -14.6263E-03     67.8931E-03
             688     15.0785E-03     77.2694E-03    -822.983E+03     26.2308E+06    -18.1735E+06    -1.88578E+06    -17.1824E-03     31.6971E-03    -14.5147E-03     94.9710E-03    -17.4401E-03     32.0977E-03    -14.6424E-03     94.9324E-03
             689     15.9607E-03     77.3786E-03    -2.70562E+06     61.4930E+06    -33.4708E+06     229.664E+03    -19.5737E-03     33.9696E-03    -14.3958E-03     152.599E-03    -20.8817E-03     35.5833E-03    -14.6484E-03     153.045E-03
             690     16.8504E-03     77.5527E-03    -924.204E+03     113.768E+06    -2.23336E+06     359.069E+03    -19.0858E-03     33.5300E-03    -14.4442E-03     175.280E-03    -21.8272E-03     36.6785E-03    -14.6190E-03     177.602E-03
             691     886.937E-06     77.7463E-03    -6.52313E+06    -42.5970E+06    -6.14413E+06    -571.977E+03    -14.6827E-03     29.3501E-03    -14.6675E-03     3.24291E-03    -14.6444E-03     29.1557E-03    -14.6270E-03     3.23509E-03
             692     1.77387E-03     77.7502E-03    -6.36991E+06    -42.4028E+06    -4.43511E+06    -1.11985E+06    -14.6994E-03     29.3859E-03    -14.6865E-03     6.09155E-03    -14.6633E-03     29.1896E-03    -14.6379E-03     6.07629E-03
             693     2.66071E-03     77.7576E-03    -5.96659E+06    -42.2403E+06    -2.50827E+06    -1.75647E+06    -14.6968E-03     29.3956E-03    -14.6988E-03     9.15904E-03    -14.6619E-03     29.1969E-03    -14.6415E-03     9.13515E-03
             694     3.54769E-03     77.7672E-03    -5.27195E+06    -41.5786E+06    -1.36015E+06    -2.02660E+06    -14.6837E-03     29.3824E-03    -14.6987E-03     12.3643E-03    -14.6481E-03     29.1844E-03    -14.6375E-03     12.3365E-03
             695     4.43457E-03     77.7804E-03    -4.30734E+06    -42.2940E+06    -81.8175E+03    -2.05574E+06    -14.6754E-03     29.3709E-03    -14.6954E-03     15.6551E-03    -14.6360E-03     29.1662E-03    -14.6283E-03     15.6263E-03
             696     5.32175E-03     77.7961E-03    -3.04846E+06    -43.7486E+06     1.21290E+06    -2.12166E+06    -14.7153E-03     29.4082E-03    -14.6929E-03     19.1147E-03    -14.6696E-03     29.1929E-03    -14.6190E-03     19.0845E-03
             697     6.20852E-03     77.8156E-03    -1.77509E+06    -43.6321E+06     1.79326E+06    -2.45522E+06    -14.7819E-03     29.4708E-03    -14.6889E-03     22.7747E-03    -14.7312E-03     29.2537E-03    -14.6141E-03     22.7395E-03
             698     7.09565E-03     77.8380E-03    -760.377E+03    -44.1896E+06     2.80980E+06    -2.62493E+06    -14.8264E-03     29.5171E-03    -14.6907E-03     26.6574E-03    -14.7719E-03     29.2948E-03    -14.6115E-03     26.6190E-03
             699     7.98246E-03     77.8648E-03     491.311E+03    -44.7159E+06     4.32314E+06    -2.92263E+06    -14.8986E-03     29.5936E-03    -14.6950E-03     30.7935E-03    -14.8401E-03     29.3656E-03    -14.6093E-03     30.7499E-03
             700     8.86963E-03     77.8950E-03     2.12386E+06    -46.5187E+06     4.79198E+06    -3.26509E+06    -15.0316E-03     29.7302E-03    -14.6986E-03     35.1238E-03    -14.9643E-03     29.4915E-03    -14.6103E-03     35.0739E-03
             701     9.75613E-03     77.9300E-03     3.05334E+06    -47.2556E+06     2.47800E+06    -3.39041E+06    -15.1550E-03     29.8463E-03    -14.6913E-03     39.7089E-03    -15.0808E-03     29.6080E-03    -14.6148E-03     39.6548E-03
             702     10.6435E-03     77.9685E-03     3.15883E+06    -49.0631E+06    -574.852E+03    -3.73943E+06    -15.2366E-03     29.9189E-03    -14.6823E-03     44.6077E-03    -15.1584E-03     29.6795E-03    -14.6186E-03     44.5455E-03
             703     11.5297E-03     78.0126E-03     2.40523E+06    -40.8418E+06    -3.20647E+06    -3.49458E+06    -15.2724E-03     29.9298E-03    -14.6574E-03     50.1137E-03    -15.2118E-03     29.7421E-03    -14.6177E-03     50.0503E-03
             704     12.4175E-03     78.0611E-03     1.87138E+06    -28.9906E+06    -1.44773E+06    -3.11546E+06    -15.4311E-03     30.0759E-03    -14.6448E-03     58.1357E-03    -15.4049E-03     29.9576E-03    -14.6127E-03     58.0708E-03
             705     13.3039E-03     78.1198E-03     1.82090E+06    -33.7424E+06    -9.79416E+06    -3.55786E+06    -15.6421E-03     30.2476E-03    -14.6055E-03     64.0866E-03    -15.6176E-03     30.1382E-03    -14.6082E-03     64.0082E-03
             706     14.1919E-03     78.1790E-03     2.15255E+06    -22.6335E+06    -18.9443E+06    -3.36367E+06    -15.8364E-03     30.3782E-03    -14.5418E-03     69.1118E-03    -15.8452E-03     30.3692E-03    -14.6069E-03     69.0329E-03
             707     15.0771E-03     78.2461E-03     1.06218E+06     23.5142E+06    -18.9962E+06    -530.844E+03    -16.4151E-03     30.8784E-03    -14.4633E-03     96.0123E-03    -16.6559E-03     31.2615E-03    -14.5939E-03     95.9965E-03
             708     15.9682E-03     78.3561E-03     536.301E+03     61.3087E+06    -32.4631E+06     395.866E+03    -18.8773E-03     33.1828E-03    -14.3055E-03     153.644E-03    -20.1765E-03     34.7957E-03    -14.5575E-03     154.093E-03
             709     16.8550E-03     78.5276E-03    -501.009E+03     115.670E+06     1.34504E+06    -976.131E+03    -20.6414E-03     35.0300E-03    -14.3886E-03     176.789E-03    -23.4333E-03     38.2269E-03    -14.5489E-03     179.033E-03
             710     886.980E-06     78.7223E-03    -6.92395E+06    -41.7840E+06    -6.11296E+06    -271.075E+03    -14.6890E-03     29.3480E-03    -14.6590E-03     3.26283E-03    -14.6540E-03     29.1583E-03    -14.6189E-03     3.25890E-03
             711     1.77378E-03     78.7269E-03    -6.24059E+06    -41.3508E+06    -3.93214E+06    -610.538E+03    -14.6858E-03     29.3713E-03    -14.6855E-03     6.11060E-03    -14.6514E-03     29.1793E-03    -14.6361E-03     6.10193E-03
             712     2.66079E-03     78.7336E-03    -5.49544E+06    -40.9976E+06    -2.28989E+06    -1.14123E+06    -14.6715E-03     29.3616E-03    -14.6900E-03     9.18417E-03    -14.6364E-03     29.1680E-03    -14.6341E-03     9.16824E-03
             713     3.54770E-03     78.7438E-03    -4.82663E+06    -40.6755E+06    -1.17053E+06    -1.84410E+06    -14.6599E-03     29.3455E-03    -14.6856E-03     12.3710E-03    -14.6236E-03     29.1511E-03    -14.6255E-03     12.3456E-03
             714     4.43476E-03     78.7563E-03    -3.92355E+06    -41.5394E+06    -414.686E+03    -2.36492E+06    -14.6745E-03     29.3541E-03    -14.6796E-03     15.6562E-03    -14.6337E-03     29.1531E-03    -14.6157E-03     15.6235E-03
             715     5.32162E-03     78.7726E-03    -2.64473E+06    -42.8313E+06     813.721E+03    -3.01197E+06    -14.7239E-03     29.4029E-03    -14.6790E-03     19.1127E-03    -14.6769E-03     29.1921E-03    -14.6090E-03     19.0710E-03
             716     6.20876E-03     78.7917E-03    -885.862E+03    -42.6567E+06     2.71724E+06    -3.56231E+06    -14.7873E-03     29.4705E-03    -14.6831E-03     22.7325E-03    -14.7349E-03     29.2556E-03    -14.6064E-03     22.6829E-03
             717     7.09555E-03     78.8146E-03     1.00473E+06    -44.0958E+06     5.15988E+06    -3.53734E+06    -14.8718E-03     29.5675E-03    -14.6957E-03     26.5931E-03    -14.8120E-03     29.3398E-03    -14.6075E-03     26.5428E-03
             718     7.98260E-03     78.8409E-03     2.22102E+06    -43.7244E+06     6.02705E+06    -3.59934E+06    -14.9318E-03     29.6318E-03    -14.7000E-03     30.7866E-03    -14.8686E-03     29.4037E-03    -14.6096E-03     30.7343E-03
             719     8.86926E-03     78.8717E-03     2.55555E+06    -45.9901E+06     4.46106E+06    -3.98258E+06    -14.9801E-03     29.6749E-03    -14.6948E-03     35.2112E-03    -14.9110E-03     29.4387E-03    -14.6095E-03     35.1521E-03
             720     9.75663E-03     78.9060E-03     2.79132E+06    -47.0442E+06     1.12120E+06    -3.82067E+06    -15.0759E-03     29.7536E-03    -14.6777E-03     39.8602E-03    -15.0013E-03     29.5187E-03    -14.6079E-03     39.8006E-03
             721     10.6430E-03     78.9453E-03     2.49942E+06    -48.4564E+06    -1.86058E+06    -3.63159E+06    -15.1654E-03     29.8286E-03    -14.6632E-03     44.7441E-03    -15.0895E-03     29.5949E-03    -14.6059E-03     44.6835E-03
             722     11.5307E-03     78.9883E-03     2.36843E+06    -41.0746E+06    -3.70893E+06    -3.60411E+06    -15.1986E-03     29.8363E-03    -14.6377E-03     50.2353E-03    -15.1372E-03     29.6482E-03    -14.6001E-03     50.1706E-03
             723     12.4173E-03     79.0377E-03     2.75188E+06    -28.7682E+06    -2.12204E+06    -3.58487E+06    -15.3352E-03     29.9523E-03    -14.6171E-03     58.2216E-03    -15.3041E-03     29.8349E-03    -14.5900E-03     58.1507E-03
             724     13.3050E-03     79.0956E-03     2.73155E+06    -32.3021E+06    -9.26469E+06    -4.20120E+06    -15.4980E-03     30.0736E-03    -14.5756E-03     63.8169E-03    -15.4719E-03     29.9694E-03    -14.5790E-03     63.7305E-03
             725     14.1914E-03     79.1552E-03     1.08699E+06    -24.6247E+06    -19.8031E+06    -3.46690E+06    -15.6044E-03     30.1079E-03    -14.5035E-03     68.8637E-03    -15.6143E-03     30.0916E-03    -14.5684E-03     68.7842E-03
             726     15.0798E-03     79.2230E-03     789.094E+03     21.3961E+06    -19.3446E+06    -2.19875E+06    -16.1786E-03     30.5970E-03    -14.4184E-03     94.0993E-03    -16.4109E-03     30.9642E-03    -14.5472E-03     94.0626E-03
             727     15.9665E-03     79.3279E-03     1.12773E+06     62.2432E+06    -31.2403E+06    -974.058E+03    -19.2790E-03     33.5566E-03    -14.2776E-03     150.854E-03    -20.5732E-03     35.1664E-03    -14.5257E-03     151.269E-03
             728     16.8540E-03     79.5075E-03    -1.15723E+06     114.809E+06    -538.741E+03     270.004E+03    -21.1560E-03     35.5380E-03    -14.3820E-03     176.142E-03    -23.9568E-03     38.7438E-03    -14.5495E-03     178.385E-03
             729     886.840E-06     79.6990E-03    -7.05038E+06    -41.3537E+06    -6.59922E+06    -58.3298E+03    -14.6650E-03     29.3403E-03    -14.6753E-03     3.29045E-03    -14.6305E-03     29.1535E-03    -14.6381E-03     3.28930E-03
             730     1.77393E-03     79.7029E-03    -6.39729E+06    -40.5958E+06    -4.77506E+06    -453.120E+03    -14.6433E-03     29.3136E-03    -14.6703E-03     6.10281E-03    -14.6095E-03     29.1268E-03    -14.6260E-03     6.09618E-03
             731     2.66080E-03     79.7102E-03    -5.35500E+06    -39.8837E+06    -2.41139E+06    -1.06229E+06    -14.6474E-03     29.3163E-03    -14.6688E-03     9.16937E-03    -14.6130E-03     29.1282E-03    -14.6153E-03     9.15445E-03
             732     3.54782E-03     79.7198E-03    -4.11500E+06    -39.2375E+06    -93.2427E+03    -1.84979E+06    -14.6590E-03     29.3294E-03    -14.6705E-03     12.3345E-03    -14.6228E-03     29.1396E-03    -14.6081E-03     12.3089E-03
             733     4.43475E-03     79.7328E-03    -2.74136E+06    -40.1892E+06     1.42114E+06    -2.88293E+06    -14.7118E-03     29.3862E-03    -14.6744E-03     15.6417E-03    -14.6698E-03     29.1877E-03    -14.6051E-03     15.6023E-03
             734     5.32177E-03     79.7487E-03    -1.32008E+06    -41.2988E+06     2.97952E+06    -3.83189E+06    -14.7620E-03     29.4450E-03    -14.6830E-03     19.0807E-03    -14.7137E-03     29.2368E-03    -14.6063E-03     19.0283E-03
             735     6.20856E-03     79.7681E-03    -487.167E+03    -41.8623E+06     3.52626E+06    -4.27046E+06    -14.7994E-03     29.4863E-03    -14.6869E-03     22.7156E-03    -14.7473E-03     29.2737E-03    -14.6079E-03     22.6568E-03
             736     7.09563E-03     79.7908E-03    -20.7842E+03    -43.7583E+06     3.25211E+06    -4.29813E+06    -14.8502E-03     29.5384E-03    -14.6882E-03     26.6248E-03    -14.7932E-03     29.3166E-03    -14.6085E-03     26.5647E-03
             737     7.98238E-03     79.8174E-03     636.682E+03    -43.2794E+06     3.87447E+06    -4.06483E+06    -14.8718E-03     29.5596E-03    -14.6877E-03     30.8308E-03    -14.8140E-03     29.3391E-03    -14.6065E-03     30.7725E-03
             738     8.86971E-03     79.8476E-03     1.12506E+06    -45.2535E+06     3.43306E+06    -3.93407E+06    -14.9225E-03     29.6050E-03    -14.6825E-03     35.2562E-03    -14.8600E-03     29.3759E-03    -14.6013E-03     35.1978E-03
             739     9.75636E-03     79.8825E-03     960.670E+03    -47.0715E+06    -551.871E+03    -4.01700E+06    -15.0074E-03     29.6669E-03    -14.6594E-03     39.8520E-03    -14.9396E-03     29.4369E-03    -14.5953E-03     39.7900E-03
             740     10.6440E-03     79.9212E-03     1.24236E+06    -47.7771E+06    -2.75708E+06    -4.10440E+06    -15.1100E-03     29.7536E-03    -14.6435E-03     44.5821E-03    -15.0401E-03     29.5264E-03    -14.5898E-03     44.5154E-03
             741     11.5304E-03     79.9647E-03     1.99975E+06    -40.5930E+06    -3.17863E+06    -4.68493E+06    -15.2078E-03     29.8322E-03    -14.6244E-03     49.9500E-03    -15.1498E-03     29.6464E-03    -14.5843E-03     49.8712E-03
             742     12.4180E-03     80.0136E-03     2.87899E+06    -28.6552E+06    -1.51999E+06    -4.74853E+06    -15.3503E-03     29.9570E-03    -14.6066E-03     57.9216E-03    -15.3196E-03     29.8391E-03    -14.5768E-03     57.8357E-03
             743     13.3046E-03     80.0719E-03     2.47622E+06    -32.1898E+06    -7.78652E+06    -3.72574E+06    -15.5529E-03     30.1270E-03    -14.5741E-03     63.4576E-03    -15.5306E-03     30.0217E-03    -14.5699E-03     63.3771E-03
             744     14.1922E-03     80.1312E-03     1.31969E+06    -25.2967E+06    -18.3640E+06    -3.34195E+06    -15.6067E-03     30.1126E-03    -14.5060E-03     68.0442E-03    -15.6154E-03     30.0895E-03    -14.5630E-03     67.9664E-03
             745     15.0788E-03     80.1982E-03     98.4966E+03     21.0930E+06    -19.5250E+06    -2.92216E+06    -16.9098E-03     31.3464E-03    -14.4366E-03     93.3858E-03    -17.1461E-03     31.7145E-03    -14.5649E-03     93.3336E-03
             746     15.9654E-03     80.3059E-03    -1.82032E+06     60.1326E+06    -33.3096E+06    -1.52619E+06    -20.3943E-03     34.7370E-03    -14.3428E-03     151.149E-03    -21.7108E-03     36.3572E-03    -14.5939E-03     151.538E-03
             747     16.8503E-03     80.4830E-03    -1.60007E+06     113.445E+06    -3.89319E+06    -284.442E+03    -20.3933E-03     34.8338E-03    -14.4405E-03     177.360E-03    -23.2190E-03     38.0678E-03    -14.6221E-03     179.675E-03
             748     886.985E-06     80.6750E-03    -7.11065E+06    -40.8700E+06    -7.01366E+06    -238.265E+03    -14.6451E-03     29.3036E-03    -14.6585E-03     3.25600E-03    -14.6111E-03     29.1200E-03    -14.6240E-03     3.25252E-03
             749     1.77383E-03     80.6794E-03    -6.44285E+06    -39.8205E+06    -5.72183E+06    -702.529E+03    -14.6341E-03     29.2833E-03    -14.6493E-03     6.08683E-03    -14.6003E-03     29.1019E-03    -14.6108E-03     6.07697E-03
             750     2.66090E-03     80.6862E-03    -5.47420E+06    -38.5229E+06    -3.01223E+06    -1.42085E+06    -14.6361E-03     29.2870E-03    -14.6509E-03     9.13052E-03    -14.6034E-03     29.1069E-03    -14.6022E-03     9.11096E-03
             751     3.54785E-03     80.6962E-03    -3.87514E+06    -37.5915E+06     326.129E+03    -2.44679E+06    -14.6844E-03     29.3462E-03    -14.6618E-03     12.3187E-03    -14.6500E-03     29.1636E-03    -14.6000E-03     12.2855E-03
             752     4.43479E-03     80.7090E-03    -2.35013E+06    -38.5199E+06     2.94815E+06    -3.30730E+06    -14.7392E-03     29.4178E-03    -14.6785E-03     15.6238E-03    -14.6999E-03     29.2248E-03    -14.6045E-03     15.5789E-03
             753     5.32162E-03     80.7252E-03    -1.63759E+06    -39.9640E+06     3.92370E+06    -3.81639E+06    -14.7632E-03     29.4523E-03    -14.6891E-03     19.0547E-03    -14.7199E-03     29.2499E-03    -14.6092E-03     19.0026E-03
             754     6.20867E-03     80.7443E-03    -1.40864E+06    -41.2465E+06     3.16462E+06    -3.91128E+06    -14.7710E-03     29.4579E-03    -14.6869E-03     22.7304E-03    -14.7239E-03     29.2502E-03    -14.6092E-03     22.6763E-03
             755     7.09550E-03     80.7672E-03    -1.25521E+06    -42.6763E+06     1.99950E+06    -4.30533E+06    -14.7830E-03     29.4611E-03    -14.6781E-03     26.6680E-03    -14.7319E-03     29.2483E-03    -14.6044E-03     26.6079E-03
             756     7.98277E-03     80.7935E-03    -563.425E+03    -42.8976E+06     2.13357E+06    -4.80390E+06    -14.8397E-03     29.5112E-03    -14.6715E-03     30.8277E-03    -14.7859E-03     29.2969E-03    -14.5978E-03     30.7599E-03
             757     8.86951E-03     80.8241E-03     657.861E+03    -45.1652E+06     2.63371E+06    -4.51423E+06    -14.9314E-03     29.6017E-03    -14.6703E-03     35.1843E-03    -14.8703E-03     29.3749E-03    -14.5926E-03     35.1184E-03
             758     9.75685E-03     80.8585E-03     1.92968E+06    -46.2106E+06     346.606E+03    -4.54405E+06    -15.0219E-03     29.6764E-03    -14.6545E-03     39.7104E-03    -14.9517E-03     29.4480E-03    -14.5886E-03     39.6415E-03
             759     10.6433E-03     80.8975E-03     2.67742E+06    -47.1337E+06    -2.70756E+06    -5.12708E+06    -15.1388E-03     29.7750E-03    -14.6362E-03     44.4791E-03    -15.0627E-03     29.5489E-03    -14.5853E-03     44.3991E-03
             760     11.5308E-03     80.9409E-03     2.63579E+06    -39.6923E+06    -3.20194E+06    -5.25889E+06    -15.2409E-03     29.8610E-03    -14.6201E-03     49.8230E-03    -15.1810E-03     29.6788E-03    -14.5824E-03     49.7368E-03
             761     12.4174E-03     80.9898E-03     1.75139E+06    -28.9156E+06    -2.51419E+06    -5.03875E+06    -15.4070E-03     30.0124E-03    -14.6054E-03     57.8036E-03    -15.3800E-03     29.8963E-03    -14.5786E-03     57.7139E-03
             762     13.3048E-03     81.0481E-03     2.04120E+06    -32.8251E+06    -10.0881E+06    -4.60847E+06    -15.6511E-03     30.2221E-03    -14.5711E-03     63.4283E-03    -15.6265E-03     30.1175E-03    -14.5769E-03     63.3363E-03
             763     14.1912E-03     81.1075E-03     2.18699E+06    -25.7180E+06    -19.2698E+06    -3.54390E+06    -15.8970E-03     30.4162E-03    -14.5192E-03     67.8818E-03    -15.8994E-03     30.3909E-03    -14.5814E-03     67.8004E-03
             764     15.0785E-03     81.1744E-03     968.773E+03     19.6629E+06    -20.2963E+06    -2.16177E+06    -17.1368E-03     31.6005E-03    -14.4638E-03     94.6633E-03    -17.3707E-03     31.9666E-03    -14.5952E-03     94.6202E-03
             765     15.9640E-03     81.2843E-03     477.968E+03     58.6638E+06    -33.6799E+06    -1.64048E+06    -20.3189E-03     34.6860E-03    -14.3671E-03     152.928E-03    -21.6350E-03     36.3097E-03    -14.6213E-03     153.328E-03
             766     16.8512E-03     81.4595E-03    -549.404E+03     112.829E+06    -3.77031E+06    -1.00443E+06    -20.1689E-03     34.6231E-03    -14.4542E-03     177.896E-03    -22.9997E-03     37.8634E-03    -14.6358E-03     180.227E-03
             767     886.929E-06     81.6514E-03    -7.09590E+06    -39.9033E+06    -6.82069E+06    -834.335E+03    -14.6398E-03     29.2709E-03    -14.6311E-03     3.22089E-03    -14.6074E-03     29.0918E-03    -14.5971E-03     3.20968E-03
             768     1.77397E-03     81.6555E-03    -5.99620E+06    -38.5847E+06    -5.01761E+06    -1.33934E+06    -14.6507E-03     29.2923E-03    -14.6416E-03     6.06918E-03    -14.6175E-03     29.1154E-03    -14.6020E-03     6.05108E-03
             769     2.66085E-03     81.6626E-03    -4.63416E+06    -37.0224E+06    -2.54828E+06    -2.03164E+06    -14.6742E-03     29.3274E-03    -14.6532E-03     9.09502E-03    -14.6401E-03     29.1528E-03    -14.6055E-03     9.06755E-03
             770     3.54782E-03     81.6724E-03    -3.57350E+06    -35.9053E+06     856.454E+03    -2.75819E+06    -14.6908E-03     29.3612E-03    -14.6704E-03     12.2964E-03    -14.6581E-03     29.1859E-03    -14.6089E-03     12.2591E-03
             771     4.43469E-03     81.6855E-03    -2.63116E+06    -37.1639E+06     2.97071E+06    -3.33021E+06    -14.7069E-03     29.3894E-03    -14.6825E-03     15.6242E-03    -14.6710E-03     29.2035E-03    -14.6099E-03     15.5790E-03
             772     5.32171E-03     81.7014E-03    -1.60881E+06    -39.0338E+06     3.45507E+06    -3.57718E+06    -14.7261E-03     29.4104E-03    -14.6843E-03     19.0895E-03    -14.6833E-03     29.2133E-03    -14.6081E-03     19.0405E-03
             773     6.20858E-03     81.7207E-03    -494.615E+03    -40.3277E+06     3.46273E+06    -3.97198E+06    -14.7441E-03     29.4241E-03    -14.6800E-03     22.7267E-03    -14.6942E-03     29.2193E-03    -14.6035E-03     22.6718E-03
             774     7.09578E-03     81.7432E-03     599.345E+03    -41.4270E+06     3.53313E+06    -4.44573E+06    -14.7885E-03     29.4628E-03    -14.6743E-03     26.6153E-03    -14.7322E-03     29.2514E-03    -14.5975E-03     26.5534E-03
             775     7.98258E-03     81.7699E-03     977.798E+03    -41.8592E+06     3.42122E+06    -4.96386E+06    -14.8655E-03     29.5348E-03    -14.6692E-03     30.7682E-03    -14.8074E-03     29.3216E-03    -14.5929E-03     30.6982E-03
             776     8.86976E-03     81.8002E-03     1.45595E+06    -44.7092E+06     3.09211E+06    -5.59285E+06    -14.9562E-03     29.6249E-03    -14.6686E-03     35.1276E-03    -14.8925E-03     29.3986E-03    -14.5905E-03     35.0477E-03
             777     9.75642E-03     81.8349E-03     2.36424E+06    -45.4873E+06     1.14924E+06    -5.75200E+06    -15.0491E-03     29.7064E-03    -14.6573E-03     39.6775E-03    -14.9790E-03     29.4799E-03    -14.5890E-03     39.5930E-03
             778     10.6439E-03     81.8736E-03     2.72054E+06    -46.3103E+06    -1.83036E+06    -5.74595E+06    -15.1615E-03     29.8035E-03    -14.6420E-03     44.4564E-03    -15.0876E-03     29.5802E-03    -14.5879E-03     44.3684E-03
             779     11.5304E-03     81.9172E-03     2.68223E+06    -39.7425E+06    -1.86157E+06    -5.44590E+06    -15.2693E-03     29.9008E-03    -14.6315E-03     49.7674E-03    -15.2111E-03     29.7164E-03    -14.5870E-03     49.6787E-03
             780     12.4178E-03     81.9660E-03     3.28355E+06    -28.4622E+06    -294.988E+03    -5.21746E+06    -15.4886E-03     30.1105E-03    -14.6218E-03     57.7617E-03    -15.4580E-03     29.9913E-03    -14.5868E-03     57.6694E-03
             781     13.3044E-03     82.0244E-03     2.69280E+06    -33.2067E+06    -9.41854E+06    -5.09900E+06    -15.7277E-03     30.3144E-03    -14.5868E-03     63.4355E-03    -15.7003E-03     30.2061E-03    -14.5896E-03     63.3368E-03
             782     14.1916E-03     82.0840E-03     1.84168E+06    -26.9537E+06    -18.8559E+06    -4.39786E+06    -15.9239E-03     30.4624E-03    -14.5384E-03     68.1971E-03    -15.9275E-03     30.4315E-03    -14.5963E-03     68.1043E-03
             783     15.0778E-03     82.1510E-03     2.37742E+06     18.3721E+06    -19.7788E+06    -3.54719E+06    -16.8425E-03     31.3139E-03    -14.4713E-03     95.2637E-03    -17.0706E-03     31.6730E-03    -14.6003E-03     95.2060E-03
             784     15.9661E-03     82.2608E-03     663.352E+03     57.3043E+06    -34.1807E+06    -1.62724E+06    -19.9114E-03     34.2612E-03    -14.3497E-03     153.500E-03    -21.2310E-03     35.8857E-03    -14.6047E-03     153.915E-03
             785     16.8521E-03     82.4373E-03    -985.634E+03     112.493E+06    -4.59739E+06    -284.329E+03    -20.3400E-03     34.7695E-03    -14.4296E-03     176.824E-03    -23.1516E-03     37.9904E-03    -14.6142E-03     179.146E-03
             786     886.980E-06     82.6275E-03    -5.78592E+06    -38.0765E+06    -5.67999E+06    -1.13939E+06    -14.6719E-03     29.2973E-03    -14.6254E-03     3.23876E-03    -14.6372E-03     29.1238E-03    -14.5902E-03     3.22361E-03
             787     1.77387E-03     82.6319E-03    -5.28050E+06    -36.8079E+06    -4.29018E+06    -1.98427E+06    -14.6785E-03     29.3349E-03    -14.6564E-03     6.03978E-03    -14.6454E-03     29.1648E-03    -14.6168E-03     6.01335E-03
             788     2.66082E-03     82.6389E-03    -4.33740E+06    -35.6960E+06    -1.92501E+06    -2.52843E+06    -14.6882E-03     29.3598E-03    -14.6716E-03     9.10512E-03    -14.6555E-03     29.1906E-03    -14.6232E-03     9.07124E-03
             789     3.54766E-03     82.6489E-03    -3.26867E+06    -34.6714E+06     786.117E+03    -2.68575E+06    -14.6656E-03     29.3460E-03    -14.6804E-03     12.3049E-03    -14.6331E-03     29.1765E-03    -14.6215E-03     12.2685E-03
             790     4.43475E-03     82.6617E-03    -2.36829E+06    -35.8454E+06     2.68667E+06    -3.10258E+06    -14.6481E-03     29.3287E-03    -14.6806E-03     15.6296E-03    -14.6123E-03     29.1494E-03    -14.6117E-03     15.5873E-03
             791     5.32170E-03     82.6778E-03    -1.43958E+06    -37.8057E+06     2.84253E+06    -3.88266E+06    -14.6827E-03     29.3547E-03    -14.6720E-03     19.0938E-03    -14.6399E-03     29.1643E-03    -14.6009E-03     19.0409E-03
             792     6.20882E-03     82.6968E-03    -238.056E+03    -38.7598E+06     2.72077E+06    -4.79901E+06    -14.7640E-03     29.4294E-03    -14.6654E-03     22.7276E-03    -14.7141E-03     29.2332E-03    -14.5953E-03     22.6621E-03
             793     7.09559E-03     82.7197E-03     974.883E+03    -40.7546E+06     3.96137E+06    -5.17882E+06    -14.8458E-03     29.5182E-03    -14.6725E-03     26.5849E-03    -14.7892E-03     29.3090E-03    -14.5950E-03     26.5134E-03
             794     7.98272E-03     82.7460E-03     2.19627E+06    -40.7180E+06     5.46766E+06    -5.19479E+06    -14.8877E-03     29.5661E-03    -14.6784E-03     30.7139E-03    -14.8282E-03     29.3539E-03    -14.5952E-03     30.6410E-03
             795     8.86952E-03     82.7766E-03     2.61471E+06    -43.3535E+06     4.71517E+06    -5.71135E+06    -14.9509E-03     29.6269E-03    -14.6761E-03     35.0818E-03    -14.8856E-03     29.4034E-03    -14.5934E-03     35.0003E-03
             796     9.75677E-03     82.8110E-03     2.45434E+06    -44.8265E+06     2.64853E+06    -6.25620E+06    -15.0562E-03     29.7228E-03    -14.6665E-03     39.6792E-03    -14.9889E-03     29.4973E-03    -14.5918E-03     39.5882E-03
             797     10.6433E-03     82.8500E-03     2.68191E+06    -45.8853E+06     371.326E+03    -6.24846E+06    -15.1901E-03     29.8469E-03    -14.6568E-03     44.4627E-03    -15.1204E-03     29.6227E-03    -14.5923E-03     44.3681E-03
             798     11.5306E-03     82.8934E-03     3.13468E+06    -39.6855E+06    -1.23756E+06    -6.07476E+06    -15.3178E-03     29.9588E-03    -14.6409E-03     49.7859E-03    -15.2584E-03     29.7731E-03    -14.5941E-03     49.6890E-03
             799     12.4172E-03     82.9423E-03     3.08323E+06    -28.2597E+06     108.577E+03    -5.77963E+06    -15.5181E-03     30.1512E-03    -14.6331E-03     57.8755E-03    -15.4895E-03     30.0329E-03    -14.5961E-03     57.7758E-03
             800     13.3043E-03     83.0009E-03     3.20541E+06    -33.5516E+06    -7.83590E+06    -5.10462E+06    -15.7106E-03     30.3139E-03    -14.6034E-03     63.5818E-03    -15.6828E-03     30.2011E-03    -14.5985E-03     63.4829E-03
             801     14.1909E-03     83.0600E-03     3.08057E+06    -26.3426E+06    -17.5555E+06    -5.53324E+06    -15.7893E-03     30.3348E-03    -14.5455E-03     68.4164E-03    -15.7899E-03     30.3037E-03    -14.5996E-03     68.3093E-03
             802     15.0786E-03     83.1277E-03     2.00024E+06     16.6684E+06    -19.8227E+06    -4.87475E+06    -16.8386E-03     31.3116E-03    -14.4730E-03     95.1857E-03    -17.0687E-03     31.6654E-03    -14.5992E-03     95.1111E-03
             803     15.9648E-03     83.2363E-03     474.490E+03     54.6526E+06    -34.7348E+06    -1.37846E+06    -19.8415E-03     34.1900E-03    -14.3485E-03     153.354E-03    -21.1630E-03     35.8080E-03    -14.6021E-03     153.779E-03
             804     16.8518E-03     83.4152E-03    -737.054E+03     112.106E+06    -5.36066E+06     328.661E+03    -20.3697E-03     34.7923E-03    -14.4227E-03     176.763E-03    -23.1799E-03     38.0134E-03    -14.6109E-03     179.089E-03
             805     886.925E-06     83.6041E-03    -5.00913E+06    -35.8096E+06    -4.93622E+06    -1.09991E+06    -14.7072E-03     29.3543E-03    -14.6472E-03     3.28754E-03    -14.6730E-03     29.1900E-03    -14.6127E-03     3.27290E-03
             806     1.77381E-03     83.6082E-03    -4.86048E+06    -34.8209E+06    -3.80740E+06    -2.00307E+06    -14.6802E-03     29.3594E-03    -14.6792E-03     6.07223E-03    -14.6486E-03     29.1980E-03    -14.6407E-03     6.04557E-03
             807     2.66073E-03     83.6153E-03    -4.48595E+06    -34.3718E+06    -2.11211E+06    -2.56228E+06    -14.6555E-03     29.3362E-03    -14.6807E-03     9.14271E-03    -14.6252E-03     29.1740E-03    -14.6349E-03     9.10842E-03
             808     3.54778E-03     83.6251E-03    -3.47749E+06    -33.5422E+06    -330.959E+03    -3.03949E+06    -14.6362E-03     29.3107E-03    -14.6745E-03     12.2992E-03    -14.6047E-03     29.1488E-03    -14.6225E-03     12.2583E-03
             809     4.43470E-03     83.6380E-03    -1.90003E+06    -34.5615E+06     2.45416E+06    -3.46430E+06    -14.6363E-03     29.3096E-03    -14.6733E-03     15.6086E-03    -14.5997E-03     29.1365E-03    -14.6082E-03     15.5617E-03
             810     5.32182E-03     83.6539E-03    -533.290E+03    -36.0455E+06     4.38388E+06    -4.15234E+06    -14.6854E-03     29.3574E-03    -14.6720E-03     19.0663E-03    -14.6429E-03     29.1723E-03    -14.5970E-03     19.0098E-03
             811     6.20871E-03     83.6732E-03     160.729E+03    -36.9152E+06     3.99438E+06    -5.16482E+06    -14.7803E-03     29.4470E-03    -14.6668E-03     22.7189E-03    -14.7329E-03     29.2576E-03    -14.5935E-03     22.6486E-03
             812     7.09575E-03     83.6959E-03     888.934E+03    -39.7674E+06     4.36873E+06    -5.93925E+06    -14.8661E-03     29.5404E-03    -14.6743E-03     26.5856E-03    -14.8120E-03     29.3356E-03    -14.5961E-03     26.5043E-03
             813     7.98249E-03     83.7224E-03     1.72680E+06    -40.2993E+06     4.71201E+06    -5.91833E+06    -14.9082E-03     29.5864E-03    -14.6782E-03     30.7088E-03    -14.8505E-03     29.3781E-03    -14.5987E-03     30.6265E-03
             814     8.86965E-03     83.7527E-03     2.36366E+06    -42.2727E+06     4.13867E+06    -5.62302E+06    -14.9501E-03     29.6265E-03    -14.6764E-03     35.0557E-03    -14.8868E-03     29.4096E-03    -14.5979E-03     34.9754E-03
             815     9.75641E-03     83.7873E-03     2.50469E+06    -43.5907E+06     2.65896E+06    -6.05697E+06    -15.0280E-03     29.6956E-03    -14.6676E-03     39.7063E-03    -14.9622E-03     29.4762E-03    -14.5947E-03     39.6179E-03
             816     10.6438E-03     83.8263E-03     2.30395E+06    -45.1766E+06    -716.461E+03    -6.69601E+06    -15.1803E-03     29.8322E-03    -14.6519E-03     44.5959E-03    -15.1119E-03     29.6136E-03    -14.5933E-03     44.4957E-03
             817     11.5303E-03     83.8697E-03     2.02428E+06    -39.6303E+06    -3.97879E+06    -6.57676E+06    -15.3246E-03     29.9540E-03    -14.6294E-03     49.9670E-03    -15.2668E-03     29.7742E-03    -14.5947E-03     49.8636E-03
             818     12.4175E-03     83.9187E-03     2.05212E+06    -28.2314E+06    -2.50577E+06    -6.12705E+06    -15.4832E-03     30.1041E-03    -14.6208E-03     58.1116E-03    -15.4561E-03     29.9913E-03    -14.5954E-03     58.0076E-03
             819     13.3044E-03     83.9770E-03     2.17065E+06    -33.2698E+06    -10.4872E+06    -6.35011E+06    -15.6883E-03     30.2767E-03    -14.5883E-03     63.7709E-03    -15.6623E-03     30.1707E-03    -14.5957E-03     63.6561E-03
             820     14.1916E-03     84.0366E-03     1.07569E+06    -26.1977E+06    -20.5029E+06    -5.62983E+06    -15.8523E-03     30.3845E-03    -14.5321E-03     68.3297E-03    -15.8588E-03     30.3613E-03    -14.5982E-03     68.2213E-03
             821     15.0782E-03     84.1034E-03    -1.14753E+06     14.6732E+06    -21.8305E+06    -4.04462E+06    -16.9786E-03     31.4538E-03    -14.4752E-03     95.4209E-03    -17.2203E-03     31.8068E-03    -14.6039E-03     95.3564E-03
             822     15.9650E-03     84.2144E-03    -2.38462E+06     51.4461E+06    -36.8902E+06    -2.75150E+06    -19.8469E-03     34.2023E-03    -14.3555E-03     153.340E-03    -21.1696E-03     35.8062E-03    -14.6111E-03     153.750E-03
             823     16.8525E-03     84.3896E-03    -1.56541E+06     111.127E+06    -6.38971E+06    -1.02616E+06    -20.3266E-03     34.7539E-03    -14.4273E-03     177.432E-03    -23.1566E-03     37.9913E-03    -14.6181E-03     179.754E-03
             824     886.869E-06     84.5803E-03    -5.07335E+06    -33.6113E+06    -4.86012E+06    -1.03413E+06    -14.6970E-03     29.3776E-03    -14.6806E-03     3.28427E-03    -14.6664E-03     29.2242E-03    -14.6488E-03     3.27051E-03
             825     1.77384E-03     84.5847E-03    -4.73184E+06    -32.8942E+06    -3.65116E+06    -1.85398E+06    -14.6515E-03     29.3351E-03    -14.6836E-03     6.07626E-03    -14.6222E-03     29.1829E-03    -14.6473E-03     6.05154E-03
             826     2.66080E-03     84.5916E-03    -3.87319E+06    -32.7124E+06    -1.70511E+06    -2.65280E+06    -14.6359E-03     29.3111E-03    -14.6752E-03     9.12539E-03    -14.6055E-03     29.1558E-03    -14.6307E-03     9.08994E-03
             827     3.54772E-03     84.6014E-03    -2.86740E+06    -31.9838E+06     234.528E+03    -3.42808E+06    -14.6342E-03     29.3021E-03    -14.6680E-03     12.2812E-03    -14.6027E-03     29.1463E-03    -14.6162E-03     12.2353E-03
             828     4.43481E-03     84.6142E-03    -1.69832E+06    -33.0318E+06     2.71981E+06    -4.24947E+06    -14.6697E-03     29.3399E-03    -14.6702E-03     15.5790E-03    -14.6347E-03     29.1737E-03    -14.6062E-03     15.5220E-03
             829     5.32170E-03     84.6302E-03     12.7296E+03    -34.5717E+06     5.45112E+06    -4.81898E+06    -14.7251E-03     29.4043E-03    -14.6792E-03     19.0579E-03    -14.6835E-03     29.2242E-03    -14.6018E-03     18.9928E-03
             830     6.20873E-03     84.6495E-03     1.56440E+06    -35.1214E+06     6.11930E+06    -5.32698E+06    -14.7743E-03     29.4538E-03    -14.6795E-03     22.7006E-03    -14.7255E-03     29.2681E-03    -14.6003E-03     22.6283E-03
             831     7.09559E-03     84.6723E-03     2.05079E+06    -38.3998E+06     5.51396E+06    -5.90485E+06    -14.8283E-03     29.5078E-03    -14.6795E-03     26.5715E-03    -14.7721E-03     29.3065E-03    -14.5992E-03     26.4907E-03
             832     7.98269E-03     84.6987E-03     2.16209E+06    -39.8255E+06     4.29206E+06    -6.14512E+06    -14.8935E-03     29.5678E-03    -14.6743E-03     30.7336E-03    -14.8337E-03     29.3619E-03    -14.5982E-03     30.6484E-03
             833     8.86946E-03     84.7290E-03     2.55835E+06    -41.8434E+06     3.73235E+06    -6.03868E+06    -14.9624E-03     29.6350E-03    -14.6726E-03     35.1168E-03    -14.8982E-03     29.4205E-03    -14.5970E-03     35.0311E-03
             834     9.75666E-03     84.7635E-03     3.00752E+06    -42.2144E+06     2.92300E+06    -6.16772E+06    -15.0331E-03     29.6992E-03    -14.6661E-03     39.7394E-03    -14.9671E-03     29.4856E-03    -14.5946E-03     39.6495E-03
             835     10.6434E-03     84.8025E-03     2.91062E+06    -44.3068E+06    -230.359E+03    -6.46246E+06    -15.1377E-03     29.7882E-03    -14.6505E-03     44.6030E-03    -15.0681E-03     29.5723E-03    -14.5916E-03     44.5058E-03
             836     11.5306E-03     84.8462E-03     2.42260E+06    -39.1717E+06    -3.51225E+06    -6.68068E+06    -15.2713E-03     29.8965E-03    -14.6252E-03     49.9773E-03    -15.2128E-03     29.7177E-03    -14.5894E-03     49.8727E-03
             837     12.4175E-03     84.8947E-03     2.33717E+06    -27.9685E+06    -2.43124E+06    -6.83815E+06    -15.5023E-03     30.1164E-03    -14.6142E-03     58.0727E-03    -15.4743E-03     30.0045E-03    -14.5891E-03     57.9594E-03
             838     13.3045E-03     84.9536E-03     1.74290E+06    -32.8643E+06    -8.70341E+06    -6.33551E+06    -15.7582E-03     30.3529E-03    -14.5947E-03     63.6400E-03    -15.7374E-03     30.2469E-03    -14.5931E-03     63.5252E-03
             839     14.1911E-03     85.0126E-03     344.295E+03    -27.6915E+06    -19.1089E+06    -5.14146E+06    -15.9980E-03     30.5451E-03    -14.5471E-03     68.2404E-03    -16.0083E-03     30.5137E-03    -14.6029E-03     68.1377E-03
             840     15.0780E-03     85.0804E-03    -68.9848E+03     13.9314E+06    -20.9584E+06    -4.37308E+06    -17.0286E-03     31.5179E-03    -14.4893E-03     95.4394E-03    -17.2645E-03     31.8639E-03    -14.6142E-03     95.3707E-03
             841     15.9651E-03     85.1901E-03    -690.164E+03     50.4536E+06    -35.9258E+06    -4.02155E+06    -19.9389E-03     34.3120E-03    -14.3731E-03     153.032E-03    -21.2451E-03     35.8991E-03    -14.6249E-03     153.418E-03
             842     16.8509E-03     85.3671E-03    -1.37425E+06     108.108E+06    -7.51307E+06    -2.00142E+06    -20.0989E-03     34.5343E-03    -14.4354E-03     177.603E-03    -22.9184E-03     37.7545E-03    -14.6277E-03     179.927E-03
             843     886.900E-06     85.5568E-03    -4.95255E+06    -31.6083E+06    -4.87779E+06    -1.01232E+06    -14.6713E-03     29.3351E-03    -14.6637E-03     3.26602E-03    -14.6431E-03     29.1915E-03    -14.6351E-03     3.25256E-03
             844     1.77382E-03     85.5609E-03    -4.51461E+06    -30.8253E+06    -3.44302E+06    -1.91521E+06    -14.6358E-03     29.2996E-03    -14.6638E-03     6.08724E-03    -14.6087E-03     29.1571E-03    -14.6297E-03     6.06174E-03
             845     2.66079E-03     85.5679E-03    -3.58491E+06    -30.6197E+06    -950.413E+03    -3.00765E+06    -14.6340E-03     29.2955E-03    -14.6615E-03     9.12449E-03    -14.6063E-03     29.1491E-03    -14.6166E-03     9.08444E-03
             846     3.54784E-03     85.5777E-03    -2.25808E+06    -30.2702E+06     1.58734E+06    -3.81258E+06    -14.6657E-03     29.3304E-03    -14.6647E-03     12.2903E-03    -14.6357E-03     29.1803E-03    -14.6096E-03     12.2394E-03
             847     4.43470E-03     85.5905E-03    -1.07840E+06    -31.1864E+06     3.70746E+06    -4.48114E+06    -14.7183E-03     29.3929E-03    -14.6745E-03     15.5868E-03    -14.6844E-03     29.2336E-03    -14.6092E-03     15.5268E-03
             848     5.32169E-03     85.6065E-03    -150.410E+03    -32.8486E+06     5.02096E+06    -5.46447E+06    -14.7414E-03     29.4247E-03    -14.6833E-03     19.0599E-03    -14.7026E-03     29.2541E-03    -14.6103E-03     18.9865E-03
             849     6.20857E-03     85.6259E-03     929.731E+03    -33.9475E+06     5.30267E+06    -5.91703E+06    -14.7418E-03     29.4233E-03    -14.6815E-03     22.7204E-03    -14.6968E-03     29.2457E-03    -14.6071E-03     22.6404E-03
             850     7.09567E-03     85.6485E-03     2.13425E+06    -37.1233E+06     5.78822E+06    -6.03667E+06    -14.7790E-03     29.4591E-03    -14.6801E-03     26.6057E-03    -14.7246E-03     29.2637E-03    -14.6004E-03     26.5233E-03
             851     7.98258E-03     85.6750E-03     2.97907E+06    -39.0139E+06     5.52006E+06    -6.25448E+06    -14.8402E-03     29.5137E-03    -14.6734E-03     30.7565E-03    -14.7793E-03     29.3088E-03    -14.5936E-03     30.6700E-03
             852     8.86975E-03     85.7053E-03     3.23827E+06    -41.3872E+06     4.20821E+06    -6.17631E+06    -14.9424E-03     29.6076E-03    -14.6652E-03     35.1719E-03    -14.8761E-03     29.3937E-03    -14.5888E-03     35.0845E-03
             853     9.75651E-03     85.7398E-03     3.05351E+06    -41.2593E+06     2.47123E+06    -6.19164E+06    -15.0580E-03     29.7128E-03    -14.6549E-03     39.8391E-03    -14.9925E-03     29.5046E-03    -14.5871E-03     39.7490E-03
             854     10.6436E-03     85.7788E-03     2.65044E+06    -43.6509E+06    -238.373E+03    -6.28900E+06    -15.1427E-03     29.7869E-03    -14.6443E-03     44.6603E-03    -15.0753E-03     29.5747E-03    -14.5860E-03     44.5654E-03
             855     11.5306E-03     85.8221E-03     2.18770E+06    -38.0964E+06    -3.27055E+06    -6.59167E+06    -15.2666E-03     29.8866E-03    -14.6200E-03     50.0544E-03    -15.2111E-03     29.7131E-03    -14.5843E-03     49.9510E-03
             856     12.4176E-03     85.8714E-03     1.71813E+06    -27.1595E+06    -2.62302E+06    -7.12678E+06    -15.5360E-03     30.1453E-03    -14.6093E-03     58.1675E-03    -15.5120E-03     30.0385E-03    -14.5855E-03     58.0505E-03
             857     13.3043E-03     85.9297E-03     1.95246E+06    -33.6919E+06    -8.91813E+06    -6.76165E+06    -15.7879E-03     30.3809E-03    -14.5930E-03     63.8504E-03    -15.7646E-03     30.2708E-03    -14.5915E-03     63.7301E-03
             858     14.1912E-03     85.9896E-03     2.99027E+06    -27.9291E+06    -18.7597E+06    -6.32995E+06    -16.0040E-03     30.5478E-03    -14.5438E-03     68.7274E-03    -16.0013E-03     30.5110E-03    -14.6014E-03     68.6096E-03
             859     15.0779E-03     86.0565E-03     3.60769E+06     13.2662E+06    -20.3098E+06    -5.71007E+06    -16.9627E-03     31.4455E-03    -14.4828E-03     96.0474E-03    -17.1800E-03     31.7816E-03    -14.6088E-03     95.9618E-03
             860     15.9642E-03     86.1673E-03     2.51991E+06     48.4338E+06    -34.1959E+06    -3.23448E+06    -19.9647E-03     34.3334E-03    -14.3688E-03     154.475E-03    -21.2666E-03     35.9154E-03    -14.6136E-03     154.873E-03
             861     16.8516E-03     86.3433E-03    -79.0317E+03     106.428E+06    -7.59124E+06    -1.26091E+06    -20.1409E-03     34.5625E-03    -14.4216E-03     177.969E-03    -22.9516E-03     37.7727E-03    -14.6137E-03     180.306E-03
             862     886.976E-06     86.5331E-03    -4.29281E+06    -29.5087E+06    -4.27671E+06    -1.12877E+06    -14.6310E-03     29.2719E-03    -14.6409E-03     3.20046E-03    -14.6033E-03     29.1370E-03    -14.6133E-03     3.18549E-03
             863     1.77394E-03     86.5373E-03    -3.90452E+06    -28.7472E+06    -2.50759E+06    -1.98316E+06    -14.6336E-03     29.2733E-03    -14.6398E-03     6.04348E-03    -14.6078E-03     29.1390E-03    -14.6050E-03     6.01708E-03
             864     2.66091E-03     86.5442E-03    -3.08557E+06    -28.1325E+06     16.0326E+03    -3.10566E+06    -14.6525E-03     29.3014E-03    -14.6489E-03     9.10660E-03    -14.6273E-03     29.1653E-03    -14.6035E-03     9.06528E-03
             865     3.54777E-03     86.5540E-03    -2.02267E+06    -28.4038E+06     1.87155E+06    -4.20762E+06    -14.6924E-03     29.3521E-03    -14.6597E-03     12.3081E-03    -14.6643E-03     29.2106E-03    -14.6062E-03     12.2521E-03
             866     4.43475E-03     86.5669E-03    -686.271E+03    -29.5715E+06     3.51060E+06    -4.76279E+06    -14.7242E-03     29.3959E-03    -14.6717E-03     15.6424E-03    -14.6903E-03     29.2444E-03    -14.6103E-03     15.5787E-03
             867     5.32159E-03     86.5829E-03     322.027E+03    -30.6754E+06     5.30863E+06    -5.41286E+06    -14.7225E-03     29.4033E-03    -14.6809E-03     19.0976E-03    -14.6848E-03     29.2425E-03    -14.6103E-03     19.0249E-03
             868     6.20867E-03     86.6020E-03     1.02047E+06    -32.6632E+06     5.45741E+06    -6.29825E+06    -14.7121E-03     29.3890E-03    -14.6770E-03     22.7550E-03    -14.6686E-03     29.2174E-03    -14.6038E-03     22.6701E-03
             869     7.09564E-03     86.6248E-03     1.60940E+06    -36.3105E+06     5.07566E+06    -6.43569E+06    -14.7397E-03     29.4087E-03    -14.6691E-03     26.6722E-03    -14.6880E-03     29.2191E-03    -14.5934E-03     26.5847E-03
             870     7.98275E-03     86.6512E-03     2.05242E+06    -37.8925E+06     5.09227E+06    -6.51416E+06    -14.8025E-03     29.4633E-03    -14.6608E-03     30.8163E-03    -14.7471E-03     29.2659E-03    -14.5834E-03     30.7265E-03
             871     8.86970E-03     86.6815E-03     2.85863E+06    -40.9935E+06     4.11840E+06    -6.64034E+06    -14.8957E-03     29.5474E-03    -14.6516E-03     35.2450E-03    -14.8318E-03     29.3361E-03    -14.5757E-03     35.1517E-03
             872     9.75687E-03     86.7162E-03     3.59343E+06    -40.6495E+06     1.70069E+06    -6.31118E+06    -15.0190E-03     29.6524E-03    -14.6334E-03     39.9453E-03    -14.9505E-03     29.4474E-03    -14.5712E-03     39.8537E-03
             873     10.6437E-03     86.7549E-03     3.83481E+06    -42.8959E+06    -360.550E+03    -6.36099E+06    -15.1827E-03     29.8083E-03    -14.6256E-03     44.7548E-03    -15.1103E-03     29.5983E-03    -14.5708E-03     44.6589E-03
             874     11.5307E-03     86.7985E-03     3.70764E+06    -37.2529E+06    -2.33594E+06    -6.55673E+06    -15.3117E-03     29.9215E-03    -14.6098E-03     50.2343E-03    -15.2512E-03     29.7488E-03    -14.5729E-03     50.1313E-03
             875     12.4176E-03     86.8475E-03     3.23955E+06    -25.9626E+06    -1.70416E+06    -6.82883E+06    -15.5187E-03     30.1182E-03    -14.5995E-03     58.4413E-03    -15.4901E-03     30.0139E-03    -14.5751E-03     58.3282E-03
             876     13.3046E-03     86.9064E-03     2.51625E+06    -33.2757E+06    -9.77592E+06    -7.68623E+06    -15.7605E-03     30.3359E-03    -14.5754E-03     64.0248E-03    -15.7338E-03     30.2284E-03    -14.5797E-03     63.8926E-03
             877     14.1916E-03     86.9655E-03     2.01195E+06    -27.5265E+06    -20.1766E+06    -8.26779E+06    -15.8385E-03     30.3587E-03    -14.5202E-03     68.9057E-03    -15.8390E-03     30.3271E-03    -14.5841E-03     68.7634E-03
             878     15.0784E-03     87.0337E-03     1.41960E+06     12.2140E+06    -20.6780E+06    -7.27934E+06    -16.9443E-03     31.4084E-03    -14.4641E-03     96.0839E-03    -17.1723E-03     31.7447E-03    -14.5872E-03     95.9780E-03
             879     15.9668E-03     87.1425E-03     171.414E+03     45.0971E+06    -34.5348E+06    -3.97966E+06    -19.8772E-03     34.2316E-03    -14.3544E-03     153.802E-03    -21.1911E-03     35.8064E-03    -14.5927E-03     154.198E-03
             880     16.8527E-03     87.3222E-03    -925.955E+03     104.083E+06    -8.47164E+06    -711.631E+03    -20.2509E-03     34.6573E-03    -14.4064E-03     177.146E-03    -23.0548E-03     37.8520E-03    -14.5983E-03     179.469E-03
             881     886.933E-06     87.5094E-03    -3.08518E+06    -27.2911E+06    -2.56047E+06    -1.09951E+06    -14.5849E-03     29.2568E-03    -14.6719E-03     3.14670E-03    -14.5569E-03     29.1287E-03    -14.6407E-03     3.13211E-03
             882     1.77391E-03     87.5135E-03    -2.42478E+06    -26.6624E+06    -830.771E+03    -2.01932E+06    -14.6401E-03     29.2765E-03    -14.6363E-03     6.02256E-03    -14.6124E-03     29.1479E-03    -14.5983E-03     5.99570E-03
             883     2.66083E-03     87.5205E-03    -1.57830E+06    -25.7473E+06     1.32542E+06    -3.00366E+06    -14.6640E-03     29.3119E-03    -14.6479E-03     9.09706E-03    -14.6366E-03     29.1836E-03    -14.6016E-03     9.05706E-03
             884     3.54783E-03     87.5304E-03    -748.404E+03    -26.0052E+06     2.87930E+06    -4.19272E+06    -14.6762E-03     29.3336E-03    -14.6574E-03     12.3320E-03    -14.6467E-03     29.2007E-03    -14.6042E-03     12.2762E-03
             885     4.43471E-03     87.5433E-03     71.3978E+03    -27.9974E+06     3.98789E+06    -5.16206E+06    -14.6778E-03     29.3406E-03    -14.6627E-03     15.6717E-03    -14.6431E-03     29.1951E-03    -14.6023E-03     15.6029E-03
             886     5.32180E-03     87.5592E-03     1.05855E+06    -29.1049E+06     5.29466E+06    -5.45200E+06    -14.6764E-03     29.3392E-03    -14.6628E-03     19.1279E-03    -14.6373E-03     29.1852E-03    -14.5957E-03     19.0548E-03
             887     6.20870E-03     87.5784E-03     1.52336E+06    -30.7013E+06     5.82899E+06    -6.00764E+06    -14.6916E-03     29.3493E-03    -14.6577E-03     22.7899E-03    -14.6490E-03     29.1862E-03    -14.5862E-03     22.7089E-03
             888     7.09581E-03     87.6009E-03     1.82729E+06    -35.6520E+06     5.47657E+06    -6.53012E+06    -14.7197E-03     29.3716E-03    -14.6519E-03     26.7123E-03    -14.6684E-03     29.1844E-03    -14.5755E-03     26.6236E-03
             889     7.98286E-03     87.6274E-03     2.57788E+06    -36.4192E+06     4.69515E+06    -6.85808E+06    -14.7740E-03     29.4112E-03    -14.6372E-03     30.9071E-03    -14.7175E-03     29.2210E-03    -14.5647E-03     30.8129E-03
             890     8.86994E-03     87.6577E-03     3.36379E+06    -39.9851E+06     4.18064E+06    -7.58796E+06    -14.8680E-03     29.4978E-03    -14.6298E-03     35.3279E-03    -14.8030E-03     29.2907E-03    -14.5558E-03     35.2225E-03
             891     9.75696E-03     87.6922E-03     4.41873E+06    -40.8111E+06     1.48476E+06    -7.40213E+06    -14.9764E-03     29.5861E-03    -14.6097E-03     40.0428E-03    -14.9032E-03     29.3794E-03    -14.5495E-03     39.9372E-03
             892     10.6441E-03     87.7314E-03     4.83956E+06    -42.3760E+06    -571.978E+03    -6.56562E+06    -15.1526E-03     29.7514E-03    -14.5988E-03     44.9210E-03    -15.0756E-03     29.5428E-03    -14.5472E-03     44.8226E-03
             893     11.5310E-03     87.7747E-03     4.13068E+06    -36.6131E+06    -2.12529E+06    -6.37725E+06    -15.3238E-03     29.9102E-03    -14.5864E-03     50.3806E-03    -15.2625E-03     29.7397E-03    -14.5499E-03     50.2799E-03
             894     12.4180E-03     87.8240E-03     3.94795E+06    -24.3739E+06    -934.178E+03    -7.15968E+06    -15.5329E-03     30.1123E-03    -14.5793E-03     58.6113E-03    -15.5043E-03     30.0138E-03    -14.5544E-03     58.4940E-03
             895     13.3049E-03     87.8826E-03     4.35419E+06    -31.7359E+06    -7.81014E+06    -8.11952E+06    -15.8038E-03     30.3662E-03    -14.5625E-03     64.1204E-03    -15.7733E-03     30.2612E-03    -14.5618E-03     63.9824E-03
             896     14.1915E-03     87.9422E-03     3.07139E+06    -27.1220E+06    -18.5076E+06    -8.23449E+06    -15.9859E-03     30.5016E-03    -14.5158E-03     68.4384E-03    -15.9846E-03     30.4686E-03    -14.5734E-03     68.2958E-03
             897     15.0793E-03     88.0088E-03     1.12527E+06     10.7669E+06    -20.0358E+06    -7.18710E+06    -17.1358E-03     31.6062E-03    -14.4704E-03     95.8446E-03    -17.3655E-03     31.9362E-03    -14.5878E-03     95.7390E-03
             898     15.9633E-03     88.1215E-03    -277.234E+03     40.7515E+06    -36.4859E+06    -4.81050E+06    -19.9479E-03     34.3091E-03    -14.3612E-03     153.272E-03    -21.2590E-03     35.8697E-03    -14.6023E-03     153.663E-03
             899     16.8517E-03     88.2946E-03    -1.16123E+06     101.218E+06    -9.86270E+06    -1.34719E+06    -20.0606E-03     34.4720E-03    -14.4115E-03     177.476E-03    -22.8785E-03     37.6738E-03    -14.6059E-03     179.803E-03
             900     886.974E-06     88.4856E-03    -1.23885E+06    -25.1862E+06    -843.748E+03    -1.01308E+06    -14.6074E-03     29.2743E-03    -14.6669E-03     3.14848E-03    -14.5757E-03     29.1517E-03    -14.6328E-03     3.13499E-03
             901     1.77392E-03     88.4899E-03    -645.851E+03    -24.3882E+06     981.095E+03    -2.05797E+06    -14.6398E-03     29.2831E-03    -14.6433E-03     6.05464E-03    -14.6091E-03     29.1607E-03    -14.6020E-03     6.02727E-03
             902     2.66087E-03     88.4968E-03     253.652E+03    -23.6875E+06     2.77171E+06    -2.96198E+06    -14.6425E-03     29.2899E-03    -14.6474E-03     9.13064E-03    -14.6110E-03     29.1672E-03    -14.5996E-03     9.09120E-03
             903     3.54779E-03     88.5067E-03     911.279E+03    -23.5618E+06     4.32107E+06    -3.89573E+06    -14.6347E-03     29.2832E-03    -14.6484E-03     12.3544E-03    -14.6025E-03     29.1580E-03    -14.5940E-03     12.3024E-03
             904     4.43486E-03     88.5195E-03     1.43378E+06    -25.8763E+06     5.67631E+06    -5.02987E+06    -14.6207E-03     29.2683E-03    -14.6476E-03     15.6619E-03    -14.5846E-03     29.1291E-03    -14.5838E-03     15.5949E-03
             905     5.32182E-03     88.5354E-03     1.90489E+06    -28.2063E+06     5.70293E+06    -5.49467E+06    -14.6149E-03     29.2516E-03    -14.6367E-03     19.1346E-03    -14.5735E-03     29.1002E-03    -14.5700E-03     19.0610E-03
             906     6.20901E-03     88.5546E-03     2.21595E+06    -29.1131E+06     5.53886E+06    -5.46052E+06    -14.6473E-03     29.2702E-03    -14.6229E-03     22.8346E-03    -14.6031E-03     29.1144E-03    -14.5562E-03     22.7607E-03
             907     7.09598E-03     88.5772E-03     2.37818E+06    -33.7965E+06     5.88456E+06    -6.44754E+06    -14.7010E-03     29.3210E-03    -14.6200E-03     26.7646E-03    -14.6502E-03     29.1416E-03    -14.5450E-03     26.6770E-03
             908     7.98308E-03     88.6035E-03     2.58077E+06    -35.2838E+06     4.35422E+06    -7.25018E+06    -14.7358E-03     29.3395E-03    -14.6036E-03     31.0093E-03    -14.6805E-03     29.1554E-03    -14.5345E-03     30.9102E-03
             909     8.87021E-03     88.6339E-03     2.70889E+06    -37.9066E+06     3.33552E+06    -7.88906E+06    -14.8307E-03     29.4234E-03    -14.5927E-03     35.4771E-03    -14.7708E-03     29.2288E-03    -14.5250E-03     35.3679E-03
             910     9.75723E-03     88.6684E-03     2.59787E+06    -40.9109E+06     550.825E+03    -8.42742E+06    -14.9523E-03     29.5296E-03    -14.5773E-03     40.1882E-03    -14.8867E-03     29.3264E-03    -14.5190E-03     40.0696E-03
             911     10.6444E-03     88.7074E-03     3.21414E+06    -42.7647E+06    -1.62878E+06    -7.57358E+06    -15.1005E-03     29.6661E-03    -14.5656E-03     45.1216E-03    -15.0295E-03     29.4594E-03    -14.5164E-03     45.0103E-03
             912     11.5314E-03     88.7512E-03     4.95233E+06    -35.4260E+06    -1.68850E+06    -7.47554E+06    -15.3005E-03     29.8546E-03    -14.5541E-03     50.5457E-03    -15.2374E-03     29.6882E-03    -14.5184E-03     50.4310E-03
             913     12.4182E-03     88.8001E-03     6.12478E+06    -23.1754E+06      -45.73E+03    -7.92694E+06    -15.5411E-03     30.0894E-03    -14.5483E-03     58.8340E-03    -15.5046E-03     29.9925E-03    -14.5238E-03     58.7068E-03
             914     13.3051E-03     88.8592E-03     5.53192E+06    -30.3551E+06    -7.23905E+06    -8.25239E+06    -15.8485E-03     30.3823E-03    -14.5337E-03     64.5412E-03    -15.8149E-03     30.2815E-03    -14.5339E-03     64.4016E-03
             915     14.1920E-03     88.9185E-03     4.26165E+06    -28.0035E+06    -17.9851E+06    -7.40642E+06    -16.3151E-03     30.8169E-03    -14.5017E-03     69.1617E-03    -16.3087E-03     30.7783E-03    -14.5572E-03     69.0289E-03
             916     15.0769E-03     88.9864E-03     1.91176E+06     9.44145E+06    -19.6384E+06    -5.42539E+06    -17.1629E-03     31.6296E-03    -14.4667E-03     96.4606E-03    -17.3866E-03     31.9505E-03    -14.5814E-03     96.3787E-03
             917     15.9671E-03     89.0967E-03    -805.017E+03     37.4878E+06    -36.7589E+06    -4.73020E+06    -20.0256E-03     34.3843E-03    -14.3587E-03     154.267E-03    -21.3372E-03     35.9327E-03    -14.5957E-03     154.655E-03
             918     16.8516E-03     89.2738E-03    -648.203E+03     98.1603E+06    -10.9328E+06    -2.67529E+06    -19.9800E-03     34.3803E-03    -14.4003E-03     177.444E-03    -22.7780E-03     37.5562E-03    -14.5964E-03     179.769E-03
             919     886.926E-06     89.4620E-03    -50.0297E+03    -22.9554E+06    -337.433E+03    -1.25149E+06    -14.6627E-03     29.2721E-03    -14.6094E-03     3.18616E-03    -14.6291E-03     29.1581E-03    -14.5777E-03     3.16959E-03
             920     1.77388E-03     89.4662E-03     269.897E+03    -22.0924E+06     1.01052E+06    -2.17463E+06    -14.6196E-03     29.2533E-03    -14.6337E-03     6.05615E-03    -14.5877E-03     29.1410E-03    -14.5970E-03     6.02729E-03
             921     2.66088E-03     89.4732E-03     1.04059E+06    -21.7122E+06     3.76257E+06    -3.04528E+06    -14.5944E-03     29.2281E-03    -14.6337E-03     9.15075E-03    -14.5633E-03     29.1127E-03    -14.5849E-03     9.11026E-03
             922     3.54794E-03     89.4830E-03     2.05099E+06    -21.5641E+06     5.25765E+06    -3.76332E+06    -14.5783E-03     29.2025E-03    -14.6242E-03     12.3566E-03    -14.5447E-03     29.0844E-03    -14.5696E-03     12.3064E-03
             923     4.43492E-03     89.4958E-03     2.62544E+06    -23.6454E+06     6.23825E+06    -4.57272E+06    -14.5585E-03     29.1722E-03    -14.6137E-03     15.6650E-03    -14.5206E-03     29.0416E-03    -14.5520E-03     15.6038E-03
             924     5.32211E-03     89.5115E-03     2.93243E+06    -27.1151E+06     6.80196E+06    -5.20678E+06    -14.5636E-03     29.1662E-03    -14.6026E-03     19.1534E-03    -14.5202E-03     29.0172E-03    -14.5336E-03     19.0836E-03
             925     6.20915E-03     89.5307E-03     3.27608E+06    -28.3372E+06     5.47420E+06    -5.27456E+06    -14.5794E-03     29.1591E-03    -14.5797E-03     22.8741E-03    -14.5309E-03     29.0058E-03    -14.5160E-03     22.8027E-03
             926     7.09636E-03     89.5533E-03     3.13077E+06    -31.2726E+06     5.47913E+06    -5.76501E+06    -14.6244E-03     29.1929E-03    -14.5686E-03     26.8475E-03    -14.5729E-03     29.0257E-03    -14.5004E-03     26.7688E-03
             927     7.98345E-03     89.5795E-03     2.58832E+06    -33.9203E+06     5.02927E+06    -6.88616E+06    -14.6999E-03     29.2588E-03    -14.5589E-03     31.1304E-03    -14.6474E-03     29.0805E-03    -14.4883E-03     31.0360E-03
             928     8.87058E-03     89.6099E-03     2.27774E+06    -35.9749E+06     3.78355E+06    -7.71077E+06    -14.7858E-03     29.3331E-03    -14.5474E-03     35.6495E-03    -14.7314E-03     29.1482E-03    -14.4796E-03     35.5427E-03
             929     9.75776E-03     89.6445E-03     2.39406E+06    -39.4622E+06     1.21535E+06    -8.63804E+06    -14.9194E-03     29.4535E-03    -14.5341E-03     40.3581E-03    -14.8578E-03     29.2568E-03    -14.4743E-03     40.2368E-03
             930     10.6447E-03     89.6835E-03     3.76389E+06    -42.0165E+06    -2.52468E+06    -10.1309E+06    -15.0732E-03     29.5887E-03    -14.5154E-03     45.4114E-03    -14.9992E-03     29.3862E-03    -14.4726E-03     45.2674E-03
             931     11.5318E-03     89.7273E-03     5.47940E+06    -35.3332E+06    -2.56919E+06    -9.79326E+06    -15.2327E-03     29.7367E-03    -14.5039E-03     50.9536E-03    -15.1657E-03     29.5711E-03    -14.4735E-03     50.8092E-03
             932     12.4188E-03     89.7765E-03     5.43208E+06    -23.4459E+06    -3.48744E+03    -8.01691E+06    -15.5030E-03     30.0067E-03    -14.5037E-03     59.1684E-03    -15.4695E-03     29.9092E-03    -14.4776E-03     59.0403E-03
             933     13.3060E-03     89.8353E-03     4.38271E+06    -28.7554E+06    -5.87901E+06    -7.80807E+06    -15.8673E-03     30.3630E-03    -14.4956E-03     64.9883E-03    -15.8438E-03     30.2699E-03    -14.4897E-03     64.8546E-03
             934     14.1924E-03     89.8955E-03     2.61349E+06    -30.4292E+06    -16.7806E+06    -6.90777E+06    -16.1870E-03     30.6552E-03    -14.4682E-03     69.8362E-03    -16.1869E-03     30.6050E-03    -14.5118E-03     69.7105E-03
             935     15.0802E-03     89.9634E-03     1.39835E+06     9.19438E+06    -17.9951E+06    -5.37099E+06    -17.2507E-03     31.6822E-03    -14.4315E-03     96.5940E-03    -17.4790E-03     32.0003E-03    -14.5368E-03     96.5117E-03
             936     15.9643E-03     90.0722E-03     1.43347E+06     36.9082E+06    -32.1487E+06    -4.61980E+06    -20.0035E-03     34.3412E-03    -14.3376E-03     154.872E-03    -21.3182E-03     35.8852E-03    -14.5539E-03     155.263E-03
             937     16.8525E-03     90.2520E-03     311.077E+03     94.3096E+06    -8.39515E+06    -2.54649E+06    -20.0371E-03     34.4133E-03    -14.3762E-03     177.437E-03    -22.8177E-03     37.5542E-03    -14.5554E-03     179.750E-03
             938     886.993E-06     90.4384E-03     1.00816E+06    -20.2828E+06     540.513E+03    -1.51220E+06    -14.6185E-03     29.1952E-03    -14.5767E-03     3.24601E-03    -14.5847E-03     29.0917E-03    -14.5460E-03     3.22609E-03
             939     1.77395E-03     90.4425E-03     931.921E+03    -19.8232E+06     841.668E+03    -2.44777E+06    -14.5880E-03     29.1797E-03    -14.5918E-03     6.09538E-03    -14.5558E-03     29.0781E-03    -14.5602E-03     6.06303E-03
             940     2.66099E-03     90.4494E-03     1.46430E+06    -19.7789E+06     3.43132E+06    -3.18393E+06    -14.5453E-03     29.1364E-03    -14.5911E-03     9.18784E-03    -14.5144E-03     29.0305E-03    -14.5474E-03     9.14559E-03
             941     3.54801E-03     90.4592E-03     2.35835E+06    -19.7089E+06     5.77647E+06    -3.90336E+06    -14.4983E-03     29.0781E-03    -14.5798E-03     12.3746E-03    -14.4665E-03     28.9680E-03    -14.5258E-03     12.3226E-03
             942     4.43523E-03     90.4718E-03     3.41966E+06    -21.7937E+06     6.40682E+06    -4.58154E+06    -14.4946E-03     29.0557E-03    -14.5611E-03     15.7046E-03    -14.4556E-03     28.9329E-03    -14.5024E-03     15.6434E-03
             943     5.32230E-03     90.4876E-03     4.21579E+06    -25.8169E+06     7.05268E+06    -5.03325E+06    -14.5095E-03     29.0578E-03    -14.5483E-03     19.2009E-03    -14.4618E-03     28.9131E-03    -14.4818E-03     19.1334E-03
             944     6.20951E-03     90.5067E-03     4.52086E+06    -27.5963E+06     6.42411E+06    -5.18226E+06    -14.5043E-03     29.0317E-03    -14.5274E-03     22.9223E-03    -14.4520E-03     28.8788E-03    -14.4618E-03     22.8521E-03
             945     7.09674E-03     90.5292E-03     4.79633E+06    -29.7165E+06     6.49242E+06    -5.35096E+06    -14.5354E-03     29.0461E-03    -14.5107E-03     26.9375E-03    -14.4792E-03     28.8827E-03    -14.4421E-03     26.8642E-03
             946     7.98400E-03     90.5556E-03     4.92947E+06    -31.7922E+06     7.27534E+06    -6.13223E+06    -14.6317E-03     29.1340E-03    -14.5023E-03     31.2481E-03    -14.5738E-03     28.9597E-03    -14.4270E-03     31.1636E-03
             947     8.87113E-03     90.5858E-03     4.81113E+06    -34.1991E+06     6.08287E+06    -7.36954E+06    -14.7405E-03     29.2314E-03    -14.4908E-03     35.8059E-03    -14.6794E-03     29.0482E-03    -14.4178E-03     35.7037E-03
             948     9.75825E-03     90.6205E-03     4.97282E+06    -36.7317E+06     3.53307E+06    -9.03692E+06    -14.8454E-03     29.3210E-03    -14.4755E-03     40.6079E-03    -14.7782E-03     29.1307E-03    -14.4118E-03     40.4817E-03
             949     10.6455E-03     90.6595E-03     4.13700E+06    -39.2999E+06    -48.5235E+03    -10.8299E+06    -15.0043E-03     29.4639E-03    -14.4596E-03     45.7106E-03    -14.9358E-03     29.2707E-03    -14.4089E-03     45.5578E-03
             950     11.5326E-03     90.7033E-03     2.84766E+06    -36.7145E+06    -1.41181E+06    -10.7406E+06    -15.1824E-03     29.6347E-03    -14.4523E-03     51.2485E-03    -15.1282E-03     29.4643E-03    -14.4102E-03     51.0922E-03
             951     12.4197E-03     90.7526E-03     3.56046E+06    -24.6211E+06     1.16242E+06    -8.84309E+06    -15.5104E-03     29.9641E-03    -14.4538E-03     59.4990E-03    -15.4862E-03     29.8618E-03    -14.4174E-03     59.3603E-03
             952     13.3064E-03     90.8118E-03     3.83944E+06    -28.5210E+06    -3.64074E+06    -7.26256E+06    -15.8641E-03     30.3152E-03    -14.4511E-03     65.3038E-03    -15.8471E-03     30.2211E-03    -14.4335E-03     65.1772E-03
             953     14.1934E-03     90.8720E-03     3.33244E+06    -30.7814E+06    -14.2253E+06    -7.05154E+06    -16.1203E-03     30.5458E-03    -14.4255E-03     69.8601E-03    -16.1193E-03     30.4887E-03    -14.4568E-03     69.7328E-03
             954     15.0794E-03     90.9394E-03     3.46717E+06     8.55573E+06    -16.3625E+06    -6.80008E+06    -17.2124E-03     31.5946E-03    -14.3821E-03     96.7862E-03    -17.4328E-03     31.9051E-03    -14.4814E-03     96.6861E-03
             955     15.9676E-03     91.0510E-03     1.37827E+06     34.9030E+06    -30.8685E+06    -4.15938E+06    -19.9528E-03     34.2454E-03    -14.2926E-03     154.521E-03    -21.2604E-03     35.7713E-03    -14.4995E-03     154.922E-03
             956     16.8549E-03     91.2252E-03    -625.546E+03     92.1191E+06    -9.94505E+06    -1.65963E+06    -20.3309E-03     34.6601E-03    -14.3293E-03     177.353E-03    -23.1241E-03     37.8070E-03    -14.5117E-03     179.671E-03
             957     887.040E-06     91.4146E-03     2.05135E+06    -17.5548E+06     2.25451E+06    -1.37988E+06    -14.5290E-03     29.0490E-03    -14.5200E-03     3.29710E-03    -14.4965E-03     28.9552E-03    -14.4862E-03     3.27889E-03
             958     1.77412E-03     91.4187E-03     1.97876E+06    -17.2883E+06     2.29055E+06    -2.45451E+06    -14.5225E-03     29.0441E-03    -14.5216E-03     6.10958E-03    -14.4909E-03     28.9515E-03    -14.4880E-03     6.07717E-03
             959     2.66113E-03     91.4256E-03     2.24017E+06     -17.815E+06     3.03861E+06    -3.42634E+06    -14.4803E-03     28.9956E-03    -14.5153E-03     9.19540E-03    -14.4478E-03     28.8990E-03    -14.4775E-03     9.15006E-03
             960     3.54834E-03     91.4352E-03     2.82177E+06    -17.9540E+06     5.39406E+06    -3.97650E+06    -14.4300E-03     28.9354E-03    -14.5055E-03     12.3957E-03    -14.3979E-03     28.8340E-03    -14.4566E-03     12.3429E-03
             961     4.43547E-03     91.4478E-03     3.38976E+06    -19.8404E+06     6.46083E+06    -4.78182E+06    -14.4160E-03     28.9048E-03    -14.4887E-03     15.7569E-03    -14.3801E-03     28.7917E-03    -14.4326E-03     15.6932E-03
             962     5.32272E-03     91.4636E-03     4.31210E+06    -24.4132E+06     6.87166E+06    -5.54111E+06    -14.4140E-03     28.8870E-03    -14.4730E-03     19.2687E-03    -14.3676E-03     28.7493E-03    -14.4095E-03     19.1947E-03
             963     6.20997E-03     91.4825E-03     5.50093E+06    -26.9811E+06     7.05332E+06    -5.53572E+06    -14.4336E-03     28.8877E-03    -14.4540E-03     23.0200E-03    -14.3782E-03     28.7355E-03    -14.3876E-03     22.9454E-03
             964     7.09725E-03     91.5051E-03     6.24826E+06    -28.5591E+06     7.47759E+06    -5.59949E+06    -14.4774E-03     28.9157E-03    -14.4382E-03     27.0546E-03    -14.4171E-03     28.7545E-03    -14.3685E-03     26.9783E-03
             965     7.98453E-03     91.5313E-03     6.66214E+06    -30.2482E+06     8.43451E+06    -5.95081E+06    -14.5359E-03     28.9647E-03    -14.4288E-03     31.3890E-03    -14.4732E-03     28.7938E-03    -14.3524E-03     31.3070E-03
             966     8.87185E-03     91.5618E-03     6.99992E+06    -31.4406E+06     8.65892E+06    -7.21953E+06    -14.6348E-03     29.0535E-03    -14.4187E-03     35.9638E-03    -14.5703E-03     28.8771E-03    -14.3400E-03     35.8637E-03
             967     9.75914E-03     91.5963E-03     6.41881E+06    -34.5380E+06     7.05472E+06    -8.52517E+06    -14.7570E-03     29.1649E-03    -14.4079E-03     40.7570E-03    -14.6908E-03     28.9784E-03    -14.3318E-03     40.6376E-03
             968     10.6464E-03     91.6354E-03     4.48330E+06    -37.5990E+06     4.15588E+06    -8.51259E+06    -14.9275E-03     29.3249E-03    -14.3974E-03     45.9026E-03    -14.8658E-03     29.1336E-03    -14.3286E-03     45.7799E-03
             969     11.5334E-03     91.6793E-03     2.41136E+06    -35.2149E+06     1.71167E+06    -9.73578E+06    -15.1601E-03     29.5486E-03    -14.3885E-03     51.5045E-03    -15.1147E-03     29.3817E-03    -14.3324E-03     51.3612E-03
             970     12.4204E-03     91.7286E-03     1.26066E+06    -26.4586E+06     213.366E+03    -9.86562E+06    -15.5042E-03     29.8857E-03    -14.3815E-03     59.9939E-03    -15.4875E-03     29.7789E-03    -14.3439E-03     59.8421E-03
             971     13.3075E-03     91.7884E-03     1.66303E+06    -29.1446E+06    -5.01482E+06    -8.06475E+06    -15.8983E-03     30.2785E-03    -14.3802E-03     65.7311E-03    -15.8894E-03     30.1866E-03    -14.3654E-03     65.5941E-03
             972     14.1942E-03     91.8481E-03     2.20019E+06    -29.4408E+06    -13.5737E+06    -8.16333E+06    -16.1826E-03     30.5499E-03    -14.3673E-03     70.2211E-03    -16.1906E-03     30.5006E-03    -14.3957E-03     70.0793E-03
             973     15.0811E-03     91.9169E-03     1.46662E+06     6.64267E+06    -16.3050E+06    -7.54255E+06    -17.2997E-03     31.6345E-03    -14.3348E-03     97.0244E-03    -17.5282E-03     31.9391E-03    -14.4281E-03     96.9147E-03
             974     15.9674E-03     92.0256E-03     492.522E+03     31.7557E+06    -31.0339E+06    -4.24314E+06    -20.3192E-03     34.5807E-03    -14.2615E-03     153.695E-03    -21.6177E-03     36.0837E-03    -14.4634E-03     154.081E-03
             975     16.8526E-03     92.2041E-03    -181.378E+03     90.2861E+06    -11.5443E+06    -1.42038E+06    -20.5977E-03     34.9061E-03    -14.3084E-03     177.004E-03    -23.3867E-03     38.0484E-03    -14.4968E-03     179.326E-03
             976     887.149E-06     92.3907E-03     2.14729E+06    -14.9212E+06     2.19957E+06    -1.42671E+06    -14.4461E-03     28.8605E-03    -14.4144E-03     3.29540E-03    -14.4168E-03     28.7799E-03    -14.3849E-03     3.27660E-03
             977     1.77423E-03     92.3948E-03     2.54373E+06    -14.7749E+06     3.27079E+06    -2.32042E+06    -14.4065E-03     28.8334E-03    -14.4269E-03     6.11867E-03    -14.3771E-03     28.7511E-03    -14.3928E-03     6.08801E-03
             978     2.66147E-03     92.4015E-03     2.81805E+06    -15.4048E+06     3.88824E+06    -3.46629E+06    -14.3837E-03     28.7998E-03    -14.4161E-03     9.19425E-03    -14.3530E-03     28.7132E-03    -14.3784E-03     9.14842E-03
             979     3.54860E-03     92.4111E-03     3.23931E+06    -16.5859E+06     4.83201E+06    -4.10569E+06    -14.3552E-03     28.7594E-03    -14.4042E-03     12.4248E-03    -14.3222E-03     28.6650E-03    -14.3607E-03     12.3704E-03
             980     4.43590E-03     92.4237E-03     3.71726E+06    -17.7140E+06     6.78602E+06    -4.59110E+06    -14.3086E-03     28.7010E-03    -14.3923E-03     15.8094E-03    -14.2746E-03     28.5976E-03    -14.3381E-03     15.7483E-03
             981     5.32322E-03     92.4393E-03     4.03030E+06    -22.2816E+06     7.70082E+06    -5.81943E+06    -14.3059E-03     28.6841E-03    -14.3782E-03     19.3511E-03    -14.2652E-03     28.5564E-03    -14.3133E-03     19.2736E-03
             982     6.21058E-03     92.4583E-03     4.62651E+06    -26.5387E+06     6.85950E+06    -6.34048E+06    -14.3475E-03     28.7053E-03    -14.3579E-03     23.1462E-03    -14.2968E-03     28.5569E-03    -14.2918E-03     23.0613E-03
             983     7.09791E-03     92.4807E-03     5.51039E+06    -27.4346E+06     6.98794E+06    -6.15714E+06    -14.4006E-03     28.7422E-03    -14.3415E-03     27.2189E-03    -14.3449E-03     28.5883E-03    -14.2748E-03     27.1355E-03
             984     7.98526E-03     92.5070E-03     6.46685E+06    -29.1040E+06     8.88724E+06    -6.51160E+06    -14.4528E-03     28.7905E-03    -14.3377E-03     31.5486E-03    -14.3933E-03     28.6249E-03    -14.2605E-03     31.4595E-03
             985     8.87265E-03     92.5374E-03     6.90818E+06    -29.1361E+06     10.4720E+06    -7.01590E+06    -14.5126E-03     28.8444E-03    -14.3319E-03     36.1244E-03    -14.4545E-03     28.6770E-03    -14.2473E-03     36.0271E-03
             986     9.76001E-03     92.5721E-03     6.21839E+06    -33.8396E+06     8.93676E+06    -6.89503E+06    -14.6527E-03     28.9749E-03    -14.3222E-03     40.9202E-03    -14.5911E-03     28.7893E-03    -14.2374E-03     40.8220E-03
             987     10.6473E-03     92.6111E-03     5.52310E+06    -36.5353E+06     5.97756E+06    -7.05659E+06    -14.8592E-03     29.1686E-03    -14.3094E-03     46.1846E-03    -14.7964E-03     28.9784E-03    -14.2346E-03     46.0809E-03
             988     11.5346E-03     92.6552E-03     4.58187E+06    -32.5409E+06     4.33409E+06    -7.77191E+06    -15.1064E-03     29.4086E-03    -14.3023E-03     51.8388E-03    -15.0577E-03     29.2481E-03    -14.2400E-03     51.7211E-03
             989     12.4217E-03     92.7047E-03     2.84814E+06    -26.3372E+06     1.33155E+06    -8.61480E+06    -15.4959E-03     29.7914E-03    -14.2955E-03     60.3733E-03    -15.4731E-03     29.6814E-03    -14.2548E-03     60.2378E-03
             990     13.3086E-03     92.7644E-03     2.00307E+06    -29.1379E+06    -5.77177E+06    -9.23806E+06    -15.9540E-03     30.2470E-03    -14.2929E-03     66.3034E-03    -15.9425E-03     30.1559E-03    -14.2825E-03     66.1514E-03
             991     14.1950E-03     92.8252E-03     1.22270E+06    -28.9914E+06    -13.1344E+06    -8.48461E+06    -16.3630E-03     30.6621E-03    -14.2991E-03     70.3797E-03    -16.3777E-03     30.6163E-03    -14.3245E-03     70.2332E-03
             992     15.0819E-03     92.8921E-03     36.4940E+03     4.66841E+06    -16.2302E+06    -7.09908E+06    -17.6056E-03     31.8925E-03    -14.2869E-03     97.3248E-03    -17.8396E-03     32.1903E-03    -14.3749E-03     97.2183E-03
             993     15.9673E-03     93.0052E-03    -361.945E+03     27.8897E+06    -32.1971E+06    -5.32131E+06    -20.6855E-03     34.9144E-03    -14.2289E-03     154.482E-03    -21.9916E-03     36.4116E-03    -14.4298E-03     154.849E-03
             994     16.8551E-03     93.1785E-03    -752.106E+03     88.2622E+06    -11.9821E+06    -2.50772E+06    -20.9934E-03     35.2895E-03    -14.2961E-03     177.428E-03    -23.7990E-03     38.4405E-03    -14.4829E-03     179.729E-03
             995     887.178E-06     93.3665E-03     1.94413E+06    -11.8200E+06     1.80870E+06    -1.88184E+06    -14.3039E-03     28.6128E-03    -14.3089E-03     3.27473E-03    -14.2796E-03     28.5485E-03    -14.2855E-03     3.25008E-03
             996     1.77451E-03     93.3706E-03     2.38562E+06    -12.6049E+06     2.66196E+06    -2.61652E+06    -14.2698E-03     28.5694E-03    -14.2996E-03     6.12874E-03    -14.2435E-03     28.4991E-03    -14.2714E-03     6.09429E-03
             997     2.66175E-03     93.3773E-03     2.94043E+06    -12.9277E+06     4.21972E+06    -3.36641E+06    -14.2510E-03     28.5399E-03    -14.2889E-03     9.22109E-03    -14.2238E-03     28.4650E-03    -14.2533E-03     9.17661E-03
             998     3.54910E-03     93.3869E-03     3.31571E+06    -15.0485E+06     5.38778E+06    -4.13132E+06    -14.2279E-03     28.5068E-03    -14.2789E-03     12.4771E-03    -14.1975E-03     28.4192E-03    -14.2350E-03     12.4224E-03
             999     4.43645E-03     93.3993E-03     3.75898E+06    -16.2394E+06     6.95176E+06    -4.42494E+06    -14.1990E-03     28.4660E-03    -14.2669E-03     15.8630E-03    -14.1671E-03     28.3696E-03    -14.2141E-03     15.8041E-03
            1000     5.32389E-03     93.4149E-03     4.00003E+06    -19.6825E+06     8.67547E+06    -5.15888E+06    -14.2050E-03     28.4640E-03    -14.2590E-03     19.4412E-03    -14.1697E-03     28.3478E-03    -14.1929E-03     19.3723E-03
            1001     6.21128E-03     93.4338E-03     4.02660E+06    -25.1465E+06     8.31741E+06    -6.39569E+06    -14.2474E-03     28.4946E-03    -14.2472E-03     23.2539E-03    -14.2038E-03     28.3519E-03    -14.1750E-03     23.1684E-03
            1002     7.09875E-03     93.4562E-03     4.49296E+06    -26.7190E+06     7.13903E+06    -6.78724E+06    -14.2793E-03     28.5068E-03    -14.2275E-03     27.3648E-03    -14.2299E-03     28.3577E-03    -14.1595E-03     27.2735E-03
            1003     7.98617E-03     93.4826E-03     4.56011E+06    -28.0871E+06     7.66614E+06    -6.47746E+06    -14.3238E-03     28.5409E-03    -14.2172E-03     31.7590E-03    -14.2735E-03     28.3849E-03    -14.1447E-03     31.6706E-03
            1004     8.87359E-03     93.5128E-03     3.83042E+06    -28.3952E+06     8.70070E+06    -6.16980E+06    -14.3893E-03     28.5996E-03    -14.2103E-03     36.4193E-03    -14.3450E-03     28.4428E-03    -14.1312E-03     36.3333E-03
            1005     9.76112E-03     93.5475E-03     3.44202E+06    -33.4448E+06     7.76165E+06    -6.00259E+06    -14.5346E-03     28.7385E-03    -14.2038E-03     41.2799E-03    -14.4856E-03     28.5605E-03    -14.1215E-03     41.1936E-03
            1006     10.6486E-03     93.5866E-03     3.13588E+06    -34.8008E+06     4.67693E+06    -6.60252E+06    -14.7768E-03     28.9663E-03    -14.1895E-03     46.6085E-03    -14.7264E-03     28.7899E-03    -14.1202E-03     46.5109E-03
            1007     11.5357E-03     93.6311E-03     3.34492E+06    -31.1494E+06     3.58869E+06    -7.53321E+06    -15.0710E-03     29.2591E-03    -14.1881E-03     52.2805E-03    -15.0294E-03     29.1084E-03    -14.1299E-03     52.1661E-03
            1008     12.4229E-03     93.6804E-03     4.60880E+06    -24.4537E+06     3.30885E+06    -8.38024E+06    -15.5403E-03     29.7375E-03    -14.1973E-03     60.8629E-03    -15.5144E-03     29.6316E-03    -14.1520E-03     60.7305E-03
            1009     13.3098E-03     93.7410E-03     4.12226E+06    -28.9537E+06    -4.32758E+06    -8.44172E+06    -16.0260E-03     30.2293E-03    -14.2033E-03     66.7352E-03    -16.0063E-03     30.1340E-03    -14.1889E-03     66.5933E-03
            1010     14.1968E-03     93.8013E-03     2.17341E+06    -29.4382E+06    -12.7631E+06    -7.54488E+06    -16.6311E-03     30.8525E-03    -14.2213E-03     71.0734E-03    -16.6419E-03     30.8035E-03    -14.2456E-03     70.9382E-03
            1011     15.0817E-03     93.8704E-03     819.353E+03     4.83629E+06    -15.4150E+06    -7.47589E+06    -17.7973E-03     32.0251E-03    -14.2278E-03     97.6485E-03    -18.0302E-03     32.3228E-03    -14.3131E-03     97.5368E-03
            1012     15.9698E-03     93.9801E-03    -1.22615E+06     25.0035E+06    -31.7450E+06    -5.93433E+06    -20.9796E-03     35.1696E-03    -14.1900E-03     154.951E-03    -22.2895E-03     36.6560E-03    -14.3832E-03     155.304E-03
            1013     16.8534E-03     94.1589E-03    -1.92875E+06     85.0094E+06    -13.9231E+06    -3.23435E+06    -21.3176E-03     35.5809E-03    -14.2633E-03     177.139E-03    -24.1037E-03     38.7023E-03    -14.4534E-03     179.412E-03
            1014     887.391E-06     94.3421E-03     1.87546E+06    -8.35357E+06     2.35103E+06    -1.65292E+06    -14.1498E-03     28.2943E-03    -14.1446E-03     3.27604E-03    -14.1316E-03     28.2467E-03    -14.1234E-03     3.25436E-03
            1015     1.77472E-03     94.3461E-03     1.98297E+06    -10.2116E+06     2.46165E+06    -2.92814E+06    -14.1165E-03     28.2585E-03    -14.1420E-03     6.14298E-03    -14.0954E-03     28.2011E-03    -14.1178E-03     6.10455E-03
            1016     2.66218E-03     94.3528E-03     2.46020E+06    -10.9752E+06     3.64142E+06    -3.53146E+06    -14.0802E-03     28.2098E-03    -14.1295E-03     9.26016E-03    -14.0574E-03     28.1461E-03    -14.0990E-03     9.21362E-03
            1017     3.54965E-03     94.3623E-03     3.12047E+06    -13.1534E+06     5.55602E+06    -4.07049E+06    -14.0758E-03     28.1976E-03    -14.1218E-03     12.5258E-03    -14.0493E-03     28.1194E-03    -14.0795E-03     12.4719E-03
            1018     4.43714E-03     94.3747E-03     3.67609E+06    -15.5072E+06     7.37133E+06    -4.19935E+06    -14.0823E-03     28.1994E-03    -14.1171E-03     15.9187E-03    -14.0525E-03     28.1062E-03    -14.0631E-03     15.8627E-03
            1019     5.32461E-03     94.3902E-03     3.92174E+06    -17.7345E+06     9.21202E+06    -4.30230E+06    -14.0843E-03     28.1981E-03    -14.1138E-03     19.5428E-03    -14.0529E-03     28.0910E-03    -14.0478E-03     19.4851E-03
            1020     6.21218E-03     94.4091E-03     3.62681E+06    -22.8942E+06     9.33183E+06    -5.26724E+06    -14.1051E-03     28.2122E-03    -14.1071E-03     23.4085E-03    -14.0682E-03     28.0798E-03    -14.0325E-03     23.3377E-03
            1021     7.09964E-03     94.4315E-03     2.30607E+06    -26.0795E+06     6.58325E+06    -5.79587E+06    -14.1066E-03     28.1901E-03    -14.0835E-03     27.5517E-03    -14.0682E-03     28.0482E-03    -14.0161E-03     27.4734E-03
            1022     7.98735E-03     94.4577E-03     1.02311E+06    -27.8214E+06     4.98350E+06    -5.41080E+06    -14.1204E-03     28.1816E-03    -14.0612E-03     32.0365E-03    -14.0842E-03     28.0358E-03    -13.9974E-03     31.9622E-03
            1023     8.87501E-03     94.4881E-03     671.584E+03    -27.7324E+06     6.27148E+06    -5.24618E+06    -14.2180E-03     28.2692E-03    -14.0512E-03     36.8004E-03    -14.1868E-03     28.1237E-03    -13.9806E-03     36.7266E-03
            1024     9.76257E-03     94.5227E-03     716.946E+03    -32.5856E+06     6.70236E+06    -5.68730E+06    -14.4323E-03     28.4845E-03    -14.0522E-03     41.7908E-03    -14.3966E-03     28.3162E-03    -13.9725E-03     41.7089E-03
            1025     10.6499E-03     94.5621E-03     1.31784E+06    -32.7068E+06     3.93024E+06    -6.73438E+06    -14.7018E-03     28.7432E-03    -14.0414E-03     47.1939E-03    -14.6624E-03     28.5809E-03    -13.9762E-03     47.0951E-03
            1026     11.5375E-03     94.6065E-03     2.43833E+06    -28.7258E+06     2.99984E+06    -8.74298E+06    -15.0751E-03     29.1218E-03    -14.0467E-03     53.0005E-03    -15.0406E-03     28.9853E-03    -13.9936E-03     52.8708E-03
            1027     12.4244E-03     94.6565E-03     2.95097E+06    -23.9721E+06     3.72352E+06    -9.30484E+06    -15.6203E-03     29.6968E-03    -14.0765E-03     61.6369E-03    -15.6041E-03     29.5952E-03    -14.0274E-03     61.4927E-03
            1028     13.3113E-03     94.7171E-03     2.94097E+06    -29.6903E+06    -3.80219E+06    -7.80991E+06    -16.2305E-03     30.3313E-03    -14.1008E-03     67.4752E-03    -16.2169E-03     30.2338E-03    -14.0810E-03     67.3412E-03
            1029     14.1972E-03     94.7782E-03     2.32491E+06    -29.5713E+06    -12.3427E+06    -7.14681E+06    -16.6954E-03     30.8248E-03    -14.1293E-03     71.8216E-03    -16.7062E-03     30.7746E-03    -14.1515E-03     71.6917E-03
            1030     15.0845E-03     94.8476E-03     1.41190E+06     6.53570E+06    -12.9367E+06    -7.63523E+06    -18.3728E-03     32.5381E-03    -14.1652E-03     98.2099E-03    -18.6133E-03     32.8443E-03    -14.2415E-03     98.0917E-03
            1031     15.9684E-03     94.9574E-03     775.376E+03     23.5870E+06    -27.0528E+06    -6.75532E+06    -21.3971E-03     35.5696E-03    -14.1725E-03     154.862E-03    -22.7077E-03     37.0452E-03    -14.3431E-03     155.203E-03
            1032     16.8558E-03     95.1374E-03     251.515E+03     80.3471E+06    -14.7858E+06    -3.30606E+06    -21.0490E-03     35.2780E-03    -14.2290E-03     177.113E-03    -23.8073E-03     38.3653E-03    -14.4198E-03     179.377E-03
            1033     887.521E-06     95.3174E-03     1.53678E+06    -5.50553E+06     1.99876E+06    -958.872E+03    -13.9615E-03     27.8895E-03    -13.9280E-03     3.26600E-03    -13.9486E-03     27.8571E-03    -13.9123E-03     3.25331E-03
            1034     1.77509E-03     95.3214E-03     1.46549E+06    -7.21511E+06     3.00959E+06    -2.52391E+06    -13.9232E-03     27.8696E-03    -13.9464E-03     6.17009E-03    -13.9098E-03     27.8271E-03    -13.9230E-03     6.13692E-03
            1035     2.66267E-03     95.3279E-03     1.61502E+06    -9.31856E+06     3.96258E+06    -3.43461E+06    -13.9098E-03     27.8514E-03    -13.9416E-03     9.30650E-03    -13.8941E-03     27.7969E-03    -13.9106E-03     9.26127E-03
            1036     3.55030E-03     95.3374E-03     1.91968E+06    -11.4640E+06     5.26419E+06    -3.80622E+06    -13.9032E-03     27.8407E-03    -13.9376E-03     12.5961E-03    -13.8848E-03     27.7732E-03    -13.8974E-03     12.5458E-03
            1037     4.43789E-03     95.3498E-03     2.23003E+06    -15.1101E+06     6.97130E+06    -3.71552E+06    -13.9058E-03     27.8434E-03    -13.9376E-03     16.0327E-03    -13.8832E-03     27.7549E-03    -13.8840E-03     15.9831E-03
            1038     5.32557E-03     95.3653E-03     1.90983E+06    -17.3625E+06     7.48443E+06    -2.89069E+06    -13.8994E-03     27.8288E-03    -13.9294E-03     19.7047E-03    -13.8761E-03     27.7289E-03    -13.8696E-03     19.6654E-03
            1039     6.21321E-03     95.3842E-03     362.366E+03    -20.9992E+06     7.56972E+06    -2.82763E+06    -13.8786E-03     27.7985E-03    -13.9198E-03     23.6125E-03    -13.8582E-03     27.6828E-03    -13.8521E-03     23.5735E-03
            1040     7.10107E-03     95.4064E-03    -997.949E+03    -24.9975E+06     5.94192E+06    -3.67878E+06    -13.8885E-03     27.7880E-03    -13.8995E-03     27.8012E-03    -13.8672E-03     27.6571E-03    -13.8321E-03     27.7504E-03
            1041     7.98877E-03     95.4326E-03    -1.42497E+06    -27.1915E+06     4.51020E+06    -4.42771E+06    -13.9224E-03     27.7983E-03    -13.8759E-03     32.3262E-03    -13.8986E-03     27.6598E-03    -13.8119E-03     32.2649E-03
            1042     8.87664E-03     95.4629E-03    -1.14595E+06    -26.7547E+06     5.45809E+06    -4.97194E+06    -14.0103E-03     27.8719E-03    -13.8616E-03     37.2166E-03    -13.9882E-03     27.7349E-03    -13.7938E-03     37.1467E-03
            1043     9.76442E-03     95.4978E-03    -322.236E+03    -31.1658E+06     6.48273E+06    -5.66740E+06    -14.2637E-03     28.1272E-03    -13.8634E-03     42.4003E-03    -14.2347E-03     27.9675E-03    -13.7853E-03     42.3191E-03
            1044     10.6521E-03     95.5372E-03     556.659E+03    -29.7770E+06     5.03452E+06    -7.52899E+06    -14.6326E-03     28.4942E-03    -13.8616E-03     47.9363E-03    -14.6026E-03     28.3459E-03    -13.7941E-03     47.8276E-03
            1045     11.5393E-03     95.5820E-03     1.13471E+06    -25.9867E+06     3.97086E+06    -9.47363E+06    -15.0706E-03     28.9483E-03    -13.8777E-03     53.8811E-03    -15.0480E-03     28.8259E-03    -13.8218E-03     53.7422E-03
            1046     12.4264E-03     95.6324E-03     1.89512E+06    -24.1880E+06     4.68060E+06    -9.81551E+06    -15.6810E-03     29.6054E-03    -13.9244E-03     62.6245E-03    -15.6713E-03     29.5030E-03    -13.8687E-03     62.4738E-03
            1047     13.3130E-03     95.6933E-03     2.42404E+06    -31.4889E+06    -3.80947E+06    -8.26942E+06    -16.4274E-03     30.3896E-03    -13.9621E-03     68.7852E-03    -16.4143E-03     30.2844E-03    -13.9390E-03     68.6451E-03
            1048     14.1994E-03     95.7554E-03     2.41290E+06    -28.2611E+06    -10.6965E+06    -7.59650E+06    -17.1484E-03     31.1688E-03    -14.0204E-03     72.6312E-03    -17.1645E-03     31.1242E-03    -14.0364E-03     72.4940E-03
            1049     15.0849E-03     95.8236E-03     3.07104E+06     7.38163E+06    -9.69150E+06    -7.99529E+06    -18.7944E-03     32.8862E-03    -14.0918E-03     99.7593E-03    -19.0372E-03     33.1943E-03    -14.1554E-03     99.6348E-03
            1050     15.9697E-03     95.9394E-03     3.49833E+06     20.0887E+06    -25.1828E+06    -6.77445E+06    -21.5326E-03     35.6474E-03    -14.1148E-03     155.241E-03    -22.8281E-03     37.0997E-03    -14.2749E-03     155.588E-03
            1051     16.8552E-03     96.1088E-03     975.035E+03     76.9249E+06    -12.8373E+06    -3.15073E+06    -21.5236E-03     35.7178E-03    -14.1942E-03     177.367E-03    -24.3034E-03     38.8114E-03    -14.3713E-03     179.622E-03
            1052     887.746E-06     96.2922E-03     116.048E+03    -3.74330E+06     270.420E+03    -755.730E+03    -13.6820E-03     27.3932E-03    -13.7112E-03     3.25178E-03    -13.6762E-03     27.3742E-03    -13.7046E-03     3.24176E-03
            1053     1.77554E-03     96.2962E-03    -153.124E+03    -4.76751E+06     2.03376E+06    -1.31564E+06    -13.6959E-03     27.4007E-03    -13.7048E-03     6.21226E-03    -13.6927E-03     27.3742E-03    -13.6875E-03     6.19474E-03
            1054     2.66327E-03     96.3028E-03    -495.396E+03    -7.62488E+06     4.06590E+06    -2.19403E+06    -13.7105E-03     27.4287E-03    -13.7182E-03     9.37301E-03    -13.7079E-03     27.3855E-03    -13.6861E-03     9.34387E-03
            1055     3.55101E-03     96.3122E-03    -866.508E+03    -10.4716E+06     5.12687E+06    -2.47960E+06    -13.6858E-03     27.4088E-03    -13.7230E-03     12.6826E-03    -13.6826E-03     27.3505E-03    -13.6809E-03     12.6495E-03
            1056     4.43888E-03     96.3245E-03    -1.50944E+06    -14.8641E+06     5.02442E+06    -2.25590E+06    -13.6558E-03     27.3721E-03    -13.7163E-03     16.1642E-03    -13.6494E-03     27.2930E-03    -13.6675E-03     16.1336E-03
            1057     5.32671E-03     96.3400E-03    -2.03078E+06    -18.4682E+06     4.35190E+06    -1.22965E+06    -13.6305E-03     27.3301E-03    -13.6997E-03     19.8748E-03    -13.6206E-03     27.2349E-03    -13.6482E-03     19.8571E-03
            1058     6.21470E-03     96.3587E-03    -2.43455E+06    -20.3939E+06     5.81977E+06    -240.719E+03    -13.6169E-03     27.3050E-03    -13.6881E-03     23.8204E-03    -13.6087E-03     27.1989E-03    -13.6259E-03     23.8150E-03
            1059     7.10260E-03     96.3809E-03    -3.26412E+06    -22.5394E+06     6.16930E+06    -1.62976E+06    -13.6413E-03     27.3132E-03    -13.6719E-03     28.0696E-03    -13.6350E-03     27.1974E-03    -13.6036E-03     28.0456E-03
            1060     7.99065E-03     96.4071E-03    -3.75435E+06    -25.7388E+06     4.58235E+06    -3.55586E+06    -13.7057E-03     27.3554E-03    -13.6497E-03     32.6672E-03    -13.6956E-03     27.2273E-03    -13.5840E-03     32.6174E-03
            1061     8.87859E-03     96.4373E-03    -3.73406E+06    -25.3787E+06     4.97511E+06    -4.64992E+06    -13.7988E-03     27.4340E-03    -13.6352E-03     37.6790E-03    -13.7908E-03     27.3082E-03    -13.5681E-03     37.6137E-03
            1062     9.76663E-03     96.4723E-03    -2.71490E+06    -28.5678E+06     5.69929E+06    -6.59131E+06    -14.0506E-03     27.6856E-03    -13.6351E-03     43.0508E-03    -14.0359E-03     27.5434E-03    -13.5612E-03     42.9582E-03
            1063     10.6544E-03     96.5122E-03    -901.214E+03    -26.9744E+06     4.99805E+06    -8.43894E+06    -14.5032E-03     28.1425E-03    -13.6393E-03     48.7647E-03    -14.4843E-03     28.0101E-03    -13.5739E-03     48.6447E-03
            1064     11.5418E-03     96.5573E-03    -140.576E+03    -24.0657E+06     4.78504E+06    -9.42404E+06    -15.0459E-03     28.7167E-03    -13.6707E-03     54.8001E-03    -15.0336E-03     28.6045E-03    -13.6117E-03     54.6622E-03
            1065     12.4289E-03     96.6080E-03    -205.404E+03    -23.3023E+06     5.45020E+06    -10.2079E+06    -15.7392E-03     29.4741E-03    -13.7349E-03     63.6427E-03    -15.7426E-03     29.3782E-03    -13.6735E-03     63.4870E-03
            1066     13.3157E-03     96.6698E-03     802.352E+03    -33.1681E+06    -4.46371E+06    -9.83366E+06    -16.6174E-03     30.4053E-03    -13.7879E-03     69.9234E-03    -16.6095E-03     30.2955E-03    -13.7633E-03     69.7629E-03
            1067     14.2015E-03     96.7324E-03     2.56007E+06    -27.0415E+06    -10.1638E+06    -8.86806E+06    -17.7363E-03     31.6138E-03    -13.8775E-03     74.1751E-03    -17.7570E-03     31.5771E-03    -13.8928E-03     74.0194E-03
            1068     15.0860E-03     96.8029E-03     2.25951E+06     7.48126E+06    -8.70884E+06    -8.75986E+06    -18.8858E-03     32.8669E-03    -13.9811E-03     100.415E-03    -19.1337E-03     33.1746E-03    -14.0387E-03     100.281E-03
            1069     15.9731E-03     96.9148E-03     476.607E+03     15.1847E+06    -28.4094E+06    -6.63454E+06    -22.1116E-03     36.1282E-03    -14.0166E-03     155.600E-03    -23.4150E-03     37.5697E-03    -14.1814E-03     155.925E-03
            1070     16.8576E-03     97.0909E-03    -385.805E+03     74.0927E+06    -14.2733E+06    -2.96773E+06    -22.5485E-03     36.6951E-03    -14.1466E-03     176.298E-03    -25.3099E-03     39.7596E-03    -14.3249E-03     178.514E-03
            1071     888.005E-06     97.2666E-03    -3.55845E+06    -3.29582E+06    -2.21503E+06     107.551E+03    -13.3806E-03     26.8277E-03    -13.4471E-03     3.27614E-03    -13.3903E-03     26.8198E-03    -13.4482E-03     3.27729E-03
            1072     1.77599E-03     97.2705E-03    -3.68703E+06    -4.08203E+06    -576.241E+03     308.476E+03    -13.4311E-03     26.8600E-03    -13.4289E-03     6.27376E-03    -13.4428E-03     26.8458E-03    -13.4205E-03     6.27726E-03
            1073     2.66397E-03     97.2772E-03    -3.89787E+06    -6.42743E+06     1.96125E+06     2.39878E+03    -13.4285E-03     26.8760E-03    -13.4475E-03     9.44674E-03    -13.4416E-03     26.8467E-03    -13.4227E-03     9.44604E-03
            1074     3.55198E-03     97.2865E-03    -4.41841E+06    -10.5005E+06     3.59636E+06     46.0809E+03    -13.4030E-03     26.8592E-03    -13.4562E-03     12.7868E-03    -13.4152E-03     26.8080E-03    -13.4166E-03     12.7864E-03
            1075     4.43998E-03     97.2988E-03    -5.30908E+06    -14.8587E+06     3.74633E+06     391.862E+03    -13.3618E-03     26.8112E-03    -13.4494E-03     16.3101E-03    -13.3725E-03     26.7394E-03    -13.4014E-03     16.3139E-03
            1076     5.32818E-03     97.3141E-03    -5.97171E+06    -19.2859E+06     3.23286E+06     457.807E+03    -13.3392E-03     26.7723E-03    -13.4331E-03     20.0429E-03    -13.3463E-03     26.6803E-03    -13.3803E-03     20.0472E-03
            1077     6.21633E-03     97.3328E-03    -5.32579E+06    -20.7229E+06     4.19947E+06     562.778E+03    -13.3295E-03     26.7449E-03    -13.4154E-03     24.0232E-03    -13.3328E-03     26.6436E-03    -13.3567E-03     24.0284E-03
            1078     7.10460E-03     97.3550E-03    -4.48187E+06    -20.1956E+06     5.46719E+06     148.990E+03    -13.3472E-03     26.7429E-03    -13.3958E-03     28.3485E-03    -13.3493E-03     26.6416E-03    -13.3326E-03     28.3478E-03
            1079     7.99279E-03     97.3810E-03    -5.01856E+06    -23.2757E+06     5.38627E+06    -1.82866E+06    -13.4335E-03     26.8136E-03    -13.3802E-03     33.0421E-03    -13.4343E-03     26.6984E-03    -13.3122E-03     33.0150E-03
            1080     8.88105E-03     97.4114E-03    -5.44711E+06    -23.5333E+06     4.80345E+06    -3.82911E+06    -13.5804E-03     26.9456E-03    -13.3652E-03     38.1688E-03    -13.5832E-03     26.8316E-03    -13.2992E-03     38.1145E-03
            1081     9.76914E-03     97.4464E-03    -5.67924E+06    -24.3122E+06     4.40497E+06    -6.50812E+06    -13.8626E-03     27.2265E-03    -13.3640E-03     43.7783E-03    -13.8668E-03     27.1115E-03    -13.2985E-03     43.6873E-03
            1082     10.6571E-03     97.4867E-03    -5.10066E+06     -24.077E+06     3.99146E+06    -9.85032E+06    -14.3227E-03     27.7029E-03    -13.3802E-03     49.6972E-03    -14.3273E-03     27.5923E-03    -13.3180E-03     49.5595E-03
            1083     11.5447E-03     97.5323E-03    -3.31434E+06    -23.9611E+06     3.50193E+06    -10.0071E+06    -14.9954E-03     28.4184E-03    -13.4230E-03     55.8434E-03    -14.9971E-03     28.3131E-03    -13.3659E-03     55.6984E-03
            1084     12.4317E-03     97.5837E-03    -2.77112E+06    -21.5251E+06     4.94424E+06    -9.48014E+06    -15.8759E-03     29.3828E-03    -13.5069E-03     64.7379E-03    -15.8942E-03     29.3005E-03    -13.4469E-03     64.5916E-03
            1085     13.3181E-03     97.6459E-03    -3.10022E+06    -31.6866E+06    -6.54007E+06    -11.4862E+06    -16.9375E-03     30.5204E-03    -13.5830E-03     71.2652E-03    -16.9492E-03     30.4277E-03    -13.5652E-03     71.0826E-03
            1086     14.2038E-03     97.7101E-03    -1.17068E+06    -27.0401E+06    -13.7635E+06    -12.9580E+06    -17.8924E-03     31.5844E-03    -13.6920E-03     75.8231E-03    -17.9277E-03     31.5595E-03    -13.7199E-03     75.6144E-03
            1087     15.0891E-03     97.7815E-03     2.05123E+06     5.91692E+06    -8.41719E+06    -10.5261E+06    -19.6845E-03     33.5331E-03    -13.8486E-03     100.660E-03    -19.9356E-03     33.8369E-03    -13.9022E-03     100.497E-03
            1088     15.9731E-03     97.8913E-03     1.18674E+06     11.8638E+06    -24.9838E+06    -6.08866E+06    -23.2114E-03     37.1706E-03    -13.9592E-03     156.257E-03    -24.5339E-03     38.6118E-03    -14.1030E-03     156.569E-03
            1089     16.8554E-03     98.0736E-03    -22.9037E+03     70.3519E+06    -13.1120E+06    -2.44079E+06    -22.6813E-03     36.7956E-03    -14.1143E-03     175.570E-03    -25.3972E-03     39.7992E-03    -14.2818E-03     177.748E-03
            1090     888.286E-06     98.2403E-03    -5.56428E+06    -5.83511E+06    -3.53311E+06     2.57660E+06    -13.1004E-03     26.2091E-03    -13.1087E-03     3.39686E-03    -13.1145E-03     26.1933E-03    -13.1098E-03     3.42990E-03
            1091     1.77651E-03     98.2444E-03    -6.89937E+06    -5.31175E+06    -2.17940E+06     3.28666E+06    -13.1133E-03     26.2337E-03    -13.1204E-03     6.32638E-03    -13.1369E-03     26.2203E-03    -13.1136E-03     6.36840E-03
            1092     2.66478E-03     98.2509E-03    -8.27747E+06    -6.42238E+06    -1.01743E+06     3.16203E+06    -13.0704E-03     26.1978E-03    -13.1273E-03     9.52801E-03    -13.1011E-03     26.1792E-03    -13.1111E-03     9.56820E-03
            1093     3.55309E-03     98.2603E-03    -8.90418E+06    -11.1239E+06     780.501E+03     2.89615E+06    -13.0388E-03     26.1683E-03    -13.1296E-03     12.8973E-03    -13.0684E-03     26.1246E-03    -13.0966E-03     12.9339E-03
            1094     4.44150E-03     98.2724E-03    -8.86746E+06    -15.4954E+06     2.99921E+06     3.10168E+06    -13.0352E-03     26.1645E-03    -13.1294E-03     16.4912E-03    -13.0616E-03     26.0958E-03    -13.0790E-03     16.5301E-03
            1095     5.32983E-03     98.2877E-03    -9.01689E+06    -19.1935E+06     4.07161E+06     2.88608E+06    -13.0432E-03     26.1665E-03    -13.1233E-03     20.2593E-03    -13.0668E-03     26.0781E-03    -13.0620E-03     20.2951E-03
            1096     6.21824E-03     98.3063E-03    -9.25930E+06    -19.7128E+06     3.28451E+06     1.36172E+06    -13.0210E-03     26.1224E-03    -13.1015E-03     24.2677E-03    -13.0441E-03     26.0332E-03    -13.0430E-03     24.2835E-03
            1097     7.10677E-03     98.3283E-03    -8.06426E+06    -19.5660E+06     3.13587E+06     134.345E+03    -13.0197E-03     26.0959E-03    -13.0762E-03     28.6351E-03    -13.0372E-03     26.0062E-03    -13.0204E-03     28.6345E-03
            1098     7.99536E-03     98.3546E-03    -6.41054E+06    -20.9946E+06     4.69273E+06    -432.713E+03    -13.1005E-03     26.1626E-03    -13.0621E-03     33.4183E-03    -13.1105E-03     26.0616E-03    -12.9989E-03     33.4096E-03
            1099     8.88379E-03     98.3848E-03    -6.28195E+06    -20.7242E+06     4.52511E+06    -2.52896E+06    -13.3219E-03     26.3711E-03    -13.0492E-03     38.7361E-03    -13.3324E-03     26.2726E-03    -12.9875E-03     38.6990E-03
            1100     9.77217E-03     98.4202E-03    -5.88753E+06    -19.6332E+06     5.10480E+06    -5.81719E+06    -13.6687E-03     26.7252E-03    -13.0565E-03     44.5306E-03    -13.6815E-03     26.6326E-03    -12.9940E-03     44.4490E-03
            1101     10.6602E-03     98.4607E-03    -6.20578E+06    -20.0824E+06     5.05882E+06    -8.95537E+06    -14.1731E-03     27.2603E-03    -13.0872E-03     50.6742E-03    -14.1903E-03     27.1695E-03    -13.0237E-03     50.5486E-03
            1102     11.5480E-03     98.5070E-03    -7.19785E+06    -24.3028E+06     1.73357E+06    -10.4320E+06    -14.9430E-03     28.0827E-03    -13.1397E-03     57.1076E-03    -14.9609E-03     27.9837E-03    -13.0853E-03     56.9576E-03
            1103     12.4350E-03     98.5593E-03    -5.31722E+06    -19.8918E+06     4.02905E+06    -10.6632E+06    -16.0191E-03     29.2633E-03    -13.2442E-03     66.2191E-03    -16.0515E-03     29.1945E-03    -13.1875E-03     66.0575E-03
            1104     13.3213E-03     98.6224E-03    -2.61961E+06    -27.4471E+06    -5.64890E+06    -12.7147E+06    -17.2998E-03     30.6519E-03    -13.3521E-03     73.0254E-03    -17.3177E-03     30.5794E-03    -13.3367E-03     72.8263E-03
            1105     14.2064E-03     98.6878E-03    -1.97775E+06    -24.5889E+06    -13.7780E+06    -16.1549E+06    -18.3042E-03     31.8009E-03    -13.4966E-03     76.9258E-03    -18.3484E-03     31.7907E-03    -13.5270E-03     76.6745E-03
            1106     15.0917E-03     98.7589E-03    -1.34869E+06    -824.797E+03    -10.0557E+06    -13.5795E+06    -20.5184E-03     34.2239E-03    -13.7055E-03     102.674E-03    -20.7825E-03     34.5095E-03    -13.7526E-03     102.466E-03
            1107     15.9733E-03     98.8749E-03     655.563E+03     6.12713E+06    -26.2556E+06    -6.05821E+06    -23.6587E-03     37.5102E-03    -13.8514E-03     157.546E-03    -24.9773E-03     38.9289E-03    -13.9925E-03     157.863E-03
            1108     16.8601E-03     99.0483E-03    -96.0333E+03     69.1485E+06    -9.08693E+06    -2.22416E+06    -23.2867E-03     37.3436E-03    -14.0570E-03     176.005E-03    -26.0191E-03     40.3476E-03    -14.2025E-03     178.145E-03
            1109     888.609E-06     99.2136E-03    -10.3813E+06    -12.8283E+06     -9.1105E+06     4.93024E+06    -12.7590E-03     25.4791E-03    -12.7201E-03     3.48573E-03    -12.7789E-03     25.4435E-03    -12.7320E-03     3.54919E-03
            1110     1.77715E-03     99.2174E-03    -11.0193E+06    -9.03199E+06    -6.81393E+06     6.95577E+06    -12.7083E-03     25.4521E-03    -12.7438E-03     6.37452E-03    -12.7404E-03     25.4329E-03    -12.7488E-03     6.46395E-03
            1111     2.66578E-03     99.2240E-03    -12.1375E+06    -8.02433E+06    -3.82156E+06     7.36186E+06    -12.6616E-03     25.4067E-03    -12.7451E-03     9.62637E-03    -12.7051E-03     25.3897E-03    -12.7350E-03     9.72087E-03
            1112     3.55445E-03     99.2332E-03    -13.3438E+06    -11.5752E+06    -443.078E+03     6.54809E+06    -12.6540E-03     25.4066E-03    -12.7525E-03     13.0334E-03    -12.7034E-03     25.3688E-03    -12.7186E-03     13.1172E-03
            1113     4.44314E-03     99.2453E-03    -13.4636E+06    -16.4418E+06     2.18354E+06     5.63333E+06    -12.6733E-03     25.4332E-03    -12.7599E-03     16.6587E-03    -12.7202E-03     25.3675E-03    -12.7056E-03     16.7305E-03
            1114     5.33183E-03     99.2607E-03    -12.5157E+06    -19.0118E+06     3.37868E+06     5.04801E+06    -12.6761E-03     25.4318E-03    -12.7557E-03     20.4583E-03    -12.7164E-03     25.3503E-03    -12.6931E-03     20.5223E-03
            1115     6.22058E-03     99.2791E-03    -11.7039E+06    -17.3367E+06     3.05213E+06     3.23834E+06    -12.6859E-03     25.4217E-03    -12.7358E-03     24.5548E-03    -12.7242E-03     25.3481E-03    -12.6785E-03     24.5950E-03
            1116     7.10927E-03     99.3013E-03    -11.7314E+06    -18.1525E+06     1.77520E+06     667.843E+03    -12.7037E-03     25.4182E-03    -12.7146E-03     28.9649E-03    -12.7394E-03     25.3428E-03    -12.6624E-03     28.9714E-03
            1117     7.99812E-03     99.3271E-03    -10.8454E+06    -20.0900E+06     2.02706E+06    -848.870E+03    -12.7753E-03     25.4769E-03    -12.7016E-03     33.8267E-03    -12.8047E-03     25.3906E-03    -12.6466E-03     33.8130E-03
            1118     8.88702E-03     99.3579E-03    -8.21414E+06    -17.1252E+06     3.43142E+06    -2.61156E+06    -13.0041E-03     25.6971E-03    -12.6930E-03     39.3127E-03    -13.0277E-03     25.6208E-03    -12.6391E-03     39.2750E-03
            1119     9.77548E-03     99.3933E-03    -6.60581E+06    -15.3513E+06     4.79670E+06    -5.71049E+06    -13.4148E-03     26.1217E-03    -12.7068E-03     45.3011E-03    -13.4368E-03     26.0518E-03    -12.6510E-03     45.2214E-03
            1120     10.6639E-03     99.4344E-03    -6.65354E+06    -18.4073E+06     5.27187E+06    -6.65314E+06    -14.0413E-03     26.7960E-03    -12.7546E-03     51.6903E-03    -14.0633E-03     26.7137E-03    -12.6919E-03     51.5950E-03
            1121     11.5516E-03     99.4813E-03    -7.03449E+06    -19.8501E+06     5.03412E+06    -9.29350E+06    -14.9286E-03     27.7642E-03    -12.8356E-03     58.4071E-03    -14.9568E-03     27.6823E-03    -12.7714E-03     58.2722E-03
            1122     12.4387E-03     99.5346E-03    -5.13033E+06    -17.0893E+06     6.20209E+06    -14.1764E+06    -16.1274E-03     29.0873E-03    -12.9599E-03     67.8311E-03    -16.1664E-03     29.0294E-03    -12.8967E-03     67.6243E-03
            1123     13.3248E-03     99.5992E-03    -2.07654E+06    -25.4816E+06    -4.23290E+06    -14.9131E+06    -17.6171E-03     30.7113E-03    -13.0942E-03     74.9235E-03    -17.6380E-03     30.6467E-03    -13.0754E-03     74.6955E-03
            1124     14.2098E-03     99.6657E-03    -2.65906E+06    -20.7253E+06    -9.34935E+06    -14.8253E+06    -19.1317E-03     32.4324E-03    -13.3007E-03     78.6102E-03    -19.1950E-03     32.4399E-03    -13.3136E-03     78.3726E-03
            1125     15.0929E-03     99.7381E-03    -5.21813E+06    -6.63178E+06    -9.75317E+06    -13.7945E+06    -20.9846E-03     34.5398E-03    -13.5552E-03     104.096E-03    -21.2628E-03     34.8043E-03    -13.5868E-03     103.882E-03
            1126     15.9787E-03     99.8547E-03    -5.23317E+06    -1.56426E+06    -33.6488E+06    -10.0146E+06    -24.2063E-03     37.9118E-03    -13.7055E-03     156.932E-03    -25.5043E-03     39.2833E-03    -13.8639E-03     157.168E-03
            1127     16.8597E-03     100.028E-03    -2.31510E+06     66.0854E+06    -13.3808E+06    -5.09524E+06    -24.3871E-03     38.3554E-03    -13.9683E-03     174.823E-03    -27.0960E-03     41.3295E-03    -14.1276E-03     176.863E-03
            1128     888.872E-06     100.186E-03    -15.0204E+06    -22.9011E+06    -14.8036E+06     5.60555E+06    -12.3395E-03     24.6258E-03    -12.2863E-03     3.53554E-03    -12.3598E-03     24.5548E-03    -12.3054E-03     3.60774E-03
            1129     1.77796E-03     100.190E-03    -14.9711E+06    -15.9032E+06    -12.6966E+06     9.14413E+06    -12.2468E-03     24.5465E-03    -12.2997E-03     6.43305E-03    -12.2802E-03     24.5071E-03    -12.3184E-03     6.55079E-03
            1130     2.66698E-03     100.196E-03    -15.0130E+06    -11.7734E+06    -6.52519E+06     11.0248E+06    -12.2317E-03     24.5368E-03    -12.3050E-03     9.69634E-03    -12.2803E-03     24.5092E-03    -12.2988E-03     9.83819E-03
            1131     3.55604E-03     100.205E-03    -14.9649E+06    -12.8488E+06     306.253E+03     10.9861E+06    -12.2601E-03     24.5915E-03    -12.3313E-03     13.1663E-03    -12.3169E-03     24.5486E-03    -12.2895E-03     13.3075E-03
            1132     4.44495E-03     100.218E-03    -15.4403E+06    -16.4269E+06     2.09667E+06     9.32887E+06    -12.2758E-03     24.6173E-03    -12.3415E-03     16.8179E-03    -12.3324E-03     24.5547E-03    -12.2848E-03     16.9375E-03
            1133     5.33405E-03     100.233E-03    -15.3479E+06    -18.3281E+06     1.96686E+06     6.85030E+06    -12.2822E-03     24.6191E-03    -12.3368E-03     20.6676E-03    -12.3355E-03     24.5471E-03    -12.2782E-03     20.7550E-03
            1134     6.22311E-03     100.251E-03    -14.3382E+06    -15.4822E+06     1.49434E+06     4.77814E+06    -12.2945E-03     24.6136E-03    -12.3191E-03     24.7820E-03    -12.3464E-03     24.5553E-03    -12.2684E-03     24.8423E-03
            1135     7.11227E-03     100.273E-03    -13.7952E+06    -15.7071E+06     1.17966E+06     2.75574E+06    -12.3675E-03     24.6753E-03    -12.3079E-03     29.2548E-03    -12.4162E-03     24.6159E-03    -12.2592E-03     29.2885E-03
            1136     8.00129E-03     100.299E-03    -13.2331E+06    -16.9659E+06     1.75893E+06     -960.29E+03    -12.5043E-03     24.8123E-03    -12.3080E-03     34.2500E-03    -12.5497E-03     24.7454E-03    -12.2554E-03     34.2351E-03
            1137     8.89020E-03     100.330E-03    -11.7888E+06    -14.4730E+06     1.52060E+06    -4.12636E+06    -12.6933E-03     24.9980E-03    -12.3047E-03     39.8727E-03    -12.7356E-03     24.9427E-03    -12.2591E-03     39.8159E-03
            1138     9.77933E-03     100.366E-03    -10.8358E+06    -12.8439E+06     2.43135E+06    -4.81776E+06    -13.1334E-03     25.4591E-03    -12.3257E-03     46.0663E-03    -13.1765E-03     25.4110E-03    -12.2792E-03     45.9987E-03
            1139     10.6677E-03     100.407E-03    -9.84405E+06    -16.9346E+06     4.35690E+06    -6.45941E+06    -13.8971E-03     26.2906E-03    -12.3935E-03     52.6911E-03    -13.9356E-03     26.2214E-03    -12.3329E-03     52.5988E-03
            1140     11.5556E-03     100.455E-03    -6.48411E+06    -12.7081E+06     7.87540E+06    -10.5236E+06    -14.9127E-03     27.4122E-03    -12.4995E-03     59.8054E-03    -14.9525E-03     27.3610E-03    -12.4322E-03     59.6551E-03
            1141     12.4425E-03     100.510E-03    -4.50011E+06    -11.8017E+06     7.74949E+06    -15.2545E+06    -16.2587E-03     28.9040E-03    -12.6453E-03     69.4172E-03    -16.3047E-03     28.8697E-03    -12.5829E-03     69.1966E-03
            1142     13.3288E-03     100.575E-03    -4.82621E+06    -26.7958E+06    -6.08661E+06    -16.1770E+06    -17.9363E-03     30.7453E-03    -12.8090E-03     76.9149E-03    -17.9671E-03     30.6816E-03    -12.7936E-03     76.6701E-03
            1143     14.2131E-03     100.644E-03    -3.83507E+06    -19.0274E+06    -6.80789E+06    -14.4776E+06    -19.7391E-03     32.8115E-03    -13.0724E-03     80.9837E-03    -19.8172E-03     32.8283E-03    -13.0733E-03     80.7482E-03
            1144     15.0965E-03     100.718E-03    -1.15321E+06    -7.01279E+06    -5.86602E+06    -14.3451E+06    -22.2234E-03     35.6161E-03    -13.3927E-03     105.081E-03    -22.4907E-03     35.8715E-03    -13.4102E-03     104.849E-03
            1145     15.9776E-03     100.833E-03     157.133E+03    -6.64183E+06    -33.2941E+06    -12.2984E+06    -25.6491E-03     39.2593E-03    -13.6102E-03     157.320E-03    -26.9083E-03     40.5920E-03    -13.7672E-03     157.480E-03
            1146     16.8601E-03     101.012E-03    -62.2402E+03     59.2354E+06    -13.2673E+06    -6.39891E+06    -24.7178E-03     38.6464E-03    -13.9286E-03     174.113E-03    -27.3593E-03     41.5364E-03    -14.0807E-03     176.074E-03
            1147     889.458E-06     101.157E-03    -17.5036E+06    -33.2712E+06    -17.7562E+06     5.08308E+06    -11.8475E-03     23.6541E-03    -11.8067E-03     3.51469E-03    -11.8609E-03     23.5391E-03    -11.8218E-03     3.58017E-03
            1148     1.77877E-03     101.161E-03    -16.7255E+06    -25.7425E+06    -14.1500E+06     9.83407E+06    -11.7990E-03     23.6241E-03    -11.8251E-03     6.49653E-03    -11.8248E-03     23.5402E-03    -11.8343E-03     6.62322E-03
            1149     2.66829E-03     101.168E-03    -15.8701E+06    -18.2574E+06    -6.65808E+06     13.7186E+06    -11.8017E-03     23.6457E-03    -11.8439E-03     9.77021E-03    -11.8450E-03     23.5871E-03    -11.8277E-03     9.94691E-03
            1150     3.55760E-03     101.177E-03    -14.7491E+06    -15.1440E+06    -1.06693E+06     14.1640E+06    -11.7968E-03     23.6585E-03    -11.8617E-03     13.2601E-03    -11.8471E-03     23.6057E-03    -11.8237E-03     13.4424E-03
            1151     4.44716E-03     101.189E-03    -13.4888E+06    -16.7404E+06     1.73992E+06     12.8365E+06    -11.8335E-03     23.7056E-03    -11.8721E-03     16.9822E-03    -11.8793E-03     23.6391E-03    -11.8196E-03     17.1473E-03
            1152     5.33648E-03     101.204E-03    -13.6224E+06    -16.3858E+06     3.11552E+06     10.1419E+06    -11.8829E-03     23.7605E-03    -11.8775E-03     20.8996E-03    -11.9320E-03     23.6940E-03    -11.8185E-03     21.0296E-03
            1153     6.22590E-03     101.223E-03    -14.2613E+06    -13.7866E+06     2.76835E+06     6.77404E+06    -11.9260E-03     23.7996E-03    -11.8736E-03     25.0414E-03    -11.9818E-03     23.7478E-03    -11.8191E-03     25.1277E-03
            1154     7.11534E-03     101.245E-03    -13.4570E+06    -13.4834E+06     2.62644E+06     4.00998E+06    -12.0315E-03     23.9057E-03    -11.8742E-03     29.5601E-03    -12.0837E-03     23.8547E-03    -11.8220E-03     29.6103E-03
            1155     8.00470E-03     101.271E-03    -12.3258E+06    -11.1650E+06     2.86563E+06    -38.0343E+03    -12.1867E-03     24.0655E-03    -11.8789E-03     34.6189E-03    -12.2374E-03     24.0246E-03    -11.8305E-03     34.6163E-03
            1156     8.89405E-03     101.302E-03    -11.8722E+06    -11.9956E+06     2.71705E+06    -3.81931E+06    -12.4792E-03     24.3770E-03    -11.8978E-03     40.3970E-03    -12.5271E-03     24.3323E-03    -11.8496E-03     40.3445E-03
            1157     9.78299E-03     101.338E-03    -10.2503E+06    -12.3720E+06     4.37722E+06    -5.00766E+06    -12.9588E-03     24.9018E-03    -11.9430E-03     46.8072E-03    -13.0022E-03     24.8522E-03    -11.8884E-03     46.7375E-03
            1158     10.6718E-03     101.380E-03    -7.32322E+06    -11.7838E+06     6.87889E+06    -7.61317E+06    -13.7062E-03     25.7259E-03    -12.0197E-03     53.7617E-03    -13.7429E-03     25.6748E-03    -11.9576E-03     53.6552E-03
            1159     11.5596E-03     101.429E-03    -6.21227E+06    -7.43105E+06     8.05649E+06    -11.6671E+06    -14.8108E-03     26.9426E-03    -12.1318E-03     61.3896E-03    -14.8568E-03     26.9168E-03    -12.0717E-03     61.2252E-03
            1160     12.4469E-03     101.485E-03    -7.34311E+06    -8.08803E+06     6.90383E+06     -13.048E+06    -16.3760E-03     28.6780E-03    -12.3020E-03     71.3503E-03    -16.4404E-03     28.6676E-03    -12.2451E-03     71.1583E-03
            1161     13.3324E-03     101.552E-03    -8.95153E+06    -24.3647E+06    -5.48858E+06    -15.7483E+06    -18.2806E-03     30.7908E-03    -12.5102E-03     79.3300E-03    -18.3372E-03     30.7451E-03    -12.4894E-03     79.0902E-03
            1162     14.2170E-03     101.623E-03    -6.90997E+06    -17.7318E+06    -8.70775E+06    -18.9246E+06    -20.2098E-03     33.0101E-03    -12.8003E-03     83.7049E-03    -20.3038E-03     33.0419E-03    -12.8081E-03     83.4105E-03
            1163     15.0995E-03     101.699E-03    -3.85212E+06    -8.19677E+06    -8.00899E+06    -17.7955E+06    -23.4074E-03     36.5858E-03    -13.1785E-03     108.095E-03    -23.6908E-03     36.8498E-03    -13.2010E-03     107.810E-03
            1164     15.9800E-03     101.817E-03    -2.91137E+06    -11.5325E+06    -36.5476E+06    -13.6335E+06    -26.9012E-03     40.3686E-03    -13.4674E-03     159.043E-03    -28.1531E-03     41.6753E-03    -13.6292E-03     159.154E-03
            1165     16.8616E-03     101.991E-03    -1.71055E+06     52.0616E+06    -12.5778E+06    -7.91165E+06    -25.2551E-03     39.1132E-03    -13.8581E-03     173.649E-03    -27.8562E-03     41.9295E-03    -13.9940E-03     175.515E-03
            1166     889.781E-06     102.127E-03    -23.7221E+06    -41.7949E+06    -23.2219E+06     3.44081E+06    -11.3162E-03     22.6234E-03    -11.3072E-03     3.50752E-03    -11.3404E-03     22.4827E-03    -11.3283E-03     3.55184E-03
            1167     1.77982E-03     102.131E-03    -20.1306E+06    -37.0188E+06    -16.2290E+06     8.55161E+06    -11.3392E-03     22.6772E-03    -11.3380E-03     6.56071E-03    -11.3627E-03     22.5448E-03    -11.3363E-03     6.67090E-03
            1168     2.66947E-03     102.138E-03    -15.9870E+06    -27.2034E+06    -10.4080E+06     13.8534E+06    -11.3228E-03     22.6709E-03    -11.3481E-03     9.83965E-03    -11.3482E-03     22.5732E-03    -11.3375E-03     10.0182E-03
            1169     3.55948E-03     102.147E-03    -13.6010E+06    -18.3635E+06    -4.96060E+06     15.7783E+06    -11.3070E-03     22.6592E-03    -11.3522E-03     13.3526E-03    -11.3412E-03     22.5943E-03    -11.3307E-03     13.5559E-03
            1170     4.44928E-03     102.159E-03    -12.3522E+06    -17.9819E+06     266.584E+03     14.5698E+06    -11.3636E-03     22.7351E-03    -11.3715E-03     17.1126E-03    -11.3998E-03     22.6628E-03    -11.3261E-03     17.3002E-03
            1171     5.33921E-03     102.175E-03    -10.3688E+06    -14.8507E+06     4.15106E+06     12.3453E+06    -11.4369E-03     22.8230E-03    -11.3861E-03     21.0279E-03    -11.4735E-03     22.7580E-03    -11.3288E-03     21.1866E-03
            1172     6.22902E-03     102.193E-03    -9.18661E+06    -11.7726E+06     6.52277E+06     9.53629E+06    -11.5707E-03     22.9730E-03    -11.4023E-03     25.2731E-03    -11.6094E-03     22.9184E-03    -11.3393E-03     25.3953E-03
            1173     7.11863E-03     102.215E-03    -8.94903E+06    -9.58248E+06     7.15613E+06     5.11049E+06    -11.7164E-03     23.1372E-03    -11.4208E-03     29.8563E-03    -11.7582E-03     23.0925E-03    -11.3581E-03     29.9209E-03
            1174     8.00833E-03     102.242E-03    -7.65512E+06    -6.13329E+06     7.37980E+06     433.810E+03    -11.9105E-03     23.3511E-03    -11.4405E-03     34.9580E-03    -11.9517E-03     23.3218E-03    -11.3836E-03     34.9616E-03
            1175     8.89786E-03     102.273E-03    -6.71436E+06    -9.72507E+06     7.43105E+06    -2.04868E+06    -12.2992E-03     23.7827E-03    -11.4835E-03     40.8629E-03    -12.3313E-03     23.7349E-03    -11.4225E-03     40.8336E-03
            1176     9.78700E-03     102.309E-03    -6.70368E+06    -9.22060E+06     7.99191E+06    -5.10852E+06    -12.7717E-03     24.3160E-03    -11.5443E-03     47.5112E-03    -12.8070E-03     24.2715E-03    -11.4812E-03     47.4407E-03
            1177     10.6758E-03     102.352E-03    -6.24322E+06    -7.40267E+06     7.69821E+06    -8.35546E+06    -13.4495E-03     25.0716E-03    -11.6221E-03     54.9456E-03    -13.4878E-03     25.0392E-03    -11.5638E-03     54.8303E-03
            1178     11.5643E-03     102.402E-03    -7.48462E+06    -5.39822E+06     7.45753E+06    -8.39434E+06    -14.6037E-03     26.3470E-03    -11.7433E-03     63.0931E-03    -14.6575E-03     26.3335E-03    -11.6874E-03     62.9719E-03
            1179     12.4514E-03     102.459E-03    -10.5106E+06    -5.20512E+06     7.53617E+06    -9.54748E+06    -16.3513E-03     28.2876E-03    -11.9362E-03     73.6578E-03    -16.4364E-03     28.2950E-03    -11.8757E-03     73.5117E-03
            1180     13.3374E-03     102.529E-03    -10.3701E+06    -14.8691E+06     754.249E+03    -16.1688E+06    -18.5817E-03     30.7703E-03    -12.1886E-03     82.2629E-03    -18.6687E-03     30.7657E-03    -12.1483E-03     82.0174E-03
            1181     14.2211E-03     102.602E-03    -9.53926E+06    -15.1532E+06    -5.11775E+06    -21.6878E+06    -20.8546E-03     33.3761E-03    -12.5215E-03     86.7870E-03    -20.9730E-03     33.4218E-03    -12.5113E-03     86.4545E-03
            1182     15.1035E-03     102.680E-03    -8.39900E+06    -11.8295E+06    -7.12657E+06    -20.6336E+06    -24.0879E-03     37.0341E-03    -12.9462E-03     111.314E-03    -24.3942E-03     37.2894E-03    -12.9525E-03     110.986E-03
            1183     15.9842E-03     102.801E-03    -6.10826E+06    -14.7662E+06    -34.8286E+06    -17.5041E+06    -27.4362E-03     40.7147E-03    -13.2785E-03     159.645E-03    -28.6468E-03     41.9522E-03    -13.4224E-03     159.670E-03
            1184     16.8639E-03     102.973E-03    -3.85049E+06     42.8004E+06    -10.2937E+06    -11.2134E+06    -26.2143E-03     39.9416E-03    -13.7273E-03     173.449E-03    -28.7570E-03     42.6524E-03    -13.8353E-03     175.161E-03
            1185     890.429E-06     103.097E-03    -35.1521E+06    -46.9144E+06    -33.5561E+06     1.03832E+06    -10.8355E-03     21.6325E-03    -10.7971E-03     3.55178E-03    -10.8944E-03     21.4978E-03    -10.8458E-03     3.56512E-03
            1186     1.78044E-03     103.101E-03    -29.5184E+06    -45.2531E+06    -28.1881E+06     3.86081E+06    -10.8178E-03     21.6494E-03    -10.8316E-03     6.57692E-03    -10.8589E-03     21.5068E-03    -10.8641E-03     6.62663E-03
            1187     2.67097E-03     103.107E-03    -21.3793E+06    -36.1397E+06    -21.9520E+06     7.67088E+06    -10.8018E-03     21.6268E-03    -10.8249E-03     9.86662E-03    -10.8245E-03     21.5089E-03    -10.8513E-03     9.96540E-03
            1188     3.56122E-03     103.117E-03    -13.5401E+06    -25.2982E+06    -10.7914E+06     12.9702E+06    -10.8336E-03     21.6742E-03    -10.8406E-03     13.3715E-03    -10.8491E-03     21.5831E-03    -10.8382E-03     13.5386E-03
            1189     4.45161E-03     103.129E-03    -9.27457E+06    -19.5150E+06    -1.36843E+06     14.9877E+06    -10.8953E-03     21.7643E-03    -10.8690E-03     17.1095E-03    -10.9115E-03     21.6823E-03    -10.8341E-03     17.3026E-03
            1190     5.34180E-03     103.144E-03    -7.99191E+06    -14.3910E+06     4.44889E+06     13.0697E+06    -11.0035E-03     21.8989E-03    -10.8954E-03     21.0669E-03    -11.0292E-03     21.8323E-03    -10.8407E-03     21.2350E-03
            1191     6.23203E-03     103.163E-03    -6.28885E+06    -10.3032E+06     7.90643E+06     10.5386E+06    -11.1651E-03     22.0880E-03    -10.9229E-03     25.3304E-03    -11.1934E-03     22.0344E-03    -10.8593E-03     25.4656E-03
            1192     7.12215E-03     103.185E-03    -4.12840E+06    -3.81837E+06     11.4778E+06     6.17241E+06    -11.3612E-03     22.3191E-03    -10.9579E-03     29.9445E-03    -11.3935E-03     22.2899E-03    -10.8890E-03     30.0230E-03
            1193     8.01204E-03     103.212E-03    -3.74979E+06    -2.78879E+06     12.1295E+06     1.79445E+06    -11.6758E-03     22.6781E-03    -11.0024E-03     35.2240E-03    -11.7090E-03     22.6530E-03    -10.9322E-03     35.2454E-03
            1194     8.90162E-03     103.243E-03    -4.10190E+06    -7.86692E+06     10.0903E+06    -446.165E+03    -12.0458E-03     23.1042E-03    -11.0584E-03     41.2543E-03    -12.0713E-03     23.0579E-03    -10.9906E-03     41.2460E-03
            1195     9.79117E-03     103.280E-03    -3.86038E+06    -3.44101E+06     10.5924E+06    -3.77807E+06    -12.4626E-03     23.5879E-03    -11.1253E-03     48.0894E-03    -12.4954E-03     23.5640E-03    -11.0617E-03     48.0366E-03
            1196     10.6804E-03     103.324E-03    -4.56741E+06    -5.24792E+06     10.0652E+06    -6.53763E+06    -13.2042E-03     24.4230E-03    -11.2187E-03     55.9162E-03    -13.2402E-03     24.3949E-03    -11.1542E-03     55.8251E-03
            1197     11.5689E-03     103.374E-03    -4.97917E+06    -6.90564E+06     10.1808E+06    -5.63683E+06    -14.3965E-03     25.7529E-03    -11.3565E-03     64.6009E-03    -14.4388E-03     25.7235E-03    -11.2883E-03     64.5163E-03
            1198     12.4566E-03     103.434E-03    -3.34473E+06     1.15448E+06     14.3123E+06    -7.47112E+06    -16.2777E-03     27.8416E-03    -11.5639E-03     75.8318E-03    -16.3451E-03     27.8597E-03    -11.4892E-03     75.7135E-03
            1199     13.3423E-03     103.505E-03    -3.38193E+06    -3.88241E+06     9.39490E+06    -14.9209E+06    -18.7570E-03     30.5974E-03    -11.8404E-03     85.0595E-03    -18.8373E-03     30.6247E-03    -11.7829E-03     84.8303E-03
            1200     14.2261E-03     103.582E-03    -5.32801E+06    -11.8048E+06     2.06392E+06    -19.5945E+06    -21.5011E-03     33.7213E-03    -12.2202E-03     90.0019E-03    -21.6156E-03     33.7691E-03    -12.1850E-03     89.6937E-03
            1201     15.1073E-03     103.661E-03    -5.51902E+06    -9.99451E+06     366.476E+03    -22.0936E+06    -25.0626E-03     37.7700E-03    -12.7074E-03     114.270E-03    -25.3683E-03     38.0197E-03    -12.6831E-03     113.913E-03
            1202     15.9868E-03     103.786E-03    -3.23455E+06    -17.9378E+06    -27.5721E+06    -21.8532E+06    -27.9098E-03     41.0058E-03    -13.0961E-03     159.174E-03    -29.0310E-03     42.1319E-03    -13.2032E-03     159.096E-03
            1203     16.8691E-03     103.953E-03    -1.08984E+06     30.0477E+06    -3.94956E+06    -13.0620E+06    -26.7591E-03     40.3515E-03    -13.5924E-03     172.409E-03    -29.1900E-03     42.8966E-03    -13.6541E-03     173.975E-03
            1204     890.483E-06     104.065E-03    -51.2874E+06    -46.7538E+06    -51.4993E+06    -1.57867E+06    -10.3452E-03     20.6648E-03    -10.3196E-03     3.55956E-03    -10.4591E-03     20.5803E-03    -10.4349E-03     3.53914E-03
            1205     1.78143E-03     104.069E-03    -46.4619E+06    -46.0811E+06    -48.2140E+06    -3.24880E+06    -10.2952E-03     20.6205E-03    -10.3252E-03     6.53252E-03    -10.3908E-03     20.5273E-03    -10.4321E-03     6.49049E-03
            1206     2.67204E-03     104.076E-03    -38.6904E+06    -40.7935E+06    -39.9571E+06    -2.75968E+06    -10.3146E-03     20.6416E-03    -10.3269E-03     9.85691E-03    -10.3910E-03     20.5516E-03    -10.4115E-03     9.82112E-03
            1207     3.56287E-03     104.085E-03    -27.0811E+06    -34.2682E+06    -27.6125E+06     2.00305E+06    -10.3706E-03     20.7218E-03    -10.3512E-03     13.2850E-03    -10.4163E-03     20.6298E-03    -10.4003E-03     13.3105E-03
            1208     4.45359E-03     104.097E-03    -14.1547E+06    -24.2170E+06    -13.8404E+06     7.96340E+06    -10.4371E-03     20.8187E-03    -10.3816E-03     16.9037E-03    -10.4527E-03     20.7383E-03    -10.3952E-03     17.0060E-03
            1209     5.34438E-03     104.113E-03    -4.89252E+06    -15.7721E+06     136.909E+03     10.8771E+06    -10.5662E-03     20.9953E-03    -10.4292E-03     20.9005E-03    -10.5681E-03     20.9235E-03    -10.3985E-03     21.0403E-03
            1210     6.23482E-03     104.132E-03    -792.632E+03    -9.06940E+06     9.56174E+06     9.97495E+06    -10.7617E-03     21.2407E-03    -10.4789E-03     25.2160E-03    -10.7667E-03     21.1829E-03    -10.4168E-03     25.3440E-03
            1211     7.12529E-03     104.154E-03     59.9198E+03    -229.023E+03     14.9646E+06     7.55743E+06    -11.0048E-03     21.5319E-03    -10.5271E-03     29.8708E-03    -11.0264E-03     21.5095E-03    -10.4520E-03     29.9673E-03
            1212     8.01553E-03     104.181E-03    -1.05476E+06    -398.331E+03     14.9480E+06     5.35641E+06    -11.3454E-03     21.9268E-03    -10.5814E-03     35.2229E-03    -11.3726E-03     21.9055E-03    -10.5046E-03     35.2905E-03
            1213     8.90552E-03     104.213E-03    -2.04447E+06    -3.61526E+06     12.8895E+06     1.15230E+06    -11.7122E-03     22.3568E-03    -10.6446E-03     41.3225E-03    -11.7374E-03     22.3246E-03    -10.5720E-03     41.3351E-03
            1214     9.79527E-03     104.250E-03    -1.78268E+06     618.526E+03     13.9000E+06    -2.74319E+06    -12.1636E-03     22.8867E-03    -10.7231E-03     48.3650E-03    -12.1964E-03     22.8750E-03    -10.6519E-03     48.3261E-03
            1215     10.6848E-03     104.294E-03    -1.26503E+06    -3.63302E+06     14.3864E+06    -4.23526E+06    -12.9654E-03     23.7990E-03    -10.8336E-03     56.5208E-03    -12.9929E-03     23.7674E-03    -10.7545E-03     56.4602E-03
            1216     11.5735E-03     104.346E-03     289.441E+03    -6.49727E+06     15.2484E+06    -5.99077E+06    -14.2309E-03     25.2166E-03    -10.9856E-03     65.7870E-03    -14.2539E-03     25.1733E-03    -10.9004E-03     65.6989E-03
            1217     12.4612E-03     104.407E-03     3.25819E+06     6.80804E+06     20.1352E+06    -8.68665E+06    -16.1785E-03     27.3782E-03    -11.1997E-03     77.9303E-03    -16.2281E-03     27.4052E-03    -11.1136E-03     77.7977E-03
            1218     13.3472E-03     104.481E-03     3.35393E+06     2.52787E+06     16.2896E+06    -10.5558E+06    -18.7890E-03     30.2839E-03    -11.4948E-03     87.7431E-03    -18.8531E-03     30.3217E-03    -11.4219E-03     87.5712E-03
            1219     14.2311E-03     104.560E-03    -717.475E+03    -5.31227E+06     7.22281E+06    -14.8100E+06    -21.8958E-03     33.7902E-03    -11.8944E-03     93.5414E-03    -22.0034E-03     33.8556E-03    -11.8496E-03     93.2939E-03
            1220     15.1119E-03     104.646E-03    -3.15787E+06    -2.19240E+06     6.08706E+06    -22.1774E+06    -25.8111E-03     38.2388E-03    -12.4277E-03     117.672E-03    -26.1194E-03     38.5106E-03    -12.3895E-03     117.306E-03
            1221     15.9908E-03     104.769E-03    -4.99635E+06    -21.4075E+06    -20.7474E+06    -23.8092E+06    -28.8103E-03     41.7086E-03    -12.8984E-03     159.555E-03    -29.8617E-03     42.7265E-03    -12.9638E-03     159.389E-03
            1222     16.8692E-03     104.935E-03    -4.78609E+06     15.9111E+06    -1.83739E+06    -15.4862E+06    -27.4870E-03     40.9275E-03    -13.4405E-03     172.649E-03    -29.8332E-03     43.3185E-03    -13.4658E-03     174.057E-03
            1223     891.125E-06     105.033E-03    -54.0742E+06    -40.7135E+06    -54.9870E+06    -4.13196E+06    -9.93871E-03     19.8783E-03    -9.93962E-03     3.46451E-03    -10.0702E-03     19.8331E-03    -10.0771E-03     3.41109E-03
            1224     1.78195E-03     105.037E-03    -52.9055E+06    -40.4603E+06    -52.9246E+06    -7.85765E+06    -9.93843E-03     19.8782E-03    -9.93975E-03     6.38714E-03    -10.0675E-03     19.8293E-03    -10.0690E-03     6.28560E-03
            1225     2.67312E-03     105.043E-03    -50.1394E+06    -39.0184E+06    -48.6545E+06    -9.85899E+06    -9.96552E-03     19.9175E-03    -9.95194E-03     9.66112E-03    -10.0891E-03     19.8656E-03    -10.0659E-03     9.53367E-03
            1226     3.56405E-03     105.053E-03    -43.8850E+06    -37.4272E+06    -42.7548E+06    -10.0392E+06    -10.0107E-03     19.9813E-03    -9.97061E-03     13.0330E-03    -10.1139E-03     19.9199E-03    -10.0665E-03     12.9031E-03
            1227     4.45510E-03     105.065E-03    -32.1896E+06    -29.8599E+06    -34.1661E+06    -7.12467E+06    -10.0614E-03     20.0470E-03    -9.98561E-03     16.5626E-03    -10.1296E-03     19.9940E-03    -10.0665E-03     16.4702E-03
            1228     5.34609E-03     105.081E-03    -16.8156E+06    -20.8598E+06    -19.8638E+06    -1.47191E+06    -10.1504E-03     20.1718E-03    -10.0214E-03     20.4189E-03    -10.1756E-03     20.1209E-03    -10.0661E-03     20.3994E-03
            1229     6.23732E-03     105.100E-03    -4.01234E+06    -11.9084E+06    -2.17152E+06      4.5581E+06    -10.3281E-03     20.4138E-03    -10.0858E-03     24.6320E-03    -10.3280E-03     20.3635E-03    -10.0735E-03     24.6901E-03
            1230     7.12799E-03     105.123E-03     1.57275E+06    -1.25111E+06     11.8026E+06     8.38285E+06    -10.6040E-03     20.7614E-03    -10.1575E-03     29.3624E-03    -10.6119E-03     20.7363E-03    -10.0989E-03     29.4696E-03
            1231     8.01855E-03     105.150E-03     2.53780E+06     1.24468E+06     17.1833E+06     8.27371E+06    -10.9565E-03     21.1828E-03    -10.2263E-03     34.7537E-03    -10.9713E-03     21.1612E-03    -10.1459E-03     34.8591E-03
            1232     8.90886E-03     105.182E-03     2.49303E+06     3.78591E+06     18.7631E+06     3.19815E+06    -11.3492E-03     21.6452E-03    -10.2960E-03     40.8807E-03    -11.3708E-03     21.6347E-03    -10.2112E-03     40.9200E-03
            1233     9.79899E-03     105.220E-03     2.31439E+06     2.51350E+06     19.0859E+06    -1.20683E+06    -11.9015E-03     22.2850E-03    -10.3835E-03     48.1332E-03    -11.9237E-03     22.2690E-03    -10.2951E-03     48.1146E-03
            1234     10.6886E-03     105.264E-03     2.42801E+06    -1.29106E+06     18.6769E+06    -3.04089E+06    -12.7169E-03     23.2138E-03    -10.4969E-03     56.6408E-03    -12.7348E-03     23.1816E-03    -10.4052E-03     56.5964E-03
            1235     11.5777E-03     105.317E-03     3.90302E+06    -1.57316E+06     19.9817E+06    -7.21128E+06    -13.9849E-03     24.6383E-03    -10.6534E-03     66.5905E-03    -14.0025E-03     24.6063E-03    -10.5569E-03     66.4880E-03
            1236     12.4655E-03     105.380E-03     4.77146E+06     7.68701E+06     22.8984E+06    -8.67016E+06    -15.9110E-03     26.7798E-03    -10.8688E-03     79.6585E-03    -15.9559E-03     26.8025E-03    -10.7723E-03     79.5281E-03
            1237     13.3520E-03     105.456E-03     3.72793E+06     3.65077E+06     20.9361E+06    -7.00065E+06    -18.5875E-03     29.7623E-03    -11.1748E-03     90.5513E-03    -18.6545E-03     29.7949E-03    -11.0808E-03     90.4277E-03
            1238     14.2356E-03     105.539E-03     1.48145E+06     3.18932E+06     15.4069E+06    -9.44714E+06    -21.9309E-03     33.5155E-03    -11.5846E-03     97.5424E-03    -22.0481E-03     33.6047E-03    -11.5143E-03     97.3651E-03
            1239     15.1168E-03     105.628E-03    -3.23790E+06     10.0576E+06     14.2159E+06    -17.8468E+06    -26.0654E-03     38.1974E-03    -12.1320E-03     121.209E-03    -26.3928E-03     38.5080E-03    -12.0708E-03     120.894E-03
            1240     15.9957E-03     105.755E-03    -5.02536E+06    -20.9793E+06    -12.9989E+06    -24.1646E+06    -29.3255E-03     41.9733E-03    -12.6478E-03     160.310E-03    -30.2930E-03     42.8862E-03    -12.6750E-03     160.079E-03
            1241     16.8758E-03     105.918E-03    -2.77109E+06     1.22841E+06    -1.44671E+06    -18.1713E+06    -28.6775E-03     41.9011E-03    -13.2236E-03     173.214E-03    -30.8882E-03     44.1105E-03    -13.2286E-03     174.404E-03
            1242     891.155E-06     106.000E-03    -41.1717E+06    -32.0069E+06    -40.0537E+06    -4.50324E+06    -9.75914E-03     19.5071E-03    -9.74800E-03     3.19786E-03    -9.86036E-03     19.4651E-03    -9.84216E-03     3.13961E-03
            1243     1.78255E-03     106.004E-03    -41.4419E+06    -32.6264E+06    -39.4797E+06    -7.87533E+06    -9.78949E-03     19.5559E-03    -9.76636E-03     6.04335E-03    -9.89214E-03     19.5101E-03    -9.85636E-03     5.94149E-03
            1244     2.67356E-03     106.010E-03    -41.8923E+06    -33.1363E+06    -39.0358E+06    -10.8281E+06    -9.82563E-03     19.6087E-03    -9.78311E-03     9.19900E-03    -9.93049E-03     19.5605E-03    -9.86950E-03     9.05893E-03
            1245     3.56481E-03     106.020E-03    -41.7884E+06    -32.3902E+06    -38.4161E+06    -14.2024E+06    -9.85839E-03     19.6555E-03    -9.79707E-03     12.4733E-03    -9.96477E-03     19.6099E-03    -9.88159E-03     12.2896E-03
            1246     4.45591E-03     106.032E-03    -40.0333E+06    -29.3970E+06    -37.7945E+06    -16.6870E+06    -9.90431E-03     19.7083E-03    -9.80396E-03     15.9107E-03    -10.0072E-03     19.6743E-03    -9.89225E-03     15.6947E-03
            1247     5.34713E-03     106.048E-03    -34.5866E+06    -25.3284E+06    -34.5924E+06    -15.0396E+06    -9.95092E-03     19.7655E-03    -9.81462E-03     19.6053E-03    -10.0372E-03     19.7395E-03    -9.90071E-03     19.4105E-03
            1248     6.23810E-03     106.067E-03    -23.0510E+06    -18.7743E+06    -24.5976E+06    -9.36896E+06    -10.0147E-03     19.8578E-03    -9.84311E-03     23.6292E-03    -10.0674E-03     19.8334E-03    -9.90545E-03     23.5075E-03
            1249     7.12957E-03     106.090E-03    -7.47406E+06    -8.54780E+06    -6.81773E+06    -722.327E+03    -10.1996E-03     20.1018E-03    -9.90217E-03     28.2041E-03    -10.2152E-03     20.0803E-03    -9.91302E-03     28.1938E-03
            1250     8.02050E-03     106.118E-03     4.50358E+06     502.925E+03     11.7187E+06     5.09115E+06    -10.5309E-03     20.5182E-03    -9.98729E-03     33.5001E-03    -10.5268E-03     20.4979E-03    -9.93595E-03     33.5645E-03
            1251     8.91122E-03     106.150E-03     8.48478E+06     8.47691E+06     22.8360E+06     5.20741E+06    -10.9798E-03     21.0519E-03    -10.0721E-03     39.7007E-03    -10.9840E-03     21.0501E-03    -9.98253E-03     39.7661E-03
            1252     9.80149E-03     106.189E-03     7.29787E+06     5.85522E+06     24.4534E+06     1.99388E+06    -11.6032E-03     21.7635E-03    -10.1603E-03     47.0923E-03    -11.6128E-03     21.7489E-03    -10.0571E-03     47.1155E-03
            1253     10.6915E-03     106.234E-03     7.57352E+06     3.01009E+06     24.0988E+06    -2.89585E+06    -12.4175E-03     22.6852E-03    -10.2678E-03     55.9407E-03    -12.4229E-03     22.6584E-03    -10.1626E-03     55.8991E-03
            1254     11.5806E-03     106.288E-03     8.20515E+06     3.21166E+06     25.2244E+06    -6.27875E+06    -13.6084E-03     24.0248E-03    -10.4164E-03     66.5297E-03    -13.6172E-03     24.0010E-03    -10.3068E-03     66.4408E-03
            1255     12.4691E-03     106.352E-03     7.32643E+06     6.11309E+06     26.9129E+06    -6.32122E+06    -15.4865E-03     26.1110E-03    -10.6246E-03     80.3534E-03    -15.5185E-03     26.1127E-03    -10.5095E-03     80.2560E-03
            1256     13.3559E-03     106.431E-03     6.64167E+06     2.21743E+06     26.3080E+06    -4.02369E+06    -18.0664E-03     28.9841E-03    -10.9177E-03     92.3907E-03    -18.1187E-03     28.9916E-03    -10.7990E-03     92.3092E-03
            1257     14.2408E-03     106.517E-03     3.73924E+06     8.85362E+06     23.2067E+06    -3.77388E+06    -21.4972E-03     32.8064E-03    -11.3093E-03     100.868E-03    -21.6145E-03     32.9013E-03    -11.2115E-03     100.768E-03
            1258     15.1219E-03     106.611E-03    -634.376E+03     24.5044E+06     25.0882E+06    -10.3973E+06    -25.9177E-03     37.7663E-03    -11.8486E-03     124.289E-03    -26.2478E-03     38.1085E-03    -11.7577E-03     124.069E-03
            1259     16.0007E-03     106.739E-03    -5.07996E+06    -11.6437E+06    -3.27183E+06    -22.6376E+06    -29.3159E-03     41.6907E-03    -12.3748E-03     160.578E-03    -30.1898E-03     42.5147E-03    -12.3669E-03     160.316E-03
            1260     16.8793E-03     106.901E-03    -4.35193E+06    -14.1860E+06    -4.69417E+06    -22.2082E+06    -30.4944E-03     43.4720E-03    -12.9776E-03     174.357E-03    -32.5764E-03     45.5021E-03    -12.9742E-03     175.260E-03
            1261     891.310E-06     106.967E-03    -27.3713E+06    -24.1616E+06    -27.1732E+06    -3.45783E+06    -9.78310E-03     19.6015E-03    -9.81839E-03     2.95615E-03    -9.84537E-03     19.5600E-03    -9.87953E-03     2.91134E-03
            1262     1.78236E-03     106.970E-03    -27.9428E+06    -25.4111E+06    -26.4272E+06    -6.37597E+06    -9.84519E-03     19.6597E-03    -9.81450E-03     5.59504E-03    -9.90975E-03     19.6115E-03    -9.86927E-03     5.51243E-03
            1263     2.67370E-03     106.977E-03    -28.1770E+06    -26.0640E+06    -25.6370E+06    -9.50163E+06    -9.90066E-03     19.7386E-03    -9.83793E-03     8.52020E-03    -9.96665E-03     19.6864E-03    -9.88747E-03     8.39708E-03
            1264     3.56474E-03     106.987E-03    -28.5090E+06    -24.5589E+06    -24.8681E+06    -13.1177E+06    -9.96335E-03     19.8250E-03    -9.86170E-03     11.5555E-03    -10.0344E-03     19.7798E-03    -9.90909E-03     11.3855E-03
            1265     4.45592E-03     106.999E-03    -29.8649E+06    -23.9181E+06    -24.5329E+06    -16.0537E+06    -10.0270E-03     19.9149E-03    -9.88786E-03     14.7509E-03    -10.1063E-03     19.8744E-03    -9.93254E-03     14.5429E-03
            1266     5.34681E-03     107.015E-03    -30.9295E+06    -23.0330E+06    -25.9045E+06    -18.6882E+06    -10.0620E-03     19.9644E-03    -9.90237E-03     18.2336E-03    -10.1461E-03     19.9320E-03    -9.95364E-03     17.9914E-03
            1267     6.23810E-03     107.034E-03    -28.9999E+06    -21.0663E+06    -26.1671E+06    -19.6102E+06    -10.0828E-03     19.9924E-03    -9.90957E-03     22.0998E-03    -10.1598E-03     19.9676E-03    -9.96781E-03     21.8456E-03
            1268     7.12893E-03     107.057E-03    -21.0652E+06    -16.4401E+06    -21.0286E+06    -16.2477E+06    -10.1083E-03     20.0310E-03    -9.92275E-03     26.4394E-03    -10.1599E-03     20.0105E-03    -9.97351E-03     26.2284E-03
            1269     8.02034E-03     107.085E-03    -6.47122E+06    -5.85468E+06    -5.98611E+06    -8.52442E+06    -10.2409E-03     20.2047E-03    -9.96383E-03     31.4521E-03    -10.2569E-03     20.1943E-03    -9.97588E-03     31.3407E-03
            1270     8.91142E-03     107.118E-03     7.87016E+06     4.69590E+06     15.4288E+06     11.1777E+03    -10.6281E-03     20.6780E-03    -10.0499E-03     37.4879E-03    -10.6190E-03     20.6688E-03    -9.99099E-03     37.4863E-03
            1271     9.80215E-03     107.157E-03     15.4543E+06     8.80202E+06     28.5558E+06     3.18879E+06    -11.2428E-03     21.3852E-03    -10.1424E-03     44.8782E-03    -11.2214E-03     21.3672E-03    -10.0348E-03     44.9172E-03
            1272     10.6922E-03     107.203E-03     14.7487E+06     8.78841E+06     30.6278E+06     26.0941E+03    -12.0340E-03     22.2664E-03    -10.2324E-03     53.9395E-03    -12.0205E-03     22.2476E-03    -10.1134E-03     53.9365E-03
            1273     11.5820E-03     107.258E-03     11.7094E+06     5.49494E+06     30.8026E+06    -3.06600E+06    -13.1993E-03     23.5622E-03    -10.3629E-03     64.9835E-03    -13.1999E-03     23.5346E-03    -10.2338E-03     64.9378E-03
            1274     12.4706E-03     107.324E-03     10.7956E+06     6.01404E+06     32.7995E+06    -3.88440E+06    -15.0016E-03     25.5533E-03    -10.5517E-03     79.4169E-03    -15.0202E-03     25.5365E-03    -10.4121E-03     79.3539E-03
            1275     13.3581E-03     107.405E-03     12.9752E+06     901.381E+03     33.2478E+06    -4.05438E+06    -17.4187E-03     28.2352E-03    -10.8165E-03     92.2739E-03    -17.4394E-03     28.2088E-03    -10.6704E-03     92.1966E-03
            1276     14.2434E-03     107.494E-03     17.3240E+06     6.86282E+06     31.2959E+06    -500.551E+03    -20.6462E-03     31.8064E-03    -11.1603E-03     102.246E-03    -20.6911E-03     31.8466E-03    -11.0389E-03     102.194E-03
            1277     15.1259E-03     107.593E-03     13.9921E+06     34.5279E+06     38.9960E+06     328.820E+03    -24.8847E-03     36.5401E-03    -11.6554E-03     125.799E-03    -25.1396E-03     36.8543E-03    -11.5308E-03     125.722E-03
            1278     16.0057E-03     107.724E-03     5.05173E+06     11.6993E+06     16.2337E+06    -13.3830E+06    -28.9034E-03     41.0648E-03    -12.1614E-03     160.267E-03    -29.6502E-03     41.8241E-03    -12.1046E-03     160.075E-03
            1279     16.8856E-03     107.884E-03    -1.28531E+06    -23.5576E+06     10.3904E+06    -21.9105E+06    -32.7795E-03     45.6259E-03    -12.8464E-03     178.085E-03    -34.7680E-03     47.4965E-03    -12.7584E-03     178.739E-03
            1280     890.925E-06     107.934E-03    -17.6723E+06    -17.9733E+06    -17.7053E+06    -2.87730E+06    -10.1017E-03     20.2342E-03    -10.1325E-03     2.68492E-03    -10.1381E-03     20.1959E-03    -10.1694E-03     2.64752E-03
            1281     1.78206E-03     107.938E-03    -17.9390E+06    -18.9994E+06    -17.3255E+06    -5.47748E+06    -10.1838E-03     20.3159E-03    -10.1321E-03     5.04002E-03    -10.2209E-03     20.2721E-03    -10.1652E-03     4.96888E-03
            1282     2.67280E-03     107.944E-03    -17.8029E+06    -19.0919E+06    -15.5829E+06    -8.73379E+06    -10.2738E-03     20.4443E-03    -10.1704E-03     7.65426E-03    -10.3127E-03     20.3973E-03    -10.1948E-03     7.54085E-03
            1283     3.56376E-03     107.954E-03    -17.9969E+06    -18.1213E+06    -13.9194E+06    -11.3171E+06    -10.3651E-03     20.5792E-03    -10.2140E-03     10.3343E-03    -10.4089E-03     20.5350E-03    -10.2312E-03     10.1873E-03
            1284     4.45437E-03     107.967E-03    -18.0961E+06    -17.7862E+06    -12.8719E+06    -13.8132E+06    -10.4425E-03     20.6985E-03    -10.2560E-03     13.1705E-03    -10.4889E-03     20.6548E-03    -10.2683E-03     12.9910E-03
            1285     5.34528E-03     107.982E-03    -18.5544E+06    -16.6329E+06    -12.5079E+06    -16.7038E+06    -10.5044E-03     20.7951E-03    -10.2908E-03     16.2561E-03    -10.5554E-03     20.7575E-03    -10.3023E-03     16.0390E-03
            1286     6.23573E-03     108.002E-03    -20.0471E+06    -16.7943E+06    -12.8175E+06    -19.7423E+06    -10.5340E-03     20.8537E-03    -10.3198E-03     19.7460E-03    -10.5919E-03     20.8180E-03    -10.3304E-03     19.4896E-03
            1287     7.12669E-03     108.025E-03    -20.8796E+06    -16.1512E+06    -13.6083E+06    -22.1464E+06    -10.5182E-03     20.8527E-03    -10.3345E-03     23.7311E-03    -10.5803E-03     20.8228E-03    -10.3488E-03     23.4435E-03
            1288     8.01731E-03     108.052E-03    -18.1427E+06    -12.0689E+06    -11.8830E+06    -20.8483E+06    -10.4971E-03     20.8370E-03    -10.3399E-03     28.3830E-03    -10.5542E-03     20.8212E-03    -10.3555E-03     28.1120E-03
            1289     8.90838E-03     108.086E-03    -8.12549E+06    -4.26677E+06    -1.10473E+06    -13.9854E+06    -10.5909E-03     20.9588E-03    -10.3679E-03     34.0263E-03    -10.6250E-03     20.9520E-03    -10.3555E-03     33.8438E-03
            1290     9.79921E-03     108.125E-03     5.59994E+06     4.61942E+06     15.2120E+06    -5.29333E+06    -10.9228E-03     21.3458E-03    -10.4230E-03     41.0243E-03    -10.9251E-03     21.3402E-03    -10.3617E-03     40.9538E-03
            1291     10.6900E-03     108.171E-03     15.3080E+06     9.63376E+06     29.5602E+06     620.864E+03    -11.6122E-03     22.1162E-03    -10.5040E-03     50.0082E-03    -11.5947E-03     22.1016E-03    -10.3924E-03     50.0136E-03
            1292     11.5796E-03     108.227E-03     18.3490E+06     9.24608E+06     37.6288E+06    -231.057E+03    -12.8315E-03     23.4491E-03    -10.6176E-03     61.4211E-03    -12.8122E-03     23.4187E-03    -10.4695E-03     61.4136E-03
            1293     12.4688E-03     108.294E-03     18.8992E+06     5.70489E+06     39.6569E+06    -1.90459E+06    -14.5764E-03     25.3495E-03    -10.7731E-03     76.1274E-03    -14.5590E-03     25.3045E-03    -10.6105E-03     76.0932E-03
            1294     13.3564E-03     108.377E-03     18.1058E+06     3.21730E+06     39.2976E+06    -2.97716E+06    -16.5811E-03     27.5679E-03    -10.9868E-03     89.6919E-03    -16.5784E-03     27.5270E-03    -10.8213E-03     89.6342E-03
            1295     14.2426E-03     108.469E-03     21.2338E+06     4.07704E+06     37.9082E+06    -6.03760E+06    -19.4454E-03     30.7196E-03    -11.2743E-03     101.454E-03    -19.4590E-03     30.7133E-03    -11.1214E-03     101.339E-03
            1296     15.1265E-03     108.572E-03     29.1871E+06     24.0784E+06     50.3510E+06     6.63604E+06    -23.0677E-03     34.7633E-03    -11.6956E-03     124.392E-03    -23.1978E-03     34.9366E-03    -11.5211E-03     124.409E-03
            1297     16.0088E-03     108.706E-03     19.5157E+06     41.7384E+06     38.3404E+06     7.33135E+06    -27.8475E-03     39.9637E-03    -12.1163E-03     158.915E-03    -28.4473E-03     40.6701E-03    -12.0134E-03     158.952E-03
            1298     16.8868E-03     108.869E-03     2.61776E+06    -14.8113E+06     28.7068E+06    -13.2734E+06    -35.0037E-03     47.8511E-03    -12.8473E-03     181.774E-03    -36.8942E-03     49.6157E-03    -12.6861E-03     182.272E-03
            1299     890.515E-06     108.902E-03    -8.53364E+06    -12.8023E+06    -8.34380E+06    -2.51913E+06    -10.8361E-03     21.6037E-03    -10.7676E-03     2.30430E-03    -10.8479E-03     21.5644E-03    -10.7784E-03     2.27146E-03
            1300     1.78075E-03     108.906E-03    -8.73475E+06    -13.0186E+06    -7.98164E+06    -4.94479E+06    -10.9092E-03     21.7349E-03    -10.8256E-03     4.32229E-03    -10.9225E-03     21.6940E-03    -10.8340E-03     4.25786E-03
            1301     2.67121E-03     108.913E-03    -9.36526E+06    -12.9905E+06    -7.06696E+06    -7.54249E+06    -11.0330E-03     21.9122E-03    -10.8793E-03     6.54599E-03    -11.0508E-03     21.8712E-03    -10.8822E-03     6.44771E-03
            1302     3.56120E-03     108.922E-03    -9.63325E+06    -12.8041E+06    -5.78632E+06    -9.96398E+06    -11.1435E-03     22.0832E-03    -10.9397E-03     8.78972E-03    -11.1650E-03     22.0417E-03    -10.9361E-03     8.65986E-03
            1303     4.45147E-03     108.935E-03    -9.80648E+06    -11.9215E+06    -4.31330E+06    -12.4335E+06    -11.2503E-03     22.2499E-03    -10.9996E-03     11.1762E-03    -11.2762E-03     22.2110E-03    -10.9896E-03     11.0141E-03
            1304     5.34124E-03     108.951E-03    -10.2272E+06    -11.3163E+06    -2.87705E+06    -14.5194E+06    -11.3519E-03     22.4107E-03    -11.0588E-03     13.7616E-03    -11.3830E-03     22.3736E-03    -11.0419E-03     13.5723E-03
            1305     6.23142E-03     108.970E-03    -10.9970E+06    -10.6910E+06    -1.79686E+06    -16.6820E+06    -11.4235E-03     22.5368E-03    -11.1132E-03     16.6773E-03    -11.4612E-03     22.5025E-03    -11.0908E-03     16.4597E-03
            1306     7.12110E-03     108.993E-03    -12.8787E+06    -10.9997E+06    -1.33879E+06    -19.2541E+06    -11.4578E-03     22.6185E-03    -11.1607E-03     20.0377E-03    -11.5053E-03     22.5850E-03    -11.1327E-03     19.7866E-03
            1307     8.01118E-03     109.021E-03    -15.4992E+06    -11.2201E+06    -2.07263E+06    -20.9868E+06    -11.4353E-03     22.6279E-03    -11.1926E-03     24.0952E-03    -11.4948E-03     22.5984E-03    -11.1642E-03     23.8215E-03
            1308     8.90100E-03     109.054E-03    -17.1588E+06    -8.57148E+06    -3.96182E+06    -20.9151E+06    -11.3449E-03     22.5428E-03    -11.1979E-03     29.1127E-03    -11.4141E-03     22.5320E-03    -11.1804E-03     28.8399E-03
            1309     9.79146E-03     109.093E-03    -13.7530E+06    -3.57197E+06     1.27179E+06    -16.1592E+06    -11.3321E-03     22.5462E-03    -11.2141E-03     35.3166E-03    -11.3993E-03     22.5481E-03    -11.1826E-03     35.1052E-03
            1310     10.6818E-03     109.140E-03    -3.02355E+06     4.77416E+06     18.5346E+06    -9.97665E+06    -11.6485E-03     22.9243E-03    -11.2758E-03     43.5335E-03    -11.6995E-03     22.9277E-03    -11.1857E-03     43.4019E-03
            1311     11.5722E-03     109.196E-03     9.75474E+06     9.04818E+06     35.1214E+06    -4.91609E+06    -12.5601E-03     23.9249E-03    -11.3648E-03     54.6559E-03    -12.5785E-03     23.9081E-03    -11.2164E-03     54.5890E-03
            1312     12.4609E-03     109.265E-03     16.2893E+06     4.60901E+06     41.5412E+06    -1.95963E+06    -13.9336E-03     25.4063E-03    -11.4726E-03     69.2960E-03    -13.9256E-03     25.3520E-03    -11.2952E-03     69.2645E-03
            1313     13.3490E-03     109.349E-03     17.0976E+06     3.98424E+06     42.6548E+06    -49.6551E+03    -15.5787E-03     27.1906E-03    -11.6119E-03     83.3245E-03    -15.5765E-03     27.1396E-03    -11.4292E-03     83.3110E-03
            1314     14.2367E-03     109.442E-03     12.4747E+06     12.3950E+06     44.1642E+06    -4.79881E+06    -17.9485E-03     29.7703E-03    -11.8217E-03     96.2661E-03    -18.0070E-03     29.7890E-03    -11.6370E-03     96.1773E-03
            1315     15.1211E-03     109.550E-03     14.2295E+06    -421.733E+03     44.9913E+06    -3.05768E+06    -21.1919E-03     33.3299E-03    -12.1379E-03     118.034E-03    -21.3006E-03     33.3572E-03    -11.9330E-03     117.939E-03
            1316     16.0057E-03     109.682E-03     32.0802E+06     45.9356E+06     44.4682E+06     12.3666E+06    -26.4977E-03     38.9402E-03    -12.4425E-03     153.918E-03    -26.9010E-03     39.4917E-03    -12.3333E-03     153.998E-03
            1317     16.8858E-03     109.858E-03     29.8655E+06     11.4747E+06     32.3238E+06     10.9716E+06    -35.1221E-03     48.1729E-03    -13.0508E-03     184.180E-03    -36.6791E-03     49.7838E-03    -12.9491E-03     184.757E-03
            1318     889.406E-06     109.871E-03    -778.837E+03    -8.12025E+06    -483.133E+03    -2.27829E+06    -12.0124E-03     23.9104E-03    -11.8980E-03     1.82880E-03    -12.0037E-03     23.8719E-03    -11.8875E-03     1.79902E-03
            1319     1.77894E-03     109.876E-03    -1.13663E+06    -8.01605E+06    -15.8009E+03    -4.04545E+06    -12.1085E-03     24.0990E-03    -11.9905E-03     3.48245E-03    -12.1027E-03     24.0606E-03    -11.9773E-03     3.42947E-03
            1320     2.66796E-03     109.883E-03    -1.51728E+06    -8.00311E+06     654.959E+03    -6.08719E+06    -12.2504E-03     24.3107E-03    -12.0603E-03     5.20145E-03    -12.2475E-03     24.2719E-03    -12.0432E-03     5.12171E-03
            1321     3.55726E-03     109.893E-03    -2.15253E+06    -7.60749E+06     1.82243E+06    -8.40723E+06    -12.4009E-03     24.5383E-03    -12.1375E-03     6.94076E-03    -12.4036E-03     24.5009E-03    -12.1142E-03     6.83066E-03
            1322     4.44602E-03     109.906E-03    -3.15273E+06    -7.43001E+06     3.35949E+06    -10.1882E+06    -12.5570E-03     24.7783E-03    -12.2213E-03     8.78588E-03    -12.5673E-03     24.7411E-03    -12.1892E-03     8.65235E-03
            1323     5.33506E-03     109.922E-03    -4.51434E+06    -6.68537E+06     4.60443E+06    -11.8878E+06    -12.7180E-03     25.0247E-03    -12.3067E-03     10.7943E-03    -12.7381E-03     24.9915E-03    -12.2674E-03     10.6384E-03
            1324     6.22350E-03     109.941E-03    -6.15263E+06    -6.46611E+06     5.36828E+06    -13.3726E+06    -12.8778E-03     25.2710E-03    -12.3932E-03     13.0378E-03    -12.9078E-03     25.2404E-03    -12.3480E-03     12.8622E-03
            1325     7.11223E-03     109.964E-03    -8.33917E+06    -6.21810E+06     5.64971E+06    -14.5974E+06    -13.0085E-03     25.4863E-03    -12.4777E-03     15.6641E-03    -13.0505E-03     25.4599E-03    -12.4284E-03     15.4722E-03
            1326     8.00053E-03     109.991E-03    -10.9407E+06    -7.42793E+06     5.67323E+06    -16.1945E+06    -13.1080E-03     25.6681E-03    -12.5601E-03     18.8159E-03    -13.1616E-03     25.6397E-03    -12.5051E-03     18.6030E-03
            1327     8.88920E-03     110.024E-03    -13.2820E+06    -6.32488E+06     6.26306E+06    -17.4931E+06    -13.1553E-03     25.7899E-03    -12.6346E-03     22.7052E-03    -13.2234E-03     25.7698E-03    -12.5748E-03     22.4751E-03
            1328     9.77750E-03     110.063E-03    -14.2873E+06    -6.09754E+06     8.20403E+06    -18.4870E+06    -13.1745E-03     25.8800E-03    -12.7055E-03     27.6446E-03    -13.2512E-03     25.8601E-03    -12.6350E-03     27.4014E-03
            1329     10.6662E-03     110.110E-03    -14.2341E+06     131.430E+03     14.7793E+06    -16.2018E+06    -13.2028E-03     25.9825E-03    -12.7797E-03     34.3151E-03    -13.2982E-03     25.9845E-03    -12.6854E-03     34.1014E-03
            1330     11.5547E-03     110.166E-03    -12.3970E+06     4.42801E+06     22.6317E+06    -12.2475E+06    -13.3347E-03     26.1877E-03    -12.8530E-03     43.7205E-03    -13.4389E-03     26.1975E-03    -12.7283E-03     43.5581E-03
            1331     12.4440E-03     110.236E-03    -6.59250E+06     305.811E+03     31.5727E+06    -6.76874E+06    -13.6577E-03     26.5906E-03    -12.9329E-03     56.5333E-03    -13.7406E-03     26.5593E-03    -12.7659E-03     56.4415E-03
            1332     13.3329E-03     110.319E-03     2.27425E+06     2.91694E+06     41.1026E+06    -4.10720E+06    -14.5238E-03     27.5343E-03    -13.0104E-03     70.3999E-03    -14.5836E-03     27.4933E-03    -12.8124E-03     70.3397E-03
            1333     14.2194E-03     110.416E-03     7.26840E+06     12.6252E+06     45.2229E+06     1.41849E+06    -16.1984E-03     29.2965E-03    -13.0981E-03     83.8999E-03    -16.2657E-03     29.3034E-03    -12.9008E-03     83.9020E-03
            1334     15.1066E-03     110.524E-03     2.31598E+06     2.53371E+06     38.6083E+06    -3.18646E+06    -19.5624E-03     32.8271E-03    -13.2646E-03     105.571E-03    -19.6791E-03     32.8491E-03    -13.0786E-03     105.489E-03
            1335     15.9888E-03     110.660E-03     916.652E+03     24.2016E+06     27.7889E+06    -7.19429E+06    -25.1890E-03     38.6851E-03    -13.4961E-03     142.463E-03    -25.5387E-03     39.0435E-03    -13.3935E-03     142.290E-03
            1336     16.8696E-03     110.839E-03     3.45248E+06     8.54469E+06     7.91838E+06     15.0025E+06    -27.7652E-03     41.5581E-03    -13.7928E-03     178.587E-03    -28.8651E-03     42.6789E-03    -13.7706E-03     179.076E-03
            1337     888.071E-06     110.844E-03     2.80358E+06    -4.27267E+06     3.38642E+06    -1.61734E+06    -13.6504E-03     27.3418E-03    -13.6913E-03     1.22817E-03    -13.6350E-03     27.3117E-03    -13.6723E-03     1.20699E-03
            1338     1.77574E-03     110.848E-03     2.49703E+06    -4.28020E+06     3.57598E+06    -3.02813E+06    -13.8527E-03     27.5662E-03    -13.7135E-03     2.50388E-03    -13.8394E-03     27.5358E-03    -13.6930E-03     2.46392E-03
            1339     2.66366E-03     110.856E-03     1.93878E+06    -3.80836E+06     4.58516E+06    -4.67865E+06    -14.0524E-03     27.8562E-03    -13.8038E-03     3.56344E-03    -14.0441E-03     27.8276E-03    -13.7781E-03     3.50174E-03
            1340     3.55098E-03     110.866E-03     966.951E+03    -3.79380E+06     6.08154E+06    -6.00895E+06    -14.2380E-03     28.1463E-03    -13.9083E-03     4.65506E-03    -14.2368E-03     28.1170E-03    -13.8737E-03     4.57575E-03
            1341     4.43850E-03     110.879E-03    -176.088E+03    -3.70102E+06     7.69051E+06    -7.42704E+06    -14.4563E-03     28.4760E-03    -14.0197E-03     5.85205E-03    -14.4634E-03     28.4466E-03    -13.9756E-03     5.75393E-03
            1342     5.32538E-03     110.895E-03    -1.43947E+06    -3.59536E+06     9.34814E+06    -8.34759E+06    -14.7197E-03     28.8619E-03    -14.1421E-03     7.20145E-03    -14.7358E-03     28.8325E-03    -14.0881E-03     7.09090E-03
            1343     6.21240E-03     110.915E-03    -3.17950E+06    -2.97933E+06     10.6064E+06    -9.37322E+06    -15.0313E-03     29.3076E-03    -14.2762E-03     8.69174E-03    -15.0590E-03     29.2821E-03    -14.2143E-03     8.56732E-03
            1344     7.09877E-03     110.938E-03    -4.68845E+06    -3.45919E+06     12.1077E+06    -10.3871E+06    -15.4032E-03     29.8323E-03    -14.4291E-03     10.3815E-03    -15.4402E-03     29.8047E-03    -14.3567E-03     10.2432E-03
            1345     7.98514E-03     110.966E-03    -6.38860E+06    -3.83868E+06     14.2236E+06    -11.1585E+06    -15.8160E-03     30.4189E-03    -14.6029E-03     12.3355E-03    -15.8643E-03     30.3890E-03    -14.5170E-03     12.1864E-03
            1346     8.87072E-03     110.998E-03    -8.54547E+06    -3.19300E+06     16.2468E+06    -12.6218E+06    -16.2279E-03     31.0197E-03    -14.7917E-03     14.7675E-03    -16.2913E-03     30.9934E-03    -14.6935E-03     14.5986E-03
            1347     9.75631E-03     111.038E-03    -11.3096E+06    -2.92398E+06     17.5163E+06    -13.9811E+06    -16.6106E-03     31.6011E-03    -14.9904E-03     17.9657E-03    -16.6906E-03     31.5787E-03    -14.8822E-03     17.7784E-03
            1348     10.6412E-03     111.084E-03    -13.6423E+06    -3.28448E+06     17.3676E+06    -13.0383E+06    -16.8610E-03     32.0474E-03    -15.1864E-03     22.3830E-03    -16.9526E-03     32.0271E-03    -15.0750E-03     22.2071E-03
            1349     11.5265E-03     111.140E-03    -15.7792E+06     2.58333E+06     19.5047E+06    -10.3321E+06    -16.7826E-03     32.1540E-03    -15.3714E-03     28.5394E-03    -16.8971E-03     32.1634E-03    -15.2547E-03     28.3982E-03
            1350     12.4118E-03     111.207E-03    -16.0364E+06    -2.65386E+06     21.9740E+06    -10.2684E+06    -16.0970E-03     31.6241E-03    -15.5271E-03     36.9810E-03    -16.2091E-03     31.6043E-03    -15.3901E-03     36.8414E-03
            1351     13.2984E-03     111.291E-03    -14.0531E+06     734.179E+03     28.3122E+06    -8.88789E+06    -14.8362E-03     30.4426E-03    -15.6064E-03     47.6108E-03    -14.9528E-03     30.4284E-03    -15.4455E-03     47.4899E-03
            1352     14.1874E-03     111.387E-03    -9.79547E+06     623.074E+03     28.6892E+06    -1.64381E+06    -14.2135E-03     29.7962E-03    -15.5827E-03     60.1852E-03    -14.3124E-03     29.7791E-03    -15.4260E-03     60.1557E-03
            1353     15.0731E-03     111.497E-03    -3.99888E+06     16.7704E+06     33.4696E+06     1.29327E+06    -17.0129E-03     32.5971E-03    -15.5842E-03     84.0828E-03    -17.1369E-03     32.6697E-03    -15.4354E-03     84.0750E-03
            1354     15.9575E-03     111.636E-03    -14.9936E+06     15.1755E+06     26.9685E+06     1.87542E+06    -21.7752E-03     37.4814E-03    -15.7062E-03     121.843E-03    -22.0474E-03     37.6768E-03    -15.5716E-03     121.807E-03
            1355     16.8363E-03     111.817E-03    -23.4134E+06    -12.8089E+06    -3.13250E+06     6.17858E+06    -11.7643E-03     27.2522E-03    -15.4879E-03     151.018E-03    -12.2710E-03     27.6443E-03    -15.4511E-03     151.229E-03
            1356     885.769E-06     111.820E-03     6.46454E+06    -1.70854E+06     6.56128E+06    -1.03424E+06    -16.1015E-03     32.3354E-03    -16.2339E-03     326.985E-06    -16.0762E-03     32.3082E-03    -16.2080E-03     313.644E-06
            1357     1.77180E-03     111.826E-03     5.90210E+06    -1.39420E+06     7.32315E+06    -1.90992E+06    -16.3210E-03     32.5306E-03    -16.2096E-03     996.804E-06    -16.3005E-03     32.5041E-03    -16.1795E-03     971.470E-06
            1358     2.65704E-03     111.833E-03     5.00940E+06    -1.37350E+06     8.43959E+06    -2.61682E+06    -16.5399E-03     32.8406E-03    -16.3007E-03     1.28841E-03    -16.5255E-03     32.8139E-03    -16.2637E-03     1.25362E-03
            1359     3.54248E-03     111.843E-03     3.96171E+06    -1.24468E+06     10.0911E+06    -3.31550E+06    -16.7911E-03     33.2104E-03    -16.4193E-03     1.71123E-03    -16.7846E-03     33.1835E-03    -16.3728E-03     1.66703E-03
            1360     4.42732E-03     111.857E-03     2.64834E+06    -1.28371E+06     12.0379E+06    -3.98237E+06    -17.1295E-03     33.6926E-03    -16.5631E-03     2.15726E-03    -17.1323E-03     33.6645E-03    -16.5049E-03     2.10403E-03
            1361     5.31220E-03     111.874E-03     1.15036E+06    -1.51840E+06     13.8783E+06    -4.69695E+06    -17.5690E-03     34.3052E-03    -16.7363E-03     2.64003E-03    -17.5817E-03     34.2755E-03    -16.6663E-03     2.57711E-03
            1362     6.19627E-03     111.893E-03    -129.402E+03    -925.154E+03     16.8687E+06    -5.09159E+06    -18.1625E-03     35.1133E-03    -16.9508E-03     3.15283E-03    -18.1870E-03     35.0841E-03    -16.8649E-03     3.08421E-03
            1363     7.07999E-03     111.918E-03    -2.00316E+06    -1.00027E+06     19.7200E+06    -5.81653E+06    -18.9352E-03     36.1484E-03    -17.2131E-03     3.67742E-03    -18.9732E-03     36.1174E-03    -17.1102E-03     3.59868E-03
            1364     7.96255E-03     111.945E-03    -3.91340E+06    -2.38913E+06     21.4769E+06    -6.20687E+06    -19.8385E-03     37.3621E-03    -17.5236E-03     4.23100E-03    -19.8869E-03     37.3244E-03    -17.4071E-03     4.14628E-03
            1365     8.84456E-03     111.979E-03    -5.93383E+06     328.374E+03     23.9142E+06    -7.00562E+06    -20.8221E-03     38.7044E-03    -17.8823E-03     4.96061E-03    -20.8884E-03     38.6797E-03    -17.7546E-03     4.86444E-03
            1366     9.72520E-03     112.018E-03     -9.1299E+06    -2.00508E+06     22.9089E+06    -6.94416E+06    -21.8956E-03     40.1779E-03    -18.2823E-03     5.99078E-03    -21.9734E-03     40.1476E-03    -18.1516E-03     5.89404E-03
            1367     10.6051E-03     112.066E-03    -12.3836E+06    -1.55896E+06     21.5673E+06    -7.84183E+06    -22.8892E-03     41.6098E-03    -18.7206E-03     7.45302E-03    -22.9826E-03     41.5883E-03    -18.5925E-03     7.34325E-03
            1368     11.4836E-03     112.121E-03    -13.1447E+06    -1.77022E+06     20.8190E+06    -6.36433E+06    -23.2705E-03     42.4443E-03    -19.1739E-03     9.64779E-03    -23.3669E-03     42.4240E-03    -19.0482E-03     9.55598E-03
            1369     12.3617E-03     112.189E-03    -14.4023E+06     2.94192E+06     20.5180E+06    -6.56868E+06    -22.1974E-03     41.7656E-03    -19.5682E-03     13.0806E-03    -22.3071E-03     41.7712E-03    -19.4490E-03     12.9863E-03
            1370     13.2414E-03     112.266E-03    -18.7191E+06    -5.55187E+06     16.0907E+06    -5.62426E+06    -19.3285E-03     39.1465E-03    -19.8181E-03     18.0792E-03    -19.4412E-03     39.1222E-03    -19.7024E-03     17.9985E-03
            1371     14.1239E-03     112.359E-03    -20.0726E+06    -587.611E+03     12.9935E+06    -6.23810E+06    -16.6347E-03     36.5180E-03    -19.8833E-03     25.2006E-03    -16.7579E-03     36.5245E-03    -19.7884E-03     25.1130E-03
            1372     15.0134E-03     112.466E-03    -18.0539E+06     8.52995E+06     20.7556E+06    -2.25915E+06    -17.8345E-03     37.8105E-03    -19.9760E-03     42.1701E-03    -17.9795E-03     37.8541E-03    -19.8584E-03     42.1278E-03
            1373     15.8962E-03     112.613E-03    -5.80882E+06     4.11995E+06     33.3907E+06     10.9457E+06    -13.8825E-03     33.9118E-03    -20.0292E-03     66.2889E-03    -14.0038E-03     33.9290E-03    -19.8598E-03     66.4049E-03
            1374     16.7864E-03     112.781E-03     2.99547E+06     3.05731E+06     20.8695E+06     6.62575E+06     2.74900E-03     16.6592E-03    -19.4082E-03     72.0468E-03     2.67143E-03     16.6925E-03    -19.3127E-03     72.1372E-03
            1375     16.8589E-03     56.0615E-03    -486.959E+03     108.830E+06     2.58298E+06     2.02406E+06    -22.3614E-03     36.6176E-03    -14.2561E-03     168.662E-03    -24.9251E-03     39.5585E-03    -14.4003E-03     170.704E-03
            1376     15.9718E-03     55.8930E-03     965.870E+03     57.7286E+06    -29.9884E+06     4.05344E+06    -19.2242E-03     33.3014E-03    -14.0772E-03     142.608E-03    -20.3830E-03     34.7554E-03    -14.3122E-03     143.016E-03
            1377     15.0827E-03     55.7943E-03     1.25173E+06     21.8071E+06    -18.8016E+06     6.36612E+06    -14.1086E-03     28.3465E-03    -14.2379E-03     89.3538E-03    -14.3029E-03     28.6773E-03    -14.3654E-03     89.4318E-03
            1378     14.1931E-03     55.7295E-03    -602.949E+03    -19.9443E+06    -16.3075E+06     6.77187E+06    -13.4565E-03     27.9072E-03    -14.4507E-03     71.2935E-03    -13.4821E-03     27.9072E-03    -14.5025E-03     71.3536E-03
            1379     13.3038E-03     55.6667E-03     113.457E+03    -24.7694E+06    -6.20872E+06     6.37438E+06    -14.7506E-03     29.3634E-03    -14.6127E-03     66.0319E-03    -14.7532E-03     29.2964E-03    -14.6080E-03     66.0839E-03
            1380     12.4168E-03     55.6095E-03    -1.47977E+06    -21.9710E+06     1.02485E+06     5.32712E+06    -14.9232E-03     29.6256E-03    -14.7024E-03     58.7658E-03    -14.9263E-03     29.5425E-03    -14.6633E-03     58.8113E-03
            1381     11.5290E-03     55.5599E-03    -2.15940E+06    -35.2785E+06    -1.35357E+06     1.59009E+06    -15.0700E-03     29.8161E-03    -14.7461E-03     51.1460E-03    -15.0429E-03     29.6601E-03    -14.6986E-03     51.1487E-03
            1382     10.6424E-03     55.5161E-03    -731.078E+03    -44.5510E+06    -1.01519E+06     603.508E+03    -15.1729E-03     29.9502E-03    -14.7773E-03     45.3831E-03    -15.1200E-03     29.7395E-03    -14.7167E-03     45.3773E-03
            1383     9.75518E-03     55.4769E-03    -116.908E+03    -45.5848E+06     2.48898E+06     451.898E+03    -15.1163E-03     29.9211E-03    -14.8047E-03     40.3505E-03    -15.0604E-03     29.6956E-03    -14.7260E-03     40.3462E-03
            1384     8.86833E-03     55.4419E-03     406.037E+03    -44.3341E+06     5.61596E+06    -134.862E+03    -15.0893E-03     29.9123E-03    -14.8230E-03     35.6736E-03    -15.0350E-03     29.6857E-03    -14.7312E-03     35.6643E-03
            1385     7.98156E-03     55.4110E-03     273.293E+03    -44.3055E+06     6.53773E+06    -994.845E+03    -15.0708E-03     29.8978E-03    -14.8270E-03     31.0968E-03    -15.0172E-03     29.6689E-03    -14.7304E-03     31.0782E-03
            1386     7.09470E-03     55.3843E-03     258.149E+03    -45.9875E+06     7.25499E+06    -980.594E+03    -15.0696E-03     29.8940E-03    -14.8243E-03     26.8122E-03    -15.0138E-03     29.6548E-03    -14.7218E-03     26.7949E-03
            1387     6.20804E-03     55.3612E-03    -327.993E+03    -44.2026E+06     5.92028E+06    -469.075E+03    -15.0211E-03     29.8213E-03    -14.8002E-03     22.8379E-03    -14.9683E-03     29.5933E-03    -14.7061E-03     22.8282E-03
            1388     5.32125E-03     55.3419E-03    -1.24992E+06    -44.0164E+06     4.39582E+06    -279.171E+03    -14.9348E-03     29.7110E-03    -14.7762E-03     19.0975E-03    -14.8844E-03     29.4871E-03    -14.6886E-03     19.0910E-03
            1389     4.43451E-03     55.3256E-03    -1.98069E+06    -43.7418E+06     3.02503E+06     28.2218E+03    -14.8352E-03     29.5920E-03    -14.7567E-03     15.5652E-03    -14.7865E-03     29.3722E-03    -14.6753E-03     15.5633E-03
            1390     3.54751E-03     55.3127E-03    -2.96446E+06    -44.5802E+06     916.172E+03    -303.876E+03    -14.7725E-03     29.5144E-03    -14.7419E-03     12.2217E-03    -14.7242E-03     29.2948E-03    -14.6684E-03     12.2160E-03
            1391     2.66071E-03     55.3025E-03    -4.09301E+06    -46.4779E+06    -1.05469E+06    -704.302E+03    -14.7535E-03     29.4844E-03    -14.7309E-03     9.02944E-03    -14.7051E-03     29.2596E-03    -14.6629E-03     9.01909E-03
            1392     1.77378E-03     55.2958E-03    -4.88878E+06    -47.5674E+06    -2.98658E+06    -300.288E+03    -14.7288E-03     29.4458E-03    -14.7170E-03     6.01639E-03    -14.6800E-03     29.2194E-03    -14.6559E-03     6.01170E-03
            1393     886.976E-06     55.2912E-03    -5.39445E+06    -48.3428E+06    -4.72552E+06    -27.2391E+03    -14.6972E-03     29.4122E-03    -14.7150E-03     3.16761E-03    -14.6470E-03     29.1855E-03    -14.6607E-03     3.16685E-03
            1394     16.8550E-03     55.0870E-03     3.50228E+06     104.189E+06     5.92314E+06     422.435E+03    -22.6313E-03     36.9096E-03    -14.2783E-03     169.497E-03    -25.2166E-03     39.8604E-03    -14.4049E-03     171.568E-03
            1395     15.9692E-03     54.9130E-03     2.33926E+06     53.9721E+06    -26.9740E+06     7.79372E+06    -17.5753E-03     31.7113E-03    -14.1360E-03     138.533E-03    -18.6280E-03     33.0426E-03    -14.3525E-03     138.932E-03
            1396     15.0809E-03     54.8254E-03    -1.25572E+06     22.4070E+06    -19.8379E+06     9.19130E+06    -12.4198E-03     26.7937E-03    -14.3738E-03     92.3567E-03    -12.6159E-03     27.1225E-03    -14.5037E-03     92.4792E-03
            1397     14.1890E-03     54.7537E-03    -3.05258E+06    -20.8401E+06    -17.9807E+06     8.77428E+06    -14.7176E-03     29.3299E-03    -14.6123E-03     74.9825E-03    -14.7611E-03     29.3407E-03    -14.6676E-03     75.0632E-03
            1398     13.3032E-03     54.6909E-03    -5.46921E+06    -21.2535E+06    -7.67738E+06     7.91899E+06    -15.4132E-03     30.1376E-03    -14.7243E-03     66.3069E-03    -15.4472E-03     30.0989E-03    -14.7239E-03     66.3768E-03
            1399     12.4151E-03     54.6334E-03    -3.67332E+06    -17.5650E+06     362.599E+03     2.98902E+06    -15.2670E-03     30.0506E-03    -14.7836E-03     59.1805E-03    -15.2870E-03     29.9941E-03    -14.7509E-03     59.1950E-03
            1400     11.5287E-03     54.5834E-03    -271.265E+03    -32.9131E+06    -923.572E+03     574.322E+03    -15.4168E-03     30.2269E-03    -14.8102E-03     51.3873E-03    -15.3846E-03     30.0796E-03    -14.7667E-03     51.3763E-03
            1401     10.6415E-03     54.5395E-03     344.939E+03    -44.6625E+06    -359.246E+03    -457.829E+03    -15.4490E-03     30.2767E-03    -14.8277E-03     45.3860E-03    -15.3916E-03     30.0630E-03    -14.7652E-03     45.3661E-03
            1402     9.75500E-03     54.5003E-03     1.25298E+06    -45.7185E+06     4.13616E+06    -253.312E+03    -15.3874E-03     30.2269E-03    -14.8394E-03     40.2339E-03    -15.3270E-03     29.9966E-03    -14.7543E-03     40.2201E-03
            1403     8.86831E-03     54.4652E-03     1.03414E+06    -43.2260E+06     7.08628E+06    -557.496E+03    -15.2426E-03     30.0804E-03    -14.8378E-03     35.5203E-03    -15.1889E-03     29.8564E-03    -14.7412E-03     35.5053E-03
            1404     7.98146E-03     54.4345E-03     698.709E+03    -43.7358E+06     6.68739E+06    -1.40584E+06    -15.1661E-03     29.9895E-03    -14.8234E-03     30.9982E-03    -15.1114E-03     29.7627E-03    -14.7276E-03     30.9741E-03
            1405     7.09488E-03     54.4075E-03     331.724E+03    -46.5767E+06     6.42476E+06    -1.79905E+06    -15.1250E-03     29.9334E-03    -14.8084E-03     26.6869E-03    -15.0668E-03     29.6924E-03    -14.7092E-03     26.6590E-03
            1406     6.20810E-03     54.3847E-03     491.213E+03    -45.3207E+06     7.45328E+06    -1.06652E+06    -15.0416E-03     29.8305E-03    -14.7889E-03     22.6883E-03    -14.9854E-03     29.5935E-03    -14.6866E-03     22.6709E-03
            1407     5.32140E-03     54.3651E-03     173.743E+03    -44.0366E+06      6.4276E+06    -353.779E+03    -14.9595E-03     29.7176E-03    -14.7581E-03     18.9782E-03    -14.9048E-03     29.4886E-03    -14.6624E-03     18.9707E-03
            1408     4.43459E-03     54.3493E-03    -720.794E+03    -44.2096E+06     4.67757E+06    -339.954E+03    -14.8710E-03     29.5978E-03    -14.7268E-03     15.4658E-03    -14.8178E-03     29.3715E-03    -14.6382E-03     15.4591E-03
            1409     3.54783E-03     54.3361E-03    -1.56279E+06    -43.9719E+06     2.77064E+06    -171.274E+03    -14.7590E-03     29.4593E-03    -14.7003E-03     12.1363E-03    -14.7073E-03     29.2380E-03    -14.6205E-03     12.1324E-03
            1410     2.66079E-03     54.3264E-03    -2.70480E+06    -46.6644E+06     8.00976E+03    -459.823E+03    -14.7041E-03     29.3872E-03    -14.6832E-03     8.96970E-03    -14.6500E-03     29.1580E-03    -14.6116E-03     8.96251E-03
            1411     1.77393E-03     54.3192E-03    -3.71003E+06    -48.2320E+06    -2.44718E+06    -502.161E+03    -14.6842E-03     29.3523E-03    -14.6681E-03     5.94735E-03    -14.6293E-03     29.1201E-03    -14.6050E-03     5.94004E-03
            1412     886.909E-06     54.3152E-03    -4.05703E+06    -48.5797E+06    -3.82002E+06    -185.934E+03    -14.6613E-03     29.3190E-03    -14.6577E-03     3.20211E-03    -14.6054E-03     29.0877E-03    -14.6004E-03     3.19928E-03
            1413     16.8520E-03     54.0833E-03    -3.17991E+06     100.671E+06     9.46895E+06    -739.303E+03    -19.1258E-03     33.4427E-03    -14.3169E-03     167.263E-03    -21.8047E-03     36.4407E-03    -14.4109E-03     169.412E-03
            1414     15.9748E-03     53.9531E-03    -2.87798E+06     46.9105E+06    -25.9652E+06     5.83410E+06    -13.9716E-03     28.3156E-03    -14.3440E-03     133.952E-03    -14.8840E-03     29.4601E-03    -14.5377E-03     134.365E-03
            1415     15.0715E-03     53.8514E-03    -2.31657E+06     18.0902E+06    -20.9656E+06     15.4328E+06    -13.5233E-03     28.1660E-03    -14.6427E-03     100.798E-03    -13.7449E-03     28.5043E-03    -14.7704E-03     101.002E-03
            1416     14.1881E-03     53.7753E-03    -8.07631E+06    -13.4547E+06    -15.7499E+06     13.5229E+06    -16.7783E-03     31.5948E-03    -14.8165E-03     75.1462E-03    -16.8675E-03     31.6532E-03    -14.8640E-03     75.2800E-03
            1417     13.3009E-03     53.7153E-03    -5.95535E+06    -14.1646E+06    -4.49142E+06     3.43585E+06    -16.0800E-03     30.9286E-03    -14.8485E-03     65.8982E-03    -16.1317E-03     30.9218E-03    -14.8418E-03     65.9086E-03
            1418     12.4145E-03     53.6564E-03    -1.24922E+06    -15.6151E+06     3.52642E+06     9.86525E+03    -15.8122E-03     30.6874E-03    -14.8752E-03     59.2657E-03    -15.8288E-03     30.6338E-03    -14.8331E-03     59.2403E-03
            1419     11.5276E-03     53.6068E-03    -600.732E+03    -31.1193E+06     1.44826E+06    -1.04278E+06    -15.7661E-03     30.6399E-03    -14.8738E-03     51.1501E-03    -15.7419E-03     30.4989E-03    -14.8206E-03     51.1175E-03
            1420     10.6413E-03     53.5625E-03     1.34365E+06    -45.0062E+06     1.76237E+06    -1.66419E+06    -15.7472E-03     30.6152E-03    -14.8680E-03     45.1072E-03    -15.6877E-03     30.3956E-03    -14.7959E-03     45.0711E-03
            1421     9.75487E-03     53.5233E-03     2.56354E+06    -46.0100E+06     5.81106E+06    -1.54734E+06    -15.6055E-03     30.4616E-03    -14.8561E-03     39.8963E-03    -15.5407E-03     30.2257E-03    -14.7641E-03     39.8654E-03
            1422     8.86829E-03     53.4886E-03     3.74918E+06    -43.2843E+06     8.92126E+06    -1.15390E+06    -15.4099E-03     30.2446E-03    -14.8348E-03     35.2218E-03    -15.3452E-03     30.0138E-03    -14.7328E-03     35.1988E-03
            1423     7.98178E-03     53.4576E-03     3.50024E+06    -42.9343E+06     8.35358E+06    -1.20245E+06    -15.2463E-03     30.0506E-03    -14.8044E-03     30.7650E-03    -15.1812E-03     29.8213E-03    -14.7054E-03     30.7434E-03
            1424     7.09501E-03     53.4310E-03     2.62638E+06    -46.6133E+06     7.20774E+06    -1.87515E+06    -15.1439E-03     29.9229E-03    -14.7790E-03     26.5018E-03    -15.0754E-03     29.6773E-03    -14.6792E-03     26.4728E-03
            1425     6.20839E-03     53.4079E-03     1.68358E+06    -46.6993E+06     7.63532E+06    -1.82174E+06    -15.0413E-03     29.7967E-03    -14.7553E-03     22.5113E-03    -14.9774E-03     29.5508E-03    -14.6519E-03     22.4840E-03
            1426     5.32155E-03     53.3888E-03     1.38035E+06    -44.6512E+06     7.97380E+06    -1.03817E+06    -14.9328E-03     29.6604E-03    -14.7276E-03     18.8211E-03    -14.8735E-03     29.4243E-03    -14.6249E-03     18.8048E-03
            1427     4.43481E-03     53.3725E-03     949.761E+03    -44.3798E+06     6.73904E+06    -531.015E+03    -14.8430E-03     29.5392E-03    -14.6962E-03     15.3454E-03    -14.7841E-03     29.3066E-03    -14.5996E-03     15.3363E-03
            1428     3.54790E-03     53.3600E-03    -179.341E+03    -44.4912E+06     4.41397E+06    -229.489E+03    -14.7599E-03     29.4229E-03    -14.6630E-03     12.0783E-03    -14.7029E-03     29.1945E-03    -14.5762E-03     12.0736E-03
            1429     2.66105E-03     53.3499E-03    -1.44500E+06    -46.2801E+06     1.13546E+06     124.652E+03    -14.6797E-03     29.3126E-03    -14.6329E-03     8.94125E-03    -14.6216E-03     29.0818E-03    -14.5580E-03     8.94161E-03
            1430     1.77399E-03     53.3432E-03    -2.67250E+06    -48.4774E+06    -1.85250E+06    -224.249E+03    -14.6274E-03     29.2408E-03    -14.6135E-03     5.91029E-03    -14.5678E-03     29.0050E-03    -14.5486E-03     5.90657E-03
            1431     887.034E-06     53.3387E-03    -3.30569E+06    -49.1291E+06    -3.26223E+06    -184.271E+03    -14.6160E-03     29.2146E-03    -14.5986E-03     3.16854E-03    -14.5563E-03     28.9788E-03    -14.5389E-03     3.16573E-03
            1432     16.8630E-03     53.1059E-03     19.3167E+06     95.1768E+06     21.4221E+06     1.49156E+06    -12.4600E-03     27.0761E-03    -14.6162E-03     178.960E-03    -15.2058E-03     30.1661E-03    -14.6751E-03     181.421E-03
            1433     15.9528E-03     52.9915E-03    -247.917E+03     34.1963E+06    -21.5472E+06     11.7841E+06    -15.0966E-03     29.9419E-03    -14.8453E-03     142.003E-03    -16.0754E-03     31.1034E-03    -15.0022E-03     142.596E-03
            1434     15.0709E-03     52.8690E-03    -16.3334E+06     25.0627E+06    -18.5255E+06     20.7227E+06    -19.0792E-03     34.0513E-03    -14.9720E-03     103.857E-03    -19.4390E-03     34.4958E-03    -15.0773E-03     104.097E-03
            1435     14.1852E-03     52.7987E-03    -8.87806E+06     2.79850E+06    -12.7896E+06     5.26986E+06    -17.6044E-03     32.5430E-03    -14.9386E-03     72.5171E-03    -17.7232E-03     32.6774E-03    -14.9937E-03     72.5417E-03
            1436     13.2997E-03     52.7372E-03     475.372E+03    -12.4608E+06    -856.887E+03    -1.18231E+06    -16.7261E-03     31.6656E-03    -14.9395E-03     64.7534E-03    -16.7544E-03     31.6538E-03    -14.9264E-03     64.7022E-03
            1437     12.4136E-03     52.6795E-03     1.49624E+06    -13.7845E+06     6.07994E+06    -1.40512E+06    -16.3952E-03     31.3220E-03    -14.9268E-03     58.4145E-03    -16.4054E-03     31.2710E-03    -14.8786E-03     58.3691E-03
            1438     11.5276E-03     52.6294E-03     3.54550E+06    -30.8988E+06     2.76994E+06    -2.66625E+06    -16.1160E-03     31.0027E-03    -14.8867E-03     50.3631E-03    -16.0737E-03     30.8552E-03    -14.8332E-03     50.3088E-03
            1439     10.6414E-03     52.5853E-03     4.50407E+06    -44.7646E+06     3.54678E+06    -2.81516E+06    -15.8878E-03     30.7531E-03    -14.8653E-03     44.5281E-03    -15.8155E-03     30.5276E-03    -14.7892E-03     44.4768E-03
            1440     9.75496E-03     52.5464E-03     5.33412E+06    -47.0088E+06     7.25372E+06    -2.70336E+06    -15.7078E-03     30.5504E-03    -14.8426E-03     39.4506E-03    -15.6299E-03     30.3035E-03    -14.7459E-03     39.4045E-03
            1441     8.86870E-03     52.5115E-03     5.25393E+06    -44.1642E+06     10.0562E+06    -1.80572E+06    -15.4932E-03     30.3036E-03    -14.8105E-03     34.8600E-03    -15.4215E-03     30.0647E-03    -14.7038E-03     34.8284E-03
            1442     7.98203E-03     52.4811E-03     5.05272E+06    -43.0821E+06     9.81793E+06    -1.11521E+06    -15.2805E-03     30.0515E-03    -14.7710E-03     30.5284E-03    -15.2096E-03     29.8171E-03    -14.6668E-03     30.5078E-03
            1443     7.09544E-03     52.4542E-03     4.26654E+06    -45.8922E+06     8.45630E+06    -1.21366E+06    -15.1237E-03     29.8617E-03    -14.7380E-03     26.3299E-03    -15.0498E-03     29.6155E-03    -14.6354E-03     26.3094E-03
            1444     6.20861E-03     52.4316E-03     3.45181E+06    -47.2188E+06     8.15677E+06    -1.93425E+06    -15.0067E-03     29.7175E-03    -14.7108E-03     22.3881E-03    -14.9339E-03     29.4657E-03    -14.6065E-03     22.3594E-03
            1445     5.32193E-03     52.4121E-03     2.60392E+06    -45.9575E+06     8.46888E+06    -1.60594E+06    -14.8795E-03     29.5653E-03    -14.6859E-03     18.7281E-03    -14.8128E-03     29.3202E-03    -14.5807E-03     18.7044E-03
            1446     4.43494E-03     52.3965E-03     1.69976E+06    -44.8832E+06     6.83455E+06    -778.662E+03    -14.7770E-03     29.4333E-03    -14.6563E-03     15.2789E-03    -14.7138E-03     29.1970E-03    -14.5595E-03     15.2665E-03
            1447     3.54803E-03     52.3834E-03     874.596E+03    -45.2535E+06     4.98433E+06    -134.739E+03    -14.7192E-03     29.3488E-03    -14.6296E-03     12.0085E-03    -14.6567E-03     29.1143E-03    -14.5403E-03     12.0050E-03
            1448     2.66108E-03     52.3740E-03    -201.793E+03    -46.3776E+06     2.81020E+06     421.017E+03    -14.6578E-03     29.2610E-03    -14.6032E-03     8.89958E-03    -14.5958E-03     29.0255E-03    -14.5216E-03     8.90377E-03
            1449     1.77411E-03     52.3668E-03    -1.40381E+06    -47.9973E+06    -345.077E+03     644.266E+03    -14.6100E-03     29.1845E-03    -14.5745E-03     5.91686E-03    -14.5469E-03     28.9471E-03    -14.5046E-03     5.92436E-03
            1450     887.045E-06     52.3629E-03    -2.56192E+06    -49.1158E+06    -2.50521E+06     197.556E+03    -14.5801E-03     29.1205E-03    -14.5404E-03     3.13765E-03    -14.5179E-03     28.8826E-03    -14.4780E-03     3.13977E-03
            1451     16.8278E-03     52.1603E-03     20.7634E+06     74.7050E+06     27.9288E+06     10.9429E+06    -11.5355E-03     26.6135E-03    -15.0780E-03     172.528E-03    -14.1263E-03     29.4605E-03    -15.0768E-03     175.254E-03
            1452     15.9457E-03     51.9958E-03    -7.05780E+06     30.7009E+06    -9.62670E+06     29.6792E+06    -19.2946E-03     34.5276E-03    -15.2330E-03     142.342E-03    -20.4709E-03     35.8151E-03    -15.3154E-03     143.182E-03
            1453     15.0701E-03     51.8915E-03    -6.29140E+06     46.7472E+06     4.37780E+06     8.22544E+06    -21.9484E-03     37.0960E-03    -15.1477E-03     94.9002E-03    -22.3408E-03     37.6194E-03    -15.1844E-03     94.9561E-03
            1454     14.1851E-03     51.8188E-03     5.77940E+06     8.58070E+06    -4.67182E+06    -1.82957E+06    -17.7747E-03     32.7271E-03    -14.9524E-03     68.8642E-03    -17.8372E-03     32.8542E-03    -14.9966E-03     68.7965E-03
            1455     13.2998E-03     51.7602E-03     6.57153E+06    -10.9560E+06     2.98481E+06    -2.48973E+06    -16.8785E-03     31.8142E-03    -14.9357E-03     62.6826E-03    -16.8842E-03     31.7957E-03    -14.9144E-03     62.6134E-03
            1456     12.4139E-03     51.7011E-03     9.08322E+06    -14.8539E+06     9.49913E+06    -3.30364E+06    -16.6212E-03     31.5273E-03    -14.9060E-03     56.9875E-03    -16.5974E-03     31.4554E-03    -14.8502E-03     56.9165E-03
            1457     11.5283E-03     51.6522E-03     9.01735E+06    -30.0654E+06     5.46271E+06    -2.18641E+06    -16.1536E-03     31.0036E-03    -14.8500E-03     49.3326E-03    -16.0892E-03     30.8486E-03    -14.7921E-03     49.2841E-03
            1458     10.6418E-03     51.6083E-03     8.32770E+06    -44.9776E+06     6.03273E+06    -2.95981E+06    -15.8426E-03     30.6712E-03    -14.8285E-03     44.0857E-03    -15.7545E-03     30.4354E-03    -14.7452E-03     44.0326E-03
            1459     9.75561E-03     51.5691E-03     7.83782E+06    -47.8484E+06     8.83785E+06    -2.60734E+06    -15.6673E-03     30.4717E-03    -14.8044E-03     39.1286E-03    -15.5778E-03     30.2146E-03    -14.7022E-03     39.0837E-03
            1460     8.86895E-03     51.5349E-03     7.52277E+06    -45.5174E+06     11.4129E+06    -1.96958E+06    -15.4678E-03     30.2395E-03    -14.7717E-03     34.5900E-03    -15.3848E-03     29.9885E-03    -14.6596E-03     34.5563E-03
            1461     7.98250E-03     51.5041E-03     6.85939E+06    -43.9854E+06     11.9247E+06    -908.245E+03    -15.2661E-03     30.0000E-03    -14.7339E-03     30.3204E-03    -15.1879E-03     29.7554E-03    -14.6205E-03     30.3025E-03
            1462     7.09573E-03     51.4779E-03     5.96527E+06    -45.3527E+06     10.3868E+06    -658.639E+03    -15.0852E-03     29.7812E-03    -14.6961E-03     26.1838E-03    -15.0063E-03     29.5324E-03    -14.5870E-03     26.1705E-03
            1463     6.20900E-03     51.4549E-03     4.52429E+06    -46.6859E+06     8.67937E+06    -1.22402E+06    -14.9213E-03     29.5866E-03    -14.6653E-03     22.2978E-03    -14.8447E-03     29.3352E-03    -14.5608E-03     22.2783E-03
            1464     5.32201E-03     51.4360E-03     3.03132E+06    -47.2005E+06     7.80335E+06    -1.40209E+06    -14.8098E-03     29.4537E-03    -14.6439E-03     18.6732E-03    -14.7382E-03     29.2027E-03    -14.5408E-03     18.6522E-03
            1465     4.43515E-03     51.4199E-03     1.87887E+06    -45.8205E+06     5.63284E+06    -651.434E+03    -14.7305E-03     29.3464E-03    -14.6159E-03     15.2518E-03    -14.6633E-03     29.1068E-03    -14.5240E-03     15.2412E-03
            1466     3.54818E-03     51.4075E-03     823.380E+03    -45.7306E+06     3.64633E+06    -149.601E+03    -14.6580E-03     29.2519E-03    -14.5938E-03     11.9784E-03    -14.5932E-03     29.0170E-03    -14.5105E-03     11.9748E-03
            1467     2.66112E-03     51.3976E-03     197.550E+03    -46.9297E+06     2.74954E+06     333.561E+03    -14.6167E-03     29.1978E-03    -14.5811E-03     8.86345E-03    -14.5518E-03     28.9590E-03    -14.4996E-03     8.86651E-03
            1468     1.77411E-03     51.3910E-03    -107.856E+03    -47.5754E+06     1.23164E+06     839.968E+03    -14.5838E-03     29.1491E-03    -14.5653E-03     5.90319E-03    -14.5172E-03     28.9097E-03    -14.4900E-03     5.91322E-03
            1469     887.121E-06     51.3865E-03    -280.775E+03    -48.0235E+06    -317.943E+03     792.337E+03    -14.5551E-03     29.1115E-03    -14.5565E-03     3.16804E-03    -14.4862E-03     28.8725E-03    -14.4880E-03     3.17785E-03
            1470     16.8557E-03     51.2016E-03    -48.4698E+06     69.1648E+06     9.77534E+06     2.65232E+06    -17.3399E-03     32.4045E-03    -15.0647E-03     164.167E-03    -20.0522E-03     35.1547E-03    -15.0458E-03     166.657E-03
            1471     15.9581E-03     51.0149E-03     1.15851E+06     61.0989E+06     24.1876E+06      21.538E+06    -20.2641E-03     35.3824E-03    -15.1182E-03     145.496E-03    -21.5317E-03     36.7983E-03    -15.0876E-03     146.240E-03
            1472     15.0709E-03     50.9068E-03     21.7363E+06     54.1356E+06     20.9935E+06     3.72298E+06    -19.2326E-03     34.2298E-03    -14.9972E-03     88.7325E-03    -19.4917E-03     34.6972E-03    -15.0022E-03     88.7465E-03
            1473     14.1884E-03     50.8429E-03     15.5064E+06     14.2037E+06     4.47886E+06     451.165E+03    -17.4269E-03     32.2941E-03    -14.8672E-03     65.8820E-03    -17.4597E-03     32.4194E-03    -14.8879E-03     65.8447E-03
            1474     13.3012E-03     50.7815E-03     15.6626E+06    -11.4163E+06     8.73135E+06    -3.72704E+06    -16.6276E-03     31.4816E-03    -14.8540E-03     62.2479E-03    -16.5949E-03     31.4387E-03    -14.8165E-03     62.1636E-03
            1475     12.4158E-03     50.7237E-03     14.4449E+06    -16.1563E+06     12.4636E+06    -1.75142E+06    -16.3333E-03     31.1636E-03    -14.8303E-03     56.2646E-03    -16.2846E-03     31.0727E-03    -14.7655E-03     56.2143E-03
            1476     11.5289E-03     50.6750E-03     12.9432E+06    -30.5192E+06     8.35164E+06    -1.27060E+06    -15.9373E-03     30.7252E-03    -14.7878E-03     48.9267E-03    -15.8565E-03     30.5577E-03    -14.7206E-03     48.8904E-03
            1477     10.6427E-03     50.6313E-03     11.9626E+06    -44.2369E+06     8.79609E+06    -1.01228E+06    -15.7281E-03     30.5008E-03    -14.7727E-03     43.7983E-03    -15.6268E-03     30.2594E-03    -14.6819E-03     43.7705E-03
            1478     9.75591E-03     50.5924E-03     10.5382E+06    -48.1761E+06     10.0735E+06    -1.97502E+06    -15.5427E-03     30.2925E-03    -14.7498E-03     38.9671E-03    -15.4410E-03     30.0279E-03    -14.6448E-03     38.9307E-03
            1479     8.86959E-03     50.5578E-03     9.58074E+06    -46.9948E+06     11.8212E+06    -1.35468E+06    -15.3970E-03     30.1173E-03    -14.7203E-03     34.3668E-03    -15.3021E-03     29.8553E-03    -14.6070E-03     34.3410E-03
            1480     7.98278E-03     50.5278E-03     8.60717E+06    -44.8667E+06     12.9598E+06    -499.150E+03    -15.1976E-03     29.8855E-03    -14.6878E-03     30.1205E-03    -15.1109E-03     29.6324E-03    -14.5705E-03     30.1079E-03
            1481     7.09614E-03     50.5011E-03     7.49603E+06    -45.4574E+06     11.7312E+06     94.5035E+03    -15.0019E-03     29.6565E-03    -14.6546E-03     26.0321E-03    -14.9172E-03     29.4030E-03    -14.5409E-03     26.0286E-03
            1482     6.20918E-03     50.4789E-03     5.88549E+06    -46.1492E+06     9.45488E+06     239.021E+03    -14.8474E-03     29.4730E-03    -14.6256E-03     22.2015E-03    -14.7659E-03     29.2211E-03    -14.5199E-03     22.2009E-03
            1483     5.32227E-03     50.4595E-03     3.64219E+06    -47.3595E+06     7.36688E+06    -111.984E+03    -14.7447E-03     29.3502E-03    -14.6055E-03     18.6032E-03    -14.6692E-03     29.0981E-03    -14.5053E-03     18.5989E-03
            1484     4.43524E-03     50.4440E-03     1.88373E+06    -46.4900E+06     5.14000E+06    -310.094E+03    -14.6666E-03     29.2518E-03    -14.5852E-03     15.2015E-03    -14.5977E-03     29.0096E-03    -14.4949E-03     15.1953E-03
            1485     3.54819E-03     50.4311E-03     1.17710E+06    -46.0095E+06     3.19610E+06    -31.9030E+03    -14.6137E-03     29.1828E-03    -14.5690E-03     11.9579E-03    -14.5460E-03     28.9466E-03    -14.4880E-03     11.9558E-03
            1486     2.66121E-03     50.4218E-03     716.597E+03    -47.2994E+06     1.68842E+06     96.0139E+03    -14.5740E-03     29.1358E-03    -14.5618E-03     8.86266E-03    -14.5044E-03     28.8960E-03    -14.4858E-03     8.86269E-03
            1487     1.77412E-03     50.4146E-03     615.544E+03    -47.4887E+06     1.30712E+06     292.846E+03    -14.5478E-03     29.1145E-03    -14.5667E-03     5.90429E-03    -14.4777E-03     28.8743E-03    -14.4922E-03     5.90729E-03
            1488     886.944E-06     50.4109E-03     1.05666E+06    -47.0075E+06     1.59290E+06     266.864E+03    -14.5703E-03     29.1453E-03    -14.5750E-03     3.18010E-03    -14.4990E-03     28.9067E-03    -14.5004E-03     3.18314E-03
            1489     16.8379E-03     50.2152E-03    -31.7770E+06     66.3569E+06     10.8864E+06    -9.77937E+06    -21.0911E-03     36.0275E-03    -14.9363E-03     173.036E-03    -23.9232E-03     38.9450E-03    -14.9321E-03     175.197E-03
            1490     15.9645E-03     50.0417E-03    -6.13855E+06     45.3874E+06     19.4183E+06    -17.9328E+06    -22.0092E-03     36.8975E-03    -14.8883E-03     152.426E-03    -23.3847E-03     38.3540E-03    -14.8482E-03     152.584E-03
            1491     15.0771E-03     49.9286E-03     20.1274E+06     55.0704E+06     23.4165E+06     3.99676E+06    -17.0789E-03     31.8690E-03    -14.7901E-03     91.3565E-03    -17.3284E-03     32.3175E-03    -14.7821E-03     91.3902E-03
            1492     14.1882E-03     49.8652E-03     23.6020E+06     20.0373E+06     9.54375E+06     2.24964E+06    -16.4078E-03     31.1501E-03    -14.7423E-03     65.8234E-03    -16.4131E-03     31.2826E-03    -14.7579E-03     65.8136E-03
            1493     13.3034E-03     49.8040E-03     19.6264E+06    -11.8912E+06     9.44104E+06     1.05686E+06    -16.4049E-03     31.1612E-03    -14.7563E-03     62.5652E-03    -16.3521E-03     31.1085E-03    -14.7203E-03     62.5437E-03
            1494     12.4160E-03     49.7470E-03     15.1376E+06    -16.7824E+06     11.1627E+06     756.249E+03    -16.0000E-03     30.7423E-03    -14.7423E-03     56.4545E-03    -15.9442E-03     30.6483E-03    -14.6841E-03     56.4377E-03
            1495     11.5300E-03     49.6978E-03     13.2557E+06    -30.4832E+06     6.19915E+06     851.777E+03    -15.8079E-03     30.5150E-03    -14.7072E-03     48.9096E-03    -15.7222E-03     30.3502E-03    -14.6512E-03     48.9011E-03
            1496     10.6432E-03     49.6548E-03     12.2836E+06    -43.3871E+06     6.77247E+06    -32.1048E+03    -15.6163E-03     30.3124E-03    -14.6961E-03     43.7154E-03    -15.5115E-03     30.0775E-03    -14.6171E-03     43.7005E-03
            1497     9.75684E-03     49.6155E-03     11.5840E+06    -48.1514E+06     8.91471E+06     31.0448E+03    -15.4405E-03     30.1222E-03    -14.6818E-03     38.8777E-03    -15.3318E-03     29.8579E-03    -14.5842E-03     38.8673E-03
            1498     8.86990E-03     49.5815E-03     9.54504E+06    -47.6487E+06     10.4004E+06    -4.50319E+03    -15.2692E-03     29.9286E-03    -14.6594E-03     34.2835E-03    -15.1713E-03     29.6653E-03    -14.5522E-03     34.2754E-03
            1499     7.98337E-03     49.5510E-03     8.01690E+06    -45.4635E+06     11.1036E+06     227.161E+03    -15.0869E-03     29.7196E-03    -14.6327E-03     29.9944E-03    -14.9995E-03     29.4670E-03    -14.5228E-03     29.9913E-03
            1500     7.09633E-03     49.5252E-03     6.88721E+06    -45.9954E+06     10.3974E+06     770.188E+03    -14.9121E-03     29.5205E-03    -14.6084E-03     25.9425E-03    -14.8277E-03     29.2671E-03    -14.4997E-03     25.9479E-03
            1501     6.20943E-03     49.5023E-03     5.87264E+06    -46.1761E+06     9.89578E+06     1.35002E+06    -14.7923E-03     29.3830E-03    -14.5907E-03     22.1055E-03    -14.7114E-03     29.1303E-03    -14.4828E-03     22.1193E-03
            1502     5.32243E-03     49.4837E-03     4.74782E+06    -46.4614E+06     8.83658E+06     1.19400E+06    -14.6868E-03     29.2630E-03    -14.5762E-03     18.5260E-03    -14.6092E-03     29.0117E-03    -14.4715E-03     18.5386E-03
            1503     4.43536E-03     49.4677E-03     3.30735E+06    -46.2327E+06     6.65154E+06     453.314E+03    -14.6101E-03     29.1720E-03    -14.5619E-03     15.1403E-03    -14.5366E-03     28.9269E-03    -14.4664E-03     15.1439E-03
            1504     3.54832E-03     49.4554E-03     2.06495E+06    -46.1963E+06     4.20409E+06     94.2911E+03    -14.5594E-03     29.1117E-03    -14.5524E-03     11.9117E-03    -14.4884E-03     28.8719E-03    -14.4674E-03     11.9112E-03
            1505     2.66118E-03     49.4454E-03     1.43579E+06    -47.2362E+06     2.73432E+06     169.838E+03    -14.5330E-03     29.0882E-03    -14.5552E-03     8.84102E-03    -14.4614E-03     28.8461E-03    -14.4751E-03     8.84202E-03
            1506     1.77406E-03     49.4390E-03     1.17468E+06    -47.2511E+06     1.69854E+06    -217.559E+03    -14.5499E-03     29.1102E-03    -14.5603E-03     5.92240E-03    -14.4780E-03     28.8698E-03    -14.4850E-03     5.91883E-03
            1507     887.124E-06     49.4343E-03     1.37520E+06    -47.1694E+06     1.27579E+06    -498.139E+03    -14.5685E-03     29.1278E-03    -14.5593E-03     3.18751E-03    -14.4949E-03     28.8884E-03    -14.4865E-03     3.18069E-03
            1508     16.8496E-03     49.2344E-03     16.8231E+06     81.0080E+06     27.1062E+06     4.70453E+06    -20.8675E-03     35.6709E-03    -14.8034E-03     171.287E-03    -23.5718E-03     38.6438E-03    -14.8097E-03     173.523E-03
            1509     15.9611E-03     49.0582E-03    -3.58937E+06     12.3490E+06    -13.7472E+06    -29.6178E+06    -21.1289E-03     35.7848E-03    -14.6560E-03     147.799E-03    -22.4162E-03     37.1430E-03    -14.7374E-03     147.778E-03
            1510     15.0771E-03     48.9557E-03    -913.274E+03     35.7894E+06     7.48563E+06    -16.8558E+06    -17.0341E-03     31.7010E-03    -14.6670E-03     92.7069E-03    -17.3360E-03     32.1050E-03    -14.6801E-03     92.4734E-03
            1511     14.1907E-03     48.8862E-03     13.2111E+06     18.5781E+06     6.66653E+06     3.00217E+06    -15.9676E-03     30.6191E-03    -14.6515E-03     66.9075E-03    -16.0182E-03     30.7633E-03    -14.6643E-03     66.9088E-03
            1512     13.3033E-03     48.8284E-03     14.1055E+06    -9.77413E+06     6.26795E+06     4.47517E+06    -16.0476E-03     30.7182E-03    -14.6706E-03     62.1910E-03    -16.0203E-03     30.6881E-03    -14.6456E-03     62.2144E-03
            1513     12.4173E-03     48.7692E-03     13.0173E+06    -17.1145E+06     9.93335E+06     3.75946E+06    -15.8608E-03     30.5365E-03    -14.6757E-03     56.5377E-03    -15.8130E-03     30.4454E-03    -14.6201E-03     56.5601E-03
            1514     11.5304E-03     48.7218E-03     10.7643E+06    -28.7173E+06     5.27956E+06     3.02731E+06    -15.6896E-03     30.3334E-03    -14.6438E-03     48.7897E-03    -15.6174E-03     30.1822E-03    -14.5914E-03     48.8095E-03
            1515     10.6440E-03     48.6775E-03     8.75100E+06    -42.4121E+06     4.07811E+06     1.76008E+06    -15.5119E-03     30.1414E-03    -14.6294E-03     43.6913E-03    -15.4221E-03     29.9203E-03    -14.5602E-03     43.6998E-03
            1516     9.75714E-03     48.6395E-03     7.23088E+06    -48.0571E+06     5.64185E+06     997.605E+03    -15.3245E-03     29.9427E-03    -14.6181E-03     38.8787E-03    -15.2329E-03     29.6897E-03    -14.5307E-03     38.8810E-03
            1517     8.87054E-03     48.6046E-03     7.69059E+06    -47.1490E+06     7.97170E+06     603.045E+03    -15.1390E-03     29.7407E-03    -14.6017E-03     34.2982E-03    -15.0475E-03     29.4861E-03    -14.5047E-03     34.2982E-03
            1518     7.98345E-03     48.5751E-03     7.55782E+06    -46.4375E+06     9.84372E+06     980.624E+03    -14.9933E-03     29.5810E-03    -14.5877E-03     29.9237E-03    -14.9049E-03     29.3261E-03    -14.4821E-03     29.9304E-03
            1519     7.09665E-03     48.5486E-03     6.41715E+06    -46.1341E+06     10.1794E+06     1.67452E+06    -14.8752E-03     29.4454E-03    -14.5701E-03     25.8345E-03    -14.7927E-03     29.1922E-03    -14.4616E-03     25.8515E-03
            1520     6.20966E-03     48.5266E-03     5.46039E+06    -45.9667E+06     9.66557E+06     1.42400E+06    -14.7456E-03     29.2975E-03    -14.5519E-03     21.9927E-03    -14.6667E-03     29.0468E-03    -14.4449E-03     22.0075E-03
            1521     5.32259E-03     48.5073E-03     5.17883E+06    -45.8109E+06     9.71811E+06     1.22225E+06    -14.6400E-03     29.1822E-03    -14.5422E-03     18.4102E-03    -14.5625E-03     28.9323E-03    -14.4347E-03     18.4232E-03
            1522     4.43553E-03     48.4920E-03     4.75348E+06    -45.3656E+06     8.99823E+06     918.767E+03    -14.5496E-03     29.0867E-03    -14.5371E-03     15.0529E-03    -14.4735E-03     28.8404E-03    -14.4332E-03     15.0626E-03
            1523     3.54837E-03     48.4791E-03     3.85335E+06    -45.9135E+06     7.16209E+06     428.406E+03    -14.5039E-03     29.0420E-03    -14.5381E-03     11.8771E-03    -14.4287E-03     28.7967E-03    -14.4413E-03     11.8810E-03
            1524     2.66124E-03     48.4698E-03     3.13944E+06    -46.8658E+06     5.78615E+06    -157.452E+03    -14.5235E-03     29.0673E-03    -14.5438E-03     8.83018E-03    -14.4484E-03     28.8202E-03    -14.4515E-03     8.82696E-03
            1525     1.77418E-03     48.4625E-03     2.82859E+06    -47.1600E+06     4.29624E+06    -475.608E+03    -14.5431E-03     29.0836E-03    -14.5405E-03     5.89607E-03    -14.4668E-03     28.8375E-03    -14.4548E-03     5.88915E-03
            1526     887.029E-06     48.4588E-03     2.07285E+06    -47.8996E+06     2.54624E+06    -289.087E+03    -14.5335E-03     29.0668E-03    -14.5333E-03     3.14518E-03    -14.4571E-03     28.8208E-03    -14.4541E-03     3.14104E-03
            1527     16.8543E-03     48.2582E-03     11.2490E+06     103.096E+06     9.75824E+06     4.75086E+06    -20.6472E-03     35.1322E-03    -14.4850E-03     174.496E-03    -23.3772E-03     38.2398E-03    -14.6020E-03     176.794E-03
            1528     15.9671E-03     48.0851E-03     11.4239E+06     39.5401E+06    -16.9034E+06    -9.35747E+06    -18.8472E-03     33.2892E-03    -14.4420E-03     148.487E-03    -20.0561E-03     34.7280E-03    -14.6004E-03     148.792E-03
            1529     15.0777E-03     47.9765E-03    -4.91855E+06     11.0508E+06    -12.5719E+06    -21.9427E+06    -16.6721E-03     31.2175E-03    -14.5454E-03     93.0178E-03    -16.9290E-03     31.5326E-03    -14.6171E-03     92.7219E-03
            1530     14.1913E-03     47.9112E-03    -4.67122E+06     4.44827E+06    -4.20178E+06    -8.30564E+06    -16.0781E-03     30.6625E-03    -14.5845E-03     67.4741E-03    -16.1819E-03     30.7778E-03    -14.6051E-03     67.3292E-03
            1531     13.3049E-03     47.8506E-03     5.01318E+06    -9.67271E+06     4.35833E+06     2.71070E+06    -15.8184E-03     30.4315E-03    -14.6130E-03     62.5355E-03    -15.8334E-03     30.4173E-03    -14.5845E-03     62.5369E-03
            1532     12.4177E-03     47.7936E-03     7.61114E+06    -16.8772E+06     9.56567E+06     3.47319E+06    -15.7375E-03     30.3641E-03    -14.6265E-03     56.7871E-03    -15.7163E-03     30.2822E-03    -14.5653E-03     56.8062E-03
            1533     11.5312E-03     47.7442E-03     9.22661E+06    -28.0125E+06     7.46635E+06     3.90027E+06    -15.5849E-03     30.1894E-03    -14.6045E-03     48.8208E-03    -15.5244E-03     30.0406E-03    -14.5400E-03     48.8522E-03
            1534     10.6444E-03     47.7019E-03     9.15806E+06    -40.8707E+06     6.61741E+06     3.79768E+06    -15.4171E-03     30.0084E-03    -14.5913E-03     43.6010E-03    -15.3311E-03     29.7906E-03    -14.5122E-03     43.6360E-03
            1535     9.75768E-03     47.6624E-03     8.69360E+06    -45.8108E+06     8.06741E+06     1.60921E+06    -15.2249E-03     29.8060E-03    -14.5811E-03     38.8470E-03    -15.1326E-03     29.5586E-03    -14.4870E-03     38.8575E-03
            1536     8.87070E-03     47.6289E-03     8.01354E+06    -47.4398E+06     8.39116E+06     358.311E+03    -15.0821E-03     29.6455E-03    -14.5634E-03     34.2288E-03    -14.9891E-03     29.3883E-03    -14.4643E-03     34.2257E-03
            1537     7.98389E-03     47.5984E-03     7.96241E+06    -47.2994E+06     10.0162E+06     1.15586E+06    -14.9586E-03     29.5081E-03    -14.5495E-03     29.8374E-03    -14.8672E-03     29.2480E-03    -14.4424E-03     29.8464E-03
            1538     7.09691E-03     47.5728E-03     8.51467E+06    -45.9794E+06     11.7593E+06     1.48245E+06    -14.8464E-03     29.3809E-03    -14.5345E-03     25.7116E-03    -14.7558E-03     29.1232E-03    -14.4214E-03     25.7262E-03
            1539     6.20990E-03     47.5502E-03     8.57690E+06    -45.5631E+06     12.1801E+06     1.62441E+06    -14.7319E-03     29.2495E-03    -14.5176E-03     21.8680E-03    -14.6417E-03     28.9927E-03    -14.4030E-03     21.8853E-03
            1540     5.32289E-03     47.5317E-03     7.62802E+06    -45.0064E+06     11.3853E+06     1.13586E+06    -14.6021E-03     29.1050E-03    -14.5029E-03     18.2995E-03    -14.5159E-03     28.8531E-03    -14.3918E-03     18.3113E-03
            1541     4.43571E-03     47.5157E-03     6.77890E+06    -44.9524E+06     11.4969E+06     703.794E+03    -14.5034E-03     29.0078E-03    -14.5044E-03     14.9685E-03    -14.4214E-03     28.7569E-03    -14.3915E-03     14.9754E-03
            1542     3.54849E-03     47.5036E-03     6.15092E+06    -45.0531E+06     10.6461E+06     317.042E+03    -14.4878E-03     28.9952E-03    -14.5074E-03     11.8189E-03    -14.4074E-03     28.7458E-03    -14.3977E-03     11.8213E-03
            1543     2.66135E-03     47.4934E-03     5.39526E+06    -46.3766E+06     8.14333E+06    -401.475E+03    -14.5102E-03     29.0101E-03    -14.4999E-03     8.76869E-03    -14.4279E-03     28.7587E-03    -14.3998E-03     8.76231E-03
            1544     1.77426E-03     47.4870E-03     4.42692E+06    -47.6258E+06     5.82690E+06    -575.612E+03    -14.5006E-03     28.9875E-03    -14.4869E-03     5.81424E-03    -14.4179E-03     28.7345E-03    -14.3951E-03     5.80602E-03
            1545     887.164E-06     47.4823E-03     4.02561E+06    -48.5215E+06     4.57277E+06    -237.905E+03    -14.4891E-03     28.9577E-03    -14.4686E-03     3.09357E-03    -14.4050E-03     28.7029E-03    -14.3812E-03     3.09008E-03
            1546     16.8524E-03     47.2798E-03     2.78577E+06     100.406E+06    -3.71848E+06    -4.01122E+06    -20.0019E-03     34.4131E-03    -14.4112E-03     176.613E-03    -22.7492E-03     37.5375E-03    -14.5795E-03     178.834E-03
            1547     15.9655E-03     47.1103E-03     1.78768E+06     55.7627E+06    -25.2769E+06    -3.87293E+06    -19.3851E-03     33.7631E-03    -14.3780E-03     151.479E-03    -20.6629E-03     35.3185E-03    -14.5878E-03     151.861E-03
            1548     15.0785E-03     47.0011E-03     2.85063E+06     16.2711E+06    -13.8842E+06    -10.3918E+06    -16.9453E-03     31.4374E-03    -14.4921E-03     94.8965E-03    -17.1732E-03     31.7734E-03    -14.5893E-03     94.7484E-03
            1549     14.1918E-03     46.9331E-03    -2.26693E+06    -14.1442E+06    -11.0795E+06    -13.2324E+06    -16.0264E-03     30.5702E-03    -14.5438E-03     67.7803E-03    -16.0798E-03     30.5975E-03    -14.5754E-03     67.5729E-03
            1550     13.3049E-03     46.8754E-03    -2.19409E+06    -15.3466E+06    -1.11871E+06    -3.27586E+06    -15.8897E-03     30.4633E-03    -14.5736E-03     63.1058E-03    -15.9244E-03     30.4390E-03    -14.5537E-03     63.0301E-03
            1551     12.4184E-03     46.8160E-03     2.22374E+06    -16.7431E+06     7.18337E+06     680.924E+03    -15.7183E-03     30.3052E-03    -14.5870E-03     57.1776E-03    -15.7205E-03     30.2351E-03    -14.5300E-03     57.1610E-03
            1552     11.5316E-03     46.7685E-03     4.83278E+06    -29.2286E+06     5.17478E+06     1.34576E+06    -15.5494E-03     30.1137E-03    -14.5644E-03     49.0122E-03    -15.5056E-03     29.9683E-03    -14.5031E-03     49.0109E-03
            1553     10.6449E-03     46.7246E-03     8.53417E+06    -40.2765E+06     6.46332E+06     2.34168E+06    -15.4032E-03     29.9552E-03    -14.5520E-03     43.5881E-03    -15.3209E-03     29.7414E-03    -14.4736E-03     43.6044E-03
            1554     9.75800E-03     46.6869E-03     9.91206E+06    -43.6480E+06     9.40240E+06     2.43679E+06    -15.1931E-03     29.7358E-03    -14.5427E-03     38.7280E-03    -15.0997E-03     29.4954E-03    -14.4468E-03     38.7492E-03
            1555     8.87111E-03     46.6520E-03     8.70715E+06    -47.0656E+06     9.86399E+06     1.71796E+06    -15.0525E-03     29.5804E-03    -14.5279E-03     34.1181E-03    -14.9587E-03     29.3219E-03    -14.4230E-03     34.1327E-03
            1556     7.98423E-03     46.6228E-03     7.81351E+06    -46.9343E+06     9.69613E+06     454.068E+03    -14.9346E-03     29.4391E-03    -14.5045E-03     29.7384E-03    -14.8440E-03     29.1814E-03    -14.3993E-03     29.7384E-03
            1557     7.09719E-03     46.5963E-03     8.25691E+06    -46.5062E+06     10.5996E+06     414.447E+03    -14.7999E-03     29.2855E-03    -14.4857E-03     25.6241E-03    -14.7081E-03     29.0273E-03    -14.3772E-03     25.6250E-03
            1558     6.21024E-03     46.5745E-03     8.78525E+06    -45.6319E+06     12.7776E+06     1.12715E+06    -14.6728E-03     29.1502E-03    -14.4774E-03     21.7878E-03    -14.5823E-03     28.8918E-03    -14.3601E-03     21.7988E-03
            1559     5.32307E-03     46.5554E-03     8.87952E+06    -44.0813E+06     12.9756E+06     1.27609E+06    -14.5705E-03     29.0356E-03    -14.4651E-03     18.2470E-03    -14.4817E-03     28.7842E-03    -14.3492E-03     18.2607E-03
            1560     4.43591E-03     46.5403E-03     8.12290E+06    -44.3916E+06     12.2189E+06     665.443E+03    -14.5305E-03     28.9851E-03    -14.4546E-03     14.9313E-03    -14.4437E-03     28.7341E-03    -14.3409E-03     14.9377E-03
            1561     3.54878E-03     46.5273E-03     7.00820E+06    -44.4734E+06     11.1030E+06     160.036E+03    -14.4987E-03     28.9388E-03    -14.4401E-03     11.7438E-03    -14.4155E-03     28.6904E-03    -14.3303E-03     11.7442E-03
            1562     2.66163E-03     46.5179E-03     5.65105E+06    -45.9588E+06     8.28476E+06    -33.8101E+03    -14.4465E-03     28.8666E-03    -14.4201E-03     8.67573E-03    -14.3638E-03     28.6167E-03    -14.3202E-03     8.67409E-03
            1563     1.77442E-03     46.5106E-03     4.54741E+06    -47.9152E+06     5.49862E+06    -319.227E+03    -14.4158E-03     28.8203E-03    -14.4046E-03     5.75878E-03    -14.3315E-03     28.5662E-03    -14.3142E-03     5.75387E-03
            1564     887.218E-06     46.5070E-03     3.79892E+06    -49.2092E+06     4.07280E+06    -383.285E+03    -14.4084E-03     28.7980E-03    -14.3896E-03     3.09034E-03    -14.3237E-03     28.5408E-03    -14.3034E-03     3.08497E-03
            1565     16.8513E-03     46.3056E-03    -2.65502E+06     100.060E+06    -4.26884E+06    -3.92233E+06    -19.4557E-03     33.9115E-03    -14.4558E-03     175.117E-03    -22.1698E-03     36.9837E-03    -14.6184E-03     177.345E-03
            1566     15.9631E-03     46.1321E-03      47.819E+03     56.9379E+06    -33.3275E+06    -5.79010E+06    -19.9399E-03     34.3158E-03    -14.3759E-03     150.928E-03    -21.2073E-03     35.8821E-03    -14.6252E-03     151.272E-03
            1567     15.0788E-03     46.0235E-03     223.592E+03     24.0809E+06    -17.3591E+06    -7.82982E+06    -17.4006E-03     31.8754E-03    -14.4748E-03     94.0787E-03    -17.6497E-03     32.2611E-03    -14.5968E-03     93.9607E-03
            1568     14.1916E-03     45.9580E-03    -1.03558E+06    -19.2387E+06    -16.0618E+06    -8.05550E+06    -16.0874E-03     30.6030E-03    -14.5156E-03     68.0633E-03    -16.1199E-03     30.6101E-03    -14.5665E-03     67.9228E-03
            1569     13.3051E-03     45.8974E-03    -1.46268E+06    -23.3328E+06    -7.75878E+06    -6.94156E+06    -16.0539E-03     30.5895E-03    -14.5356E-03     63.0437E-03    -16.0639E-03     30.5340E-03    -14.5384E-03     62.9204E-03
            1570     12.4185E-03     45.8406E-03     450.483E+03    -18.5139E+06     3.03413E+06    -2.80648E+06    -15.7851E-03     30.3324E-03    -14.5474E-03     57.0892E-03    -15.7875E-03     30.2620E-03    -14.5060E-03     57.0276E-03
            1571     11.5317E-03     45.7912E-03     2.75861E+06    -30.4702E+06     2.93506E+06    -1.09911E+06    -15.5422E-03     30.0717E-03    -14.5295E-03     48.9748E-03    -15.5035E-03     29.9262E-03    -14.4747E-03     48.9421E-03
            1572     10.6452E-03     45.7489E-03     3.07484E+06    -41.5913E+06     2.19836E+06     162.332E+03    -15.4075E-03     29.9160E-03    -14.5086E-03     43.5089E-03    -15.3443E-03     29.7097E-03    -14.4417E-03     43.4972E-03
            1573     9.75842E-03     45.7100E-03     3.91206E+06    -44.0395E+06     4.56001E+06     1.80006E+06    -15.2107E-03     29.7005E-03    -14.4898E-03     38.6250E-03    -15.1397E-03     29.4738E-03    -14.4088E-03     38.6381E-03
            1574     8.87156E-03     45.6765E-03     5.49340E+06    -45.0412E+06     7.26610E+06     1.39986E+06    -15.0235E-03     29.4971E-03    -14.4735E-03     34.0629E-03    -14.9449E-03     29.2570E-03    -14.3799E-03     34.0734E-03
            1575     7.98451E-03     45.6461E-03     6.09467E+06    -46.4167E+06     8.48691E+06     531.939E+03    -14.8836E-03     29.3390E-03    -14.4554E-03     29.6370E-03    -14.8005E-03     29.0881E-03    -14.3545E-03     29.6382E-03
            1576     7.09765E-03     45.6208E-03     5.05349E+06    -46.6132E+06     7.91549E+06     243.862E+03    -14.7294E-03     29.1624E-03    -14.4329E-03     25.5321E-03    -14.6496E-03     28.9121E-03    -14.3331E-03     25.5308E-03
            1577     6.21040E-03     45.5982E-03     4.53150E+06    -45.9017E+06     9.02872E+06         452.906    -14.5968E-03     29.0199E-03    -14.4232E-03     21.7435E-03    -14.5217E-03     28.7718E-03    -14.3181E-03     21.7401E-03
            1578     5.32327E-03     45.5800E-03     4.87654E+06    -44.0084E+06     10.2136E+06     237.619E+03    -14.5658E-03     28.9772E-03    -14.4114E-03     18.1983E-03    -14.4931E-03     28.7360E-03    -14.3036E-03     18.1987E-03
            1579     4.43616E-03     45.5640E-03     5.24442E+06    -43.6698E+06     9.66401E+06     278.953E+03    -14.5508E-03     28.9361E-03    -14.3854E-03     14.8537E-03    -14.4757E-03     28.6966E-03    -14.2813E-03     14.8552E-03
            1580     3.54909E-03     45.5518E-03     4.89473E+06    -44.3743E+06     8.47383E+06     132.640E+03    -14.4655E-03     28.8205E-03    -14.3549E-03     11.6647E-03    -14.3892E-03     28.5795E-03    -14.2553E-03     11.6647E-03
            1581     2.66185E-03     45.5419E-03     4.10858E+06    -45.8709E+06     6.88908E+06     250.961E+03    -14.3710E-03     28.7028E-03    -14.3318E-03     8.63867E-03    -14.2940E-03     28.4576E-03    -14.2368E-03     8.64072E-03
            1582     1.77458E-03     45.5355E-03     2.96789E+06    -47.6821E+06     4.14166E+06     308.326E+03    -14.3174E-03     28.6335E-03    -14.3161E-03     5.73771E-03    -14.2394E-03     28.3848E-03    -14.2306E-03     5.74092E-03
            1583     887.257E-06     45.5309E-03     1.89736E+06    -49.4536E+06     1.96285E+06     88.8196E+03    -14.3206E-03     28.6214E-03    -14.3008E-03     3.07207E-03    -14.2420E-03     28.3688E-03    -14.2220E-03     3.07280E-03
            1584     16.8520E-03     45.3333E-03    -2.60184E+06     104.683E+06    -5.92623E+06    -3.96604E+06    -20.4055E-03     34.8520E-03    -14.4465E-03     175.025E-03    -23.1330E-03     37.9591E-03    -14.6242E-03     177.230E-03
            1585     15.9661E-03     45.1527E-03    -4.07806E+06     58.8549E+06    -36.5641E+06    -6.66403E+06    -19.9090E-03     34.2532E-03    -14.3442E-03     150.986E-03    -21.1973E-03     35.8420E-03    -14.6065E-03     151.311E-03
            1586     15.0780E-03     45.0485E-03    -1.38950E+06     22.1918E+06    -20.4612E+06    -6.47618E+06    -17.1164E-03     31.5694E-03    -14.4531E-03     93.3469E-03    -17.3622E-03     31.9484E-03    -14.5855E-03     93.2484E-03
            1587     14.1918E-03     44.9798E-03    -951.331E+03    -18.5812E+06    -18.2440E+06    -6.25390E+06    -16.3790E-03     30.8683E-03    -14.4893E-03     67.6263E-03    -16.4093E-03     30.8822E-03    -14.5522E-03     67.5079E-03
            1588     13.3055E-03     44.9219E-03    -803.125E+03    -25.7457E+06    -10.0505E+06    -6.59359E+06    -16.0842E-03     30.5848E-03    -14.5006E-03     62.6922E-03    -16.0837E-03     30.5192E-03    -14.5123E-03     62.5735E-03
            1589     12.4189E-03     44.8629E-03    -414.398E+03    -23.0695E+06     -1.6205E+06    -5.24367E+06    -15.7963E-03     30.2989E-03    -14.5026E-03     56.8637E-03    -15.7895E-03     30.2134E-03    -14.4766E-03     56.7708E-03
            1590     11.5324E-03     44.8157E-03    -26.5443E+03    -32.0897E+06    -382.140E+03    -1.83286E+06    -15.5171E-03     30.0050E-03    -14.4879E-03     48.8261E-03    -15.4851E-03     29.8601E-03    -14.4432E-03     48.7841E-03
            1591     10.6454E-03     44.7718E-03     352.805E+03    -43.4253E+06     203.901E+03    -76.2655E+03    -15.3762E-03     29.8488E-03    -14.4726E-03     43.3894E-03    -15.3210E-03     29.6400E-03    -14.4091E-03     43.3747E-03
            1592     9.75876E-03     44.7344E-03     866.069E+03    -44.3008E+06     1.74799E+06     258.972E+03    -15.2223E-03     29.6670E-03    -14.4446E-03     38.4954E-03    -15.1621E-03     29.4474E-03    -14.3729E-03     38.4886E-03
            1593     8.87185E-03     44.6998E-03     1.27014E+06    -44.1629E+06     3.79845E+06     149.811E+03    -15.0151E-03     29.4348E-03    -14.4198E-03     33.9595E-03    -14.9538E-03     29.2103E-03    -14.3386E-03     33.9540E-03
            1594     7.98502E-03     44.6707E-03     1.45504E+06    -46.1658E+06     5.49607E+06     31.3318E+03    -14.8126E-03     29.2158E-03    -14.4033E-03     29.5557E-03    -14.7487E-03     28.9773E-03    -14.3110E-03     29.5505E-03
            1595     7.09775E-03     44.6444E-03     2.13102E+06    -46.4086E+06     6.87379E+06    -19.0502E+03    -14.6788E-03     29.0668E-03    -14.3880E-03     25.4219E-03    -14.6123E-03     28.8232E-03    -14.2895E-03     25.4172E-03
            1596     6.21075E-03     44.6230E-03     1.98435E+06    -45.4557E+06     7.09620E+06    -422.859E+03    -14.6142E-03     28.9810E-03    -14.3668E-03     21.6218E-03    -14.5497E-03     28.7416E-03    -14.2683E-03     21.6129E-03
            1597     5.32357E-03     44.6037E-03     1.44140E+06    -44.3052E+06     7.13502E+06    -1.00047E+06    -14.5634E-03     28.9034E-03    -14.3400E-03     18.0894E-03    -14.5030E-03     28.6701E-03    -14.2421E-03     18.0738E-03
            1598     4.43654E-03     44.5886E-03     1.10413E+06    -43.8942E+06     6.29606E+06    -676.534E+03    -14.4773E-03     28.7834E-03    -14.3061E-03     14.7239E-03    -14.4177E-03     28.5536E-03    -14.2126E-03     14.7130E-03
            1599     3.54928E-03     44.5758E-03     691.968E+03    -44.5216E+06     4.25280E+06    -228.541E+03    -14.3767E-03     28.6474E-03    -14.2708E-03     11.5733E-03    -14.3151E-03     28.4179E-03    -14.1859E-03     11.5688E-03
            1600     2.66205E-03     44.5667E-03     96.9352E+03    -46.1866E+06     2.67372E+06     95.0874E+03    -14.3008E-03     28.5464E-03    -14.2457E-03     8.58561E-03    -14.2373E-03     28.3116E-03    -14.1655E-03     8.58568E-03
            1601     1.77471E-03     44.5596E-03    -335.625E+03    -47.4696E+06     1.17253E+06     444.529E+03    -14.2473E-03     28.4738E-03    -14.2265E-03     5.70489E-03    -14.1818E-03     28.2353E-03    -14.1513E-03     5.70988E-03
            1602     887.380E-06     44.5559E-03    -621.325E+03    -48.8782E+06    -351.993E+03     555.362E+03    -14.2337E-03     28.4332E-03    -14.1995E-03     3.06517E-03    -14.1652E-03     28.1905E-03    -14.1295E-03     3.07195E-03
            1603     16.8512E-03     44.3499E-03    -2.27964E+06     109.341E+06    -2.12726E+06    -2.72291E+06    -20.9278E-03     35.4010E-03    -14.4733E-03     174.994E-03    -23.7006E-03     38.5601E-03    -14.6391E-03     177.217E-03
            1604     15.9655E-03     44.1805E-03     -56.284E+03     59.5111E+06    -35.1802E+06    -4.81644E+06    -20.2923E-03     34.6254E-03    -14.3331E-03     150.913E-03    -21.5683E-03     36.2145E-03    -14.5952E-03     151.256E-03
            1605     15.0785E-03     44.0692E-03    -939.251E+03     21.5329E+06    -20.2903E+06    -5.31642E+06    -17.2594E-03     31.6870E-03    -14.4276E-03     93.7683E-03    -17.5006E-03     32.0602E-03    -14.5589E-03     93.6834E-03
            1606     14.1928E-03     44.0044E-03    -155.460E+03    -18.4764E+06    -17.8724E+06    -5.46141E+06    -16.3834E-03     30.8414E-03    -14.4580E-03     67.1275E-03    -16.4096E-03     30.8532E-03    -14.5203E-03     67.0193E-03
            1607     13.3059E-03     43.9442E-03    -816.467E+03    -26.6630E+06    -9.34948E+06    -5.15494E+06    -16.0535E-03     30.5253E-03    -14.4718E-03     62.5713E-03    -16.0521E-03     30.4535E-03    -14.4787E-03     62.4714E-03
            1608     12.4194E-03     43.8875E-03    -2.66116E+06    -25.1055E+06    -3.31651E+06    -4.43508E+06    -15.7578E-03     30.2241E-03    -14.4662E-03     56.7009E-03    -15.7564E-03     30.1337E-03    -14.4426E-03     56.6187E-03
            1609     11.5324E-03     43.8384E-03    -2.92447E+06    -35.9280E+06    -4.36276E+06    -3.02102E+06    -15.5176E-03     29.9595E-03    -14.4418E-03     48.6993E-03    -15.4886E-03     29.8051E-03    -14.4073E-03     48.6422E-03
            1610     10.6460E-03     43.7963E-03    -1.30482E+06    -43.8403E+06    -715.259E+03    -1.23716E+06    -15.3591E-03     29.7912E-03    -14.4321E-03     43.2187E-03    -15.3101E-03     29.5840E-03    -14.3702E-03     43.1892E-03
            1611     9.75902E-03     43.7575E-03    -91.9335E+03    -44.9750E+06     2.39711E+06    -735.747E+03    -15.1808E-03     29.5904E-03    -14.4096E-03     38.2937E-03    -15.1251E-03     29.3678E-03    -14.3323E-03     38.2742E-03
            1612     8.87234E-03     43.7244E-03     256.674E+03     -43.973E+06     3.83216E+06    -235.865E+03    -14.9855E-03     29.3646E-03    -14.3791E-03     33.7371E-03    -14.9296E-03     29.1424E-03    -14.2965E-03     33.7267E-03
            1613     7.98516E-03     43.6943E-03     340.560E+03    -45.5913E+06     4.81622E+06    -897.108E+03    -14.8137E-03     29.1681E-03    -14.3544E-03     29.3784E-03    -14.7552E-03     28.9349E-03    -14.2647E-03     29.3613E-03
            1614     7.09826E-03     43.6691E-03     359.816E+03    -46.8803E+06     6.22028E+06    -1.15676E+06    -14.7082E-03     29.0410E-03    -14.3328E-03     25.2251E-03    -14.6490E-03     28.7986E-03    -14.2342E-03     25.2057E-03
            1615     6.21107E-03     43.6467E-03     580.568E+03    -44.9625E+06     6.68547E+06    -967.158E+03    -14.6267E-03     28.9252E-03    -14.2985E-03     21.4473E-03    -14.5693E-03     28.6909E-03    -14.2007E-03     21.4314E-03
            1616     5.32414E-03     43.6284E-03    -187.737E+03    -44.4306E+06     6.19588E+06    -1.06670E+06    -14.4987E-03     28.7610E-03    -14.2623E-03     17.9267E-03    -14.4449E-03     28.5308E-03    -14.1666E-03     17.9102E-03
            1617     4.43679E-03     43.6126E-03    -1.69927E+06    -44.5850E+06     3.66205E+06    -975.769E+03    -14.3592E-03     28.5835E-03    -14.2243E-03     14.6040E-03    -14.3087E-03     28.3582E-03    -14.1389E-03     14.5893E-03
            1618     3.54956E-03     43.6007E-03    -2.74448E+06    -45.0830E+06     646.961E+03    -534.921E+03    -14.2787E-03     28.4693E-03    -14.1906E-03     11.4752E-03    -14.2282E-03     28.2471E-03    -14.1180E-03     11.4667E-03
            1619     2.66217E-03     43.5909E-03    -3.34215E+06    -46.4465E+06    -1.17072E+06    -206.878E+03    -14.2219E-03     28.3884E-03    -14.1665E-03     8.51883E-03    -14.1697E-03     28.1628E-03    -14.1001E-03     8.51502E-03
            1620     1.77486E-03     43.5846E-03    -3.84042E+06    -47.7174E+06    -2.10072E+06    -13.5425E+03    -14.1805E-03     28.3275E-03    -14.1470E-03     5.68524E-03    -14.1274E-03     28.0975E-03    -14.0827E-03     5.68433E-03
            1621     887.428E-06     43.5801E-03    -4.27495E+06    -48.2199E+06    -3.27305E+06     207.276E+03    -14.1413E-03     28.2636E-03    -14.1223E-03     3.04725E-03    -14.0878E-03     28.0337E-03    -14.0625E-03     3.04953E-03
            1622     16.8510E-03     43.3741E-03    -1.08676E+06     110.185E+06    -2.37519E+06    -2.14791E+06    -20.5204E-03     34.9767E-03    -14.4563E-03     174.352E-03    -23.2755E-03     38.1260E-03    -14.6264E-03     176.579E-03
            1623     15.9649E-03     43.2010E-03    -2.11455E+06     60.5169E+06    -32.8746E+06    -4.29821E+06    -20.5115E-03     34.8437E-03    -14.3322E-03     149.431E-03    -21.7911E-03     36.4259E-03    -14.5812E-03     149.773E-03
            1624     15.0799E-03     43.0938E-03    -126.566E+03     22.6535E+06    -19.5064E+06    -4.63000E+06    -17.5559E-03     31.9502E-03    -14.3943E-03     93.3097E-03    -17.7944E-03     32.3252E-03    -14.5245E-03     93.2310E-03
            1625     14.1925E-03     43.0267E-03     -679.29E+03    -19.9087E+06    -17.8263E+06    -4.17854E+06    -16.2524E-03     30.6710E-03    -14.4186E-03     66.7672E-03    -16.2775E-03     30.6747E-03    -14.4779E-03     66.6762E-03
            1626     13.3065E-03     42.9685E-03    -1.48144E+06    -27.3212E+06    -8.27057E+06    -3.11890E+06    -16.0228E-03     30.4611E-03    -14.4382E-03     62.1409E-03    -16.0247E-03     30.3846E-03    -14.4378E-03     62.0675E-03
            1627     12.4197E-03     42.9103E-03    -1.99772E+06    -25.1746E+06    -1.24883E+06    -3.49987E+06    -15.7455E-03     30.1781E-03    -14.4326E-03     56.3490E-03    -15.7434E-03     30.0831E-03    -14.3994E-03     56.2790E-03
            1628     11.5333E-03     42.8627E-03    -1.50110E+06    -37.5848E+06    -3.78251E+06    -3.94633E+06    -15.5167E-03     29.9154E-03    -14.3988E-03     48.3958E-03    -15.4788E-03     29.7498E-03    -14.3610E-03     48.3268E-03
            1629     10.6463E-03     42.8195E-03    -414.754E+03    -45.6472E+06      -86.89E+03    -3.08641E+06    -15.3387E-03     29.7261E-03    -14.3874E-03     43.0077E-03    -15.2835E-03     29.5076E-03    -14.3210E-03     42.9544E-03
            1630     9.75972E-03     42.7819E-03     593.091E+03    -45.7508E+06     4.31191E+06    -1.64696E+06    -15.1408E-03     29.5092E-03    -14.3683E-03     38.0510E-03    -15.0834E-03     29.2789E-03    -14.2813E-03     38.0198E-03
            1631     8.87256E-03     42.7479E-03     1.31972E+06    -44.4728E+06     5.12703E+06    -1.16978E+06    -14.9672E-03     29.2984E-03    -14.3313E-03     33.4493E-03    -14.9071E-03     29.0703E-03    -14.2431E-03     33.4268E-03
            1632     7.98579E-03     42.7188E-03     1.28350E+06    -44.9467E+06     6.17062E+06    -844.270E+03    -14.8472E-03     29.1454E-03    -14.2983E-03     29.1032E-03    -14.7868E-03     28.9122E-03    -14.2041E-03     29.0866E-03
            1633     7.09870E-03     42.6929E-03     136.705E+03    -47.0831E+06     5.62969E+06    -1.29497E+06    -14.7331E-03     28.9913E-03    -14.2582E-03     25.0364E-03    -14.6738E-03     28.7491E-03    -14.1620E-03     25.0153E-03
            1634     6.21178E-03     42.6713E-03    -1.15426E+06    -45.2199E+06     4.66815E+06    -1.43276E+06    -14.5600E-03     28.7715E-03    -14.2114E-03     21.2808E-03    -14.5080E-03     28.5413E-03    -14.1208E-03     21.2589E-03
            1635     5.32440E-03     42.6525E-03    -1.96310E+06    -44.8352E+06     4.15080E+06    -1.02273E+06    -14.3864E-03     28.5625E-03    -14.1761E-03     17.7671E-03    -14.3378E-03     28.3358E-03    -14.0875E-03     17.7513E-03
            1636     4.43722E-03     42.6376E-03    -2.94905E+06    -45.0388E+06     2.70686E+06    -690.641E+03    -14.2677E-03     28.4139E-03    -14.1462E-03     14.4832E-03    -14.2215E-03     28.1895E-03    -14.0630E-03     14.4722E-03
            1637     3.54975E-03     42.6250E-03    -4.16575E+06    -45.5554E+06    -294.057E+03    -594.369E+03    -14.1876E-03     28.3029E-03    -14.1153E-03     11.3782E-03    -14.1422E-03     28.0818E-03    -14.0447E-03     11.3690E-03
            1638     2.66241E-03     42.6160E-03    -4.88593E+06    -46.7321E+06    -2.93537E+06    -477.598E+03    -14.1363E-03     28.2265E-03    -14.0902E-03     8.42894E-03    -14.0888E-03     28.0043E-03    -14.0300E-03     8.42165E-03
            1639     1.77489E-03     42.6090E-03    -5.19252E+06    -47.9663E+06    -4.30515E+06    -409.178E+03    -14.0972E-03     28.1710E-03    -14.0738E-03     5.62868E-03    -14.0474E-03     27.9450E-03    -14.0183E-03     5.62266E-03
            1640     887.514E-06     42.6054E-03    -5.05013E+06    -48.4397E+06    -4.85513E+06    -472.737E+03    -14.0822E-03     28.1345E-03    -14.0523E-03     2.98024E-03    -14.0299E-03     27.9069E-03    -13.9990E-03     2.97375E-03
            1641     16.8529E-03     42.3973E-03    -357.986E+03     113.181E+06    -727.813E+03    -581.163E+03    -20.7158E-03     35.1295E-03    -14.4137E-03     174.291E-03    -23.4464E-03     38.2628E-03    -14.5809E-03     176.501E-03
            1642     15.9667E-03     42.2238E-03    -941.769E+03     62.6086E+06    -32.2145E+06    -2.88320E+06    -20.5060E-03     34.7856E-03    -14.2796E-03     149.493E-03    -21.7817E-03     36.3737E-03    -14.5301E-03     149.847E-03
            1643     15.0796E-03     42.1163E-03    -1.59704E+06     21.8889E+06    -19.2018E+06    -4.42010E+06    -17.6507E-03     31.9919E-03    -14.3412E-03     91.8605E-03    -17.8908E-03     32.3597E-03    -14.4666E-03     91.7816E-03
            1644     14.1943E-03     42.0506E-03    -304.150E+03    -21.4802E+06    -15.0037E+06    -2.96741E+06    -16.1205E-03     30.4919E-03    -14.3713E-03     66.0499E-03    -16.1439E-03     30.4814E-03    -14.4147E-03     65.9751E-03
            1645     13.3071E-03     41.9917E-03     250.317E+03    -27.4859E+06    -6.05208E+06    -2.44632E+06    -15.8867E-03     30.2744E-03    -14.3877E-03     61.8111E-03    -15.8826E-03     30.1912E-03    -14.3785E-03     61.7468E-03
            1646     12.4207E-03     41.9343E-03     554.924E+03    -24.2706E+06     1.22879E+06    -3.22917E+06    -15.7036E-03     30.0861E-03    -14.3824E-03     56.0800E-03    -15.6934E-03     29.9881E-03    -14.3419E-03     56.0137E-03
            1647     11.5337E-03     41.8862E-03     474.059E+03    -37.3898E+06    -2.54317E+06    -4.30419E+06    -15.4725E-03     29.8159E-03    -14.3433E-03     48.1934E-03    -15.4267E-03     29.6464E-03    -14.3025E-03     48.1199E-03
            1648     10.6472E-03     41.8436E-03     986.106E+03    -47.9251E+06    -1.67324E+06    -4.01887E+06    -15.3124E-03     29.6331E-03    -14.3207E-03     42.7984E-03    -15.2444E-03     29.4033E-03    -14.2610E-03     42.7332E-03
            1649     9.76009E-03     41.8056E-03     1.45815E+06    -47.3287E+06     3.56873E+06    -2.41113E+06    -15.1353E-03     29.4373E-03    -14.3020E-03     37.8029E-03    -15.0701E-03     29.1989E-03    -14.2177E-03     37.7619E-03
            1650     8.87345E-03     41.7723E-03     967.435E+03    -44.9818E+06     5.66248E+06    -1.38034E+06    -14.9702E-03     29.2353E-03    -14.2651E-03     33.1865E-03    -14.9119E-03     29.0043E-03    -14.1729E-03     33.1613E-03
            1651     7.98629E-03     41.7427E-03     288.962E+03    -45.4877E+06     5.77251E+06    -962.289E+03    -14.8043E-03     29.0264E-03    -14.2221E-03     28.8970E-03    -14.7475E-03     28.7925E-03    -14.1277E-03     28.8790E-03
            1652     7.09938E-03     41.7175E-03    -79.8129E+03    -46.3573E+06     4.88771E+06    -881.175E+03    -14.6571E-03     28.8320E-03    -14.1748E-03     24.8838E-03    -14.5989E-03     28.5947E-03    -14.0830E-03     24.8682E-03
            1653     6.21214E-03     41.6955E-03    -796.599E+03    -45.8005E+06     3.60120E+06    -1.21857E+06    -14.4832E-03     28.6103E-03    -14.1271E-03     21.1150E-03    -14.4270E-03     28.3782E-03    -14.0415E-03     21.0959E-03
            1654     5.32496E-03     41.6775E-03    -1.89474E+06    -45.3944E+06     2.98990E+06    -957.159E+03    -14.3124E-03     28.4037E-03    -14.0913E-03     17.6238E-03    -14.2610E-03     28.1758E-03    -14.0078E-03     17.6088E-03
            1655     4.43746E-03     41.6620E-03    -2.88443E+06    -45.3830E+06     2.12982E+06    -749.473E+03    -14.1949E-03     28.2578E-03    -14.0629E-03     14.3536E-03    -14.1470E-03     28.0324E-03    -13.9823E-03     14.3419E-03
            1656     3.55013E-03     41.6502E-03    -3.63508E+06    -45.7408E+06     789.183E+03    -674.385E+03    -14.1131E-03     28.1509E-03    -14.0378E-03     11.2640E-03    -14.0663E-03     27.9266E-03    -13.9623E-03     11.2538E-03
            1657     2.66255E-03     41.6406E-03    -4.41314E+06    -47.1279E+06    -2.24039E+06    -619.379E+03    -14.0558E-03     28.0658E-03    -14.0100E-03     8.32836E-03    -14.0063E-03     27.8399E-03    -13.9465E-03     8.31924E-03
            1658     1.77515E-03     41.6343E-03    -4.73382E+06    -48.0953E+06    -4.48199E+06    -620.985E+03    -14.0131E-03     28.0026E-03    -13.9896E-03     5.53615E-03    -13.9605E-03     27.7756E-03    -13.9354E-03     5.52740E-03
            1659     887.470E-06     41.6299E-03    -5.02330E+06    -49.3826E+06    -4.95590E+06    -599.906E+03    -13.9966E-03     27.9730E-03    -13.9764E-03     2.94271E-03    -13.9427E-03     27.7408E-03    -13.9222E-03     2.93458E-03
            1660     16.8534E-03     41.4225E-03    -2.14839E+06     113.210E+06    -764.764E+03    -836.306E+03    -21.7525E-03     36.1366E-03    -14.3840E-03     174.570E-03    -24.4835E-03     39.2641E-03    -14.5489E-03     176.715E-03
            1661     15.9663E-03     41.2452E-03    -872.901E+03     65.5548E+06    -31.6699E+06    -1.37889E+06    -21.1086E-03     35.3079E-03    -14.1992E-03     148.463E-03    -22.3776E-03     36.8984E-03    -14.4514E-03     148.794E-03
            1662     15.0825E-03     41.1393E-03     281.219E+03     22.4137E+06    -17.5195E+06    -3.04876E+06    -16.9864E-03     31.2492E-03    -14.2628E-03     90.4530E-03    -17.2101E-03     31.6043E-03    -14.3833E-03     90.3949E-03
            1663     14.1948E-03     41.0747E-03     153.303E+03    -23.2522E+06    -15.6155E+06    -3.79636E+06    -15.8000E-03     30.1110E-03    -14.3110E-03     66.7828E-03    -15.8179E-03     30.0921E-03    -14.3556E-03     66.6987E-03
            1664     13.3083E-03     41.0153E-03     2.95037E+06    -27.4019E+06    -5.84994E+06    -3.55598E+06    -15.9308E-03     30.2632E-03    -14.3324E-03     62.3476E-03    -15.9140E-03     30.1765E-03    -14.3262E-03     62.2689E-03
            1665     12.4212E-03     40.9580E-03     4.51708E+06    -24.5176E+06     3.27928E+06    -3.02099E+06    -15.7148E-03     30.0459E-03    -14.3311E-03     56.1575E-03    -15.6872E-03     29.9378E-03    -14.2857E-03     56.0940E-03
            1666     11.5347E-03     40.9101E-03     3.59599E+06    -36.8235E+06     1.12439E+06    -2.67993E+06    -15.4914E-03     29.7870E-03    -14.2956E-03     48.0973E-03    -15.4361E-03     29.6105E-03    -14.2418E-03     48.0448E-03
            1667     10.6477E-03     40.8675E-03     1.18132E+06    -49.1478E+06    -2.24789E+06    -2.83206E+06    -15.3149E-03     29.5678E-03    -14.2530E-03     42.6030E-03    -15.2432E-03     29.3324E-03    -14.1947E-03     42.5532E-03
            1668     9.76106E-03     40.8298E-03    -212.208E+03    -48.7158E+06     579.761E+03    -2.52561E+06    -15.1159E-03     29.3357E-03    -14.2197E-03     37.6988E-03    -15.0526E-03     29.0970E-03    -14.1459E-03     37.6565E-03
            1669     8.87396E-03     40.7962E-03     91.3951E+03    -45.9122E+06     4.67453E+06    -1.81872E+06    -14.9445E-03     29.1301E-03    -14.1857E-03     33.0589E-03    -14.8877E-03     28.8971E-03    -14.0959E-03     33.0282E-03
            1670     7.98714E-03     40.7673E-03     373.910E+03    -45.9920E+06     5.15843E+06    -1.27610E+06    -14.7473E-03     28.8857E-03    -14.1385E-03     28.7356E-03    -14.6884E-03     28.6500E-03    -14.0465E-03     28.7137E-03
            1671     7.09984E-03     40.7417E-03     126.478E+03    -46.3356E+06     4.31180E+06    -1.12779E+06    -14.5427E-03     28.6338E-03    -14.0911E-03     24.7116E-03    -14.4826E-03     28.3972E-03    -14.0026E-03     24.6929E-03
            1672     6.21267E-03     40.7204E-03    -381.166E+03    -46.0127E+06     3.89181E+06    -883.784E+03    -14.4009E-03     28.4511E-03    -14.0502E-03     20.9418E-03    -14.3427E-03     28.2169E-03    -13.9634E-03     20.9271E-03
            1673     5.32529E-03     40.7020E-03    -1.10687E+06    -45.8871E+06     3.43394E+06    -835.827E+03    -14.2766E-03     28.2883E-03    -14.0118E-03     17.4588E-03    -14.2212E-03     28.0562E-03    -13.9265E-03     17.4454E-03
            1674     4.43796E-03     40.6873E-03    -1.82460E+06    -45.4660E+06     2.08675E+06    -828.463E+03    -14.1424E-03     28.1157E-03    -13.9733E-03     14.2111E-03    -14.0890E-03     27.8883E-03    -13.8943E-03     14.1984E-03
            1675     3.55037E-03     40.6749E-03    -2.65792E+06    -46.0678E+06     798.518E+03    -874.213E+03    -14.0432E-03     27.9866E-03    -13.9434E-03     11.1369E-03    -13.9911E-03     27.7592E-03    -13.8688E-03     11.1241E-03
            1676     2.66292E-03     40.6660E-03    -3.37847E+06    -47.5394E+06    -825.348E+03    -683.872E+03    -13.9725E-03     27.8909E-03    -13.9184E-03     8.21981E-03    -13.9193E-03     27.6594E-03    -13.8487E-03     8.20988E-03
            1677     1.77521E-03     40.6591E-03    -4.31786E+06    -48.5598E+06    -3.36995E+06    -300.306E+03    -13.9165E-03     27.8114E-03    -13.8948E-03     5.46310E-03    -13.8628E-03     27.5798E-03    -13.8350E-03     5.45849E-03
            1678     887.743E-06     40.6555E-03    -4.97609E+06    -49.9241E+06    -5.15199E+06    -71.0764E+03    -13.8838E-03     27.7718E-03    -13.8880E-03     2.91940E-03    -13.8286E-03     27.5371E-03    -13.8342E-03     2.91809E-03
            1679     16.8513E-03     40.4410E-03    -1.20436E+06     115.530E+06     1.39022E+06    -739.242E+03    -22.5872E-03     36.9135E-03    -14.3263E-03     172.882E-03    -25.2961E-03     40.0243E-03    -14.4851E-03     174.966E-03
            1680     15.9721E-03     40.2665E-03     410.984E+03     65.8222E+06    -31.2244E+06    -1.36713E+06    -20.0960E-03     34.2259E-03    -14.1300E-03     146.670E-03    -21.3101E-03     35.7658E-03    -14.3821E-03     146.997E-03
            1681     15.0824E-03     40.1658E-03     1.00233E+06     22.4099E+06    -18.3890E+06    -1.92640E+06    -16.1337E-03     30.3716E-03    -14.2379E-03     92.9865E-03    -16.3543E-03     30.7286E-03    -14.3638E-03     92.9514E-03
            1682     14.1946E-03     40.0978E-03     1.69585E+06    -22.2587E+06    -17.5446E+06    -3.79018E+06    -16.2389E-03     30.5331E-03    -14.2942E-03     68.3575E-03    -16.2506E-03     30.5227E-03    -14.3521E-03     68.2717E-03
            1683     13.3082E-03     40.0390E-03     2.00819E+06    -28.5564E+06    -8.12214E+06    -4.47288E+06    -16.1995E-03     30.4986E-03    -14.2991E-03     62.4501E-03    -16.1824E-03     30.4108E-03    -14.3012E-03     62.3591E-03
            1684     12.4219E-03     39.9817E-03     1.66785E+06    -26.1160E+06     37.0487E+03    -2.88041E+06    -15.8328E-03     30.1137E-03    -14.2810E-03     56.2645E-03    -15.8124E-03     30.0065E-03    -14.2453E-03     56.2028E-03
            1685     11.5351E-03     39.9339E-03     1.11487E+06    -37.7519E+06    -697.803E+03    -1.13620E+06    -15.5725E-03     29.8125E-03    -14.2400E-03     48.1185E-03    -15.5255E-03     29.6374E-03    -14.1903E-03     48.0860E-03
            1686     10.6486E-03     39.8916E-03     479.998E+03    -48.5998E+06    -1.38382E+06    -760.090E+03    -15.3607E-03     29.5566E-03    -14.1959E-03     42.5109E-03    -15.2945E-03     29.3236E-03    -14.1330E-03     42.4879E-03
            1687     9.76157E-03     39.8539E-03    -75.4420E+03    -48.2238E+06    -944.279E+03    -2.28759E+06    -15.1206E-03     29.2621E-03    -14.1415E-03     37.6299E-03    -15.0551E-03     29.0278E-03    -14.0762E-03     37.5908E-03
            1688     8.87476E-03     39.8207E-03    -56.3425E+03    -47.1481E+06     2.78710E+06    -2.82711E+06    -14.9119E-03     29.0150E-03    -14.1031E-03     32.9530E-03    -14.8512E-03     28.7787E-03    -14.0208E-03     32.9094E-03
            1689     7.98762E-03     39.7915E-03     230.802E+03    -46.9091E+06     4.54220E+06    -1.84707E+06    -14.7040E-03     28.7618E-03    -14.0577E-03     28.5401E-03    -14.6436E-03     28.5225E-03    -13.9673E-03     28.5109E-03
            1690     7.10055E-03     39.7667E-03    -193.090E+03    -46.9058E+06     3.91045E+06    -971.589E+03    -14.4909E-03     28.4978E-03    -14.0070E-03     24.4987E-03    -14.4309E-03     28.2593E-03    -13.9191E-03     24.4820E-03
            1691     6.21312E-03     39.7450E-03    -909.255E+03    -45.9938E+06     3.32685E+06    -933.427E+03    -14.3205E-03     28.2823E-03    -13.9618E-03     20.7410E-03    -14.2641E-03     28.0497E-03    -13.8772E-03     20.7257E-03
            1692     5.32580E-03     39.7271E-03    -1.14519E+06    -45.9615E+06     3.54723E+06    -1.24100E+06    -14.2063E-03     28.1301E-03    -13.9238E-03     17.2592E-03    -14.1511E-03     27.8974E-03    -13.8378E-03     17.2407E-03
            1693     4.43831E-03     39.7120E-03    -1.46258E+06    -46.0940E+06     2.86464E+06    -1.01779E+06    -14.0867E-03     27.9700E-03    -13.8833E-03     14.0376E-03    -14.0317E-03     27.7378E-03    -13.8000E-03     14.0225E-03
            1694     3.55084E-03     39.7003E-03    -2.29089E+06    -46.2463E+06     482.527E+03    -595.357E+03    -13.9597E-03     27.8014E-03    -13.8417E-03     11.0192E-03    -13.9050E-03     27.5730E-03    -13.7689E-03     11.0100E-03
            1695     2.66311E-03     39.6909E-03    -3.55724E+06    -48.1162E+06    -1.65111E+06    -470.406E+03    -13.8738E-03     27.6871E-03    -13.8133E-03     8.14254E-03    -13.8195E-03     27.4541E-03    -13.7466E-03     8.13539E-03
            1696     1.77554E-03     39.6848E-03    -4.24020E+06    -49.0916E+06    -3.06135E+06    -126.582E+03    -13.8159E-03     27.6099E-03    -13.7941E-03     5.40938E-03    -13.7614E-03     27.3751E-03    -13.7320E-03     5.40705E-03
            1697     887.611E-06     39.6805E-03    -4.71008E+06    -49.8828E+06    -4.15655E+06     274.324E+03    -13.7973E-03     27.5693E-03    -13.7720E-03     2.88721E-03    -13.7422E-03     27.3330E-03    -13.7136E-03     2.89036E-03
            1698     16.8598E-03     39.4562E-03    -213.876E+03     115.752E+06     3.80256E+06    -1.41541E+06    -21.5129E-03     35.8298E-03    -14.3169E-03     174.387E-03    -24.2550E-03     38.9711E-03    -14.4655E-03     176.527E-03
            1699     15.9679E-03     39.2968E-03     1.28718E+06     63.9438E+06    -31.0346E+06    -388.980E+03    -18.9145E-03     33.0911E-03    -14.1767E-03     147.442E-03    -20.1013E-03     34.5995E-03    -14.4264E-03     147.833E-03
            1700     15.0786E-03     39.1877E-03     1.56956E+06     24.7896E+06    -17.2283E+06    -1.00192E+06    -17.0712E-03     31.3660E-03    -14.2948E-03     94.6343E-03    -17.3035E-03     31.7419E-03    -14.4192E-03     94.6061E-03
            1701     14.1946E-03     39.1210E-03     1.28831E+06    -20.2579E+06    -17.8548E+06    -3.11940E+06    -16.9064E-03     31.2076E-03    -14.3011E-03     67.5422E-03    -16.9230E-03     31.2085E-03    -14.3629E-03     67.4626E-03
            1702     13.3087E-03     39.0622E-03     423.621E+03    -29.9183E+06    -9.17154E+06    -2.94792E+06    -16.3658E-03     30.6465E-03    -14.2807E-03     61.9671E-03    -16.3527E-03     30.5553E-03    -14.2838E-03     61.8955E-03
            1703     12.4221E-03     39.0055E-03    -587.139E+03    -27.5311E+06    -1.68744E+06    -2.35973E+06    -15.9687E-03     30.2158E-03    -14.2471E-03     56.1096E-03    -15.9549E-03     30.1071E-03    -14.2148E-03     56.0545E-03
            1704     11.5356E-03     38.9576E-03    -345.507E+03    -39.7517E+06    -3.12817E+06    -1.26434E+06    -15.6941E-03     29.8836E-03    -14.1894E-03     47.9465E-03    -15.6479E-03     29.7040E-03    -14.1469E-03     47.9123E-03
            1705     10.6490E-03     38.9156E-03     529.098E+03    -47.7832E+06    -593.302E+03    -611.730E+03    -15.4442E-03     29.5867E-03    -14.1425E-03     42.2608E-03    -15.3800E-03     29.3565E-03    -14.0770E-03     42.2398E-03
            1706     9.76234E-03     38.8781E-03     795.221E+03    -46.3009E+06    -554.755E+03    -1.82063E+06    -15.1582E-03     29.2306E-03    -14.0723E-03     37.3831E-03    -15.0916E-03     29.0040E-03    -14.0091E-03     37.3501E-03
            1707     8.87535E-03     38.8449E-03     345.067E+03    -47.8717E+06     881.621E+03    -2.86690E+06    -14.8966E-03     28.9158E-03    -14.0192E-03     32.7447E-03    -14.8301E-03     28.6780E-03    -13.9459E-03     32.7007E-03
            1708     7.98832E-03     38.8163E-03    -266.329E+03    -48.5992E+06     3.56170E+06    -2.16239E+06    -14.6847E-03     28.6594E-03    -13.9747E-03     28.2903E-03    -14.6229E-03     28.4138E-03    -13.8861E-03     28.2571E-03
            1709     7.10107E-03     38.7912E-03    -452.549E+03    -47.7507E+06     4.22308E+06    -1.08538E+06    -14.4822E-03     28.4022E-03    -13.9200E-03     24.2063E-03    -14.4228E-03     28.1594E-03    -13.8290E-03     24.1882E-03
            1710     6.21386E-03     38.7701E-03    -800.734E+03    -45.6417E+06     3.35442E+06    -921.791E+03    -14.2670E-03     28.1293E-03    -13.8623E-03     20.4886E-03    -14.2106E-03     27.8983E-03    -13.7782E-03     20.4735E-03
            1711     5.32630E-03     38.7520E-03    -1.71872E+06    -45.7843E+06     2.40379E+06    -1.44138E+06    -14.0922E-03     27.9091E-03    -13.8170E-03     17.0533E-03    -14.0385E-03     27.6798E-03    -13.7361E-03     17.0322E-03
            1712     4.43880E-03     38.7374E-03    -2.58774E+06    -47.2124E+06     1.88056E+06    -1.31216E+06    -13.9698E-03     27.7518E-03    -13.7820E-03     13.8690E-03    -13.9174E-03     27.5172E-03    -13.7004E-03     13.8501E-03
            1713     3.55111E-03     38.7255E-03    -3.32408E+06    -46.9353E+06     277.613E+03    -431.265E+03    -13.8625E-03     27.6066E-03    -13.7441E-03     10.8971E-03    -13.8116E-03     27.3765E-03    -13.6698E-03     10.8900E-03
            1714     2.66344E-03     38.7166E-03    -4.01651E+06    -48.1371E+06    -2.04126E+06    -94.8696E+03    -13.7788E-03     27.4896E-03    -13.7108E-03     8.05255E-03    -13.7262E-03     27.2578E-03    -13.6453E-03     8.05027E-03
            1715     1.77556E-03     38.7100E-03    -4.88215E+06    -49.5664E+06    -3.61855E+06    -219.369E+03    -13.7212E-03     27.4081E-03    -13.6869E-03     5.32992E-03    -13.6685E-03     27.1726E-03    -13.6260E-03     5.32640E-03
            1716     887.959E-06     38.7064E-03    -5.31374E+06    -49.7886E+06    -4.69761E+06    -25.6392E+03    -13.6756E-03     27.3462E-03    -13.6705E-03     2.88827E-03    -13.6230E-03     27.1120E-03    -13.6141E-03     2.88757E-03
            1717     16.8494E-03     38.4821E-03    -1.89608E+06     113.043E+06     4.07207E+06    -1.21493E+06    -19.7076E-03     34.0989E-03    -14.3913E-03     172.513E-03    -22.4021E-03     37.1763E-03    -14.5322E-03     174.689E-03
            1718     15.9647E-03     38.3187E-03    -4.14808E+06     63.8595E+06    -29.5131E+06    -804.185E+03    -19.9995E-03     34.2728E-03    -14.2733E-03     146.194E-03    -21.2248E-03     35.7956E-03    -14.5075E-03     146.578E-03
            1719     15.0823E-03     38.2105E-03    -2.04896E+06     29.2395E+06    -16.7150E+06    -1.47297E+06    -18.2857E-03     32.5937E-03    -14.3079E-03     93.3014E-03    -18.5467E-03     32.9997E-03    -14.4310E-03     93.2586E-03
            1720     14.1950E-03     38.1433E-03     248.572E+03    -20.5965E+06    -18.1411E+06    -1.93853E+06    -16.7641E-03     31.0423E-03    -14.2783E-03     66.6786E-03    -16.7822E-03     31.0408E-03    -14.3395E-03     66.6153E-03
            1721     13.3088E-03     38.0859E-03     217.424E+03    -30.5502E+06    -8.87392E+06    -1.45799E+06    -16.4609E-03     30.7191E-03    -14.2582E-03     61.5338E-03    -16.4481E-03     30.6243E-03    -14.2586E-03     61.4812E-03
            1722     12.4225E-03     38.0287E-03    -38.6544E+03    -27.6990E+06    -757.207E+03    -1.71177E+06    -16.1454E-03     30.3589E-03    -14.2135E-03     55.6303E-03    -16.1300E-03     30.2472E-03    -14.1771E-03     55.5833E-03
            1723     11.5362E-03     37.9814E-03     375.033E+03    -40.5950E+06    -3.92993E+06    -2.16740E+06    -15.7912E-03     29.9251E-03    -14.1339E-03     47.4881E-03    -15.7388E-03     29.7413E-03    -14.0952E-03     47.4422E-03
            1724     10.6497E-03     37.9394E-03     2.01338E+06    -48.2217E+06    -445.241E+03    -1.94366E+06    -15.5107E-03     29.5894E-03    -14.0787E-03     41.8759E-03    -15.4386E-03     29.3545E-03    -14.0139E-03     41.8377E-03
            1725     9.76298E-03     37.9023E-03     2.74828E+06    -45.7015E+06     2.04715E+06    -1.14278E+06    -15.1894E-03     29.1977E-03    -14.0082E-03     36.9384E-03    -15.1176E-03     28.9674E-03    -13.9357E-03     36.9141E-03
            1726     8.87606E-03     37.8695E-03     1.34694E+06    -47.4004E+06     1.88603E+06    -1.34033E+06    -14.8943E-03     28.8340E-03    -13.9397E-03     32.3684E-03    -14.8248E-03     28.5955E-03    -13.8635E-03     32.3442E-03
            1727     7.98900E-03     37.8408E-03    -47.2257E+03    -49.6161E+06     3.46990E+06    -1.96027E+06    -14.6715E-03     28.5559E-03    -13.8844E-03     27.9856E-03    -14.6069E-03     28.3050E-03    -13.7950E-03     27.9550E-03
            1728     7.10188E-03     37.8162E-03    -697.013E+03    -48.8419E+06     4.50561E+06    -1.52347E+06    -14.4492E-03     28.2726E-03    -13.8234E-03     23.8943E-03    -14.3898E-03     28.0243E-03    -13.7291E-03     23.8706E-03
            1729     6.21445E-03     37.7951E-03    -1.17718E+06    -45.6382E+06     3.97123E+06    -971.493E+03    -14.1922E-03     27.9511E-03    -13.7589E-03     20.2129E-03    -14.1386E-03     27.7197E-03    -13.6711E-03     20.1972E-03
            1730     5.32699E-03     37.7775E-03    -1.98044E+06    -45.5701E+06     1.83552E+06    -974.526E+03    -13.9768E-03     27.6816E-03    -13.7048E-03     16.8610E-03    -13.9239E-03     27.4545E-03    -13.6266E-03     16.8460E-03
            1731     4.43921E-03     37.7627E-03    -3.28694E+06    -47.9833E+06     371.893E+03    -1.04456E+06    -13.8404E-03     27.5099E-03    -13.6696E-03     13.7094E-03    -13.7881E-03     27.2746E-03    -13.5934E-03     13.6940E-03
            1732     3.55149E-03     37.7512E-03    -4.23396E+06    -47.7767E+06    -218.276E+03    -838.372E+03    -13.7516E-03     27.3912E-03    -13.6396E-03     10.7458E-03    -13.7034E-03     27.1590E-03    -13.5653E-03     10.7335E-03
            1733     2.66368E-03     37.7421E-03    -4.70807E+06    -48.4550E+06    -1.70897E+06    -349.402E+03    -13.6814E-03     27.2889E-03    -13.6075E-03     7.93666E-03    -13.6323E-03     27.0560E-03    -13.5390E-03     7.93112E-03
            1734     1.77592E-03     37.7360E-03    -5.26150E+06    -49.5463E+06    -3.68651E+06    -94.8023E+03    -13.6145E-03     27.1917E-03    -13.5773E-03     5.24797E-03    -13.5636E-03     26.9570E-03    -13.5162E-03     5.24608E-03
            1735     887.822E-06     37.7319E-03    -6.14865E+06    -50.0879E+06    -5.42961E+06    -290.532E+03    -13.5751E-03     27.1193E-03    -13.5441E-03     2.81142E-03    -13.5251E-03     26.8859E-03    -13.4898E-03     2.80732E-03
            1736     16.8551E-03     37.5092E-03    -1.51543E+06     113.889E+06     2.60926E+06    -77.7837E+03    -20.1632E-03     34.5692E-03    -14.4060E-03     171.076E-03    -22.8003E-03     37.5977E-03    -14.5559E-03     173.208E-03
            1737     15.9673E-03     37.3388E-03    -1.18558E+06     66.3719E+06    -28.7342E+06    -1.33247E+06    -20.8906E-03     35.1471E-03    -14.2565E-03     146.220E-03    -22.1206E-03     36.6918E-03    -14.4947E-03     146.569E-03
            1738     15.0806E-03     37.2326E-03     343.282E+03     28.9151E+06    -16.3104E+06    -1.70165E+06    -18.2691E-03     32.5371E-03    -14.2679E-03     91.8377E-03    -18.5158E-03     32.9349E-03    -14.3919E-03     91.7908E-03
            1739     14.1955E-03     37.1673E-03     653.354E+03    -21.1117E+06    -16.9471E+06    -825.222E+03    -16.7172E-03     30.9597E-03    -14.2425E-03     66.2256E-03    -16.7329E-03     30.9520E-03    -14.2976E-03     66.1770E-03
            1740     13.3092E-03     37.1085E-03     1.19869E+06    -30.4380E+06    -7.77920E+06    -999.434E+03    -16.5557E-03     30.7705E-03    -14.2148E-03     60.9617E-03    -16.5393E-03     30.6729E-03    -14.2113E-03     60.9150E-03
            1741     12.4235E-03     37.0523E-03     1.44271E+06    -27.5268E+06    -237.426E+03    -1.22932E+06    -16.2467E-03     30.4017E-03    -14.1550E-03     54.9012E-03    -16.2247E-03     30.2878E-03    -14.1183E-03     54.8602E-03
            1742     11.5369E-03     37.0051E-03     1.00384E+06    -39.5572E+06    -4.44606E+06    -2.10426E+06    -15.8303E-03     29.8896E-03    -14.0594E-03     46.9590E-03    -15.7754E-03     29.7108E-03    -14.0257E-03     46.9140E-03
            1743     10.6505E-03     36.9634E-03     514.890E+03    -49.3912E+06    -2.85031E+06    -2.62606E+06    -15.5178E-03     29.5102E-03    -13.9923E-03     41.4106E-03    -15.4479E-03     29.2750E-03    -13.9357E-03     41.3636E-03
            1744     9.76382E-03     36.9266E-03     596.401E+03    -47.2698E+06     1.41407E+06    -1.24147E+06    -15.1895E-03     29.1129E-03    -13.9235E-03     36.4541E-03    -15.1252E-03     28.8788E-03    -13.8487E-03     36.4286E-03
            1745     8.87699E-03     36.8941E-03     1.06869E+06    -46.6613E+06     3.27868E+06    -443.051E+03    -14.8787E-03     28.7283E-03    -13.8496E-03     31.9221E-03    -14.8136E-03     28.4919E-03    -13.7671E-03     31.9094E-03
            1746     7.98985E-03     36.8657E-03     253.565E+03    -49.2856E+06     3.92298E+06    -1.00731E+06    -14.5975E-03     28.3804E-03    -13.7829E-03     27.6457E-03    -14.5325E-03     28.1300E-03    -13.6922E-03     27.6275E-03
            1747     7.10259E-03     36.8411E-03    -940.171E+03    -49.3671E+06     3.75688E+06    -1.59283E+06    -14.3513E-03     28.0668E-03    -13.7155E-03     23.6237E-03    -14.2913E-03     27.8173E-03    -13.6238E-03     23.5992E-03
            1748     6.21522E-03     36.8205E-03    -1.47811E+06    -46.3986E+06     3.58196E+06    -1.34858E+06    -14.1066E-03     27.7574E-03    -13.6508E-03     19.9682E-03    -14.0528E-03     27.5232E-03    -13.5635E-03     19.9477E-03
            1749     5.32747E-03     36.8029E-03    -2.14257E+06    -45.9893E+06     2.65151E+06    -553.352E+03    -13.8971E-03     27.4944E-03    -13.5972E-03     16.6343E-03    -13.8456E-03     27.2642E-03    -13.5142E-03     16.6248E-03
            1750     4.43979E-03     36.7886E-03    -3.17312E+06    -47.7899E+06     1.10652E+06    -532.429E+03    -13.7473E-03     27.3020E-03    -13.5546E-03     13.5119E-03    -13.6958E-03     27.0664E-03    -13.4752E-03     13.5032E-03
            1751     3.55191E-03     36.7768E-03    -4.28911E+06    -48.1094E+06    -659.339E+03    -1.04024E+06    -13.6275E-03     27.1450E-03    -13.5175E-03     10.5770E-03    -13.5784E-03     26.9118E-03    -13.4448E-03     10.5622E-03
            1752     2.66401E-03     36.7681E-03    -5.00853E+06    -49.2525E+06    -2.31188E+06    -969.832E+03    -13.5458E-03     27.0350E-03    -13.4892E-03     7.81579E-03    -13.4962E-03     26.7994E-03    -13.4221E-03     7.80226E-03
            1753     1.77597E-03     36.7617E-03    -5.17850E+06    -49.9123E+06    -3.81342E+06    -466.848E+03    -13.4983E-03     26.9626E-03    -13.4643E-03     5.17249E-03    -13.4462E-03     26.7261E-03    -13.4035E-03     5.16580E-03
            1754     888.140E-06     36.7582E-03    -5.13552E+06    -50.3606E+06    -5.11973E+06    -105.346E+03    -13.4847E-03     26.9014E-03    -13.4167E-03     2.77244E-03    -13.4297E-03     26.6648E-03    -13.3619E-03     2.77074E-03
            1755     16.8508E-03     36.5315E-03    -1.98807E+06     115.804E+06     2.37041E+06    -460.430E+03    -21.6023E-03     36.0009E-03    -14.3987E-03     171.794E-03    -24.2571E-03     39.0530E-03    -14.5518E-03     173.894E-03
            1756     15.9672E-03     36.3601E-03     682.331E+03     66.8519E+06    -29.7361E+06    -1.51631E+06    -21.3519E-03     35.5478E-03    -14.1959E-03     146.573E-03    -22.5705E-03     37.0924E-03    -14.4425E-03     146.892E-03
            1757     15.0830E-03     36.2556E-03     1.33125E+06     26.9832E+06    -15.4332E+06    -465.672E+03    -18.1021E-03     32.3126E-03    -14.2105E-03     90.0816E-03    -18.3359E-03     32.6916E-03    -14.3287E-03     90.0504E-03
            1758     14.1964E-03     36.1901E-03     1.00055E+06    -20.4842E+06    -15.0178E+06    -316.082E+03    -16.8437E-03     31.0249E-03    -14.1812E-03     65.2903E-03    -16.8612E-03     31.0168E-03    -14.2280E-03     65.2478E-03
            1759     13.3108E-03     36.1318E-03     1.78772E+06    -29.9596E+06    -6.39375E+06    -1.27208E+06    -16.5373E-03     30.6781E-03    -14.1408E-03     60.3972E-03    -16.5201E-03     30.5795E-03    -14.1319E-03     60.3471E-03
            1760     12.4242E-03     36.0756E-03     2.62787E+06    -27.8245E+06     1.02894E+06    -1.33246E+06    -16.1828E-03     30.2596E-03    -14.0769E-03     54.2642E-03    -16.1558E-03     30.1403E-03    -14.0352E-03     54.2222E-03
            1761     11.5381E-03     36.0289E-03     2.74070E+06    -38.9225E+06    -1.40087E+06    -907.384E+03    -15.8139E-03     29.7976E-03    -13.9837E-03     46.3705E-03    -15.7555E-03     29.6148E-03    -13.9382E-03     46.3409E-03
            1762     10.6515E-03     35.9875E-03     1.40943E+06    -49.4385E+06    -1.30069E+06    -1.03891E+06    -15.4814E-03     29.3870E-03    -13.9056E-03     40.9277E-03    -15.4091E-03     29.1479E-03    -13.8424E-03     40.9013E-03
            1763     9.76486E-03     35.9509E-03     334.779E+03    -48.4977E+06     1.53765E+06    -1.54749E+06    -15.1466E-03     28.9740E-03    -13.8274E-03     36.0610E-03    -15.0819E-03     28.7339E-03    -13.7499E-03     36.0316E-03
            1764     8.87789E-03     35.9187E-03    -23.0025E+03    -47.4473E+06     3.01608E+06    -705.958E+03    -14.8194E-03     28.5660E-03    -13.7466E-03     31.5758E-03    -14.7583E-03     28.3276E-03    -13.6627E-03     31.5599E-03
            1765     7.99081E-03     35.8906E-03    -262.550E+03    -48.3640E+06     2.75327E+06    -344.366E+03    -14.4995E-03     28.1679E-03    -13.6684E-03     27.3297E-03    -14.4367E-03     27.9245E-03    -13.5841E-03     27.3202E-03
            1766     7.10335E-03     35.8665E-03    -843.934E+03    -48.8135E+06     2.81463E+06    -1.31525E+06    -14.2321E-03     27.8335E-03    -13.6014E-03     23.3462E-03    -14.1709E-03     27.5878E-03    -13.5153E-03     23.3254E-03
            1767     6.21576E-03     35.8458E-03    -1.68103E+06    -47.5258E+06     3.34542E+06    -1.47305E+06    -14.0356E-03     27.5762E-03    -13.5406E-03     19.6791E-03    -13.9808E-03     27.3370E-03    -13.4525E-03     19.6570E-03
            1768     5.32821E-03     35.8287E-03    -2.23155E+06    -46.7735E+06     3.37631E+06    -857.081E+03    -13.8472E-03     27.3293E-03    -13.4821E-03     16.3558E-03    -13.7960E-03     27.0943E-03    -13.3941E-03     16.3424E-03
            1769     4.44034E-03     35.8143E-03    -2.64379E+06    -47.5194E+06     2.49218E+06    -597.912E+03    -13.6546E-03     27.0850E-03    -13.4304E-03     13.2752E-03    -13.6029E-03     26.8480E-03    -13.3452E-03     13.2656E-03
            1770     3.55243E-03     35.8030E-03    -3.57699E+06    -48.0505E+06     114.278E+03    -728.271E+03    -13.5011E-03     26.8866E-03    -13.3855E-03     10.4010E-03    -13.4496E-03     26.6515E-03    -13.3101E-03     10.3903E-03
            1771     2.66434E-03     35.7941E-03    -4.78407E+06    -49.6786E+06    -2.74913E+06    -1.03660E+06    -13.4081E-03     26.7606E-03    -13.3525E-03     7.67671E-03    -13.3561E-03     26.5232E-03    -13.2872E-03     7.66234E-03
            1772     1.77629E-03     35.7880E-03    -5.39601E+06    -50.9337E+06    -4.82555E+06    -1.01962E+06    -13.3542E-03     26.6851E-03    -13.3309E-03     5.06698E-03    -13.3003E-03     26.4452E-03    -13.2734E-03     5.05318E-03
            1773     888.048E-06     35.7841E-03    -5.17816E+06    -50.9564E+06    -5.03991E+06    -368.623E+03    -13.3231E-03     26.6506E-03    -13.3275E-03     2.71432E-03    -13.2675E-03     26.4109E-03    -13.2713E-03     2.70922E-03
            1774     16.8543E-03     35.5526E-03    -2.14061E+06     118.232E+06     2.20056E+06    -248.467E+03    -22.4279E-03     36.7727E-03    -14.3448E-03     169.341E-03    -25.0520E-03     39.8026E-03    -14.5022E-03     171.382E-03
            1775     15.9695E-03     35.3814E-03    -3.64361E+06     65.1103E+06    -32.0035E+06    -1.01700E+06    -21.1878E-03     35.3011E-03    -14.1133E-03     144.529E-03    -22.3965E-03     36.8209E-03    -14.3625E-03     144.848E-03
            1776     15.0831E-03     35.2784E-03    -2.05800E+06     25.4757E+06    -17.1709E+06    -770.367E+03    -17.9138E-03     32.0426E-03    -14.1288E-03     89.7257E-03    -18.1545E-03     32.4163E-03    -14.2487E-03     89.6922E-03
            1777     14.1981E-03     35.2131E-03     465.284E+03    -18.8940E+06    -15.2313E+06    -705.143E+03    -16.9142E-03     31.0101E-03    -14.0959E-03     65.1844E-03    -16.9359E-03     31.0105E-03    -14.1453E-03     65.1367E-03
            1778     13.3117E-03     35.1553E-03     1.63701E+06    -30.0850E+06    -6.63268E+06    -1.25007E+06    -16.5080E-03     30.5581E-03    -14.0501E-03     60.2279E-03    -16.4904E-03     30.4588E-03    -14.0420E-03     60.1785E-03
            1779     12.4258E-03     35.0991E-03     1.26022E+06    -27.8984E+06     339.369E+03    -1.19289E+06    -16.0923E-03     30.0753E-03    -13.9830E-03     54.0344E-03    -16.0705E-03     29.9579E-03    -13.9426E-03     53.9947E-03
            1780     11.5391E-03     35.0528E-03     1.21957E+06    -39.7716E+06    -2.54616E+06    -845.506E+03    -15.7328E-03     29.6202E-03    -13.8875E-03     46.0952E-03    -15.6787E-03     29.4367E-03    -13.8443E-03     46.0669E-03
            1781     10.6527E-03     35.0116E-03     2.59326E+06    -48.8582E+06    -1.35274E+06    -546.621E+03    -15.4320E-03     29.2379E-03    -13.8059E-03     40.6607E-03    -15.3543E-03     28.9999E-03    -13.7456E-03     40.6410E-03
            1782     9.76582E-03     34.9755E-03     2.59736E+06    -48.7515E+06     2.15181E+06    -465.473E+03    -15.0979E-03     28.8246E-03    -13.7267E-03     35.7682E-03    -15.0223E-03     28.5789E-03    -13.6490E-03     35.7531E-03
            1783     8.87886E-03     34.9435E-03     1.40110E+06    -48.4298E+06     4.03675E+06    -308.684E+03    -14.7697E-03     28.4150E-03    -13.6453E-03     31.2068E-03    -14.7014E-03     28.1680E-03    -13.5569E-03     31.1961E-03
            1784     7.99156E-03     34.9159E-03     686.639E+03    -47.7858E+06     3.93212E+06    -313.995E+03    -14.4488E-03     28.0088E-03    -13.5600E-03     26.9231E-03    -14.3837E-03     27.7651E-03    -13.4720E-03     26.9141E-03
            1785     7.10419E-03     34.8919E-03    -95.4617E+03    -48.0947E+06     4.05761E+06    -696.905E+03    -14.1726E-03     27.6584E-03    -13.4858E-03     22.9525E-03    -14.1105E-03     27.4134E-03    -13.3956E-03     22.9397E-03
            1786     6.21661E-03     34.8716E-03    -1.06261E+06    -47.7041E+06     3.90351E+06    -1.36863E+06    -13.9496E-03     27.3656E-03    -13.4160E-03     19.3203E-03    -13.8922E-03     27.1238E-03    -13.3258E-03     19.2996E-03
            1787     5.32883E-03     34.8544E-03    -1.65461E+06    -47.6122E+06     3.65896E+06    -1.48913E+06    -13.7492E-03     27.1006E-03    -13.3514E-03     16.0363E-03    -13.6942E-03     26.8602E-03    -13.2617E-03     16.0148E-03
            1788     4.44102E-03     34.8405E-03    -2.31434E+06    -47.9468E+06     2.77087E+06    -930.739E+03    -13.5469E-03     26.8406E-03    -13.2937E-03     13.0261E-03    -13.4933E-03     26.6005E-03    -13.2069E-03     13.0123E-03
            1789     3.55289E-03     34.8291E-03    -3.16583E+06    -48.1821E+06     899.204E+03    -577.199E+03    -13.3836E-03     26.6279E-03    -13.2443E-03     10.2115E-03    -13.3311E-03     26.3905E-03    -13.1653E-03     10.2027E-03
            1790     2.66479E-03     34.8206E-03    -4.19556E+06    -49.7127E+06    -1.85605E+06    -545.257E+03    -13.2716E-03     26.4775E-03    -13.2059E-03     7.53735E-03    -13.2178E-03     26.2378E-03    -13.1370E-03     7.52936E-03
            1791     1.77653E-03     34.8144E-03    -5.41833E+06    -51.5867E+06    -4.64697E+06    -719.350E+03    -13.1993E-03     26.3807E-03    -13.1814E-03     4.99103E-03    -13.1448E-03     26.1374E-03    -13.1220E-03     4.98112E-03
            1792     888.327E-06     34.8109E-03    -6.21971E+06    -52.1138E+06    -6.08968E+06    -676.705E+03    -13.1762E-03     26.3458E-03    -13.1696E-03     2.66919E-03    -13.1226E-03     26.1033E-03    -13.1155E-03     2.66013E-03
            1793     16.8558E-03     34.5714E-03    -1.12796E+06     118.897E+06     2.29720E+06     617.688E+03    -22.8943E-03     37.1794E-03    -14.2851E-03     169.743E-03    -25.5146E-03     40.2112E-03    -14.4444E-03     171.751E-03
            1794     15.9710E-03     34.4061E-03    -299.461E+03     66.1165E+06    -30.3809E+06     588.661E+03    -21.1254E-03     35.1699E-03    -14.0445E-03     144.484E-03    -22.3116E-03     36.6779E-03    -14.2919E-03     144.819E-03
            1795     15.0847E-03     34.3004E-03     759.181E+03     25.2978E+06    -16.3907E+06    -773.045E+03    -17.8321E-03     31.8916E-03    -14.0595E-03     89.8457E-03    -18.0558E-03     32.2554E-03    -14.1792E-03     89.8120E-03
            1796     14.1985E-03     34.2365E-03     1.58705E+06    -18.5030E+06    -15.4889E+06    -1.45050E+06    -16.8716E-03     30.8949E-03    -14.0233E-03     64.9747E-03    -16.8868E-03     30.8950E-03    -14.0762E-03     64.9178E-03
            1797     13.3130E-03     34.1784E-03     2.40566E+06    -30.7198E+06    -8.12085E+06    -870.314E+03    -16.5606E-03     30.5291E-03    -13.9685E-03     60.1916E-03    -16.5356E-03     30.4272E-03    -13.9681E-03     60.1473E-03
            1798     12.4265E-03     34.1232E-03     2.29648E+06    -28.0880E+06    -411.089E+03    -160.157E+03    -16.1164E-03     30.0128E-03    -13.8964E-03     53.9198E-03    -16.0876E-03     29.8937E-03    -13.8611E-03     53.8937E-03
            1799     11.5402E-03     34.0767E-03     1.85143E+06    -39.3511E+06    -3.63215E+06    -749.621E+03    -15.7296E-03     29.5216E-03    -13.7920E-03     45.8515E-03    -15.6711E-03     29.3406E-03    -13.7558E-03     45.8248E-03
            1800     10.6535E-03     34.0362E-03     1.39350E+06    -49.6047E+06    -2.67290E+06    -866.548E+03    -15.4136E-03     29.1204E-03    -13.7067E-03     40.2901E-03    -15.3387E-03     28.8821E-03    -13.6502E-03     40.2665E-03
            1801     9.76678E-03     34.0000E-03     1.76841E+06    -48.8594E+06     1.69396E+06    -247.640E+03    -15.0894E-03     28.7112E-03    -13.6218E-03     35.3470E-03    -15.0170E-03     28.4667E-03    -13.5451E-03     35.3348E-03
            1802     8.87978E-03     33.9686E-03     2.50715E+06    -48.5064E+06     5.24507E+06    -289.266E+03    -14.7640E-03     28.2994E-03    -13.5354E-03     30.6855E-03    -14.6917E-03     28.0487E-03    -13.4425E-03     30.6751E-03
            1803     7.99265E-03     33.9411E-03     2.44149E+06    -47.9638E+06     6.93030E+06    -127.192E+03    -14.4276E-03     27.8743E-03    -13.4467E-03     26.4021E-03    -14.3578E-03     27.6228E-03    -13.3460E-03     26.3955E-03
            1804     7.10518E-03     33.9176E-03     1.56954E+06    -47.6321E+06     6.69096E+06    -44.2037E+03    -14.1138E-03     27.4727E-03    -13.3589E-03     22.4953E-03    -14.0479E-03     27.2238E-03    -13.2586E-03     22.4910E-03
            1805     6.21752E-03     33.8974E-03     213.287E+03    -46.8044E+06     4.58513E+06    -780.830E+03    -13.8261E-03     27.0991E-03    -13.2730E-03     18.9665E-03    -13.7646E-03     26.8589E-03    -13.1825E-03     18.9535E-03
            1806     5.32968E-03     33.8807E-03    -1.26089E+06    -48.1393E+06     2.78074E+06    -1.40898E+06    -13.6013E-03     26.8042E-03    -13.2030E-03     15.7419E-03    -13.5423E-03     26.5619E-03    -13.1174E-03     15.7215E-03
            1807     4.44156E-03     33.8667E-03    -2.17240E+06    -48.7838E+06     2.33131E+06    -1.19624E+06    -13.4292E-03     26.5750E-03    -13.1458E-03     12.7618E-03    -13.3731E-03     26.3312E-03    -13.0602E-03     12.7446E-03
            1808     3.55352E-03     33.8558E-03    -2.97583E+06    -48.7383E+06     1.12798E+06    -650.341E+03    -13.2588E-03     26.3518E-03    -13.0930E-03     9.99380E-03    -13.2049E-03     26.1110E-03    -13.0123E-03     9.98410E-03
            1809     2.66518E-03     33.8472E-03    -4.09762E+06    -49.9150E+06    -1.04061E+06    -204.338E+03    -13.1146E-03     26.1682E-03    -13.0535E-03     7.39228E-03    -13.0613E-03     25.9261E-03    -12.9804E-03     7.38872E-03
            1810     1.77682E-03     33.8413E-03    -5.12470E+06    -51.6141E+06    -3.75705E+06    -126.889E+03    -13.0480E-03     26.0750E-03    -13.0270E-03     4.92652E-03    -12.9933E-03     25.8298E-03    -12.9635E-03     4.92429E-03
            1811     888.377E-06     33.8375E-03    -5.84154E+06    -52.9592E+06    -5.76704E+06    -288.263E+03    -13.0525E-03     26.0300E-03    -12.9776E-03     2.65379E-03    -12.9963E-03     25.7823E-03    -12.9211E-03     2.64976E-03
            1812     16.8540E-03     33.5923E-03    -645.799E+03     117.616E+06     3.89051E+06     46.8491E+03    -22.6723E-03     36.9447E-03    -14.2724E-03     167.932E-03    -25.2356E-03     39.9119E-03    -14.4225E-03     169.903E-03
            1813     15.9702E-03     33.4266E-03     1.02598E+06     67.0280E+06    -28.7713E+06     286.077E+03    -21.3489E-03     35.3690E-03    -14.0202E-03     143.008E-03    -22.5056E-03     36.8508E-03    -14.2627E-03     143.325E-03
            1814     15.0857E-03     33.3243E-03     2.86599E+06     27.4242E+06    -15.5969E+06    -610.524E+03    -18.0471E-03     32.0579E-03    -14.0108E-03     89.7913E-03    -18.2625E-03     32.4261E-03    -14.1327E-03     89.7579E-03
            1815     14.1997E-03     33.2591E-03     3.70830E+06    -19.1824E+06    -14.5945E+06    -928.278E+03    -16.9169E-03     30.8858E-03    -13.9688E-03     65.0128E-03    -16.9211E-03     30.8773E-03    -14.0194E-03     64.9627E-03
            1816     13.3134E-03     33.2021E-03     4.08658E+06    -31.4597E+06    -6.78420E+06    -371.990E+03    -16.6790E-03     30.5868E-03    -13.9079E-03     59.7096E-03    -16.6460E-03     30.4763E-03    -13.9021E-03     59.6716E-03
            1817     12.4276E-03     33.1466E-03     4.94877E+06    -28.3148E+06     1.93179E+06    -205.142E+03    -16.2486E-03     30.0731E-03    -13.8245E-03     53.3487E-03    -16.2093E-03     29.9453E-03    -13.7810E-03     53.3221E-03
            1818     11.5412E-03     33.1010E-03     5.11900E+06    -39.3011E+06     600.294E+03     613.365E+03    -15.8158E-03     29.5291E-03    -13.7134E-03     45.1978E-03    -15.7470E-03     29.3373E-03    -13.6608E-03     45.1886E-03
            1819     10.6547E-03     33.0605E-03     4.00275E+06    -49.2873E+06     1.67518E+06     492.927E+03    -15.4369E-03     29.0532E-03    -13.6163E-03     39.6542E-03    -15.3556E-03     28.8063E-03    -13.5423E-03     39.6482E-03
            1820     9.76795E-03     33.0249E-03     3.12625E+06    -48.6346E+06     3.42773E+06    -614.563E+03    -15.0814E-03     28.5906E-03    -13.5093E-03     34.8037E-03    -15.0049E-03     28.3427E-03    -13.4261E-03     34.7869E-03
            1821     8.88103E-03     32.9935E-03     2.80229E+06    -48.8282E+06     5.45962E+06    -613.172E+03    -14.7375E-03     28.1443E-03    -13.4068E-03     30.1530E-03    -14.6636E-03     27.8912E-03    -13.3128E-03     30.1386E-03
            1822     7.99376E-03     32.9667E-03     2.35937E+06    -48.4773E+06     6.96575E+06    -87.9890E+03    -14.3690E-03     27.6766E-03    -13.3076E-03     25.9335E-03    -14.2989E-03     27.4226E-03    -13.2059E-03     25.9275E-03
            1823     7.10628E-03     32.9433E-03     1.86473E+06    -47.4482E+06     7.02221E+06     156.877E+03    -14.0085E-03     27.2204E-03    -13.2119E-03     22.0821E-03    -13.9418E-03     26.9715E-03    -13.1107E-03     22.0804E-03
            1824     6.21848E-03     32.9237E-03     965.036E+03    -46.1072E+06     5.66484E+06     105.537E+03    -13.6937E-03     26.8176E-03    -13.1239E-03     18.5901E-03    -13.6311E-03     26.5782E-03    -13.0301E-03     18.5886E-03
            1825     5.33040E-03     32.9070E-03    -344.950E+03    -47.5802E+06     3.34639E+06    -612.797E+03    -13.4665E-03     26.5145E-03    -13.0480E-03     15.4288E-03    -13.4046E-03     26.2727E-03    -12.9617E-03     15.4187E-03
            1826     4.44237E-03     32.8935E-03    -1.57481E+06    -49.4019E+06     1.97974E+06    -1.22656E+06    -13.2798E-03     26.2659E-03    -12.9861E-03     12.4871E-03    -13.2193E-03     26.0186E-03    -12.9022E-03     12.4696E-03
            1827     3.55402E-03     32.8825E-03    -2.45258E+06     -49.706E+06     1.35439E+06    -745.269E+03    -13.1040E-03     26.0399E-03    -12.9360E-03     9.76950E-03    -13.0463E-03     25.7932E-03    -12.8536E-03     9.75862E-03
            1828     2.66564E-03     32.8743E-03    -3.38891E+06    -50.3475E+06    -160.378E+03    -85.0780E+03    -12.9747E-03     25.8699E-03    -12.8952E-03     7.24361E-03    -12.9184E-03     25.6234E-03    -12.8181E-03     7.24163E-03
            1829     1.77710E-03     32.8682E-03    -4.44669E+06    -51.4817E+06    -2.85177E+06     132.848E+03    -12.8948E-03     25.7559E-03    -12.8611E-03     4.82430E-03    -12.8382E-03     25.5091E-03    -12.7943E-03     4.82544E-03
            1830     888.609E-06     32.8647E-03    -5.25477E+06    -53.0817E+06    -4.94940E+06     65.3749E+03    -12.8842E-03     25.6897E-03    -12.8055E-03     2.58331E-03    -12.8261E-03     25.4393E-03    -12.7457E-03     2.58385E-03
            1831     16.8570E-03     32.6128E-03    -1.61297E+06     116.773E+06     3.99452E+06    -444.622E+03    -22.8372E-03     37.1032E-03    -14.2660E-03     168.064E-03    -25.3964E-03     40.0597E-03    -14.4130E-03     170.013E-03
            1832     15.9719E-03     32.4493E-03    -851.939E+03     67.4029E+06    -29.9643E+06    -439.601E+03    -21.5221E-03     35.5169E-03    -13.9947E-03     141.677E-03    -22.6611E-03     36.9790E-03    -14.2411E-03     141.967E-03
            1833     15.0854E-03     32.3464E-03     303.140E+03     28.3724E+06    -17.4561E+06    -913.806E+03    -18.2498E-03     32.2158E-03    -13.9660E-03     89.0147E-03    -18.4729E-03     32.5913E-03    -14.0949E-03     88.9761E-03
            1834     14.2001E-03     32.2826E-03     1.46638E+06    -20.1199E+06    -16.4083E+06    -766.216E+03    -17.2312E-03     31.1368E-03    -13.9056E-03     64.3944E-03    -17.2417E-03     31.1287E-03    -13.9606E-03     64.3455E-03
            1835     13.3148E-03     32.2249E-03     2.75104E+06    -31.2208E+06    -7.03746E+06    -560.447E+03    -16.7943E-03     30.6239E-03    -13.8296E-03     59.0427E-03    -16.7673E-03     30.5162E-03    -13.8235E-03     59.0022E-03
            1836     12.4287E-03     32.1706E-03     2.86067E+06    -29.2973E+06     454.034E+03    -237.815E+03    -16.3136E-03     30.0429E-03    -13.7293E-03     52.8091E-03    -16.2807E-03     29.9148E-03    -13.6887E-03     52.7822E-03
            1837     11.5426E-03     32.1247E-03     2.72890E+06    -40.3761E+06    -1.13496E+06     881.137E+03    -15.8719E-03     29.4760E-03    -13.6042E-03     44.7307E-03    -15.8107E-03     29.2845E-03    -13.5552E-03     44.7251E-03
            1838     10.6561E-03     32.0852E-03     3.49533E+06    -48.0100E+06     1.04476E+06     1.02094E+06    -15.4721E-03     28.9647E-03    -13.4926E-03     39.1932E-03    -15.3940E-03     28.7256E-03    -13.4229E-03     39.1942E-03
            1839     9.76930E-03     32.0496E-03     3.43161E+06    -47.6363E+06     2.76863E+06     122.809E+03    -15.0575E-03     28.4300E-03    -13.3725E-03     34.3406E-03    -14.9799E-03     28.1874E-03    -13.2945E-03     34.3335E-03
            1840     8.88223E-03     32.0190E-03     2.60483E+06    -49.4262E+06     4.00040E+06    -281.571E+03    -14.6663E-03     27.9264E-03    -13.2601E-03     29.6573E-03    -14.5902E-03     27.6725E-03    -13.1722E-03     29.6473E-03
            1841     7.99496E-03     31.9922E-03     1.97050E+06    -48.7854E+06     6.00311E+06    -7.98641E+03    -14.2730E-03     27.4293E-03    -13.1563E-03     25.4418E-03    -14.2029E-03     27.1756E-03    -13.0584E-03     25.4370E-03
            1842     7.10733E-03     31.9695E-03     1.31367E+06    -47.4259E+06     6.65730E+06     51.4320E+03    -13.9070E-03     26.9634E-03    -13.0564E-03     21.6213E-03    -13.8425E-03     26.7158E-03    -12.9562E-03     21.6184E-03
            1843     6.21944E-03     31.9500E-03     944.910E+03    -46.0904E+06     6.43097E+06     75.2826E+03    -13.5951E-03     26.5595E-03    -12.9644E-03     18.1593E-03    -13.5336E-03     26.3191E-03    -12.8668E-03     18.1576E-03
            1844     5.33143E-03     31.9338E-03     398.609E+03    -46.7099E+06     4.99889E+06    -25.7967E+03    -13.3169E-03     26.2005E-03    -12.8836E-03     15.0389E-03    -13.2549E-03     25.9596E-03    -12.7915E-03     15.0364E-03
            1845     4.44304E-03     31.9203E-03    -945.974E+03    -49.3299E+06     2.46230E+06    -501.477E+03    -13.0882E-03     25.9056E-03    -12.8174E-03     12.1832E-03    -13.0252E-03     25.6570E-03    -12.7322E-03     12.1751E-03
            1846     3.55464E-03     31.9098E-03    -2.33964E+06    -50.5118E+06     335.521E+03    -689.876E+03    -12.9374E-03     25.7015E-03    -12.7642E-03     9.55121E-03    -12.8765E-03     25.4520E-03    -12.6858E-03     9.54111E-03
            1847     2.66605E-03     31.9015E-03    -2.99781E+06    -50.9513E+06    -640.068E+03    -298.257E+03    -12.8325E-03     25.5535E-03    -12.7211E-03     7.07577E-03    -12.7727E-03     25.3041E-03    -12.6460E-03     7.07107E-03
            1848     1.77749E-03     31.8958E-03    -3.51723E+06    -51.6048E+06    -2.09900E+06     259.615E+03    -12.7402E-03     25.4211E-03    -12.6809E-03     4.70093E-03    -12.6799E-03     25.1713E-03    -12.6115E-03     4.70372E-03
            1849     888.704E-06     31.8921E-03    -4.03586E+06    -52.5906E+06    -3.87992E+06     373.388E+03    -12.6735E-03     25.3182E-03    -12.6448E-03     2.50939E-03    -12.6115E-03     25.0670E-03    -12.5821E-03     2.51392E-03
            1850     16.8528E-03     31.6300E-03    -1.50690E+06     116.466E+06     5.78086E+06    -309.725E+03    -22.9370E-03     37.2007E-03    -14.2637E-03     166.676E-03    -25.4661E-03     40.1211E-03    -14.4015E-03     168.591E-03
            1851     15.9711E-03     31.4710E-03    -1.16267E+06     67.8952E+06    -28.6187E+06    -524.468E+03    -21.9176E-03     35.8859E-03    -13.9682E-03     139.431E-03    -23.0304E-03     37.3185E-03    -14.2081E-03     139.703E-03
            1852     15.0869E-03     31.3692E-03    -488.810E+03     29.2636E+06    -17.1402E+06    -474.271E+03    -18.5838E-03     32.4887E-03    -13.9049E-03     87.5857E-03    -18.8087E-03     32.8654E-03    -14.0323E-03     87.5501E-03
            1853     14.2017E-03     31.3048E-03     138.674E+03    -20.2502E+06    -17.6952E+06    -975.065E+03    -17.2092E-03     31.0317E-03    -13.8225E-03     63.6503E-03    -17.2226E-03     31.0249E-03    -13.8818E-03     63.5994E-03
            1854     13.3158E-03     31.2487E-03     510.492E+03    -31.8120E+06    -9.16320E+06    -743.529E+03    -16.8751E-03     30.6105E-03    -13.7353E-03     58.6230E-03    -16.8545E-03     30.5053E-03    -13.7358E-03     58.5804E-03
            1855     12.4299E-03     31.1940E-03     741.045E+03    -30.1869E+06    -1.84306E+06     148.200E+03    -16.3713E-03     29.9931E-03    -13.6218E-03     52.2076E-03    -16.3438E-03     29.8664E-03    -13.5883E-03     52.1859E-03
            1856     11.5436E-03     31.1492E-03     1.50835E+06    -40.6613E+06    -3.06973E+06     226.966E+03    -15.8900E-03     29.3742E-03    -13.4843E-03     44.1784E-03    -15.8313E-03     29.1854E-03    -13.4428E-03     44.1648E-03
            1857     10.6573E-03     31.1095E-03     2.36417E+06    -47.9044E+06     439.126E+03     326.584E+03    -15.5142E-03     28.8796E-03    -13.3654E-03     38.6031E-03    -15.4409E-03     28.6434E-03    -13.2972E-03     38.5953E-03
            1858     9.77064E-03     31.0749E-03     2.79928E+06    -46.9850E+06     2.73316E+06     602.096E+03    -15.0378E-03     28.2706E-03    -13.2328E-03     33.6979E-03    -14.9641E-03     28.0321E-03    -13.1550E-03     33.6971E-03
            1859     8.88358E-03     31.0443E-03     2.61090E+06    -49.0832E+06     3.95856E+06     208.160E+03    -14.5843E-03     27.6943E-03    -13.1100E-03     29.0976E-03    -14.5086E-03     27.4421E-03    -13.0228E-03     29.0942E-03
            1860     7.99619E-03     31.0183E-03     2.25777E+06    -49.0972E+06     6.51046E+06    -97.1128E+03    -14.1946E-03     27.1955E-03    -13.0008E-03     24.8705E-03    -14.1233E-03     26.9390E-03    -12.9004E-03     24.8646E-03
            1861     7.10850E-03     30.9957E-03     1.92719E+06    -47.3019E+06     7.61645E+06         362.833    -13.8187E-03     26.7107E-03    -12.8920E-03     21.0658E-03    -13.7527E-03     26.4615E-03    -12.7881E-03     21.0624E-03
            1862     6.22063E-03     30.9768E-03     1.13541E+06    -46.0657E+06     6.68871E+06    -175.784E+03    -13.4620E-03     26.2507E-03    -12.7886E-03     17.6964E-03    -13.4000E-03     26.0097E-03    -12.6900E-03     17.6915E-03
            1863     5.33236E-03     30.9608E-03     245.323E+03    -46.8746E+06     5.09950E+06     57.9391E+03    -13.1435E-03     25.8469E-03    -12.7035E-03     14.6622E-03    -13.0821E-03     25.6053E-03    -12.6104E-03     14.6609E-03
            1864     4.44392E-03     30.9478E-03    -770.847E+03    -48.9470E+06     2.92679E+06     385.939E+03    -12.9126E-03     25.5485E-03    -12.6359E-03     11.8819E-03    -12.8500E-03     25.3009E-03    -12.5492E-03     11.8853E-03
            1865     3.55523E-03     30.9371E-03    -2.08791E+06    -50.3616E+06    -70.5513E+03    -25.0576E+03    -12.7711E-03     25.3462E-03    -12.5751E-03     9.29915E-03    -12.7085E-03     25.0976E-03    -12.4994E-03     9.29768E-03
            1866     2.66660E-03     30.9292E-03    -3.29668E+06    -51.5028E+06    -1.94630E+06    -280.380E+03    -12.6521E-03     25.1773E-03    -12.5252E-03     6.85412E-03    -12.5911E-03     24.9275E-03    -12.4555E-03     6.84968E-03
            1867     1.77774E-03     30.9234E-03    -3.78405E+06    -51.9106E+06    -2.89023E+06    -29.4032E+03    -12.5472E-03     25.0330E-03    -12.4858E-03     4.55747E-03    -12.4866E-03     24.7831E-03    -12.4195E-03     4.55656E-03
            1868     888.991E-06     30.9201E-03    -3.57100E+06    -52.1081E+06    -3.33544E+06     221.620E+03    -12.4734E-03     24.9369E-03    -12.4634E-03     2.41301E-03    -12.4106E-03     24.6866E-03    -12.3994E-03     2.41558E-03
            1869     16.8590E-03     30.6531E-03    -1.65467E+06     117.128E+06     4.73209E+06     554.877E+03    -23.6135E-03     37.8019E-03    -14.1883E-03     164.295E-03    -26.0675E-03     40.6521E-03    -14.3321E-03     166.122E-03
            1870     15.9725E-03     30.4907E-03    -1.23170E+06     68.8236E+06    -28.0652E+06    -715.657E+03    -21.8171E-03     35.6907E-03    -13.8736E-03     136.819E-03    -22.9017E-03     37.0966E-03    -14.1119E-03     137.077E-03
            1871     15.0887E-03     30.3914E-03     190.489E+03     29.3248E+06    -15.1865E+06    -1.14483E+06    -18.3301E-03     32.1453E-03    -13.8152E-03     85.5662E-03    -18.5479E-03     32.5119E-03    -13.9339E-03     85.5225E-03
            1872     14.2025E-03     30.3287E-03     907.089E+03    -20.4879E+06    -15.2958E+06    -215.928E+03    -17.0588E-03     30.7971E-03    -13.7383E-03     63.3893E-03    -17.0703E-03     30.7835E-03    -13.7864E-03     63.3487E-03
            1873     13.3170E-03     30.2712E-03     1.03322E+06    -32.4011E+06    -7.02819E+06     109.529E+03    -16.9811E-03     30.6257E-03    -13.6446E-03     57.8584E-03    -16.9596E-03     30.5133E-03    -13.6342E-03     57.8266E-03
            1874     12.4315E-03     30.2182E-03     1.07807E+06    -30.2179E+06    -64.9266E+03    -130.076E+03    -16.4370E-03     29.9506E-03    -13.5136E-03     51.2127E-03    -16.4098E-03     29.8201E-03    -13.4717E-03     51.1876E-03
            1875     11.5453E-03     30.1732E-03     1.67298E+06    -40.3486E+06    -2.45914E+06    -475.071E+03    -15.8913E-03     29.2481E-03    -13.3568E-03     43.4838E-03    -15.8328E-03     29.0594E-03    -13.3130E-03     43.4613E-03
            1876     10.6589E-03     30.1343E-03     2.70950E+06    -48.4505E+06    -78.3405E+03    -408.208E+03    -15.4905E-03     28.7128E-03    -13.2223E-03     37.9002E-03    -15.4137E-03     28.4739E-03    -13.1564E-03     37.8832E-03
            1877     9.77216E-03     30.0999E-03     3.27374E+06    -47.7241E+06     3.09375E+06     480.187E+03    -14.9950E-03     28.0785E-03    -13.0834E-03     32.9524E-03    -14.9182E-03     27.8349E-03    -13.0035E-03     32.9502E-03
            1878     8.88500E-03     30.0702E-03     3.01965E+06    -47.9364E+06     5.55830E+06     644.854E+03    -14.5075E-03     27.4615E-03    -12.9540E-03     28.4784E-03    -14.4336E-03     27.2120E-03    -12.8611E-03     28.4807E-03
            1879     7.99756E-03     30.0442E-03     2.44284E+06    -48.9167E+06     7.16612E+06    -243.502E+03    -14.1032E-03     26.9354E-03    -12.8322E-03     24.3130E-03    -14.0321E-03     26.6786E-03    -12.7290E-03     24.3054E-03
            1880     7.10992E-03     30.0224E-03     1.92350E+06    -47.6882E+06     7.37072E+06    -231.589E+03    -13.6926E-03     26.4041E-03    -12.7115E-03     20.5477E-03    -13.6256E-03     26.1532E-03    -12.6083E-03     20.5414E-03
            1881     6.22173E-03     30.0037E-03     1.15422E+06    -45.8988E+06     6.26395E+06     160.896E+03    -13.2862E-03     25.8881E-03    -12.6018E-03     17.2431E-03    -13.2237E-03     25.6485E-03    -12.5056E-03     17.2427E-03
            1882     5.33336E-03     29.9883E-03    -178.631E+03    -47.5545E+06     4.36912E+06     456.005E+03    -12.9903E-03     25.5033E-03    -12.5130E-03     14.2786E-03    -12.9290E-03     25.2599E-03    -12.4219E-03     14.2826E-03
            1883     4.44472E-03     29.9753E-03    -1.48615E+06    -48.8324E+06     2.47209E+06     829.738E+03    -12.7777E-03     25.2137E-03    -12.4360E-03     11.5559E-03    -12.7181E-03     24.9684E-03    -12.3507E-03     11.5651E-03
            1884     3.55607E-03     29.9651E-03    -2.53482E+06    -49.6168E+06    -258.038E+03     717.781E+03    -12.5924E-03     24.9564E-03    -12.3639E-03     9.00606E-03    -12.5329E-03     24.7125E-03    -12.2896E-03     9.01423E-03
            1885     2.66713E-03     29.9571E-03    -3.43498E+06    -51.3253E+06    -2.12551E+06     178.141E+03    -12.4390E-03     24.7485E-03    -12.3094E-03     6.60750E-03    -12.3788E-03     24.5000E-03    -12.2407E-03     6.60900E-03
            1886     1.77821E-03     29.9517E-03    -4.23116E+06    -52.1018E+06    -3.27721E+06    -161.361E+03    -12.3155E-03     24.5898E-03    -12.2743E-03     4.38325E-03    -12.2564E-03     24.3402E-03    -12.2090E-03     4.38065E-03
            1887     889.000E-06     29.9482E-03    -4.72271E+06    -52.1213E+06    -4.44859E+06    -175.588E+03    -12.2692E-03     24.5173E-03    -12.2480E-03     2.37142E-03    -12.2105E-03     24.2702E-03    -12.1879E-03     2.36888E-03
            1888     16.8570E-03     29.6731E-03    -2.53758E+06     119.586E+06     4.06600E+06     478.044E+03    -24.7794E-03     38.8986E-03    -14.1192E-03     162.273E-03    -27.1769E-03     41.7000E-03    -14.2686E-03     163.982E-03
            1889     15.9765E-03     29.5113E-03    -2.50321E+06     68.7422E+06    -31.0271E+06    -476.640E+03    -21.7476E-03     35.5101E-03    -13.7625E-03     136.758E-03    -22.8240E-03     36.9117E-03    -14.0137E-03     137.004E-03
            1890     15.0899E-03     29.4158E-03    -1.08883E+06     27.4485E+06    -15.6842E+06    -707.548E+03    -18.0768E-03     31.7997E-03    -13.7229E-03     85.0112E-03    -18.2885E-03     32.1505E-03    -13.8396E-03     84.9722E-03
            1891     14.2043E-03     29.3512E-03     16.1517E+03    -20.3663E+06    -15.8993E+06    -168.967E+03    -17.2243E-03     30.8621E-03    -13.6378E-03     63.6305E-03    -17.2393E-03     30.8510E-03    -13.6878E-03     63.5899E-03
            1892     13.3191E-03     29.2948E-03     1.81364E+06    -32.8751E+06    -8.39099E+06    -115.966E+03    -17.1015E-03     30.6242E-03    -13.5227E-03     57.4554E-03    -17.0727E-03     30.5095E-03    -13.5196E-03     57.4208E-03
            1893     12.4330E-03     29.2417E-03     2.49779E+06    -29.9162E+06     539.340E+03     290.043E+03    -16.4879E-03     29.8726E-03    -13.3847E-03     50.4962E-03    -16.4541E-03     29.7399E-03    -13.3422E-03     50.4769E-03
            1894     11.5470E-03     29.1979E-03     2.10456E+06    -39.4044E+06    -2.90532E+06    -483.748E+03    -15.8971E-03     29.1073E-03    -13.2102E-03     42.9448E-03    -15.8367E-03     28.9229E-03    -13.1706E-03     42.9226E-03
            1895     10.6605E-03     29.1589E-03     2.05219E+06    -49.2229E+06    -1.80040E+06    -820.508E+03    -15.4181E-03     28.4816E-03    -13.0635E-03     37.3263E-03    -15.3406E-03     28.2419E-03    -13.0041E-03     37.3044E-03
            1896     9.77371E-03     29.1255E-03     2.20686E+06    -49.2307E+06     2.25735E+06     367.023E+03    -14.9302E-03     27.8522E-03    -12.9221E-03     32.3186E-03    -14.8551E-03     27.6037E-03    -12.8426E-03     32.3153E-03
            1897     8.88659E-03     29.0960E-03     2.10515E+06    -46.9757E+06     4.86973E+06     808.804E+03    -14.4379E-03     27.2168E-03    -12.7789E-03     27.8577E-03    -14.3688E-03     26.9743E-03    -12.6894E-03     27.8624E-03
            1898     7.99906E-03     29.0708E-03     1.49342E+06    -47.9747E+06     5.56042E+06     43.1038E+03    -13.9514E-03     26.5960E-03    -12.6446E-03     23.7598E-03    -13.8840E-03     26.3475E-03    -12.5494E-03     23.7561E-03
            1899     7.11109E-03     29.0492E-03     557.965E+03    -48.3670E+06     5.49508E+06    -248.949E+03    -13.5269E-03     26.0487E-03    -12.5218E-03     20.0376E-03    -13.4630E-03     25.7991E-03    -12.4250E-03     20.0312E-03
            1900     6.22294E-03     29.0312E-03    -457.597E+03    -46.4928E+06     4.64985E+06     547.686E+03    -13.1641E-03     25.5706E-03    -12.4065E-03     16.7512E-03    -13.1063E-03     25.3327E-03    -12.3152E-03     16.7558E-03
            1901     5.33438E-03     29.0159E-03    -1.42904E+06    -47.5074E+06     3.14594E+06     930.991E+03    -12.8761E-03     25.1806E-03    -12.3045E-03     13.8323E-03    -12.8194E-03     24.9410E-03    -12.2178E-03     13.8424E-03
            1902     4.44578E-03     29.0033E-03    -2.20574E+06    -48.9077E+06     2.22113E+06     862.422E+03    -12.6234E-03     24.8400E-03    -12.2166E-03     11.1389E-03    -12.5670E-03     24.5957E-03    -12.1313E-03     11.1486E-03
            1903     3.55683E-03     28.9933E-03    -2.87662E+06    -49.0113E+06     46.5818E+03     921.813E+03    -12.3861E-03     24.5212E-03    -12.1351E-03     8.67398E-03    -12.3296E-03     24.2804E-03    -12.0596E-03     8.68482E-03
            1904     2.66782E-03     28.9856E-03    -3.62613E+06    -50.5115E+06    -2.05612E+06     533.494E+03    -12.2050E-03     24.2799E-03    -12.0749E-03     6.37454E-03    -12.1470E-03     24.0356E-03    -12.0067E-03     6.38067E-03
            1905     1.77854E-03     28.9802E-03    -4.23726E+06    -51.9749E+06    -3.47201E+06     8.30029E+03    -12.0892E-03     24.1250E-03    -12.0357E-03     4.21307E-03    -12.0300E-03     23.8763E-03    -11.9716E-03     4.21268E-03
            1906     889.361E-06     28.9770E-03    -4.62407E+06    -52.3690E+06    -4.46807E+06    -82.2169E+03    -12.0360E-03     24.0377E-03    -12.0018E-03     2.30395E-03    -11.9764E-03     23.7893E-03    -11.9415E-03     2.30263E-03
            1907     16.8606E-03     28.6919E-03    -1.39820E+06     119.877E+06     5.79238E+06    -271.348E+03    -25.4381E-03     39.6086E-03    -14.1705E-03     163.402E-03    -27.8529E-03     42.4274E-03    -14.3133E-03     165.094E-03
            1908     15.9742E-03     28.5331E-03     697.645E+03     68.2093E+06    -29.1942E+06     64.0417E+03    -23.1958E-03     36.9501E-03    -13.7543E-03     133.923E-03    -24.2094E-03     38.2931E-03    -14.0002E-03     134.104E-03
            1909     15.0908E-03     28.4382E-03     2.35357E+06     27.3803E+06    -14.8296E+06     701.045E+03    -18.2502E-03     31.9074E-03    -13.6573E-03     84.4954E-03    -18.4357E-03     32.2416E-03    -13.7745E-03     84.4725E-03
            1910     14.2054E-03     28.3748E-03     2.48411E+06    -19.8650E+06    -16.3947E+06     217.300E+03    -17.6032E-03     31.1483E-03    -13.5451E-03     63.9752E-03    -17.6064E-03     31.1373E-03    -13.6019E-03     63.9386E-03
            1911     13.3199E-03     28.3174E-03     2.28081E+06    -33.6188E+06    -9.64328E+06     169.381E+03    -17.2662E-03     30.6741E-03    -13.4079E-03     56.9810E-03    -17.2313E-03     30.5559E-03    -13.4107E-03     56.9502E-03
            1912     12.4348E-03     28.2660E-03     1.98519E+06    -29.8229E+06    -244.313E+03     554.324E+03    -16.5485E-03     29.8044E-03    -13.2559E-03     49.8843E-03    -16.5156E-03     29.6734E-03    -13.2167E-03     49.8687E-03
            1913     11.5486E-03     28.2220E-03     1.95006E+06    -38.1725E+06    -3.35694E+06     216.526E+03    -15.9459E-03     29.0118E-03    -13.0659E-03     42.3896E-03    -15.8871E-03     28.8341E-03    -13.0301E-03     42.3768E-03
            1914     10.6623E-03     28.1843E-03     1.26193E+06    -49.8995E+06    -2.72260E+06     76.2885E+03    -15.4079E-03     28.3141E-03    -12.9062E-03     36.6747E-03    -15.3318E-03     28.0732E-03    -12.8493E-03     36.6646E-03
            1915     9.77530E-03     28.1509E-03     689.448E+03    -49.9695E+06     267.151E+03     216.993E+03    -14.8702E-03     27.6187E-03    -12.7485E-03     31.6861E-03    -14.7986E-03     27.3713E-03    -12.6757E-03     31.6811E-03
            1916     8.88815E-03     28.1222E-03     1.01990E+06    -46.8107E+06     2.68448E+06     415.184E+03    -14.3482E-03     26.9401E-03    -12.5919E-03     27.1887E-03    -14.2815E-03     26.7030E-03    -12.5121E-03     27.1885E-03
            1917     8.00051E-03     28.0975E-03     846.599E+03    -47.3016E+06     4.39450E+06     517.889E+03    -13.8294E-03     26.2816E-03    -12.4523E-03     23.0864E-03    -13.7644E-03     26.0390E-03    -12.3629E-03     23.0890E-03
            1918     7.11249E-03     28.0765E-03    -121.452E+03    -48.3174E+06     4.76043E+06     201.047E+03    -13.3969E-03     25.7206E-03    -12.3237E-03     19.4023E-03    -13.3353E-03     25.4732E-03    -12.2296E-03     19.4018E-03
            1919     6.22412E-03     28.0588E-03    -674.402E+03    -47.5315E+06     4.41374E+06     338.191E+03    -13.0735E-03     25.2719E-03    -12.1984E-03     16.1659E-03    -13.0149E-03     25.0294E-03    -12.1064E-03     16.1679E-03
            1920     5.33570E-03     28.0439E-03    -913.700E+03    -47.2090E+06     3.66328E+06     841.531E+03    -12.7548E-03     24.8342E-03    -12.0794E-03     13.3027E-03    -12.6966E-03     24.5946E-03    -11.9913E-03     13.3117E-03
            1921     4.44681E-03     28.0317E-03    -1.64272E+06    -48.7133E+06       2.837E+06     797.469E+03    -12.4261E-03     24.4049E-03    -11.9788E-03     10.6937E-03    -12.3681E-03     24.1599E-03    -11.8916E-03     10.7026E-03
            1922     3.55778E-03     28.0220E-03    -2.49626E+06    -48.8247E+06     1.07472E+06     793.721E+03    -12.1551E-03     24.0484E-03    -11.8932E-03     8.32789E-03    -12.0985E-03     23.8064E-03    -11.8134E-03     8.33712E-03
            1923     2.66842E-03     28.0145E-03    -3.23305E+06    -49.6847E+06    -1.13766E+06     736.208E+03    -11.9660E-03     23.7933E-03    -11.8273E-03     6.12145E-03    -11.9085E-03     23.5513E-03    -11.7563E-03     6.13024E-03
            1924     1.77907E-03     28.0093E-03    -3.99167E+06    -51.5155E+06    -3.59352E+06     345.569E+03    -11.8566E-03     23.6317E-03    -11.7751E-03     4.05256E-03    -11.7966E-03     23.3851E-03    -11.7126E-03     4.05655E-03
            1925     889.531E-06     28.0060E-03    -4.37067E+06    -52.4051E+06    -4.49429E+06     65.6818E+03    -11.7870E-03     23.5074E-03    -11.7204E-03     2.19139E-03    -11.7260E-03     23.2585E-03    -11.6606E-03     2.19198E-03
            1926     16.8476E-03     27.6963E-03    -33.6600E+03     120.093E+06     5.62898E+06    -1.52112E+06    -25.7046E-03     39.8510E-03    -14.1464E-03     160.965E-03    -28.1483E-03     42.7047E-03    -14.2924E-03     162.635E-03
            1927     15.9785E-03     27.5546E-03     2.18779E+06     67.3460E+06    -28.4389E+06    -728.046E+03    -22.8242E-03     36.5395E-03    -13.7153E-03     124.435E-03    -23.7004E-03     37.7450E-03    -13.9584E-03     124.572E-03
            1928     15.0914E-03     27.4620E-03     1.80175E+06     26.5970E+06    -16.4127E+06     1.90344E+06    -18.2626E-03     31.8628E-03    -13.6002E-03     85.2215E-03    -18.4474E-03     32.1960E-03    -13.7235E-03     85.2167E-03
            1929     14.2063E-03     27.3963E-03     1.37829E+06    -18.5843E+06    -16.9157E+06     1.66937E+06    -18.1894E-03     31.6588E-03    -13.4694E-03     63.6012E-03    -18.1992E-03     31.6566E-03    -13.5290E-03     63.5813E-03
            1930     13.3221E-03     27.3412E-03     1.32274E+06    -33.5746E+06    -9.96138E+06     1.02868E+06    -17.3829E-03     30.6884E-03    -13.3056E-03     56.1256E-03    -17.3509E-03     30.5709E-03    -13.3086E-03     56.1062E-03
            1931     12.4359E-03     27.2896E-03     1.20680E+06    -29.7786E+06    -370.116E+03     842.713E+03    -16.6140E-03     29.7530E-03    -13.1390E-03     49.3618E-03    -16.5844E-03     29.6230E-03    -13.0994E-03     49.3502E-03
            1932     11.5502E-03     27.2468E-03     930.462E+03    -37.6492E+06    -3.90203E+06     760.859E+03    -16.0568E-03     28.9861E-03    -12.9293E-03     41.7521E-03    -16.0027E-03     28.8130E-03    -12.8956E-03     41.7464E-03
            1933     10.6637E-03     27.2092E-03     1.33954E+06    -49.9327E+06    -3.13689E+06     586.372E+03    -15.4898E-03     28.2389E-03    -12.7491E-03     35.9886E-03    -15.4124E-03     27.9981E-03    -12.6943E-03     35.9853E-03
            1934     9.77713E-03     27.1769E-03     1.77395E+06    -49.7488E+06     745.175E+03     339.087E+03    -14.8669E-03     27.4425E-03    -12.5756E-03     30.9383E-03    -14.7907E-03     27.1938E-03    -12.5023E-03     30.9351E-03
            1935     8.88975E-03     27.1486E-03     1.44132E+06    -47.0465E+06     2.72918E+06     253.383E+03    -14.2735E-03     26.6778E-03    -12.4044E-03     26.4086E-03    -14.2042E-03     26.4388E-03    -12.3246E-03     26.4065E-03
            1936     8.00212E-03     27.1246E-03     1.26714E+06    -47.3199E+06     5.39226E+06     481.991E+03    -13.7726E-03     26.0272E-03    -12.2546E-03     22.2980E-03    -13.7069E-03     25.7824E-03    -12.1608E-03     22.3002E-03
            1937     7.11404E-03     27.1041E-03     1.15825E+06    -47.7163E+06     5.78470E+06     342.461E+03    -13.3289E-03     25.4346E-03    -12.1057E-03     18.6855E-03    -13.2632E-03     25.1869E-03    -12.0093E-03     18.6868E-03
            1938     6.22571E-03     27.0867E-03     556.067E+03    -48.0322E+06     5.21639E+06     124.812E+03    -12.9248E-03     24.8898E-03    -11.9651E-03     15.5338E-03    -12.8605E-03     24.6419E-03    -11.8701E-03     15.5331E-03
            1939     5.33695E-03     27.0722E-03    -207.472E+03    -47.5387E+06     4.51029E+06     573.297E+03    -12.5434E-03     24.3810E-03    -11.8376E-03     12.7410E-03    -12.4824E-03     24.1375E-03    -11.7459E-03     12.7466E-03
            1940     4.44800E-03     27.0606E-03    -979.008E+03    -48.3437E+06     3.16697E+06     915.120E+03    -12.2039E-03     23.9315E-03    -11.7276E-03     10.2553E-03    -12.1435E-03     23.6868E-03    -11.6403E-03     10.2658E-03
            1941     3.55864E-03     27.0511E-03    -1.94398E+06    -48.6496E+06     1.39425E+06     773.158E+03    -11.9270E-03     23.5629E-03    -11.6359E-03     7.98568E-03    -11.8683E-03     23.3206E-03    -11.5556E-03     7.99469E-03
            1942     2.66920E-03     27.0440E-03    -2.82062E+06    -49.2996E+06    -344.003E+03     778.257E+03    -11.7222E-03     23.2871E-03    -11.5649E-03     5.87418E-03    -11.6644E-03     23.0453E-03    -11.4911E-03     5.88355E-03
            1943     1.77951E-03     27.0388E-03    -3.54030E+06    -50.7916E+06    -2.52199E+06     743.689E+03    -11.5857E-03     23.0961E-03    -11.5104E-03     3.89446E-03    -11.5261E-03     22.8509E-03    -11.4442E-03     3.90361E-03
            1944     889.843E-06     27.0358E-03    -4.14977E+06    -51.9308E+06    -4.07767E+06     316.887E+03    -11.5141E-03     22.9724E-03    -11.4583E-03     2.08464E-03    -11.4534E-03     22.7249E-03    -11.3973E-03     2.08848E-03
            1945     16.8695E-03     26.7062E-03     1.89197E+06     119.802E+06     8.57455E+06    -1.47179E+06    -23.6643E-03     37.6339E-03    -13.9697E-03     156.719E-03    -25.9759E-03     40.3541E-03    -14.1033E-03     158.316E-03
            1946     15.9771E-03     26.5825E-03    -289.616E+03     64.6724E+06    -28.5385E+06     2.06162E+06    -19.4382E-03     33.1065E-03    -13.6683E-03     125.138E-03    -20.2574E-03     34.2371E-03    -13.9044E-03     125.389E-03
            1947     15.0907E-03     26.4822E-03    -2.98058E+06     27.1806E+06    -18.6467E+06     2.33105E+06    -20.0462E-03     33.6294E-03    -13.5833E-03     86.6830E-03    -20.2676E-03     33.9908E-03    -13.7116E-03     86.6719E-03
            1948     14.2080E-03     26.4186E-03    -194.031E+03    -17.1203E+06    -16.3582E+06     1.08990E+06    -18.5229E-03     31.9181E-03    -13.3952E-03     61.9643E-03    -18.5405E-03     31.9217E-03    -13.4519E-03     61.9362E-03
            1949     13.3225E-03     26.3644E-03     1.40413E+06    -33.5604E+06    -9.20349E+06     1.25211E+06    -17.4228E-03     30.6351E-03    -13.2122E-03     55.4446E-03    -17.3904E-03     30.5152E-03    -13.2116E-03     55.4287E-03
            1950     12.4376E-03     26.3136E-03     2.00769E+06    -29.3300E+06     545.813E+03     980.352E+03    -16.8336E-03     29.8607E-03    -13.0271E-03     48.6553E-03    -16.8015E-03     29.7301E-03    -12.9848E-03     48.6454E-03
            1951     11.5516E-03     26.2712E-03     2.91073E+06    -37.5104E+06    -2.25721E+06     720.745E+03    -16.2008E-03     28.9970E-03    -12.7961E-03     40.8278E-03    -16.1391E-03     28.8189E-03    -12.7572E-03     40.8217E-03
            1952     10.6656E-03     26.2346E-03     3.65170E+06    -49.3859E+06    -951.732E+03     389.757E+03    -15.5911E-03     28.1860E-03    -12.5949E-03     35.0688E-03    -15.5059E-03     27.9412E-03    -12.5334E-03     35.0630E-03
            1953     9.77877E-03     26.2027E-03     3.73034E+06    -50.1650E+06     3.34329E+06     601.692E+03    -14.9251E-03     27.3280E-03    -12.4028E-03     29.9966E-03    -14.8422E-03     27.0705E-03    -12.3188E-03     29.9969E-03
            1954     8.89165E-03     26.1754E-03     3.20109E+06    -46.8029E+06     5.05520E+06     948.300E+03    -14.2720E-03     26.4796E-03    -12.2077E-03     25.4860E-03    -14.1976E-03     26.2358E-03    -12.1192E-03     25.4929E-03
            1955     8.00387E-03     26.1518E-03     2.39100E+06    -46.9404E+06     6.20906E+06     305.912E+03    -13.7102E-03     25.7413E-03    -12.0311E-03     21.4676E-03    -13.6405E-03     25.4955E-03    -11.9355E-03     21.4676E-03
            1956     7.11585E-03     26.1319E-03     1.87795E+06    -47.7793E+06     6.02988E+06     204.003E+03    -13.2139E-03     25.0769E-03    -11.8630E-03     17.9464E-03    -13.1448E-03     24.8274E-03    -11.7663E-03     17.9460E-03
            1957     6.22731E-03     26.1151E-03     1.03293E+06    -48.0348E+06     5.17733E+06     568.080E+03    -12.7142E-03     24.4239E-03    -11.7097E-03     14.9000E-03    -12.6475E-03     24.1753E-03    -11.6157E-03     14.9051E-03
            1958     5.33838E-03     26.1012E-03    -90.7515E+03    -47.9108E+06     4.26041E+06     656.323E+03    -12.2799E-03     23.8592E-03    -11.5793E-03     12.2116E-03    -12.2174E-03     23.6139E-03    -11.4884E-03     12.2184E-03
            1959     4.44906E-03     26.0898E-03    -888.673E+03    -48.2067E+06     3.04611E+06     846.078E+03    -11.9572E-03     23.4254E-03    -11.4682E-03     9.82587E-03    -11.8963E-03     23.1814E-03    -11.3818E-03     9.83554E-03
            1960     3.55965E-03     26.0808E-03    -1.60437E+06    -48.2982E+06     1.45479E+06     928.994E+03    -11.6930E-03     23.0646E-03    -11.3716E-03     7.64389E-03    -11.6332E-03     22.8234E-03    -11.2920E-03     7.65496E-03
            1961     2.66987E-03     26.0738E-03    -2.52787E+06    -49.0797E+06    -299.513E+03     879.670E+03    -11.4676E-03     22.7623E-03    -11.2946E-03     5.62704E-03    -11.4087E-03     22.5210E-03    -11.2213E-03     5.63775E-03
            1962     1.78005E-03     26.0690E-03    -3.30710E+06    -50.0240E+06    -1.88071E+06     743.845E+03    -11.3053E-03     22.5475E-03    -11.2422E-03     3.73521E-03    -11.2465E-03     22.3049E-03    -11.1743E-03     3.74440E-03
            1963     889.964E-06     26.0660E-03    -3.65096E+06    -51.1015E+06    -3.22442E+06     455.517E+03    -11.2397E-03     22.4395E-03    -11.1998E-03     1.98843E-03    -11.1789E-03     22.1942E-03    -11.1366E-03     1.99408E-03
            1964     16.8647E-03     25.7519E-03    -4.67627E+06     113.919E+06     2.30496E+06     482.768E+03    -22.1536E-03     36.1324E-03    -13.9787E-03     155.950E-03    -24.3361E-03     38.6973E-03    -14.1256E-03     157.584E-03
            1965     15.9689E-03     25.5985E-03    -6.16265E+06     68.6420E+06    -25.6842E+06     2.85172E+06    -21.0372E-03     34.7542E-03    -13.7170E-03     131.363E-03    -21.9545E-03     35.9679E-03    -13.9360E-03     131.618E-03
            1966     15.0934E-03     25.5008E-03    -1.22972E+06     31.7748E+06    -14.3542E+06    -362.521E+03    -21.1257E-03     34.6842E-03    -13.5585E-03     82.9157E-03    -21.3485E-03     35.0569E-03    -13.6746E-03     82.8612E-03
            1967     14.2091E-03     25.4420E-03     199.663E+03    -19.2482E+06    -16.0835E+06    -565.973E+03    -18.5586E-03     31.8778E-03    -13.3192E-03     60.3357E-03    -18.5682E-03     31.8665E-03    -13.3720E-03     60.2871E-03
            1968     13.3242E-03     25.3873E-03     2.58435E+06    -33.1216E+06    -9.61383E+06     517.610E+03    -17.7454E-03     30.8539E-03    -13.1085E-03     54.8035E-03    -17.7064E-03     30.7344E-03    -13.1123E-03     54.7777E-03
            1969     12.4389E-03     25.3372E-03     4.28692E+06    -29.7050E+06     747.214E+03     650.546E+03    -17.1388E-03     30.0343E-03    -12.8955E-03     47.4322E-03    -17.0946E-03     29.8977E-03    -12.8549E-03     47.4180E-03
            1970     11.5536E-03     25.2957E-03     4.24301E+06    -36.8781E+06    -694.226E+03     876.376E+03    -16.3373E-03     28.9802E-03    -12.6429E-03     39.6245E-03    -16.2717E-03     28.8008E-03    -12.5991E-03     39.6206E-03
            1971     10.6673E-03     25.2598E-03     3.86501E+06    -49.3022E+06    -982.719E+03     784.256E+03    -15.6447E-03     28.0582E-03    -12.4135E-03     33.9232E-03    -15.5582E-03     27.8133E-03    -12.3525E-03     33.9227E-03
            1972     9.78084E-03     25.2288E-03     3.44949E+06    -50.6893E+06     2.62868E+06     1.09203E+06    -14.9567E-03     27.1543E-03    -12.1976E-03     28.8857E-03    -14.8732E-03     26.8956E-03    -12.1160E-03     28.8923E-03
            1973     8.89362E-03     25.2022E-03     3.09072E+06    -46.6268E+06     5.23719E+06     1.27350E+06    -14.2495E-03     26.2330E-03    -11.9835E-03     24.4810E-03    -14.1761E-03     25.9898E-03    -11.8942E-03     24.4922E-03
            1974     8.00598E-03     25.1794E-03     2.53500E+06    -45.7122E+06     5.43182E+06     846.836E+03    -13.5905E-03     25.3726E-03    -11.7821E-03     20.6446E-03    -13.5207E-03     25.1338E-03    -11.6923E-03     20.6518E-03
            1975     7.11764E-03     25.1601E-03     1.54981E+06    -48.2467E+06     5.01455E+06     351.701E+03    -13.0013E-03     24.6070E-03    -11.6057E-03     17.2256E-03    -12.9317E-03     24.3570E-03    -11.5129E-03     17.2273E-03
            1976     6.22894E-03     25.1440E-03     1.02399E+06    -48.1903E+06     5.04094E+06     742.712E+03    -12.4753E-03     23.9266E-03    -11.4512E-03     14.2821E-03    -12.4081E-03     23.6773E-03    -11.3577E-03     14.2896E-03
            1977     5.33976E-03     25.1306E-03     536.564E+03    -47.7389E+06     4.13656E+06     867.220E+03    -12.0450E-03     23.3606E-03    -11.3156E-03     11.7210E-03    -11.9794E-03     23.1155E-03    -11.2265E-03     11.7306E-03
            1978     4.45032E-03     25.1196E-03    -246.113E+03    -48.2496E+06     3.14762E+06     852.610E+03    -11.7049E-03     22.9074E-03    -11.2025E-03     9.40453E-03    -11.6409E-03     22.6621E-03    -11.1164E-03     9.41437E-03
            1979     3.56051E-03     25.1109E-03    -1.00642E+06    -47.9761E+06     1.75728E+06     965.886E+03    -11.4308E-03     22.5355E-03    -11.1047E-03     7.29091E-03    -11.3689E-03     22.2946E-03    -11.0248E-03     7.30252E-03
            1980     2.67066E-03     25.1043E-03    -1.59760E+06    -48.7180E+06     314.866E+03     948.276E+03    -11.2115E-03     22.2378E-03    -11.0263E-03     5.35107E-03    -11.1493E-03     21.9961E-03    -10.9518E-03     5.36270E-03
            1981     1.78046E-03     25.0996E-03    -2.20275E+06    -49.2961E+06    -1.25110E+06     803.021E+03    -11.0470E-03     22.0151E-03    -10.9681E-03     3.55406E-03    -10.9847E-03     21.7736E-03    -10.8997E-03     3.56404E-03
            1982     890.332E-06     25.0968E-03    -2.81841E+06    -50.2021E+06    -2.55686E+06     444.983E+03    -10.9662E-03     21.8864E-03    -10.9202E-03     1.90337E-03    -10.9035E-03     21.6435E-03    -10.8561E-03     1.90890E-03
            1983     16.8488E-03     24.7686E-03    -6.75464E+06     115.657E+06    -3.42761E+06     1.58681E+06    -24.8003E-03     38.9404E-03    -14.1401E-03     151.414E-03    -26.9936E-03     41.5304E-03    -14.3151E-03     152.996E-03
            1984     15.9820E-03     24.6168E-03    -2.72893E+06     72.0720E+06    -29.7364E+06     88.3926E+03    -25.3738E-03     39.0500E-03    -13.6762E-03     128.294E-03    -26.3203E-03     40.3290E-03    -13.9254E-03     128.433E-03
            1985     15.0933E-03     24.5218E-03     2.06203E+06     29.9767E+06    -15.4436E+06    -251.258E+03    -20.0894E-03     33.5282E-03    -13.4389E-03     80.1218E-03    -20.2719E-03     33.8692E-03    -13.5625E-03     80.0761E-03
            1986     14.2095E-03     24.4640E-03     1.75913E+06    -18.3313E+06    -16.4136E+06     403.523E+03    -18.6901E-03     31.9080E-03    -13.2179E-03     58.6638E-03    -18.6905E-03     31.8971E-03    -13.2759E-03     58.6278E-03
            1987     13.3255E-03     24.4100E-03     2.39993E+06    -33.7993E+06    -10.0185E+06    -1.43619E+06    -18.2385E-03     31.2200E-03    -12.9814E-03     53.5054E-03    -18.1983E-03     31.0973E-03    -12.9860E-03     53.4536E-03
            1988     12.4412E-03     24.3607E-03     3.93587E+06    -31.1146E+06    -572.545E+03     254.536E+03    -17.3291E-03     30.0588E-03    -12.7296E-03     45.9048E-03    -17.2820E-03     29.9168E-03    -12.6931E-03     45.8856E-03
            1989     11.5556E-03     24.3203E-03     4.49438E+06    -36.8103E+06    -131.780E+03     1.46055E+06    -16.4238E-03     28.8819E-03    -12.4582E-03     38.2216E-03    -16.3574E-03     28.7013E-03    -12.4120E-03     38.2254E-03
            1990     10.6697E-03     24.2852E-03     4.19614E+06    -49.3643E+06    -732.540E+03     1.80410E+06    -15.6534E-03     27.8591E-03    -12.2058E-03     32.6488E-03    -15.5653E-03     27.6129E-03    -12.1439E-03     32.6616E-03
            1991     9.78301E-03     24.2550E-03     3.70650E+06    -50.4324E+06     2.22273E+06     1.66547E+06    -14.8757E-03     26.8447E-03    -11.9691E-03     27.7412E-03    -14.7905E-03     26.5873E-03    -11.8902E-03     27.7555E-03
            1992     8.89583E-03     24.2293E-03     3.34236E+06    -46.4859E+06     5.33301E+06     1.37305E+06    -14.1111E-03     25.8559E-03    -11.7448E-03     23.4851E-03    -14.0367E-03     25.6128E-03    -11.6556E-03     23.4977E-03
            1993     8.00790E-03     24.2073E-03     2.97821E+06    -44.8812E+06     5.79592E+06     1.18820E+06    -13.3913E-03     24.9261E-03    -11.5348E-03     19.8222E-03    -13.3209E-03     24.6902E-03    -11.4450E-03     19.8339E-03
            1994     7.11951E-03     24.1888E-03     2.46994E+06    -47.9494E+06     5.21376E+06     868.876E+03    -12.7733E-03     24.1262E-03    -11.3529E-03     16.5376E-03    -12.6997E-03     23.8761E-03    -11.2609E-03     16.5462E-03
            1995     6.23049E-03     24.1734E-03     1.63391E+06    -48.5181E+06     5.19962E+06     688.225E+03    -12.2573E-03     23.4525E-03    -11.1952E-03     13.6832E-03    -12.1868E-03     23.2004E-03    -11.1012E-03     13.6901E-03
            1996     5.34118E-03     24.1605E-03     1.02843E+06    -47.5130E+06     4.53127E+06     916.837E+03    -11.8305E-03     22.8836E-03    -11.0531E-03     11.1967E-03    -11.7634E-03     22.6382E-03    -10.9630E-03     11.2071E-03
            1997     4.45148E-03     24.1499E-03     411.338E+03    -48.2189E+06     3.41937E+06     1.00985E+06    -11.4649E-03     22.3970E-03    -10.9321E-03     8.94909E-03    -11.3980E-03     22.1505E-03    -10.8457E-03     8.96102E-03
            1998     3.56157E-03     24.1416E-03    -271.063E+03    -47.6296E+06     1.92522E+06     1.01781E+06    -11.1591E-03     21.9893E-03    -10.8302E-03     6.92143E-03    -11.0942E-03     21.7488E-03    -10.7511E-03     6.93376E-03
            1999     2.67130E-03     24.1352E-03    -820.813E+03    -48.2682E+06     418.655E+03     899.821E+03    -10.9454E-03     21.6957E-03    -10.7502E-03     5.06386E-03    -10.8802E-03     21.4549E-03    -10.6769E-03     5.07490E-03
            2000     1.78105E-03     24.1308E-03    -1.14159E+06    -48.7373E+06    -401.142E+03     838.941E+03    -10.7881E-03     21.4774E-03    -10.6893E-03     3.35517E-03    -10.7225E-03     21.2360E-03    -10.6190E-03     3.36562E-03
            2001     890.490E-06     24.1280E-03    -1.37884E+06    -49.0263E+06    -1.31171E+06     747.871E+03    -10.6881E-03     21.3216E-03    -10.6335E-03     1.79133E-03    -10.6216E-03     21.0806E-03    -10.5670E-03     1.80078E-03
            2002     16.8591E-03     23.7723E-03    -4.32328E+06     121.223E+06     13.3212E+06     568.764E+03    -26.5742E-03     40.7302E-03    -14.1560E-03     148.634E-03    -28.7743E-03     43.3069E-03    -14.2588E-03     150.047E-03
            2003     15.9751E-03     23.6359E-03    -2.40540E+06     66.5978E+06    -26.7574E+06    -2.99192E+06    -25.0208E-03     38.6041E-03    -13.5833E-03     121.961E-03    -25.9278E-03     39.8168E-03    -13.8101E-03     122.031E-03
            2004     15.0967E-03     23.5440E-03    -1.52316E+06     25.9242E+06    -18.4253E+06     505.073E+03    -20.2839E-03     33.5861E-03    -13.3023E-03     77.8728E-03    -20.4634E-03     33.9058E-03    -13.4298E-03     77.8333E-03
            2005     14.2120E-03     23.4858E-03     1.65262E+06    -13.7398E+06    -15.6546E+06     491.488E+03    -18.7851E-03     31.8459E-03    -13.0608E-03     57.2899E-03    -18.7923E-03     31.8556E-03    -13.1216E-03     57.2546E-03
            2006     13.3283E-03     23.4321E-03     2.34053E+06    -35.0636E+06    -10.3608E+06    -748.177E+03    -18.3931E-03     31.1984E-03    -12.8053E-03     51.5448E-03    -18.3499E-03     31.0691E-03    -12.8096E-03     51.5015E-03
            2007     12.4435E-03     23.3846E-03     1.49401E+06    -32.4928E+06    -3.37375E+06    -41.9925E+03    -17.3021E-03     29.8266E-03    -12.5245E-03     44.2955E-03    -17.2601E-03     29.6843E-03    -12.4964E-03     44.2729E-03
            2008     11.5583E-03     23.3448E-03     1.71616E+06    -38.2573E+06    -3.26039E+06     1.42169E+06    -16.3870E-03     28.6234E-03    -12.2364E-03     36.9675E-03    -16.3274E-03     28.4435E-03    -12.1997E-03     36.9711E-03
            2009     10.6722E-03     23.3110E-03     2.16548E+06    -48.9000E+06    -1.57923E+06     2.30228E+06    -15.5562E-03     27.5333E-03    -11.9770E-03     31.4783E-03    -15.4775E-03     27.2932E-03    -11.9171E-03     31.4980E-03
            2010     9.78548E-03     23.2817E-03     2.63986E+06    -49.4747E+06     2.16369E+06     1.52148E+06    -14.6898E-03     26.4221E-03    -11.7324E-03     26.7630E-03    -14.6110E-03     26.1709E-03    -11.6536E-03     26.7758E-03
            2011     8.89797E-03     23.2568E-03     3.16756E+06    -46.4286E+06     5.73766E+06     1.13511E+06    -13.8915E-03     25.3969E-03    -11.5055E-03     22.5669E-03    -13.8185E-03     25.1537E-03    -11.4140E-03     22.5768E-03
            2012     8.00993E-03     23.2358E-03     3.09127E+06    -44.6100E+06     6.35650E+06     1.28103E+06    -13.1617E-03     24.4542E-03    -11.2925E-03     18.9750E-03    -13.0919E-03     24.2186E-03    -11.2005E-03     18.9881E-03
            2013     7.12116E-03     23.2180E-03     2.64041E+06    -47.3116E+06     5.63472E+06     1.07682E+06    -12.5694E-03     23.6741E-03    -11.1047E-03     15.8165E-03    -12.4964E-03     23.4262E-03    -11.0118E-03     15.8279E-03
            2014     6.23213E-03     23.2031E-03     2.29150E+06    -48.5332E+06     5.49712E+06     879.150E+03    -12.0731E-03     23.0111E-03    -10.9380E-03     13.0307E-03    -11.9996E-03     22.7576E-03    -10.8435E-03     13.0402E-03
            2015     5.34260E-03     23.1908E-03     1.60656E+06    -47.6008E+06     4.79239E+06     1.02427E+06    -11.6111E-03     22.3977E-03    -10.7865E-03     10.6193E-03    -11.5413E-03     22.1507E-03    -10.6959E-03     10.6311E-03
            2016     4.45275E-03     23.1807E-03     822.540E+03    -47.9844E+06     3.73441E+06     1.21167E+06    -11.2151E-03     21.8743E-03    -10.6592E-03     8.46801E-03    -11.1470E-03     21.6279E-03    -10.5721E-03     8.48260E-03
            2017     3.56251E-03     23.1728E-03    -16.8556E+03    -47.3579E+06     1.96525E+06     1.26106E+06    -10.8966E-03     21.4482E-03    -10.5515E-03     6.55904E-03    -10.8309E-03     21.2086E-03    -10.4730E-03     6.57456E-03
            2018     2.67214E-03     23.1667E-03    -703.564E+03    -47.5069E+06     40.6701E+03     1.06693E+06    -10.6656E-03     21.1324E-03    -10.4668E-03     4.80510E-03    -10.6003E-03     20.8958E-03    -10.3966E-03     4.81834E-03
            2019     1.78147E-03     23.1624E-03    -1.09785E+06    -48.2824E+06    -573.667E+03     703.343E+03    -10.5056E-03     20.9134E-03    -10.4077E-03     3.16716E-03    -10.4402E-03     20.6744E-03    -10.3390E-03     3.17589E-03
            2020     890.849E-06     23.1598E-03    -1.18679E+06    -47.8433E+06    -691.338E+03     623.927E+03    -10.4124E-03     20.7619E-03    -10.3494E-03     1.69215E-03    -10.3477E-03     20.5257E-03    -10.2818E-03     1.70002E-03
            2021     16.8625E-03     22.7975E-03     3.91420E+06     122.677E+06     9.40331E+06     3.12494E+06    -27.3414E-03     41.2894E-03    -13.9480E-03     150.421E-03    -29.4481E-03     43.8184E-03    -14.0845E-03     151.797E-03
            2022     15.9822E-03     22.6501E-03     808.641E+03     66.3449E+06    -17.6568E+06    -879.674E+03    -24.1803E-03     37.6245E-03    -13.4442E-03     116.718E-03    -24.9994E-03     38.7334E-03    -13.6299E-03     116.780E-03
            2023     15.0986E-03     22.5669E-03     485.205E+03     25.1181E+06    -10.9323E+06    -2.21745E+06    -20.0476E-03     33.2149E-03    -13.1674E-03     74.7905E-03    -20.2153E-03     33.5052E-03    -13.2591E-03     74.7159E-03
            2024     14.2149E-03     22.5071E-03     2.22155E+06    -13.9589E+06    -12.3138E+06    -846.142E+03    -19.0231E-03     31.9137E-03    -12.8906E-03     57.2635E-03    -19.0316E-03     31.9162E-03    -12.9351E-03     57.2103E-03
            2025     13.3311E-03     22.4551E-03     3.28253E+06    -35.1739E+06     -8.6867E+06     871.753E+03    -18.3193E-03     30.9267E-03    -12.6074E-03     50.1376E-03    -18.2719E-03     30.7913E-03    -12.6046E-03     50.1160E-03
            2026     12.4464E-03     22.4085E-03     3.14189E+06    -32.9520E+06    -1.37965E+06     863.135E+03    -17.1630E-03     29.4819E-03    -12.3189E-03     43.1147E-03    -17.1139E-03     29.3310E-03    -12.2826E-03     43.1047E-03
            2027     11.5607E-03     22.3698E-03     2.79911E+06    -39.9456E+06    -1.85834E+06     1.52800E+06    -16.2453E-03     28.2688E-03    -12.0235E-03     35.9179E-03    -16.1794E-03     28.0764E-03    -11.9790E-03     35.9235E-03
            2028     10.6747E-03     22.3369E-03     3.19897E+06    -48.2244E+06     1.02514E+06     2.02191E+06    -15.3774E-03     27.1380E-03    -11.7606E-03     30.4426E-03    -15.2978E-03     26.8957E-03    -11.6902E-03     30.4591E-03
            2029     9.78767E-03     22.3088E-03     3.74127E+06    -47.8833E+06     4.24257E+06      985.85E+03    -14.5089E-03     26.0153E-03    -11.5064E-03     25.8155E-03    -14.4297E-03     25.7671E-03    -11.4212E-03     25.8217E-03
            2030     8.90009E-03     22.2848E-03     4.03207E+06    -46.9658E+06     6.42367E+06     545.021E+03    -13.7013E-03     24.9716E-03    -11.2704E-03     21.6475E-03    -13.6240E-03     24.7233E-03    -11.1760E-03     21.6500E-03
            2031     8.01178E-03     22.2647E-03     4.11960E+06    -44.7339E+06     7.60431E+06     1.23275E+06    -12.9909E-03     24.0432E-03    -11.0522E-03     18.0750E-03    -12.9176E-03     23.8036E-03    -10.9553E-03     18.0876E-03
            2032     7.12305E-03     22.2475E-03     3.74568E+06    -46.7096E+06     6.88650E+06     1.28310E+06    -12.3790E-03     23.2338E-03    -10.8547E-03     15.0128E-03    -12.3032E-03     22.9855E-03    -10.7580E-03     15.0269E-03
            2033     6.23374E-03     22.2333E-03     2.84743E+06    -48.4992E+06     5.65036E+06     1.21952E+06    -11.8455E-03     22.5230E-03    -10.6775E-03     12.3618E-03    -11.7695E-03     22.2686E-03    -10.5831E-03     12.3757E-03
            2034     5.34408E-03     22.2216E-03     1.94027E+06    -47.6386E+06     4.31993E+06     1.43696E+06    -11.3715E-03     21.8902E-03    -10.5187E-03     10.0707E-03    -11.2993E-03     21.6432E-03    -10.4308E-03     10.0879E-03
            2035     4.45393E-03     22.2120E-03     989.019E+03    -47.7314E+06     3.52751E+06     1.58046E+06    -10.9629E-03     21.3514E-03    -10.3886E-03     8.03496E-03    -10.8940E-03     21.1063E-03    -10.3031E-03     8.05438E-03
            2036     3.56354E-03     22.2044E-03     140.232E+03    -46.9431E+06     2.32938E+06     1.57453E+06    -10.6395E-03     20.9192E-03    -10.2796E-03     6.21885E-03    -10.5742E-03     20.6809E-03    -10.2001E-03     6.23846E-03
            2037     2.67282E-03     22.1987E-03    -557.917E+03    -46.5956E+06     540.481E+03     1.34668E+06    -10.3914E-03     20.5836E-03    -10.1921E-03     4.55533E-03    -10.3275E-03     20.3506E-03    -10.1210E-03     4.57222E-03
            2038     1.78203E-03     22.1946E-03    -1.03847E+06    -47.4199E+06    -953.020E+03     853.394E+03    -10.2183E-03     20.3501E-03    -10.1318E-03     2.99637E-03    -10.1533E-03     20.1159E-03    -10.0663E-03     3.00707E-03
            2039     890.974E-06     22.1922E-03    -1.20604E+06    -47.0283E+06    -1.32979E+06     291.378E+03    -10.1391E-03     20.2188E-03    -10.0797E-03     1.61684E-03    -10.0747E-03     19.9876E-03    -10.0164E-03     1.62043E-03
            2040     16.8592E-03     21.7999E-03     4.69238E+06     121.194E+06     4.75619E+06     357.407E+03    -28.8219E-03     42.6450E-03    -13.8231E-03     149.889E-03    -30.9390E-03     45.1953E-03    -13.9819E-03     151.171E-03
            2041     15.9864E-03     21.6735E-03     8.43685E+06     69.9629E+06    -19.9549E+06     2.93903E+06    -24.0575E-03     37.3248E-03    -13.2673E-03     112.353E-03    -24.7485E-03     38.3524E-03    -13.4808E-03     112.445E-03
            2042     15.1007E-03     21.5885E-03     7.45736E+06     25.9869E+06    -9.52955E+06    -231.996E+03    -19.7966E-03     32.8109E-03    -13.0143E-03     76.6927E-03    -19.9288E-03     33.0894E-03    -13.1104E-03     76.6481E-03
            2043     14.2175E-03     21.5284E-03     5.91323E+06    -17.5595E+06    -9.87454E+06    -313.115E+03    -19.5387E-03     32.2786E-03    -12.7398E-03     56.7670E-03    -19.5254E-03     32.2526E-03    -12.7723E-03     56.7198E-03
            2044     13.3338E-03     21.4781E-03     5.66121E+06    -35.2488E+06    -5.27891E+06     1.84519E+06    -18.2825E-03     30.7144E-03    -12.4320E-03     49.0912E-03    -18.2258E-03     30.5681E-03    -12.4155E-03     49.0835E-03
            2045     12.4488E-03     21.4328E-03     5.08839E+06    -32.5813E+06     2.89018E+06     1.80281E+06    -17.1054E-03     29.2420E-03    -12.1366E-03     42.2678E-03    -17.0525E-03     29.0832E-03    -12.0823E-03     42.2707E-03
            2046     11.5634E-03     21.3951E-03     5.51146E+06    -40.2201E+06     939.608E+03     1.36935E+06    -16.1201E-03     27.9448E-03    -11.8247E-03     35.0433E-03    -16.0436E-03     27.7424E-03    -11.7697E-03     35.0476E-03
            2047     10.6769E-03     21.3634E-03     6.98420E+06    -47.7319E+06     2.98893E+06     973.085E+03    -15.2565E-03     26.8042E-03    -11.5477E-03     29.5207E-03    -15.1613E-03     26.5557E-03    -11.4737E-03     29.5242E-03
            2048     9.78994E-03     21.3360E-03     7.93054E+06    -47.1214E+06     6.80550E+06     1.02802E+06    -14.3956E-03     25.6822E-03    -11.2866E-03     24.7818E-03    -14.3002E-03     25.4279E-03    -11.1958E-03     24.7888E-03
            2049     8.90217E-03     21.3133E-03     7.10817E+06    -47.1987E+06     8.49132E+06     1.14552E+06    -13.5736E-03     24.6145E-03    -11.0409E-03     20.6678E-03    -13.4835E-03     24.3575E-03    -10.9404E-03     20.6782E-03
            2050     8.01386E-03     21.2938E-03     6.05511E+06    -45.1132E+06     8.66331E+06     1.24659E+06    -12.8359E-03     23.6453E-03    -10.8094E-03     17.2152E-03    -12.7537E-03     23.3993E-03    -10.7094E-03     17.2282E-03
            2051     7.12491E-03     21.2776E-03     5.22966E+06    -46.7424E+06     7.16054E+06     1.94453E+06    -12.1748E-03     22.7749E-03    -10.6001E-03     14.2507E-03    -12.0919E-03     22.5239E-03    -10.5041E-03     14.2735E-03
            2052     6.23538E-03     21.2640E-03     3.89462E+06    -48.2247E+06      6.1961E+06     2.28630E+06    -11.5837E-03     22.0055E-03    -10.4218E-03     11.7256E-03    -11.5036E-03     21.7501E-03    -10.3266E-03     11.7534E-03
            2053     5.34537E-03     21.2529E-03     2.45891E+06    -47.3546E+06     4.46958E+06     2.15315E+06    -11.1073E-03     21.3702E-03    -10.2629E-03     9.53970E-03    -11.0331E-03     21.1236E-03    -10.1754E-03     9.56625E-03
            2054     4.45510E-03     21.2438E-03     1.46709E+06    -47.3323E+06     3.64811E+06     2.04883E+06    -10.7231E-03     20.8546E-03    -10.1315E-03     7.61088E-03    -10.6526E-03     20.6107E-03    -10.0468E-03     7.63641E-03
            2055     3.56443E-03     21.2367E-03     613.504E+03    -46.2545E+06     2.68902E+06     1.86563E+06    -10.3934E-03     20.4134E-03    -10.0200E-03     5.88505E-03    -10.3272E-03     20.1774E-03    -9.94038E-03     5.90847E-03
            2056     2.67359E-03     21.2312E-03    -165.345E+03    -45.7072E+06     1.37408E+06     1.60623E+06    -10.1309E-03     20.0635E-03    -9.93257E-03     4.30062E-03    -10.0674E-03     19.8332E-03    -9.85919E-03     4.32089E-03
            2057     1.78244E-03     21.2274E-03    -812.862E+03    -46.1884E+06    -338.864E+03     1.19656E+06    -9.95186E-03     19.8232E-03    -9.87135E-03     2.83676E-03    -9.88841E-03     19.5939E-03    -9.80490E-03     2.85191E-03
            2058     891.292E-06     21.2251E-03    -1.25393E+06    -46.0496E+06    -1.50467E+06     657.636E+03    -9.87592E-03     19.6938E-03    -9.81788E-03     1.54243E-03    -9.81292E-03     19.4678E-03    -9.75682E-03     1.55076E-03
            2059     16.8683E-03     20.8067E-03    -800.013E+03     117.083E+06     15.6713E+06    -4.21492E+06    -26.9158E-03     40.6905E-03    -13.7747E-03     143.944E-03    -28.9416E-03     43.0846E-03    -13.8649E-03     145.102E-03
            2060     15.9838E-03     20.6983E-03    -1.32644E+06     66.3986E+06    -25.4277E+06     104.000E+03    -22.3065E-03     35.5296E-03    -13.2231E-03     111.180E-03    -22.9710E-03     36.4990E-03    -13.4446E-03     111.275E-03
            2061     15.1010E-03     20.6071E-03    -1.21045E+06     30.2043E+06    -17.3108E+06     2.49693E+06    -21.8223E-03     34.7520E-03    -12.9297E-03     77.7915E-03    -22.0016E-03     35.0844E-03    -13.0583E-03     77.7697E-03
            2062     14.2197E-03     20.5502E-03    -243.328E+03    -18.2017E+06    -15.8494E+06     207.136E+03    -19.8520E-03     32.4444E-03    -12.5924E-03     55.1616E-03    -19.8560E-03     32.4290E-03    -12.6449E-03     55.1213E-03
            2063     13.3356E-03     20.5014E-03     1.99306E+06    -36.3297E+06    -11.1048E+06     173.924E+03    -18.3328E-03     30.5920E-03    -12.2593E-03     48.4553E-03    -18.2828E-03     30.4524E-03    -12.2650E-03     48.4271E-03
            2064     12.4512E-03     20.4570E-03     5.20252E+06    -32.9166E+06     1.52727E+06     1.42231E+06    -17.2120E-03     29.1740E-03    -11.9620E-03     41.3677E-03    -17.1553E-03     29.0145E-03    -11.9142E-03     41.3661E-03
            2065     11.5653E-03     20.4209E-03     5.82795E+06    -38.9225E+06     643.064E+03     1.25982E+06    -16.1264E-03     27.7611E-03    -11.6346E-03     34.1502E-03    -16.0493E-03     27.5646E-03    -11.5834E-03     34.1537E-03
            2066     10.6791E-03     20.3898E-03     5.76203E+06    -47.4495E+06     914.314E+03     362.804E+03    -15.2183E-03     26.5552E-03    -11.3370E-03     28.5808E-03    -15.1262E-03     26.3126E-03    -11.2719E-03     28.5768E-03
            2067     9.79204E-03     20.3639E-03     5.93859E+06    -47.8875E+06     4.55757E+06     871.428E+03    -14.3069E-03     25.3705E-03    -11.0636E-03     23.7937E-03    -14.2168E-03     25.1183E-03    -10.9800E-03     23.7989E-03
            2068     8.90429E-03     20.3418E-03     6.63145E+06    -46.9311E+06     6.64893E+06     1.44627E+06    -13.4453E-03     24.2496E-03    -10.8043E-03     19.7658E-03    -13.3552E-03     23.9972E-03    -10.7126E-03     19.7803E-03
            2069     8.01575E-03     20.3236E-03     6.46473E+06    -45.7273E+06     7.84372E+06     1.96734E+06    -12.6501E-03     23.2196E-03    -10.5695E-03     16.4019E-03    -12.5637E-03     22.9711E-03    -10.4734E-03     16.4243E-03
            2070     7.12658E-03     20.3080E-03     5.54047E+06    -47.0700E+06     6.81895E+06     2.67082E+06    -11.9619E-03     22.3194E-03    -10.3576E-03     13.5313E-03    -11.8763E-03     22.0667E-03    -10.2633E-03     13.5636E-03
            2071     6.23693E-03     20.2953E-03     4.93409E+06    -47.9795E+06     7.23389E+06     3.11635E+06    -11.3629E-03     21.5436E-03    -10.1807E-03     11.0863E-03    -11.2795E-03     21.2864E-03    -10.0821E-03     11.1250E-03
            2072     5.34673E-03     20.2846E-03     4.12532E+06    -46.4558E+06     6.43013E+06     3.06882E+06    -10.8549E-03     20.8785E-03    -10.0235E-03     9.01129E-03    -10.7765E-03     20.6311E-03    -9.93001E-03     9.04973E-03
            2073     4.45615E-03     20.2761E-03     3.07801E+06    -46.5315E+06     4.95354E+06     2.54832E+06    -10.4724E-03     20.3633E-03    -9.89089E-03     7.18365E-03    -10.3968E-03     20.1191E-03    -9.80312E-03     7.21569E-03
            2074     3.56534E-03     20.2693E-03     2.31726E+06    -45.4145E+06     4.00161E+06     2.17760E+06    -10.1545E-03     19.9349E-03    -9.78039E-03     5.54858E-03    -10.0829E-03     19.6987E-03    -9.69790E-03     5.57607E-03
            2075     2.67419E-03     20.2642E-03     1.56322E+06    -44.7962E+06     3.01203E+06     1.91789E+06    -9.89436E-03     19.5886E-03    -9.69428E-03     4.05893E-03    -9.82595E-03     19.3580E-03    -9.61653E-03     4.08325E-03
            2076     1.78292E-03     20.2606E-03     692.812E+03    -44.8075E+06     1.93271E+06     1.56413E+06    -9.72003E-03     19.3526E-03    -9.63257E-03     2.68549E-03    -9.65435E-03     19.1247E-03    -9.55894E-03     2.70541E-03
            2077     891.454E-06     20.2584E-03    -124.856E+03    -44.4900E+06     484.745E+03     953.057E+03    -9.63784E-03     19.2023E-03    -9.56449E-03     1.45310E-03    -9.57433E-03     18.9796E-03    -9.49738E-03     1.46525E-03
            2078     16.8700E-03     19.8428E-03    -5.12296E+06     114.603E+06     6.14920E+06    -926.486E+03    -25.5455E-03     39.2918E-03    -13.7463E-03     141.526E-03    -27.4249E-03     41.5428E-03    -13.8743E-03     142.722E-03
            2079     15.9787E-03     19.7126E-03    -7.56833E+06     68.3758E+06    -26.8370E+06    -721.368E+03    -23.8377E-03     37.0642E-03    -13.2265E-03     113.367E-03    -24.5461E-03     38.0662E-03    -13.4489E-03     113.432E-03
            2080     15.1035E-03     19.6246E-03    -4.64941E+06     31.9859E+06    -16.9242E+06    -595.764E+03    -22.7128E-03     35.5797E-03    -12.8669E-03     73.0797E-03    -22.9053E-03     35.9185E-03    -12.9912E-03     73.0108E-03
            2081     14.2207E-03     19.5728E-03    -2.47372E+06    -17.0571E+06    -18.7696E+06    -502.419E+03    -19.7659E-03     32.2416E-03    -12.4757E-03     53.1494E-03    -19.7745E-03     32.2354E-03    -12.5413E-03     53.1019E-03
            2082     13.3371E-03     19.5239E-03    -769.039E+03    -36.6804E+06    -15.4037E+06    -1.63393E+06    -18.5761E-03     30.6992E-03    -12.1231E-03     47.4652E-03    -18.5319E-03     30.5667E-03    -12.1458E-03     47.4141E-03
            2083     12.4526E-03     19.4817E-03     412.940E+03    -35.2204E+06    -4.76591E+06    -539.763E+03    -17.4271E-03     29.2215E-03    -11.7944E-03     39.9816E-03    -17.3811E-03     29.0658E-03    -11.7678E-03     39.9551E-03
            2084     11.5675E-03     19.4464E-03     2.48777E+06    -37.7918E+06    -2.73231E+06     669.866E+03    -16.2265E-03     27.6750E-03    -11.4484E-03     32.8269E-03    -16.1624E-03     27.4935E-03    -11.4109E-03     32.8230E-03
            2085     10.6811E-03     19.4168E-03     3.65576E+06    -47.2360E+06    -2.02482E+06     524.983E+03    -15.1750E-03     26.3086E-03    -11.1336E-03     27.3974E-03    -15.0893E-03     26.0740E-03    -11.0805E-03     27.3958E-03
            2086     9.79405E-03     19.3917E-03     4.35675E+06    -48.3441E+06     928.375E+03     325.269E+03    -14.2173E-03     25.0612E-03    -10.8440E-03     22.7076E-03    -14.1290E-03     24.8142E-03    -10.7756E-03     22.7061E-03
            2087     8.90613E-03     19.3710E-03     4.84654E+06    -47.5565E+06     4.35434E+06     876.101E+03    -13.2995E-03     23.8814E-03    -10.5819E-03     18.7744E-03    -13.2140E-03     23.6317E-03    -10.4982E-03     18.7817E-03
            2088     8.01753E-03     19.3534E-03     5.10712E+06    -46.7583E+06     7.04075E+06     2.21664E+06    -12.4611E-03     22.8091E-03    -10.3480E-03     15.5112E-03    -12.3788E-03     22.5585E-03    -10.2524E-03     15.5369E-03
            2089     7.12822E-03     19.3390E-03     5.09834E+06    -46.9309E+06     7.24914E+06     2.97324E+06    -11.7461E-03     21.8819E-03    -10.1358E-03     12.7891E-03    -11.6636E-03     21.6298E-03    -10.0389E-03     12.8254E-03
            2090     6.23832E-03     19.3268E-03     4.96753E+06    -47.7275E+06     7.29703E+06     2.99278E+06    -11.1551E-03     21.1087E-03    -9.95357E-03     10.4890E-03    -11.0719E-03     20.8525E-03    -9.85508E-03     10.5261E-03
            2091     5.34800E-03     19.3170E-03     4.91493E+06    -45.9393E+06     7.70964E+06     3.30318E+06    -10.6440E-03     20.4417E-03    -9.79772E-03     8.51761E-03    -10.5642E-03     20.1939E-03    -9.69969E-03     8.55915E-03
            2092     4.45720E-03     19.3088E-03     4.48511E+06    -44.9949E+06     6.40867E+06     3.09388E+06    -10.2239E-03     19.8878E-03    -9.66389E-03     6.78404E-03    -10.1456E-03     19.6471E-03    -9.57311E-03     6.82318E-03
            2093     3.56610E-03     19.3025E-03     3.82406E+06    -44.5494E+06     5.18637E+06     2.37286E+06    -9.91311E-03     19.4704E-03    -9.55730E-03     5.22038E-03    -9.83695E-03     19.2346E-03    -9.47232E-03     5.25043E-03
            2094     2.67481E-03     19.2976E-03     3.41030E+06    -43.7525E+06     4.66882E+06     2.10619E+06    -9.67952E-03     19.1541E-03    -9.47454E-03     3.81598E-03    -9.60579E-03     18.9236E-03    -9.39270E-03     3.84276E-03
            2095     1.78329E-03     19.2943E-03     2.97616E+06    -43.2886E+06     4.05438E+06     1.67232E+06    -9.50928E-03     18.9198E-03    -9.41053E-03     2.52930E-03    -9.43746E-03     18.6932E-03    -9.33181E-03     2.55063E-03
            2096     891.731E-06     19.2922E-03     2.63286E+06    -42.6489E+06     3.06500E+06     918.037E+03    -9.40832E-03     18.7564E-03    -9.34807E-03     1.35810E-03    -9.33744E-03     18.5352E-03    -9.27472E-03     1.36980E-03
            2097     16.8545E-03     18.8582E-03    -6.97028E+06     118.734E+06     3.27992E+06     838.722E+03    -28.2717E-03     42.1324E-03    -13.8607E-03     138.000E-03    -30.1517E-03     44.3996E-03    -14.0063E-03     139.135E-03
            2098     15.9890E-03     18.7263E-03    -2.22013E+06     72.0679E+06    -29.3548E+06    -100.683E+03    -27.1030E-03     40.2660E-03    -13.1630E-03     109.928E-03    -27.7935E-03     41.2898E-03    -13.4111E-03     109.938E-03
            2099     15.1047E-03     18.6460E-03     1.69139E+06     28.1119E+06    -17.8748E+06    -1.86232E+06    -21.8119E-03     34.5584E-03    -12.7466E-03     70.3001E-03    -21.9483E-03     34.8525E-03    -12.8792E-03     70.2224E-03
            2100     14.2218E-03     18.5937E-03     2.30869E+06    -15.8955E+06    -16.8980E+06     2.70919E+03    -20.0097E-03     32.3836E-03    -12.3740E-03     51.3315E-03    -19.9963E-03     32.3711E-03    -12.4387E-03     51.2906E-03
            2101     13.3387E-03     18.5472E-03     1.85479E+06    -36.6836E+06    -12.4530E+06    -303.986E+03    -18.9064E-03     30.9098E-03    -12.0034E-03     45.3849E-03    -18.8520E-03     30.7679E-03    -12.0151E-03     45.3509E-03
            2102     12.4547E-03     18.5054E-03     1.27923E+06    -35.9209E+06    -5.35746E+06    -778.632E+03    -17.5381E-03     29.1713E-03    -11.6331E-03     37.9789E-03    -17.4851E-03     29.0108E-03    -11.6097E-03     37.9496E-03
            2103     11.5694E-03     18.4723E-03     1.35148E+06    -38.6275E+06    -4.95561E+06    -590.531E+03    -16.2436E-03     27.5064E-03    -11.2628E-03     31.1487E-03    -16.1804E-03     27.3252E-03    -11.2335E-03     31.1289E-03
            2104     10.6832E-03     18.4438E-03     2.56832E+06    -46.8966E+06    -3.14962E+06     18.4317E+03    -15.0974E-03     26.0348E-03    -10.9373E-03     25.9893E-03    -15.0157E-03     25.8049E-03    -10.8888E-03     25.9815E-03
            2105     9.79596E-03     18.4201E-03     3.38879E+06    -48.3556E+06     445.006E+03    -13.1420E+03    -14.0614E-03     24.7041E-03    -10.6427E-03     21.4818E-03    -13.9771E-03     24.4589E-03    -10.5753E-03     21.4762E-03
            2106     8.90802E-03     18.4003E-03     3.58159E+06    -48.8771E+06     4.93681E+06     686.030E+03    -13.1133E-03     23.4971E-03    -10.3838E-03     17.6625E-03    -13.0330E-03     23.2417E-03    -10.2934E-03     17.6674E-03
            2107     8.01919E-03     18.3840E-03     3.49623E+06    -47.7467E+06     6.81327E+06     1.77115E+06    -12.2453E-03     22.3893E-03    -10.1440E-03     14.6248E-03    -12.1693E-03     22.1364E-03    -10.0457E-03     14.6450E-03
            2108     7.12970E-03     18.3702E-03     3.65449E+06    -46.9046E+06     6.69654E+06     2.50669E+06    -11.5327E-03     21.4606E-03    -9.92788E-03     12.0772E-03    -11.4566E-03     21.2115E-03    -9.83169E-03     12.1077E-03
            2109     6.23961E-03     18.3590E-03     3.82256E+06    -47.0969E+06     6.58983E+06     2.63163E+06    -10.9460E-03     20.6888E-03    -9.74278E-03     9.89627E-03    -10.8684E-03     20.4385E-03    -9.64708E-03     9.92884E-03
            2110     5.34907E-03     18.3495E-03     3.95425E+06    -45.9560E+06     6.88336E+06     2.63097E+06    -10.4491E-03     20.0338E-03    -9.58472E-03     8.01134E-03    -10.3728E-03     19.7885E-03    -9.48940E-03     8.04428E-03
            2111     4.45817E-03     18.3421E-03     4.27867E+06    -43.7932E+06     6.95362E+06     2.87625E+06    -10.0200E-03     19.4716E-03    -9.45169E-03     6.36484E-03    -9.94522E-03     19.2365E-03    -9.35963E-03     6.40122E-03
            2112     3.56686E-03     18.3360E-03     4.24445E+06    -43.2371E+06     5.66988E+06     2.49506E+06    -9.69140E-03     19.0344E-03    -9.34305E-03     4.88970E-03    -9.61573E-03     18.8039E-03    -9.25816E-03     4.92137E-03
            2113     2.67535E-03     18.3316E-03     4.03921E+06    -42.7034E+06     4.99868E+06     1.87380E+06    -9.46408E-03     18.7250E-03    -9.26093E-03     3.56142E-03    -9.38920E-03     18.4984E-03    -9.17987E-03     3.58523E-03
            2114     1.78369E-03     18.3283E-03     4.16787E+06    -41.7612E+06     4.67273E+06     1.40570E+06    -9.29611E-03     18.4947E-03    -9.19857E-03     2.35558E-03    -9.22144E-03     18.2730E-03    -9.12069E-03     2.37348E-03
            2115     891.849E-06     18.3265E-03     4.28998E+06    -40.9617E+06     4.33532E+06     817.621E+03    -9.19393E-03     18.3419E-03    -9.14798E-03     1.24014E-03    -9.11906E-03     18.1249E-03    -9.07313E-03     1.25056E-03
            2116     16.8650E-03     17.8558E-03    -4.03348E+06     123.259E+06     16.4972E+06     91.7283E+03    -29.6761E-03     43.5357E-03    -13.8596E-03     133.731E-03    -31.5414E-03     45.7767E-03    -13.9500E-03     134.713E-03
            2117     15.9848E-03     17.7468E-03    -4.16901E+06     66.9046E+06    -26.7014E+06    -3.17632E+06    -26.5275E-03     39.6143E-03    -13.0868E-03     102.562E-03    -27.1819E-03     40.5693E-03    -13.3113E-03     102.516E-03
            2118     15.1050E-03     17.6644E-03    -3.07601E+06     25.0705E+06    -19.9376E+06    -287.390E+03    -22.1248E-03     34.7584E-03    -12.6335E-03     67.5729E-03    -22.2684E-03     35.0379E-03    -12.7651E-03     67.5134E-03
            2119     14.2240E-03     17.6155E-03    -1.61987E+06    -14.6290E+06    -17.2785E+06    -319.361E+03    -20.2810E-03     32.5118E-03    -12.2308E-03     48.6536E-03    -20.2860E-03     32.5093E-03    -12.2936E-03     48.6081E-03
            2120     13.3412E-03     17.5690E-03     1.03640E+06    -37.1122E+06    -11.5211E+06    -764.878E+03    -18.9640E-03     30.8034E-03    -11.8395E-03     42.9945E-03    -18.9128E-03     30.6577E-03    -11.8448E-03     42.9548E-03
            2121     12.4571E-03     17.5305E-03     3.17185E+06    -35.3155E+06    -2.14255E+06    -532.187E+03    -17.4101E-03     28.8727E-03    -11.4625E-03     35.9855E-03    -17.3521E-03     28.7068E-03    -11.4266E-03     35.9601E-03
            2122     11.5716E-03     17.4978E-03     3.74674E+06    -39.5656E+06    -1.34992E+06    -434.669E+03    -16.1017E-03     27.1916E-03    -11.0900E-03     29.4795E-03    -16.0298E-03     26.9966E-03    -11.0448E-03     29.4622E-03
            2123     10.6853E-03     17.4714E-03     3.48659E+06    -46.8717E+06     530.291E+03    -185.877E+03    -14.9380E-03     25.6989E-03    -10.7610E-03     24.5355E-03    -14.8568E-03     25.4622E-03    -10.6954E-03     24.5253E-03
            2124     9.79797E-03     17.4485E-03     3.51984E+06    -48.3727E+06     3.03459E+06    -191.360E+03    -13.8341E-03     24.2948E-03    -10.4607E-03     20.3171E-03    -13.7527E-03     24.0454E-03    -10.3805E-03     20.3094E-03
            2125     8.90974E-03     17.4302E-03      3.7825E+06    -50.1370E+06     5.56032E+06     351.928E+03    -12.8817E-03     23.0777E-03    -10.1960E-03     16.6539E-03    -12.7993E-03     22.8147E-03    -10.1010E-03     16.6548E-03
            2126     8.02072E-03     17.4147E-03     3.92279E+06    -48.5845E+06     7.66143E+06     1.39700E+06    -12.0563E-03     22.0139E-03    -9.95760E-03     13.7452E-03    -11.9781E-03     21.7549E-03    -9.85453E-03     13.7606E-03
            2127     7.13100E-03     17.4020E-03     3.82006E+06    -47.0020E+06     7.06150E+06     1.98677E+06    -11.3579E-03     21.0945E-03    -9.73668E-03     11.3057E-03    -11.2813E-03     20.8442E-03    -9.63876E-03     11.3295E-03
            2128     6.24083E-03     17.3912E-03     3.80777E+06    -46.6188E+06     6.73137E+06     2.12982E+06    -10.7686E-03     20.3155E-03    -9.54687E-03     9.20683E-03    -10.6920E-03     20.0673E-03    -9.45114E-03     9.23300E-03
            2129     5.35013E-03     17.3826E-03     3.89902E+06    -45.4816E+06     6.44248E+06     1.96337E+06    -10.2590E-03     19.6424E-03    -9.38342E-03     7.42834E-03    -10.1830E-03     19.4001E-03    -9.29091E-03     7.45272E-03
            2130     4.45902E-03     17.3755E-03     4.01193E+06    -43.5948E+06     7.05214E+06     1.95377E+06    -9.84025E-03     19.0906E-03    -9.25033E-03     5.89188E-03    -9.76728E-03     18.8566E-03    -9.15767E-03     5.91640E-03
            2131     3.56763E-03     17.3701E-03     4.22406E+06    -42.0179E+06     6.34247E+06     2.12564E+06    -9.50443E-03     18.6416E-03    -9.13713E-03     4.52892E-03    -9.43160E-03     18.4162E-03    -9.05062E-03     4.55586E-03
            2132     2.67592E-03     17.3657E-03     4.33086E+06    -41.4311E+06     4.80448E+06     1.62099E+06    -9.24890E-03     18.2968E-03    -9.04791E-03     3.28872E-03    -9.17412E-03     18.0764E-03    -8.97009E-03     3.30930E-03
            2133     1.78403E-03     17.3629E-03     4.39155E+06    -40.5438E+06     4.61673E+06     996.370E+03    -9.07730E-03     18.0675E-03    -8.99023E-03     2.16974E-03    -9.00319E-03     17.8517E-03    -8.91472E-03     2.18237E-03
            2134     892.067E-06     17.3610E-03     4.63497E+06    -39.6643E+06     4.72713E+06     596.566E+03    -9.00070E-03     17.9348E-03    -8.93406E-03     1.13844E-03    -8.92655E-03     17.7231E-03    -8.85963E-03     1.14602E-03
            2135     16.8673E-03     16.8770E-03     5.14060E+06     124.223E+06     16.9336E+06     3.13741E+06    -29.2474E-03     42.9130E-03    -13.6655E-03     132.100E-03    -30.9655E-03     45.0414E-03    -13.7684E-03     133.056E-03
            2136     15.9884E-03     16.7591E-03    -1.57897E+06     66.6783E+06    -16.0807E+06    -224.421E+03    -25.5249E-03     38.5053E-03    -12.9804E-03     97.8211E-03    -26.1219E-03     39.3802E-03    -13.1552E-03     97.8083E-03
            2137     15.1100E-03     16.6857E-03    -4.38487E+06     25.3704E+06    -12.3346E+06    -1.97765E+06    -22.4219E-03     34.9390E-03    -12.5171E-03     63.8944E-03    -22.5746E-03     35.2021E-03    -12.6092E-03     63.8105E-03
            2138     14.2269E-03     16.6355E-03    -755.871E+03    -14.3799E+06    -12.7397E+06    -2.23608E+06    -20.1827E-03     32.2571E-03    -12.0745E-03     47.0553E-03    -20.1873E-03     32.2450E-03    -12.1162E-03     46.9862E-03
            2139     13.3440E-03     16.5929E-03     870.308E+03    -37.4293E+06    -10.4827E+06    -1.76901E+06    -18.7394E-03     30.4039E-03    -11.6645E-03     41.3430E-03    -18.6882E-03     30.2534E-03    -11.6639E-03     41.2918E-03
            2140     12.4593E-03     16.5546E-03     1.37075E+06    -36.0138E+06    -1.55805E+06    -1.31776E+06    -17.2173E-03     28.5050E-03    -11.2877E-03     34.5333E-03    -17.1672E-03     28.3364E-03    -11.2452E-03     34.4987E-03
            2141     11.5740E-03     16.5246E-03     2.24127E+06    -39.8573E+06    -1.25788E+06    -603.794E+03    -15.8776E-03     26.7890E-03    -10.9115E-03     28.2116E-03    -15.8124E-03     26.5940E-03    -10.8632E-03     28.1928E-03
            2142     10.6872E-03     16.4987E-03     3.30641E+06    -47.1159E+06     743.441E+03    -372.666E+03    -14.7211E-03     25.3037E-03    -10.5827E-03     23.3665E-03    -14.6404E-03     25.0654E-03    -10.5154E-03     23.3544E-03
            2143     9.79977E-03     16.4779E-03     3.65092E+06    -48.4239E+06     2.97168E+06    -137.817E+03    -13.6474E-03     23.9285E-03    -10.2811E-03     19.1839E-03    -13.5650E-03     23.6786E-03    -10.2013E-03     19.1772E-03
            2144     8.91121E-03     16.4602E-03     3.64512E+06    -50.6812E+06     5.02630E+06    -136.266E+03    -12.7191E-03     22.7329E-03    -10.0138E-03     15.6103E-03    -12.6358E-03     22.4680E-03    -9.92042E-03     15.6051E-03
            2145     8.02212E-03     16.4460E-03     4.16694E+06    -49.8826E+06     7.95404E+06     588.181E+03    -11.9309E-03     21.7061E-03    -9.77521E-03     12.7131E-03    -11.8498E-03     21.4397E-03    -9.66915E-03     12.7183E-03
            2146     7.13239E-03     16.4338E-03     4.52229E+06    -47.1405E+06     8.15009E+06     1.63764E+06    -11.2160E-03     20.7650E-03    -9.54903E-03     10.3723E-03    -11.1372E-03     20.5113E-03    -9.44648E-03     10.3917E-03
            2147     6.24202E-03     16.4241E-03     4.30215E+06    -46.2377E+06     7.55026E+06     1.81428E+06    -10.5957E-03     19.9478E-03    -9.35209E-03     8.39086E-03    -10.5183E-03     19.6997E-03    -9.25354E-03     8.41304E-03
            2148     5.35119E-03     16.4159E-03     4.01654E+06    -44.7778E+06     6.60279E+06     1.55735E+06    -10.0745E-03     19.2563E-03    -9.18178E-03     6.74266E-03    -9.99921E-03     19.0171E-03    -9.08966E-03     6.76186E-03
            2149     4.45993E-03     16.4095E-03     3.83564E+06    -43.3750E+06     6.57074E+06     1.31261E+06    -9.64972E-03     18.6930E-03    -9.04332E-03     5.34633E-03    -9.57723E-03     18.4611E-03    -8.95314E-03     5.36263E-03
            2150     3.56832E-03     16.4042E-03     3.78256E+06    -41.5872E+06     6.40357E+06     1.31309E+06    -9.31114E-03     18.2400E-03    -8.92890E-03     4.09293E-03    -9.24123E-03     18.0174E-03    -8.84207E-03     4.10942E-03
            2151     2.67650E-03     16.4005E-03     3.91408E+06    -40.2553E+06     4.99463E+06     1.29120E+06    -9.04515E-03     17.8796E-03    -8.83445E-03     2.97468E-03    -8.97444E-03     17.6654E-03    -8.75678E-03     2.99103E-03
            2152     1.78441E-03     16.3976E-03     4.04762E+06    -39.5033E+06     4.12616E+06     777.100E+03    -8.86437E-03     17.6336E-03    -8.76926E-03     1.95628E-03    -8.79278E-03     17.4242E-03    -8.69722E-03     1.96611E-03
            2153     892.226E-06     16.3961E-03     4.16696E+06    -38.8116E+06     4.22995E+06     274.816E+03    -8.77420E-03     17.4901E-03    -8.71590E-03     1.02074E-03    -8.70292E-03     17.2841E-03    -8.64451E-03     1.02417E-03
            2154     16.8678E-03     15.8855E-03     1.92146E+06     121.392E+06     10.7019E+06     1.66341E+06    -29.9465E-03     43.5055E-03    -13.5589E-03     131.013E-03    -31.6041E-03     45.5699E-03    -13.6842E-03     131.878E-03
            2155     15.9926E-03     15.7784E-03     5.15297E+06     72.2750E+06    -17.2482E+06     4.04051E+06    -26.1803E-03     39.0101E-03    -12.8298E-03     95.8184E-03    -26.7085E-03     39.8634E-03    -13.0283E-03     95.8475E-03
            2156     15.1097E-03     15.7034E-03     5.26311E+06     28.3587E+06    -10.2634E+06    -614.912E+03    -22.1901E-03     34.5528E-03    -12.3627E-03     62.4443E-03    -22.2911E-03     34.8030E-03    -12.4628E-03     62.3813E-03
            2157     14.2293E-03     15.6582E-03     2.80000E+06    -15.7142E+06    -11.3539E+06    -2.26204E+06    -20.1230E-03     32.0546E-03    -11.9316E-03     45.7971E-03    -20.1066E-03     32.0254E-03    -11.9697E-03     45.7296E-03
            2158     13.3455E-03     15.6154E-03     3.18414E+06    -37.1591E+06    -10.2510E+06    -1.87037E+06    -18.6357E-03     30.1462E-03    -11.5105E-03     40.0625E-03    -18.5716E-03     29.9913E-03    -11.5125E-03     40.0116E-03
            2159     12.4615E-03     15.5802E-03     4.26374E+06    -37.4013E+06     9.26294E+03    -1.57111E+06    -17.1303E-03     28.2674E-03    -11.1371E-03     33.0719E-03    -17.0649E-03     28.0843E-03    -11.0890E-03     33.0350E-03
            2160     11.5754E-03     15.5508E-03     4.49039E+06    -40.1443E+06     493.929E+03    -845.235E+03    -15.7727E-03     26.5285E-03    -10.7558E-03     26.8256E-03    -15.6978E-03     26.3257E-03    -10.7017E-03     26.8044E-03
            2161     10.6889E-03     15.5271E-03     4.27502E+06    -47.6067E+06     2.47027E+06    -447.555E+03    -14.6271E-03     25.0501E-03    -10.4229E-03     21.9176E-03    -14.5431E-03     24.8051E-03    -10.3477E-03     21.9050E-03
            2162     9.80119E-03     15.5069E-03     4.33836E+06    -48.3913E+06     5.58952E+06    -281.959E+03    -13.5905E-03     23.7062E-03    -10.1157E-03     17.7000E-03    -13.5083E-03     23.4514E-03    -10.0239E-03     17.6917E-03
            2163     8.91294E-03     15.4909E-03     4.61289E+06    -50.7006E+06     6.18506E+06    -411.363E+03    -12.6687E-03     22.4960E-03    -9.82725E-03     14.1960E-03    -12.5820E-03     22.2278E-03    -9.72949E-03     14.1874E-03
            2164     8.02370E-03     15.4772E-03     4.18298E+06    -51.3317E+06     7.88963E+06     189.429E+03    -11.8144E-03     21.3879E-03    -9.57347E-03     11.4089E-03    -11.7310E-03     21.1143E-03    -9.46565E-03     11.4091E-03
            2165     7.13384E-03     15.4663E-03     3.68086E+06    -47.6486E+06     8.21847E+06     1.18679E+06    -11.0555E-03     20.3943E-03    -9.33880E-03     9.20682E-03    -10.9802E-03     20.1391E-03    -9.23396E-03     9.22053E-03
            2166     6.24336E-03     15.4570E-03     3.56791E+06    -45.7705E+06     7.74189E+06     1.47888E+06    -10.4045E-03     19.5390E-03    -9.13443E-03     7.38883E-03    -10.3317E-03     19.2939E-03    -9.03453E-03     7.40677E-03
            2167     5.35233E-03     15.4498E-03     3.41895E+06    -44.2090E+06     6.46839E+06     1.27151E+06    -9.87356E-03     18.8306E-03    -8.95704E-03     5.89989E-03    -9.80184E-03     18.5953E-03    -8.86555E-03     5.91548E-03
            2168     4.46090E-03     15.4437E-03     3.18220E+06    -42.8019E+06     5.67530E+06     944.304E+03    -9.43832E-03     18.2485E-03    -8.81015E-03     4.64623E-03    -9.36862E-03     18.0217E-03    -8.72433E-03     4.65783E-03
            2169     3.56915E-03     15.4391E-03     3.01853E+06    -41.3564E+06     5.39234E+06     661.451E+03    -9.08131E-03     17.7742E-03    -8.69286E-03     3.53734E-03    -9.01408E-03     17.5552E-03    -8.61031E-03     3.54546E-03
            2170     2.67705E-03     15.4354E-03     2.99560E+06    -39.8008E+06     4.85050E+06     626.530E+03    -8.82216E-03     17.4210E-03    -8.59887E-03     2.56726E-03    -8.75649E-03     17.2106E-03    -8.52125E-03     2.57505E-03
            2171     1.78487E-03     15.4330E-03     3.05672E+06    -38.6634E+06      3.6158E+06     619.493E+03    -8.63270E-03     17.1568E-03    -8.52413E-03     1.68775E-03    -8.56655E-03     16.9538E-03    -8.45443E-03     1.69556E-03
            2172     892.482E-06     15.4314E-03     2.99687E+06    -38.1927E+06     2.76245E+06     270.019E+03    -8.54225E-03     16.9848E-03    -8.44255E-03     856.372E-06    -8.47561E-03     16.7858E-03    -8.37770E-03     859.751E-06
            2173     16.8680E-03     14.8965E-03    -5.51242E+06     119.102E+06     18.7876E+06    -2.30986E+06    -30.5111E-03     44.0905E-03    -13.5793E-03     126.907E-03    -32.1347E-03     46.0631E-03    -13.6501E-03     127.620E-03
            2174     15.9908E-03     14.7932E-03    -2.88787E+06     70.6673E+06    -24.7003E+06    -1.60285E+06    -26.4241E-03     39.1600E-03    -12.7359E-03     91.3213E-03    -26.9449E-03     39.9933E-03    -12.9577E-03     91.2661E-03
            2175     15.1137E-03     14.7241E-03     2.51375E+06     30.9127E+06    -16.5644E+06     1.53124E+06    -22.4427E-03     34.6759E-03    -12.2332E-03     59.5955E-03    -22.5422E-03     34.9422E-03    -12.3645E-03     59.5596E-03
            2176     14.2301E-03     14.6790E-03     2.95881E+06    -14.2062E+06    -14.0534E+06    -291.884E+03    -20.1031E-03     31.9035E-03    -11.8004E-03     43.9806E-03    -20.0812E-03     31.8824E-03    -11.8543E-03     43.9398E-03
            2177     13.3477E-03     14.6393E-03     3.00345E+06    -37.0069E+06    -12.5158E+06    -2.34942E+06    -18.7171E-03     30.0889E-03    -11.3718E-03     38.2287E-03    -18.6491E-03     29.9365E-03    -11.3851E-03     38.1726E-03
            2178     12.4628E-03     14.6050E-03     3.49031E+06    -39.1309E+06    -1.60398E+06    -1.46202E+06    -17.1838E-03     28.1731E-03    -10.9893E-03     31.2393E-03    -17.1165E-03     27.9839E-03    -10.9456E-03     31.2046E-03
            2179     11.5776E-03     14.5780E-03     3.29685E+06    -40.6139E+06     1.51284E+06    -408.096E+03    -15.8625E-03     26.4636E-03    -10.6011E-03     24.9787E-03    -15.7939E-03     26.2582E-03    -10.5394E-03     24.9634E-03
            2180     10.6908E-03     14.5549E-03     3.56647E+06    -47.3249E+06     3.11098E+06    -642.536E+03    -14.6894E-03     24.9318E-03    -10.2424E-03     20.0735E-03    -14.6099E-03     24.6880E-03    -10.1634E-03     20.0586E-03
            2181     9.80343E-03     14.5366E-03     4.28970E+06    -48.6416E+06     6.67196E+06    -993.653E+03    -13.6025E-03     23.5178E-03    -9.91526E-03     15.9357E-03    -13.5216E-03     23.2601E-03    -9.81759E-03     15.9185E-03
            2182     8.91487E-03     14.5212E-03     4.03573E+06    -51.4076E+06     6.54585E+06    -61.7316E+03    -12.6081E-03     22.2131E-03    -9.60496E-03     12.5287E-03    -12.5237E-03     21.9415E-03    -9.50354E-03     12.5249E-03
            2183     8.02571E-03     14.5092E-03     2.98994E+06    -52.0487E+06     7.34322E+06     684.355E+03    -11.6905E-03     21.0218E-03    -9.33130E-03     9.90019E-03    -11.6112E-03     20.7471E-03    -9.22344E-03     9.90689E-03
            2184     7.13563E-03     14.4988E-03     2.25637E+06    -47.9474E+06     7.54647E+06     813.110E+03    -10.8687E-03     19.9522E-03    -9.08345E-03     7.84927E-03    -10.7991E-03     19.6985E-03    -8.97947E-03     7.85828E-03
            2185     6.24499E-03     14.4908E-03     2.00439E+06    -45.5305E+06     6.44182E+06     905.359E+03    -10.1926E-03     19.0585E-03    -8.86586E-03     6.20943E-03    -10.1261E-03     18.8187E-03    -8.77054E-03     6.22007E-03
            2186     5.35377E-03     14.4839E-03     1.94644E+06    -43.7622E+06     5.31584E+06     807.292E+03    -9.63970E-03     18.3199E-03    -8.68025E-03     4.89297E-03    -9.57430E-03     18.0907E-03    -8.59304E-03     4.90264E-03
            2187     4.46216E-03     14.4786E-03     1.94529E+06    -42.2774E+06     4.26566E+06     565.528E+03    -9.17676E-03     17.7019E-03    -8.52514E-03     3.78938E-03    -9.11195E-03     17.4815E-03    -8.44533E-03     3.79614E-03
            2188     3.57011E-03     14.4742E-03     1.81575E+06    -40.9573E+06     3.68392E+06     244.663E+03    -8.80946E-03     17.2113E-03    -8.40187E-03     2.87364E-03    -8.74635E-03     16.9986E-03    -8.32670E-03     2.87642E-03
            2189     2.67787E-03     14.4711E-03     1.55506E+06    -39.7794E+06     3.27297E+06     111.471E+03    -8.53456E-03     16.8411E-03    -8.30649E-03     2.07442E-03    -8.47383E-03     16.6351E-03    -8.23470E-03     2.07560E-03
            2190     1.78533E-03     14.4687E-03     1.31420E+06    -38.4147E+06     2.50807E+06     227.800E+03    -8.33840E-03     16.5716E-03    -8.23316E-03     1.34672E-03    -8.27971E-03     16.3739E-03    -8.16683E-03     1.34949E-03
            2191     892.702E-06     14.4675E-03     1.23752E+06    -37.6015E+06     1.54217E+06     306.905E+03    -8.27997E-03     16.3966E-03    -8.11666E-03     684.256E-06    -8.22123E-03     16.2049E-03    -8.05623E-03     688.122E-06
            2192     16.8707E-03     13.9103E-03    -747.081E+03     122.006E+06     23.5143E+06    -328.369E+03    -30.5930E-03     44.1193E-03    -13.5263E-03     122.188E-03    -32.0942E-03     45.9831E-03    -13.5846E-03     122.848E-03
            2193     15.9940E-03     13.8074E-03    -3.28396E+06     68.7479E+06    -22.9563E+06    -2.40028E+06    -26.1886E-03     38.8618E-03    -12.6733E-03     86.8485E-03    -26.6685E-03     39.6410E-03    -12.8830E-03     86.7741E-03
            2194     15.1129E-03     13.7439E-03    -3.64151E+06     28.5001E+06    -19.3525E+06    -2.31386E+06    -22.4834E-03     34.6332E-03    -12.1498E-03     56.5987E-03    -22.5969E-03     34.8912E-03    -12.2826E-03     56.5140E-03
            2195     14.2323E-03     13.7008E-03     1.39588E+06    -11.9007E+06    -13.7883E+06    -621.511E+03    -20.4080E-03     32.1056E-03    -11.6977E-03     42.2647E-03    -20.3951E-03     32.0956E-03    -11.7514E-03     42.2200E-03
            2196     13.3488E-03     13.6623E-03     2.14115E+06    -36.7828E+06    -10.9832E+06    -751.267E+03    -18.9110E-03     30.1621E-03    -11.2511E-03     35.9851E-03    -18.8481E-03     30.0081E-03    -11.2558E-03     35.9503E-03
            2197     12.4650E-03     13.6305E-03     998.555E+03    -40.2594E+06    -2.59046E+06    -1.00821E+06    -17.4117E-03     28.2446E-03    -10.8328E-03     29.1034E-03    -17.3528E-03     28.0539E-03    -10.7889E-03     29.0750E-03
            2198     11.5794E-03     13.6043E-03     1.21307E+06    -41.2189E+06     1.21925E+06    -597.048E+03    -16.0698E-03     26.4850E-03    -10.4152E-03     22.8564E-03    -16.0098E-03     26.2795E-03    -10.3510E-03     22.8391E-03
            2199     10.6933E-03     13.5835E-03     1.59805E+06    -45.9393E+06     1.81665E+06    -1.18179E+06    -14.8209E-03     24.8369E-03    -10.0160E-03     18.0226E-03    -14.7511E-03     24.6044E-03    -9.94261E-03     18.0011E-03
            2200     9.80569E-03     13.5659E-03     1.34519E+06    -49.7569E+06     4.08356E+06    -1.30300E+06    -13.6146E-03     23.2732E-03    -9.65853E-03     13.9825E-03    -13.5429E-03     23.0177E-03    -9.56791E-03     13.9615E-03
            2201     8.91737E-03     13.5525E-03     920.675E+03    -53.0359E+06     6.09617E+06     218.217E+03    -12.5236E-03     21.8599E-03    -9.33627E-03     10.6901E-03    -12.4516E-03     21.5852E-03    -9.23022E-03     10.6901E-03
            2202     8.02794E-03     13.5410E-03     628.029E+03    -51.6261E+06     6.42347E+06     745.175E+03    -11.5559E-03     20.5915E-03    -9.03562E-03     8.21037E-03    -11.4876E-03     20.3236E-03    -8.92955E-03     8.21802E-03
            2203     7.13790E-03     13.5323E-03     382.478E+03    -48.0308E+06     5.81424E+06     413.742E+03    -10.6912E-03     19.4557E-03    -8.76450E-03     6.30823E-03    -10.6283E-03     19.2068E-03    -8.66634E-03     6.31220E-03
            2204     6.24697E-03     13.5246E-03     128.245E+03    -45.3644E+06     4.66030E+06     406.448E+03    -9.95747E-03     18.4868E-03    -8.52938E-03     4.86385E-03    -9.89791E-03     18.2532E-03    -8.44049E-03     4.86814E-03
            2205     5.35562E-03     13.5187E-03    -75.9380E+03    -43.4656E+06     3.23278E+06     278.692E+03    -9.35412E-03     17.6831E-03    -8.32893E-03     3.71204E-03    -9.29622E-03     17.4612E-03    -8.24963E-03     3.71496E-03
            2206     4.46366E-03     13.5138E-03    -155.702E+03    -41.9343E+06     2.20453E+06     66.3939E+03    -8.85709E-03     17.0209E-03    -8.16382E-03     2.80491E-03    -8.80028E-03     16.8083E-03    -8.09177E-03     2.80530E-03
            2207     3.57142E-03     13.5101E-03    -216.562E+03    -40.7513E+06     1.46917E+06    -37.5538E+03    -8.46920E-03     16.5009E-03    -8.03168E-03     2.07711E-03    -8.41332E-03     16.2953E-03    -7.96493E-03     2.07629E-03
            2208     2.67877E-03     13.5071E-03    -506.418E+03    -39.7571E+06     932.131E+03    -92.0862E+03    -8.16980E-03     16.1003E-03    -7.93049E-03     1.46512E-03    -8.11602E-03     15.9009E-03    -7.86744E-03     1.46371E-03
            2209     1.78600E-03     13.5052E-03    -845.362E+03    -38.4490E+06     214.395E+03    -176.803E+03    -7.96090E-03     15.8170E-03    -7.85613E-03     932.822E-06    -7.90963E-03     15.6257E-03    -7.79808E-03     930.400E-06
            2210     893.046E-06     13.5039E-03    -980.678E+03    -37.4858E+06    -489.443E+03    -110.559E+03    -7.88880E-03     15.6440E-03    -7.75525E-03     461.601E-06    -7.83838E-03     15.4590E-03    -7.70192E-03     460.094E-06
            2211     16.8700E-03     12.9185E-03    -3.32034E+06     122.565E+06     19.4415E+06    -343.482E+03    -30.7391E-03     44.2035E-03    -13.4645E-03     119.092E-03    -32.1758E-03     46.0074E-03    -13.5401E-03     119.684E-03
            2212     15.9944E-03     12.8250E-03    -2.16835E+06     71.6941E+06    -22.8199E+06    -1.00637E+06    -26.3459E-03     38.9514E-03    -12.6056E-03     82.6873E-03    -26.7866E-03     39.7055E-03    -12.8205E-03     82.6212E-03
            2213     15.1149E-03     12.7628E-03    -1.02328E+06     28.0583E+06    -17.3533E+06    -2.55425E+06    -22.6401E-03     34.7153E-03    -12.0751E-03     53.6432E-03    -22.7340E-03     34.9555E-03    -12.2011E-03     53.5561E-03
            2214     14.2331E-03     12.7217E-03    -2.71252E+06    -14.4681E+06    -14.7950E+06    -1.84626E+06    -20.8014E-03     32.3957E-03    -11.5943E-03     39.7931E-03    -20.8011E-03     32.3774E-03    -11.6434E-03     39.7328E-03
            2215     13.3512E-03     12.6858E-03    -1.59295E+06    -35.7751E+06    -12.1136E+06    -299.638E+03    -19.3161E-03     30.4197E-03    -11.1036E-03     33.5978E-03    -19.2699E-03     30.2760E-03    -11.1100E-03     33.5693E-03
            2216     12.4671E-03     12.6552E-03     208.166E+03    -39.9649E+06    -2.86079E+06    -1.25388E+06    -17.7880E-03     28.4328E-03    -10.6449E-03     26.7328E-03    -17.7321E-03     28.2442E-03    -10.6015E-03     26.7016E-03
            2217     11.5824E-03     12.6312E-03     1.28485E+06    -41.7966E+06     1.32152E+06    -1.56065E+06    -16.3513E-03     26.5385E-03    -10.1872E-03     20.4748E-03    -16.2897E-03     26.3293E-03    -10.1218E-03     20.4454E-03
            2218     10.6960E-03     12.6115E-03     1.75159E+06    -45.3186E+06     3.64728E+06    -1.17023E+06    -14.9680E-03     24.7240E-03    -9.75599E-03     15.6388E-03    -14.9006E-03     24.4914E-03    -9.67458E-03     15.6177E-03
            2219     9.80880E-03     12.5961E-03     854.502E+03    -51.1877E+06     5.59423E+06    -502.679E+03    -13.6418E-03     23.0086E-03    -9.36682E-03     11.6976E-03    -13.5724E-03     22.7443E-03    -9.26587E-03     11.6872E-03
            2220     8.92023E-03     12.5835E-03    -501.287E+03    -54.0920E+06     6.14908E+06     288.442E+03    -12.4425E-03     21.4515E-03    -9.00897E-03     8.64468E-03    -12.3760E-03     21.1734E-03    -8.89906E-03     8.64571E-03
            2221     8.03092E-03     12.5738E-03    -1.17795E+06    -51.0189E+06     5.61477E+06     286.449E+03    -11.3969E-03     20.0738E-03    -8.67692E-03     6.37042E-03    -11.3372E-03     19.8126E-03    -8.57316E-03     6.37228E-03
            2222     7.14055E-03     12.5657E-03    -1.55817E+06    -47.9747E+06     3.90447E+06     53.8234E+03    -10.4877E-03     18.8653E-03    -8.37756E-03     4.67203E-03    -10.4318E-03     18.6222E-03    -8.28622E-03     4.67146E-03
            2223     6.24965E-03     12.5594E-03    -1.92708E+06    -45.2763E+06     2.69192E+06    -62.0314E+03    -9.68193E-03     17.8025E-03    -8.12059E-03     3.45802E-03    -9.62990E-03     17.5751E-03    -8.03869E-03     3.45635E-03
            2224     5.35786E-03     12.5540E-03    -2.17029E+06    -43.2530E+06     1.31679E+06    -132.105E+03    -9.01073E-03     16.9140E-03    -7.90326E-03     2.54320E-03    -8.96081E-03     16.6990E-03    -7.83081E-03     2.54089E-03
            2225     4.46572E-03     12.5500E-03    -2.45608E+06    -41.7789E+06     155.841E+03    -275.689E+03    -8.48409E-03     16.2077E-03    -7.72363E-03     1.83325E-03    -8.43603E-03     16.0022E-03    -7.65871E-03     1.82927E-03
            2226     3.57302E-03     12.5465E-03    -2.78223E+06    -40.8426E+06    -862.558E+03    -318.827E+03    -8.05698E-03     15.6352E-03    -7.57826E-03     1.29748E-03    -8.01041E-03     15.4363E-03    -7.51932E-03     1.29307E-03
            2227     2.68011E-03     12.5442E-03    -2.99563E+06    -39.7523E+06    -1.84764E+06    -265.380E+03    -7.73029E-03     15.1953E-03    -7.46496E-03     872.668E-06    -7.68493E-03     15.0035E-03    -7.41221E-03     869.048E-06
            2228     1.78683E-03     12.5423E-03    -3.26045E+06    -38.4953E+06    -2.70485E+06    -324.245E+03    -7.49517E-03     14.8803E-03    -7.38517E-03     540.577E-06    -7.45168E-03     14.6965E-03    -7.33815E-03     536.270E-06
            2229     893.452E-06     12.5415E-03    -3.50233E+06    -37.9361E+06    -3.37745E+06    -295.810E+03    -7.41287E-03     14.7050E-03    -7.29214E-03     250.414E-06    -7.37025E-03     14.5256E-03    -7.24895E-03     246.522E-06
            2230     16.8711E-03     11.9296E-03    -2.65297E+06     123.399E+06     22.6887E+06    -184.761E+03    -31.1205E-03     44.5780E-03    -13.4575E-03     114.997E-03    -32.4908E-03     46.3113E-03    -13.5191E-03     115.518E-03
            2231     15.9949E-03     11.8394E-03    -3.56231E+06     72.4097E+06    -21.8232E+06    -1.37282E+06    -26.8757E-03     39.4295E-03    -12.5538E-03     77.0448E-03    -27.2869E-03     40.1487E-03    -12.7628E-03     76.9595E-03
            2232     15.1162E-03     11.7824E-03    -3.43362E+06     28.3548E+06    -16.0516E+06    -714.897E+03    -23.0904E-03     35.0765E-03    -11.9861E-03     50.4828E-03    -23.1911E-03     35.3123E-03    -12.1025E-03     50.4186E-03
            2233     14.2353E-03     11.7424E-03    -3.27676E+06    -15.0115E+06    -12.2980E+06    -480.808E+03    -21.2056E-03     32.6782E-03    -11.4726E-03     37.2907E-03    -21.2080E-03     32.6515E-03    -11.5076E-03     37.2484E-03
            2234     13.3531E-03     11.7086E-03    -2.89211E+06    -35.1263E+06    -11.1256E+06    -2.03015E+06    -19.8290E-03     30.7597E-03    -10.9306E-03     30.8399E-03    -19.7900E-03     30.6180E-03    -10.9311E-03     30.7894E-03
            2235     12.4701E-03     11.6800E-03    -1.68334E+06    -39.8060E+06    -2.57850E+06    -2.11469E+06    -18.2416E-03     28.6610E-03    -10.4194E-03     24.0355E-03    -18.1949E-03     28.4746E-03    -10.3721E-03     23.9935E-03
            2236     11.5853E-03     11.6577E-03    -1.64951E+06    -42.1507E+06     1.18844E+06    -1.96657E+06    -16.6285E-03     26.5417E-03    -9.91322E-03     17.8080E-03    -16.5803E-03     26.3347E-03    -9.84377E-03     17.7736E-03
            2237     10.6996E-03     11.6401E-03    -1.86504E+06    -46.0325E+06     3.02697E+06    -1.60573E+06    -15.0635E-03     24.5031E-03    -9.43960E-03     13.1263E-03    -15.0120E-03     24.2729E-03    -9.35501E-03     13.0998E-03
            2238     9.81225E-03     11.6262E-03    -1.72013E+06    -52.7991E+06     5.67015E+06    -245.835E+03    -13.6010E-03     22.6207E-03    -9.01973E-03     9.40979E-03    -13.5420E-03     22.3518E-03    -8.91232E-03     9.40285E-03
            2239     8.92388E-03     11.6155E-03    -2.01549E+06    -53.9651E+06     5.13516E+06     407.637E+03    -12.2984E-03     20.9229E-03    -8.62451E-03     6.72693E-03    -12.2381E-03     20.6490E-03    -8.51767E-03     6.72968E-03
            2240     8.03422E-03     11.6068E-03    -2.74300E+06    -50.7719E+06     3.97642E+06     109.450E+03    -11.1628E-03     19.4294E-03    -8.26663E-03     4.74705E-03    -11.1089E-03     19.1741E-03    -8.16915E-03     4.74674E-03
            2241     7.14384E-03     11.6001E-03    -3.46568E+06    -47.6037E+06     2.52465E+06    -206.330E+03    -10.1784E-03     18.1295E-03    -7.95112E-03     3.36498E-03    -10.1305E-03     17.8930E-03    -7.86445E-03     3.36113E-03
            2242     6.25244E-03     11.5946E-03    -3.95257E+06    -45.2889E+06     813.280E+03    -441.388E+03    -9.34723E-03     17.0239E-03    -7.67669E-03     2.40040E-03    -9.30257E-03     16.8021E-03    -7.60122E-03     2.39388E-03
            2243     5.36051E-03     11.5904E-03    -4.31049E+06    -43.1983E+06    -337.320E+03    -539.155E+03    -8.64382E-03     16.0884E-03    -7.44459E-03     1.71472E-03    -8.60228E-03     15.8792E-03    -7.37739E-03     1.70719E-03
            2244     4.46786E-03     11.5867E-03    -4.62277E+06    -41.8885E+06    -1.77625E+06    -498.032E+03    -8.07295E-03     15.3223E-03    -7.24936E-03     1.17166E-03    -8.03277E-03     15.1222E-03    -7.19080E-03     1.16482E-03
            2245     3.57489E-03     11.5842E-03    -5.05764E+06    -40.9970E+06    -3.08679E+06    -400.801E+03    -7.61769E-03     14.7077E-03    -7.09006E-03     774.866E-06    -7.57906E-03     14.5146E-03    -7.03871E-03     769.405E-06
            2246     2.68142E-03     11.5820E-03    -5.52598E+06    -39.8602E+06    -4.58215E+06    -357.946E+03    -7.25940E-03     14.2228E-03    -6.96341E-03     489.354E-06    -7.22257E-03     14.0381E-03    -6.92051E-03     484.538E-06
            2247     1.78781E-03     11.5807E-03    -5.78709E+06    -38.7305E+06    -5.51808E+06    -276.764E+03    -7.00503E-03     13.8786E-03    -6.87358E-03     270.942E-06    -6.96976E-03     13.7013E-03    -6.83662E-03     267.245E-06
            2248     893.916E-06     11.5797E-03    -6.00687E+06    -38.2977E+06    -5.92558E+06    -168.989E+03    -6.91174E-03     13.6752E-03    -6.76346E-03     125.032E-06    -6.87743E-03     13.5013E-03    -6.72885E-03     122.772E-06
            2249     16.8706E-03     10.9371E-03    -3.41970E+06     124.791E+06     27.3186E+06     300.281E+03    -31.5580E-03     44.9922E-03    -13.4342E-03     110.582E-03    -32.8671E-03     46.6532E-03    -13.4736E-03     111.035E-03
            2250     15.9971E-03     10.8551E-03    -4.05250E+06     72.1830E+06    -18.6884E+06    -460.496E+03    -27.2146E-03     39.7059E-03    -12.4913E-03     71.6675E-03    -27.5945E-03     40.3822E-03    -12.6835E-03     71.5846E-03
            2251     15.1178E-03     10.8008E-03    -3.38902E+06     26.9991E+06    -14.9898E+06    -431.367E+03    -23.7202E-03     35.5934E-03    -11.8732E-03     47.1293E-03    -23.8134E-03     35.8140E-03    -11.9824E-03     47.0677E-03
            2252     14.2376E-03     10.7629E-03    -2.54275E+06    -12.8321E+06    -10.7230E+06    -854.347E+03    -21.8664E-03     33.1710E-03    -11.3047E-03     34.6587E-03    -21.8678E-03     33.1491E-03    -11.3360E-03     34.6117E-03
            2253     13.3564E-03     10.7310E-03    -1.16600E+06    -34.3232E+06    -9.52675E+06    -2.23296E+06    -20.3987E-03     31.1072E-03    -10.7085E-03     27.8943E-03    -20.3528E-03     30.9631E-03    -10.7047E-03     27.8416E-03
            2254     12.4735E-03     10.7043E-03    -1.45506E+06    -40.9419E+06    -546.594E+03    -2.17502E+06    -18.6367E-03     28.7883E-03    -10.1516E-03     21.0008E-03    -18.5893E-03     28.5921E-03    -10.0929E-03     20.9584E-03
            2255     11.5894E-03     10.6844E-03    -1.80616E+06    -41.8027E+06     3.91784E+06    -1.87846E+06    -16.7695E-03     26.3727E-03    -9.60319E-03     14.9925E-03    -16.7261E-03     26.1633E-03    -9.52037E-03     14.9597E-03
            2256     10.7035E-03     10.6687E-03    -2.38703E+06    -47.2805E+06     3.69001E+06    -1.69290E+06    -14.9864E-03     24.0774E-03    -9.09094E-03     10.6864E-03    -14.9364E-03     23.8404E-03    -9.00047E-03     10.6591E-03
            2257     9.81620E-03     10.6570E-03    -3.41322E+06    -54.3423E+06     5.04518E+06    -560.720E+03    -13.3764E-03     22.0235E-03    -8.64714E-03     7.48677E-03    -13.3226E-03     21.7501E-03    -8.53817E-03     7.47599E-03
            2258     8.92741E-03     10.6477E-03    -4.08019E+06    -53.7908E+06     4.74743E+06     60.1908E+03    -11.9857E-03     20.2252E-03    -8.23946E-03     5.31078E-03    -11.9353E-03     19.9556E-03    -8.13181E-03     5.30921E-03
            2259     8.03769E-03     10.6407E-03    -4.53610E+06    -50.4581E+06     2.58685E+06    -43.7104E+03    -10.7975E-03     18.6672E-03    -7.86969E-03     3.73568E-03    -10.7510E-03     18.4179E-03    -7.77702E-03     3.73350E-03
            2260     7.14671E-03     10.6351E-03    -5.13482E+06    -47.2507E+06     1.30234E+06    -380.215E+03    -9.79307E-03     17.3449E-03    -7.55181E-03     2.64512E-03    -9.75224E-03     17.1143E-03    -7.46933E-03     2.63908E-03
            2261     6.25511E-03     10.6308E-03    -5.71682E+06    -45.1657E+06    -588.167E+03    -732.043E+03    -8.97542E-03     16.2490E-03    -7.27357E-03     1.91363E-03    -8.93773E-03     16.0324E-03    -7.20273E-03     1.90338E-03
            2262     5.36275E-03     10.6273E-03    -6.20681E+06    -43.3693E+06    -2.04483E+06    -833.657E+03    -8.28469E-03     15.3186E-03    -7.03389E-03     1.36304E-03    -8.24991E-03     15.1137E-03    -6.97223E-03     1.35170E-03
            2263     4.46989E-03     10.6246E-03    -6.80203E+06    -42.2316E+06    -3.79574E+06    -644.908E+03    -7.69127E-03     14.5209E-03    -6.82961E-03     957.762E-06    -7.65855E-03     14.3251E-03    -6.77749E-03     949.018E-06
            2264     3.57644E-03     10.6224E-03    -7.33135E+06    -41.2694E+06    -5.62105E+06    -349.693E+03    -7.21923E-03     13.8796E-03    -6.66033E-03     624.448E-06    -7.18790E-03     13.6920E-03    -6.61796E-03     619.630E-06
            2265     2.68274E-03     10.6210E-03    -7.72013E+06    -39.9268E+06    -6.85304E+06    -284.268E+03    -6.84770E-03     13.3747E-03    -6.52698E-03     395.759E-06    -6.81845E-03     13.1962E-03    -6.49216E-03     391.878E-06
            2266     1.78861E-03     10.6197E-03    -7.97497E+06    -39.0548E+06    -7.65076E+06    -235.257E+03    -6.58243E-03     13.0110E-03    -6.42860E-03     226.741E-06    -6.55454E-03     12.8384E-03    -6.39866E-03     223.564E-06
            2267     894.424E-06     10.6192E-03    -8.03046E+06    -38.5048E+06    -8.02575E+06    -30.8876E+03    -6.46079E-03     12.7740E-03    -6.31325E-03     108.854E-06    -6.43327E-03     12.6051E-03    -6.28590E-03     108.376E-06
            2268     16.8740E-03     9.94740E-03    -2.24892E+06     125.631E+06     30.2894E+06     534.736E+03    -31.8636E-03     45.2503E-03    -13.3867E-03     106.234E-03    -33.0876E-03     46.8247E-03    -13.4141E-03     106.615E-03
            2269     15.9969E-03     9.86898E-03    -2.96883E+06     72.8939E+06    -14.3343E+06     391.188E+03    -27.6879E-03     40.1059E-03    -12.4180E-03     67.0762E-03    -28.0384E-03     40.7465E-03    -12.5911E-03     66.9967E-03
            2270     15.1204E-03     9.81874E-03    -3.27716E+06     26.6955E+06    -13.1245E+06     178.666E+03    -24.6576E-03     36.3947E-03    -11.7371E-03     43.4889E-03    -24.7455E-03     36.6040E-03    -11.8367E-03     43.4334E-03
            2271     14.2407E-03     9.78294E-03    -3.44011E+06    -10.8828E+06    -9.41207E+06    -987.486E+03    -22.5991E-03     33.6983E-03    -11.0992E-03     31.8603E-03    -22.6072E-03     33.6830E-03    -11.1255E-03     31.8117E-03
            2272     13.3599E-03     9.75270E-03    -4.15835E+06    -34.0909E+06    -9.34486E+06    -1.80800E+06    -20.8714E-03     31.3171E-03    -10.4457E-03     24.8926E-03    -20.8394E-03     31.1766E-03    -10.4370E-03     24.8461E-03
            2273     12.4778E-03     9.72901E-03    -4.09918E+06    -40.9505E+06    -1.23495E+06    -2.22187E+06    -18.7613E-03     28.6025E-03    -9.84115E-03     18.1522E-03    -18.7252E-03     28.4101E-03    -9.78200E-03     18.1101E-03
            2274     11.5934E-03     9.71108E-03    -3.53853E+06    -41.7414E+06     3.34535E+06    -2.83647E+06    -16.5977E-03     25.8656E-03    -9.26787E-03     12.6035E-03    -16.5618E-03     25.6593E-03    -9.18549E-03     12.5589E-03
            2275     10.7075E-03     9.69818E-03    -3.21884E+06    -49.2065E+06     3.65782E+06    -1.61939E+06    -14.6222E-03     23.3756E-03    -8.75333E-03     8.81836E-03    -14.5733E-03     23.1300E-03    -8.65903E-03     8.79244E-03
            2276     9.81961E-03     9.68813E-03    -3.99620E+06    -55.3500E+06     4.23420E+06    -109.929E+03    -12.9154E-03     21.2255E-03    -8.31010E-03     6.23822E-03    -12.8619E-03     20.9491E-03    -8.20287E-03     6.23350E-03
            2277     8.93055E-03     9.68095E-03    -5.32553E+06    -53.4316E+06     3.90101E+06    -97.2705E+03    -11.4926E-03     19.4077E-03    -7.91511E-03     4.54957E-03    -11.4477E-03     19.1429E-03    -7.81040E-03     4.54610E-03
            2278     8.04008E-03     9.67509E-03    -6.02455E+06    -50.2229E+06     1.37793E+06    -567.792E+03    -10.3416E-03     17.9021E-03    -7.56050E-03     3.35463E-03    -10.3011E-03     17.6580E-03    -7.47206E-03     3.34575E-03
            2279     7.14899E-03     9.67101E-03    -6.27872E+06    -47.1430E+06     38.9574E+03    -682.554E+03    -9.39727E-03     16.6539E-03    -7.25660E-03     2.50130E-03    -9.36048E-03     16.4273E-03    -7.17895E-03     2.49136E-03
            2280     6.25691E-03     9.66750E-03    -6.84796E+06    -44.9567E+06    -1.55880E+06    -844.605E+03    -8.60012E-03     15.5930E-03    -6.99293E-03     1.97287E-03    -8.56698E-03     15.3805E-03    -6.92560E-03     1.96116E-03
            2281     5.36431E-03     9.66502E-03    -7.64214E+06    -43.7311E+06    -3.59599E+06    -890.085E+03    -7.94385E-03     14.7084E-03    -6.76457E-03     1.55073E-03    -7.91347E-03     14.5061E-03    -6.70806E-03     1.53864E-03
            2282     4.47109E-03     9.66295E-03    -8.38813E+06    -42.7458E+06    -5.35556E+06    -560.993E+03    -7.39239E-03     13.9634E-03    -6.57097E-03     1.23137E-03    -7.36461E-03     13.7696E-03    -6.52360E-03     1.22369E-03
            2283     3.57749E-03     9.66153E-03    -9.00181E+06    -41.4546E+06    -7.21479E+06    -371.910E+03    -6.93456E-03     13.3441E-03    -6.40957E-03     950.132E-06    -6.90900E-03     13.1604E-03    -6.37248E-03     945.009E-06
            2284     2.68340E-03     9.66036E-03    -9.26011E+06    -40.0441E+06    -8.31104E+06    -368.610E+03    -6.58409E-03     12.8685E-03    -6.28441E-03     699.898E-06    -6.56026E-03     12.6938E-03    -6.25448E-03     694.914E-06
            2285     1.78916E-03     9.65972E-03    -9.39170E+06    -39.3340E+06    -8.88215E+06    -258.379E+03    -6.33044E-03     12.5256E-03    -6.19513E-03     482.708E-06    -6.30744E-03     12.3554E-03    -6.16889E-03     479.224E-06
            2286     894.580E-06     9.65917E-03    -9.54710E+06    -38.7779E+06    -9.18058E+06    -142.548E+03    -6.21965E-03     12.3147E-03    -6.09503E-03     245.345E-06    -6.19764E-03     12.1482E-03    -6.07087E-03     243.421E-06
            2287     16.8725E-03     8.95770E-03    -3.41293E+06     124.890E+06     33.8263E+06     626.866E+03    -32.6891E-03     46.0320E-03    -13.3429E-03     101.391E-03    -33.8383E-03     47.5147E-03    -13.3499E-03     101.696E-03
            2288     16.0000E-03     8.88174E-03    -4.34396E+06     73.5659E+06    -9.68207E+06     1.19671E+06    -28.5717E-03     40.8900E-03    -12.3183E-03     61.8837E-03    -28.9062E-03     41.4986E-03    -12.4671E-03     61.8022E-03
            2289     15.1226E-03     8.83592E-03    -5.06643E+06     28.0352E+06    -11.3730E+06     737.920E+03    -25.3382E-03     36.9008E-03    -11.5626E-03     39.3739E-03    -25.4327E-03     37.1100E-03    -11.6527E-03     39.3256E-03
            2290     14.2444E-03     8.80201E-03    -5.28481E+06    -9.57875E+06    -8.98695E+06    -400.309E+03    -23.1644E-03     34.0280E-03    -10.8636E-03     28.9869E-03    -23.1818E-03     34.0189E-03    -10.8869E-03     28.9465E-03
            2291     13.3641E-03     8.77472E-03    -5.01663E+06    -33.4891E+06    -7.58620E+06    -1.36567E+06    -21.0105E-03     31.1851E-03    -10.1746E-03     21.9960E-03    -20.9847E-03     31.0448E-03    -10.1567E-03     21.9565E-03
            2292     12.4816E-03     8.75359E-03    -4.89978E+06    -39.6368E+06    -74.8120E+03    -2.87830E+06    -18.4647E-03     28.0145E-03    -9.54980E-03     15.5765E-03    -18.4354E-03     27.8275E-03    -9.48559E-03     15.5271E-03
            2293     11.5971E-03     8.73887E-03    -5.31786E+06    -42.2311E+06     2.75361E+06    -3.35766E+06    -16.0215E-03     25.0028E-03    -8.98129E-03     10.7650E-03    -15.9926E-03     24.7973E-03    -8.89857E-03     10.7145E-03
            2294     10.7103E-03     8.72810E-03    -6.27278E+06    -52.0244E+06     2.52026E+06    -1.87668E+06    -13.9700E-03     22.4655E-03    -8.49548E-03     7.65486E-03    -13.9305E-03     22.2118E-03    -8.39834E-03     7.62603E-03
            2295     9.82208E-03     8.72055E-03    -6.61767E+06    -55.9013E+06     3.47764E+06    -379.612E+03    -12.2660E-03     20.3507E-03    -8.08472E-03     5.72386E-03    -12.2236E-03     20.0763E-03    -7.97668E-03     5.71589E-03
            2296     8.93222E-03     8.71467E-03    -6.51966E+06    -52.7767E+06     3.24040E+06    -498.300E+03    -10.9103E-03     18.6349E-03    -7.72458E-03     4.48807E-03    -10.8714E-03     18.3761E-03    -7.62240E-03     4.47953E-03
            2297     8.04158E-03     8.71053E-03    -6.79355E+06    -49.9933E+06     378.113E+03    -1.01321E+06    -9.84089E-03     17.2481E-03    -7.40721E-03     3.63728E-03    -9.80313E-03     17.0077E-03    -7.32297E-03     3.62268E-03
            2298     7.14983E-03     8.70720E-03    -7.30100E+06    -47.3359E+06    -1.14378E+06    -1.12644E+06    -8.97643E-03     16.1185E-03    -7.14212E-03     3.05075E-03    -8.94278E-03     15.8943E-03    -7.06862E-03     3.03509E-03
            2299     6.25758E-03     8.70501E-03    -7.82260E+06    -45.0409E+06    -2.28598E+06    -943.257E+03    -8.26136E-03     15.1800E-03    -6.91864E-03     2.66857E-03    -8.23194E-03     14.9696E-03    -6.85342E-03     2.65557E-03
            2300     5.36456E-03     8.70306E-03    -8.51586E+06    -44.1051E+06    -4.54783E+06    -773.341E+03    -7.67631E-03     14.4039E-03    -6.72760E-03     2.33753E-03    -7.64840E-03     14.2024E-03    -6.67403E-03     2.32693E-03
            2301     4.47119E-03     8.70185E-03    -9.08320E+06    -43.1764E+06    -6.09376E+06    -615.233E+03    -7.21132E-03     13.7838E-03    -6.57252E-03     2.01295E-03    -7.18533E-03     13.5900E-03    -6.52722E-03     2.00455E-03
            2302     3.57734E-03     8.70081E-03    -9.34035E+06    -41.5370E+06    -7.28769E+06    -560.970E+03    -6.83964E-03     13.2879E-03    -6.44828E-03     1.70582E-03    -6.81556E-03     13.1044E-03    -6.41095E-03     1.69826E-03
            2303     2.68330E-03     8.70022E-03    -9.56163E+06    -40.2537E+06    -8.31168E+06    -589.003E+03    -6.56282E-03     12.9180E-03    -6.35516E-03     1.34557E-03    -6.54019E-03     12.7426E-03    -6.32449E-03     1.33774E-03
            2304     1.78891E-03     8.69972E-03    -9.65746E+06    -39.7125E+06    -8.85794E+06    -517.664E+03    -6.37741E-03     12.6711E-03    -6.29365E-03     956.842E-06    -6.35523E-03     12.4993E-03    -6.26635E-03     950.019E-06
            2305     894.527E-06     8.69954E-03    -9.74983E+06    -39.2686E+06    -9.42349E+06    -330.373E+03    -6.31216E-03     12.5343E-03    -6.22217E-03     523.072E-06    -6.29009E-03     12.3661E-03    -6.19821E-03     518.728E-06
            2306     16.8757E-03     7.96361E-03    -4.03054E+06     123.670E+06     36.5801E+06     1.09597E+06    -33.9972E-03     47.2693E-03    -13.2721E-03     95.7481E-03    -35.0698E-03     48.6610E-03    -13.2627E-03     95.9649E-03
            2307     16.0025E-03     7.89525E-03    -5.29499E+06     74.1696E+06    -5.02243E+06     1.87402E+06    -29.2189E-03     41.4062E-03    -12.1873E-03     56.9742E-03    -29.5373E-03     41.9840E-03    -12.3123E-03     56.8955E-03
            2308     15.1266E-03     7.85212E-03    -4.77614E+06     29.8406E+06    -8.87470E+06     1.35549E+06    -25.7613E-03     37.1327E-03    -11.3714E-03     36.1342E-03    -25.8544E-03     37.3407E-03    -11.4521E-03     36.0950E-03
            2309     14.2478E-03     7.82135E-03    -4.40516E+06    -8.44862E+06    -8.78436E+06    -113.849E+03    -23.2898E-03     33.9189E-03    -10.6291E-03     26.4592E-03    -23.3023E-03     33.9115E-03    -10.6544E-03     26.4244E-03
            2310     13.3676E-03     7.79652E-03    -4.29951E+06    -32.0356E+06    -6.27168E+06    -1.47579E+06    -20.6933E-03     30.6286E-03    -9.93521E-03     19.4443E-03    -20.6666E-03     30.4912E-03    -9.91388E-03     19.4051E-03
            2311     12.4849E-03     7.77941E-03    -4.64452E+06    -38.2963E+06     1.53826E+06    -2.69242E+06    -17.7065E-03     27.0394E-03    -9.33285E-03     13.5057E-03    -17.6796E-03     26.8557E-03    -9.26289E-03     13.4601E-03
            2312     11.5992E-03     7.76733E-03    -5.95045E+06    -43.1976E+06     3.64855E+06    -2.85603E+06    -15.0903E-03     23.9028E-03    -8.81247E-03     9.64769E-03    -15.0643E-03     23.6918E-03    -8.72296E-03     9.60447E-03
            2313     10.7119E-03     7.75929E-03    -7.06558E+06    -54.1556E+06     3.47784E+06    -1.80312E+06    -13.0852E-03     21.4745E-03    -8.38939E-03     7.29999E-03    -13.0479E-03     21.2100E-03    -8.28323E-03     7.27250E-03
            2314     9.82262E-03     7.75349E-03    -7.81147E+06    -56.1415E+06     4.35448E+06    -1.31974E+06    -11.5002E-03     19.5402E-03    -8.04003E-03     6.01459E-03    -11.4647E-03     19.2651E-03    -7.92552E-03     5.99470E-03
            2315     8.93240E-03     7.74933E-03    -8.14590E+06    -52.3612E+06     2.71048E+06    -1.55435E+06    -10.2692E-03     18.0061E-03    -7.73693E-03     5.27185E-03    -10.2383E-03     17.7526E-03    -7.63564E-03     5.24980E-03
            2316     8.04096E-03     7.74624E-03    -8.17227E+06    -50.0033E+06    -263.826E+03    -1.69123E+06    -9.33201E-03     16.8158E-03    -7.48376E-03     4.71251E-03    -9.30023E-03     16.5783E-03    -7.40073E-03     4.68923E-03
            2317     7.14897E-03     7.74413E-03    -8.21631E+06    -47.6167E+06    -1.91088E+06    -1.64620E+06    -8.60068E-03     15.8828E-03    -7.28211E-03     4.28412E-03    -8.57012E-03     15.6596E-03    -7.21070E-03     4.26180E-03
            2318     6.25622E-03     7.74248E-03    -8.41012E+06    -45.6599E+06    -2.99032E+06    -1.33553E+06    -8.03296E-03     15.1548E-03    -7.12186E-03     3.92187E-03    -8.00458E-03     14.9432E-03    -7.05841E-03     3.90382E-03
            2319     5.36321E-03     7.74142E-03    -8.60412E+06    -44.3445E+06    -4.35120E+06    -1.00824E+06    -7.58747E-03     14.5817E-03    -6.99422E-03     3.56958E-03    -7.55995E-03     14.3788E-03    -6.93920E-03     3.55597E-03
            2320     4.46967E-03     7.74053E-03    -8.71207E+06    -43.3705E+06    -5.55176E+06    -1.07357E+06    -7.25430E-03     14.1518E-03    -6.89749E-03     3.14361E-03    -7.22696E-03     13.9557E-03    -6.84973E-03     3.12932E-03
            2321     3.57600E-03     7.74002E-03    -8.66344E+06    -41.8261E+06    -6.36873E+06    -1.09170E+06    -7.02253E-03     13.8495E-03    -6.82699E-03     2.66544E-03    -6.99599E-03     13.6622E-03    -6.78563E-03     2.65103E-03
            2322     2.68204E-03     7.73957E-03    -8.52237E+06    -40.5818E+06    -7.07693E+06    -1.00285E+06    -6.87224E-03     13.6500E-03    -6.77772E-03     2.09696E-03    -6.84574E-03     13.4697E-03    -6.74191E-03     2.08380E-03
            2323     1.78812E-03     7.73936E-03    -8.53533E+06    -40.3484E+06    -7.68892E+06    -872.266E+03    -6.78339E-03     13.5297E-03    -6.74630E-03     1.46145E-03    -6.75638E-03     13.3514E-03    -6.71386E-03     1.45006E-03
            2324     894.027E-06     7.73912E-03    -8.57407E+06    -40.0946E+06    -8.24788E+06    -486.455E+03    -6.75954E-03     13.4630E-03    -6.70349E-03     810.756E-06    -6.73212E-03     13.2872E-03    -6.67416E-03     804.413E-06
            2325     16.8775E-03     6.97268E-03    -4.06221E+06     122.036E+06     38.1773E+06     1.32932E+06    -34.8874E-03     48.0915E-03    -13.2041E-03     90.3503E-03    -35.8670E-03     49.3798E-03    -13.1842E-03     90.4829E-03
            2326     16.0045E-03     6.90622E-03    -5.11907E+06     74.3333E+06    -1.72546E+06     2.70222E+06    -29.7550E-03     41.8294E-03    -12.0744E-03     53.2830E-03    -30.0535E-03     42.3790E-03    -12.1834E-03     53.2098E-03
            2327     15.1289E-03     6.86906E-03    -5.68138E+06     31.9323E+06    -5.82316E+06     1.97196E+06    -26.1264E-03     37.3449E-03    -11.2184E-03     32.9203E-03    -26.2258E-03     37.5546E-03    -11.2856E-03     32.8906E-03
            2328     14.2507E-03     6.84021E-03    -6.28191E+06    -6.62419E+06    -5.84106E+06     314.554E+03    -22.9136E-03     33.3786E-03    -10.4650E-03     24.0594E-03    -22.9401E-03     33.3764E-03    -10.4755E-03     24.0328E-03
            2329     13.3700E-03     6.81961E-03    -7.10324E+06    -30.6035E+06    -3.39212E+06    -961.092E+03    -19.7006E-03     29.5048E-03    -9.80414E-03     17.1885E-03    -19.6930E-03     29.3733E-03    -9.76643E-03     17.1585E-03
            2330     12.4859E-03     6.80598E-03    -8.34822E+06    -36.9843E+06     3.43028E+06    -2.36508E+06    -16.4464E-03     25.7121E-03    -9.26574E-03     12.1946E-03    -16.4422E-03     25.5372E-03    -9.18286E-03     12.1547E-03
            2331     11.5996E-03     6.79731E-03    -8.96810E+06    -44.0916E+06     4.64983E+06    -2.93905E+06    -13.8515E-03     22.6824E-03    -8.83092E-03     9.63323E-03    -13.8406E-03     22.4698E-03    -8.73073E-03     9.58972E-03
            2332     10.7108E-03     6.79118E-03    -9.16493E+06    -55.3187E+06     3.96100E+06    -2.47176E+06    -12.0553E-03     20.5532E-03    -8.49786E-03     8.14758E-03    -12.0276E-03     20.2851E-03    -8.38455E-03     8.11188E-03
            2333     9.82102E-03     6.78736E-03    -9.02144E+06    -55.9437E+06     4.17545E+06    -2.40402E+06    -10.7162E-03     18.9485E-03    -8.23228E-03     7.31049E-03    -10.6868E-03     18.6764E-03    -8.11721E-03     7.27684E-03
            2334     8.92984E-03     6.78434E-03    -8.87481E+06    -52.3807E+06     1.66976E+06    -2.72976E+06    -9.69984E-03     17.7102E-03    -8.01037E-03     6.83221E-03    -9.67108E-03     17.4592E-03    -7.91320E-03     6.79514E-03
            2335     8.03815E-03     6.78239E-03    -8.73655E+06    -50.3090E+06    -896.358E+03    -2.75089E+06    -8.97021E-03     16.8114E-03    -7.84117E-03     6.34971E-03    -8.93992E-03     16.5741E-03    -7.76004E-03     6.31286E-03
            2336     7.14572E-03     6.78086E-03    -8.54275E+06    -48.1756E+06    -2.08660E+06    -2.55280E+06    -8.43579E-03     16.1546E-03    -7.71885E-03     5.88583E-03    -8.40581E-03     15.9294E-03    -7.64704E-03     5.85187E-03
            2337     6.25306E-03     6.77995E-03    -8.24536E+06    -46.3405E+06     -2.8576E+06    -2.24565E+06    -8.05057E-03     15.6824E-03    -7.63183E-03     5.40996E-03    -8.02059E-03     15.4669E-03    -7.56697E-03     5.38022E-03
            2338     5.35992E-03     6.77915E-03    -7.70911E+06    -44.7468E+06    -3.48346E+06    -2.03901E+06    -7.79343E-03     15.3655E-03    -7.57211E-03     4.87198E-03    -7.76213E-03     15.1581E-03    -7.51346E-03     4.84511E-03
            2339     4.46678E-03     6.77869E-03    -7.16881E+06    -43.6352E+06    -3.99133E+06    -1.91395E+06    -7.63294E-03     15.1670E-03    -7.53406E-03     4.23575E-03    -7.59979E-03     14.9650E-03    -7.48035E-03     4.21063E-03
            2340     3.57339E-03     6.77824E-03    -6.85647E+06    -42.3130E+06    -4.47632E+06    -1.92321E+06    -7.54483E-03     15.0555E-03    -7.51070E-03     3.51954E-03    -7.51130E-03     14.8604E-03    -7.46178E-03     3.49442E-03
            2341     2.68011E-03     6.77798E-03    -6.53012E+06    -41.4110E+06    -5.21556E+06    -1.69970E+06    -7.50913E-03     15.0040E-03    -7.49486E-03     2.71862E-03    -7.47418E-03     14.8139E-03    -7.45142E-03     2.69648E-03
            2342     1.78670E-03     6.77771E-03    -6.30292E+06    -41.3540E+06    -5.78321E+06    -1.17262E+06    -7.49321E-03     14.9777E-03    -7.48450E-03     1.85963E-03    -7.45636E-03     14.7884E-03    -7.44431E-03     1.84436E-03
            2343     893.406E-06     6.77763E-03    -6.32288E+06    -41.1943E+06    -6.10318E+06    -689.351E+03    -7.49175E-03     14.9577E-03    -7.46596E-03     1.03376E-03    -7.45460E-03     14.7700E-03    -7.42758E-03     1.02480E-03
            2344     16.8770E-03     5.97856E-03    -4.28239E+06     119.537E+06     39.2614E+06     2.20376E+06    -35.7528E-03     48.9571E-03    -13.2044E-03     86.2180E-03    -36.6552E-03     50.1553E-03    -13.1752E-03     86.2942E-03
            2345     16.0059E-03     5.91796E-03    -7.39077E+06     73.2737E+06     354.963E+03     3.37257E+06    -30.8557E-03     42.8760E-03    -12.0203E-03     48.5316E-03    -31.1406E-03     43.3942E-03    -12.1140E-03     48.4549E-03
            2346     15.1310E-03     5.88433E-03    -7.82175E+06     34.2299E+06    -2.34699E+06     3.31282E+06    -25.8255E-03     36.9605E-03    -11.1350E-03     29.2734E-03    -25.9377E-03     37.1736E-03    -11.1851E-03     29.2650E-03
            2347     14.2524E-03     5.86075E-03    -10.1050E+06    -4.48647E+06    -3.06000E+06     1.58835E+06    -21.7403E-03     32.1576E-03    -10.4172E-03     21.9149E-03    -21.7908E-03     32.1654E-03    -10.4114E-03     21.9089E-03
            2348     13.3700E-03     5.84362E-03    -11.3535E+06    -28.0755E+06    -1.53626E+06    -932.111E+03    -17.9288E-03     27.7715E-03    -9.84269E-03     16.1321E-03    -17.9477E-03     27.6551E-03    -9.79320E-03     16.1056E-03
            2349     12.4848E-03     5.83444E-03    -10.9514E+06    -35.3909E+06     5.11312E+06    -3.32625E+06    -14.7339E-03     24.1596E-03    -9.42571E-03     12.4956E-03    -14.7472E-03     23.9937E-03    -9.33295E-03     12.4449E-03
            2350     11.5964E-03     5.82819E-03    -10.8569E+06    -44.9748E+06     5.28609E+06    -3.98679E+06    -12.5567E-03     21.6696E-03    -9.11293E-03     11.1303E-03    -12.5549E-03     21.4544E-03    -9.00554E-03     11.0740E-03
            2351     10.7068E-03     5.82414E-03    -10.9124E+06    -55.9154E+06     3.58705E+06    -3.75323E+06    -11.1767E-03     20.0624E-03    -8.88567E-03     10.0933E-03    -11.1563E-03     19.7944E-03    -8.77083E-03     10.0415E-03
            2352     9.81602E-03     5.82134E-03    -10.6609E+06    -55.5530E+06     3.88413E+06    -4.20145E+06    -10.1738E-03     18.8905E-03    -8.71670E-03     9.27257E-03    -10.1528E-03     18.6232E-03    -8.60127E-03     9.21600E-03
            2353     8.92477E-03     5.81959E-03    -9.79952E+06    -52.7791E+06     1.11746E+06    -4.56035E+06    -9.44864E-03     18.0285E-03    -8.57990E-03     8.74456E-03    -9.42314E-03     17.7776E-03    -8.48357E-03     8.68404E-03
            2354     8.03272E-03     5.81806E-03    -8.70416E+06    -51.0273E+06    -1.07442E+06    -4.30619E+06    -8.95600E-03     17.4446E-03    -8.48857E-03     8.11126E-03    -8.92425E-03     17.2039E-03    -8.40734E-03     8.05446E-03
            2355     7.14051E-03     5.81722E-03    -7.76860E+06    -48.8949E+06    -1.49798E+06    -3.96058E+06    -8.63555E-03     17.0732E-03    -8.43761E-03     7.42815E-03    -8.60152E-03     16.8423E-03    -8.36294E-03     7.37612E-03
            2356     6.24791E-03     5.81642E-03    -6.84810E+06    -46.9895E+06    -1.74426E+06    -3.84074E+06    -8.45596E-03     16.8669E-03    -8.41092E-03     6.70636E-03    -8.41967E-03     16.6445E-03    -8.34158E-03     6.65610E-03
            2357     5.35542E-03     5.81595E-03    -5.88028E+06    -45.6197E+06    -2.10926E+06    -3.55358E+06    -8.37207E-03     16.7716E-03    -8.39949E-03     5.89466E-03    -8.33236E-03     16.5551E-03    -8.33536E-03     5.84828E-03
            2358     4.46272E-03     5.81542E-03    -5.00418E+06    -44.3786E+06    -2.35442E+06    -3.16494E+06    -8.35181E-03     16.7493E-03    -8.39748E-03     5.01257E-03    -8.30914E-03     16.5381E-03    -8.33765E-03     4.97134E-03
            2359     3.57021E-03     5.81511E-03    -4.33362E+06    -43.1655E+06    -2.62877E+06    -2.82642E+06    -8.36001E-03     16.7590E-03    -8.39902E-03     4.07817E-03    -8.31532E-03     16.5533E-03    -8.34329E-03     4.04142E-03
            2360     2.67756E-03     5.81472E-03    -4.05977E+06    -42.8035E+06    -3.19577E+06    -2.30654E+06    -8.37497E-03     16.7767E-03    -8.40173E-03     3.11127E-03    -8.32859E-03     16.5732E-03    -8.34976E-03     3.08131E-03
            2361     1.78509E-03     5.81454E-03    -3.84943E+06    -42.8507E+06    -3.68909E+06    -1.51288E+06    -8.39543E-03     16.7995E-03    -8.40403E-03     2.10648E-03    -8.34718E-03     16.5961E-03    -8.35476E-03     2.08683E-03
            2362     892.484E-06     5.81438E-03    -3.60376E+06    -42.5524E+06    -3.73938E+06    -719.390E+03    -8.41193E-03     16.8102E-03    -8.39830E-03     1.15138E-03    -8.36264E-03     16.6084E-03    -8.35007E-03     1.14202E-03
            2363     16.8746E-03     4.97943E-03    -3.55817E+06     117.661E+06     44.2641E+06     3.54143E+06    -37.1083E-03     50.3846E-03    -13.2764E-03     82.1380E-03    -37.9493E-03     51.5028E-03    -13.2205E-03     82.1557E-03
            2364     16.0072E-03     4.92817E-03    -7.09885E+06     71.6219E+06     4.79214E+06     5.51326E+06    -31.1150E-03     43.1590E-03    -12.0440E-03     41.6755E-03    -31.3667E-03     43.6267E-03    -12.1136E-03     41.6256E-03
            2365     15.1313E-03     4.90153E-03    -10.2818E+06     35.4832E+06    -829.448E+03     5.86870E+06    -24.3293E-03     35.5050E-03    -11.1757E-03     26.3733E-03    -24.4519E-03     35.7199E-03    -11.2164E-03     26.4058E-03
            2366     14.2507E-03     4.88205E-03    -12.6667E+06     431.323E+03    -397.592E+03     2.66393E+06    -19.4312E-03     30.0071E-03    -10.5758E-03     20.9815E-03    -19.5036E-03     30.0375E-03    -10.5601E-03     20.9948E-03
            2367     13.3664E-03     4.87046E-03    -12.4249E+06    -23.6793E+06     885.413E+03    -2.99479E+06    -15.6550E-03     25.8128E-03    -10.1578E-03     16.9393E-03    -15.6885E-03     25.7158E-03    -10.1010E-03     16.8894E-03
            2368     12.4784E-03     4.86402E-03    -11.1819E+06    -34.8516E+06     5.95472E+06    -5.61919E+06    -13.1897E-03     23.0821E-03    -9.89245E-03     14.4370E-03    -13.2059E-03     22.9178E-03    -9.79593E-03     14.3582E-03
            2369     11.5894E-03     4.86009E-03    -10.5826E+06    -46.4231E+06     6.29292E+06    -5.14405E+06    -11.7594E-03     21.4654E-03    -9.70599E-03     13.2808E-03    -11.7555E-03     21.2409E-03    -9.59187E-03     13.2102E-03
            2370     10.6991E-03     4.85685E-03    -10.4438E+06    -55.5836E+06     4.02111E+06    -5.30100E+06    -10.8055E-03     20.3745E-03    -9.56894E-03     12.0866E-03    -10.7838E-03     20.1067E-03    -9.45310E-03     12.0152E-03
            2371     9.80842E-03     4.85531E-03    -9.81514E+06    -55.2490E+06     3.76022E+06    -6.28369E+06    -10.1223E-03     19.5989E-03    -9.47663E-03     11.0724E-03    -10.0973E-03     19.3320E-03    -9.36348E-03     10.9892E-03
            2372     8.91694E-03     4.85388E-03    -9.04902E+06    -53.3786E+06     1.20649E+06    -6.74662E+06    -9.68541E-03     19.0937E-03    -9.40829E-03     10.3186E-03    -9.65539E-03     18.8385E-03    -9.31174E-03     10.2301E-03
            2373     8.02547E-03     4.85300E-03    -7.77935E+06    -52.1149E+06    -1.14213E+06    -6.65986E+06    -9.42458E-03     18.7934E-03    -9.36885E-03     9.41657E-03    -9.38652E-03     18.5460E-03    -9.28771E-03     9.32953E-03
            2374     7.13359E-03     4.85217E-03    -5.81988E+06    -49.9073E+06    -1.34092E+06    -6.29206E+06    -9.29647E-03     18.6534E-03    -9.35690E-03     8.44501E-03    -9.25145E-03     18.4143E-03    -9.28280E-03     8.36299E-03
            2375     6.24189E-03     4.85157E-03    -3.99674E+06    -48.1602E+06    -873.101E+03    -5.72253E+06    -9.26030E-03     18.6207E-03    -9.36043E-03     7.43742E-03    -9.20932E-03     18.3870E-03    -9.28917E-03     7.36295E-03
            2376     5.34999E-03     4.85097E-03    -2.88439E+06    -47.0758E+06    -579.844E+03    -5.02344E+06    -9.27578E-03     18.6456E-03    -9.36987E-03     6.40210E-03    -9.22120E-03     18.4153E-03    -9.30033E-03     6.33680E-03
            2377     4.45833E-03     4.85051E-03    -2.18747E+06    -45.7020E+06    -796.824E+03    -4.32262E+06    -9.30986E-03     18.6871E-03    -9.37725E-03     5.35182E-03    -9.25344E-03     18.4629E-03    -9.31179E-03     5.29568E-03
            2378     3.56655E-03     4.85003E-03    -1.73857E+06    -44.7213E+06    -1.06742E+06    -3.54362E+06    -9.34064E-03     18.7244E-03    -9.38371E-03     4.28652E-03    -9.28299E-03     18.5048E-03    -9.32168E-03     4.24053E-03
            2379     2.67495E-03     4.84973E-03    -1.51640E+06    -44.6036E+06    -1.24368E+06    -2.59146E+06    -9.36191E-03     18.7531E-03    -9.39115E-03     3.22995E-03    -9.30303E-03     18.5340E-03    -9.33050E-03     3.19633E-03
            2380     1.78321E-03     4.84942E-03    -1.46496E+06    -44.6361E+06    -1.47928E+06    -1.70406E+06    -9.38357E-03     18.7812E-03    -9.39763E-03     2.17951E-03    -9.32401E-03     18.5622E-03    -9.33818E-03     2.15741E-03
            2381     891.671E-06     4.84930E-03    -1.31975E+06    -44.1943E+06    -1.25005E+06    -925.611E+03    -9.40595E-03     18.8021E-03    -9.39614E-03     1.17435E-03    -9.34645E-03     18.5851E-03    -9.33640E-03     1.16234E-03
            2382     16.8764E-03     3.97853E-03    -3.59256E+06     113.924E+06     49.6177E+06     5.06182E+06    -38.3599E-03     51.7488E-03    -13.3888E-03     74.7531E-03    -39.0987E-03     52.7366E-03    -13.3007E-03     74.6866E-03
            2383     16.0054E-03     3.94001E-03    -8.19740E+06     69.4321E+06     11.0886E+06     9.04460E+06    -28.5062E-03     40.7035E-03    -12.1973E-03     34.8491E-03    -28.7332E-03     41.1165E-03    -12.2306E-03     34.8696E-03
            2384     15.1278E-03     3.91980E-03    -13.6973E+06       39.75E+06     487.865E+03     8.96159E+06    -21.3851E-03     32.8455E-03    -11.4604E-03     24.7088E-03    -21.5277E-03     33.0797E-03    -11.4958E-03     24.7918E-03
            2385     14.2445E-03     3.90699E-03    -15.1742E+06     9.53920E+06    -224.595E+03     1.08603E+06    -16.6909E-03     27.7269E-03    -11.0360E-03     21.9621E-03    -16.7876E-03     27.8046E-03    -11.0290E-03     21.9604E-03
            2386     13.3568E-03     3.89864E-03    -13.2560E+06    -19.1826E+06     488.189E+03    -6.41006E+06    -14.0368E-03     24.8278E-03    -10.7910E-03     18.6990E-03    -14.0797E-03     24.7542E-03    -10.7415E-03     18.6077E-03
            2387     12.4685E-03     3.89439E-03    -11.3104E+06    -36.4040E+06     4.39334E+06    -7.85545E+06    -12.5820E-03     23.2315E-03    -10.6495E-03     16.1790E-03    -12.5940E-03     23.0614E-03    -10.5584E-03     16.0724E-03
            2388     11.5790E-03     3.89105E-03    -10.3411E+06    -47.7474E+06     5.44665E+06    -7.03092E+06    -11.6884E-03     22.2372E-03    -10.5487E-03     14.6714E-03    -11.6799E-03     22.0067E-03    -10.4373E-03     14.5772E-03
            2389     10.6892E-03     3.88920E-03    -8.69383E+06    -54.4225E+06     2.47099E+06    -7.87072E+06    -11.0472E-03     21.5119E-03    -10.4647E-03     13.2725E-03    -11.0161E-03     21.2495E-03    -10.3608E-03     13.1685E-03
            2390     9.79849E-03     3.88787E-03    -6.64782E+06    -55.6983E+06     1.20699E+06    -8.85257E+06    -10.6665E-03     21.0809E-03    -10.4144E-03     12.0502E-03    -10.6212E-03     20.8107E-03    -10.3180E-03     11.9342E-03
            2391     8.90796E-03     3.88699E-03    -4.85486E+06    -54.1680E+06    -170.924E+03    -8.74353E+06    -10.4657E-03     20.8471E-03    -10.3814E-03     10.9231E-03    -10.4115E-03     20.5838E-03    -10.2966E-03     10.8089E-03
            2392     8.01698E-03     3.88609E-03    -3.43381E+06    -53.1695E+06    -2.44277E+06    -8.78127E+06    -10.3647E-03     20.7230E-03    -10.3583E-03     9.75368E-03    -10.3015E-03     20.4658E-03    -10.2884E-03     9.63939E-03
            2393     7.12628E-03     3.88541E-03    -2.17084E+06    -51.7265E+06    -2.68025E+06    -8.30932E+06    -10.3314E-03     20.6839E-03    -10.3524E-03     8.57706E-03    -10.2636E-03     20.4323E-03    -10.2877E-03     8.46910E-03
            2394     6.23533E-03     3.88471E-03    -1.13259E+06    -50.2235E+06    -1.84678E+06    -7.15076E+06    -10.3310E-03     20.6861E-03    -10.3552E-03     7.41667E-03    -10.2612E-03     20.4393E-03    -10.2899E-03     7.32384E-03
            2395     5.34463E-03     3.88411E-03    -254.766E+03    -49.0463E+06    -1.14541E+06    -5.98434E+06    -10.3457E-03     20.7039E-03    -10.3581E-03     6.27706E-03    -10.2743E-03     20.4607E-03    -10.2924E-03     6.19941E-03
            2396     4.45377E-03     3.88353E-03     277.838E+03    -47.6890E+06    -419.698E+03    -4.86214E+06    -10.3550E-03     20.7156E-03    -10.3607E-03     5.17750E-03    -10.2839E-03     20.4774E-03    -10.2940E-03     5.11443E-03
            2397     3.56307E-03     3.88309E-03     428.361E+03    -46.7876E+06     10.0488E+03    -3.71817E+06    -10.3601E-03     20.7223E-03    -10.3622E-03     4.10213E-03    -10.2901E-03     20.4877E-03    -10.2950E-03     4.05390E-03
            2398     2.67223E-03     3.88270E-03     415.335E+03    -46.6589E+06     71.6940E+03    -2.62214E+06    -10.3635E-03     20.7262E-03    -10.3627E-03     3.06235E-03    -10.2939E-03     20.4922E-03    -10.2953E-03     3.02834E-03
            2399     1.78156E-03     3.88245E-03     438.740E+03    -46.3727E+06     370.398E+03    -1.72209E+06    -10.3608E-03     20.7256E-03    -10.3647E-03     2.06195E-03    -10.2919E-03     20.4925E-03    -10.2963E-03     2.03962E-03
            2400     890.697E-06     3.88222E-03     400.471E+03    -46.0341E+06     387.793E+03    -1.09132E+06    -10.3619E-03     20.7307E-03    -10.3688E-03     1.11086E-03    -10.2935E-03     20.4997E-03    -10.3007E-03     1.09672E-03
            2401     16.8763E-03     2.98513E-03    -4.69162E+06     106.677E+06     51.9470E+06     7.24513E+06    -37.9684E-03     51.7081E-03    -13.7397E-03     67.7595E-03    -38.5592E-03     52.5124E-03    -13.6279E-03     67.6650E-03
            2402     16.0006E-03     2.95344E-03    -9.14628E+06     67.6445E+06     24.5177E+06     12.4422E+06    -25.2469E-03     37.9525E-03    -12.7056E-03     33.5019E-03    -25.4716E-03     38.3144E-03    -12.6679E-03     33.5956E-03
            2403     15.1183E-03     2.94294E-03    -11.0583E+06     48.7984E+06     8.92699E+06     9.52169E+06    -18.5449E-03     30.6654E-03    -12.1204E-03     25.1460E-03    -18.6951E-03     30.9239E-03    -12.1305E-03     25.2464E-03
            2404     14.2312E-03     2.93297E-03    -10.4291E+06     20.2752E+06    -2.29089E+06    -656.611E+03    -15.4299E-03     27.2305E-03    -11.8006E-03     23.3119E-03    -15.5135E-03     27.3557E-03    -11.8263E-03     23.2920E-03
            2405     13.3445E-03     2.92695E-03    -10.4096E+06    -15.6996E+06    -7.53946E+06    -7.94800E+06    -13.9731E-03     25.6071E-03    -11.6340E-03     19.2542E-03    -13.9940E-03     25.5571E-03    -11.6338E-03     19.1449E-03
            2406     12.4561E-03     2.92342E-03    -10.3142E+06    -38.3679E+06    -6.89463E+06    -9.71349E+06    -12.9617E-03     24.5006E-03    -11.5389E-03     16.5485E-03    -12.9489E-03     24.3350E-03    -11.5028E-03     16.4190E-03
            2407     11.5673E-03     2.92124E-03    -8.40344E+06    -48.3053E+06    -5.92809E+06    -9.77676E+06    -12.2997E-03     23.7694E-03    -11.4697E-03     14.6365E-03    -12.2639E-03     23.5494E-03    -11.4171E-03     14.5075E-03
            2408     10.6777E-03     2.91982E-03    -5.82380E+06    -53.4250E+06    -8.62687E+06    -10.8519E+06    -11.9072E-03     23.3124E-03    -11.4052E-03     13.0215E-03    -11.8468E-03     23.0666E-03    -11.3624E-03     12.8795E-03
            2409     9.78831E-03     2.91880E-03    -3.22347E+06    -57.1843E+06    -8.65297E+06    -11.3359E+06    -11.7509E-03     23.1198E-03    -11.3689E-03     11.5425E-03    -11.6719E-03     22.8513E-03    -11.3245E-03     11.3947E-03
            2410     8.89851E-03     2.91794E-03    -1.07626E+06    -55.8229E+06    -7.79898E+06    -10.4429E+06    -11.6437E-03     22.9810E-03    -11.3373E-03     10.1532E-03    -11.5570E-03     22.7149E-03    -11.2938E-03     10.0173E-03
            2411     8.00900E-03     2.91719E-03     157.351E+03    -54.8286E+06    -7.62612E+06    -9.33862E+06    -11.5631E-03     22.8721E-03    -11.3090E-03     8.87719E-03    -11.4719E-03     22.6088E-03    -11.2678E-03     8.75586E-03
            2412     7.11911E-03     2.91648E-03     219.180E+03    -54.1154E+06    -7.03654E+06    -8.15811E+06    -11.5054E-03     22.7929E-03    -11.2875E-03     7.66615E-03    -11.4157E-03     22.5322E-03    -11.2445E-03     7.56024E-03
            2413     6.22947E-03     2.91582E-03    -165.683E+03    -52.6602E+06    -6.08774E+06    -6.91330E+06    -11.4505E-03     22.7192E-03    -11.2687E-03     6.53804E-03    -11.3662E-03     22.4650E-03    -11.2225E-03     6.44834E-03
            2414     5.33957E-03     2.91521E-03    -581.412E+03    -51.2988E+06    -4.78479E+06    -5.71719E+06    -11.3920E-03     22.6455E-03    -11.2535E-03     5.48253E-03    -11.3137E-03     22.3968E-03    -11.2022E-03     5.40839E-03
            2415     4.44979E-03     2.91469E-03    -855.137E+03    -50.0332E+06    -3.90730E+06    -4.52238E+06    -11.3392E-03     22.5777E-03    -11.2384E-03     4.48292E-03    -11.2653E-03     22.3344E-03    -11.1842E-03     4.42429E-03
            2416     3.55982E-03     2.91422E-03    -1.06395E+06    -48.9916E+06    -2.92006E+06    -3.26338E+06    -11.2940E-03     22.5206E-03    -11.2266E-03     3.52307E-03    -11.2240E-03     22.2814E-03    -11.1687E-03     3.48076E-03
            2417     2.66997E-03     2.91389E-03    -1.34220E+06    -48.5292E+06    -2.19272E+06    -2.25677E+06    -11.2583E-03     22.4750E-03    -11.2167E-03     2.61261E-03    -11.1915E-03     22.2375E-03    -11.1554E-03     2.58335E-03
            2418     1.77993E-03     2.91361E-03    -1.61106E+06    -48.0156E+06    -2.21768E+06    -1.47552E+06    -11.2261E-03     22.4320E-03    -11.2059E-03     1.75056E-03    -11.1613E-03     22.1974E-03    -11.1450E-03     1.73142E-03
            2419     890.043E-06     2.91347E-03    -1.73277E+06    -47.7638E+06    -2.08307E+06    -779.062E+03    -11.2044E-03     22.4069E-03    -11.2025E-03     949.395E-06    -11.1405E-03     22.1738E-03    -11.1411E-03     939.239E-06
            2420     16.8574E-03     1.98799E-03    -3.41556E+06     99.8335E+06     52.2497E+06     9.03797E+06    -36.1522E-03     50.6405E-03    -14.4883E-03     55.8732E-03    -36.5983E-03     51.2794E-03    -14.3669E-03     55.8150E-03
            2421     15.9847E-03     1.97070E-03    -5.36232E+06     69.5545E+06     37.5336E+06     10.8670E+06    -23.6350E-03     37.2575E-03    -13.6225E-03     30.5635E-03    -23.8451E-03     37.5871E-03    -13.5279E-03     30.6553E-03
            2422     15.1015E-03     1.96678E-03    -1.44078E+06     56.7649E+06     17.6328E+06     5.35864E+06    -18.7093E-03     31.7946E-03    -13.0853E-03     24.6110E-03    -18.8312E-03     32.0617E-03    -13.0774E-03     24.6638E-03
            2423     14.2172E-03     1.95739E-03     814.042E+03     28.3763E+06    -6.22912E+06    -309.602E+03    -16.5474E-03     29.2651E-03    -12.7177E-03     21.7667E-03    -16.5784E-03     29.4177E-03    -12.7912E-03     21.7547E-03
            2424     13.3307E-03     1.95363E-03    -1.10665E+06    -11.6693E+06    -17.6472E+06    -5.45772E+06    -15.0562E-03     27.5785E-03    -12.5223E-03     16.9707E-03    -15.0205E-03     27.5486E-03    -12.5921E-03     16.8956E-03
            2425     12.4435E-03     1.95090E-03    -2.66195E+06    -38.0405E+06    -20.1725E+06    -9.52499E+06    -14.0757E-03     26.4885E-03    -12.4128E-03     14.3502E-03    -14.0054E-03     26.3320E-03    -12.4546E-03     14.2243E-03
            2426     11.5555E-03     1.94954E-03    -2.20176E+06    -48.5249E+06    -21.2243E+06    -11.2551E+06    -13.5256E-03     25.8493E-03    -12.3237E-03     12.2664E-03    -13.4359E-03     25.6410E-03    -12.3563E-03     12.1191E-03
            2427     10.6676E-03     1.94840E-03    -1.14400E+06    -54.0173E+06    -23.3700E+06    -11.3880E+06    -13.2304E-03     25.4716E-03    -12.2412E-03     10.5839E-03    -13.1242E-03     25.2372E-03    -12.2781E-03     10.4355E-03
            2428     9.77905E-03     1.94747E-03    -1.13894E+06    -58.7771E+06    -22.9565E+06    -10.9858E+06    -13.0270E-03     25.2086E-03    -12.1816E-03     9.10012E-03    -12.9144E-03     24.9498E-03    -12.2095E-03     8.95727E-03
            2429     8.89081E-03     1.94680E-03    -1.58614E+06    -58.7045E+06    -20.5423E+06    -9.82254E+06    -12.8548E-03     24.9858E-03    -12.1310E-03     7.85970E-03    -12.7480E-03     24.7244E-03    -12.1463E-03     7.73213E-03
            2430     8.00205E-03     1.94618E-03    -2.15867E+06    -57.5042E+06    -17.9411E+06    -7.78644E+06    -12.7011E-03     24.7846E-03    -12.0835E-03     6.76336E-03    -12.6026E-03     24.5262E-03    -12.0867E-03     6.66226E-03
            2431     7.11349E-03     1.94559E-03    -2.82856E+06    -56.4196E+06    -15.2434E+06    -6.23969E+06    -12.5469E-03     24.5873E-03    -12.0403E-03     5.77750E-03    -12.4572E-03     24.3314E-03    -12.0306E-03     5.69651E-03
            2432     6.22454E-03     1.94507E-03    -3.59330E+06    -54.9000E+06    -13.0979E+06    -5.03610E+06    -12.3987E-03     24.3973E-03    -11.9985E-03     4.88457E-03    -12.3181E-03     24.1470E-03    -11.9792E-03     4.81923E-03
            2433     5.33565E-03     1.94458E-03    -4.43116E+06    -53.2002E+06    -11.0561E+06    -4.05819E+06    -12.2610E-03     24.2225E-03    -11.9614E-03     4.06349E-03    -12.1900E-03     23.9789E-03    -11.9331E-03     4.01085E-03
            2434     4.44649E-03     1.94415E-03    -5.22269E+06    -52.0454E+06    -9.71696E+06    -3.24411E+06    -12.1400E-03     24.0676E-03    -11.9275E-03     3.29615E-03    -12.0766E-03     23.8290E-03    -11.8931E-03     3.25408E-03
            2435     3.55738E-03     1.94380E-03    -5.74158E+06    -50.9203E+06    -8.55940E+06    -2.33057E+06    -12.0376E-03     23.9363E-03    -11.8987E-03     2.58042E-03    -11.9801E-03     23.7024E-03    -11.8594E-03     2.55020E-03
            2436     2.66804E-03     1.94351E-03    -6.10436E+06    -50.0138E+06    -7.67273E+06    -1.47152E+06    -11.9572E-03     23.8323E-03    -11.8751E-03     1.89955E-03    -11.9041E-03     23.6022E-03    -11.8321E-03     1.88045E-03
            2437     1.77881E-03     1.94333E-03    -6.39831E+06    -49.3193E+06    -7.28243E+06    -855.311E+03    -11.8973E-03     23.7526E-03    -11.8553E-03     1.26359E-03    -11.8472E-03     23.5258E-03    -11.8109E-03     1.25249E-03
            2438     889.342E-06     1.94318E-03    -6.61425E+06    -48.9490E+06     -6.8775E+06    -397.807E+03    -11.8566E-03     23.6979E-03    -11.8413E-03     698.328E-06    -11.8083E-03     23.4730E-03    -11.7951E-03     693.144E-06
            2439     16.8470E-03     995.845E-06     605.435E+03     97.3604E+06     53.1339E+06     7.56370E+06    -36.2270E-03     51.6994E-03    -15.4725E-03     38.0793E-03    -36.5494E-03     52.2174E-03    -15.3489E-03     38.0241E-03
            2440     15.9652E-03     988.321E-06     3.15234E+06     75.1556E+06     38.3700E+06     3.52712E+06    -25.0557E-03     39.6429E-03    -14.5871E-03     21.6838E-03    -25.2151E-03     39.9689E-03    -14.5088E-03     21.7044E-03
            2441     15.0857E-03     984.906E-06     5.92115E+06     58.6956E+06     16.5176E+06     137.509E+03    -21.3667E-03     35.3501E-03    -13.9834E-03     16.6756E-03    -21.4486E-03     35.6134E-03    -13.9945E-03     16.6688E-03
            2442     14.2038E-03     979.954E-06     7.31093E+06     31.2876E+06    -9.26481E+06     695.685E+03    -18.5820E-03     32.1011E-03    -13.5190E-03     13.9912E-03    -18.5783E-03     32.2612E-03    -13.6213E-03     13.9959E-03
            2443     13.3194E-03     977.674E-06     7.43525E+06    -6.77118E+06    -25.2900E+06    -1.92864E+06    -16.5327E-03     29.7690E-03    -13.2364E-03     10.5272E-03    -16.4495E-03     29.7615E-03    -13.3638E-03     10.4999E-03
            2444     12.4336E-03     976.451E-06     6.38316E+06    -35.3679E+06    -33.0383E+06    -6.12825E+06    -15.4911E-03     28.5507E-03    -13.0595E-03     8.57853E-03    -15.3603E-03     28.4127E-03    -13.1827E-03     8.49790E-03
            2445     11.5472E-03     975.505E-06     4.30568E+06    -48.9093E+06    -36.4480E+06    -8.04223E+06    -14.8474E-03     27.7704E-03    -12.9229E-03     7.10607E-03    -14.7023E-03     27.5725E-03    -13.0405E-03     7.00125E-03
            2446     10.6602E-03     974.764E-06     1.62621E+06    -55.9662E+06    -36.2938E+06    -7.43609E+06    -14.4032E-03     27.2207E-03    -12.8175E-03     5.96892E-03    -14.2614E-03     26.9912E-03    -12.9202E-03     5.87218E-03
            2447     9.77314E-03     974.351E-06    -1.11890E+06    -60.0367E+06    -33.8426E+06    -6.50702E+06    -14.0386E-03     26.7723E-03    -12.7337E-03     5.05295E-03    -13.9082E-03     26.5228E-03    -12.8142E-03     4.96840E-03
            2448     8.88533E-03     973.884E-06    -3.76535E+06    -61.3294E+06    -30.1530E+06    -5.71784E+06    -13.7490E-03     26.4109E-03    -12.6619E-03     4.30580E-03    -13.6352E-03     26.1535E-03    -12.7183E-03     4.23157E-03
            2449     7.99774E-03     973.533E-06    -5.67463E+06    -60.0248E+06     -26.497E+06    -4.48020E+06    -13.4954E-03     26.0876E-03    -12.5923E-03     3.66274E-03    -13.3983E-03     25.8341E-03    -12.6295E-03     3.60459E-03
            2450     7.10958E-03     973.208E-06    -6.94030E+06    -58.1778E+06    -22.5132E+06    -3.34497E+06    -13.2548E-03     25.7842E-03    -12.5293E-03     3.11269E-03    -13.1725E-03     25.5360E-03    -12.5475E-03     3.06928E-03
            2451     6.22145E-03     972.918E-06    -7.85827E+06    -56.4816E+06    -19.1102E+06    -2.60912E+06    -13.0366E-03     25.5074E-03    -12.4708E-03     2.61553E-03    -12.9663E-03     25.2641E-03    -12.4730E-03     2.58167E-03
            2452     5.33299E-03     972.634E-06    -8.43910E+06    -54.4403E+06    -16.5348E+06    -2.02476E+06    -12.8393E-03     25.2545E-03    -12.4152E-03     2.16348E-03    -12.7786E-03     25.0185E-03    -12.4067E-03     2.13721E-03
            2453     4.44449E-03     972.411E-06    -8.85927E+06    -53.2133E+06    -14.1244E+06    -1.60532E+06    -12.6657E-03     25.0343E-03    -12.3686E-03     1.74767E-03    -12.6123E-03     24.8015E-03    -12.3493E-03     1.72685E-03
            2454     3.55571E-03     972.199E-06    -9.24489E+06    -52.2474E+06    -12.4735E+06    -1.15562E+06    -12.5203E-03     24.8486E-03    -12.3283E-03     1.36418E-03    -12.4726E-03     24.6188E-03    -12.3015E-03     1.34919E-03
            2455     2.66695E-03     972.052E-06    -9.40070E+06    -50.9874E+06    -11.5179E+06    -646.074E+03    -12.4055E-03     24.6992E-03    -12.2937E-03     998.640E-06    -12.3618E-03     24.4745E-03    -12.2637E-03     990.238E-06
            2456     1.77795E-03     971.934E-06    -9.34935E+06    -50.0250E+06    -10.3032E+06    -327.895E+03    -12.3238E-03     24.5938E-03    -12.2700E-03     663.572E-06    -12.2829E-03     24.3721E-03    -12.2354E-03     659.313E-06
            2457     889.075E-06     971.876E-06    -9.33243E+06    -49.5008E+06    -9.50838E+06    -132.423E+03    -12.2679E-03     24.5243E-03    -12.2564E-03     363.802E-06    -12.2285E-03     24.3044E-03    -12.2186E-03     362.232E-06


