********************************************************************************
Field Output Report, written Wed May 29 01:36:09 2024

Source 1
---------

   ODB: G:/Abaqus_calc_2019/1740/Vel_5/odb/zeides_2a_8_red_1000_cal_30_vel_5_fric_050.odb
   Step: Step-1
   Frame: Increment  17980048: Step Time =    2.165

Loc 1 : Nodal values from source 1

Output sorted by column "Nodal Label".

Field Output reported at nodes for region: DIE_2A_8_D0_36-1.Region_1
   Computation algorithm: EXTRAPOLATE_COMPUTE_AVERAGE
   Averaged at nodes
   Averaging regions: ODB_REGIONS

      Node Label     COORD.COOR1     COORD.COOR2
                          @Loc 1          @Loc 1
-------------------------------------------------
               1     17.3301E-03     141.349E-03


Field Output reported at nodes for region: DIE_2A_8_D0_36-1.Region_2
   Computation algorithm: EXTRAPOLATE_COMPUTE_AVERAGE
   Averaged at nodes
   Averaging regions: ODB_REGIONS

      Node Label     COORD.COOR1     COORD.COOR2
                          @Loc 1          @Loc 1
-------------------------------------------------
               1     17.3301E-03     141.349E-03


Field Output reported at nodes for part: WIRE-1
   Computation algorithm: EXTRAPOLATE_COMPUTE_AVERAGE
   Averaged at nodes
   Averaging regions: ODB_REGIONS

      Node Label     COORD.COOR1     COORD.COOR2           S.S11           S.S22           S.S33           S.S12         PE.PE11         PE.PE22         PE.PE33         PE.PE12         LE.LE11         LE.LE22         LE.LE33         LE.LE12
                          @Loc 1          @Loc 1          @Loc 1          @Loc 1          @Loc 1          @Loc 1          @Loc 1          @Loc 1          @Loc 1          @Loc 1          @Loc 1          @Loc 1          @Loc 1          @Loc 1
-------------------------------------------------------------------------------------------------------------------------------------------------------------------------------------------------------------------------------------------------
               1    -3.28385E-06     67.4114E-03    -117.513E+06    -234.111E+06    -119.868E+06    -1.52545E+06    -105.023E-03     210.659E-03    -105.636E-03     2.35881E-03    -105.081E-03     209.846E-03    -105.725E-03     2.27906E-03
               2     16.2008E-03     68.2054E-03     -57.635E+03     101.344E+06     93.5256E+06     4.14553E+06    -104.507E-03     210.193E-03    -105.686E-03     16.1235E-03    -104.834E-03     210.607E-03    -105.365E-03     15.1888E-03
               3     16.2052E-03     136.322E-03     7.72950E+06     5.02571E+06     32.3056E+06    -8.93097E+06    -96.0624E-03     201.359E-03    -105.297E-03     19.0154E-03    -96.0778E-03     201.336E-03    -105.154E-03     18.7730E-03
               4    -7.70451E-06     135.126E-03     38.5781E+06    -4.73549E+06     34.6621E+06    -2.11718E+06    -108.450E-03     220.359E-03    -111.909E-03    -2.39289E-03    -108.280E-03     220.275E-03    -111.785E-03    -2.45843E-03
               5    -243.867E-09     1.23512E-15    -59.3495E+06    -192.871E+06    -59.6926E+06    -164.211E+03    -100.386E-03     201.171E-03    -100.785E-03     314.985E-06    -100.305E-03     200.384E-03    -100.718E-03     320.188E-06
               6     16.1227E-03     1.23512E-15    -322.093E+03     114.284E+06     100.529E+06    -3.27964E+06    -143.284E-03     251.436E-03    -108.152E-03     63.3685E-03    -143.794E-03     252.059E-03    -107.814E-03     61.7222E-03
               7     809.242E-06     67.4127E-03    -116.651E+06    -225.690E+06    -115.175E+06    -386.824E+03    -105.796E-03     211.488E-03    -105.692E-03     5.60928E-03    -105.877E-03     210.702E-03    -105.771E-03     5.51259E-03
               8     1.61927E-03     67.4241E-03    -111.980E+06    -207.630E+06    -100.453E+06     564.641E+03    -106.183E-03     212.047E-03    -105.865E-03     12.0333E-03    -106.297E-03     211.319E-03    -105.904E-03     11.8837E-03
               9     2.42783E-03     67.4431E-03    -103.996E+06    -190.834E+06    -82.4397E+06    -1.01524E+06    -105.294E-03     211.205E-03    -105.910E-03     17.9777E-03    -105.424E-03     210.527E-03    -105.895E-03     17.7272E-03
              10     3.23972E-03     67.4669E-03    -96.2383E+06    -174.349E+06    -65.4332E+06    -1.18312E+06    -105.351E-03     211.163E-03    -105.812E-03     23.9202E-03    -105.498E-03     210.540E-03    -105.747E-03     23.5884E-03
              11     4.04956E-03     67.5008E-03    -89.4794E+06    -154.364E+06    -48.2312E+06     392.588E+03    -106.520E-03     212.393E-03    -105.873E-03     29.6555E-03    -106.696E-03     211.843E-03    -105.761E-03     29.2635E-03
              12     4.85631E-03     67.5375E-03    -81.1888E+06    -134.171E+06    -30.3456E+06     348.726E+03    -106.665E-03     212.704E-03    -106.039E-03     34.8271E-03    -106.865E-03     212.228E-03    -105.879E-03     34.3409E-03
              13     5.66689E-03     67.5794E-03    -71.7829E+06    -117.923E+06    -15.5277E+06    -1.03033E+06    -105.604E-03     211.691E-03    -106.087E-03     40.0484E-03    -105.813E-03     211.272E-03    -105.890E-03     39.4671E-03
              14     6.47773E-03     67.6248E-03    -63.7689E+06    -102.316E+06    -5.05010E+06    -1.76717E+06    -105.331E-03     211.344E-03    -106.013E-03     43.9055E-03    -105.550E-03     210.988E-03    -105.797E-03     43.2459E-03
              15     7.28707E-03     67.6741E-03    -56.6211E+06    -84.6624E+06     4.96336E+06    -913.312E+03    -105.980E-03     211.946E-03    -105.966E-03     46.2290E-03    -106.215E-03     211.665E-03    -105.736E-03     45.4899E-03
              16     8.09646E-03     67.7263E-03    -51.0784E+06    -68.8281E+06     13.3290E+06    -438.028E+03    -105.980E-03     211.938E-03    -105.958E-03     47.9337E-03    -106.233E-03     211.727E-03    -105.718E-03     47.1237E-03
              17     8.90738E-03     67.7827E-03    -45.6722E+06    -53.1781E+06     21.7004E+06     197.648E+03    -105.633E-03     211.571E-03    -105.937E-03     49.4249E-03    -105.904E-03     211.427E-03    -105.685E-03     48.5698E-03
              18     9.71760E-03     67.8399E-03    -39.3940E+06    -33.6291E+06     29.9775E+06     309.389E+03    -105.559E-03     211.454E-03    -105.895E-03     49.9694E-03    -105.850E-03     211.399E-03    -105.639E-03     49.0401E-03
              19     10.5271E-03     67.8964E-03    -33.4947E+06    -12.9505E+06     37.6557E+06    -1.25007E+06    -105.561E-03     211.415E-03    -105.854E-03     50.3566E-03    -105.876E-03     211.456E-03    -105.598E-03     49.3245E-03
              20     11.3380E-03     67.9542E-03    -30.0562E+06     5.27651E+06     43.1426E+06    -3.54570E+06    -105.614E-03     211.431E-03    -105.818E-03     50.8748E-03    -105.955E-03     211.560E-03    -105.566E-03     49.7464E-03
              21     12.1467E-03     68.0127E-03    -29.0391E+06     37.2098E+06     49.4688E+06    -3.76426E+06    -105.341E-03     211.112E-03    -105.770E-03     49.9635E-03    -105.740E-03     211.396E-03    -105.535E-03     48.7798E-03
              22     12.9583E-03     68.0686E-03    -31.0784E+06     66.5440E+06     54.2317E+06     2.57843E+06    -104.999E-03     210.713E-03    -105.714E-03     48.5352E-03    -105.463E-03     211.145E-03    -105.494E-03     47.3824E-03
              23     13.7685E-03     68.1212E-03    -27.3382E+06     75.7018E+06     51.7961E+06     6.68236E+06    -104.562E-03     210.193E-03    -105.631E-03     43.4579E-03    -105.017E-03     210.669E-03    -105.442E-03     42.2874E-03
              24     14.5802E-03     68.1598E-03    -10.1548E+06     94.9961E+06     66.0577E+06    -157.568E+03    -104.766E-03     210.369E-03    -105.604E-03     35.8548E-03    -105.175E-03     210.888E-03    -105.396E-03     34.5047E-03
              25     15.3889E-03     68.1949E-03     351.296E+03     106.199E+06     88.0752E+06    -892.936E+03    -104.920E-03     210.578E-03    -105.658E-03     24.3725E-03    -105.282E-03     211.062E-03    -105.372E-03     23.1683E-03
              26     16.2003E-03     69.3789E-03     5.14187E+06     105.794E+06     99.3387E+06    -2.02894E+06    -106.598E-03     212.254E-03    -105.656E-03     14.2491E-03    -106.917E-03     212.678E-03    -105.320E-03     13.2612E-03
              27     16.1988E-03     70.5574E-03    -1.06933E+06     104.963E+06     94.8994E+06    -1.27851E+06    -106.801E-03     212.480E-03    -105.679E-03     18.4682E-03    -107.149E-03     212.922E-03    -105.355E-03     17.5021E-03
              28     16.1997E-03     71.7306E-03    -1.65634E+06     104.138E+06     93.6299E+06    -566.226E+03    -105.388E-03     211.093E-03    -105.705E-03     21.3869E-03    -105.739E-03     211.536E-03    -105.385E-03     20.4559E-03
              29     16.1998E-03     72.8992E-03    -2.81915E+06     102.945E+06     92.5682E+06     340.408E+03    -103.837E-03     209.555E-03    -105.718E-03     18.5741E-03    -104.186E-03     209.991E-03    -105.400E-03     17.6699E-03
              30     16.2003E-03     74.0660E-03    -2.20627E+06     104.344E+06     93.4275E+06     902.207E+03    -102.781E-03     208.523E-03    -105.742E-03     17.2398E-03    -103.128E-03     208.962E-03    -105.423E-03     16.3178E-03
              31     16.1995E-03     75.2368E-03    -2.43788E+06     107.165E+06     95.9643E+06     1.27857E+06    -103.104E-03     208.856E-03    -105.752E-03     18.6058E-03    -103.466E-03     209.312E-03    -105.424E-03     17.6434E-03
              32     16.2000E-03     76.4050E-03    -1.72138E+06     108.242E+06     96.8412E+06    -253.165E+03    -104.847E-03     210.573E-03    -105.726E-03     18.5053E-03    -105.209E-03     211.032E-03    -105.396E-03     17.5184E-03
              33     16.1987E-03     77.5764E-03    -1.53967E+06     104.620E+06     94.6839E+06    -2.28762E+06    -106.344E-03     212.049E-03    -105.705E-03     15.6507E-03    -106.688E-03     212.485E-03    -105.382E-03     14.6720E-03
              34     16.1992E-03     78.7486E-03    -3.28566E+06     99.9110E+06     91.9580E+06     585.487E+03    -104.734E-03     210.472E-03    -105.739E-03     15.6441E-03    -105.073E-03     210.888E-03    -105.419E-03     14.7062E-03
              35     16.1997E-03     79.9220E-03    -3.81418E+06     97.3934E+06     92.4949E+06     2.60351E+06    -103.798E-03     209.543E-03    -105.744E-03     22.6314E-03    -104.109E-03     209.912E-03    -105.418E-03     21.3851E-03
              36     16.2000E-03     81.0936E-03     1.10670E+06     96.7165E+06     87.5857E+06    -4.41086E+06    -106.974E-03     212.675E-03    -105.701E-03     19.2647E-03    -107.011E-03     212.760E-03    -105.405E-03     17.8775E-03
              37     16.1950E-03     82.2589E-03    -12.0994E+06     91.4419E+06     74.8473E+06     1.03871E+06    -107.422E-03     213.135E-03    -105.712E-03     9.26445E-03    -107.480E-03     213.211E-03    -105.453E-03     8.68341E-03
              38     16.2007E-03     83.4297E-03    -18.0281E+06     96.4241E+06     82.2396E+06     4.68355E+06    -104.339E-03     210.079E-03    -105.741E-03     10.1817E-03    -104.685E-03     210.458E-03    -105.443E-03     9.72780E-03
              39     16.1994E-03     84.6076E-03     3.12922E+06     107.014E+06     97.1770E+06    -2.03001E+06    -103.552E-03     209.308E-03    -105.756E-03     14.5945E-03    -103.882E-03     209.747E-03    -105.430E-03     13.6324E-03
              40     16.1985E-03     85.7746E-03     3.03759E+06     109.568E+06     97.7216E+06     2.86165E+06    -102.299E-03     208.101E-03    -105.802E-03     16.6261E-03    -102.641E-03     208.559E-03    -105.476E-03     15.6761E-03
              41     16.2008E-03     86.9421E-03     5.29054E+06     113.218E+06     102.370E+06     452.327E+03    -102.735E-03     208.495E-03    -105.760E-03     21.0055E-03    -103.083E-03     208.967E-03    -105.420E-03     20.0244E-03
              42     16.2001E-03     88.1151E-03     1.17954E+06     111.544E+06     99.9223E+06    -3.14309E+06    -106.817E-03     212.450E-03    -105.633E-03     21.8357E-03    -107.177E-03     212.921E-03    -105.297E-03     20.8184E-03
              43     16.2004E-03     89.2898E-03    -2.48548E+06     109.628E+06     97.0601E+06     253.483E+03    -107.563E-03     213.173E-03    -105.611E-03     17.5849E-03    -107.926E-03     213.635E-03    -105.281E-03     16.6376E-03
              44     16.2002E-03     90.4584E-03    -3.29348E+06     110.048E+06     96.7971E+06     255.122E+03    -106.402E-03     212.076E-03    -105.674E-03     14.8365E-03    -106.765E-03     212.537E-03    -105.345E-03     13.9012E-03
              45     16.1980E-03     91.6343E-03    -1.55410E+06     110.160E+06     96.6252E+06     1.80116E+03    -105.430E-03     211.157E-03    -105.727E-03     15.4596E-03    -105.790E-03     211.623E-03    -105.401E-03     14.4670E-03
              46     16.2006E-03     92.8027E-03     729.465E+03     108.183E+06     97.7573E+06     818.958E+03    -103.638E-03     209.385E-03    -105.747E-03     17.9582E-03    -103.987E-03     209.838E-03    -105.417E-03     16.9864E-03
              47     16.1996E-03     93.9759E-03    -1.15733E+06     101.116E+06     97.4213E+06     2.85222E+06    -102.370E-03     208.155E-03    -105.785E-03     19.7038E-03    -102.682E-03     208.534E-03    -105.443E-03     18.5219E-03
              48     16.1995E-03     95.1428E-03    -7.13096E+06     98.2523E+06     83.0154E+06    -6.92816E+06    -104.036E-03     209.808E-03    -105.772E-03     19.2330E-03    -104.192E-03     210.012E-03    -105.489E-03     17.8837E-03
              49     16.1954E-03     96.3083E-03    -30.3624E+06     95.3861E+06     69.5084E+06     5.34531E+06    -105.567E-03     211.307E-03    -105.740E-03     13.9296E-03    -105.818E-03     211.552E-03    -105.487E-03     13.2671E-03
              50     16.2011E-03     97.4806E-03     -51.676E+03     103.689E+06     94.4213E+06     3.55732E+06    -103.807E-03     209.591E-03    -105.784E-03     13.8960E-03    -104.116E-03     209.989E-03    -105.462E-03     13.2711E-03
              51     16.1981E-03     98.6538E-03     13.4859E+06     111.502E+06     100.687E+06    -4.17403E+06    -103.013E-03     208.780E-03    -105.767E-03     16.1449E-03    -103.304E-03     209.222E-03    -105.445E-03     15.1648E-03
              52     16.2008E-03     99.8168E-03     1.21166E+06     111.599E+06     97.4850E+06     2.99469E+06    -104.367E-03     210.077E-03    -105.710E-03     16.3824E-03    -104.717E-03     210.545E-03    -105.386E-03     15.4485E-03
              53     16.1997E-03     100.993E-03     4.07914E+06     115.762E+06     102.459E+06    -3.10954E+06    -106.054E-03     211.725E-03    -105.671E-03     16.9601E-03    -106.401E-03     212.200E-03    -105.332E-03     15.9572E-03
              54     16.1999E-03     102.168E-03    -3.41869E+06     116.245E+06     99.0935E+06     819.913E+03    -105.818E-03     211.496E-03    -105.678E-03     17.0675E-03    -106.196E-03     211.988E-03    -105.346E-03     16.1512E-03
              55     16.2002E-03     103.334E-03    -1.74009E+06     117.656E+06     100.247E+06     921.842E+03    -105.345E-03     211.024E-03    -105.679E-03     15.6386E-03    -105.717E-03     211.517E-03    -105.346E-03     14.7284E-03
              56     16.2002E-03     104.509E-03    -3.36230E+06     118.769E+06     99.9113E+06     527.307E+03    -104.398E-03     210.095E-03    -105.697E-03     14.7345E-03    -104.778E-03     210.595E-03    -105.365E-03     13.8154E-03
              57     16.2001E-03     105.679E-03    -2.70058E+06     119.028E+06     99.8189E+06    -484.355E+03    -102.701E-03     208.442E-03    -105.741E-03     18.2596E-03    -103.087E-03     208.951E-03    -105.411E-03     17.3051E-03
              58     16.2002E-03     106.847E-03    -2.55755E+06     118.064E+06     99.1026E+06     143.980E+03    -102.810E-03     208.544E-03    -105.733E-03     18.8501E-03    -103.195E-03     209.051E-03    -105.405E-03     17.8896E-03
              59     16.2004E-03     108.014E-03    -1.94884E+06     119.505E+06     100.578E+06     364.583E+03    -104.013E-03     209.703E-03    -105.690E-03     17.4635E-03    -104.396E-03     210.211E-03    -105.357E-03     16.5072E-03
              60     16.2010E-03     109.184E-03    -2.51734E+06     120.204E+06     101.127E+06    -437.724E+03    -104.940E-03     210.583E-03    -105.643E-03     15.2419E-03    -105.321E-03     211.089E-03    -105.308E-03     14.3043E-03
              61     16.2011E-03     110.356E-03    -3.19963E+06     118.285E+06     99.7297E+06    -757.733E+03    -103.139E-03     208.805E-03    -105.666E-03     13.1052E-03    -103.512E-03     209.298E-03    -105.335E-03     12.2197E-03
              62     16.2015E-03     111.523E-03    -2.28592E+06     115.985E+06     99.0225E+06    -335.697E+03    -101.394E-03     207.087E-03    -105.693E-03     16.6600E-03    -101.767E-03     207.576E-03    -105.363E-03     15.7521E-03
              63     16.2017E-03     112.693E-03    -3.73614E+06     113.620E+06     98.4155E+06    -617.983E+03    -102.183E-03     207.845E-03    -105.661E-03     19.6308E-03    -102.568E-03     208.334E-03    -105.328E-03     18.6658E-03
              64     16.2019E-03     113.861E-03    -2.80106E+06     109.856E+06     97.4225E+06    -1.92917E+06    -102.860E-03     208.486E-03    -105.626E-03     19.7478E-03    -103.233E-03     208.957E-03    -105.295E-03     18.7533E-03
              65     16.2024E-03     115.028E-03    -2.21845E+06     103.881E+06     94.5729E+06    -1.90034E+06    -103.549E-03     209.131E-03    -105.582E-03     18.5268E-03    -103.904E-03     209.572E-03    -105.256E-03     17.5500E-03
              66     16.2024E-03     116.198E-03    -2.29287E+06     99.2467E+06     91.8309E+06    -1.38459E+06    -104.608E-03     210.138E-03    -105.530E-03     17.1819E-03    -104.947E-03     210.556E-03    -105.212E-03     16.2297E-03
              67     16.2029E-03     117.368E-03    -3.07806E+06     94.2225E+06     89.5219E+06    -2.65831E+06    -105.635E-03     211.120E-03    -105.484E-03     16.7678E-03    -105.967E-03     211.515E-03    -105.169E-03     15.8031E-03
              68     16.2030E-03     118.541E-03    -1.41371E+06     86.8714E+06     85.8899E+06    -2.40562E+06    -106.146E-03     211.593E-03    -105.447E-03     17.0150E-03    -106.452E-03     211.954E-03    -105.142E-03     16.0607E-03
              69     16.2033E-03     119.715E-03    -2.28121E+06     80.3995E+06     81.7184E+06    -1.76223E+06    -106.539E-03     211.956E-03    -105.417E-03     19.8309E-03    -106.842E-03     212.299E-03    -105.122E-03     18.8581E-03
              70     16.2033E-03     120.889E-03    -2.31333E+06     74.7112E+06     79.8226E+06    -2.10352E+06    -108.663E-03     214.016E-03    -105.353E-03     23.5215E-03    -108.962E-03     214.341E-03    -105.059E-03     22.5044E-03
              71     16.2036E-03     122.067E-03    -1.27669E+06     69.8060E+06     78.8120E+06    -1.87342E+06    -110.589E-03     215.885E-03    -105.297E-03     24.9786E-03    -110.876E-03     216.187E-03    -105.002E-03     23.9475E-03
              72     16.2035E-03     123.245E-03    -3.02653E+06     62.0337E+06     74.2652E+06    -1.78478E+06    -110.557E-03     215.836E-03    -105.279E-03     24.3714E-03    -110.831E-03     216.104E-03    -104.993E-03     23.3687E-03
              73     16.2040E-03     124.418E-03    -3.26980E+06     56.9610E+06     74.3174E+06    -2.30128E+06    -111.257E-03     216.511E-03    -105.254E-03     23.3422E-03    -111.522E-03     216.750E-03    -104.960E-03     22.3508E-03
              74     16.2041E-03     125.598E-03     11.7826E+03     53.2407E+06     77.7218E+06    -1.75143E+06    -114.081E-03     219.261E-03    -105.179E-03     24.6674E-03    -114.332E-03     219.476E-03    -104.868E-03     23.6437E-03
              75     16.2048E-03     126.783E-03    -2.61866E+06     45.9806E+06     76.3484E+06    -1.95865E+06    -117.531E-03     222.606E-03    -105.075E-03     27.3148E-03    -117.786E-03     222.794E-03    -104.756E-03     26.2600E-03
              76     16.2049E-03     127.971E-03    -819.301E+03     39.3274E+06     77.2528E+06    -1.81944E+06    -120.624E-03     225.599E-03    -104.974E-03     28.8706E-03    -120.864E-03     225.751E-03    -104.644E-03     27.8084E-03
              77     16.2062E-03     129.160E-03    -3.67156E+06     31.1686E+06     76.5745E+06    -3.04772E+06    -123.921E-03     228.779E-03    -104.859E-03     30.3026E-03    -124.162E-03     228.896E-03    -104.516E-03     29.2198E-03
              78     16.2064E-03     130.356E-03     471.688E+03     22.3057E+06     76.1511E+06    -2.36917E+06    -127.277E-03     232.004E-03    -104.726E-03     32.3650E-03    -127.485E-03     232.072E-03    -104.379E-03     31.2969E-03
              79     16.2081E-03     131.555E-03    -792.245E+03     20.2642E+06     75.4332E+06     1.19791E+06    -129.900E-03     234.504E-03    -104.605E-03     35.0440E-03    -130.109E-03     234.564E-03    -104.256E-03     34.0616E-03
              80     16.2082E-03     132.757E-03    -2.05699E+06     24.8111E+06     72.5656E+06     1.85807E+06    -131.482E-03     235.974E-03    -104.493E-03     37.0101E-03    -131.692E-03     236.056E-03    -104.163E-03     36.1418E-03
              81     16.2098E-03     133.959E-03    -2.11225E+06     23.0548E+06     63.2792E+06    -302.705E+03    -130.908E-03     235.342E-03    -104.435E-03     39.7124E-03    -131.084E-03     235.410E-03    -104.149E-03     39.0801E-03
              82     16.2085E-03     135.164E-03    -4.98177E+06     11.8665E+06     42.7303E+06    -5.91176E+06    -112.961E-03     217.827E-03    -104.866E-03     30.3832E-03    -113.079E-03     217.850E-03    -104.662E-03     30.0246E-03
              83     15.3622E-03     136.265E-03     4.52440E+06    -2.04400E+06     36.1510E+06    -3.77384E+06    -95.7972E-03     201.335E-03    -105.538E-03     9.63948E-03    -95.8221E-03     201.274E-03    -105.360E-03     9.44055E-03
              84     14.5349E-03     136.177E-03     2.59391E+06    -3.31547E+06     53.2295E+06     2.86340E+06    -94.2999E-03     200.344E-03    -106.044E-03    -7.79994E-03    -94.3542E-03     200.250E-03    -105.776E-03    -7.91411E-03
              85     13.7121E-03     136.086E-03     2.73213E+06     4.92829E+06     70.9222E+06     35.1343E+03    -92.5693E-03     199.143E-03    -106.574E-03    -20.1586E-03    -92.6592E-03     199.061E-03    -106.230E-03    -20.2897E-03
              86     12.8937E-03     135.994E-03     2.71520E+06     789.324E+03     76.7560E+06    -4.47799E+06    -92.2406E-03     199.358E-03    -107.117E-03    -27.2534E-03    -92.3331E-03     199.243E-03    -106.738E-03    -27.4402E-03
              87     12.0769E-03     135.904E-03     4.93669E+06    -1.64192E+06     82.4792E+06    -4.43490E+06    -93.1983E-03     200.866E-03    -107.668E-03    -31.6625E-03    -93.2846E-03     200.726E-03    -107.260E-03    -31.8448E-03
              88     11.2631E-03     135.816E-03     6.66710E+06    -203.111E+03     87.0670E+06    -4.20817E+06    -94.7221E-03     202.907E-03    -108.185E-03    -34.0763E-03    -94.8088E-03     202.763E-03    -107.759E-03    -34.2588E-03
              89     10.4511E-03     135.730E-03     8.18755E+06    -489.246E+03     87.7385E+06    -4.73988E+06    -96.1971E-03     204.854E-03    -108.657E-03    -35.3467E-03    -96.2770E-03     204.705E-03    -108.229E-03    -35.5376E-03
              90     9.64033E-03     135.648E-03     10.4202E+06    -245.401E+03     87.2871E+06    -5.61964E+06    -98.0695E-03     207.155E-03    -109.085E-03    -35.7994E-03    -98.1386E-03     207.003E-03    -108.663E-03    -36.0044E-03
              91     8.83210E-03     135.571E-03     13.0356E+06    -1.82422E+06     85.9252E+06    -5.59436E+06    -100.230E-03     209.677E-03    -109.448E-03    -35.5629E-03    -100.282E-03     209.515E-03    -109.034E-03    -35.7710E-03
              92     8.02583E-03     135.500E-03     14.9857E+06    -1.14812E+06     83.5944E+06    -5.00399E+06    -102.012E-03     211.753E-03    -109.741E-03    -34.5113E-03    -102.053E-03     211.594E-03    -109.343E-03    -34.7141E-03
              93     7.21998E-03     135.434E-03     16.4690E+06    -464.439E+03     79.8470E+06    -5.07675E+06    -103.488E-03     213.475E-03    -109.987E-03    -32.7188E-03    -103.517E-03     213.323E-03    -109.611E-03    -32.9237E-03
              94     6.41493E-03     135.374E-03     17.9542E+06    -668.354E+03     75.3566E+06    -5.47797E+06    -104.939E-03     215.130E-03    -110.191E-03    -30.8335E-03    -104.955E-03     214.981E-03    -109.839E-03    -31.0398E-03
              95     5.61138E-03     135.320E-03     19.7056E+06    -953.854E+03     70.1923E+06    -5.93879E+06    -106.298E-03     216.645E-03    -110.347E-03    -28.4394E-03    -106.299E-03     216.500E-03    -110.023E-03    -28.6493E-03
              96     4.80855E-03     135.272E-03     22.2674E+06    -950.696E+03     64.1238E+06    -6.30218E+06    -107.402E-03     217.862E-03    -110.459E-03    -25.2400E-03    -107.383E-03     217.722E-03    -110.170E-03    -25.4504E-03
              97     4.00620E-03     135.231E-03     25.3387E+06    -1.31457E+06     57.0154E+06    -6.27212E+06    -108.405E-03     218.939E-03    -110.534E-03    -21.7112E-03    -108.360E-03     218.804E-03    -110.284E-03    -21.9131E-03
              98     3.20405E-03     135.198E-03     28.8826E+06    -1.81723E+06     49.9462E+06    -6.03353E+06    -109.421E-03     219.964E-03    -110.543E-03    -17.6845E-03    -109.350E-03     219.832E-03    -110.332E-03    -17.8726E-03
              99     2.40327E-03     135.170E-03     33.1467E+06    -2.24628E+06     45.0990E+06    -5.46018E+06    -109.917E-03     220.419E-03    -110.502E-03    -14.2255E-03    -109.818E-03     220.286E-03    -110.321E-03    -14.3800E-03
             100     1.60191E-03     135.151E-03     36.4098E+06    -2.24457E+06     42.7113E+06    -4.52105E+06    -110.247E-03     220.691E-03    -110.444E-03    -11.0323E-03    -110.129E-03     220.559E-03    -110.280E-03    -11.1476E-03
             101     800.616E-06     135.142E-03     37.9737E+06    -3.60829E+06     38.1856E+06    -3.04950E+06    -109.510E-03     220.669E-03    -111.159E-03    -5.73331E-03    -109.363E-03     220.561E-03    -111.018E-03    -5.81601E-03
             102     4.95310E-06     133.948E-03     21.9988E+06    -10.1936E+06     22.5780E+06    -2.47986E+06    -105.051E-03     209.016E-03    -103.966E-03    -585.787E-06    -104.933E-03     208.936E-03    -103.870E-03    -640.510E-06
             103    -356.726E-09     132.799E-03    -9.80424E+06    -24.1707E+06    -7.91087E+06    -4.09629E+06    -97.2557E-03     192.245E-03    -94.9890E-03     1.47470E-03    -97.2420E-03     192.170E-03    -94.9793E-03     1.41449E-03
             104    -550.057E-09     131.653E-03    -45.3793E+06    -43.7524E+06    -45.1497E+06    -5.28709E+06    -90.8078E-03     183.050E-03    -92.2424E-03     3.16935E-03    -90.9047E-03     182.978E-03    -92.3389E-03     3.09382E-03
             105    -900.524E-09     130.514E-03    -87.7837E+06    -66.8769E+06    -87.4525E+06    -5.65418E+06    -88.2085E-03     177.992E-03    -89.7839E-03     6.69735E-03    -88.4196E-03     177.925E-03    -89.9969E-03     6.60731E-03
             106    -263.645E-09     129.388E-03    -129.118E+06    -88.3891E+06    -129.906E+06    -4.41677E+06    -89.5262E-03     179.163E-03    -89.6368E-03     5.61867E-03    -89.8486E-03     179.110E-03    -89.9709E-03     5.57326E-03
             107     1.20515E-06     128.253E-03    -166.616E+06    -108.004E+06    -166.096E+06    -3.07134E+06    -92.7629E-03     184.207E-03    -91.4442E-03     4.42197E-03    -93.1954E-03     184.164E-03    -91.8764E-03     4.41772E-03
             108     8.57104E-09     127.105E-03    -170.293E+06    -123.155E+06    -170.057E+06    -4.19051E+06    -94.4134E-03     188.721E-03    -94.3072E-03     7.30772E-03    -94.8354E-03     188.612E-03    -94.7320E-03     7.24376E-03
             109    -1.07472E-06     125.957E-03    -146.530E+06    -134.980E+06    -147.343E+06    -3.19210E+06    -96.3506E-03     193.036E-03    -96.6852E-03     8.05624E-03    -96.6684E-03     192.802E-03    -97.0138E-03     7.98270E-03
             110     1.54426E-06     124.807E-03    -127.774E+06    -142.678E+06    -128.661E+06    -1.01906E+06    -99.4686E-03     198.457E-03    -98.9888E-03     6.69420E-03    -99.7092E-03     198.132E-03    -99.2400E-03     6.65050E-03
             111    -1.26882E-06     123.649E-03    -116.559E+06    -147.322E+06    -116.201E+06    -1.01690E+06    -101.668E-03     203.230E-03    -101.563E-03     3.69169E-03    -101.859E-03     202.848E-03    -101.761E-03     3.67334E-03
             112     1.14576E-06     122.486E-03    -113.483E+06    -154.752E+06    -114.028E+06    -2.19825E+06    -103.200E-03     206.430E-03    -103.230E-03     2.23794E-03    -103.365E-03     206.005E-03    -103.411E-03     2.22500E-03
             113    -1.09889E-06     121.320E-03    -113.482E+06    -161.560E+06    -113.303E+06    -1.53603E+06    -104.252E-03     208.905E-03    -104.653E-03     2.61617E-03    -104.410E-03     208.446E-03    -104.821E-03     2.58725E-03
             114     383.611E-09     120.148E-03    -113.551E+06    -169.705E+06    -112.777E+06    -2.16638E+06    -105.254E-03     211.016E-03    -105.762E-03     4.50739E-03    -105.401E-03     210.513E-03    -105.915E-03     4.43006E-03
             115    -512.023E-09     118.976E-03    -116.072E+06    -179.160E+06    -117.234E+06    -2.07099E+06    -106.737E-03     213.463E-03    -106.725E-03     5.17334E-03    -106.880E-03     212.922E-03    -106.883E-03     5.06794E-03
             116     621.250E-09     117.804E-03    -119.422E+06    -186.210E+06    -119.749E+06    -818.889E+03    -108.176E-03     215.568E-03    -107.392E-03     3.42554E-03    -108.322E-03     215.000E-03    -107.548E-03     3.37377E-03
             117     514.553E-09     116.625E-03    -117.910E+06    -189.824E+06    -118.189E+06    -1.01850E+06    -109.030E-03     216.671E-03    -107.640E-03     3.49926E-03    -109.164E-03     216.078E-03    -107.785E-03     3.47083E-03
             118     570.894E-09     115.448E-03    -119.143E+06    -194.367E+06    -118.929E+06    -1.43025E+06    -108.589E-03     216.841E-03    -108.252E-03     4.20247E-03    -108.723E-03     216.229E-03    -108.393E-03     4.14578E-03
             119    -1.13144E-06     114.270E-03    -119.066E+06    -198.793E+06    -119.467E+06    -593.710E+03    -106.745E-03     215.798E-03    -109.053E-03     3.43945E-03    -106.875E-03     215.163E-03    -109.189E-03     3.36874E-03
             120    -2.05513E-06     113.098E-03    -121.595E+06    -202.606E+06    -120.119E+06    -619.740E+03    -106.305E-03     215.526E-03    -109.221E-03     4.13938E-03    -106.438E-03     214.877E-03    -109.351E-03     4.05312E-03
             121     523.727E-09     111.915E-03    -124.047E+06    -209.195E+06    -124.732E+06    -780.486E+03    -107.767E-03     215.945E-03    -108.178E-03     6.61062E-03    -107.894E-03     215.275E-03    -108.318E-03     6.54159E-03
             122     301.385E-09     110.741E-03    -119.849E+06    -206.685E+06    -119.686E+06     716.015E+03    -107.791E-03     215.274E-03    -107.483E-03     6.04496E-03    -107.909E-03     214.602E-03    -107.608E-03     6.02337E-03
             123    -659.147E-09     109.573E-03    -117.381E+06    -206.605E+06    -116.679E+06    -909.641E+03    -107.240E-03     214.116E-03    -106.876E-03     1.64536E-03    -107.349E-03     213.435E-03    -106.990E-03     1.62026E-03
             124     1.59623E-06     108.396E-03    -120.330E+06    -212.423E+06    -121.092E+06    -964.300E+03    -106.335E-03     212.508E-03    -106.172E-03     3.22343E-03    -106.446E-03     211.808E-03    -106.295E-03     3.14612E-03
             125    -2.30158E-06     107.223E-03    -123.591E+06    -215.264E+06    -122.691E+06    -970.038E+03    -106.798E-03     213.794E-03    -106.996E-03     7.06815E-03    -106.920E-03     213.089E-03    -107.118E-03     6.96644E-03
             126     2.66290E-06     106.048E-03    -124.104E+06    -218.848E+06    -125.337E+06    -716.480E+03    -108.091E-03     216.271E-03    -108.180E-03     5.23912E-03    -108.207E-03     215.551E-03    -108.309E-03     5.17676E-03
             127    -3.20371E-06     104.874E-03     -121.38E+06    -218.725E+06    -122.746E+06    -232.174E+03    -106.909E-03     214.234E-03    -107.325E-03     3.56381E-03    -107.013E-03     213.507E-03    -107.446E-03     3.48506E-03
             128     3.04465E-06     103.696E-03    -125.697E+06    -223.300E+06    -123.716E+06    -801.261E+03    -106.655E-03     211.815E-03    -105.160E-03     5.59840E-03    -106.772E-03     211.073E-03    -105.272E-03     5.51519E-03
             129    -468.890E-09     102.532E-03    -123.780E+06    -224.541E+06    -121.413E+06    -153.738E+03    -106.443E-03     211.722E-03    -105.279E-03     4.72551E-03    -106.554E-03     210.967E-03    -105.381E-03     4.64695E-03
             130    -222.060E-09     101.360E-03    -119.173E+06    -223.452E+06    -121.504E+06    -827.513E+03    -105.460E-03     211.803E-03    -106.343E-03     3.20814E-03    -105.551E-03     211.045E-03    -106.454E-03     3.12869E-03
             131    -554.912E-09     100.187E-03    -124.819E+06    -228.596E+06    -126.123E+06    -767.040E+03    -105.677E-03     212.337E-03    -106.660E-03     4.98062E-03    -105.781E-03     211.567E-03    -106.778E-03     4.90940E-03
             132    -293.286E-09     99.0147E-03    -119.729E+06    -228.226E+06    -120.165E+06     1.19433E+06    -105.606E-03     211.933E-03    -106.327E-03     3.79717E-03    -105.695E-03     211.148E-03    -106.424E-03     3.75098E-03
             133    -45.1015E-09     97.8473E-03    -117.846E+06    -228.593E+06    -117.043E+06    -281.721E+03    -104.765E-03     210.206E-03    -105.441E-03     2.43911E-03    -104.847E-03     209.412E-03    -105.524E-03     2.39708E-03
             134    -716.099E-09     96.6789E-03    -123.280E+06    -234.855E+06    -122.695E+06     313.017E+03    -104.878E-03     210.612E-03    -105.733E-03     3.79470E-03    -104.968E-03     209.804E-03    -105.828E-03     3.74292E-03
             135     76.4733E-09     95.5050E-03    -122.919E+06    -232.644E+06    -121.891E+06    -28.6025E+03    -105.830E-03     212.110E-03    -106.281E-03     5.15504E-03    -105.921E-03     211.313E-03    -106.374E-03     5.10200E-03
             136    -182.484E-09     94.3329E-03    -113.242E+06    -226.463E+06    -114.497E+06    -100.893E+03    -106.377E-03     211.907E-03    -105.530E-03     5.18249E-03    -106.439E-03     211.116E-03    -105.610E-03     5.13479E-03
             137     1.61748E-06     93.1638E-03    -113.420E+06    -227.402E+06    -112.189E+06     1.14114E+06    -106.065E-03     211.299E-03    -105.234E-03     5.15282E-03    -106.130E-03     210.502E-03    -105.301E-03     5.07918E-03
             138    -1.72237E-06     91.9935E-03    -118.185E+06    -230.507E+06    -117.257E+06    -2.53194E+06    -105.542E-03     211.364E-03    -105.822E-03     4.26744E-03    -105.620E-03     210.564E-03    -105.902E-03     4.16522E-03
             139     1.36201E-06     90.8238E-03    -117.403E+06    -230.841E+06    -119.539E+06     433.911E+03    -106.261E-03     212.491E-03    -106.229E-03     4.35336E-03    -106.332E-03     211.691E-03    -106.322E-03     4.31527E-03
             140    -995.672E-09     89.6491E-03    -115.152E+06    -225.025E+06    -114.376E+06     2.37465E+06    -105.910E-03     213.132E-03    -107.222E-03     5.20998E-03    -105.984E-03     212.350E-03    -107.301E-03     5.18816E-03
             141    -1.51517E-06     88.4766E-03    -115.547E+06    -227.050E+06    -118.786E+06    -2.80077E+06    -105.055E-03     212.034E-03    -106.980E-03     4.82596E-03    -105.122E-03     211.250E-03    -107.077E-03     4.71652E-03
             142     851.484E-09     87.3062E-03    -120.137E+06    -231.524E+06    -120.187E+06     332.242E+03    -105.804E-03     210.877E-03    -105.073E-03     5.14627E-03    -105.886E-03     210.079E-03    -105.164E-03     5.06541E-03
             143     969.870E-09     86.1363E-03    -120.966E+06    -230.724E+06    -116.526E+06     285.478E+03    -106.157E-03     210.202E-03    -104.044E-03     5.27671E-03    -106.249E-03     209.402E-03    -104.117E-03     5.21093E-03
             144     648.680E-09     84.9695E-03    -118.234E+06    -234.951E+06    -120.989E+06    -1.14160E+06    -105.169E-03     210.267E-03    -105.098E-03     4.58617E-03    -105.234E-03     209.450E-03    -105.191E-03     4.50669E-03
             145    -2.20517E-06     83.8015E-03    -116.826E+06    -229.704E+06    -115.396E+06     2.69891E+06    -105.095E-03     211.872E-03    -106.776E-03     2.68621E-03    -105.170E-03     211.070E-03    -106.851E-03     2.70269E-03
             146     1.03625E-06     82.6285E-03    -112.898E+06    -225.305E+06    -113.016E+06    -994.735E+03    -105.593E-03     211.946E-03    -106.353E-03     1.62930E-03    -105.658E-03     211.157E-03    -106.428E-03     1.59393E-03
             147    -1.11392E-06     81.4563E-03    -117.649E+06    -230.763E+06    -118.708E+06    -1.10937E+06    -104.515E-03     209.974E-03    -105.459E-03     4.05778E-03    -104.589E-03     209.172E-03    -105.547E-03     3.97068E-03
             148    -370.213E-09     80.2884E-03    -121.153E+06    -232.451E+06    -119.112E+06    -430.234E+03    -104.812E-03     209.958E-03    -105.146E-03     5.07944E-03    -104.901E-03     209.154E-03    -105.229E-03     5.00361E-03
             149     1.30929E-06     79.1186E-03    -119.555E+06    -234.768E+06    -121.735E+06    -438.926E+03    -105.812E-03     211.064E-03    -105.252E-03     6.42520E-03    -105.886E-03     210.250E-03    -105.347E-03     6.34977E-03
             150    -1.39738E-06     77.9450E-03    -117.710E+06    -229.869E+06    -118.347E+06     2.68423E+06    -104.990E-03     211.150E-03    -106.160E-03     5.90916E-03    -105.067E-03     210.352E-03    -106.247E-03     5.89643E-03
             151    -446.515E-09     76.7820E-03    -114.306E+06    -223.242E+06    -114.121E+06    -217.329E+03    -105.244E-03     211.224E-03    -105.980E-03     2.41961E-03    -105.318E-03     210.447E-03    -106.061E-03     2.37473E-03
             152     1.08298E-06     75.6093E-03    -119.695E+06    -227.640E+06    -117.214E+06    -1.51520E+06    -106.665E-03     212.529E-03    -105.864E-03     3.42145E-03    -106.753E-03     211.745E-03    -105.946E-03     3.32227E-03
             153    -421.064E-09     74.4331E-03    -120.954E+06    -230.077E+06    -120.770E+06     642.661E+03    -106.835E-03     212.917E-03    -106.081E-03     4.78530E-03    -106.922E-03     212.127E-03    -106.176E-03     4.73916E-03
             154     956.492E-09     73.2625E-03    -119.284E+06    -227.389E+06    -119.827E+06     791.843E+03    -105.755E-03     211.578E-03    -105.822E-03     6.20044E-03    -105.840E-03     210.798E-03    -105.919E-03     6.15968E-03
             155    -1.63959E-06     72.0899E-03    -114.589E+06    -223.156E+06    -113.602E+06     837.801E+03    -105.371E-03     211.296E-03    -105.925E-03     5.40536E-03    -105.446E-03     210.522E-03    -106.003E-03     5.36207E-03
             156     1.40233E-06     70.9266E-03    -112.334E+06    -224.711E+06    -113.896E+06    -1.19714E+06    -105.955E-03     212.231E-03    -106.276E-03     3.71612E-03    -106.014E-03     211.448E-03    -106.356E-03     3.64366E-03
             157    -1.72575E-06     69.7474E-03    -116.401E+06    -228.145E+06    -117.625E+06     136.500E+03    -106.261E-03     212.204E-03    -105.943E-03     4.80413E-03    -106.328E-03     211.416E-03    -106.031E-03     4.74232E-03
             158     2.52299E-06     68.5770E-03    -118.094E+06    -229.846E+06    -116.901E+06      -671.1E+03    -105.688E-03     211.339E-03    -105.651E-03     6.01750E-03    -105.761E-03     210.545E-03    -105.731E-03     5.94245E-03
             159     2.99510E-06     66.2425E-03    -118.619E+06    -232.629E+06    -117.146E+06     1.69727E+06    -105.719E-03     211.410E-03    -105.690E-03     2.09284E-03    -105.789E-03     210.602E-03    -105.767E-03     2.06316E-03
             160    -2.66928E-06     65.0687E-03    -115.613E+06    -227.876E+06    -112.849E+06     462.912E+03    -105.654E-03     212.270E-03    -106.616E-03     4.68250E-03    -105.722E-03     211.476E-03    -106.682E-03     4.64184E-03
             161     793.122E-09     63.8921E-03    -116.246E+06    -229.394E+06    -116.874E+06    -1.03684E+06    -105.854E-03     211.576E-03    -105.721E-03     6.19448E-03    -105.917E-03     210.781E-03    -105.805E-03     6.12245E-03
             162     1.24995E-06     62.7260E-03    -117.369E+06    -232.145E+06    -118.251E+06    -158.836E+03    -106.790E-03     211.932E-03    -105.142E-03     6.26523E-03    -106.854E-03     211.128E-03    -105.227E-03     6.17799E-03
             163    -682.030E-09     61.5562E-03    -116.900E+06    -230.779E+06    -116.941E+06     850.994E+03    -106.011E-03     212.134E-03    -106.123E-03     2.11551E-03    -106.078E-03     211.333E-03    -106.204E-03     2.06781E-03
             164    -91.8752E-09     60.3865E-03    -116.763E+06    -228.276E+06    -116.298E+06     295.994E+03    -105.259E-03     211.533E-03    -106.274E-03     2.34986E-03    -105.330E-03     210.742E-03    -106.355E-03     2.30441E-03
             165    -797.022E-09     59.2110E-03    -117.519E+06    -228.189E+06    -118.830E+06    -445.583E+03    -104.743E-03     210.762E-03    -106.019E-03     4.60852E-03    -104.816E-03     209.976E-03    -106.112E-03     4.55022E-03
             166    -425.098E-09     58.0425E-03    -114.429E+06    -226.894E+06    -116.033E+06     399.814E+03    -104.967E-03     210.341E-03    -105.374E-03     5.93247E-03    -105.031E-03     209.552E-03    -105.459E-03     5.87872E-03
             167     934.981E-09     56.8734E-03    -117.912E+06    -228.742E+06    -116.793E+06    -1.31971E+06    -106.267E-03     211.799E-03    -105.532E-03     6.20549E-03    -106.343E-03     211.009E-03    -105.614E-03     6.11213E-03
             168    -282.669E-09     55.7012E-03    -124.805E+06    -232.765E+06    -123.321E+06    -423.356E+03    -106.366E-03     212.270E-03    -105.904E-03     4.79212E-03    -106.459E-03     211.479E-03    -106.002E-03     4.72251E-03
             169     359.253E-09     54.5307E-03    -115.819E+06    -227.161E+06    -115.033E+06     2.79422E+06    -105.551E-03     210.452E-03    -104.900E-03     4.19854E-03    -105.617E-03     209.665E-03    -104.978E-03     4.19112E-03
             170     592.444E-09     53.3616E-03    -113.194E+06    -222.949E+06    -112.684E+06    -144.730E+03    -105.890E-03     209.622E-03    -103.732E-03     4.78751E-03    -105.951E-03     208.849E-03    -103.808E-03     4.73299E-03
             171     1.91782E-06     52.1953E-03    -120.087E+06    -230.096E+06    -121.144E+06    -1.70511E+06    -106.400E-03     211.766E-03    -105.366E-03     5.43004E-03    -106.474E-03     210.981E-03    -105.464E-03     5.32036E-03
             172    -2.80009E-06     51.0217E-03    -122.298E+06    -231.899E+06    -121.162E+06     1.07192E+06    -105.648E-03     213.487E-03    -107.839E-03     4.05630E-03    -105.732E-03     212.696E-03    -107.932E-03     4.00740E-03
             173     123.787E-09     49.8466E-03    -118.287E+06    -228.081E+06    -119.556E+06     45.7565E+03    -105.329E-03     212.669E-03    -107.340E-03     3.58668E-03    -105.403E-03     211.885E-03    -107.435E-03     3.55787E-03
             174    -739.301E-09     48.6781E-03    -117.433E+06    -226.948E+06    -117.995E+06      31.083E+03    -106.225E-03     212.621E-03    -106.396E-03     4.58957E-03    -106.299E-03     211.837E-03    -106.486E-03     4.55820E-03
             175     1.04126E-06     47.5023E-03    -117.133E+06    -226.959E+06    -115.426E+06     49.0285E+03    -106.617E-03     212.536E-03    -105.919E-03     4.20392E-03    -106.695E-03     211.748E-03    -105.998E-03     4.16194E-03
             176    -223.445E-09     46.3332E-03    -117.252E+06    -232.653E+06    -119.038E+06    -826.085E+03    -105.958E-03     212.224E-03    -106.266E-03     5.62741E-03    -106.024E-03     211.412E-03    -106.354E-03     5.54684E-03
             177    -1.14335E-06     45.1601E-03    -116.716E+06    -229.899E+06    -117.821E+06     1.41362E+06    -105.559E-03     212.458E-03    -106.899E-03     4.52746E-03    -105.629E-03     211.657E-03    -106.986E-03     4.48602E-03
             178     305.014E-09     43.9891E-03    -117.035E+06    -227.224E+06    -116.008E+06    -1.70234E+06    -105.499E-03     211.108E-03    -105.610E-03     3.85502E-03    -105.577E-03     210.318E-03    -105.691E-03     3.77527E-03
             179     343.993E-09     42.8201E-03    -116.999E+06    -229.155E+06    -117.674E+06     507.148E+03    -106.305E-03     211.429E-03    -105.125E-03     4.85953E-03    -106.378E-03     210.632E-03    -105.211E-03     4.79588E-03
             180     885.507E-09     41.6497E-03    -121.374E+06    -230.725E+06    -119.415E+06    -1.12001E+06    -107.020E-03     213.190E-03    -106.170E-03     3.77818E-03    -107.110E-03     212.392E-03    -106.257E-03     3.70519E-03
             181    -741.744E-09     40.4751E-03    -119.753E+06    -234.770E+06    -122.587E+06    -792.832E+03    -106.844E-03     213.677E-03    -106.833E-03     4.51260E-03    -106.915E-03     212.860E-03    -106.932E-03     4.44907E-03
             182     559.575E-09     39.2999E-03    -115.457E+06    -231.044E+06    -112.301E+06     2.42382E+06    -106.506E-03     213.290E-03    -106.783E-03     5.22900E-03    -106.579E-03     212.470E-03    -106.842E-03     5.20776E-03
             183    -816.646E-09     38.1293E-03    -117.086E+06    -233.179E+06    -116.290E+06    -1.94011E+06    -105.635E-03     212.360E-03    -106.726E-03     5.26539E-03    -105.708E-03     211.538E-03    -106.799E-03     5.18853E-03
             184    -704.123E-09     36.9581E-03    -118.742E+06    -232.764E+06    -119.823E+06     514.481E+03    -106.002E-03     212.221E-03    -106.219E-03     3.64169E-03    -106.080E-03     211.409E-03    -106.308E-03     3.58818E-03
             185     1.84836E-06     35.7884E-03    -116.439E+06    -230.183E+06    -115.902E+06     601.564E+03    -106.720E-03     212.594E-03    -105.874E-03     4.04038E-03    -106.795E-03     211.786E-03    -105.951E-03     3.99758E-03
             186    -1.63454E-06     34.6126E-03    -114.025E+06    -229.893E+06    -116.882E+06     447.770E+03    -106.399E-03     213.064E-03    -106.665E-03     5.54544E-03    -106.460E-03     212.255E-03    -106.751E-03     5.50598E-03
             187     939.924E-09     33.4407E-03    -116.054E+06    -227.529E+06    -114.796E+06     251.307E+03    -106.757E-03     213.188E-03    -106.430E-03     4.75476E-03    -106.834E-03     212.390E-03    -106.506E-03     4.70054E-03
             188     276.643E-09     32.2698E-03    -118.647E+06    -229.478E+06    -117.451E+06    -816.630E+03    -106.823E-03     212.858E-03    -106.035E-03     4.39161E-03    -106.906E-03     212.058E-03    -106.117E-03     4.30479E-03
             189    -226.287E-09     31.0969E-03    -119.810E+06    -230.682E+06    -119.720E+06     368.616E+03    -106.359E-03     212.722E-03    -106.363E-03     4.36420E-03    -106.443E-03     211.921E-03    -106.453E-03     4.30198E-03
             190     149.761E-09     29.9244E-03    -118.536E+06    -230.012E+06    -118.657E+06    -854.595E+03    -106.475E-03     212.850E-03    -106.376E-03     4.91092E-03    -106.556E-03     212.050E-03    -106.464E-03     4.84456E-03
             191     63.6526E-09     28.7520E-03    -117.408E+06    -230.447E+06    -117.304E+06    -1.13284E+06    -106.341E-03     212.508E-03    -106.168E-03     4.49873E-03    -106.418E-03     211.701E-03    -106.250E-03     4.42627E-03
             192    -14.1735E-09     27.5815E-03    -115.676E+06    -231.661E+06    -116.147E+06     813.341E+03    -106.028E-03     211.940E-03    -105.912E-03     4.35827E-03    -106.097E-03     211.122E-03    -105.989E-03     4.30559E-03
             193     130.600E-09     26.4098E-03    -117.034E+06    -230.569E+06    -116.042E+06     463.623E+03    -105.736E-03     211.398E-03    -105.662E-03     4.29876E-03    -105.814E-03     210.586E-03    -105.738E-03     4.24115E-03
             194    -134.014E-09     25.2399E-03    -114.891E+06    -228.449E+06    -115.822E+06     172.617E+03    -105.462E-03     210.824E-03    -105.362E-03     4.45674E-03    -105.532E-03     210.020E-03    -105.444E-03     4.40782E-03
             195     271.023E-09     24.0705E-03    -119.082E+06    -230.568E+06    -118.090E+06    -577.566E+03    -105.189E-03     210.259E-03    -105.070E-03     4.21680E-03    -105.273E-03     209.454E-03    -105.153E-03     4.15106E-03
             196    -223.101E-09     22.9013E-03    -118.150E+06    -230.856E+06    -118.759E+06     494.602E+03    -104.734E-03     209.378E-03    -104.643E-03     4.13864E-03    -104.811E-03     208.572E-03    -104.731E-03     4.09116E-03
             197     296.555E-09     21.7342E-03    -118.244E+06    -229.768E+06    -117.138E+06    -296.709E+03    -104.204E-03     208.321E-03    -104.117E-03     3.97594E-03    -104.285E-03     207.519E-03    -104.198E-03     3.92233E-03
             198    -237.499E-09     20.5676E-03    -116.858E+06    -232.444E+06    -118.207E+06    -404.323E+03    -103.446E-03     206.843E-03    -103.397E-03     3.72508E-03    -103.514E-03     206.027E-03    -103.482E-03     3.66609E-03
             199     224.826E-09     19.4038E-03    -114.734E+06    -229.946E+06    -114.133E+06     1.16460E+06    -102.411E-03     204.793E-03    -102.382E-03     3.39722E-03    -102.480E-03     203.980E-03    -102.453E-03     3.36512E-03
             200    -173.368E-09     18.2422E-03    -115.449E+06    -228.086E+06    -115.583E+06    -281.988E+03    -101.004E-03     201.982E-03    -100.977E-03     3.00137E-03    -101.078E-03     201.182E-03    -101.057E-03     2.95255E-03
             201     152.318E-09     17.0848E-03    -114.828E+06    -227.437E+06    -115.351E+06     604.214E+03    -99.1581E-03     198.334E-03    -99.1758E-03     2.55627E-03    -99.2308E-03     197.535E-03    -99.2562E-03     2.52208E-03
             202    -174.524E-09     15.9319E-03    -114.391E+06    -225.942E+06    -113.914E+06     100.338E+03    -96.8499E-03     193.746E-03    -96.8958E-03     1.97553E-03    -96.9252E-03     192.952E-03    -96.9719E-03     1.94323E-03
             203     120.599E-09     14.7851E-03    -112.467E+06    -225.321E+06    -113.141E+06     120.272E+03    -94.1043E-03     188.188E-03    -94.0838E-03     1.37192E-03    -94.1723E-03     187.393E-03    -94.1597E-03     1.33786E-03
             204    -43.7373E-09     13.6450E-03    -111.879E+06    -224.786E+06    -111.363E+06     83.8416E+03    -91.0774E-03     182.044E-03    -90.9667E-03     871.648E-06    -91.1447E-03     181.249E-03    -91.0354E-03     835.234E-06
             205     149.501E-09     12.5123E-03    -110.533E+06    -224.892E+06    -110.788E+06    -221.803E+03    -88.1012E-03     176.042E-03    -87.9407E-03     521.942E-06    -88.1615E-03     175.246E-03    -88.0083E-03     477.957E-06
             206    -79.2485E-12     11.3861E-03    -110.074E+06    -225.631E+06    -109.473E+06    -141.565E+03    -85.7462E-03     171.328E-03    -85.5817E-03     529.714E-06    -85.8043E-03     170.526E-03    -85.6423E-03     481.675E-06
             207     119.457E-09     10.2641E-03    -109.047E+06    -227.171E+06    -108.773E+06    -515.682E+03    -84.6071E-03     169.096E-03    -84.4891E-03     888.608E-06    -84.6572E-03     168.284E-03    -84.5454E-03     841.317E-06
             208    -53.9970E-09     9.14273E-03    -106.825E+06    -227.880E+06    -106.811E+06     317.574E+03    -84.9310E-03     169.802E-03    -84.8712E-03     1.35694E-03    -84.9717E-03     168.979E-03    -84.9199E-03     1.31787E-03
             209     73.7372E-09     8.01884E-03    -100.038E+06    -225.004E+06    -100.017E+06     1.16087E+06    -86.4796E-03     172.949E-03    -86.4696E-03     1.71741E-03    -86.5028E-03     172.122E-03    -86.4983E-03     1.68695E-03
             210    -86.0382E-09     6.89020E-03    -92.6613E+06    -220.103E+06    -92.4583E+06     1.22653E+06    -88.7862E-03     177.616E-03    -88.8297E-03     1.91082E-03    -88.7915E-03     176.791E-03    -88.8385E-03     1.88857E-03
             211     21.5359E-09     5.75566E-03    -85.2215E+06    -214.324E+06    -85.5053E+06     1.56316E+06    -91.4496E-03     183.001E-03    -91.5510E-03     1.94065E-03    -91.4353E-03     182.182E-03    -91.5442E-03     1.92275E-03
             212    -135.151E-09     4.61474E-03    -77.5784E+06    -207.805E+06    -77.4287E+06     1.63515E+06    -94.1535E-03     188.478E-03    -94.3250E-03     1.82115E-03    -94.1227E-03     187.669E-03    -94.2983E-03     1.80670E-03
             213    -38.1236E-09     3.46767E-03    -70.3891E+06    -201.925E+06    -70.5482E+06     1.22744E+06    -96.6293E-03     193.509E-03    -96.8800E-03     1.55106E-03    -96.5806E-03     192.710E-03    -96.8379E-03     1.54089E-03
             214    -208.390E-09     2.31516E-03    -64.6103E+06    -197.036E+06    -64.6107E+06     1.05908E+06    -98.6281E-03     197.583E-03    -98.9548E-03     1.13513E-03    -98.5626E-03     196.793E-03    -98.8985E-03     1.12731E-03
             215    -92.4309E-09     1.15866E-03    -60.6727E+06    -193.788E+06    -60.6581E+06     460.714E+03    -99.9322E-03     200.244E-03    -100.312E-03     602.358E-06    -99.8551E-03     199.457E-03    -100.246E-03     601.488E-06
             216     813.771E-06     1.23512E-15    -59.1790E+06    -192.165E+06    -58.4660E+06     285.824E+03    -100.502E-03     201.194E-03    -100.693E-03     521.358E-06    -100.426E-03     200.405E-03    -100.621E-03     525.656E-06
             217     1.62743E-03     1.23512E-15    -58.9725E+06    -191.087E+06    -56.5430E+06     802.242E+03    -100.650E-03     201.265E-03    -100.615E-03     964.883E-06    -100.582E-03     200.474E-03    -100.535E-03     959.653E-06
             218     2.44114E-03     1.23512E-15    -59.0131E+06    -190.160E+06    -54.7301E+06     1.16865E+06    -100.741E-03     201.394E-03    -100.653E-03     1.43690E-03    -100.677E-03     200.604E-03    -100.565E-03     1.42250E-03
             219     3.25467E-03     1.23512E-15    -59.1568E+06    -186.042E+06    -52.8792E+06     1.23732E+06    -100.883E-03     201.586E-03    -100.702E-03     1.92848E-03    -100.829E-03     200.815E-03    -100.611E-03     1.90771E-03
             220     4.06810E-03     1.23512E-15    -59.2727E+06    -176.199E+06    -51.4338E+06     1.20673E+06    -101.086E-03     201.846E-03    -100.760E-03     2.43212E-03    -101.049E-03     201.123E-03    -100.676E-03     2.40250E-03
             221     4.88130E-03     1.23512E-15    -59.2588E+06    -162.835E+06    -50.1549E+06     1.05317E+06    -101.369E-03     202.203E-03    -100.834E-03     2.96474E-03    -101.354E-03     201.545E-03    -100.763E-03     2.92261E-03
             222     5.69417E-03     1.23512E-15    -58.7642E+06    -147.459E+06    -48.7707E+06     399.807E+03    -101.749E-03     202.680E-03    -100.930E-03     3.53276E-03    -101.757E-03     202.097E-03    -100.875E-03     3.47302E-03
             223     6.50674E-03     1.23512E-15    -57.5746E+06    -130.425E+06    -47.4372E+06    -77.1009E+03    -102.246E-03     203.298E-03    -101.052E-03     4.14354E-03    -102.275E-03     202.798E-03    -101.017E-03     4.06743E-03
             224     7.31869E-03     1.23512E-15    -55.5170E+06    -111.597E+06    -46.4329E+06    -1.14980E+06    -102.874E-03     204.076E-03    -101.202E-03     4.83982E-03    -102.922E-03     203.666E-03    -101.192E-03     4.73776E-03
             225     8.13017E-03     1.23512E-15    -52.3300E+06    -91.0902E+06    -45.5566E+06    -2.13076E+06    -103.659E-03     205.044E-03    -101.384E-03     5.59011E-03    -103.723E-03     204.730E-03    -101.404E-03     5.46151E-03
             226     8.94080E-03     1.23512E-15     -47.855E+06    -68.5809E+06    -45.6070E+06    -3.47533E+06    -104.634E-03     206.233E-03    -101.599E-03     6.51247E-03    -104.708E-03     206.026E-03    -101.659E-03     6.35076E-03
             227     9.75046E-03     1.23512E-15    -42.0929E+06    -42.4366E+06    -45.0630E+06    -4.81723E+06    -105.833E-03     207.692E-03    -101.859E-03     7.55978E-03    -105.918E-03     207.607E-03    -101.962E-03     7.36064E-03
             228     10.5592E-03     1.23512E-15    -34.9716E+06    -12.4427E+06    -44.9861E+06    -5.94168E+06    -107.350E-03     209.517E-03    -102.167E-03     8.84865E-03    -107.444E-03     209.573E-03    -102.323E-03     8.60971E-03
             229     11.3660E-03     1.23512E-15    -28.0170E+06     27.0828E+06    -43.1770E+06    -5.12800E+06    -109.261E-03     211.802E-03    -102.541E-03     10.7176E-03    -109.381E-03     212.045E-03    -102.756E-03     10.4581E-03
             230     12.1711E-03     1.23512E-15    -22.5643E+06     60.7830E+06    -29.5046E+06    -3.78334E+06    -111.756E-03     214.832E-03    -103.076E-03     13.1340E-03    -111.921E-03     215.219E-03    -103.279E-03     12.8409E-03
             231     12.9737E-03     1.23512E-15    -16.1343E+06     79.5433E+06    -5.62261E+06    -3.81696E+06    -115.211E-03     219.015E-03    -103.804E-03     17.5539E-03    -115.411E-03     219.456E-03    -103.924E-03     17.1892E-03
             232     13.7703E-03     1.23512E-15    -9.75392E+06     97.4170E+06     31.3196E+06    -63.8339E+03    -119.604E-03     224.358E-03    -104.754E-03     26.5516E-03    -119.863E-03     224.836E-03    -104.725E-03     26.1335E-03
             233     14.5605E-03     1.23512E-15    -7.36759E+06     107.945E+06     72.5565E+06     2.55165E+06    -125.434E-03     231.375E-03    -105.941E-03     39.5843E-03    -125.790E-03     231.876E-03    -105.724E-03     38.9335E-03
             234     15.3475E-03     1.23512E-15    -3.84922E+06     111.766E+06     95.1530E+06    -694.632E+03    -136.085E-03     243.451E-03    -107.366E-03     55.0395E-03    -136.544E-03     244.017E-03    -107.047E-03     53.7852E-03
             235     16.1693E-03     1.23432E-03    -2.41428E+06     111.923E+06     99.0263E+06    -1.28165E+06    -139.780E-03     246.931E-03    -107.151E-03     57.5714E-03    -140.294E-03     247.547E-03    -106.814E-03     55.8750E-03
             236     16.1917E-03     2.44680E-03    -3.41667E+06     110.611E+06     99.0412E+06     806.045E+03    -135.500E-03     241.216E-03    -105.716E-03     44.9236E-03    -135.995E-03     241.805E-03    -105.376E-03     43.1828E-03
             237     16.1982E-03     3.65233E-03    -2.48191E+06     111.350E+06     99.7779E+06     104.571E+03    -134.358E-03     239.528E-03    -105.170E-03     33.4202E-03    -134.812E-03     240.080E-03    -104.829E-03     31.7090E-03
             238     16.1990E-03     4.85660E-03    -2.30337E+06     110.149E+06     98.5677E+06    -632.510E+03    -132.538E-03     237.614E-03    -105.076E-03     27.8059E-03    -132.965E-03     238.138E-03    -104.740E-03     26.1787E-03
             239     16.1992E-03     6.05723E-03    -2.31093E+06     108.507E+06     97.3630E+06    -500.773E+03    -129.348E-03     234.478E-03    -105.130E-03     26.0927E-03    -129.759E-03     234.984E-03    -104.797E-03     24.5765E-03
             240     16.1994E-03     7.25365E-03    -2.47747E+06     107.355E+06     96.0760E+06    -296.496E+03    -125.979E-03     231.183E-03    -105.204E-03     24.7469E-03    -126.378E-03     231.676E-03    -104.876E-03     23.3261E-03
             241     16.1993E-03     8.44614E-03    -2.30644E+06     106.778E+06     95.0842E+06    -141.039E+03    -122.847E-03     228.125E-03    -105.277E-03     23.5183E-03    -123.236E-03     228.608E-03    -104.953E-03     22.1803E-03
             242     16.1994E-03     9.63533E-03    -2.44454E+06     106.484E+06     94.1849E+06    -78.9295E+03    -119.875E-03     225.221E-03    -105.347E-03     22.3127E-03    -120.255E-03     225.698E-03    -105.026E-03     21.0471E-03
             243     16.1993E-03     10.8212E-03    -2.39811E+06     106.074E+06     93.7795E+06    -142.484E+03    -116.998E-03     222.414E-03    -105.416E-03     21.2144E-03    -117.371E-03     222.884E-03    -105.098E-03     20.0106E-03
             244     16.1994E-03     12.0037E-03    -2.32648E+06     105.886E+06     93.4377E+06     32.4827E+03    -114.344E-03     219.827E-03    -105.483E-03     20.2371E-03    -114.712E-03     220.291E-03    -105.166E-03     19.0891E-03
             245     16.1992E-03     13.1837E-03    -2.48079E+06     105.995E+06     92.7246E+06     61.9338E+03    -112.000E-03     217.543E-03    -105.544E-03     19.4045E-03    -112.364E-03     218.006E-03    -105.230E-03     18.3016E-03
             246     16.1992E-03     14.3610E-03    -2.49341E+06     105.834E+06     92.5957E+06    -207.941E+03    -109.962E-03     215.557E-03    -105.595E-03     18.8558E-03    -110.323E-03     216.017E-03    -105.282E-03     17.7846E-03
             247     16.1994E-03     15.5362E-03    -1.99200E+06     106.069E+06     93.6040E+06     203.416E+03    -108.164E-03     213.787E-03    -105.623E-03     18.6172E-03    -108.523E-03     214.244E-03    -105.306E-03     17.5806E-03
             248     16.2004E-03     16.7096E-03    -1.89793E+06     107.831E+06     95.1325E+06     160.130E+03    -106.902E-03     212.537E-03    -105.635E-03     18.2981E-03    -107.263E-03     212.998E-03    -105.313E-03     17.2850E-03
             249     16.1999E-03     17.8828E-03    -2.69954E+06     109.006E+06     95.1643E+06     567.695E+03    -106.013E-03     211.661E-03    -105.648E-03     17.9992E-03    -106.379E-03     212.128E-03    -105.326E-03     17.0088E-03
             250     16.2006E-03     19.0537E-03    -2.83779E+06     110.366E+06     95.1132E+06      235.88E+03    -105.675E-03     211.342E-03    -105.667E-03     17.1318E-03    -106.043E-03     211.816E-03    -105.348E-03     16.1238E-03
             251     16.1988E-03     20.2253E-03    -4.12196E+06     109.131E+06     93.5787E+06     862.043E+03    -104.789E-03     210.497E-03    -105.708E-03     15.3943E-03    -105.160E-03     210.970E-03    -105.393E-03     14.3623E-03
             252     16.2002E-03     21.3944E-03    -3.34009E+06     109.084E+06     94.3360E+06     1.45031E+06    -103.679E-03     209.402E-03    -105.723E-03     16.9560E-03    -104.048E-03     209.873E-03    -105.405E-03     15.9483E-03
             253     16.2002E-03     22.5650E-03    -1.36811E+06     111.036E+06     96.5014E+06    -1.42974E+06    -104.714E-03     210.396E-03    -105.682E-03     18.6593E-03    -105.078E-03     210.870E-03    -105.359E-03     17.6546E-03
             254     16.2001E-03     23.7389E-03    -1.37178E+06     111.713E+06     97.0720E+06    -865.683E+03    -105.001E-03     210.685E-03    -105.685E-03     18.1296E-03    -105.364E-03     211.159E-03    -105.359E-03     17.1517E-03
             255     16.1999E-03     24.9074E-03    -2.77489E+06     110.389E+06     95.3132E+06     1.13393E+06    -103.816E-03     209.533E-03    -105.717E-03     17.2403E-03    -104.184E-03     210.006E-03    -105.397E-03     16.2631E-03
             256     16.2000E-03     26.0749E-03    -3.26456E+06     109.114E+06     94.8701E+06     459.971E+03    -103.407E-03     209.127E-03    -105.720E-03     16.3848E-03    -103.776E-03     209.597E-03    -105.399E-03     15.3638E-03
             257     16.2005E-03     27.2461E-03    -1.91382E+06     110.468E+06     96.9759E+06     119.207E+03    -103.471E-03     209.185E-03    -105.714E-03     16.9296E-03    -103.839E-03     209.657E-03    -105.386E-03     15.9120E-03
             258     16.2001E-03     28.4150E-03    -1.70344E+06     111.694E+06     97.3008E+06     616.049E+03    -103.829E-03     209.542E-03    -105.714E-03     16.3995E-03    -104.197E-03     210.019E-03    -105.387E-03     15.3828E-03
             259     16.1998E-03     29.5839E-03    -3.69542E+06     109.626E+06     95.2346E+06    -458.407E+03    -103.809E-03     209.528E-03    -105.718E-03     16.3780E-03    -104.181E-03     209.999E-03    -105.396E-03     15.3531E-03
             260     16.2002E-03     30.7564E-03    -3.06222E+06     109.187E+06     95.7893E+06    -1.77119E+06    -103.820E-03     209.531E-03    -105.711E-03     19.0025E-03    -104.187E-03     209.998E-03    -105.386E-03     18.0255E-03
             261     16.2003E-03     31.9260E-03    -1.02923E+06     111.714E+06     97.6566E+06    -800.747E+03    -104.489E-03     210.185E-03    -105.696E-03     19.3024E-03    -104.850E-03     210.655E-03    -105.368E-03     18.3742E-03
             262     16.1998E-03     33.0964E-03    -1.84696E+06     110.931E+06     95.9900E+06     268.677E+03    -104.525E-03     210.220E-03    -105.696E-03     17.5912E-03    -104.884E-03     210.689E-03    -105.374E-03     16.6651E-03
             263     16.2002E-03     34.2654E-03    -2.30318E+06     111.099E+06     95.7225E+06     909.732E+03    -103.914E-03     209.638E-03    -105.724E-03     15.9660E-03    -104.277E-03     210.109E-03    -105.403E-03     15.0193E-03
             264     16.1989E-03     35.4351E-03    -3.02787E+06     110.520E+06     94.8178E+06     498.633E+03    -103.448E-03     209.202E-03    -105.754E-03     14.7106E-03    -103.814E-03     209.674E-03    -105.435E-03     13.7146E-03
             265     16.1998E-03     36.6019E-03    -3.04895E+06     109.405E+06     94.3176E+06     1.64115E+06    -103.286E-03     209.034E-03    -105.748E-03     14.6242E-03    -103.653E-03     209.505E-03    -105.431E-03     13.6061E-03
             266     16.1999E-03     37.7731E-03    -3.19484E+06     110.091E+06     95.2874E+06     198.978E+03    -103.355E-03     209.082E-03    -105.726E-03     14.7375E-03    -103.725E-03     209.555E-03    -105.405E-03     13.6883E-03
             267     16.2003E-03     38.9418E-03    -1.72999E+06     108.884E+06     95.7126E+06    -1.43086E+06    -103.622E-03     209.345E-03    -105.723E-03     15.5370E-03    -103.984E-03     209.810E-03    -105.400E-03     14.4785E-03
             268     16.1994E-03     40.1136E-03    -3.08223E+06     106.717E+06     93.6902E+06    -1.21781E+06    -103.932E-03     209.646E-03    -105.714E-03     16.7319E-03    -104.293E-03     210.103E-03    -105.396E-03     15.7179E-03
             269     16.2006E-03     41.2822E-03    -2.84762E+06     108.027E+06     94.0193E+06    -1.66748E+06    -104.616E-03     210.303E-03    -105.687E-03     18.0523E-03    -104.975E-03     210.763E-03    -105.370E-03     17.0915E-03
             270     16.1996E-03     42.4564E-03    -3.27130E+06     107.510E+06     94.2540E+06     394.513E+03    -105.341E-03     211.031E-03    -105.690E-03     18.0955E-03    -105.701E-03     211.488E-03    -105.370E-03     17.1665E-03
             271     16.1992E-03     43.6271E-03    -2.43020E+06     106.895E+06     94.8749E+06     2.41534E+06    -103.749E-03     209.483E-03    -105.734E-03     16.4961E-03    -104.107E-03     209.937E-03    -105.412E-03     15.5525E-03
             272     16.2010E-03     44.7904E-03    -1.35363E+06     108.934E+06     96.2071E+06     1.79350E+06    -103.609E-03     209.322E-03    -105.713E-03     14.8751E-03    -103.967E-03     209.783E-03    -105.388E-03     13.8852E-03
             273     16.1995E-03     45.9626E-03    -2.09388E+06     108.949E+06     95.0890E+06    -928.617E+03    -105.642E-03     211.307E-03    -105.664E-03     13.1519E-03    -105.998E-03     211.766E-03    -105.344E-03     12.1267E-03
             274     16.2002E-03     47.1376E-03    -1.78069E+06     109.718E+06     95.8977E+06    -994.630E+03    -105.295E-03     210.992E-03    -105.697E-03     16.5118E-03    -105.658E-03     211.460E-03    -105.374E-03     15.4802E-03
             275     16.1990E-03     48.3119E-03    -2.23050E+06     109.176E+06     95.3203E+06    -367.854E+03    -104.981E-03     210.681E-03    -105.699E-03     20.9591E-03    -105.354E-03     211.157E-03    -105.378E-03     19.9206E-03
             276     16.2010E-03     49.4789E-03    -3.09637E+06     108.362E+06     94.7688E+06    -356.908E+03    -106.035E-03     211.680E-03    -105.645E-03     19.5295E-03    -106.402E-03     212.146E-03    -105.324E-03     18.5468E-03
             277     16.1998E-03     50.6542E-03    -2.14658E+06     109.406E+06     95.6523E+06    -886.012E+03    -106.149E-03     211.788E-03    -105.639E-03     17.4777E-03    -106.506E-03     212.249E-03    -105.317E-03     16.5456E-03
             278     16.2004E-03     51.8253E-03    -2.17254E+06     109.508E+06     94.6323E+06    -817.327E+03    -105.039E-03     210.729E-03    -105.690E-03     15.0589E-03    -105.396E-03     211.193E-03    -105.372E-03     14.0775E-03
             279     16.1987E-03     52.9904E-03    -4.48493E+06     106.289E+06     91.9415E+06     1.95795E+06    -104.052E-03     209.783E-03    -105.732E-03     13.0338E-03    -104.413E-03     210.240E-03    -105.420E-03     12.0357E-03
             280     16.2001E-03     54.1653E-03    -1.84587E+06     106.978E+06     93.3750E+06     13.5874E+03    -102.794E-03     208.525E-03    -105.731E-03     16.7220E-03    -103.146E-03     208.979E-03    -105.416E-03     15.7741E-03
             281     16.2013E-03     55.3338E-03    -1.02347E+06     108.206E+06     95.1768E+06    -1.74230E+06    -103.394E-03     209.105E-03    -105.710E-03     20.7307E-03    -103.750E-03     209.565E-03    -105.390E-03     19.7943E-03
             282     16.1982E-03     56.5070E-03    -4.67632E+06     106.252E+06     92.7412E+06     59.2478E+03    -104.514E-03     210.250E-03    -105.736E-03     19.7091E-03    -104.883E-03     210.710E-03    -105.419E-03     18.7521E-03
             283     16.1995E-03     57.6733E-03    -1.04966E+06     106.190E+06     94.8398E+06     1.25506E+06    -103.561E-03     209.328E-03    -105.766E-03     17.8032E-03    -103.914E-03     209.779E-03    -105.445E-03     16.8415E-03
             284     16.2000E-03     58.8390E-03    -1.83234E+06     105.253E+06     95.9196E+06    -401.137E+03    -104.273E-03     210.000E-03    -105.727E-03     15.8434E-03    -104.626E-03     210.442E-03    -105.398E-03     14.8558E-03
             285     16.1995E-03     60.0151E-03     263.317E+03     102.672E+06     96.4547E+06    -2.57256E+06    -105.666E-03     211.365E-03    -105.699E-03     16.1880E-03    -106.003E-03     211.788E-03    -105.366E-03     15.1880E-03
             286     16.1998E-03     61.1851E-03    -5.26120E+06     97.1229E+06     90.7460E+06    -2.13431E+06    -105.327E-03     211.028E-03    -105.700E-03     16.4842E-03    -105.671E-03     211.434E-03    -105.380E-03     15.5023E-03
             287     16.1994E-03     62.3572E-03    -247.614E+03     88.1092E+06     91.8138E+06     474.490E+03    -104.676E-03     210.397E-03    -105.721E-03     18.2502E-03    -104.967E-03     210.730E-03    -105.389E-03     17.1441E-03
             288     16.2005E-03     63.5294E-03    -7.54611E+06     79.9121E+06     78.6070E+06    -6.50838E+06    -106.325E-03     212.021E-03    -105.696E-03     17.6958E-03    -106.507E-03     212.208E-03    -105.408E-03     16.4293E-03
             289     16.1950E-03     64.6996E-03    -30.3606E+06     80.6701E+06     62.3926E+06     6.07872E+06    -106.604E-03     212.314E-03    -105.710E-03     13.4859E-03    -106.874E-03     212.557E-03    -105.471E-03     12.7146E-03
             290     16.2002E-03     65.8704E-03     5.19878E+06     94.5158E+06     87.0069E+06     5.38476E+06    -103.363E-03     209.150E-03    -105.787E-03     15.9625E-03    -103.631E-03     209.516E-03    -105.497E-03     15.2354E-03
             291     16.1989E-03     67.0436E-03     11.9708E+06     100.751E+06     94.3715E+06    -3.64362E+06    -102.514E-03     208.271E-03    -105.758E-03     18.8288E-03    -102.784E-03     208.667E-03    -105.449E-03     17.7867E-03
             292     810.405E-06     68.5851E-03    -116.730E+06    -224.525E+06    -113.717E+06    -1.02601E+06    -106.066E-03     211.856E-03    -105.791E-03     8.46988E-03    -106.152E-03     211.075E-03    -105.864E-03     8.35831E-03
             293     1.61730E-03     68.5971E-03    -110.777E+06    -208.365E+06    -101.378E+06    -982.091E+03    -106.155E-03     212.149E-03    -105.995E-03     13.4868E-03    -106.262E-03     211.418E-03    -106.039E-03     13.3063E-03
             294     2.42819E-03     68.6127E-03    -103.782E+06    -189.491E+06    -82.8469E+06     -599.57E+03    -106.124E-03     212.223E-03    -106.100E-03     19.2563E-03    -106.255E-03     211.554E-03    -106.089E-03     19.0057E-03
             295     3.23657E-03     68.6380E-03    -97.8465E+06    -173.584E+06    -64.8677E+06    -1.16586E+06    -106.210E-03     212.385E-03    -106.175E-03     24.9647E-03    -106.368E-03     211.768E-03    -106.106E-03     24.6166E-03
             296     4.04601E-03     68.6717E-03    -88.4965E+06    -153.687E+06    -46.2131E+06    -722.008E+03    -105.551E-03     211.726E-03    -106.174E-03     30.2829E-03    -105.728E-03     211.177E-03    -106.054E-03     29.8558E-03
             297     4.85789E-03     68.7100E-03    -79.2461E+06    -133.525E+06    -29.6063E+06    -323.526E+03    -105.225E-03     211.306E-03    -106.081E-03     35.1063E-03    -105.419E-03     210.830E-03    -105.921E-03     34.6067E-03
             298     5.66739E-03     68.7486E-03    -71.6950E+06    -117.163E+06    -16.7435E+06    -1.14457E+06    -105.493E-03     211.489E-03    -105.997E-03     39.1647E-03    -105.702E-03     211.076E-03    -105.807E-03     38.5748E-03
             299     6.47798E-03     68.7949E-03    -66.0118E+06    -102.847E+06    -7.20770E+06    -1.06887E+06    -105.798E-03     211.755E-03    -105.957E-03     43.0275E-03    -106.023E-03     211.402E-03    -105.748E-03     42.3712E-03
             300     7.28820E-03     68.8461E-03    -60.0112E+06    -86.8728E+06     2.07071E+06    -399.346E+03    -106.311E-03     212.274E-03    -105.963E-03     46.1005E-03    -106.555E-03     211.990E-03    -105.740E-03     45.3779E-03
             301     8.09669E-03     68.8991E-03    -52.3022E+06    -68.0265E+06     13.2404E+06     281.190E+03    -106.564E-03     212.572E-03    -106.008E-03     48.0420E-03    -106.826E-03     212.368E-03    -105.767E-03     47.2341E-03
             302     8.90542E-03     68.9523E-03    -46.3897E+06    -53.1637E+06     21.2918E+06    -220.147E+03    -105.983E-03     212.007E-03    -106.024E-03     49.7359E-03    -106.260E-03     211.869E-03    -105.773E-03     48.8507E-03
             303     9.71585E-03     69.0110E-03    -39.0985E+06    -34.5823E+06     29.4111E+06    -747.869E+03    -105.457E-03     211.441E-03    -105.984E-03     50.6982E-03    -105.745E-03     211.382E-03    -105.730E-03     49.7611E-03
             304     10.5269E-03     69.0665E-03    -33.2862E+06    -12.2127E+06     38.2432E+06     682.244E+03    -105.889E-03     211.834E-03    -105.945E-03     51.3799E-03    -106.202E-03     211.875E-03    -105.688E-03     50.3938E-03
             305     11.3359E-03     69.1262E-03    -31.0200E+06     8.84966E+06     43.9102E+06     1.35562E+06    -105.949E-03     211.872E-03    -105.923E-03     50.9318E-03    -106.301E-03     212.018E-03    -105.672E-03     49.8709E-03
             306     12.1474E-03     69.1825E-03    -31.7385E+06     32.6138E+06     46.9682E+06     4.13739E+06    -104.836E-03     210.699E-03    -105.863E-03     49.2706E-03    -105.237E-03     210.966E-03    -105.629E-03     48.1936E-03
             307     12.9577E-03     69.2381E-03    -27.6635E+06     59.7136E+06     53.6839E+06     5.98836E+06    -103.564E-03     209.308E-03    -105.745E-03     47.7421E-03    -103.995E-03     209.698E-03    -105.523E-03     46.6631E-03
             308     13.7707E-03     69.2893E-03    -16.0061E+06     84.0542E+06     61.3864E+06    -726.114E+03    -103.536E-03     209.139E-03    -105.604E-03     42.9004E-03    -103.957E-03     209.624E-03    -105.395E-03     41.6586E-03
             309     14.5810E-03     69.3310E-03    -9.73608E+06     96.1374E+06     73.0584E+06    -3.39853E+06    -104.404E-03     209.957E-03    -105.553E-03     35.5824E-03    -104.825E-03     210.473E-03    -105.313E-03     34.2037E-03
             310     15.3930E-03     69.3651E-03    -2.04244E+06     102.190E+06     91.0234E+06    -1.39345E+06    -105.680E-03     211.295E-03    -105.614E-03     23.1541E-03    -106.056E-03     211.762E-03    -105.305E-03     21.9663E-03
             311     808.711E-06     69.7562E-03    -114.422E+06    -221.381E+06    -111.969E+06    -976.975E+03    -105.736E-03     211.616E-03    -105.881E-03     7.74510E-03    -105.818E-03     210.845E-03    -105.954E-03     7.63026E-03
             312     1.62119E-03     69.7675E-03    -110.310E+06    -208.192E+06    -100.448E+06    -1.95403E+06    -105.830E-03     211.667E-03    -105.837E-03     13.2630E-03    -105.936E-03     210.934E-03    -105.877E-03     13.0563E-03
             313     2.42908E-03     69.7848E-03    -104.479E+06    -189.931E+06    -83.2498E+06     58.6414E+03    -106.554E-03     212.541E-03    -105.987E-03     19.8468E-03    -106.688E-03     211.872E-03    -105.977E-03     19.5850E-03
             314     3.23716E-03     69.8126E-03    -97.4004E+06    -170.915E+06    -63.2814E+06     48.0191E+03    -106.240E-03     212.400E-03    -106.160E-03     26.6515E-03    -106.405E-03     211.796E-03    -106.087E-03     26.2990E-03
             315     4.04641E-03     69.8413E-03    -89.2892E+06    -154.601E+06    -47.4225E+06    -1.75894E+06    -105.482E-03     211.631E-03    -106.148E-03     31.7673E-03    -105.662E-03     211.082E-03    -106.032E-03     31.3131E-03
             316     4.85734E-03     69.8781E-03    -80.5722E+06    -136.013E+06    -33.1482E+06    -934.839E+03    -105.265E-03     211.309E-03    -106.044E-03     35.3784E-03    -105.456E-03     210.828E-03    -105.896E-03     34.8741E-03
             317     5.66839E-03     69.9209E-03    -73.1497E+06    -117.366E+06    -18.6506E+06     603.003E+03    -105.947E-03     211.949E-03    -106.002E-03     38.7327E-03    -106.159E-03     211.539E-03    -105.819E-03     38.1705E-03
             318     6.47656E-03     69.9659E-03    -65.9320E+06    -100.886E+06    -5.89562E+06    -85.0903E+03    -106.358E-03     212.394E-03    -106.037E-03     42.4111E-03    -106.588E-03     212.050E-03    -105.825E-03     41.7530E-03
             319     7.28593E-03     70.0170E-03    -59.5963E+06    -86.5422E+06     3.12079E+06    -815.712E+03    -105.949E-03     212.000E-03    -106.051E-03     45.6793E-03    -106.192E-03     211.716E-03    -105.824E-03     44.9472E-03
             320     8.09684E-03     70.0707E-03    -51.9200E+06    -69.5200E+06     12.7288E+06    -542.374E+03    -105.893E-03     211.924E-03    -106.031E-03     48.3364E-03    -106.148E-03     211.711E-03    -105.792E-03     47.5383E-03
             321     8.90621E-03     70.1255E-03    -43.9211E+06    -51.3438E+06     22.9237E+06    -660.699E+03    -106.100E-03     212.119E-03    -106.019E-03     50.2308E-03    -106.368E-03     211.983E-03    -105.767E-03     49.3552E-03
             322     9.71640E-03     70.1792E-03    -39.3636E+06    -34.8348E+06     29.3500E+06    -63.6033E+03    -106.186E-03     212.197E-03    -106.011E-03     51.4030E-03    -106.474E-03     212.136E-03    -105.756E-03     50.4783E-03
             323     10.5261E-03     70.2393E-03    -34.0399E+06    -16.3856E+06     35.9884E+06     616.762E+03    -106.270E-03     212.277E-03    -106.007E-03     51.8541E-03    -106.578E-03     212.301E-03    -105.753E-03     50.8703E-03
             324     11.3356E-03     70.2978E-03    -28.1830E+06     5.34522E+06     44.1790E+06     3.75030E+06    -105.817E-03     211.812E-03    -105.995E-03     50.7525E-03    -106.149E-03     211.935E-03    -105.741E-03     49.7277E-03
             325     12.1445E-03     70.3527E-03    -19.6400E+06     29.5058E+06     51.9109E+06     5.31525E+06    -104.723E-03     210.652E-03    -105.929E-03     48.7565E-03    -105.067E-03     210.880E-03    -105.684E-03     47.6820E-03
             326     12.9571E-03     70.4057E-03    -10.7783E+06     65.6712E+06     63.6668E+06     2.94113E+06    -103.400E-03     209.202E-03    -105.802E-03     46.5422E-03    -103.772E-03     209.584E-03    -105.563E-03     45.3987E-03
             327     13.7694E-03     70.4566E-03    -9.46983E+06     91.2469E+06     69.3974E+06     802.150E+03    -103.343E-03     208.993E-03    -105.651E-03     42.7841E-03    -103.755E-03     209.494E-03    -105.422E-03     41.5515E-03
             328     14.5814E-03     70.5023E-03    -7.03643E+06     94.3334E+06     76.5549E+06    -1.46941E+06    -104.492E-03     210.084E-03    -105.592E-03     34.6987E-03    -104.903E-03     210.583E-03    -105.335E-03     33.3186E-03
             329     15.3901E-03     70.5346E-03    -2.22490E+06     100.196E+06     90.2950E+06    -2.06437E+06    -105.908E-03     211.552E-03    -105.644E-03     23.6762E-03    -106.284E-03     212.013E-03    -105.334E-03     22.4608E-03
             330     809.527E-06     70.9248E-03    -113.046E+06    -219.770E+06    -110.891E+06    -390.762E+03    -105.925E-03     212.087E-03    -106.162E-03     6.74754E-03    -106.005E-03     211.320E-03    -106.234E-03     6.64380E-03
             331     1.61796E-03     70.9379E-03    -111.537E+06    -207.070E+06    -99.4099E+06     122.615E+03    -105.907E-03     211.955E-03    -106.047E-03     13.0941E-03    -106.023E-03     211.228E-03    -106.083E-03     12.9203E-03
             332     2.42762E-03     70.9582E-03    -105.082E+06    -191.124E+06    -83.0978E+06    -800.332E+03    -105.603E-03     211.609E-03    -106.006E-03     19.3903E-03    -105.739E-03     210.935E-03    -105.992E-03     19.1124E-03
             333     3.23895E-03     70.9814E-03    -95.9713E+06    -171.266E+06    -64.4152E+06    -122.497E+03    -105.383E-03     211.313E-03    -105.930E-03     25.7167E-03    -105.538E-03     210.706E-03    -105.864E-03     25.3663E-03
             334     4.04978E-03     71.0135E-03    -89.3881E+06    -154.103E+06    -47.9698E+06    -647.485E+03    -106.171E-03     212.106E-03    -105.935E-03     31.2439E-03    -106.351E-03     211.560E-03    -105.821E-03     30.8103E-03
             335     4.85729E-03     71.0495E-03    -82.5778E+06    -137.032E+06    -33.8826E+06    -801.515E+03    -106.566E-03     212.602E-03    -106.036E-03     34.7124E-03    -106.764E-03     212.119E-03    -105.887E-03     34.2016E-03
             336     5.66630E-03     71.0908E-03    -73.8383E+06    -118.061E+06    -19.1385E+06     223.096E+03    -106.084E-03     212.190E-03    -106.106E-03     38.9125E-03    -106.298E-03     211.778E-03    -105.923E-03     38.3435E-03
             337     6.47656E-03     71.1396E-03    -65.3265E+06    -99.7522E+06    -5.42120E+06     468.935E+03    -105.984E-03     212.098E-03    -106.114E-03     43.0717E-03    -106.214E-03     211.758E-03    -105.902E-03     42.4258E-03
             338     7.28597E-03     71.1871E-03    -57.0397E+06    -83.3592E+06     5.92924E+06    -408.824E+03    -105.816E-03     211.910E-03    -106.094E-03     46.3525E-03    -106.057E-03     211.635E-03    -105.861E-03     45.6258E-03
             339     8.09598E-03     71.2411E-03    -51.7584E+06    -70.4841E+06     12.4180E+06    -1.73624E+06    -105.554E-03     211.593E-03    -106.039E-03     48.8070E-03    -105.806E-03     211.375E-03    -105.800E-03     48.0024E-03
             340     8.90767E-03     71.2955E-03    -45.5682E+06    -53.2125E+06     20.9648E+06    -286.198E+03    -106.114E-03     212.120E-03    -106.006E-03     49.8234E-03    -106.382E-03     211.977E-03    -105.758E-03     48.9689E-03
             341     9.71613E-03     71.3533E-03    -39.4036E+06    -34.9434E+06     29.2265E+06    -302.274E+03    -106.659E-03     212.682E-03    -106.023E-03     51.1158E-03    -106.948E-03     212.622E-03    -105.769E-03     50.1758E-03
             342     10.5243E-03     71.4103E-03    -34.3608E+06    -17.9975E+06     35.6733E+06    -318.655E+03    -105.948E-03     211.975E-03    -106.027E-03     52.4323E-03    -106.257E-03     211.994E-03    -105.772E-03     51.4314E-03
             343     11.3351E-03     71.4688E-03    -25.9205E+06     1.54592E+06     44.3536E+06     772.783E+03    -105.052E-03     211.026E-03    -105.975E-03     52.2029E-03    -105.368E-03     211.127E-03    -105.717E-03     51.1608E-03
             344     12.1471E-03     71.5230E-03    -18.5562E+06     27.7726E+06     52.1623E+06     1.26674E+06    -104.954E-03     210.841E-03    -105.887E-03     50.2540E-03    -105.293E-03     211.061E-03    -105.639E-03     49.1302E-03
             345     12.9567E-03     71.5750E-03    -14.6008E+06     66.9119E+06     63.6090E+06     2.93230E+06    -104.733E-03     210.544E-03    -105.811E-03     46.7196E-03    -105.131E-03     210.943E-03    -105.569E-03     45.5370E-03
             346     13.7684E-03     71.6240E-03    -8.85901E+06     94.4949E+06     71.7531E+06     3.20875E+06    -104.135E-03     209.860E-03    -105.726E-03     43.0487E-03    -104.555E-03     210.377E-03    -105.491E-03     41.8186E-03
             347     14.5788E-03     71.6735E-03    -5.66625E+06     96.7693E+06     77.9430E+06     1.71861E+06    -104.357E-03     210.033E-03    -105.676E-03     35.9619E-03    -104.767E-03     210.541E-03    -105.419E-03     34.6445E-03
             348     15.3898E-03     71.7059E-03    -4.01875E+06     99.7531E+06     88.9026E+06     324.695E+03    -105.116E-03     210.810E-03    -105.693E-03     25.7484E-03    -105.498E-03     211.274E-03    -105.388E-03     24.5994E-03
             349     809.570E-06     72.0996E-03    -115.649E+06    -220.508E+06    -111.514E+06     985.570E+03    -105.966E-03     211.909E-03    -105.943E-03     8.25130E-03    -106.058E-03     211.142E-03    -106.013E-03     8.17073E-03
             350     1.61826E-03     72.1091E-03    -112.485E+06    -207.922E+06    -100.231E+06     1.44756E+06    -106.137E-03     212.157E-03    -106.020E-03     14.2261E-03    -106.256E-03     211.430E-03    -106.057E-03     14.0691E-03
             351     2.42909E-03     72.1280E-03    -105.143E+06    -190.386E+06    -82.7630E+06     89.5155E+03    -105.675E-03     211.725E-03    -106.050E-03     19.0220E-03    -105.813E-03     211.054E-03    -106.035E-03     18.7617E-03
             352     3.23861E-03     72.1513E-03    -97.7128E+06    -172.991E+06    -66.2497E+06    -734.863E+03    -105.769E-03     211.784E-03    -106.015E-03     23.9060E-03    -105.925E-03     211.172E-03    -105.954E-03     23.5630E-03
             353     4.04760E-03     72.1846E-03    -88.7039E+06    -152.516E+06    -47.1650E+06     645.047E+03    -105.907E-03     211.939E-03    -106.031E-03     30.0558E-03    -106.085E-03     211.397E-03    -105.918E-03     29.6524E-03
             354     4.85725E-03     72.2235E-03    -81.1587E+06    -134.311E+06    -30.8316E+06     85.8975E+03    -106.190E-03     212.263E-03    -106.073E-03     35.0188E-03    -106.391E-03     211.789E-03    -105.915E-03     34.5094E-03
             355     5.66586E-03     72.2621E-03    -74.0519E+06    -118.522E+06    -19.2853E+06    -1.23571E+06    -106.099E-03     212.199E-03    -106.100E-03     39.9125E-03    -106.316E-03     211.788E-03    -105.917E-03     39.3092E-03
             356     6.47643E-03     72.3092E-03    -65.4921E+06    -101.055E+06    -6.77799E+06    -104.715E+03    -105.626E-03     211.707E-03    -106.081E-03     43.9525E-03    -105.853E-03     211.363E-03    -105.873E-03     43.3113E-03
             357     7.28709E-03     72.3593E-03    -58.2040E+06    -84.7626E+06     4.15211E+06     241.334E+03    -105.881E-03     211.925E-03    -106.044E-03     46.4501E-03    -106.121E-03     211.646E-03    -105.816E-03     45.7404E-03
             358     8.09700E-03     72.4111E-03    -52.4075E+06    -69.1241E+06     12.7624E+06    -647.214E+03    -106.261E-03     212.298E-03    -106.037E-03     48.6151E-03    -106.519E-03     212.087E-03    -105.797E-03     47.8225E-03
             359     8.90518E-03     72.4674E-03    -46.3880E+06    -53.7109E+06     20.5560E+06    -887.210E+03    -106.222E-03     212.264E-03    -106.042E-03     50.4759E-03    -106.493E-03     212.120E-03    -105.794E-03     49.6167E-03
             360     9.71540E-03     72.5251E-03    -40.1754E+06    -35.6281E+06     28.8724E+06     143.049E+03    -105.768E-03     211.792E-03    -106.024E-03     51.5775E-03    -106.060E-03     211.732E-03    -105.770E-03     50.6479E-03
             361     10.5268E-03     72.5815E-03    -35.3712E+06    -15.9093E+06     36.3416E+06    -177.527E+03    -104.992E-03     210.949E-03    -105.958E-03     52.4267E-03    -105.311E-03     210.981E-03    -105.702E-03     51.4258E-03
             362     11.3379E-03     72.6375E-03    -31.2849E+06     1.93454E+06     42.0719E+06    -2.17342E+06    -104.716E-03     210.575E-03    -105.859E-03     52.5708E-03    -105.058E-03     210.691E-03    -105.606E-03     51.4833E-03
             363     12.1482E-03     72.6935E-03    -25.1876E+06     25.1235E+06     48.6903E+06    -484.047E+03    -105.458E-03     211.242E-03    -105.784E-03     50.7087E-03    -105.819E-03     211.462E-03    -105.540E-03     49.5726E-03
             364     12.9584E-03     72.7470E-03    -17.9232E+06     64.7625E+06     60.0839E+06     1.17788E+06    -106.184E-03     211.953E-03    -105.769E-03     46.6980E-03    -106.586E-03     212.347E-03    -105.537E-03     45.5049E-03
             365     13.7663E-03     72.7951E-03    -13.6299E+06     91.6039E+06     66.6948E+06     3.08237E+06    -105.333E-03     211.093E-03    -105.760E-03     42.3135E-03    -105.762E-03     211.605E-03    -105.540E-03     41.0884E-03
             366     14.5786E-03     72.8409E-03    -9.08754E+06     98.6310E+06     75.1516E+06     4.21106E+06    -104.289E-03     210.033E-03    -105.744E-03     36.6086E-03    -104.711E-03     210.555E-03    -105.498E-03     35.3573E-03
             367     15.3891E-03     72.8788E-03    -4.10296E+06     103.779E+06      88.628E+06     1.73500E+06    -104.012E-03     209.744E-03    -105.731E-03     25.5466E-03    -104.397E-03     210.226E-03    -105.433E-03     24.4467E-03
             368     810.172E-06     73.2683E-03    -117.163E+06    -221.606E+06    -114.018E+06     246.938E+03    -105.812E-03     211.641E-03    -105.829E-03     8.25689E-03    -105.907E-03     210.874E-03    -105.908E-03     8.17094E-03
             369     1.62024E-03     73.2819E-03    -111.683E+06    -208.476E+06    -100.789E+06     53.4311E+03    -106.010E-03     211.901E-03    -105.891E-03     13.1027E-03    -106.123E-03     211.170E-03    -105.931E-03     12.9282E-03
             370     2.42767E-03     73.2986E-03    -104.893E+06    -190.051E+06    -83.2563E+06     937.283E+03    -106.333E-03     212.365E-03    -106.032E-03     19.2301E-03    -106.469E-03     211.696E-03    -106.021E-03     18.9826E-03
             371     3.23633E-03     73.3244E-03    -98.5186E+06    -171.941E+06    -65.1812E+06     311.831E+03    -106.298E-03     212.462E-03    -106.164E-03     25.3412E-03    -106.463E-03     211.856E-03    -106.097E-03     25.0048E-03
             372     4.04596E-03     73.3550E-03    -90.0774E+06    -154.157E+06    -48.1478E+06     196.284E+03    -105.432E-03     211.592E-03    -106.159E-03     30.9966E-03    -105.614E-03     211.046E-03    -106.046E-03     30.5839E-03
             373     4.85780E-03     73.3926E-03    -80.4033E+06    -133.933E+06    -31.5342E+06     389.182E+03    -105.112E-03     211.157E-03    -106.045E-03     36.0686E-03    -105.309E-03     210.685E-03    -105.892E-03     35.5774E-03
             374     5.66866E-03     73.4353E-03    -73.7815E+06    -116.783E+06    -18.7184E+06    -75.0501E+03    -105.873E-03     211.853E-03    -105.980E-03     39.8657E-03    -106.090E-03     211.447E-03    -105.797E-03     39.2995E-03
             375     6.47714E-03     73.4791E-03    -67.2774E+06    -102.076E+06    -7.75707E+06    -56.2830E+03    -106.236E-03     212.232E-03    -105.996E-03     43.5104E-03    -106.468E-03     211.886E-03    -105.790E-03     42.8740E-03
             376     7.28715E-03     73.5302E-03    -59.9691E+06    -85.8020E+06     2.89287E+06    -96.4421E+03    -106.275E-03     212.301E-03    -106.026E-03     46.3560E-03    -106.521E-03     212.021E-03    -105.800E-03     45.6350E-03
             377     8.09588E-03     73.5838E-03    -52.7199E+06    -67.7492E+06     13.0292E+06     164.484E+03    -106.155E-03     212.194E-03    -106.039E-03     48.4976E-03    -106.417E-03     211.991E-03    -105.799E-03     47.7108E-03
             378     8.90639E-03     73.6387E-03    -46.8945E+06    -52.8248E+06     21.0482E+06     44.1289E+03    -105.466E-03     211.473E-03    -106.007E-03     51.3811E-03    -105.744E-03     211.336E-03    -105.758E-03     50.5357E-03
             379     9.71660E-03     73.6955E-03    -41.5124E+06    -36.9465E+06     27.8621E+06     165.335E+03    -104.931E-03     210.851E-03    -105.920E-03     52.7793E-03    -105.226E-03     210.787E-03    -105.667E-03     51.8672E-03
             380     10.5272E-03     73.7504E-03    -36.3551E+06    -14.7142E+06     35.3836E+06     1.05328E+06    -105.047E-03     210.872E-03    -105.825E-03     52.5053E-03    -105.371E-03     210.912E-03    -105.574E-03     51.5241E-03
             381     11.3384E-03     73.8074E-03    -32.8898E+06     4.22616E+06     41.5239E+06     218.289E+03    -105.436E-03     211.201E-03    -105.765E-03     51.8684E-03    -105.789E-03     211.332E-03    -105.516E-03     50.7966E-03
             382     12.1490E-03     73.8641E-03    -28.4983E+06     24.5214E+06     46.0963E+06    -2.74624E+06    -105.862E-03     211.595E-03    -105.732E-03     50.6625E-03    -106.237E-03     211.822E-03    -105.496E-03     49.4831E-03
             383     12.9577E-03     73.9200E-03    -23.7457E+06     59.9455E+06     54.4427E+06    -699.144E+03    -106.275E-03     212.006E-03    -105.731E-03     47.2746E-03    -106.692E-03     212.393E-03    -105.511E-03     46.0578E-03
             384     13.7677E-03     73.9677E-03    -17.2778E+06     86.9936E+06     61.7802E+06     3.10575E+06    -106.212E-03     211.964E-03    -105.752E-03     41.9751E-03    -106.644E-03     212.464E-03    -105.544E-03     40.7380E-03
             385     14.5759E-03     74.0099E-03    -10.4633E+06     101.012E+06     72.7361E+06     2.35831E+06    -104.896E-03     210.673E-03    -105.777E-03     36.5825E-03    -105.326E-03     211.213E-03    -105.544E-03     35.2858E-03
             386     15.3875E-03     74.0494E-03    -5.04834E+06     106.962E+06     88.0724E+06     1.08652E+06    -103.304E-03     209.072E-03    -105.768E-03     25.5162E-03    -103.700E-03     209.574E-03    -105.475E-03     24.3883E-03
             387     808.425E-06     74.4404E-03    -116.514E+06    -221.591E+06    -113.282E+06     268.503E+03    -106.216E-03     212.355E-03    -106.138E-03     7.45193E-03    -106.309E-03     211.586E-03    -106.215E-03     7.35907E-03
             388     1.61771E-03     74.4519E-03    -110.841E+06    -207.862E+06    -99.6721E+06    -415.145E+03    -105.671E-03     211.783E-03    -106.112E-03     13.1722E-03    -105.783E-03     211.052E-03    -106.148E-03     12.9864E-03
             389     2.42932E-03     74.4708E-03    -105.692E+06    -191.841E+06    -84.6979E+06    -154.554E+03    -105.809E-03     211.829E-03    -106.019E-03     19.7485E-03    -105.946E-03     211.155E-03    -106.012E-03     19.4807E-03
             390     3.23875E-03     74.4964E-03    -97.2521E+06    -171.221E+06    -65.0422E+06     737.725E+03    -105.828E-03     211.850E-03    -106.022E-03     25.8751E-03    -105.988E-03     211.246E-03    -105.958E-03     25.5408E-03
             391     4.04836E-03     74.5260E-03    -89.5721E+06    -154.148E+06    -47.8639E+06     282.789E+03    -105.816E-03     211.846E-03    -106.029E-03     30.8809E-03    -105.996E-03     211.299E-03    -105.915E-03     30.4686E-03
             392     4.85742E-03     74.5619E-03    -82.3095E+06    -135.944E+06    -33.7169E+06    -67.2837E+03    -105.701E-03     211.713E-03    -106.013E-03     35.5027E-03    -105.899E-03     211.235E-03    -105.865E-03     35.0166E-03
             393     5.66759E-03     74.6057E-03    -73.5937E+06    -116.349E+06    -18.3413E+06     1.08211E+06    -105.700E-03     211.694E-03    -105.994E-03     38.7902E-03    -105.915E-03     211.288E-03    -105.811E-03     38.2480E-03
             394     6.47797E-03     74.6517E-03    -67.0891E+06    -101.085E+06    -6.88570E+06     886.240E+03    -106.088E-03     212.082E-03    -105.994E-03     42.7016E-03    -106.322E-03     211.739E-03    -105.784E-03     42.0688E-03
             395     7.28596E-03     74.7020E-03    -60.5868E+06    -85.5155E+06     2.90514E+06     203.079E+03    -105.970E-03     211.967E-03    -105.997E-03     46.9839E-03    -106.221E-03     211.691E-03    -105.771E-03     46.2675E-03
             396     8.09661E-03     74.7548E-03    -53.7346E+06    -68.0667E+06     12.6277E+06     858.300E+03    -105.304E-03     211.258E-03    -105.954E-03     49.5829E-03    -105.571E-03     211.057E-03    -105.715E-03     48.8124E-03
             397     8.90715E-03     74.8083E-03    -48.1351E+06    -52.7914E+06     20.0806E+06     743.737E+03    -104.890E-03     210.751E-03    -105.861E-03     51.5092E-03    -105.173E-03     210.617E-03    -105.614E-03     50.6747E-03
             398     9.71948E-03     74.8643E-03    -42.9398E+06    -37.1354E+06     26.5819E+06     807.399E+03    -104.981E-03     210.743E-03    -105.762E-03     52.4070E-03    -105.280E-03     210.681E-03    -105.513E-03     51.5091E-03
             399     10.5302E-03     74.9217E-03    -37.1532E+06    -16.0192E+06     34.0233E+06     1.37869E+06    -105.702E-03     211.409E-03    -105.706E-03     52.6206E-03    -106.025E-03     211.444E-03    -105.459E-03     51.6487E-03
             400     11.3387E-03     74.9785E-03    -30.6345E+06     5.24580E+06     42.1430E+06     1.26568E+06    -106.280E-03     211.989E-03    -105.709E-03     52.1820E-03    -106.625E-03     212.121E-03    -105.461E-03     51.1177E-03
             401     12.1477E-03     75.0355E-03    -28.6128E+06     26.2602E+06     45.9175E+06     1.41038E+06    -105.772E-03     211.476E-03    -105.703E-03     51.0160E-03    -106.153E-03     211.715E-03    -105.470E-03     49.8758E-03
             402     12.9589E-03     75.0907E-03    -26.2585E+06     59.1012E+06     53.3141E+06    -550.063E+03    -105.457E-03     211.135E-03    -105.677E-03     49.1224E-03    -105.892E-03     211.531E-03    -105.458E-03     47.8846E-03
             403     13.7679E-03     75.1408E-03    -18.7655E+06     85.8669E+06     60.1815E+06    -2.78408E+06    -106.258E-03     211.931E-03    -105.672E-03     44.3684E-03    -106.703E-03     212.439E-03    -105.469E-03     43.0201E-03
             404     14.5773E-03     75.1831E-03    -10.4904E+06     99.7966E+06     71.9348E+06    -907.299E+03    -105.678E-03     211.403E-03    -105.724E-03     36.8294E-03    -106.111E-03     211.944E-03    -105.494E-03     35.4482E-03
             405     15.3882E-03     75.2154E-03    -4.62044E+06     107.501E+06     89.9585E+06     1.14551E+06    -103.823E-03     209.586E-03    -105.763E-03     25.7012E-03    -104.223E-03     210.091E-03    -105.462E-03     24.5324E-03
             406     809.138E-06     75.6119E-03    -116.233E+06    -221.121E+06    -112.724E+06    -783.978E+03    -106.169E-03     212.139E-03    -105.970E-03     7.27899E-03    -106.262E-03     211.372E-03    -106.045E-03     7.15298E-03
             407     1.61951E-03     75.6228E-03    -111.183E+06    -208.521E+06    -100.769E+06     255.444E+03    -105.772E-03     211.809E-03    -106.038E-03     14.1555E-03    -105.883E-03     211.078E-03    -106.078E-03     13.9728E-03
             408     2.42747E-03     75.6417E-03    -105.672E+06    -191.317E+06    -84.1998E+06     12.6458E+03    -105.635E-03     211.607E-03    -105.972E-03     19.5772E-03    -105.772E-03     210.934E-03    -105.962E-03     19.3222E-03
             409     3.23834E-03     75.6660E-03    -97.9884E+06    -172.578E+06    -66.5095E+06     125.048E+03    -105.564E-03     211.492E-03    -105.928E-03     24.8072E-03    -105.722E-03     210.883E-03    -105.869E-03     24.4841E-03
             410     4.04836E-03     75.6976E-03    -89.7705E+06    -154.239E+06    -48.3072E+06     1.01810E+06    -106.067E-03     212.019E-03    -105.952E-03     30.1297E-03    -106.245E-03     211.471E-03    -105.839E-03     29.7359E-03
             411     4.85730E-03     75.7343E-03    -82.0425E+06    -134.737E+06    -32.1937E+06     912.072E+03    -106.311E-03     212.338E-03    -106.027E-03     35.3850E-03    -106.513E-03     211.863E-03    -105.874E-03     34.9029E-03
             412     5.66620E-03     75.7761E-03    -74.4342E+06    -118.188E+06    -19.0688E+06     713.430E+03    -105.823E-03     211.880E-03    -106.057E-03     39.5400E-03    -106.042E-03     211.470E-03    -105.873E-03     38.9746E-03
             413     6.47624E-03     75.8222E-03    -65.3470E+06    -101.242E+06    -5.96257E+06     1.47023E+06    -105.175E-03     211.178E-03    -106.003E-03     43.4849E-03    -105.402E-03     210.831E-03    -105.791E-03     42.8607E-03
             414     7.28835E-03     75.8731E-03    -59.3136E+06    -85.0389E+06     3.79412E+06     1.80559E+06    -104.873E-03     210.764E-03    -105.891E-03     47.1284E-03    -105.119E-03     210.487E-03    -105.663E-03     46.4461E-03
             415     8.09896E-03     75.9237E-03    -53.9742E+06    -69.4544E+06     11.6780E+06     1.33247E+06    -104.999E-03     210.781E-03    -105.782E-03     49.3417E-03    -105.263E-03     210.573E-03    -105.545E-03     48.5868E-03
             416     8.91017E-03     75.9786E-03    -47.9217E+06    -53.3672E+06     19.6457E+06     1.86379E+06    -105.213E-03     210.918E-03    -105.705E-03     50.7548E-03    -105.492E-03     210.780E-03    -105.460E-03     49.9395E-03
             417     9.71892E-03     76.0340E-03    -42.6567E+06    -35.9055E+06     27.0766E+06     1.75740E+06    -105.489E-03     211.146E-03    -105.657E-03     52.1357E-03    -105.790E-03     211.089E-03    -105.408E-03     51.2456E-03
             418     10.5292E-03     76.0919E-03    -36.8042E+06    -16.6489E+06     34.0327E+06     651.031E+03    -105.935E-03     211.573E-03    -105.638E-03     52.9913E-03    -106.256E-03     211.606E-03    -105.390E-03     52.0037E-03
             419     11.3397E-03     76.1511E-03    -31.9853E+06     4.11205E+06     41.2976E+06     1.32166E+06    -106.094E-03     211.740E-03    -105.646E-03     52.5766E-03    -106.445E-03     211.872E-03    -105.399E-03     51.5050E-03
             420     12.1494E-03     76.2067E-03    -24.6460E+06     27.3221E+06     48.4355E+06     1.73416E+06    -105.998E-03     211.649E-03    -105.651E-03     50.8693E-03    -106.367E-03     211.887E-03    -105.413E-03     49.7098E-03
             421     12.9600E-03     76.2592E-03    -17.4133E+06     63.1403E+06     58.7213E+06     324.052E+03    -105.621E-03     211.265E-03    -105.644E-03     47.9587E-03    -106.027E-03     211.663E-03    -105.417E-03     46.6948E-03
             422     13.7716E-03     76.3139E-03    -15.0643E+06     87.9619E+06     62.1639E+06    -2.05183E+06    -105.193E-03     210.803E-03    -105.610E-03     43.0554E-03    -105.626E-03     211.314E-03    -105.405E-03     41.7168E-03
             423     14.5801E-03     76.3555E-03    -13.0744E+06     96.4638E+06     68.9603E+06    -2.66470E+06    -105.328E-03     210.947E-03    -105.619E-03     35.6719E-03    -105.763E-03     211.478E-03    -105.395E-03     34.2716E-03
             424     15.3888E-03     76.3862E-03    -6.51285E+06     106.215E+06     88.3405E+06    -1.01345E+06    -105.202E-03     210.895E-03    -105.693E-03     25.1553E-03    -105.608E-03     211.399E-03    -105.396E-03     23.9434E-03
             425     810.102E-06     76.7816E-03    -115.714E+06    -221.044E+06    -112.262E+06     171.080E+03    -105.700E-03     211.592E-03    -105.892E-03     6.29143E-03    -105.791E-03     210.822E-03    -105.965E-03     6.21252E-03
             426     1.61887E-03     76.7945E-03    -112.740E+06    -209.326E+06    -101.515E+06     312.380E+03    -105.795E-03     211.621E-03    -105.826E-03     13.3839E-03    -105.910E-03     210.887E-03    -105.866E-03     13.2292E-03
             427     2.42958E-03     76.8127E-03    -105.179E+06    -190.640E+06    -83.6270E+06     354.656E+03    -105.661E-03     211.507E-03    -105.846E-03     19.8778E-03    -105.796E-03     210.835E-03    -105.836E-03     19.6387E-03
             428     3.23826E-03     76.8367E-03    -98.2626E+06    -173.528E+06    -65.5413E+06     605.461E+03    -105.944E-03     211.829E-03    -105.885E-03     25.7608E-03    -106.104E-03     211.215E-03    -105.819E-03     25.4334E-03
             429     4.04764E-03     76.8689E-03    -90.3577E+06    -155.222E+06    -48.2390E+06     718.671E+03    -105.812E-03     211.744E-03    -105.932E-03     31.0445E-03    -105.993E-03     211.193E-03    -105.817E-03     30.6371E-03
             430     4.85774E-03     76.9057E-03    -81.4698E+06    -135.275E+06    -32.1729E+06     1.31304E+06    -105.704E-03     211.639E-03    -105.935E-03     36.4630E-03    -105.903E-03     211.161E-03    -105.781E-03     35.9932E-03
             431     5.66775E-03     76.9479E-03    -73.6169E+06    -118.347E+06    -18.5383E+06     1.59604E+06    -105.635E-03     211.551E-03    -105.916E-03     40.6469E-03    -105.850E-03     211.138E-03    -105.730E-03     40.0994E-03
             432     6.47799E-03     76.9918E-03    -66.6064E+06    -103.013E+06    -6.97415E+06     1.63215E+06    -105.193E-03     211.057E-03    -105.863E-03     44.0225E-03    -105.423E-03     210.704E-03    -105.652E-03     43.4071E-03
             433     7.28854E-03     77.0412E-03    -58.5828E+06    -85.7439E+06     3.71681E+06     2.13436E+06    -104.882E-03     210.651E-03    -105.769E-03     46.5658E-03    -105.122E-03     210.368E-03    -105.541E-03     45.8920E-03
             434     8.09982E-03     77.0941E-03    -52.2316E+06    -69.1196E+06     12.6556E+06     2.54230E+06    -105.024E-03     210.701E-03    -105.677E-03     48.4291E-03    -105.280E-03     210.489E-03    -105.438E-03     47.6892E-03
             435     8.90909E-03     77.1486E-03    -46.5227E+06    -54.1308E+06     20.5115E+06     2.60135E+06    -105.263E-03     210.879E-03    -105.616E-03     50.2134E-03    -105.534E-03     210.733E-03    -105.367E-03     49.4056E-03
             436     9.72123E-03     77.2039E-03    -40.6572E+06    -35.3530E+06     28.2629E+06     2.39986E+06    -105.712E-03     211.297E-03    -105.585E-03     52.6734E-03    -106.007E-03     211.240E-03    -105.334E-03     51.7787E-03
             437     10.5306E-03     77.2641E-03    -36.1877E+06    -16.3528E+06     35.1042E+06     1.83194E+06    -105.982E-03     211.564E-03    -105.583E-03     53.5223E-03    -106.305E-03     211.600E-03    -105.331E-03     52.5317E-03
             438     11.3401E-03     77.3205E-03    -31.1648E+06     4.79007E+06     42.8939E+06     1.23804E+06    -106.096E-03     211.694E-03    -105.598E-03     52.4524E-03    -106.448E-03     211.828E-03    -105.345E-03     51.3666E-03
             439     12.1509E-03     77.3783E-03    -26.5341E+06     29.8564E+06     49.3673E+06    -591.703E+03    -106.831E-03     212.463E-03    -105.633E-03     50.2166E-03    -107.211E-03     212.712E-03    -105.391E-03     49.0320E-03
             440     12.9578E-03     77.4331E-03    -20.7196E+06     64.0196E+06     58.5381E+06    -2.64858E+06    -106.475E-03     212.157E-03    -105.682E-03     46.0118E-03    -106.892E-03     212.557E-03    -105.452E-03     44.7295E-03
             441     13.7665E-03     77.4815E-03    -11.9058E+06     89.4860E+06     64.3294E+06    -1.54205E+06    -104.490E-03     210.146E-03    -105.656E-03     40.6109E-03    -104.904E-03     210.649E-03    -105.447E-03     39.3094E-03
             442     14.5811E-03     77.5254E-03    -6.18348E+06     97.8380E+06     73.5322E+06    -219.554E+03    -104.201E-03     209.821E-03    -105.620E-03     34.5762E-03    -104.604E-03     210.336E-03    -105.385E-03     33.2508E-03
             443     15.3916E-03     77.5597E-03    -3.35820E+06     103.862E+06     89.5981E+06    -1.35171E+06    -105.684E-03     211.354E-03    -105.670E-03     23.8185E-03    -106.066E-03     211.833E-03    -105.368E-03     22.6428E-03
             444     809.598E-06     77.9553E-03    -116.375E+06    -223.264E+06    -112.497E+06     1.94521E+06    -105.440E-03     211.371E-03    -105.932E-03     7.94054E-03    -105.532E-03     210.592E-03    -106.002E-03     7.88667E-03
             445     1.61886E-03     77.9646E-03    -111.829E+06    -208.660E+06    -99.3473E+06     964.266E+03    -105.678E-03     211.398E-03    -105.720E-03     12.9913E-03    -105.793E-03     210.664E-03    -105.752E-03     12.8497E-03
             446     2.42914E-03     77.9818E-03    -105.721E+06    -191.385E+06    -83.0619E+06     823.379E+03    -105.554E-03     211.293E-03    -105.739E-03     19.7132E-03    -105.693E-03     210.618E-03    -105.723E-03     19.4835E-03
             447     3.23923E-03     78.0096E-03    -98.3228E+06    -173.857E+06    -64.7706E+06     825.019E+03    -105.634E-03     211.390E-03    -105.757E-03     25.8666E-03    -105.795E-03     210.774E-03    -105.686E-03     25.5450E-03
             448     4.04862E-03     78.0388E-03    -89.4834E+06    -155.272E+06    -47.5033E+06     555.188E+03    -105.562E-03     211.332E-03    -105.770E-03     31.3840E-03    -105.740E-03     210.779E-03    -105.652E-03     30.9725E-03
             449     4.85912E-03     78.0760E-03    -81.5527E+06    -136.853E+06    -32.5856E+06     1.24898E+06    -105.290E-03     211.032E-03    -105.743E-03     36.3397E-03    -105.485E-03     210.547E-03    -105.589E-03     35.8739E-03
             450     5.66968E-03     78.1179E-03    -73.1693E+06    -119.559E+06    -18.4165E+06     2.00275E+06    -105.180E-03     210.872E-03    -105.691E-03     39.9897E-03    -105.391E-03     210.451E-03    -105.504E-03     39.4563E-03
             451     6.47977E-03     78.1625E-03    -64.9566E+06    -102.509E+06    -6.19346E+06     1.44688E+06    -105.568E-03     211.226E-03    -105.658E-03     43.6367E-03    -105.791E-03     210.873E-03    -105.447E-03     43.0120E-03
             452     7.28936E-03     78.2115E-03    -58.4049E+06    -87.1083E+06     3.48568E+06     1.82479E+06    -105.491E-03     211.133E-03    -105.642E-03     46.5421E-03    -105.729E-03     210.844E-03    -105.413E-03     45.8501E-03
             453     8.09919E-03     78.2633E-03    -51.1429E+06    -70.1818E+06     13.3307E+06     2.79354E+06    -105.060E-03     210.658E-03    -105.598E-03     49.1516E-03    -105.311E-03     210.440E-03    -105.355E-03     48.4085E-03
             454     8.91155E-03     78.3182E-03    -44.1196E+06    -53.7032E+06     22.1530E+06     2.72892E+06    -105.568E-03     211.126E-03    -105.558E-03     50.9020E-03    -105.832E-03     210.979E-03    -105.305E-03     50.0851E-03
             455     9.72023E-03     78.3742E-03    -38.3398E+06    -36.2708E+06     29.7451E+06     2.85914E+06    -106.002E-03     211.560E-03    -105.557E-03     52.0313E-03    -106.286E-03     211.493E-03    -105.301E-03     51.1341E-03
             456     10.5307E-03     78.4349E-03    -32.7246E+06    -15.0912E+06     37.9918E+06     2.79799E+06    -105.916E-03     211.486E-03    -105.570E-03     52.4012E-03    -106.226E-03     211.516E-03    -105.311E-03     51.4251E-03
             457     11.3412E-03     78.4912E-03    -27.9528E+06     4.87774E+06     44.8672E+06     1.88219E+06    -106.409E-03     212.002E-03    -105.593E-03     52.4984E-03    -106.747E-03     212.128E-03    -105.335E-03     51.4250E-03
             458     12.1482E-03     78.5521E-03    -23.0276E+06     33.2898E+06     52.1948E+06     368.638E+03    -106.533E-03     212.159E-03    -105.626E-03     51.8019E-03    -106.905E-03     212.416E-03    -105.380E-03     50.6533E-03
             459     12.9583E-03     78.6054E-03    -19.5595E+06     68.0760E+06     61.2973E+06    -2.23199E+06    -106.176E-03     211.832E-03    -105.655E-03     48.4233E-03    -106.595E-03     212.245E-03    -105.419E-03     47.1958E-03
             460     13.7690E-03     78.6527E-03    -17.7794E+06     88.7236E+06     62.6029E+06    -4.11122E+06    -106.056E-03     211.716E-03    -105.660E-03     41.9451E-03    -106.496E-03     212.226E-03    -105.450E-03     40.6075E-03
             461     14.5778E-03     78.6916E-03    -10.5994E+06     98.6951E+06     70.4832E+06    -2.84740E+06    -105.181E-03     210.865E-03    -105.684E-03     34.2787E-03    -105.606E-03     211.398E-03    -105.460E-03     32.8740E-03
             462     15.3888E-03     78.7335E-03    -3.94861E+06     101.707E+06     86.6823E+06    -360.181E+03    -104.559E-03     210.287E-03    -105.728E-03     23.3747E-03    -104.936E-03     210.760E-03    -105.437E-03     22.1991E-03
             463     809.763E-06     79.1242E-03    -116.690E+06    -225.645E+06    -115.163E+06     280.708E+03    -105.607E-03     210.983E-03    -105.376E-03     8.14699E-03    -105.694E-03     210.197E-03    -105.455E-03     8.05081E-03
             464     1.62050E-03     79.1354E-03    -112.033E+06    -209.387E+06    -100.350E+06     1.29499E+06    -105.745E-03     211.321E-03    -105.576E-03     13.0972E-03    -105.859E-03     210.586E-03    -105.612E-03     12.9359E-03
             465     2.42877E-03     79.1533E-03    -106.138E+06    -192.251E+06    -82.8371E+06     1.51962E+06    -105.595E-03     211.268E-03    -105.672E-03     19.5138E-03    -105.736E-03     210.589E-03    -105.654E-03     19.2770E-03
             466     3.23902E-03     79.1782E-03    -97.8563E+06    -173.125E+06    -64.3447E+06     838.979E+03    -104.972E-03     210.611E-03    -105.639E-03     25.6285E-03    -105.133E-03     209.997E-03    -105.568E-03     25.3102E-03
             467     4.05024E-03     79.2096E-03    -89.7422E+06    -155.508E+06    -47.3443E+06     687.696E+03    -105.249E-03     210.823E-03    -105.574E-03     31.4095E-03    -105.428E-03     210.269E-03    -105.455E-03     31.0059E-03
             468     4.85925E-03     79.2465E-03    -80.9198E+06    -137.402E+06    -31.9613E+06     714.649E+03    -105.401E-03     210.964E-03    -105.563E-03     35.6687E-03    -105.594E-03     210.475E-03    -105.406E-03     35.1850E-03
             469     5.66982E-03     79.2864E-03    -71.8056E+06    -120.569E+06    -18.2551E+06     595.470E+03    -105.305E-03     210.858E-03    -105.553E-03     39.5565E-03    -105.507E-03     210.430E-03    -105.365E-03     39.0011E-03
             470     6.48066E-03     79.3331E-03    -64.4390E+06    -103.513E+06    -6.39141E+06     1.56205E+06    -105.387E-03     210.922E-03    -105.536E-03     42.9844E-03    -105.605E-03     210.563E-03    -105.324E-03     42.3649E-03
             471     7.29062E-03     79.3822E-03    -57.2759E+06    -87.5044E+06     4.63002E+06     1.92724E+06    -105.203E-03     210.716E-03    -105.513E-03     45.7349E-03    -105.436E-03     210.421E-03    -105.280E-03     45.0423E-03
             472     8.10185E-03     79.4320E-03    -49.8498E+06    -70.7356E+06     14.2005E+06     1.41923E+06    -105.636E-03     211.130E-03    -105.494E-03     49.2667E-03    -105.882E-03     210.907E-03    -105.248E-03     48.5020E-03
             473     8.91074E-03     79.4885E-03    -42.9338E+06    -55.0414E+06     22.6570E+06     2.00634E+06    -106.377E-03     211.901E-03    -105.525E-03     51.1232E-03    -106.635E-03     211.746E-03    -105.269E-03     50.2886E-03
             474     9.72038E-03     79.5472E-03    -36.2599E+06    -36.6900E+06     31.1728E+06     2.49269E+06    -106.299E-03     211.875E-03    -105.576E-03     51.5029E-03    -106.573E-03     211.800E-03    -105.315E-03     50.5999E-03
             475     10.5302E-03     79.6029E-03    -30.5158E+06    -15.8159E+06     39.1508E+06     2.98758E+06    -106.078E-03     211.683E-03    -105.604E-03     52.5513E-03    -106.377E-03     211.704E-03    -105.342E-03     51.5872E-03
             476     11.3393E-03     79.6649E-03    -25.0955E+06     7.33419E+06     47.0503E+06     2.07795E+06    -105.877E-03     211.487E-03    -105.611E-03     52.9693E-03    -106.205E-03     211.616E-03    -105.350E-03     51.9192E-03
             477     12.1513E-03     79.7217E-03    -19.8968E+06     35.3434E+06     54.0995E+06     207.305E+03    -105.227E-03     210.807E-03    -105.581E-03     51.4535E-03    -105.589E-03     211.067E-03    -105.333E-03     50.3062E-03
             478     12.9625E-03     79.7763E-03    -14.8779E+06     69.9348E+06     63.5970E+06     656.089E+03    -105.426E-03     210.973E-03    -105.547E-03     48.6073E-03    -105.829E-03     211.387E-03    -105.309E-03     47.4191E-03
             479     13.7706E-03     79.8261E-03    -15.2822E+06     90.1354E+06     66.8776E+06    -95.0727E+03    -107.054E-03     212.629E-03    -105.575E-03     43.8498E-03    -107.490E-03     213.137E-03    -105.350E-03     42.5822E-03
             480     14.5763E-03     79.8685E-03    -14.6616E+06     97.1103E+06     67.8038E+06    -4.61338E+06    -106.579E-03     212.227E-03    -105.649E-03     36.1857E-03    -107.007E-03     212.751E-03    -105.429E-03     34.6476E-03
             481     15.3866E-03     79.8973E-03    -7.39712E+06     101.696E+06     82.3418E+06    -2.59136E+06    -104.432E-03     210.147E-03    -105.715E-03     27.0996E-03    -104.793E-03     210.601E-03    -105.440E-03     25.6100E-03
             482     810.070E-06     80.2940E-03    -118.301E+06    -226.084E+06    -114.626E+06    -123.494E+03    -105.067E-03     210.192E-03    -105.125E-03     8.35976E-03    -105.162E-03     209.405E-03    -105.198E-03     8.25545E-03
             483     1.61896E-03     80.3056E-03    -112.529E+06    -211.360E+06    -101.851E+06     433.209E+03    -105.438E-03     210.629E-03    -105.191E-03     14.9014E-03    -105.550E-03     209.887E-03    -105.231E-03     14.7254E-03
             484     2.42966E-03     80.3246E-03    -105.640E+06    -192.951E+06    -83.9328E+06     718.821E+03    -105.464E-03     210.796E-03    -105.332E-03     20.3941E-03    -105.600E-03     210.116E-03    -105.319E-03     20.1417E-03
             485     3.23990E-03     80.3466E-03    -97.4088E+06    -172.991E+06    -64.3919E+06     1.14979E+06    -105.361E-03     210.772E-03    -105.411E-03     26.0240E-03    -105.520E-03     210.158E-03    -105.341E-03     25.7054E-03
             486     4.05000E-03     80.3793E-03    -88.8471E+06    -154.739E+06    -46.1605E+06     584.715E+03    -105.282E-03     210.725E-03    -105.443E-03     31.4272E-03    -105.459E-03     210.172E-03    -105.321E-03     31.0272E-03
             487     4.86107E-03     80.4167E-03    -80.2257E+06    -138.371E+06    -31.8621E+06    -442.174E+03    -105.358E-03     210.810E-03    -105.452E-03     34.9850E-03    -105.546E-03     210.315E-03    -105.294E-03     34.4870E-03
             488     5.67078E-03     80.4562E-03    -72.2457E+06    -120.747E+06    -18.6944E+06     317.466E+03    -105.610E-03     211.084E-03    -105.474E-03     39.5651E-03    -105.814E-03     210.657E-03    -105.288E-03     39.0010E-03
             489     6.47974E-03     80.5040E-03    -64.7581E+06    -104.643E+06    -6.25022E+06     1.15244E+06    -105.207E-03     210.689E-03    -105.482E-03     42.3685E-03    -105.425E-03     210.324E-03    -105.267E-03     41.7427E-03
             490     7.29155E-03     80.5493E-03    -56.9397E+06    -88.0724E+06     4.49270E+06     864.711E+03    -105.280E-03     210.737E-03    -105.457E-03     45.0823E-03    -105.510E-03     210.439E-03    -105.225E-03     44.3744E-03
             491     8.10156E-03     80.6035E-03    -49.7056E+06    -70.9116E+06     14.3930E+06     1.13998E+06    -106.459E-03     211.949E-03    -105.490E-03     48.7899E-03    -106.703E-03     211.723E-03    -105.243E-03     48.0167E-03
             492     8.91049E-03     80.6608E-03    -43.4761E+06    -55.1592E+06     22.7529E+06     774.255E+03    -106.641E-03     212.215E-03    -105.575E-03     49.9101E-03    -106.899E-03     212.058E-03    -105.318E-03     49.0639E-03
             493     9.72032E-03     80.7167E-03    -37.0514E+06    -38.0723E+06     30.3801E+06     843.686E+03    -106.128E-03     211.755E-03    -105.627E-03     50.6056E-03    -106.401E-03     211.673E-03    -105.366E-03     49.6886E-03
             494     10.5298E-03     80.7755E-03    -29.8978E+06    -16.6895E+06     38.9194E+06     1.85536E+06    -105.908E-03     211.547E-03    -105.639E-03     52.4522E-03    -106.201E-03     211.562E-03    -105.377E-03     51.4835E-03
             495     11.3403E-03     80.8343E-03    -23.5134E+06     9.66037E+06     48.4567E+06     1.80168E+06    -105.450E-03     211.074E-03    -105.625E-03     52.5259E-03    -105.774E-03     211.209E-03    -105.362E-03     51.4836E-03
             496     12.1501E-03     80.8914E-03    -19.1255E+06     36.3393E+06     55.1803E+06     1.36135E+06    -105.180E-03     210.761E-03    -105.581E-03     49.9412E-03    -105.541E-03     211.023E-03    -105.330E-03     48.7962E-03
             497     12.9604E-03     80.9457E-03    -15.9918E+06     66.0691E+06     61.5709E+06     1.78851E+06    -105.090E-03     210.623E-03    -105.533E-03     47.0873E-03    -105.491E-03     211.023E-03    -105.297E-03     45.8844E-03
             498     13.7721E-03     80.9988E-03    -8.44812E+06     94.4920E+06     71.6704E+06     2.33868E+06    -104.770E-03     210.267E-03    -105.497E-03     43.9530E-03    -105.184E-03     210.779E-03    -105.264E-03     42.7518E-03
             499     14.5832E-03     81.0429E-03    -6.06640E+06     102.220E+06      81.678E+06     1.40485E+06    -106.303E-03     211.842E-03    -105.540E-03     36.7984E-03    -106.606E-03     212.242E-03    -105.271E-03     35.4154E-03
             500     15.3922E-03     81.0669E-03    -4.35304E+06     97.3441E+06     86.7582E+06    -1.84045E+06    -107.484E-03     213.134E-03    -105.650E-03     25.1731E-03    -107.603E-03     213.301E-03    -105.351E-03     23.6945E-03
             501     811.069E-06     81.4619E-03    -116.114E+06    -224.926E+06    -113.661E+06    -1.38722E+06    -104.650E-03     209.846E-03    -105.196E-03     7.50153E-03    -104.736E-03     209.060E-03    -105.270E-03     7.38346E-03
             502     1.62247E-03     81.4751E-03    -111.181E+06    -211.711E+06    -101.577E+06    -1.25617E+06    -104.948E-03     209.902E-03    -104.954E-03     13.8197E-03    -105.053E-03     209.155E-03    -104.994E-03     13.6353E-03
             503     2.43212E-03     81.4932E-03    -104.561E+06    -193.907E+06    -84.7374E+06    -175.365E+03    -105.467E-03     210.540E-03    -105.073E-03     19.0431E-03    -105.593E-03     209.853E-03    -105.064E-03     18.7921E-03
             504     3.24135E-03     81.5178E-03    -97.0795E+06    -173.513E+06    -65.3232E+06     421.709E+03    -105.774E-03     211.041E-03    -105.267E-03     24.7394E-03    -105.929E-03     210.425E-03    -105.201E-03     24.4161E-03
             505     4.05028E-03     81.5493E-03    -88.6160E+06    -154.680E+06    -46.8882E+06     756.679E+03    -105.359E-03     210.744E-03    -105.385E-03     30.5399E-03    -105.534E-03     210.191E-03    -105.267E-03     30.1436E-03
             506     4.86010E-03     81.5854E-03    -81.1090E+06    -137.751E+06    -31.5385E+06     453.688E+03    -105.072E-03     210.468E-03    -105.396E-03     35.2123E-03    -105.266E-03     209.976E-03    -105.236E-03     34.7268E-03
             507     5.67033E-03     81.6274E-03    -73.7128E+06    -121.267E+06    -18.9030E+06    -27.7525E+03    -105.195E-03     210.571E-03    -105.376E-03     40.2885E-03    -105.406E-03     210.145E-03    -105.187E-03     39.7154E-03
             508     6.48150E-03     81.6730E-03    -65.1568E+06    -104.280E+06    -6.58415E+06    -322.418E+03    -105.733E-03     211.127E-03    -105.394E-03     42.8765E-03    -105.955E-03     210.766E-03    -105.181E-03     42.2192E-03
             509     7.29111E-03     81.7186E-03    -57.0288E+06    -88.3825E+06     4.16090E+06    -231.963E+03    -106.765E-03     212.253E-03    -105.488E-03     45.5546E-03    -106.996E-03     211.955E-03    -105.256E-03     44.8196E-03
             510     8.09970E-03     81.7765E-03    -50.1479E+06    -71.6814E+06     13.8041E+06     563.206E+03    -106.928E-03     212.546E-03    -105.618E-03     48.3032E-03    -107.171E-03     212.317E-03    -105.373E-03     47.5224E-03
             511     8.90906E-03     81.8310E-03    -43.7829E+06    -53.9907E+06     22.5579E+06     322.272E+03    -106.229E-03     211.926E-03    -105.697E-03     48.8700E-03    -106.488E-03     211.772E-03    -105.442E-03     48.0289E-03
             512     9.71856E-03     81.8884E-03    -36.9351E+06    -38.1088E+06     30.2674E+06    -864.038E+03    -105.838E-03     211.551E-03    -105.713E-03     50.4125E-03    -106.110E-03     211.468E-03    -105.452E-03     49.4796E-03
             513     10.5293E-03     81.9448E-03    -29.7824E+06    -17.8638E+06     38.2121E+06    -718.059E+03    -105.624E-03     211.319E-03    -105.695E-03     51.8300E-03    -105.912E-03     211.328E-03    -105.435E-03     50.8307E-03
             514     11.3397E-03     82.0054E-03    -23.6570E+06     7.96575E+06     46.9454E+06     1.14609E+06    -105.297E-03     210.956E-03    -105.659E-03     51.4949E-03    -105.614E-03     211.081E-03    -105.402E-03     50.4578E-03
             515     12.1503E-03     82.0613E-03    -18.2897E+06     33.8226E+06     54.3582E+06     2.89682E+06    -105.339E-03     210.954E-03    -105.616E-03     50.5010E-03    -105.688E-03     211.201E-03    -105.366E-03     49.4037E-03
             516     12.9599E-03     82.1179E-03    -13.0140E+06     66.4800E+06     64.1496E+06     3.37182E+06    -105.071E-03     210.649E-03    -105.578E-03     47.4675E-03    -105.463E-03     211.044E-03    -105.335E-03     46.2847E-03
             517     13.7703E-03     82.1652E-03    -7.69801E+06      96.156E+06     70.6650E+06     1.83167E+06    -104.357E-03     209.870E-03    -105.513E-03     41.3405E-03    -104.770E-03     210.392E-03    -105.288E-03     40.0835E-03
             518     14.5853E-03     82.2098E-03    -6.43077E+06     105.843E+06     82.0998E+06     966.619E+03    -106.366E-03     211.919E-03    -105.553E-03     34.4600E-03    -106.672E-03     212.332E-03    -105.287E-03     33.2449E-03
             519     15.3887E-03     82.2525E-03    -9.99967E+06     98.6204E+06     84.5480E+06     1.17809E+06    -108.012E-03     213.691E-03    -105.678E-03     19.9778E-03    -108.144E-03     213.861E-03    -105.384E-03     19.1130E-03
             520     808.749E-06     82.6306E-03    -112.960E+06    -222.395E+06    -110.824E+06    -1.27006E+06    -105.275E-03     211.273E-03    -105.997E-03     5.44386E-03    -105.353E-03     210.491E-03    -106.065E-03     5.35305E-03
             521     1.61871E-03     82.6432E-03    -110.715E+06    -211.264E+06    -101.383E+06    -1.46465E+06    -104.856E-03     210.360E-03    -105.504E-03     12.3707E-03    -104.958E-03     209.614E-03    -105.545E-03     12.1847E-03
             522     2.42943E-03     82.6630E-03    -104.383E+06    -194.487E+06    -85.0813E+06    -1.19589E+06    -105.078E-03     210.430E-03    -105.352E-03     18.7968E-03    -105.202E-03     209.740E-03    -105.344E-03     18.5287E-03
             523     3.23921E-03     82.6885E-03    -96.9266E+06    -175.511E+06    -66.4810E+06     198.199E+03    -105.270E-03     210.628E-03    -105.358E-03     24.4997E-03    -105.420E-03     210.003E-03    -105.295E-03     24.1640E-03
             524     4.05032E-03     82.7183E-03    -89.3168E+06    -155.875E+06    -47.7674E+06     1.25332E+06    -104.991E-03     210.359E-03    -105.368E-03     30.1120E-03    -105.167E-03     209.803E-03    -105.251E-03     29.7111E-03
             525     4.86127E-03     82.7551E-03    -80.8109E+06    -136.651E+06    -30.7491E+06     1.11023E+06    -104.857E-03     210.192E-03    -105.335E-03     35.2775E-03    -105.053E-03     209.705E-03    -105.173E-03     34.8021E-03
             526     5.67247E-03     82.7957E-03    -72.7940E+06    -119.383E+06    -17.6579E+06    -354.098E+03    -105.220E-03     210.531E-03    -105.310E-03     39.5760E-03    -105.430E-03     210.109E-03    -105.120E-03     39.0074E-03
             527     6.48270E-03     82.8426E-03    -65.4201E+06    -104.196E+06    -6.96424E+06    -1.05618E+06    -106.611E-03     211.999E-03    -105.388E-03     42.8278E-03    -106.833E-03     211.639E-03    -105.177E-03     42.1598E-03
             528     7.28992E-03     82.8938E-03    -58.5225E+06    -88.9339E+06     3.40212E+06    -573.445E+03    -107.605E-03     213.185E-03    -105.580E-03     45.6640E-03    -107.840E-03     212.886E-03    -105.349E-03     44.9306E-03
             529     8.09798E-03     82.9470E-03    -51.2224E+06    -71.7743E+06     12.8050E+06    -1.15863E+06    -106.753E-03     212.488E-03    -105.734E-03     48.3527E-03    -107.000E-03     212.261E-03    -105.492E-03     47.5569E-03
             530     8.90790E-03     83.0027E-03    -43.2163E+06    -53.6242E+06     22.1232E+06    -1.03546E+06    -105.824E-03     211.599E-03    -105.775E-03     49.7991E-03    -106.083E-03     211.449E-03    -105.524E-03     48.9335E-03
             531     9.71887E-03     83.0576E-03    -37.5534E+06    -37.2365E+06     29.9652E+06    -459.043E+03    -105.863E-03     211.629E-03    -105.767E-03     51.2879E-03    -106.140E-03     211.554E-03    -105.508E-03     50.3569E-03
             532     10.5283E-03     83.1169E-03    -33.8179E+06    -19.2356E+06     35.5604E+06    -858.293E+03    -105.805E-03     211.554E-03    -105.749E-03     51.9037E-03    -106.109E-03     211.566E-03    -105.494E-03     50.8986E-03
             533     11.3384E-03     83.1740E-03    -28.9806E+06     4.90479E+06     43.4567E+06     107.725E+03    -105.517E-03     211.242E-03    -105.724E-03     51.2142E-03    -105.851E-03     211.364E-03    -105.472E-03     50.1592E-03
             534     12.1494E-03     83.2318E-03    -23.6048E+06     32.9804E+06     52.3952E+06     1.43660E+06    -105.503E-03     211.199E-03    -105.696E-03     49.4533E-03    -105.871E-03     211.448E-03    -105.447E-03     48.3415E-03
             535     12.9607E-03     83.2879E-03    -15.8440E+06     69.2024E+06     63.5032E+06    -154.879E+03    -105.596E-03     211.273E-03    -105.677E-03     44.6354E-03    -106.000E-03     211.682E-03    -105.437E-03     43.3961E-03
             536     13.7711E-03     83.3363E-03    -11.4401E+06     94.9928E+06     68.8860E+06    -42.6203E+03    -106.311E-03     211.994E-03    -105.684E-03     39.4421E-03    -106.737E-03     212.518E-03    -105.460E-03     38.1184E-03
             537     14.5741E-03     83.3831E-03    -12.2945E+06     101.888E+06     72.2669E+06     3.21446E+06    -105.601E-03     211.323E-03    -105.721E-03     35.4437E-03    -106.024E-03     211.854E-03    -105.490E-03     34.2378E-03
             538     15.3879E-03     83.4253E-03    -15.1763E+06     100.881E+06     79.9948E+06     4.82160E+06    -104.279E-03     210.024E-03    -105.745E-03     21.6242E-03    -104.660E-03     210.473E-03    -105.469E-03     20.8556E-03
             539     809.224E-06     83.8030E-03    -115.584E+06    -222.773E+06    -111.123E+06     1.94325E+06    -105.338E-03     211.644E-03    -106.306E-03     6.54109E-03    -105.428E-03     210.865E-03    -106.371E-03     6.49476E-03
             540     1.61899E-03     83.8129E-03    -111.950E+06    -209.107E+06    -100.096E+06     226.302E+03    -105.119E-03     210.831E-03    -105.712E-03     13.8780E-03    -105.233E-03     210.096E-03    -105.746E-03     13.7153E-03
             541     2.42972E-03     83.8316E-03    -105.809E+06    -193.514E+06    -84.3725E+06    -1.45160E+06    -104.598E-03     210.069E-03    -105.471E-03     20.8609E-03    -104.733E-03     209.386E-03    -105.459E-03     20.5885E-03
             542     3.24084E-03     83.8583E-03    -97.9357E+06    -176.501E+06    -66.5036E+06    -982.987E+03    -104.921E-03     210.252E-03    -105.331E-03     25.9452E-03    -105.075E-03     209.625E-03    -105.266E-03     25.5886E-03
             543     4.05060E-03     83.8870E-03    -89.3692E+06    -157.483E+06    -48.7181E+06     428.925E+03    -105.358E-03     210.693E-03    -105.335E-03     29.9155E-03    -105.531E-03     210.130E-03    -105.220E-03     29.4964E-03
             544     4.86103E-03     83.9241E-03    -80.1519E+06    -136.601E+06    -31.5425E+06     361.247E+03    -105.594E-03     210.991E-03    -105.397E-03     33.8763E-03    -105.784E-03     210.502E-03    -105.240E-03     33.3935E-03
             545     5.67068E-03     83.9650E-03    -72.3996E+06    -118.131E+06    -17.2980E+06     436.367E+03    -105.996E-03     211.476E-03    -105.480E-03     37.9224E-03    -106.203E-03     211.057E-03    -105.291E-03     37.3764E-03
             546     6.47941E-03     84.0144E-03    -66.2010E+06    -104.358E+06    -6.79044E+06    -27.6161E+03    -106.415E-03     211.998E-03    -105.582E-03     43.0504E-03    -106.640E-03     211.637E-03    -105.369E-03     42.4080E-03
             547     7.28907E-03     84.0667E-03    -58.5775E+06    -88.0466E+06     3.22614E+06    -1.22046E+06    -106.525E-03     212.204E-03    -105.679E-03     46.2747E-03    -106.762E-03     211.911E-03    -105.450E-03     45.5381E-03
             548     8.09869E-03     84.1186E-03    -51.2935E+06    -70.7382E+06     12.3498E+06    -1.79020E+06    -106.078E-03     211.810E-03    -105.732E-03     48.4463E-03    -106.328E-03     211.590E-03    -105.493E-03     47.6391E-03
             549     8.90911E-03     84.1721E-03    -46.1524E+06    -55.4438E+06     20.1212E+06    -937.818E+03    -105.905E-03     211.648E-03    -105.743E-03     50.8263E-03    -106.175E-03     211.498E-03    -105.495E-03     49.9564E-03
             550     9.71822E-03     84.2295E-03    -40.9888E+06    -37.8769E+06     28.2547E+06     156.249E+03    -106.288E-03     212.044E-03    -105.757E-03     52.2862E-03    -106.580E-03     211.975E-03    -105.501E-03     51.3583E-03
             551     10.5282E-03     84.2874E-03    -35.8455E+06    -17.7427E+06     35.2477E+06    -231.251E+03    -106.456E-03     212.238E-03    -105.782E-03     51.9095E-03    -106.773E-03     212.263E-03    -105.528E-03     50.8933E-03
             552     11.3385E-03     84.3447E-03    -29.6993E+06     3.24938E+06     43.0123E+06    -755.433E+03    -106.534E-03     212.352E-03    -105.818E-03     50.8722E-03    -106.874E-03     212.472E-03    -105.564E-03     49.7560E-03
             553     12.1468E-03     84.4037E-03    -21.7398E+06      34.962E+06     53.7206E+06    -1.25735E+06    -106.510E-03     212.362E-03    -105.851E-03     48.9746E-03    -106.878E-03     212.621E-03    -105.602E-03     47.7849E-03
             554     12.9551E-03     84.4584E-03    -18.2661E+06     70.3061E+06     61.6356E+06    -1.79956E+06    -106.603E-03     212.481E-03    -105.878E-03     44.7252E-03    -107.018E-03     212.902E-03    -105.645E-03     43.4554E-03
             555     13.7632E-03     84.5096E-03    -17.8061E+06     90.1851E+06     64.0682E+06     2.53483E+06    -105.952E-03     211.844E-03    -105.892E-03     40.4296E-03    -106.393E-03     212.357E-03    -105.677E-03     39.1815E-03
             556     14.5768E-03     84.5572E-03    -13.9415E+06     97.0841E+06     69.3363E+06     8.57404E+06    -103.450E-03     209.302E-03    -105.852E-03     34.9549E-03    -103.887E-03     209.833E-03    -105.626E-03     33.7455E-03
             557     15.3891E-03     84.5852E-03    -3.99387E+06     102.099E+06     85.6749E+06     4.05161E+06    -102.689E-03     208.474E-03    -105.785E-03     23.0205E-03    -103.069E-03     208.954E-03    -105.499E-03     21.9169E-03
             558     810.702E-06     84.9735E-03    -116.023E+06    -226.114E+06    -114.406E+06     629.333E+03    -105.447E-03     210.670E-03    -105.223E-03     6.86172E-03    -105.529E-03     209.879E-03    -105.299E-03     6.77494E-03
             559     1.62026E-03     84.9831E-03    -111.706E+06    -208.676E+06    -99.2866E+06     1.85029E+06    -105.425E-03     210.816E-03    -105.391E-03     12.3564E-03    -105.539E-03     210.081E-03    -105.423E-03     12.2170E-03
             560     2.43025E-03     85.0002E-03    -107.023E+06    -190.840E+06    -82.7668E+06     457.162E+03    -104.989E-03     210.387E-03    -105.397E-03     19.2955E-03    -105.136E-03     209.716E-03    -105.379E-03     19.0553E-03
             561     3.24101E-03     85.0264E-03    -99.7936E+06    -175.315E+06    -66.0052E+06    -1.72935E+06    -105.325E-03     210.711E-03    -105.386E-03     24.9303E-03    -105.490E-03     210.091E-03    -105.317E-03     24.5712E-03
             562     4.05078E-03     85.0588E-03    -90.4118E+06    -158.707E+06    -50.1537E+06    -2.33225E+06    -106.026E-03     211.510E-03    -105.483E-03     28.6611E-03    -106.198E-03     210.943E-03    -105.373E-03     28.2169E-03
             563     4.85924E-03     85.0937E-03    -81.9168E+06    -138.033E+06    -34.5432E+06    -206.049E+03    -106.321E-03     211.955E-03    -105.633E-03     33.6852E-03    -106.512E-03     211.465E-03    -105.487E-03     33.1979E-03
             564     5.66798E-03     85.1378E-03    -73.7241E+06    -119.229E+06    -18.5660E+06     1.26424E+06    -106.138E-03     211.893E-03    -105.754E-03     38.7639E-03    -106.350E-03     211.473E-03    -105.567E-03     38.2172E-03
             565     6.47842E-03     85.1835E-03    -64.6570E+06    -101.948E+06    -5.34810E+06     318.216E+03    -105.539E-03     211.319E-03    -105.781E-03     43.9932E-03    -105.763E-03     210.968E-03    -105.566E-03     43.3542E-03
             566     7.28911E-03     85.2380E-03    -58.1786E+06    -86.2891E+06     3.57035E+06    -580.354E+03    -105.346E-03     211.082E-03    -105.736E-03     46.8227E-03    -105.584E-03     210.797E-03    -105.509E-03     46.1014E-03
             567     8.09969E-03     85.2882E-03    -54.2828E+06    -71.4413E+06     11.2870E+06    -129.160E+03    -105.676E-03     211.380E-03    -105.704E-03     47.6061E-03    -105.936E-03     211.161E-03    -105.465E-03     46.8258E-03
             568     8.90938E-03     85.3436E-03    -48.6124E+06    -56.0763E+06     19.5711E+06    -762.687E+03    -106.144E-03     211.857E-03    -105.713E-03     50.4083E-03    -106.423E-03     211.708E-03    -105.463E-03     49.5389E-03
             569     9.71952E-03     85.4006E-03    -41.7096E+06    -38.1303E+06     27.6351E+06    -1.36433E+06    -106.714E-03     212.469E-03    -105.755E-03     52.0797E-03    -107.010E-03     212.401E-03    -105.501E-03     51.1174E-03
             570     10.5282E-03     85.4599E-03    -34.1858E+06    -16.8925E+06     36.2763E+06    -893.276E+03    -107.100E-03     212.925E-03    -105.825E-03     51.8062E-03    -107.413E-03     212.952E-03    -105.570E-03     50.7599E-03
             571     11.3356E-03     85.5174E-03    -28.4263E+06     4.63719E+06     43.3638E+06    -1.72529E+06    -107.071E-03     212.966E-03    -105.895E-03     51.7437E-03    -107.410E-03     213.095E-03    -105.644E-03     50.5964E-03
             572     12.1451E-03     85.5761E-03    -25.2415E+06     33.2406E+06     50.0347E+06    -1.61951E+06    -106.610E-03     212.544E-03    -105.934E-03     51.1762E-03    -106.991E-03     212.809E-03    -105.696E-03     49.9809E-03
             573     12.9548E-03     85.6315E-03    -23.9076E+06     65.1107E+06     57.7393E+06     4.02745E+06    -106.305E-03     212.255E-03    -105.951E-03     49.6152E-03    -106.739E-03     212.668E-03    -105.722E-03     48.4630E-03
             574     13.7638E-03     85.6839E-03    -19.3545E+06     85.3105E+06     59.8986E+06     6.72692E+06    -105.510E-03     211.435E-03    -105.925E-03     43.3201E-03    -105.952E-03     211.937E-03    -105.721E-03     42.1311E-03
             575     14.5744E-03     85.7196E-03    -5.90500E+06     98.4176E+06     73.9951E+06     1.60129E+06    -103.880E-03     209.779E-03    -105.899E-03     33.5386E-03    -104.290E-03     210.303E-03    -105.664E-03     32.1708E-03
             576     15.3871E-03     85.7583E-03     2.85149E+06     107.527E+06     93.7445E+06     613.514E+03    -102.678E-03     208.533E-03    -105.855E-03     23.0390E-03    -103.049E-03     209.024E-03    -105.546E-03     21.8284E-03
             577     809.859E-06     86.1432E-03    -118.601E+06    -226.443E+06    -113.888E+06    -478.360E+03    -105.970E-03     210.662E-03    -104.691E-03     7.19211E-03    -106.065E-03     209.872E-03    -104.761E-03     7.08480E-03
             578     1.61956E-03     86.1534E-03    -112.533E+06    -212.013E+06    -102.599E+06     481.994E+03    -105.970E-03     211.458E-03    -105.488E-03     11.5589E-03    -106.078E-03     210.712E-03    -105.530E-03     11.3972E-03
             579     2.42943E-03     86.1697E-03    -105.872E+06    -190.651E+06    -83.3870E+06     2.48445E+06    -105.949E-03     211.666E-03    -105.717E-03     17.6583E-03    -106.088E-03     210.995E-03    -105.704E-03     17.4462E-03
             580     3.23843E-03     86.1968E-03    -99.0562E+06    -172.654E+06    -64.2713E+06     264.703E+03    -105.559E-03     211.361E-03    -105.802E-03     24.3577E-03    -105.726E-03     210.750E-03    -105.729E-03     24.0281E-03
             581     4.04787E-03     86.2294E-03    -91.3776E+06    -157.323E+06    -48.8130E+06    -2.32922E+06    -105.658E-03     211.469E-03    -105.811E-03     29.5246E-03    -105.840E-03     210.909E-03    -105.694E-03     29.0800E-03
             582     4.85797E-03     86.2657E-03    -83.0919E+06    -139.797E+06    -35.0780E+06    -1.69183E+06    -106.031E-03     211.875E-03    -105.843E-03     34.9287E-03    -106.227E-03     211.381E-03    -105.695E-03     34.4087E-03
             583     5.66817E-03     86.3084E-03    -73.5315E+06    -119.898E+06    -19.8504E+06    -88.8754E+03    -105.953E-03     211.842E-03    -105.889E-03     39.4195E-03    -106.163E-03     211.422E-03    -105.707E-03     38.8451E-03
             584     6.47776E-03     86.3541E-03    -66.2818E+06    -102.287E+06    -6.95485E+06     1.14449E+06    -105.515E-03     211.400E-03    -105.885E-03     43.3165E-03    -105.743E-03     211.049E-03    -105.675E-03     42.6986E-03
             585     7.28874E-03     86.4061E-03    -60.7112E+06    -85.8929E+06     3.46329E+06     1.36456E+06    -105.206E-03     211.036E-03    -105.830E-03     46.0388E-03    -105.456E-03     210.755E-03    -105.600E-03     45.3482E-03
             586     8.09879E-03     86.4600E-03    -53.3360E+06    -69.0747E+06     13.7062E+06     245.944E+03    -105.583E-03     211.367E-03    -105.784E-03     46.9782E-03    -105.846E-03     211.156E-03    -105.538E-03     46.1903E-03
             587     8.90886E-03     86.5132E-03    -46.9734E+06    -53.3896E+06     21.1235E+06    -826.823E+03    -106.342E-03     212.129E-03    -105.787E-03     49.8218E-03    -106.620E-03     211.989E-03    -105.536E-03     48.9411E-03
             588     9.71768E-03     86.5736E-03    -42.3905E+06    -36.2806E+06     27.5936E+06    -1.16396E+06    -106.669E-03     212.496E-03    -105.828E-03     51.6619E-03    -106.970E-03     212.439E-03    -105.575E-03     50.6994E-03
             589     10.5267E-03     86.6317E-03    -38.1027E+06    -20.1824E+06     32.5416E+06    -1.58837E+06    -106.500E-03     212.362E-03    -105.862E-03     52.2750E-03    -106.822E-03     212.383E-03    -105.615E-03     51.2360E-03
             590     11.3373E-03     86.6908E-03    -33.2984E+06     4.03890E+06     40.0525E+06    -943.647E+03    -106.224E-03     212.100E-03    -105.876E-03     53.3212E-03    -106.580E-03     212.236E-03    -105.633E-03     52.2212E-03
             591     12.1462E-03     86.7474E-03    -31.3853E+06     29.1256E+06     46.6345E+06     2.49397E+06    -105.777E-03     211.640E-03    -105.864E-03     52.9140E-03    -106.180E-03     211.901E-03    -105.627E-03     51.7825E-03
             592     12.9567E-03     86.8027E-03    -25.3610E+06     58.1352E+06     55.1494E+06     5.10973E+06    -105.467E-03     211.298E-03    -105.831E-03     51.2877E-03    -105.899E-03     211.686E-03    -105.603E-03     50.1439E-03
             593     13.7683E-03     86.8547E-03    -13.7697E+06     88.6272E+06     64.8194E+06     2.29209E+06    -105.634E-03     211.434E-03    -105.800E-03     44.3232E-03    -106.065E-03     211.942E-03    -105.584E-03     43.0586E-03
             594     14.5756E-03     86.8951E-03    -8.01834E+06     100.900E+06     74.7232E+06     83.1496E+03    -104.644E-03     210.440E-03    -105.797E-03     35.5644E-03    -105.073E-03     210.982E-03    -105.558E-03     34.1817E-03
             595     15.3850E-03     86.9230E-03    -881.168E+03     108.243E+06     92.6005E+06     576.051E+03    -103.117E-03     208.902E-03    -105.784E-03     26.9490E-03    -103.509E-03     209.407E-03    -105.477E-03     25.7643E-03
             596     810.170E-06     87.3126E-03    -118.163E+06    -224.097E+06    -114.516E+06    -206.372E+03    -105.850E-03     211.192E-03    -105.342E-03     7.69879E-03    -105.946E-03     210.415E-03    -105.418E-03     7.58830E-03
             597     1.61960E-03     87.3247E-03    -113.726E+06    -212.060E+06    -103.080E+06    -1.40949E+06    -106.428E-03     212.220E-03    -105.792E-03     12.9822E-03    -106.542E-03     211.478E-03    -105.835E-03     12.7918E-03
             598     2.42711E-03     87.3427E-03    -105.214E+06    -194.139E+06    -86.1135E+06     261.841E+03    -106.562E-03     212.647E-03    -106.086E-03     18.3357E-03    -106.688E-03     211.962E-03    -106.082E-03     18.0912E-03
             599     3.23703E-03     87.3668E-03    -97.1267E+06    -171.427E+06    -64.8886E+06     2.59746E+06    -105.542E-03     211.701E-03    -106.158E-03     24.5290E-03    -105.700E-03     211.094E-03    -106.094E-03     24.2342E-03
             600     4.04850E-03     87.3993E-03    -91.0262E+06    -154.076E+06    -46.3089E+06     989.958E+03    -105.266E-03     211.334E-03    -106.068E-03     30.4839E-03    -105.456E-03     210.788E-03    -105.944E-03     30.0731E-03
             601     4.85835E-03     87.4368E-03    -83.1890E+06    -138.835E+06    -32.8464E+06    -1.47640E+06    -105.826E-03     211.835E-03    -106.009E-03     34.8459E-03    -106.028E-03     211.344E-03    -105.851E-03     34.3158E-03
             602     5.66750E-03     87.4793E-03    -76.5496E+06    -123.279E+06    -22.2852E+06    -1.07897E+06    -106.031E-03     212.042E-03    -106.011E-03     38.4396E-03    -106.247E-03     211.613E-03    -105.833E-03     37.8506E-03
             603     6.47743E-03     87.5251E-03    -68.6620E+06    -103.880E+06    -8.38823E+06     1.06119E+06    -105.768E-03     211.785E-03    -106.017E-03     42.1585E-03    -106.002E-03     211.431E-03    -105.809E-03     41.5353E-03
             604     7.28645E-03     87.5763E-03    -59.6310E+06    -85.3497E+06     4.22829E+06     910.504E+03    -105.230E-03     211.198E-03    -105.969E-03     45.7418E-03    -105.477E-03     210.919E-03    -105.737E-03     45.0346E-03
             605     8.09765E-03     87.6293E-03    -53.0550E+06    -68.6498E+06     12.9711E+06     825.743E+03    -105.670E-03     211.577E-03    -105.907E-03     48.3363E-03    -105.934E-03     211.371E-03    -105.666E-03     47.5521E-03
             606     8.90710E-03     87.6858E-03    -48.3764E+06    -52.7440E+06     20.2644E+06     1.15247E+06    -106.348E-03     212.249E-03    -105.901E-03     50.4169E-03    -106.633E-03     212.117E-03    -105.653E-03     49.5678E-03
             607     9.71672E-03     87.7448E-03    -43.2980E+06    -35.8853E+06     27.1279E+06     819.677E+03    -105.856E-03     211.756E-03    -105.901E-03     52.1928E-03    -106.161E-03     211.702E-03    -105.650E-03     51.2706E-03
             608     10.5274E-03     87.8028E-03    -39.2608E+06    -18.9616E+06     32.8490E+06     206.788E+03    -105.397E-03     211.254E-03    -105.858E-03     53.1644E-03    -105.727E-03     211.283E-03    -105.609E-03     52.1659E-03
             609     11.3374E-03     87.8608E-03    -36.7327E+06     1.38539E+06     38.3270E+06     1.06883E+06    -105.157E-03     210.949E-03    -105.792E-03     53.4153E-03    -105.523E-03     211.079E-03    -105.549E-03     52.3599E-03
             610     12.1491E-03     87.9189E-03    -29.7147E+06     25.8036E+06     46.6393E+06     3.07817E+06    -105.267E-03     211.002E-03    -105.734E-03     52.6200E-03    -105.654E-03     211.240E-03    -105.496E-03     51.5204E-03
             611     12.9594E-03     87.9725E-03    -20.7546E+06     61.8725E+06     57.8621E+06     8.61147E+03    -105.272E-03     210.958E-03    -105.686E-03     50.6805E-03    -105.690E-03     211.355E-03    -105.457E-03     49.4702E-03
             612     13.7678E-03     88.0276E-03    -17.1670E+06     87.4098E+06     61.5455E+06    -268.226E+03    -104.038E-03     209.640E-03    -105.602E-03     44.3526E-03    -104.478E-03     210.150E-03    -105.396E-03     43.0836E-03
             613     14.5812E-03     88.0639E-03    -11.6900E+06     99.8471E+06     71.3770E+06     2.18252E+06    -103.764E-03     209.305E-03    -105.540E-03     36.0045E-03    -104.201E-03     209.847E-03    -105.311E-03     34.6951E-03
             614     15.3954E-03     88.0920E-03    -2.61023E+06     111.810E+06     92.0265E+06    -773.448E+03    -105.606E-03     211.191E-03    -105.585E-03     27.3823E-03    -106.008E-03     211.714E-03    -105.283E-03     26.1915E-03
             615     809.281E-06     88.4829E-03    -114.800E+06    -222.494E+06    -114.116E+06    -1.54071E+06    -105.437E-03     211.906E-03    -106.469E-03     7.70339E-03    -105.519E-03     211.132E-03    -106.551E-03     7.57706E-03
             616     1.61873E-03     88.4962E-03    -111.948E+06    -210.165E+06    -101.286E+06    -896.337E+03    -106.034E-03     212.030E-03    -105.996E-03     14.3098E-03    -106.146E-03     211.293E-03    -106.035E-03     14.1066E-03
             617     2.42853E-03     88.5161E-03    -106.536E+06    -194.875E+06    -85.9574E+06    -1.57455E+06    -106.483E-03     212.601E-03    -106.119E-03     19.5508E-03    -106.617E-03     211.915E-03    -106.111E-03     19.2519E-03
             618     3.23707E-03     88.5376E-03    -98.4259E+06    -175.581E+06    -67.9606E+06     980.750E+03    -106.391E-03     212.646E-03    -106.255E-03     24.1114E-03    -106.545E-03     212.024E-03    -106.197E-03     23.7886E-03
             619     4.04631E-03     88.5691E-03    -89.5142E+06    -152.551E+06    -46.4078E+06     3.27755E+06    -105.855E-03     212.151E-03    -106.296E-03     30.0128E-03    -106.038E-03     211.609E-03    -106.177E-03     29.6432E-03
             620     4.85612E-03     88.6088E-03    -83.3398E+06    -136.395E+06    -31.0626E+06     1.34008E+06    -105.723E-03     211.978E-03    -106.255E-03     34.5063E-03    -105.931E-03     211.496E-03    -106.092E-03     34.0173E-03
             621     5.66607E-03     88.6500E-03    -74.9209E+06    -121.951E+06    -19.1235E+06    -620.452E+03    -105.699E-03     211.898E-03    -106.199E-03     38.4829E-03    -105.914E-03     211.470E-03    -106.009E-03     37.8869E-03
             622     6.47532E-03     88.6971E-03    -65.8278E+06    -103.942E+06    -7.32925E+06    -290.731E+03    -105.399E-03     211.526E-03    -106.127E-03     42.6359E-03    -105.624E-03     211.170E-03    -105.918E-03     41.9734E-03
             623     7.28692E-03     88.7454E-03    -60.0348E+06    -88.2778E+06     1.74785E+06     531.854E+03    -105.520E-03     211.569E-03    -106.049E-03     46.3347E-03    -105.762E-03     211.280E-03    -105.825E-03     45.6190E-03
             624     8.09721E-03     88.7997E-03    -54.0023E+06    -70.4687E+06     11.4712E+06     1.72489E+06    -105.916E-03     211.923E-03    -106.007E-03     49.3243E-03    -106.179E-03     211.711E-03    -105.769E-03     48.5629E-03
             625     8.90637E-03     88.8590E-03    -48.4266E+06    -53.8100E+06     19.7561E+06     2.13063E+06    -105.750E-03     211.728E-03    -105.978E-03     50.7405E-03    -106.032E-03     211.590E-03    -105.731E-03     49.9209E-03
             626     9.71690E-03     88.9133E-03    -42.4037E+06    -37.1355E+06     27.3080E+06     2.11816E+06    -105.230E-03     211.152E-03    -105.922E-03     51.8066E-03    -105.528E-03     211.088E-03    -105.670E-03     50.9192E-03
             627     10.5281E-03     88.9736E-03    -36.9177E+06    -17.1490E+06     35.2093E+06     3.66000E+06    -104.845E-03     210.682E-03    -105.836E-03     52.5668E-03    -105.166E-03     210.708E-03    -105.582E-03     51.6384E-03
             628     11.3391E-03     89.0306E-03    -32.7143E+06     1.77673E+06     40.9140E+06     2.86070E+06    -105.067E-03     210.818E-03    -105.751E-03     52.2929E-03    -105.414E-03     210.937E-03    -105.502E-03     51.2722E-03
             629     12.1497E-03     89.0876E-03    -27.3864E+06     27.6291E+06     48.1922E+06    -284.568E+03    -105.151E-03     210.837E-03    -105.687E-03     51.0195E-03    -105.527E-03     211.075E-03    -105.446E-03     49.8885E-03
             630     12.9591E-03     89.1461E-03    -23.8669E+06     62.7977E+06     55.9681E+06     153.820E+03    -103.942E-03     209.535E-03    -105.593E-03     48.5367E-03    -104.366E-03     209.934E-03    -105.369E-03     47.3716E-03
             631     13.7730E-03     89.1931E-03    -19.0468E+06     85.9083E+06     59.9042E+06     1.99703E+03    -102.926E-03     208.374E-03    -105.448E-03     41.9255E-03    -103.364E-03     208.876E-03    -105.245E-03     40.6832E-03
             632     14.5861E-03     89.2311E-03    -10.1274E+06     101.768E+06     73.8418E+06    -3.34838E+06    -104.885E-03     210.291E-03    -105.406E-03     34.5055E-03    -105.318E-03     210.835E-03    -105.169E-03     33.1001E-03
             633     15.3911E-03     89.2680E-03    -4.08866E+06     111.515E+06     91.7968E+06    -2.21243E+06    -107.229E-03     212.755E-03    -105.525E-03     24.8981E-03    -107.634E-03     213.275E-03    -105.222E-03     23.6799E-03
             634     808.888E-06     89.6551E-03    -115.574E+06    -221.683E+06    -111.184E+06     1.37687E+06    -105.929E-03     212.729E-03    -106.800E-03     7.58435E-03    -106.020E-03     211.955E-03    -106.867E-03     7.50563E-03
             635     1.61888E-03     89.6663E-03    -113.183E+06    -210.263E+06    -100.959E+06     651.263E+03    -105.745E-03     212.017E-03    -106.272E-03     13.5365E-03    -105.863E-03     211.280E-03    -106.307E-03     13.3630E-03
             636     2.42879E-03     89.6873E-03    -107.677E+06    -194.355E+06    -84.5675E+06    -143.001E+03    -105.776E-03     211.919E-03    -106.143E-03     19.2599E-03    -105.919E-03     211.235E-03    -106.128E-03     18.9931E-03
             637     3.23738E-03     89.7116E-03    -99.2986E+06    -176.896E+06    -66.5548E+06    -1.27542E+06    -106.388E-03     212.560E-03    -106.172E-03     25.2772E-03    -106.548E-03     211.933E-03    -106.105E-03     24.9111E-03
             638     4.04534E-03     89.7412E-03    -90.2847E+06    -156.709E+06    -49.5145E+06     1.08665E+06    -106.411E-03     212.670E-03    -106.258E-03     32.2681E-03    -106.591E-03     212.116E-03    -106.148E-03     31.8418E-03
             639     4.85535E-03     89.7792E-03    -80.0256E+06    -134.008E+06    -29.9562E+06     2.28443E+06    -105.721E-03     211.992E-03    -106.270E-03     37.1879E-03    -105.922E-03     211.520E-03    -106.110E-03     36.6915E-03
             640     5.66546E-03     89.8216E-03    -71.6921E+06    -118.874E+06    -16.5517E+06    -40.4274E+03    -105.279E-03     211.461E-03    -106.182E-03     40.5885E-03    -105.491E-03     211.044E-03    -105.988E-03     39.9810E-03
             641     6.47719E-03     89.8663E-03    -66.0105E+06    -106.434E+06    -8.60846E+06    -23.0646E+03    -105.675E-03     211.763E-03    -106.088E-03     43.9801E-03    -105.896E-03     211.397E-03    -105.881E-03     43.3179E-03
             642     7.28666E-03     89.9163E-03    -59.0205E+06    -89.2344E+06     2.15672E+06     2.08273E+06    -106.472E-03     212.553E-03    -106.081E-03     47.0178E-03    -106.707E-03     212.256E-03    -105.855E-03     46.3348E-03
             643     8.09482E-03     89.9727E-03    -53.2557E+06    -71.9614E+06     11.4433E+06     2.46981E+06    -106.086E-03     212.179E-03    -106.093E-03     48.8325E-03    -106.342E-03     211.957E-03    -105.854E-03     48.0834E-03
             644     8.90659E-03     90.0266E-03    -46.6497E+06    -54.4116E+06     20.6552E+06     2.58713E+06    -105.298E-03     211.345E-03    -106.047E-03     50.0397E-03    -105.569E-03     211.198E-03    -105.797E-03     49.2329E-03
             645     9.71705E-03     90.0861E-03    -41.1269E+06    -37.5327E+06     28.2851E+06     2.93128E+06    -105.080E-03     211.041E-03    -105.962E-03     50.6527E-03    -105.369E-03     210.970E-03    -105.706E-03     49.7826E-03
             646     10.5270E-03     90.1409E-03    -35.1475E+06    -18.8228E+06     35.2975E+06     2.70633E+06    -105.007E-03     210.879E-03    -105.873E-03     51.3459E-03    -105.314E-03     210.893E-03    -105.618E-03     50.4092E-03
             647     11.3386E-03     90.2011E-03    -27.1494E+06     3.96375E+06     44.1220E+06     2.10261E+06    -105.310E-03     211.114E-03    -105.804E-03     51.6777E-03    -105.633E-03     211.227E-03    -105.550E-03     50.6642E-03
             648     12.1471E-03     90.2602E-03    -22.1755E+06     28.3433E+06     50.5137E+06     1.38088E+06    -104.636E-03     210.363E-03    -105.727E-03     49.4292E-03    -104.988E-03     210.590E-03    -105.483E-03     48.3215E-03
             649     12.9606E-03     90.3113E-03    -17.1056E+06     62.3166E+06     59.3828E+06     603.863E+03    -103.025E-03     208.619E-03    -105.594E-03     45.7593E-03    -103.416E-03     208.998E-03    -105.362E-03     44.5962E-03
             650     13.7728E-03     90.3610E-03    -10.3571E+06     91.9140E+06     68.1613E+06    -2.01547E+06    -103.787E-03     209.246E-03    -105.460E-03     40.4710E-03    -104.198E-03     209.749E-03    -105.237E-03     39.1975E-03
             651     14.5811E-03     90.4025E-03    -7.75311E+06     101.945E+06     77.7562E+06    -3.29683E+06    -106.251E-03     211.725E-03    -105.475E-03     35.6702E-03    -106.678E-03     212.262E-03    -105.223E-03     34.2686E-03
             652     15.3916E-03     90.4448E-03    -5.55337E+06     107.476E+06     91.1548E+06    -1.25886E+06    -106.843E-03     212.450E-03    -105.607E-03     24.5930E-03    -107.247E-03     212.951E-03    -105.299E-03     23.4057E-03
             653     808.808E-06     90.8271E-03    -117.201E+06    -225.599E+06    -114.402E+06     1.91597E+06    -106.191E-03     212.417E-03    -106.226E-03     7.77407E-03    -106.281E-03     211.631E-03    -106.301E-03     7.70723E-03
             654     1.61723E-03     90.8388E-03    -112.292E+06    -209.814E+06    -99.1170E+06     2.33380E+06    -105.829E-03     212.000E-03    -106.171E-03     14.7141E-03    -105.946E-03     211.262E-03    -106.200E-03     14.5655E-03
             655     2.42687E-03     90.8573E-03    -105.698E+06    -192.246E+06    -82.0472E+06     929.879E+03    -105.363E-03     211.398E-03    -106.035E-03     20.6565E-03    -105.503E-03     210.719E-03    -106.013E-03     20.4017E-03
             656     3.23901E-03     90.8820E-03    -98.9435E+06    -176.349E+06    -65.6454E+06    -541.285E+03    -105.672E-03     211.618E-03    -105.946E-03     26.3770E-03    -105.834E-03     210.994E-03    -105.875E-03     26.0011E-03
             657     4.04959E-03     90.9144E-03    -88.2909E+06    -156.938E+06    -47.9734E+06    -1.30043E+06    -106.156E-03     212.132E-03    -105.975E-03     31.7282E-03    -106.328E-03     211.572E-03    -105.860E-03     31.2665E-03
             658     4.85809E-03     90.9502E-03    -79.1713E+06    -137.158E+06    -32.5176E+06     1.12145E+06    -105.853E-03     211.861E-03    -106.008E-03     36.4133E-03    -106.038E-03     211.373E-03    -105.857E-03     35.9328E-03
             659     5.66867E-03     90.9918E-03    -73.0592E+06    -119.760E+06    -18.6474E+06     1.97420E+06    -105.942E-03     211.956E-03    -106.014E-03     40.0184E-03    -106.153E-03     211.537E-03    -105.827E-03     39.4609E-03
             660     6.47759E-03     91.0367E-03    -67.2352E+06    -106.667E+06    -8.12836E+06     481.171E+03    -106.506E-03     212.554E-03    -106.048E-03     43.4360E-03    -106.733E-03     212.187E-03    -105.836E-03     42.7786E-03
             661     7.28575E-03     91.0911E-03    -59.6801E+06    -90.7290E+06     1.79123E+06     1.47512E+06    -106.459E-03     212.551E-03    -106.092E-03     47.3718E-03    -106.695E-03     212.248E-03    -105.865E-03     46.6816E-03
             662     8.09609E-03     91.1422E-03    -51.4677E+06    -72.5066E+06     12.1873E+06     2.47377E+06    -106.158E-03     212.262E-03    -106.104E-03     49.3487E-03    -106.407E-03     212.036E-03    -105.863E-03     48.5931E-03
             663     8.90475E-03     91.1985E-03    -44.0209E+06    -55.5858E+06     21.7549E+06     3.01417E+06    -105.626E-03     211.700E-03    -106.075E-03     50.5617E-03    -105.887E-03     211.545E-03    -105.821E-03     49.7382E-03
             664     9.71548E-03     91.2544E-03    -37.8221E+06    -38.0179E+06     29.7210E+06     2.95135E+06    -105.227E-03     211.232E-03    -106.005E-03     51.2327E-03    -105.504E-03     211.154E-03    -105.746E-03     50.3492E-03
             665     10.5272E-03     91.3122E-03    -32.4153E+06    -17.3897E+06     37.0960E+06     1.37096E+06    -105.483E-03     211.417E-03    -105.934E-03     52.0974E-03    -105.785E-03     211.434E-03    -105.676E-03     51.1235E-03
             666     11.3356E-03     91.3717E-03    -28.0327E+06     3.72652E+06     44.7604E+06     1.34971E+06    -105.026E-03     210.895E-03    -105.869E-03     52.3685E-03    -105.356E-03     211.009E-03    -105.610E-03     51.3407E-03
             667     12.1488E-03     91.4291E-03    -23.1373E+06     27.8217E+06     51.1729E+06     1.98102E+06    -104.304E-03     210.072E-03    -105.768E-03     49.1799E-03    -104.661E-03     210.298E-03    -105.519E-03     48.0778E-03
             668     12.9588E-03     91.4793E-03    -17.6375E+06     67.1990E+06     62.3936E+06    -1.02506E+06    -104.235E-03     209.899E-03    -105.664E-03     44.3732E-03    -104.643E-03     210.302E-03    -105.424E-03     43.1413E-03
             669     13.7708E-03     91.5288E-03    -12.0038E+06     94.7460E+06     68.5272E+06    -3.74708E+06    -104.815E-03     210.401E-03    -105.586E-03     41.2738E-03    -105.245E-03     210.925E-03    -105.363E-03     39.9394E-03
             670     14.5814E-03     91.5780E-03    -6.27584E+06     99.8109E+06     78.3009E+06    -418.318E+03    -105.772E-03     211.385E-03    -105.613E-03     36.8368E-03    -106.193E-03     211.911E-03    -105.357E-03     35.4680E-03
             671     15.3890E-03     91.6144E-03    -2.85024E+06     105.564E+06     93.2255E+06     1.33066E+06    -105.784E-03     211.487E-03    -105.703E-03     24.3449E-03    -106.177E-03     211.974E-03    -105.385E-03     23.1647E-03
             672     810.375E-06     91.9984E-03    -115.160E+06    -225.214E+06    -112.908E+06    -1.83174E+06    -105.614E-03     211.371E-03    -105.756E-03     7.43803E-03    -105.697E-03     210.582E-03    -105.827E-03     7.30020E-03
             673     1.62085E-03     92.0097E-03    -108.530E+06     -209.74E+06    -99.0863E+06     456.400E+03    -105.643E-03     211.348E-03    -105.705E-03     13.8643E-03    -105.742E-03     210.604E-03    -105.738E-03     13.6815E-03
             674     2.43098E-03     92.0277E-03    -103.510E+06    -192.817E+06    -82.6445E+06     1.04274E+06    -105.863E-03     211.625E-03    -105.762E-03     19.8099E-03    -105.990E-03     210.940E-03    -105.745E-03     19.5475E-03
             675     3.23870E-03     92.0524E-03    -97.0482E+06    -175.343E+06    -65.3878E+06     387.932E+03    -105.941E-03     211.790E-03    -105.849E-03     25.3575E-03    -106.094E-03     211.166E-03    -105.781E-03     25.0097E-03
             676     4.04730E-03     92.0858E-03    -88.6481E+06    -156.172E+06    -47.8791E+06    -164.685E+03    -105.702E-03     211.595E-03    -105.893E-03     30.1257E-03    -105.872E-03     211.035E-03    -105.777E-03     29.7240E-03
             677     4.85827E-03     92.1205E-03    -81.6452E+06    -140.991E+06    -34.3404E+06    -48.4177E+03    -105.901E-03     211.808E-03    -105.907E-03     34.6512E-03    -106.085E-03     211.302E-03    -105.756E-03     34.1892E-03
             678     5.66726E-03     92.1630E-03    -72.4671E+06    -121.310E+06    -18.9022E+06     2.79837E+06    -106.489E-03     212.459E-03    -105.969E-03     39.9164E-03    -106.691E-03     212.028E-03    -105.783E-03     39.4018E-03
             679     6.47543E-03     92.2112E-03    -64.2342E+06    -103.240E+06    -5.08069E+06     1.88627E+06    -106.674E-03     212.734E-03    -106.060E-03     43.8618E-03    -106.896E-03     212.376E-03    -105.842E-03     43.2181E-03
             680     7.28673E-03     92.2591E-03    -57.6749E+06    -91.1924E+06     3.15157E+06    -539.861E+03    -106.127E-03     212.221E-03    -106.094E-03     46.8066E-03    -106.357E-03     211.914E-03    -105.862E-03     46.0597E-03
             681     8.09659E-03     92.3159E-03    -49.4379E+06    -74.1988E+06     12.5228E+06     159.711E+03    -105.622E-03     211.682E-03    -106.060E-03     49.0367E-03    -105.859E-03     211.444E-03    -105.819E-03     48.2435E-03
             682     8.90679E-03     92.3688E-03    -42.2613E+06    -57.5752E+06     21.5928E+06     1.78137E+06    -105.569E-03     211.574E-03    -106.004E-03     50.9235E-03    -105.820E-03     211.407E-03    -105.752E-03     50.0801E-03
             683     9.71717E-03     92.4250E-03    -35.7891E+06    -39.1194E+06     30.0482E+06     2.37122E+06    -105.793E-03     211.751E-03    -105.958E-03     52.6929E-03    -106.062E-03     211.667E-03    -105.699E-03     51.7923E-03
             684     10.5257E-03     92.4833E-03    -30.7561E+06    -16.3546E+06     38.7630E+06     3.71917E+06    -105.637E-03     211.557E-03    -105.920E-03     53.3213E-03    -105.938E-03     211.578E-03    -105.657E-03     52.3627E-03
             685     11.3379E-03     92.5419E-03    -27.6065E+06     3.83705E+06     45.6838E+06     3.89821E+06    -104.906E-03     210.762E-03    -105.856E-03     52.3573E-03    -105.239E-03     210.879E-03    -105.593E-03     51.3357E-03
             686     12.1477E-03     92.5967E-03    -23.8206E+06     30.0503E+06     52.4008E+06     1.26636E+06    -104.895E-03     210.665E-03    -105.771E-03     50.0391E-03    -105.264E-03     210.905E-03    -105.518E-03     48.9104E-03
             687     12.9587E-03     92.6522E-03    -20.0067E+06     70.8491E+06     62.4477E+06     191.347E+03    -105.985E-03     211.717E-03    -105.732E-03     45.8099E-03    -106.412E-03     212.144E-03    -105.494E-03     44.5808E-03
             688     13.7666E-03     92.6984E-03    -16.9069E+06     99.2601E+06     68.5970E+06    -2.04222E+06    -106.284E-03     212.032E-03    -105.748E-03     41.5804E-03    -106.747E-03     212.588E-03    -105.524E-03     40.2414E-03
             689     14.5770E-03     92.7487E-03    -12.9031E+06     98.7487E+06     73.5922E+06    -1.81573E+06    -104.719E-03     210.488E-03    -105.768E-03     35.8081E-03    -105.163E-03     211.022E-03    -105.525E-03     34.4361E-03
             690     15.3885E-03     92.7872E-03    -4.72393E+06     100.965E+06     88.4782E+06     600.950E+03    -103.593E-03     209.357E-03    -105.763E-03     24.5917E-03    -103.979E-03     209.827E-03    -105.460E-03     23.4350E-03
             691     809.152E-06     93.1687E-03    -112.658E+06    -222.734E+06    -108.783E+06    -165.237E+03    -106.048E-03     211.561E-03    -105.513E-03     7.19738E-03    -106.126E-03     210.775E-03    -105.570E-03     7.08866E-03
             692     1.61856E-03     93.1795E-03    -110.973E+06    -212.733E+06    -101.129E+06    -640.573E+03    -105.868E-03     211.689E-03    -105.820E-03     12.0338E-03    -105.970E-03     210.935E-03    -105.857E-03     11.8750E-03
             693     2.42779E-03     93.1985E-03    -102.621E+06    -193.880E+06    -83.6068E+06     642.970E+03    -105.745E-03     211.612E-03    -105.868E-03     19.0156E-03    -105.863E-03     210.921E-03    -105.856E-03     18.7911E-03
             694     3.23776E-03     93.2253E-03    -95.0282E+06    -174.440E+06    -64.5989E+06     851.104E+03    -105.738E-03     211.626E-03    -105.888E-03     25.5799E-03    -105.882E-03     211.001E-03    -105.820E-03     25.2596E-03
             695     4.04896E-03     93.2544E-03    -89.9392E+06    -157.705E+06    -48.6892E+06     945.640E+03    -105.733E-03     211.635E-03    -105.902E-03     30.7194E-03    -105.908E-03     211.072E-03    -105.786E-03     30.3122E-03
             696     4.85802E-03     93.2928E-03    -81.8066E+06    -139.524E+06    -32.2931E+06     43.3908E+03    -105.964E-03     211.894E-03    -105.929E-03     35.5193E-03    -106.160E-03     211.397E-03    -105.770E-03     35.0094E-03
             697     5.66764E-03     93.3341E-03    -73.8418E+06    -123.530E+06    -20.1736E+06    -479.125E+03    -106.213E-03     212.178E-03    -105.965E-03     40.7443E-03    -106.418E-03     211.741E-03    -105.780E-03     40.1715E-03
             698     6.47874E-03     93.3828E-03    -63.5071E+06    -104.161E+06    -6.72971E+06     1.15346E+06    -106.467E-03     212.484E-03    -106.016E-03     44.3003E-03    -106.681E-03     212.121E-03    -105.807E-03     43.6680E-03
             699     7.28547E-03     93.4325E-03    -55.8144E+06    -87.9384E+06     5.35609E+06     1.02236E+06    -106.074E-03     212.124E-03    -106.050E-03     46.4502E-03    -106.303E-03     211.827E-03    -105.815E-03     45.7255E-03
             700     8.09577E-03     93.4842E-03    -51.1200E+06    -75.3491E+06     11.8298E+06    -734.065E+03    -105.217E-03     211.214E-03    -105.997E-03     49.2143E-03    -105.460E-03     210.973E-03    -105.754E-03     48.4161E-03
             701     8.90783E-03     93.5391E-03    -44.3223E+06    -60.2091E+06     19.6211E+06    -367.679E+03    -105.399E-03     211.316E-03    -105.917E-03     50.9591E-03    -105.653E-03     211.141E-03    -105.667E-03     50.0970E-03
             702     9.71732E-03     93.5966E-03    -38.2581E+06    -39.7666E+06     29.1802E+06     2.26383E+06    -105.889E-03     211.767E-03    -105.878E-03     52.4679E-03    -106.169E-03     211.685E-03    -105.619E-03     51.5595E-03
             703     10.5284E-03     93.6544E-03    -32.8462E+06    -19.2584E+06     36.9062E+06     3.59993E+06    -105.719E-03     211.570E-03    -105.852E-03     52.6580E-03    -106.023E-03     211.583E-03    -105.592E-03     51.6908E-03
             704     11.3375E-03     93.7111E-03    -25.7563E+06     4.77149E+06     46.1130E+06     3.92020E+06    -105.435E-03     211.251E-03    -105.816E-03     51.4155E-03    -105.761E-03     211.369E-03    -105.555E-03     50.3773E-03
             705     12.1489E-03     93.7678E-03    -20.4006E+06     31.7210E+06     52.5129E+06     3.67965E+06    -105.725E-03     211.499E-03    -105.774E-03     50.1345E-03    -106.081E-03     211.743E-03    -105.528E-03     49.0190E-03
             706     12.9582E-03     93.8230E-03    -16.8099E+06     72.6722E+06     62.9471E+06     2.72914E+06    -106.593E-03     212.372E-03    -105.780E-03     47.4043E-03    -107.009E-03     212.804E-03    -105.546E-03     46.2107E-03
             707     13.7665E-03     93.8756E-03    -16.8521E+06     100.407E+06     70.1280E+06     3.38185E+06    -106.836E-03     212.669E-03    -105.834E-03     43.3400E-03    -107.304E-03     213.231E-03    -105.604E-03     42.0842E-03
             708     14.5734E-03     93.9182E-03    -12.5686E+06     101.395E+06     72.2290E+06    -3.26513E+06    -104.682E-03     210.528E-03    -105.846E-03     36.0288E-03    -105.114E-03     211.065E-03    -105.614E-03     34.5362E-03
             709     15.3881E-03     93.9512E-03    -3.82103E+06     102.849E+06     86.8927E+06    -3.94232E+06    -102.580E-03     208.387E-03    -105.807E-03     25.1739E-03    -102.931E-03     208.835E-03    -105.516E-03     23.7323E-03
             710     810.185E-06     94.3401E-03    -115.194E+06    -225.562E+06    -112.915E+06     369.589E+03    -106.267E-03     212.045E-03    -105.779E-03     7.73174E-03    -106.348E-03     211.255E-03    -105.849E-03     7.64978E-03
             711     1.61852E-03     94.3521E-03    -112.018E+06    -213.441E+06    -101.017E+06     555.338E+03    -105.974E-03     212.017E-03    -106.043E-03     13.1033E-03    -106.082E-03     211.262E-03    -106.076E-03     12.9396E-03
             712     2.42865E-03     94.3683E-03    -103.408E+06    -193.042E+06    -82.5674E+06    -171.644E+03    -105.459E-03     211.454E-03    -105.995E-03     19.7152E-03    -105.585E-03     210.767E-03    -105.978E-03     19.4648E-03
             713     3.23975E-03     94.3951E-03    -96.9549E+06    -175.938E+06    -66.0222E+06     307.004E+03    -105.410E-03     211.308E-03    -105.898E-03     25.6002E-03    -105.560E-03     210.681E-03    -105.833E-03     25.2717E-03
             714     4.04792E-03     94.4261E-03    -88.9591E+06    -157.227E+06    -48.1219E+06     1.01429E+06    -105.813E-03     211.696E-03    -105.883E-03     30.5025E-03    -105.986E-03     211.135E-03    -105.767E-03     30.0867E-03
             715     4.85799E-03     94.4634E-03    -79.4756E+06    -137.616E+06    -31.1243E+06     818.802E+03    -106.042E-03     211.967E-03    -105.926E-03     35.6457E-03    -106.230E-03     211.476E-03    -105.767E-03     35.1421E-03
             716     5.66790E-03     94.5052E-03    -73.1825E+06    -120.912E+06    -18.7718E+06     375.846E+03    -106.123E-03     212.088E-03    -105.965E-03     40.3886E-03    -106.332E-03     211.662E-03    -105.777E-03     39.8211E-03
             717     6.47583E-03     94.5544E-03    -68.3352E+06    -108.204E+06    -10.0980E+06    -549.214E+03    -105.713E-03     211.674E-03    -105.961E-03     44.2187E-03    -105.939E-03     211.302E-03    -105.756E-03     43.5813E-03
             718     7.28809E-03     94.6038E-03    -59.3655E+06    -90.7636E+06     1.60973E+06    -321.961E+03    -105.413E-03     211.330E-03    -105.917E-03     46.5815E-03    -105.649E-03     211.028E-03    -105.691E-03     45.8546E-03
             719     8.09873E-03     94.6536E-03    -51.1845E+06    -71.0684E+06     13.4675E+06     712.470E+03    -105.745E-03     211.623E-03    -105.878E-03     49.4476E-03    -105.999E-03     211.404E-03    -105.634E-03     48.6552E-03
             720     8.90740E-03     94.7103E-03    -47.4515E+06    -58.9626E+06     19.6996E+06     525.994E+03    -105.929E-03     211.787E-03    -105.859E-03     51.2691E-03    -106.202E-03     211.626E-03    -105.606E-03     50.4004E-03
             721     9.71824E-03     94.7667E-03    -40.9756E+06    -43.8346E+06     26.5042E+06     180.879E+03    -105.833E-03     211.674E-03    -105.841E-03     52.0049E-03    -106.117E-03     211.579E-03    -105.585E-03     51.0595E-03
             722     10.5275E-03     94.8256E-03    -32.8554E+06    -21.0155E+06     35.0744E+06     150.745E+03    -105.958E-03     211.780E-03    -105.822E-03     51.8995E-03    -106.256E-03     211.785E-03    -105.569E-03     50.8835E-03
             723     11.3382E-03     94.8820E-03    -25.8261E+06     2.75539E+06     44.2004E+06     982.634E+03    -106.202E-03     212.027E-03    -105.825E-03     50.6488E-03    -106.523E-03     212.138E-03    -105.571E-03     49.5539E-03
             724     12.1470E-03     94.9387E-03    -20.2299E+06     33.2712E+06     52.9617E+06     2.95163E+06    -106.316E-03     212.150E-03    -105.835E-03     49.9559E-03    -106.676E-03     212.403E-03    -105.589E-03     48.8132E-03
             725     12.9563E-03     94.9960E-03    -15.3043E+06     69.7170E+06     62.0888E+06     5.29906E+06    -105.846E-03     211.677E-03    -105.831E-03     47.8375E-03    -106.253E-03     212.097E-03    -105.599E-03     46.6669E-03
             726     13.7666E-03     95.0472E-03    -7.83084E+06     97.8729E+06     72.0686E+06     5.06065E+06    -104.882E-03     210.685E-03    -105.803E-03     44.0945E-03    -105.304E-03     211.218E-03    -105.574E-03     42.8869E-03
             727     14.5787E-03     95.0912E-03    -8.10643E+06     109.669E+06     83.0020E+06     3.60453E+06    -105.074E-03     210.876E-03    -105.802E-03     37.2595E-03    -105.428E-03     211.344E-03    -105.534E-03     35.8782E-03
             728     15.3855E-03     95.1190E-03    -9.88998E+06     104.275E+06     86.2227E+06    -1.55816E+06    -104.887E-03     210.686E-03    -105.799E-03     25.8352E-03    -105.109E-03     210.968E-03    -105.504E-03     24.3968E-03
             729     808.341E-06     95.5116E-03    -118.039E+06    -225.618E+06    -114.956E+06    -863.767E+03    -105.590E-03     211.651E-03    -106.061E-03     7.87706E-03    -105.683E-03     210.867E-03    -106.137E-03     7.76355E-03
             730     1.61947E-03     95.5224E-03    -111.404E+06    -212.118E+06    -102.511E+06    -1.51054E+06    -105.577E-03     211.379E-03    -105.801E-03     13.5973E-03    -105.682E-03     210.633E-03    -105.845E-03     13.3789E-03
             731     2.42846E-03     95.5401E-03    -106.971E+06    -195.276E+06    -86.6570E+06     148.583E+03    -105.905E-03     211.718E-03    -105.813E-03     19.8557E-03    -106.040E-03     211.032E-03    -105.808E-03     19.5879E-03
             732     3.23715E-03     95.5644E-03    -98.4906E+06    -175.741E+06    -65.9814E+06     301.393E+03    -105.781E-03     211.665E-03    -105.884E-03     25.8639E-03    -105.939E-03     211.041E-03    -105.816E-03     25.5364E-03
             733     4.04876E-03     95.5979E-03    -89.6699E+06    -157.760E+06    -49.7074E+06    -693.876E+03    -105.710E-03     211.607E-03    -105.896E-03     30.8686E-03    -105.883E-03     211.045E-03    -105.786E-03     30.4450E-03
             734     4.85821E-03     95.6334E-03    -82.4468E+06    -139.406E+06    -34.4866E+06     1.06549E+06    -106.053E-03     211.976E-03    -105.922E-03     35.9838E-03    -106.247E-03     211.482E-03    -105.773E-03     35.5106E-03
             735     5.66699E-03     95.6785E-03    -73.9129E+06    -121.522E+06    -18.8497E+06     1.64146E+06    -105.770E-03     211.719E-03    -105.949E-03     40.4629E-03    -105.982E-03     211.292E-03    -105.760E-03     39.9162E-03
             736     6.47874E-03     95.7231E-03    -64.6702E+06    -103.834E+06    -5.79299E+06    -513.606E+03    -105.105E-03     211.002E-03    -105.897E-03     43.9034E-03    -105.327E-03     210.642E-03    -105.681E-03     43.2491E-03
             737     7.28889E-03     95.7731E-03    -58.5592E+06    -90.7137E+06     2.08881E+06    -2.27027E+06    -105.468E-03     211.288E-03    -105.820E-03     46.1755E-03    -105.702E-03     210.986E-03    -105.593E-03     45.4140E-03
             738     8.09828E-03     95.8254E-03    -52.1671E+06    -74.2936E+06     11.1729E+06    -8.37166E+03    -106.085E-03     211.891E-03    -105.806E-03     48.3435E-03    -106.335E-03     211.660E-03    -105.566E-03     47.5298E-03
             739     8.90856E-03     95.8816E-03    -45.7293E+06    -56.1359E+06     21.0403E+06     1.52360E+06    -106.086E-03     211.909E-03    -105.823E-03     50.7164E-03    -106.356E-03     211.756E-03    -105.570E-03     49.8555E-03
             740     9.71741E-03     95.9374E-03    -42.3191E+06    -42.9647E+06     25.1419E+06    -837.314E+03    -106.155E-03     211.977E-03    -105.822E-03     52.1543E-03    -106.445E-03     211.891E-03    -105.572E-03     51.1987E-03
             741     10.5282E-03     95.9966E-03    -35.6925E+06    -23.1179E+06     32.6155E+06    -947.016E+03    -106.373E-03     212.207E-03    -105.834E-03     52.1855E-03    -106.680E-03     212.210E-03    -105.585E-03     51.1493E-03
             742     11.3367E-03     96.0540E-03    -28.5629E+06     2.30168E+06     42.5564E+06    -338.377E+03    -106.595E-03     212.461E-03    -105.866E-03     51.1947E-03    -106.930E-03     212.579E-03    -105.615E-03     50.0654E-03
             743     12.1461E-03     96.1113E-03    -23.1700E+06     30.7314E+06     51.3084E+06     903.048E+03    -106.147E-03     212.030E-03    -105.883E-03     50.6931E-03    -106.518E-03     212.280E-03    -105.638E-03     49.5136E-03
             744     12.9561E-03     96.1670E-03    -16.7396E+06     65.5377E+06     61.1062E+06     2.21136E+06    -105.030E-03     210.879E-03    -105.849E-03     48.2736E-03    -105.438E-03     211.283E-03    -105.614E-03     47.0638E-03
             745     13.7679E-03     96.2159E-03    -7.70164E+06     98.5455E+06     70.8962E+06     2.39611E+06    -104.227E-03     209.995E-03    -105.768E-03     42.2676E-03    -104.647E-03     210.532E-03    -105.545E-03     41.0076E-03
             746     14.5804E-03     96.2589E-03    -8.92909E+06     113.599E+06     84.5742E+06     1.35454E+06    -104.889E-03     210.646E-03    -105.758E-03     35.2032E-03    -105.249E-03     211.126E-03    -105.487E-03     33.9793E-03
             747     15.3907E-03     96.2978E-03    -22.9242E+06     105.319E+06     81.8091E+06     2.54505E+06    -105.693E-03     211.461E-03    -105.768E-03     22.9575E-03    -105.970E-03     211.770E-03    -105.478E-03     22.0438E-03
             748     810.594E-06     96.6813E-03    -117.945E+06    -223.578E+06    -114.986E+06    -498.566E+03    -105.133E-03     210.674E-03    -105.541E-03     7.61100E-03    -105.229E-03     209.900E-03    -105.620E-03     7.50913E-03
             749     1.61984E-03     96.6924E-03    -113.948E+06    -210.781E+06    -103.831E+06    -2.17816E+06    -105.724E-03     211.163E-03    -105.438E-03     14.0671E-03    -105.842E-03     210.429E-03    -105.487E-03     13.8590E-03
             750     2.43019E-03     96.7110E-03    -108.362E+06    -197.396E+06    -88.9376E+06    -1.97307E+06    -106.039E-03     211.668E-03    -105.629E-03     19.8618E-03    -106.175E-03     210.977E-03    -105.630E-03     19.5733E-03
             751     3.23964E-03     96.7370E-03    -98.6472E+06    -176.176E+06    -68.1043E+06     302.970E+03    -105.974E-03     211.758E-03    -105.783E-03     25.9122E-03    -106.130E-03     211.135E-03    -105.725E-03     25.5817E-03
             752     4.04790E-03     96.7667E-03    -92.6779E+06    -157.266E+06    -50.6675E+06     326.875E+03    -105.992E-03     211.863E-03    -105.871E-03     31.3513E-03    -106.180E-03     211.311E-03    -105.762E-03     30.9360E-03
             753     4.85778E-03     96.8065E-03    -84.6967E+06    -139.972E+06    -34.9606E+06    -1.12436E+06    -105.812E-03     211.725E-03    -105.913E-03     36.1656E-03    -106.018E-03     211.235E-03    -105.762E-03     35.6444E-03
             754     5.66828E-03     96.8477E-03    -73.4273E+06    -123.362E+06    -20.2501E+06    -2.21230E+06    -105.400E-03     211.293E-03    -105.892E-03     39.7322E-03    -105.606E-03     210.858E-03    -105.708E-03     39.1159E-03
             755     6.47808E-03     96.8931E-03    -64.2459E+06    -102.891E+06    -7.48925E+06    -109.275E+03    -105.415E-03     211.252E-03    -105.837E-03     43.0117E-03    -105.634E-03     210.899E-03    -105.632E-03     42.3507E-03
             756     7.28830E-03     96.9438E-03    -59.8106E+06    -87.1090E+06     2.63927E+06     1.19819E+06    -105.784E-03     211.596E-03    -105.812E-03     46.3559E-03    -106.029E-03     211.311E-03    -105.585E-03     45.6452E-03
             757     8.09806E-03     96.9971E-03    -54.8933E+06    -78.8405E+06     8.62652E+06    -1.49096E+06    -105.967E-03     211.774E-03    -105.808E-03     48.5514E-03    -106.220E-03     211.528E-03    -105.571E-03     47.7257E-03
             758     8.90792E-03     97.0511E-03    -46.4024E+06    -58.4715E+06     18.3697E+06     534.365E+03    -106.180E-03     211.996E-03    -105.816E-03     50.5600E-03    -106.445E-03     211.835E-03    -105.572E-03     49.6961E-03
             759     9.71888E-03     97.1098E-03    -40.3558E+06    -36.0312E+06     28.8580E+06     2.24259E+06    -106.503E-03     212.351E-03    -105.848E-03     51.5959E-03    -106.797E-03     212.291E-03    -105.593E-03     50.6771E-03
             760     10.5268E-03     97.1676E-03    -36.7389E+06    -22.5749E+06     32.9637E+06    -1.42496E+06    -106.321E-03     212.190E-03    -105.869E-03     51.8598E-03    -106.636E-03     212.199E-03    -105.618E-03     50.8010E-03
             761     11.3370E-03     97.2266E-03    -32.6967E+06    -192.241E+03     39.4600E+06    -326.124E+03    -106.068E-03     211.939E-03    -105.870E-03     52.3454E-03    -106.416E-03     212.055E-03    -105.625E-03     51.2362E-03
             762     12.1464E-03     97.2829E-03    -28.0237E+06     28.2245E+06     47.4129E+06     1.58318E+06    -105.892E-03     211.749E-03    -105.857E-03     50.8744E-03    -106.279E-03     212.000E-03    -105.620E-03     49.7020E-03
             763     12.9576E-03     97.3361E-03    -22.0638E+06     67.3462E+06     58.1681E+06    -2.02604E+06    -105.482E-03     211.313E-03    -105.831E-03     47.3527E-03    -105.916E-03     211.739E-03    -105.606E-03     46.0604E-03
             764     13.7672E-03     97.3875E-03    -18.3115E+06     99.5793E+06     65.8944E+06    -3.29284E+06    -105.526E-03     211.330E-03    -105.803E-03     41.3535E-03    -105.994E-03     211.894E-03    -105.592E-03     39.9954E-03
             765     14.5748E-03     97.4295E-03    -13.0624E+06     107.057E+06     70.6267E+06     3.33563E+06    -104.707E-03     210.492E-03    -105.784E-03     34.3371E-03    -105.142E-03     211.055E-03    -105.567E-03     33.1149E-03
             766     15.3858E-03     97.4678E-03    -4.57625E+06     105.890E+06     84.7786E+06     6.32056E+06    -103.729E-03     209.510E-03    -105.781E-03     22.6245E-03    -104.084E-03     209.976E-03    -105.504E-03     21.7832E-03
             767     810.359E-06     97.8494E-03    -117.801E+06    -222.362E+06    -114.640E+06     221.852E+03    -105.348E-03     210.760E-03    -105.412E-03     6.63291E-03    -105.447E-03     209.991E-03    -105.492E-03     6.55010E-03
             768     1.62045E-03     97.8636E-03    -114.728E+06    -208.448E+06    -102.955E+06    -274.999E+03    -105.972E-03     211.502E-03    -105.531E-03     13.2541E-03    -106.097E-03     210.780E-03    -105.577E-03     13.0776E-03
             769     2.42833E-03     97.8820E-03    -109.861E+06    -196.511E+06    -87.7590E+06    -2.07131E+06    -105.793E-03     211.512E-03    -105.718E-03     18.6956E-03    -105.939E-03     210.825E-03    -105.713E-03     18.4019E-03
             770     3.23869E-03     97.9064E-03    -101.528E+06    -178.652E+06    -70.1209E+06    -2.05241E+06    -105.735E-03     211.520E-03    -105.785E-03     25.2188E-03    -105.899E-03     210.893E-03    -105.729E-03     24.8404E-03
             771     4.04896E-03     97.9399E-03    -91.0189E+06    -156.182E+06    -50.5975E+06    -1.27891E+06    -105.807E-03     211.635E-03    -105.828E-03     31.3200E-03    -105.989E-03     211.086E-03    -105.723E-03     30.8752E-03
             772     4.85798E-03     97.9760E-03    -81.5628E+06    -138.034E+06    -34.3960E+06    -1.63996E+06    -105.695E-03     211.544E-03    -105.848E-03     36.2445E-03    -105.890E-03     211.058E-03    -105.702E-03     35.7101E-03
             773     5.66829E-03     98.0182E-03    -74.9541E+06    -121.804E+06    -21.4063E+06    -1.55235E+06    -105.764E-03     211.614E-03    -105.850E-03     39.4592E-03    -105.977E-03     211.191E-03    -105.672E-03     38.8500E-03
             774     6.47836E-03     98.0638E-03    -71.2311E+06    -107.782E+06    -12.7522E+06    -19.4009E+03    -105.687E-03     211.526E-03    -105.839E-03     42.7852E-03    -105.925E-03     211.166E-03    -105.643E-03     42.1259E-03
             775     7.28822E-03     98.1142E-03    -62.0759E+06    -87.0224E+06     1.09170E+06     1.46114E+06    -105.574E-03     211.398E-03    -105.823E-03     46.6921E-03    -105.828E-03     211.119E-03    -105.602E-03     45.9935E-03
             776     8.09875E-03     98.1677E-03    -53.1559E+06    -72.5903E+06     12.1691E+06    -1.11865E+06    -106.152E-03     211.978E-03    -105.826E-03     48.7792E-03    -106.410E-03     211.755E-03    -105.583E-03     47.9608E-03
             777     8.90836E-03     98.2226E-03    -48.7874E+06    -60.2855E+06     16.9159E+06    -885.569E+03    -106.833E-03     212.697E-03    -105.864E-03     50.3614E-03    -107.106E-03     212.533E-03    -105.621E-03     49.4699E-03
             778     9.71596E-03     98.2818E-03    -39.0666E+06    -39.0767E+06     27.4651E+06     656.407E+03    -106.388E-03     212.302E-03    -105.914E-03     51.0029E-03    -106.670E-03     212.226E-03    -105.663E-03     50.0561E-03
             779     10.5268E-03     98.3392E-03    -31.7136E+06    -20.0496E+06     35.2988E+06    -199.257E+03    -105.714E-03     211.621E-03    -105.907E-03     51.7366E-03    -106.011E-03     211.632E-03    -105.655E-03     50.6940E-03
             780     11.3373E-03     98.3962E-03    -29.0127E+06     321.004E+03     41.0771E+06     740.927E+03    -105.776E-03     211.649E-03    -105.873E-03     52.1440E-03    -106.108E-03     211.760E-03    -105.626E-03     51.0475E-03
             781     12.1482E-03     98.4551E-03    -24.2514E+06     26.5830E+06     47.3452E+06    -395.355E+03    -105.994E-03     211.842E-03    -105.848E-03     49.8595E-03    -106.358E-03     212.077E-03    -105.614E-03     48.6590E-03
             782     12.9559E-03     98.5080E-03    -18.7281E+06     69.5044E+06     58.6017E+06    -702.612E+03    -105.968E-03     211.805E-03    -105.837E-03     47.1144E-03    -106.386E-03     212.234E-03    -105.618E-03     45.8545E-03
             783     13.7656E-03     98.5590E-03    -19.2278E+06     96.4765E+06     63.6720E+06     2.79129E+06    -105.360E-03     211.178E-03    -105.818E-03     43.1394E-03    -105.821E-03     211.729E-03    -105.611E-03     41.9137E-03
             784     14.5763E-03     98.6031E-03    -11.6425E+06     101.032E+06     69.6956E+06     5.98507E+06    -104.433E-03     210.223E-03    -105.790E-03     36.3137E-03    -104.868E-03     210.773E-03    -105.571E-03     35.0567E-03
             785     15.3892E-03     98.6315E-03     6.85498E+06     108.886E+06     90.6858E+06     1.25497E+06    -103.506E-03     209.284E-03    -105.778E-03     24.2519E-03    -103.851E-03     209.777E-03    -105.493E-03     23.1030E-03
             786     809.259E-06     99.0209E-03    -120.153E+06    -223.368E+06    -116.848E+06     720.079E+03    -105.661E-03     211.773E-03    -106.112E-03     7.52196E-03    -105.768E-03     211.005E-03    -106.198E-03     7.42987E-03
             787     1.61771E-03     99.0344E-03    -114.892E+06    -207.556E+06    -103.067E+06     280.286E+03    -105.492E-03     211.334E-03    -105.842E-03     14.0869E-03    -105.621E-03     210.617E-03    -105.890E-03     13.9110E-03
             788     2.42929E-03     99.0526E-03    -108.719E+06    -190.293E+06    -85.0633E+06     235.876E+03    -105.668E-03     211.468E-03    -105.800E-03     19.9373E-03    -105.822E-03     210.807E-03    -105.791E-03     19.6769E-03
             789     3.23839E-03     99.0772E-03    -103.004E+06    -176.739E+06    -70.1691E+06    -2.83777E+06    -105.705E-03     211.524E-03    -105.820E-03     25.6963E-03    -105.879E-03     210.909E-03    -105.765E-03     25.3081E-03
             790     4.04811E-03     99.1098E-03    -92.5535E+06    -158.919E+06    -54.3623E+06    -3.93664E+06    -105.358E-03     211.158E-03    -105.800E-03     31.1495E-03    -105.537E-03     210.602E-03    -105.707E-03     30.6766E-03
             791     4.85954E-03     99.1462E-03    -84.7139E+06    -139.789E+06    -37.8424E+06    -750.034E+03    -105.786E-03     211.577E-03    -105.791E-03     36.0608E-03    -105.987E-03     211.091E-03    -105.655E-03     35.5518E-03
             792     5.66823E-03     99.1903E-03    -78.1160E+06    -122.243E+06    -22.7358E+06     58.5830E+03    -106.035E-03     211.871E-03    -105.836E-03     39.2352E-03    -106.261E-03     211.452E-03    -105.659E-03     38.6477E-03
             793     6.47754E-03     99.2338E-03    -68.9400E+06    -106.362E+06    -9.74654E+06    -1.69113E+06    -105.840E-03     211.706E-03    -105.866E-03     42.5662E-03    -106.074E-03     211.346E-03    -105.660E-03     41.8790E-03
             794     7.28830E-03     99.2844E-03    -60.0998E+06    -87.2133E+06     1.60327E+06    -1.07088E+06    -106.061E-03     211.935E-03    -105.874E-03     46.2982E-03    -106.306E-03     211.652E-03    -105.652E-03     45.5551E-03
             795     8.09803E-03     99.3384E-03    -53.3890E+06    -69.6044E+06     12.0494E+06    -82.5705E+03    -106.757E-03     212.680E-03    -105.923E-03     48.3197E-03    -107.020E-03     212.471E-03    -105.684E-03     47.5144E-03
             796     8.90625E-03     99.3964E-03    -46.4945E+06    -58.7158E+06     18.5678E+06    -2.82455E+06    -106.635E-03     212.616E-03    -105.981E-03     49.4481E-03    -106.901E-03     212.454E-03    -105.735E-03     48.5226E-03
             797     9.71645E-03     99.4530E-03    -40.5983E+06    -44.5343E+06     23.4274E+06    -2.84505E+06    -105.662E-03     211.634E-03    -105.972E-03     50.4535E-03    -105.937E-03     211.539E-03    -105.731E-03     49.4645E-03
             798     10.5270E-03     99.5080E-03    -34.9821E+06    -22.3318E+06     32.2636E+06     803.452E+03    -105.529E-03     211.456E-03    -105.927E-03     51.9460E-03    -105.832E-03     211.462E-03    -105.683E-03     50.9463E-03
             799     11.3366E-03     99.5692E-03    -27.9957E+06     1.19867E+06     41.3179E+06     803.649E+03    -105.628E-03     211.513E-03    -105.885E-03     52.4403E-03    -105.957E-03     211.627E-03    -105.639E-03     51.3484E-03
             800     12.1451E-03     99.6250E-03    -22.4157E+06     27.2392E+06     48.7664E+06    -554.106E+03    -105.627E-03     211.471E-03    -105.844E-03     51.5011E-03    -105.985E-03     211.705E-03    -105.607E-03     50.3200E-03
             801     12.9572E-03     99.6806E-03    -22.2396E+06     64.8624E+06     57.0307E+06     4.00776E+06    -105.587E-03     211.396E-03    -105.808E-03     48.6034E-03    -106.011E-03     211.805E-03    -105.585E-03     47.4495E-03
             802     13.7672E-03     99.7301E-03    -17.0500E+06     93.7744E+06     63.0006E+06     6.49756E+06    -104.635E-03     210.385E-03    -105.750E-03     42.7055E-03    -105.078E-03     210.918E-03    -105.546E-03     41.5442E-03
             803     14.5798E-03     99.7700E-03    -5.79798E+06     105.958E+06     77.6334E+06    -1.38008E+06    -104.007E-03     209.727E-03    -105.720E-03     36.1899E-03    -104.430E-03     210.280E-03    -105.477E-03     34.8521E-03
             804     15.3871E-03     99.8071E-03    -245.478E+03     111.191E+06     94.1006E+06    -2.32980E+06    -104.242E-03     209.964E-03    -105.721E-03     24.7640E-03    -104.631E-03     210.474E-03    -105.412E-03     23.5592E-03
             805     808.868E-06     100.193E-03    -120.907E+06    -222.135E+06    -118.540E+06    -834.099E+03    -105.410E-03     211.666E-03    -106.256E-03     7.77955E-03    -105.519E-03     210.908E-03    -106.351E-03     7.67443E-03
             806     1.62043E-03     100.204E-03    -115.177E+06    -207.955E+06    -104.118E+06    -256.950E+03    -105.173E-03     210.908E-03    -105.735E-03     14.1058E-03    -105.301E-03     210.191E-03    -105.787E-03     13.9308E-03
             807     2.42954E-03     100.223E-03    -108.477E+06    -189.524E+06    -87.2020E+06    -433.060E+03    -105.621E-03     211.265E-03    -105.644E-03     20.9268E-03    -105.772E-03     210.611E-03    -105.647E-03     20.6612E-03
             808     3.23865E-03     100.250E-03    -101.070E+06    -171.157E+06    -68.2312E+06    -992.033E+03    -106.099E-03     211.845E-03    -105.747E-03     25.5342E-03    -106.274E-03     211.252E-03    -105.693E-03     25.1732E-03
             809     4.04924E-03     100.277E-03    -96.7388E+06    -158.609E+06    -54.4764E+06    -3.18794E+06    -106.064E-03     211.924E-03    -105.861E-03     30.1997E-03    -106.264E-03     211.376E-03    -105.763E-03     29.7322E-03
             810     4.85784E-03     100.319E-03    -87.8952E+06    -141.426E+06    -39.3573E+06    -3.34730E+06    -105.623E-03     211.519E-03    -105.896E-03     35.0954E-03    -105.835E-03     211.031E-03    -105.760E-03     34.5453E-03
             811     5.66817E-03     100.360E-03    -76.1993E+06    -121.804E+06    -22.8673E+06    -2.22739E+06    -105.590E-03     211.472E-03    -105.883E-03     38.8493E-03    -105.808E-03     211.054E-03    -105.710E-03     38.2216E-03
             812     6.47864E-03     100.406E-03    -67.7500E+06    -105.350E+06    -10.5062E+06    -2.62013E+06    -106.577E-03     212.493E-03    -105.916E-03     42.5040E-03    -106.805E-03     212.138E-03    -105.718E-03     41.7949E-03
             813     7.28704E-03     100.455E-03    -61.6263E+06    -89.7734E+06    -1.53428E+06    -2.23261E+06    -107.167E-03     213.186E-03    -106.018E-03     45.3838E-03    -107.412E-03     212.897E-03    -105.806E-03     44.6072E-03
             814     8.09535E-03     100.512E-03    -55.4486E+06    -72.1980E+06     8.40930E+06    -318.823E+03    -106.376E-03     212.468E-03    -106.092E-03     48.1406E-03    -106.639E-03     212.253E-03    -105.865E-03     47.3433E-03
             815     8.90481E-03     100.568E-03    -47.5006E+06    -57.9267E+06     17.7634E+06    -2.09814E+06    -105.362E-03     211.429E-03    -106.067E-03     49.8293E-03    -105.631E-03     211.272E-03    -105.826E-03     48.9436E-03
             816     9.71609E-03     100.621E-03    -41.5820E+06    -43.5971E+06     23.9408E+06    -3.68344E+06    -105.460E-03     211.452E-03    -105.993E-03     51.2121E-03    -105.740E-03     211.361E-03    -105.749E-03     50.2322E-03
             817     10.5260E-03     100.681E-03    -36.5632E+06    -24.1237E+06     31.2211E+06    -953.385E+03    -105.599E-03     211.536E-03    -105.937E-03     52.3637E-03    -105.903E-03     211.533E-03    -105.693E-03     51.3678E-03
             818     11.3366E-03     100.738E-03    -31.4531E+06    -1.38243E+06     38.5646E+06    -389.691E+03    -105.093E-03     210.965E-03    -105.873E-03     52.4510E-03    -105.427E-03     211.072E-03    -105.632E-03     51.3760E-03
             819     12.1499E-03     100.796E-03    -26.5041E+06     25.9336E+06     47.4802E+06     2.68712E+06    -104.946E-03     210.745E-03    -105.799E-03     51.8429E-03    -105.319E-03     210.978E-03    -105.561E-03     50.7302E-03
             820     12.9579E-03     100.852E-03    -19.0117E+06     61.8904E+06     58.2259E+06     4.41368E+06    -104.804E-03     210.528E-03    -105.724E-03     48.6753E-03    -105.210E-03     210.917E-03    -105.495E-03     47.5286E-03
             821     13.7687E-03     100.899E-03    -11.1058E+06     98.7995E+06     68.2624E+06     931.722E+03    -104.507E-03     210.155E-03    -105.648E-03     42.9281E-03    -104.938E-03     210.698E-03    -105.433E-03     41.6835E-03
             822     14.5778E-03     100.941E-03    -7.58542E+06     107.810E+06     77.6424E+06     1.53838E+06    -104.194E-03     209.808E-03    -105.614E-03     36.5202E-03    -104.629E-03     210.374E-03    -105.371E-03     35.2197E-03
             823     15.3938E-03     100.974E-03    -1.71947E+06     109.379E+06     92.6305E+06     753.178E+03    -104.997E-03     210.641E-03    -105.643E-03     25.1056E-03    -105.388E-03     211.145E-03    -105.336E-03     23.9554E-03
             824     810.040E-06     101.363E-03    -119.049E+06    -219.718E+06    -116.723E+06    -747.782E+03    -105.510E-03     211.587E-03    -106.077E-03     5.96253E-03    -105.616E-03     210.837E-03    -106.170E-03     5.85701E-03
             825     1.61892E-03     101.373E-03    -116.906E+06    -208.693E+06    -105.844E+06    -613.911E+03    -105.514E-03     211.285E-03    -105.770E-03     12.6426E-03    -105.646E-03     210.568E-03    -105.827E-03     12.4670E-03
             826     2.42946E-03     101.394E-03    -109.839E+06    -190.863E+06    -88.4644E+06    -894.758E+03    -105.580E-03     211.320E-03    -105.740E-03     20.0509E-03    -105.734E-03     210.663E-03    -105.746E-03     19.7738E-03
             827     3.24001E-03     101.420E-03    -100.602E+06    -169.741E+06    -66.9919E+06    -824.605E+03    -106.287E-03     212.128E-03    -105.841E-03     25.1574E-03    -106.464E-03     211.540E-03    -105.784E-03     24.7925E-03
             828     4.04662E-03     101.452E-03    -93.2391E+06    -151.846E+06    -49.7421E+06    -2.08628E+06    -106.578E-03     212.590E-03    -106.012E-03     29.7674E-03    -106.777E-03     212.063E-03    -105.905E-03     29.3114E-03
             829     4.85644E-03     101.488E-03    -86.0303E+06    -138.449E+06    -37.7447E+06    -4.53501E+06    -105.755E-03     211.830E-03    -106.075E-03     34.4498E-03    -105.965E-03     211.352E-03    -105.938E-03     33.8786E-03
             830     5.66797E-03     101.530E-03    -78.8631E+06    -123.842E+06    -27.0683E+06    -3.93488E+06    -105.809E-03     211.856E-03    -106.047E-03     38.5122E-03    -106.030E-03     211.435E-03    -105.888E-03     37.8753E-03
             831     6.47689E-03     101.578E-03    -71.7658E+06    -106.441E+06    -14.7707E+06    -1.86301E+06    -107.017E-03     213.118E-03    -106.100E-03     42.5122E-03    -107.255E-03     212.766E-03    -105.916E-03     41.8408E-03
             832     7.28434E-03     101.630E-03    -63.3114E+06    -90.1280E+06    -2.87797E+06    -2.82033E+06    -106.996E-03     213.204E-03    -106.208E-03     45.2373E-03    -107.246E-03     212.918E-03    -106.000E-03     44.4593E-03
             833     8.09374E-03     101.682E-03    -54.7979E+06    -73.5614E+06     7.88797E+06    -2.88853E+06    -105.418E-03     211.629E-03    -106.211E-03     47.7188E-03    -105.677E-03     211.409E-03    -105.985E-03     46.8752E-03
             834     8.90711E-03     101.736E-03    -47.3290E+06    -57.5471E+06     17.3948E+06    -2.38745E+06    -104.886E-03     210.995E-03    -106.108E-03     49.5777E-03    -105.153E-03     210.839E-03    -105.869E-03     48.6922E-03
             835     9.71693E-03     101.794E-03    -41.8160E+06    -41.9711E+06     24.3639E+06    -3.26408E+06    -105.410E-03     211.421E-03    -106.011E-03     50.9455E-03    -105.694E-03     211.337E-03    -105.768E-03     49.9756E-03
             836     10.5266E-03     101.851E-03    -36.4233E+06    -25.1827E+06     30.9597E+06    -2.92185E+06    -105.337E-03     211.280E-03    -105.943E-03     51.6713E-03    -105.637E-03     211.272E-03    -105.699E-03     50.6457E-03
             837     11.3375E-03     101.908E-03    -31.0535E+06    -4.14780E+06     38.1825E+06    -722.169E+03    -105.011E-03     210.880E-03    -105.869E-03     51.7406E-03    -105.336E-03     210.969E-03    -105.627E-03     50.6771E-03
             838     12.1455E-03     101.966E-03    -24.7689E+06     21.9763E+06     46.5249E+06     1.19949E+06    -104.293E-03     210.062E-03    -105.769E-03     51.0126E-03    -104.647E-03     210.271E-03    -105.532E-03     49.9038E-03
             839     12.9598E-03     102.020E-03    -17.4131E+06     63.9395E+06     59.7638E+06      121.16E+03    -103.581E-03     209.223E-03    -105.642E-03     48.4102E-03    -103.983E-03     209.617E-03    -105.411E-03     47.2239E-03
             840     13.7715E-03     102.071E-03    -12.6963E+06     97.8543E+06     67.0038E+06     2.07427E+06    -104.106E-03     209.623E-03    -105.517E-03     43.4046E-03    -104.542E-03     210.167E-03    -105.305E-03     42.1779E-03
             841     14.5838E-03     102.110E-03    -6.70265E+06     106.437E+06     77.4517E+06     2.75535E+06    -105.645E-03     211.166E-03    -105.521E-03     36.4239E-03    -106.077E-03     211.727E-03    -105.278E-03     35.0910E-03
             842     15.3885E-03     102.146E-03    -2.86341E+06     113.065E+06     94.0852E+06     680.961E+03    -106.183E-03     211.812E-03    -105.628E-03     24.9421E-03    -106.589E-03     212.336E-03    -105.318E-03     23.7652E-03
             843     808.980E-06     102.534E-03    -121.770E+06    -219.627E+06    -117.473E+06    -326.829E+03    -106.440E-03     212.115E-03    -105.675E-03     6.69647E-03    -106.557E-03     211.371E-03    -105.767E-03     6.58906E-03
             844     1.61870E-03     102.545E-03    -117.161E+06    -205.952E+06    -105.100E+06    -612.621E+03    -106.379E-03     212.539E-03    -106.160E-03     12.3739E-03    -106.518E-03     211.836E-03    -106.217E-03     12.1873E-03
             845     2.42796E-03     102.563E-03    -110.445E+06    -188.887E+06    -87.9379E+06    -1.75575E+06    -106.093E-03     212.347E-03    -106.254E-03     18.9703E-03    -106.252E-03     211.699E-03    -106.260E-03     18.6840E-03
             846     3.23668E-03     102.592E-03    -102.067E+06    -171.696E+06    -70.9992E+06    -2.34177E+06    -105.696E-03     211.916E-03    -106.220E-03     24.7732E-03    -105.871E-03     211.325E-03    -106.179E-03     24.4003E-03
             847     4.04803E-03     102.624E-03    -91.5021E+06    -148.835E+06    -50.8166E+06    -795.003E+03    -105.957E-03     212.146E-03    -106.190E-03     29.7656E-03    -106.149E-03     211.633E-03    -106.095E-03     29.3353E-03
             848     4.85722E-03     102.659E-03    -85.0351E+06    -133.955E+06    -36.1185E+06    -2.55339E+06    -106.724E-03     212.974E-03    -106.250E-03     33.7627E-03    -106.936E-03     212.514E-03    -106.113E-03     33.2239E-03
             849     5.66480E-03     102.701E-03    -79.2244E+06    -121.740E+06    -25.6522E+06    -3.94196E+06    -106.804E-03     213.150E-03    -106.345E-03     38.2733E-03    -107.031E-03     212.737E-03    -106.182E-03     37.6448E-03
             850     6.47407E-03     102.751E-03    -69.8297E+06    -103.840E+06    -12.3751E+06    -3.22420E+06    -106.005E-03     212.374E-03    -106.369E-03     43.2035E-03    -106.239E-03     212.028E-03    -106.179E-03     42.5346E-03
             851     7.28446E-03     102.803E-03    -63.5179E+06    -91.5829E+06    -3.81497E+06    -4.44572E+06    -105.355E-03     211.646E-03    -106.291E-03     46.0574E-03    -105.601E-03     211.353E-03    -106.085E-03     45.2832E-03
             852     8.09547E-03     102.852E-03    -56.0123E+06    -74.7152E+06     6.10931E+06    -4.35457E+06    -105.644E-03     211.848E-03    -106.204E-03     48.1237E-03    -105.904E-03     211.626E-03    -105.984E-03     47.2614E-03
             853     8.90357E-03     102.907E-03    -48.2135E+06    -57.1686E+06     16.6146E+06    -3.21233E+06    -105.709E-03     211.859E-03    -106.150E-03     49.7157E-03    -105.981E-03     211.709E-03    -105.914E-03     48.8100E-03
             854     9.71448E-03     102.964E-03    -42.3955E+06    -42.2638E+06     23.4666E+06    -2.86083E+06    -105.029E-03     211.099E-03    -106.070E-03     50.5255E-03    -105.314E-03     211.016E-03    -105.830E-03     49.5584E-03
             855     10.5263E-03     103.021E-03    -37.7395E+06    -25.7962E+06     29.6601E+06    -2.92159E+06    -104.896E-03     210.862E-03    -105.966E-03     51.5168E-03    -105.201E-03     210.856E-03    -105.726E-03     50.4843E-03
             856     11.3361E-03     103.079E-03    -31.7583E+06    -7.45460E+06     36.5635E+06    -2.71062E+06    -104.878E-03     210.749E-03    -105.871E-03     51.5718E-03    -105.199E-03     210.825E-03    -105.631E-03     50.4819E-03
             857     12.1498E-03     103.135E-03    -25.2943E+06     20.8017E+06     45.2574E+06    -1.68182E+06    -104.290E-03     210.056E-03    -105.766E-03     49.7780E-03    -104.639E-03     210.258E-03    -105.533E-03     48.6391E-03
             858     12.9599E-03     103.188E-03    -21.1362E+06     62.3929E+06     57.2206E+06     468.814E+03    -103.901E-03     209.552E-03    -105.651E-03     45.7521E-03    -104.309E-03     209.940E-03    -105.424E-03     44.5811E-03
             859     13.7726E-03     103.238E-03    -15.3945E+06     94.4858E+06     64.0952E+06     1.30446E+06    -104.327E-03     209.873E-03    -105.545E-03     39.7948E-03    -104.761E-03     210.401E-03    -105.339E-03     38.5575E-03
             860     14.5810E-03     103.283E-03    -10.5318E+06     107.991E+06     73.8962E+06     1.74165E+06    -105.371E-03     210.912E-03    -105.541E-03     34.8238E-03    -105.814E-03     211.487E-03    -105.313E-03     33.4965E-03
             861     15.3912E-03     103.322E-03    -5.58618E+06     115.415E+06     92.1486E+06     1.71306E+06    -105.650E-03     211.283E-03    -105.633E-03     24.5239E-03    -106.066E-03     211.822E-03    -105.332E-03     23.3858E-03
             862     810.051E-06     103.708E-03    -122.649E+06    -217.387E+06    -118.441E+06    -1.08256E+06    -106.874E-03     212.616E-03    -105.742E-03     7.54471E-03    -106.997E-03     211.886E-03    -105.841E-03     7.42940E-03
             863     1.61791E-03     103.716E-03    -116.974E+06    -203.883E+06    -106.377E+06    -1.65803E+06    -107.330E-03     213.874E-03    -106.544E-03     13.0341E-03    -107.468E-03     213.182E-03    -106.611E-03     12.8365E-03
             864     2.42551E-03     103.738E-03    -110.483E+06    -188.030E+06    -90.2849E+06    -1.84971E+06    -106.689E-03     213.471E-03    -106.782E-03     18.6186E-03    -106.846E-03     212.830E-03    -106.801E-03     18.3384E-03
             865     3.23579E-03     103.761E-03    -103.113E+06    -170.985E+06    -72.4924E+06    -2.22893E+06    -105.413E-03     212.086E-03    -106.672E-03     24.2537E-03    -105.592E-03     211.502E-03    -106.637E-03     23.8898E-03
             866     4.04611E-03     103.795E-03    -95.0508E+06    -151.406E+06    -54.6827E+06    -1.13001E+06    -105.740E-03     212.234E-03    -106.494E-03     29.9380E-03    -105.941E-03     211.718E-03    -106.410E-03     29.5097E-03
             867     4.85494E-03     103.833E-03    -86.0290E+06    -131.714E+06    -36.2974E+06    -1.16175E+06    -106.767E-03     213.259E-03    -106.493E-03     34.1473E-03    -106.987E-03     212.812E-03    -106.358E-03     33.6353E-03
             868     5.66324E-03     103.875E-03    -77.5954E+06    -117.341E+06    -22.3944E+06    -4.00951E+06    -106.539E-03     213.086E-03    -106.547E-03     39.3177E-03    -106.770E-03     212.690E-03    -106.376E-03     38.6806E-03
             869     6.47283E-03     103.921E-03    -69.6722E+06    -103.889E+06    -12.5696E+06    -5.30221E+06    -105.190E-03     211.660E-03    -106.470E-03     43.6577E-03    -105.427E-03     211.317E-03    -106.281E-03     42.9385E-03
             870     7.28552E-03     103.971E-03    -61.1842E+06    -88.8475E+06    -1.95112E+06    -5.38636E+06    -104.835E-03     211.142E-03    -106.307E-03     45.9759E-03    -105.075E-03     210.855E-03    -106.099E-03     45.2039E-03
             871     8.09578E-03     104.024E-03    -55.2836E+06    -73.8773E+06     6.34757E+06    -4.70990E+06    -105.718E-03     211.909E-03    -106.191E-03     48.0579E-03    -105.972E-03     211.686E-03    -105.972E-03     47.2250E-03
             872     8.90556E-03     104.080E-03    -50.3572E+06    -58.8582E+06     13.9440E+06    -4.14673E+06    -105.790E-03     211.928E-03    -106.138E-03     49.8552E-03    -106.066E-03     211.776E-03    -105.910E-03     48.9402E-03
             873     9.71537E-03     104.132E-03    -43.5503E+06    -43.0988E+06     22.3183E+06    -3.68368E+06    -105.368E-03     211.448E-03    -106.080E-03     51.2471E-03    -105.657E-03     211.364E-03    -105.843E-03     50.2667E-03
             874     10.5259E-03     104.191E-03    -36.8448E+06    -26.0085E+06     29.4699E+06    -3.03941E+06    -105.192E-03     211.192E-03    -105.999E-03     51.5547E-03    -105.492E-03     211.183E-03    -105.761E-03     50.5229E-03
             875     11.3376E-03     104.248E-03    -30.7679E+06    -6.03518E+06     37.0401E+06    -3.88905E+06    -105.162E-03     211.086E-03    -105.925E-03     50.0108E-03    -105.480E-03     211.167E-03    -105.686E-03     48.8864E-03
             876     12.1461E-03     104.304E-03    -26.1782E+06     16.4954E+06     42.9723E+06    -2.22163E+06    -105.210E-03     211.067E-03    -105.856E-03     47.1721E-03    -105.552E-03     211.250E-03    -105.628E-03     45.9992E-03
             877     12.9572E-03     104.358E-03    -21.6073E+06     58.4645E+06     54.9305E+06     1.17522E+06    -105.058E-03     210.860E-03    -105.803E-03     44.1248E-03    -105.456E-03     211.231E-03    -105.581E-03     42.9480E-03
             878     13.7654E-03     104.409E-03    -18.1729E+06     95.8303E+06     63.1699E+06     1.34239E+06    -104.716E-03     210.455E-03    -105.738E-03     39.8957E-03    -105.163E-03     210.994E-03    -105.535E-03     38.6642E-03
             879     14.5780E-03     104.453E-03    -13.3535E+06     108.006E+06     71.8492E+06     15.8470E+03    -103.942E-03     209.635E-03    -105.693E-03     34.3941E-03    -104.391E-03     210.211E-03    -105.471E-03     33.0916E-03
             880     15.3904E-03     104.491E-03    -6.36567E+06     116.274E+06     91.0447E+06    -55.9172E+03    -103.887E-03     209.581E-03    -105.694E-03     23.2215E-03    -104.302E-03     210.123E-03    -105.398E-03     22.0944E-03
             881     808.788E-06     104.876E-03    -121.098E+06    -214.974E+06    -118.900E+06    -673.310E+03    -106.994E-03     214.216E-03    -107.222E-03     6.92097E-03    -107.113E-03     213.497E-03    -107.329E-03     6.80269E-03
             882     1.61741E-03     104.894E-03    -117.244E+06    -203.376E+06    -107.012E+06    -1.56864E+06    -106.884E-03     213.978E-03    -107.094E-03     13.1649E-03    -107.023E-03     213.290E-03    -107.164E-03     12.9725E-03
             883     2.42561E-03     104.910E-03    -110.755E+06    -186.777E+06    -90.0848E+06    -2.02378E+06    -106.435E-03     213.442E-03    -107.007E-03     18.5166E-03    -106.595E-03     212.807E-03    -107.026E-03     18.2498E-03
             884     3.23473E-03     104.933E-03    -103.453E+06    -168.257E+06    -71.2520E+06    -2.24980E+06    -106.434E-03     213.351E-03    -106.917E-03     24.8237E-03    -106.620E-03     212.779E-03    -106.880E-03     24.4613E-03
             885     4.04402E-03     104.966E-03    -96.4052E+06    -151.321E+06    -54.5454E+06    -2.57057E+06    -106.168E-03     213.011E-03    -106.843E-03     30.6123E-03    -106.377E-03     212.499E-03    -106.757E-03     30.1578E-03
             886     4.85391E-03     105.006E-03    -86.7909E+06    -132.488E+06    -37.9421E+06    -2.63869E+06    -105.449E-03     212.160E-03    -106.711E-03     34.9904E-03    -105.670E-03     211.713E-03    -106.583E-03     34.4601E-03
             887     5.66473E-03     105.046E-03    -78.1034E+06    -116.177E+06    -23.7541E+06    -3.70597E+06    -105.514E-03     212.073E-03    -106.559E-03     39.4638E-03    -105.748E-03     211.686E-03    -106.396E-03     38.8343E-03
             888     6.47519E-03     105.093E-03    -70.6800E+06    -103.166E+06    -13.4120E+06    -5.77657E+06    -105.735E-03     212.184E-03    -106.449E-03     42.3895E-03    -105.977E-03     211.848E-03    -106.264E-03     41.6414E-03
             889     7.28381E-03     105.140E-03    -60.9013E+06    -85.3624E+06    -889.491E+03    -5.18582E+06    -105.536E-03     211.900E-03    -106.364E-03     45.5632E-03    -105.781E-03     211.628E-03    -106.156E-03     44.7822E-03
             890     8.09387E-03     105.197E-03    -54.7391E+06    -72.5498E+06     7.00309E+06    -5.28037E+06    -105.232E-03     211.491E-03    -106.258E-03     47.7586E-03    -105.487E-03     211.273E-03    -106.039E-03     46.9195E-03
             891     8.90519E-03     105.248E-03    -48.9711E+06    -58.9274E+06     13.8822E+06    -5.72842E+06    -105.390E-03     211.548E-03    -106.158E-03     48.4888E-03    -105.658E-03     211.392E-03    -105.932E-03     47.5464E-03
             892     9.71597E-03     105.306E-03    -41.9092E+06    -42.7674E+06     22.6326E+06    -5.15682E+06    -105.777E-03     211.877E-03    -106.101E-03     49.7320E-03    -106.056E-03     211.790E-03    -105.865E-03     48.7308E-03
             893     10.5250E-03     105.361E-03    -35.8022E+06    -26.2266E+06     29.3074E+06    -4.99921E+06    -105.835E-03     211.896E-03    -106.060E-03     50.7446E-03    -106.128E-03     211.883E-03    -105.824E-03     49.6791E-03
             894     11.3341E-03     105.420E-03    -31.0945E+06    -7.01649E+06     35.4156E+06    -3.08645E+06    -105.653E-03     211.671E-03    -106.018E-03     50.2688E-03    -105.971E-03     211.751E-03    -105.786E-03     49.1384E-03
             895     12.1451E-03     105.476E-03    -26.4543E+06     13.6430E+06     41.7497E+06    -2.13789E+06    -105.303E-03     211.269E-03    -105.966E-03     48.9363E-03    -105.647E-03     211.446E-03    -105.738E-03     47.7422E-03
             896     12.9541E-03     105.529E-03    -21.9208E+06     54.5849E+06     53.2851E+06     139.111E+03    -105.109E-03     211.013E-03    -105.904E-03     47.5658E-03    -105.510E-03     211.375E-03    -105.685E-03     46.3599E-03
             897     13.7668E-03     105.579E-03    -15.2494E+06     96.6122E+06     63.8059E+06     1.05357E+06    -104.922E-03     210.758E-03    -105.836E-03     42.9765E-03    -105.363E-03     211.303E-03    -105.635E-03     41.7330E-03
             898     14.5758E-03     105.623E-03    -8.89966E+06     110.397E+06     77.1231E+06    -598.404E+03    -104.027E-03     209.835E-03    -105.808E-03     35.8702E-03    -104.470E-03     210.415E-03    -105.570E-03     34.5456E-03
             899     15.3866E-03     105.658E-03    -5.03098E+06     115.024E+06     93.8064E+06    -603.492E+03    -103.007E-03     208.786E-03    -105.779E-03     25.2524E-03    -103.424E-03     209.322E-03    -105.470E-03     24.0972E-03
             900     806.326E-06     106.054E-03    -122.331E+06    -214.116E+06    -120.093E+06    -691.806E+03    -107.537E-03     215.511E-03    -107.974E-03     7.92115E-03    -107.662E-03     214.800E-03    -108.087E-03     7.81689E-03
             901     1.61533E-03     106.065E-03    -117.130E+06    -201.458E+06    -105.970E+06    -1.25261E+06    -106.244E-03     213.735E-03    -107.491E-03     12.7525E-03    -106.388E-03     213.056E-03    -107.559E-03     12.5570E-03
             902     2.42681E-03     106.083E-03    -110.443E+06    -184.328E+06    -88.5560E+06    -2.22948E+06    -106.205E-03     213.302E-03    -107.097E-03     18.3372E-03    -106.370E-03     212.678E-03    -107.113E-03     18.0528E-03
             903     3.23549E-03     106.107E-03    -104.013E+06    -166.804E+06    -71.2504E+06    -2.82261E+06    -106.894E-03     213.892E-03    -106.998E-03     25.2806E-03    -107.086E-03     213.329E-03    -106.962E-03     24.8983E-03
             904     4.04249E-03     106.141E-03    -95.3474E+06    -149.436E+06    -53.7206E+06    -3.63312E+06    -106.071E-03     213.023E-03    -106.952E-03     30.8219E-03    -106.280E-03     212.518E-03    -106.865E-03     30.3369E-03
             905     4.85326E-03     106.174E-03     -86.146E+06    -131.693E+06    -38.2131E+06    -4.20462E+06    -105.390E-03     212.173E-03    -106.783E-03     35.4985E-03    -105.610E-03     211.730E-03    -106.658E-03     34.9413E-03
             906     5.66433E-03     106.219E-03    -76.3904E+06    -113.175E+06    -22.8948E+06    -4.54451E+06    -105.739E-03     212.371E-03    -106.631E-03     38.5360E-03    -105.968E-03     211.993E-03    -106.471E-03     37.9014E-03
             907     6.47335E-03     106.263E-03    -68.3790E+06    -99.1262E+06    -11.0904E+06    -5.77508E+06    -106.000E-03     212.551E-03    -106.551E-03     40.7476E-03    -106.237E-03     212.226E-03    -106.364E-03     40.0103E-03
             908     7.28340E-03     106.313E-03    -63.5526E+06    -86.7176E+06    -3.74873E+06    -5.87785E+06    -105.694E-03     212.167E-03    -106.473E-03     44.4168E-03    -105.946E-03     211.895E-03    -106.273E-03     43.6247E-03
             909     8.09438E-03     106.364E-03    -55.7987E+06    -71.8011E+06     5.86048E+06    -6.26368E+06    -105.410E-03     211.788E-03    -106.378E-03     47.0103E-03    -105.669E-03     211.577E-03    -106.164E-03     46.1485E-03
             910     8.90423E-03     106.421E-03    -47.8396E+06    -58.2583E+06     14.2408E+06    -7.04681E+06    -105.630E-03     211.921E-03    -106.292E-03     47.9396E-03    -105.893E-03     211.767E-03    -106.067E-03     46.9768E-03
             911     9.71324E-03     106.475E-03    -42.2267E+06    -42.5583E+06     21.3922E+06    -6.09036E+06    -105.523E-03     211.743E-03    -106.220E-03     48.7432E-03    -105.801E-03     211.658E-03    -105.990E-03     47.7321E-03
             912     10.5245E-03     106.533E-03    -37.3390E+06    -26.8997E+06     27.7630E+06    -5.20693E+06    -105.243E-03     211.383E-03    -106.141E-03     50.8858E-03    -105.539E-03     211.371E-03    -105.909E-03     49.8313E-03
             913     11.3348E-03     106.591E-03    -31.3263E+06    -8.42694E+06     35.1444E+06    -4.54509E+06    -104.937E-03     210.987E-03    -106.050E-03     51.5508E-03    -105.255E-03     211.061E-03    -105.816E-03     50.4214E-03
             914     12.1451E-03     106.645E-03    -24.6481E+06     13.2079E+06     42.5062E+06    -3.68609E+06    -104.790E-03     210.742E-03    -105.952E-03     50.6895E-03    -105.129E-03     210.916E-03    -105.722E-03     49.4784E-03
             915     12.9578E-03     106.700E-03    -16.5838E+06     50.8250E+06     53.9663E+06    -2.29041E+06    -105.079E-03     210.948E-03    -105.869E-03     48.9789E-03    -105.454E-03     211.288E-03    -105.649E-03     47.7234E-03
             916     13.7657E-03     106.751E-03    -10.8171E+06     95.2663E+06     65.3467E+06     200.123E+03    -104.932E-03     210.733E-03    -105.801E-03     43.8057E-03    -105.354E-03     211.265E-03    -105.597E-03     42.5446E-03
             917     14.5772E-03     106.794E-03    -8.54987E+06     111.983E+06     77.0048E+06     847.292E+03    -104.264E-03     210.038E-03    -105.774E-03     36.5534E-03    -104.709E-03     210.627E-03    -105.539E-03     35.2434E-03
             918     15.3893E-03     106.827E-03    -4.77484E+06     115.005E+06     92.8837E+06     33.0497E+03    -103.350E-03     209.110E-03    -105.760E-03     25.8068E-03    -103.766E-03     209.648E-03    -105.455E-03     24.6452E-03
             919     809.200E-06     107.231E-03    -122.153E+06    -211.592E+06    -118.564E+06    -1.30180E+06    -106.845E-03     213.799E-03    -106.954E-03     9.09485E-03    -106.976E-03     213.099E-03    -107.063E-03     8.96357E-03
             920     1.61698E-03     107.239E-03    -116.921E+06    -199.305E+06    -106.093E+06    -1.95081E+06    -107.041E-03     214.001E-03    -106.960E-03     13.7426E-03    -107.188E-03     213.333E-03    -107.032E-03     13.5223E-03
             921     2.42507E-03     107.254E-03    -110.398E+06    -182.636E+06    -89.0328E+06    -2.15905E+06    -107.038E-03     214.078E-03    -107.040E-03     19.6947E-03    -107.206E-03     213.464E-03    -107.060E-03     19.3834E-03
             922     3.23348E-03     107.283E-03    -103.229E+06    -164.689E+06    -71.0077E+06    -2.71778E+06    -106.398E-03     213.422E-03    -107.024E-03     25.1175E-03    -106.590E-03     212.868E-03    -106.990E-03     24.7331E-03
             923     4.04542E-03     107.310E-03    -93.2025E+06    -145.945E+06    -52.2138E+06    -4.12964E+06    -106.186E-03     213.116E-03    -106.930E-03     29.5607E-03    -106.390E-03     212.622E-03    -106.844E-03     29.0827E-03
             924     4.85468E-03     107.348E-03    -84.3024E+06    -129.284E+06    -36.8111E+06    -4.87305E+06    -106.426E-03     213.287E-03    -106.860E-03     34.3961E-03    -106.641E-03     212.850E-03    -106.735E-03     33.8277E-03
             925     5.66189E-03     107.390E-03    -76.9632E+06    -112.631E+06    -24.1632E+06    -5.08457E+06    -106.045E-03     212.838E-03    -106.793E-03     38.3977E-03    -106.276E-03     212.466E-03    -106.639E-03     37.7523E-03
             926     6.47218E-03     107.436E-03    -69.6727E+06    -97.8979E+06    -12.5214E+06    -5.72593E+06    -105.804E-03     212.504E-03    -106.700E-03     41.4746E-03    -106.047E-03     212.188E-03    -106.519E-03     40.7548E-03
             927     7.28223E-03     107.484E-03    -62.7000E+06    -85.0134E+06    -3.32263E+06    -6.58978E+06    -105.975E-03     212.587E-03    -106.612E-03     44.0826E-03    -106.225E-03     212.322E-03    -106.414E-03     43.2786E-03
             928     8.09151E-03     107.536E-03    -55.7609E+06    -70.3038E+06     5.72458E+06    -6.82062E+06    -105.976E-03     212.521E-03    -106.545E-03     46.5579E-03    -106.237E-03     212.318E-03    -106.334E-03     45.6842E-03
             929     8.90149E-03     107.591E-03    -49.9089E+06    -57.5273E+06     12.9563E+06    -7.77994E+06    -105.557E-03     212.024E-03    -106.467E-03     47.8082E-03    -105.828E-03     211.876E-03    -106.246E-03     46.8481E-03
             930     9.71269E-03     107.647E-03    -44.4319E+06    -43.6183E+06     19.6044E+06    -7.30699E+06    -105.171E-03     211.535E-03    -106.364E-03     48.7245E-03    -105.456E-03     211.450E-03    -106.138E-03     47.7028E-03
             931     10.5228E-03     107.702E-03    -37.6839E+06    -25.9139E+06     28.0970E+06    -6.55297E+06    -104.640E-03     210.883E-03    -106.243E-03     49.7479E-03    -104.937E-03     210.873E-03    -106.010E-03     48.6907E-03
             932     11.3354E-03     107.760E-03    -30.4274E+06    -8.21259E+06     35.7876E+06    -7.08295E+06    -104.136E-03     210.234E-03    -106.099E-03     49.3146E-03    -104.443E-03     210.300E-03    -105.864E-03     48.1830E-03
             933     12.1474E-03     107.815E-03    -24.2554E+06     11.1631E+06     41.3338E+06    -6.30780E+06    -104.433E-03     210.390E-03    -105.957E-03     48.7690E-03    -104.756E-03     210.547E-03    -105.731E-03     47.5608E-03
             934     12.9557E-03     107.871E-03    -20.3966E+06     47.7807E+06     51.1047E+06    -4.21921E+06    -104.238E-03     210.077E-03    -105.839E-03     47.7373E-03    -104.620E-03     210.407E-03    -105.623E-03     46.4765E-03
             935     13.7684E-03     107.921E-03    -16.0612E+06     92.0220E+06     60.8190E+06    -905.723E+03    -103.772E-03     209.481E-03    -105.709E-03     44.2120E-03    -104.210E-03     210.012E-03    -105.515E-03     42.9456E-03
             936     14.5789E-03     107.963E-03    -9.56242E+06     111.173E+06     73.9645E+06     1.48380E+06    -104.289E-03     209.941E-03    -105.651E-03     37.8175E-03    -104.738E-03     210.535E-03    -105.429E-03     36.5055E-03
             937     15.3882E-03     107.998E-03    -4.14810E+06     115.837E+06     92.7865E+06     1.29500E+06    -104.396E-03     210.075E-03    -105.680E-03     25.7810E-03    -104.811E-03     210.618E-03    -105.378E-03     24.6207E-03
             938     809.929E-06     108.401E-03    -119.233E+06    -207.835E+06    -116.535E+06    -1.45126E+06    -106.429E-03     212.697E-03    -106.268E-03     6.41437E-03    -106.553E-03     212.008E-03    -106.376E-03     6.29695E-03
             939     1.62006E-03     108.413E-03    -116.183E+06    -197.085E+06     -105.12E+06    -2.03518E+06    -107.174E-03     213.723E-03    -106.549E-03     12.7448E-03    -107.321E-03     213.063E-03    -106.620E-03     12.5455E-03
             940     2.42625E-03     108.431E-03    -110.365E+06    -181.319E+06    -89.2948E+06    -2.84907E+06    -107.363E-03     214.212E-03    -106.850E-03     19.1495E-03    -107.531E-03     213.605E-03    -106.873E-03     18.8495E-03
             941     3.23575E-03     108.453E-03    -101.207E+06    -161.572E+06    -70.2730E+06    -3.65359E+06    -106.903E-03     213.890E-03    -106.987E-03     24.4968E-03    -107.089E-03     213.347E-03    -106.957E-03     24.1089E-03
             942     4.04316E-03     108.485E-03    -92.1887E+06    -143.316E+06    -52.0046E+06    -4.22331E+06    -107.084E-03     214.123E-03    -107.039E-03     29.0798E-03    -107.286E-03     213.640E-03    -106.958E-03     28.6025E-03
             943     4.85061E-03     108.522E-03    -84.9447E+06    -127.619E+06    -37.4984E+06    -5.37944E+06    -106.613E-03     213.663E-03    -107.050E-03     33.3686E-03    -106.833E-03     213.237E-03    -106.929E-03     32.7822E-03
             944     5.66239E-03     108.562E-03    -77.3480E+06    -111.955E+06    -25.0342E+06    -5.39446E+06    -105.726E-03     212.678E-03    -106.951E-03     37.6496E-03    -105.958E-03     212.310E-03    -106.802E-03     37.0011E-03
             945     6.47249E-03     108.607E-03    -69.8901E+06    -95.8165E+06    -12.8284E+06    -5.31518E+06    -105.788E-03     212.605E-03    -106.817E-03     41.5300E-03    -106.034E-03     212.300E-03    -106.641E-03     40.8187E-03
             946     7.28157E-03     108.657E-03    -63.1446E+06    -82.8587E+06    -2.89468E+06    -7.04714E+06    -106.318E-03     213.054E-03    -106.736E-03     44.4612E-03    -106.576E-03     212.802E-03    -106.539E-03     43.6379E-03
             947     8.09099E-03     108.708E-03    -56.2025E+06    -69.4477E+06     5.45226E+06    -7.65231E+06    -106.240E-03     212.926E-03    -106.686E-03     46.9279E-03    -106.505E-03     212.729E-03    -106.476E-03     46.0359E-03
             948     8.90076E-03     108.763E-03    -50.2051E+06    -54.2846E+06     13.6809E+06    -7.24662E+06    -105.443E-03     212.047E-03    -106.603E-03     47.6351E-03    -105.719E-03     211.912E-03    -106.383E-03     46.7007E-03
             949     9.71116E-03     108.816E-03    -44.0700E+06    -41.8238E+06     20.6274E+06    -8.69206E+06    -105.062E-03     211.544E-03    -106.482E-03     49.0366E-03    -105.347E-03     211.464E-03    -106.254E-03     48.0120E-03
             950     10.5218E-03     108.874E-03    -37.3935E+06    -26.6732E+06     27.0861E+06    -8.87675E+06    -104.948E-03     211.301E-03    -106.353E-03     49.2374E-03    -105.240E-03     211.287E-03    -106.125E-03     48.1453E-03
             951     11.3317E-03     108.927E-03    -32.7344E+06    -8.42489E+06     33.4709E+06    -7.85109E+06    -104.389E-03     210.607E-03    -106.219E-03     48.7303E-03    -104.703E-03     210.678E-03    -105.992E-03     47.5860E-03
             952     12.1426E-03     108.986E-03    -29.3355E+06       8.857E+06     38.0690E+06    -6.54263E+06    -103.803E-03     209.863E-03    -106.060E-03     48.4770E-03    -104.140E-03     210.018E-03    -105.840E-03     47.2890E-03
             953     12.9566E-03     109.038E-03    -24.6248E+06     45.2282E+06     48.1053E+06    -4.58524E+06    -103.090E-03     208.973E-03    -105.883E-03     45.9740E-03    -103.476E-03     209.293E-03    -105.672E-03     44.7515E-03
             954     13.7691E-03     109.089E-03    -19.0980E+06     87.5528E+06     57.6585E+06    -2.83150E+06    -102.787E-03     208.477E-03    -105.691E-03     42.0496E-03    -103.220E-03     208.987E-03    -105.502E-03     40.7967E-03
             955     14.5819E-03     109.134E-03    -13.7829E+06     108.602E+06     67.7416E+06    -468.673E+03    -103.692E-03     209.267E-03    -105.575E-03     36.4887E-03    -104.143E-03     209.858E-03    -105.374E-03     35.1749E-03
             956     15.3927E-03     109.170E-03    -6.75217E+06     117.762E+06     88.9633E+06     128.953E+03    -104.689E-03     210.292E-03    -105.603E-03     24.3766E-03    -105.111E-03     210.850E-03    -105.319E-03     23.2213E-03
             957     807.682E-06     109.572E-03    -118.371E+06    -204.664E+06    -114.992E+06    -947.055E+03    -107.224E-03     214.222E-03    -106.998E-03     5.95549E-03    -107.349E-03     213.545E-03    -107.105E-03     5.87311E-03
             958     1.61551E-03     109.587E-03    -116.184E+06    -195.206E+06    -105.265E+06    -1.71124E+06    -106.849E-03     213.940E-03    -107.091E-03     12.1610E-03    -106.997E-03     213.289E-03    -107.166E-03     11.9810E-03
             959     2.42679E-03     109.604E-03    -108.335E+06    -177.595E+06    -87.7099E+06    -3.00929E+06    -106.775E-03     213.826E-03    -107.051E-03     17.2187E-03    -106.940E-03     213.230E-03    -107.075E-03     16.9400E-03
             960     3.23433E-03     109.628E-03    -101.180E+06    -159.758E+06    -70.4505E+06    -3.77531E+06    -107.232E-03     214.318E-03    -107.086E-03     23.7407E-03    -107.419E-03     213.783E-03    -107.060E-03     23.3614E-03
             961     4.04263E-03     109.659E-03    -94.0058E+06    -142.974E+06    -54.0983E+06    -4.43939E+06    -107.166E-03     214.324E-03    -107.158E-03     29.8685E-03    -107.375E-03     213.848E-03    -107.085E-03     29.3875E-03
             962     4.85259E-03     109.695E-03    -85.0617E+06    -124.892E+06    -37.4582E+06    -5.09664E+06    -106.736E-03     213.904E-03    -107.168E-03     33.5473E-03    -106.960E-03     213.491E-03    -107.051E-03     32.9652E-03
             963     5.66032E-03     109.733E-03    -77.3670E+06    -109.420E+06    -23.9475E+06    -5.99505E+06    -106.364E-03     213.474E-03    -107.111E-03     36.9190E-03    -106.600E-03     213.117E-03    -106.960E-03     36.2639E-03
             964     6.47024E-03     109.779E-03    -69.4476E+06    -94.1708E+06    -12.4122E+06    -6.39989E+06    -106.153E-03     213.174E-03    -107.021E-03     40.6100E-03    -106.397E-03     212.873E-03    -106.845E-03     39.8926E-03
             965     7.28064E-03     109.829E-03    -61.6608E+06    -79.3132E+06    -1.43496E+06    -6.85337E+06    -106.077E-03     213.007E-03    -106.930E-03     43.2484E-03    -106.331E-03     212.765E-03    -106.733E-03     42.4496E-03
             966     8.08990E-03     109.881E-03    -55.7749E+06    -68.0230E+06     6.10185E+06    -8.07525E+06    -105.637E-03     212.460E-03    -106.822E-03     45.5154E-03    -105.899E-03     212.265E-03    -106.612E-03     44.6321E-03
             967     8.89988E-03     109.934E-03    -49.2321E+06    -53.3811E+06     13.6584E+06    -8.18061E+06    -105.253E-03     211.942E-03    -106.689E-03     47.3068E-03    -105.524E-03     211.810E-03    -106.472E-03     46.3636E-03
             968     9.71046E-03     109.987E-03    -43.0564E+06    -38.9881E+06     21.1164E+06    -8.60093E+06    -105.085E-03     211.638E-03    -106.552E-03     49.3601E-03    -105.369E-03     211.569E-03    -106.328E-03     48.3440E-03
             969     10.5212E-03     110.044E-03    -39.0987E+06    -27.0048E+06     25.7683E+06    -8.88204E+06    -104.829E-03     211.242E-03    -106.413E-03     49.9539E-03    -105.128E-03     211.232E-03    -106.188E-03     48.8612E-03
             970     11.3320E-03     110.099E-03    -34.6146E+06    -9.06804E+06     32.1152E+06    -8.03334E+06    -104.653E-03     210.930E-03    -106.277E-03     50.0020E-03    -104.975E-03     211.004E-03    -106.053E-03     48.8545E-03
             971     12.1438E-03     110.153E-03    -28.5313E+06     8.54173E+06     38.3954E+06    -7.42115E+06    -104.182E-03     210.321E-03    -106.139E-03     49.0045E-03    -104.516E-03     210.472E-03    -105.918E-03     47.8093E-03
             972     12.9544E-03     110.207E-03    -21.9214E+06     43.2646E+06     47.9960E+06    -6.52566E+06    -103.612E-03     209.594E-03    -105.981E-03     44.8938E-03    -103.978E-03     209.895E-03    -105.772E-03     43.6599E-03
             973     13.7660E-03     110.256E-03    -15.4535E+06     83.4279E+06     57.3594E+06    -4.15726E+06    -103.316E-03     209.132E-03    -105.816E-03     40.1661E-03    -103.718E-03     209.609E-03    -105.627E-03     38.9174E-03
             974     14.5779E-03     110.301E-03    -9.50371E+06     106.408E+06     69.2351E+06    -2.20531E+06    -103.239E-03     208.942E-03    -105.703E-03     34.3426E-03    -103.661E-03     209.506E-03    -105.497E-03     33.0350E-03
             975     15.3894E-03     110.340E-03    -4.97954E+06     117.789E+06     89.5055E+06    -1.37205E+06    -103.200E-03     208.869E-03    -105.670E-03     21.9067E-03    -103.605E-03     209.416E-03    -105.386E-03     20.7802E-03
             976     808.853E-06     110.750E-03    -119.221E+06    -203.188E+06    -116.221E+06    -331.302E+03    -107.652E-03     215.198E-03    -107.546E-03     7.64911E-03    -107.782E-03     214.531E-03    -107.660E-03     7.56810E-03
             977     1.61673E-03     110.760E-03    -114.939E+06    -191.677E+06    -104.794E+06    -1.80155E+06    -107.154E-03     214.693E-03    -107.539E-03     12.4426E-03    -107.303E-03     214.058E-03    -107.619E-03     12.2447E-03
             978     2.42399E-03     110.777E-03    -108.386E+06    -175.132E+06    -87.8412E+06    -2.54953E+06    -106.933E-03     214.356E-03    -107.423E-03     18.3177E-03    -107.102E-03     213.773E-03    -107.451E-03     18.0256E-03
             979     3.23377E-03     110.803E-03    -101.395E+06    -157.476E+06    -69.8865E+06    -3.50962E+06    -106.946E-03     214.303E-03    -107.356E-03     23.6112E-03    -107.139E-03     213.779E-03    -107.330E-03     23.2367E-03
             980     4.04322E-03     110.832E-03    -93.3145E+06    -139.898E+06    -52.7075E+06    -4.83228E+06    -106.763E-03     214.072E-03    -107.309E-03     28.5713E-03    -106.973E-03     213.607E-03    -107.234E-03     28.0992E-03
             981     4.85111E-03     110.869E-03    -85.0516E+06    -122.968E+06    -37.0921E+06    -5.58663E+06    -106.799E-03     214.062E-03    -107.262E-03     32.5882E-03    -107.024E-03     213.656E-03    -107.146E-03     32.0233E-03
             982     5.66044E-03     110.908E-03    -76.6848E+06    -106.618E+06    -23.0772E+06    -6.11754E+06    -106.971E-03     214.209E-03    -107.238E-03     37.0522E-03    -107.208E-03     213.863E-03    -107.088E-03     36.4036E-03
             983     6.46857E-03     110.952E-03    -69.2238E+06    -92.1203E+06    -11.8876E+06    -7.25633E+06    -106.794E-03     214.003E-03    -107.209E-03     41.4227E-03    -107.041E-03     213.712E-03    -107.035E-03     40.6945E-03
             984     7.27712E-03     111.001E-03    -61.9777E+06    -77.9757E+06    -2.00050E+06    -7.56374E+06    -105.983E-03     213.108E-03    -107.125E-03     43.7034E-03    -106.238E-03     212.872E-03    -106.932E-03     42.9109E-03
             985     8.08810E-03     111.052E-03    -54.5462E+06    -65.0469E+06     7.11409E+06    -8.07165E+06    -104.953E-03     211.916E-03    -106.963E-03     45.0395E-03    -105.212E-03     211.730E-03    -106.754E-03     44.1776E-03
             986     8.90000E-03     111.104E-03    -48.5462E+06    -53.3742E+06     13.5679E+06    -8.78604E+06    -104.860E-03     211.627E-03    -106.766E-03     47.5141E-03    -105.126E-03     211.492E-03    -106.551E-03     46.5845E-03
             987     9.71011E-03     111.160E-03    -43.4698E+06    -37.4733E+06     20.9422E+06    -8.16046E+06    -104.959E-03     211.559E-03    -106.600E-03     48.7484E-03    -105.242E-03     211.494E-03    -106.378E-03     47.7683E-03
             988     10.5210E-03     111.213E-03    -37.9450E+06    -24.9159E+06     27.3798E+06    -8.67678E+06    -104.414E-03     210.857E-03    -106.443E-03     49.3342E-03    -104.709E-03     210.850E-03    -106.215E-03     48.2691E-03
             989     11.3327E-03     111.269E-03    -31.8587E+06    -9.06017E+06     33.2060E+06    -9.42465E+06    -104.474E-03     210.757E-03    -106.282E-03     49.9505E-03    -104.782E-03     210.823E-03    -106.057E-03     48.8020E-03
             990     12.1423E-03     111.324E-03    -26.4196E+06     8.18833E+06     38.9556E+06    -8.68652E+06    -104.838E-03     210.994E-03    -106.156E-03     49.0056E-03    -105.159E-03     211.138E-03    -105.935E-03     47.7998E-03
             991     12.9531E-03     111.377E-03    -21.9615E+06     42.3763E+06     47.8377E+06    -8.29013E+06    -104.690E-03     210.741E-03    -106.051E-03     46.1544E-03    -105.055E-03     211.040E-03    -105.841E-03     44.8926E-03
             992     13.7642E-03     111.425E-03    -16.2801E+06     80.5536E+06     57.0017E+06    -7.21405E+06    -104.288E-03     210.230E-03    -105.942E-03     41.8798E-03    -104.694E-03     210.699E-03    -105.751E-03     40.5697E-03
             993     14.5747E-03     111.472E-03    -9.90250E+06     102.654E+06     68.4570E+06    -3.93583E+06    -102.914E-03     208.752E-03    -105.838E-03     36.2152E-03    -103.338E-03     209.307E-03    -105.630E-03     34.8594E-03
             994     15.3870E-03     111.507E-03    -4.63995E+06     116.219E+06     88.5082E+06    -1.08891E+06    -101.575E-03     207.315E-03    -105.740E-03     24.4979E-03    -101.984E-03     207.863E-03    -105.459E-03     23.3566E-03
             995     806.869E-06     111.926E-03    -119.225E+06    -201.016E+06    -116.839E+06    -1.08692E+06    -107.564E-03     215.550E-03    -107.986E-03     7.01457E-03    -107.696E-03     214.896E-03    -108.106E-03     6.91652E-03
             996     1.61596E-03     111.933E-03    -113.720E+06    -187.979E+06    -103.317E+06    -2.15078E+06    -107.522E-03     215.283E-03    -107.761E-03     11.5368E-03    -107.672E-03     214.662E-03    -107.840E-03     11.3423E-03
             997     2.42524E-03     111.953E-03    -109.077E+06    -173.456E+06    -88.4050E+06    -3.02006E+06    -107.623E-03     215.366E-03    -107.742E-03     17.8065E-03    -107.798E-03     214.793E-03    -107.775E-03     17.5120E-03
             998     3.23246E-03     111.976E-03    -100.987E+06    -154.666E+06    -69.4346E+06    -3.65315E+06    -107.208E-03     214.937E-03    -107.729E-03     22.3560E-03    -107.402E-03     214.425E-03    -107.705E-03     21.9865E-03
             999     4.04054E-03     112.007E-03    -92.6824E+06    -136.781E+06    -51.4923E+06    -4.76729E+06    -106.435E-03     214.047E-03    -107.612E-03     27.4602E-03    -106.647E-03     213.594E-03    -107.537E-03     26.9988E-03
            1000     4.85067E-03     112.041E-03    -84.3237E+06    -120.215E+06    -36.1091E+06    -6.14241E+06    -106.262E-03     213.706E-03    -107.444E-03     32.7245E-03    -106.488E-03     213.311E-03    -107.328E-03     32.1647E-03
            1001     5.65971E-03     112.082E-03    -75.9051E+06    -104.555E+06    -22.8620E+06    -7.06143E+06    -106.787E-03     214.123E-03    -107.336E-03     37.3734E-03    -107.023E-03     213.785E-03    -107.188E-03     36.7264E-03
            1002     6.46884E-03     112.126E-03    -67.8940E+06    -90.0632E+06    -11.1744E+06    -7.18091E+06    -106.770E-03     214.052E-03    -107.281E-03     41.2704E-03    -107.014E-03     213.767E-03    -107.108E-03     40.5596E-03
            1003     7.27850E-03     112.175E-03    -61.0686E+06     -76.089E+06    -1.36350E+06    -7.94854E+06    -105.905E-03     213.089E-03    -107.184E-03     43.5742E-03    -106.157E-03     212.858E-03    -106.992E-03     42.7985E-03
            1004     8.08815E-03     112.223E-03    -54.7219E+06    -63.1011E+06     7.16356E+06    -8.88124E+06    -104.997E-03     212.009E-03    -107.012E-03     45.0356E-03    -105.256E-03     211.829E-03    -106.805E-03     44.1930E-03
            1005     8.89842E-03     112.274E-03    -48.0679E+06    -51.7930E+06     14.7600E+06    -9.05242E+06    -104.625E-03     211.431E-03    -106.806E-03     48.4510E-03    -104.890E-03     211.299E-03    -106.588E-03     47.5470E-03
            1006     9.70950E-03     112.331E-03    -41.5018E+06    -36.6684E+06     22.0774E+06    -8.93592E+06    -104.653E-03     211.263E-03    -106.611E-03     49.5201E-03    -104.928E-03     211.197E-03    -106.387E-03     48.5440E-03
            1007     10.5205E-03     112.382E-03    -35.4805E+06    -23.1689E+06     28.8928E+06    -9.34049E+06    -104.533E-03     210.976E-03    -106.443E-03     49.4334E-03    -104.818E-03     210.969E-03    -106.214E-03     48.3774E-03
            1008     11.3317E-03     112.439E-03    -30.8386E+06    -7.14189E+06     34.5688E+06    -9.81347E+06    -104.383E-03     210.667E-03    -106.283E-03     50.7000E-03    -104.689E-03     210.737E-03    -106.055E-03     49.5660E-03
            1009     12.1439E-03     112.494E-03    -26.2232E+06     7.53630E+06     39.1902E+06    -9.50082E+06    -104.658E-03     210.804E-03    -106.146E-03     49.7255E-03    -104.978E-03     210.944E-03    -105.923E-03     48.5170E-03
            1010     12.9543E-03     112.548E-03    -21.2196E+06     42.5682E+06      48.587E+06    -8.76220E+06    -104.812E-03     210.850E-03    -106.038E-03     47.2421E-03    -105.177E-03     211.151E-03    -105.826E-03     45.9646E-03
            1011     13.7639E-03     112.597E-03    -17.2268E+06     79.0252E+06     56.6378E+06    -8.23117E+06    -104.119E-03     210.047E-03    -105.927E-03     43.6047E-03    -104.534E-03     210.516E-03    -105.734E-03     42.2603E-03
            1012     14.5755E-03     112.640E-03    -12.7513E+06     97.6561E+06     64.9435E+06    -6.22214E+06    -102.454E-03     208.251E-03    -105.797E-03     36.9801E-03    -102.882E-03     208.793E-03    -105.595E-03     35.5964E-03
            1013     15.3905E-03     112.671E-03    -6.89305E+06     112.901E+06     85.6279E+06    -2.43230E+06    -101.786E-03     207.479E-03    -105.693E-03     26.0428E-03    -102.199E-03     208.020E-03    -105.419E-03     24.8671E-03
            1014     808.546E-06     113.099E-03    -119.133E+06    -197.569E+06    -115.392E+06    -1.27293E+06    -107.137E-03     215.674E-03    -108.536E-03     6.81891E-03    -107.277E-03     215.035E-03    -108.654E-03     6.70159E-03
            1015     1.61563E-03     113.111E-03    -113.779E+06    -185.240E+06    -102.912E+06    -2.33218E+06    -108.090E-03     216.013E-03    -107.923E-03     12.5202E-03    -108.244E-03     215.405E-03    -108.004E-03     12.3282E-03
            1016     2.42200E-03     113.128E-03    -108.506E+06    -170.242E+06    -87.5666E+06    -3.56589E+06    -108.016E-03     216.040E-03    -108.024E-03     18.3893E-03    -108.193E-03     215.481E-03    -108.057E-03     18.0979E-03
            1017     3.23044E-03     113.153E-03    -100.721E+06    -152.475E+06    -69.4734E+06    -4.55738E+06    -107.474E-03     215.495E-03    -108.021E-03     22.8348E-03    -107.670E-03     214.994E-03    -108.001E-03     22.4534E-03
            1018     4.03993E-03     113.179E-03    -91.2596E+06    -133.670E+06    -50.8470E+06    -5.38240E+06    -106.572E-03     214.459E-03    -107.887E-03     26.8208E-03    -106.782E-03     214.017E-03    -107.815E-03     26.3613E-03
            1019     4.84981E-03     113.215E-03    -83.0256E+06    -117.139E+06    -35.3679E+06    -6.43231E+06    -106.163E-03     213.841E-03    -107.678E-03     32.2406E-03    -106.386E-03     213.456E-03    -107.565E-03     31.7006E-03
            1020     5.65917E-03     113.256E-03    -74.9898E+06    -102.002E+06    -21.8740E+06    -7.36892E+06    -106.418E-03     213.926E-03    -107.508E-03     36.7296E-03    -106.650E-03     213.593E-03    -107.360E-03     36.1197E-03
            1021     6.46799E-03     113.300E-03    -67.2576E+06    -88.6487E+06    -10.6365E+06    -8.14794E+06    -105.944E-03     213.305E-03    -107.361E-03     39.6958E-03    -106.181E-03     213.019E-03    -107.188E-03     39.0215E-03
            1022     7.27754E-03     113.347E-03    -59.7430E+06    -74.4441E+06    -567.851E+03    -8.31951E+06    -105.106E-03     212.271E-03    -107.166E-03     42.7678E-03    -105.350E-03     212.041E-03    -106.974E-03     42.0246E-03
            1023     8.08839E-03     113.394E-03    -53.0999E+06    -60.1460E+06     8.82227E+06    -8.82874E+06    -104.983E-03     211.938E-03    -106.954E-03     45.5550E-03    -105.239E-03     211.766E-03    -106.746E-03     44.7343E-03
            1024     8.89946E-03     113.445E-03     -46.509E+06    -49.4054E+06     16.6904E+06    -9.95479E+06    -104.737E-03     211.497E-03    -106.760E-03     48.6329E-03    -104.998E-03     211.369E-03    -106.537E-03     47.7404E-03
            1025     9.71132E-03     113.500E-03    -39.9793E+06    -36.2515E+06     23.1710E+06    -10.3340E+06    -104.344E-03     210.902E-03    -106.558E-03     49.9693E-03    -104.612E-03     210.832E-03    -106.332E-03     49.0014E-03
            1026     10.5219E-03     113.554E-03    -34.9248E+06    -22.3174E+06     29.4515E+06    -9.41764E+06    -104.524E-03     210.903E-03    -106.378E-03     50.0444E-03    -104.807E-03     210.896E-03    -106.148E-03     49.0095E-03
            1027     11.3326E-03     113.607E-03    -30.2465E+06    -4.76544E+06     36.0337E+06    -9.73681E+06    -104.560E-03     210.790E-03    -106.230E-03     51.4638E-03    -104.867E-03     210.868E-03    -105.999E-03     50.3434E-03
            1028     12.1432E-03     113.665E-03    -24.9165E+06     8.70332E+06     40.5187E+06    -10.9680E+06    -104.469E-03     210.564E-03    -106.095E-03     50.8404E-03    -104.788E-03     210.708E-03    -105.869E-03     49.6132E-03
            1029     12.9541E-03     113.717E-03    -18.5139E+06     41.7516E+06     49.3083E+06    -10.4678E+06    -104.333E-03     210.299E-03    -105.965E-03     47.9748E-03    -104.688E-03     210.593E-03    -105.752E-03     46.6721E-03
            1030     13.7666E-03     113.767E-03    -12.7832E+06     77.4357E+06     57.7734E+06    -8.30756E+06    -103.476E-03     209.301E-03    -105.825E-03     42.7045E-03    -103.865E-03     209.752E-03    -105.630E-03     41.3755E-03
            1031     14.5793E-03     113.807E-03    -8.93719E+06     94.0489E+06     68.0031E+06    -5.76855E+06    -102.830E-03     208.536E-03    -105.706E-03     35.4768E-03    -103.231E-03     209.042E-03    -105.489E-03     34.1210E-03
            1032     15.3893E-03     113.840E-03    -4.99334E+06     108.271E+06     87.4134E+06    -3.32252E+06    -102.845E-03     208.488E-03    -105.643E-03     25.9261E-03    -103.243E-03     208.999E-03    -105.356E-03     24.7355E-03
            1033     807.851E-06     114.276E-03    -117.800E+06    -194.127E+06    -114.841E+06    -1.44751E+06    -107.441E-03     215.967E-03    -108.526E-03     6.52862E-03    -107.582E-03     215.343E-03    -108.648E-03     6.41022E-03
            1034     1.61577E-03     114.287E-03    -113.474E+06    -182.207E+06    -102.661E+06    -2.78847E+06    -108.045E-03     216.076E-03    -108.031E-03     12.5158E-03    -108.203E-03     215.483E-03    -108.116E-03     12.3148E-03
            1035     2.42424E-03     114.305E-03    -106.823E+06    -166.341E+06    -86.1096E+06    -3.94959E+06    -107.615E-03     215.642E-03    -108.027E-03     18.6635E-03    -107.791E-03     215.099E-03    -108.062E-03     18.3759E-03
            1036     3.23199E-03     114.328E-03    -99.1321E+06    -149.047E+06    -68.2523E+06    -5.37446E+06    -107.428E-03     215.384E-03    -107.956E-03     24.0019E-03    -107.623E-03     214.896E-03    -107.937E-03     23.6180E-03
            1037     4.03915E-03     114.356E-03     -90.764E+06    -130.992E+06    -50.8248E+06    -6.23418E+06    -107.606E-03     215.522E-03    -107.917E-03     27.6320E-03    -107.816E-03     215.093E-03    -107.849E-03     27.1744E-03
            1038     4.84724E-03     114.387E-03    -82.3026E+06    -114.210E+06    -34.7078E+06    -7.02443E+06    -107.019E-03     214.884E-03    -107.865E-03     32.4292E-03    -107.242E-03     214.510E-03    -107.753E-03     31.9076E-03
            1039     5.65690E-03     114.430E-03    -73.8598E+06    -99.4216E+06    -20.7230E+06    -7.86537E+06    -105.859E-03     213.556E-03    -107.698E-03     36.8116E-03    -106.087E-03     213.230E-03    -107.550E-03     36.2348E-03
            1040     6.46700E-03     114.473E-03    -65.9552E+06    -85.7710E+06    -9.13666E+06    -8.89794E+06    -104.883E-03     212.311E-03    -107.428E-03     39.2197E-03    -105.116E-03     212.032E-03    -107.253E-03     38.5724E-03
            1041     7.27914E-03     114.517E-03    -58.1691E+06    -72.7691E+06     877.866E+03    -9.79957E+06    -104.568E-03     211.704E-03    -107.136E-03     42.3911E-03    -104.806E-03     211.475E-03    -106.942E-03     41.6566E-03
            1042     8.09053E-03     114.566E-03    -50.4831E+06    -58.3703E+06     10.4832E+06    -9.65853E+06    -104.923E-03     211.820E-03    -106.897E-03     44.7739E-03    -105.167E-03     211.647E-03    -106.686E-03     43.9749E-03
            1043     8.90023E-03     114.616E-03    -44.6525E+06    -46.8524E+06     18.3003E+06    -9.87876E+06    -104.738E-03     211.445E-03    -106.707E-03     46.6960E-03    -104.989E-03     211.318E-03    -106.482E-03     45.8418E-03
            1044     9.71029E-03     114.669E-03    -39.5186E+06    -34.6986E+06     24.2808E+06    -10.7462E+06    -103.987E-03     210.486E-03    -106.499E-03     49.1263E-03    -104.250E-03     210.415E-03    -106.270E-03     48.1957E-03
            1045     10.5230E-03     114.724E-03    -33.0070E+06    -22.1299E+06     30.6711E+06    -10.6884E+06    -104.162E-03     210.459E-03    -106.297E-03     50.3762E-03    -104.433E-03     210.445E-03    -106.064E-03     49.3583E-03
            1046     11.3340E-03     114.779E-03    -27.4193E+06    -3.68772E+06     37.5571E+06    -9.87686E+06    -104.586E-03     210.726E-03    -106.140E-03     51.0773E-03    -104.879E-03     210.799E-03    -105.907E-03     49.9814E-03
            1047     12.1454E-03     114.834E-03    -23.8661E+06     11.4242E+06     41.9288E+06    -10.7089E+06    -104.040E-03     210.037E-03    -105.997E-03     50.8847E-03    -104.357E-03     210.189E-03    -105.770E-03     49.6824E-03
            1048     12.9570E-03     114.888E-03    -20.3133E+06     42.0874E+06     49.3060E+06    -11.5170E+06    -103.581E-03     209.418E-03    -105.837E-03     49.0483E-03    -103.945E-03     209.717E-03    -105.622E-03     47.7494E-03
            1049     13.7672E-03     114.936E-03    -15.6378E+06     73.3642E+06     56.2746E+06    -9.81138E+06    -103.589E-03     209.274E-03    -105.685E-03     43.0610E-03    -103.982E-03     209.709E-03    -105.487E-03     41.7286E-03
            1050     14.5787E-03     114.974E-03    -10.3828E+06     90.5867E+06     63.4244E+06    -6.48752E+06    -103.678E-03     209.259E-03    -105.581E-03     36.2377E-03    -104.076E-03     209.758E-03    -105.380E-03     34.8678E-03
            1051     15.3915E-03     115.010E-03    -5.04473E+06     105.071E+06     82.2923E+06    -3.23481E+06    -103.659E-03     209.220E-03    -105.561E-03     26.3684E-03    -104.047E-03     209.724E-03    -105.295E-03     25.1784E-03
            1052     807.117E-06     115.452E-03    -117.179E+06    -189.791E+06    -114.242E+06    -1.81701E+06    -108.322E-03     216.607E-03    -108.285E-03     6.85044E-03    -108.464E-03     216.002E-03    -108.411E-03     6.75015E-03
            1053     1.61481E-03     115.463E-03    -112.825E+06    -178.449E+06    -102.362E+06    -3.04727E+06    -107.776E-03     216.008E-03    -108.232E-03     12.0085E-03    -107.936E-03     215.431E-03    -108.322E-03     11.8257E-03
            1054     2.42282E-03     115.480E-03    -105.738E+06    -162.518E+06    -85.1505E+06    -4.50095E+06    -107.204E-03     215.249E-03    -108.045E-03     16.9424E-03    -107.380E-03     214.720E-03    -108.082E-03     16.6818E-03
            1055     3.23254E-03     115.502E-03    -97.6914E+06    -144.805E+06    -66.7221E+06    -5.84626E+06    -107.027E-03     214.896E-03    -107.869E-03     22.8372E-03    -107.221E-03     214.422E-03    -107.851E-03     22.4898E-03
            1056     4.04156E-03     115.532E-03    -90.0485E+06    -127.833E+06    -49.7091E+06    -7.10207E+06    -107.497E-03     215.291E-03    -107.793E-03     28.1273E-03    -107.708E-03     214.873E-03    -107.726E-03     27.6918E-03
            1057     4.84827E-03     115.564E-03    -81.1491E+06    -111.291E+06    -33.4840E+06    -8.22872E+06    -107.303E-03     215.075E-03    -107.772E-03     33.2365E-03    -107.525E-03     214.711E-03    -107.661E-03     32.7188E-03
            1058     5.65671E-03     115.602E-03    -72.5022E+06    -96.6217E+06    -19.5990E+06    -9.24300E+06    -105.779E-03     213.412E-03    -107.632E-03     37.5441E-03    -106.007E-03     213.096E-03    -107.485E-03     36.9554E-03
            1059     6.46853E-03     115.644E-03    -63.9779E+06    -82.3182E+06    -7.40139E+06    -9.90971E+06    -104.824E-03     212.185E-03    -107.361E-03     39.5935E-03    -105.054E-03     211.917E-03    -107.186E-03     38.9462E-03
            1060     7.27846E-03     115.688E-03    -56.2458E+06    -69.8755E+06     2.73466E+06    -10.8022E+06    -104.909E-03     212.000E-03    -107.092E-03     42.3549E-03    -105.140E-03     211.776E-03    -106.895E-03     41.6392E-03
            1061     8.08816E-03     115.737E-03    -49.5169E+06    -58.0846E+06     11.0822E+06    -10.9972E+06    -104.802E-03     211.669E-03    -106.867E-03     45.0708E-03    -105.038E-03     211.491E-03    -106.656E-03     44.2929E-03
            1062     8.89954E-03     115.787E-03    -42.6084E+06    -45.3727E+06     19.3242E+06    -10.7280E+06    -104.442E-03     211.101E-03    -106.659E-03     46.5671E-03    -104.683E-03     210.973E-03    -106.435E-03     45.7316E-03
            1063     9.71238E-03     115.838E-03    -36.2601E+06    -32.1649E+06     26.4487E+06    -11.0489E+06    -104.145E-03     210.597E-03    -106.451E-03     48.4343E-03    -104.394E-03     210.526E-03    -106.220E-03     47.5260E-03
            1064     10.5234E-03     115.893E-03    -30.9952E+06    -21.2578E+06     31.9377E+06    -11.4435E+06    -104.043E-03     210.298E-03    -106.255E-03     50.0168E-03    -104.303E-03     210.280E-03    -106.019E-03     49.0205E-03
            1065     11.3347E-03     115.949E-03    -25.7527E+06    -4.65934E+06     38.0842E+06    -10.4769E+06    -103.898E-03     209.970E-03    -106.073E-03     50.3384E-03    -104.175E-03     210.029E-03    -105.838E-03     49.2794E-03
            1066     12.1456E-03     116.003E-03    -21.2997E+06     13.4717E+06     43.9687E+06    -8.93791E+06    -103.278E-03     209.167E-03    -105.889E-03     49.7138E-03    -103.580E-03     209.313E-03    -105.658E-03     48.5896E-03
            1067     12.9586E-03     116.055E-03    -18.5058E+06     44.9884E+06     51.6775E+06    -9.87685E+06    -102.705E-03     208.392E-03    -105.687E-03     48.8396E-03    -103.062E-03     208.693E-03    -105.467E-03     47.6095E-03
            1068     13.7723E-03     116.106E-03    -14.8925E+06     71.2603E+06     56.3989E+06    -10.4672E+06    -103.452E-03     208.962E-03    -105.509E-03     44.2279E-03    -103.838E-03     209.384E-03    -105.309E-03     42.9038E-03
            1069     14.5825E-03     116.144E-03    -9.87787E+06     85.6485E+06     62.3986E+06    -8.31788E+06    -104.741E-03     210.178E-03    -105.437E-03     37.5576E-03    -105.133E-03     210.658E-03    -105.235E-03     36.1413E-03
            1070     15.3919E-03     116.180E-03    -4.76570E+06     99.8426E+06     80.5085E+06    -4.11514E+06    -104.891E-03     210.372E-03    -105.481E-03     26.2638E-03    -105.268E-03     210.853E-03    -105.216E-03     25.0535E-03
            1071     807.581E-06     116.630E-03    -116.443E+06    -185.312E+06    -113.622E+06    -1.72920E+06    -108.511E-03     216.450E-03    -107.939E-03     6.63432E-03    -108.656E-03     215.865E-03    -108.070E-03     6.55992E-03
            1072     1.61516E-03     116.640E-03    -112.205E+06    -173.792E+06    -101.373E+06    -3.16154E+06    -107.844E-03     216.027E-03    -108.183E-03     12.2182E-03    -108.008E-03     215.471E-03    -108.276E-03     12.0662E-03
            1073     2.42342E-03     116.656E-03    -105.375E+06    -157.905E+06    -84.1587E+06    -4.95965E+06    -107.444E-03     215.507E-03    -108.063E-03     16.9503E-03    -107.624E-03     214.997E-03    -108.102E-03     16.7181E-03
            1074     3.23098E-03     116.677E-03    -97.2905E+06    -140.542E+06    -65.7247E+06    -6.71260E+06    -106.792E-03     214.685E-03    -107.893E-03     22.6847E-03    -106.989E-03     214.228E-03    -107.877E-03     22.3588E-03
            1075     4.04002E-03     116.706E-03    -88.5807E+06    -123.769E+06    -48.1191E+06    -8.20162E+06    -106.325E-03     214.006E-03    -107.681E-03     28.2831E-03    -106.535E-03     213.601E-03    -107.613E-03     27.8697E-03
            1076     4.85063E-03     116.739E-03    -79.5511E+06    -107.631E+06    -32.0703E+06    -9.46265E+06    -106.235E-03     213.723E-03    -107.488E-03     32.6746E-03    -106.453E-03     213.369E-03    -107.377E-03     32.1787E-03
            1077     5.66014E-03     116.775E-03    -71.0250E+06    -93.0980E+06    -18.3870E+06    -10.5642E+06    -105.867E-03     213.180E-03    -107.313E-03     36.6521E-03    -106.091E-03     212.875E-03    -107.167E-03     36.0754E-03
            1078     6.46894E-03     116.815E-03    -62.8651E+06    -79.9866E+06    -6.64295E+06    -11.3646E+06    -105.454E-03     212.579E-03    -107.125E-03     40.5185E-03    -105.681E-03     212.318E-03    -106.951E-03     39.8736E-03
            1079     7.27947E-03     116.860E-03    -55.3206E+06    -66.8876E+06     3.74907E+06    -11.6043E+06    -105.055E-03     211.979E-03    -106.924E-03     43.7109E-03    -105.286E-03     211.766E-03    -106.728E-03     43.0138E-03
            1080     8.09107E-03     116.907E-03    -48.0523E+06    -56.1399E+06     12.2160E+06    -12.2820E+06    -104.580E-03     211.292E-03    -106.711E-03     46.4249E-03    -104.812E-03     211.118E-03    -106.499E-03     45.6584E-03
            1081     8.90228E-03     116.958E-03    -40.8347E+06    -44.4411E+06     19.9802E+06    -12.2891E+06    -104.673E-03     211.185E-03    -106.512E-03     47.7673E-03    -104.906E-03     211.057E-03    -106.288E-03     46.9303E-03
            1082     9.71150E-03     117.008E-03    -34.7547E+06    -31.2898E+06     27.1068E+06    -11.6762E+06    -104.753E-03     211.101E-03    -106.349E-03     49.0039E-03    -104.994E-03     211.030E-03    -106.117E-03     48.1090E-03
            1083     10.5225E-03     117.063E-03    -29.6935E+06    -20.2708E+06     32.6364E+06    -11.3523E+06    -104.158E-03     210.345E-03    -106.187E-03     50.6719E-03    -104.410E-03     210.325E-03    -105.951E-03     49.7078E-03
            1084     11.3350E-03     117.117E-03    -24.7418E+06    -4.34028E+06     38.6278E+06    -11.2591E+06    -103.397E-03     209.393E-03    -105.996E-03     50.5073E-03    -103.666E-03     209.446E-03    -105.760E-03     49.4764E-03
            1085     12.1485E-03     117.172E-03    -19.0392E+06     11.5898E+06     44.6808E+06    -9.31125E+06    -102.988E-03     208.781E-03    -105.792E-03     48.7994E-03    -103.268E-03     208.905E-03    -105.558E-03     47.7249E-03
            1086     12.9604E-03     117.221E-03    -14.9579E+06     47.8278E+06     54.5018E+06    -8.25931E+06    -102.788E-03     208.380E-03    -105.592E-03     47.1176E-03    -103.125E-03     208.676E-03    -105.367E-03     45.9636E-03
            1087     13.7727E-03     117.273E-03    -12.1531E+06     73.1774E+06     59.0838E+06    -9.54974E+06    -103.319E-03     208.742E-03    -105.423E-03     42.9093E-03    -103.691E-03     209.159E-03    -105.216E-03     41.6323E-03
            1088     14.5845E-03     117.316E-03    -8.48270E+06     80.4049E+06     62.4414E+06    -7.86537E+06    -104.807E-03     210.160E-03    -105.353E-03     36.6315E-03    -105.178E-03     210.606E-03    -105.145E-03     35.2479E-03
            1089     15.3934E-03     117.352E-03    -4.93010E+06     93.6273E+06     78.9057E+06    -4.32030E+06    -105.642E-03     211.060E-03    -105.418E-03     25.5360E-03    -106.004E-03     211.508E-03    -105.152E-03     24.3374E-03
            1090     807.654E-06     117.805E-03    -116.597E+06    -181.003E+06    -113.432E+06    -1.66804E+06    -107.909E-03     215.487E-03    -107.578E-03     6.56245E-03    -108.062E-03     214.925E-03    -107.714E-03     6.47316E-03
            1091     1.61589E-03     117.816E-03    -110.991E+06    -168.264E+06    -99.6143E+06    -3.64966E+06    -107.518E-03     215.256E-03    -107.738E-03     12.5560E-03    -107.687E-03     214.724E-03    -107.832E-03     12.3933E-03
            1092     2.42345E-03     117.831E-03    -104.629E+06    -152.492E+06    -83.1421E+06    -5.71397E+06    -107.255E-03     214.932E-03    -107.677E-03     17.9674E-03    -107.442E-03     214.447E-03    -107.720E-03     17.7298E-03
            1093     3.23243E-03     117.852E-03    -96.4503E+06    -135.644E+06    -64.5701E+06    -7.60460E+06    -106.597E-03     214.153E-03    -107.556E-03     23.7740E-03    -106.798E-03     213.718E-03    -107.543E-03     23.4530E-03
            1094     4.04199E-03     117.879E-03    -87.2961E+06    -118.953E+06    -46.8150E+06    -9.50768E+06    -105.866E-03     213.211E-03    -107.346E-03     29.7131E-03    -106.077E-03     212.826E-03    -107.281E-03     29.3089E-03
            1095     4.85137E-03     117.912E-03    -78.4475E+06    -103.496E+06    -31.2637E+06    -10.7861E+06    -105.590E-03     212.704E-03    -107.113E-03     33.2567E-03    -105.807E-03     212.365E-03    -107.006E-03     32.7857E-03
            1096     5.66162E-03     117.948E-03    -69.9933E+06    -89.3685E+06    -17.5085E+06    -11.7180E+06    -105.562E-03     212.484E-03    -106.922E-03     36.3284E-03    -105.783E-03     212.190E-03    -106.779E-03     35.7893E-03
            1097     6.47240E-03     117.987E-03    -61.9483E+06    -77.0084E+06    -5.89862E+06    -12.6534E+06    -105.394E-03     212.153E-03    -106.759E-03     40.6433E-03    -105.618E-03     211.901E-03    -106.587E-03     40.0265E-03
            1098     7.28236E-03     118.031E-03    -54.0212E+06    -64.8430E+06     4.14442E+06    -13.0490E+06    -104.993E-03     211.584E-03    -106.591E-03     43.8162E-03    -105.218E-03     211.375E-03    -106.398E-03     43.1377E-03
            1099     8.09271E-03     118.077E-03    -46.7073E+06    -53.2736E+06     13.0616E+06    -13.4613E+06    -104.805E-03     211.224E-03    -106.419E-03     46.5297E-03    -105.032E-03     211.058E-03    -106.209E-03     45.7874E-03
            1100     8.90341E-03     118.128E-03    -40.6041E+06    -43.3585E+06     19.9912E+06    -13.4039E+06    -104.775E-03     211.035E-03    -106.260E-03     48.6475E-03    -105.005E-03     210.909E-03    -106.038E-03     47.8359E-03
            1101     9.71502E-03     118.179E-03    -34.6133E+06    -31.4434E+06     26.6623E+06    -12.4064E+06    -104.637E-03     210.751E-03    -106.114E-03     50.3887E-03    -104.874E-03     210.676E-03    -105.885E-03     49.5223E-03
            1102     10.5260E-03     118.231E-03    -29.4757E+06    -19.6959E+06     32.7797E+06    -11.3500E+06    -104.248E-03     210.216E-03    -105.968E-03     52.1194E-03    -104.497E-03     210.195E-03    -105.732E-03     51.1943E-03
            1103     11.3370E-03     118.286E-03    -24.9433E+06    -2.63616E+06     39.0238E+06    -11.1678E+06    -103.752E-03     209.556E-03    -105.805E-03     52.0431E-03    -104.023E-03     209.617E-03    -105.570E-03     51.0391E-03
            1104     12.1480E-03     118.338E-03    -20.5274E+06     8.95285E+06     43.1237E+06    -11.0766E+06    -103.784E-03     209.432E-03    -105.648E-03     50.2284E-03    -104.064E-03     209.546E-03    -105.415E-03     49.1501E-03
            1105     12.9603E-03     118.390E-03    -15.0654E+06     47.2108E+06     53.9940E+06    -8.49288E+06    -103.953E-03     209.469E-03    -105.516E-03     47.7243E-03    -104.283E-03     209.757E-03    -105.293E-03     46.6044E-03
            1106     13.7715E-03     118.440E-03    -10.9003E+06     75.7596E+06     60.6258E+06    -7.50692E+06    -103.968E-03     209.375E-03    -105.407E-03     43.9750E-03    -104.337E-03     209.799E-03    -105.198E-03     42.7536E-03
            1107     14.5826E-03     118.486E-03    -8.56564E+06     77.3949E+06     60.1005E+06    -7.40763E+06    -104.460E-03     209.796E-03    -105.336E-03     37.9138E-03    -104.823E-03     210.229E-03    -105.135E-03     36.5677E-03
            1108     15.3943E-03     118.523E-03    -4.10586E+06     88.1720E+06     74.7984E+06    -4.24794E+06    -105.506E-03     210.886E-03    -105.380E-03     25.6921E-03    -105.847E-03     211.309E-03    -105.128E-03     24.5239E-03
            1109     808.787E-06     118.982E-03    -114.709E+06    -174.419E+06    -112.496E+06    -3.09317E+06    -106.773E-03     213.522E-03    -106.749E-03     7.61826E-03    -106.927E-03     212.989E-03    -106.892E-03     7.49798E-03
            1110     1.61693E-03     118.990E-03    -110.179E+06    -162.682E+06    -99.9187E+06    -4.84017E+06    -106.551E-03     213.301E-03    -106.750E-03     13.5122E-03    -106.724E-03     212.796E-03    -106.854E-03     13.3351E-03
            1111     2.42662E-03     119.006E-03    -103.253E+06    -146.800E+06    -82.3894E+06    -6.44051E+06    -106.382E-03     213.090E-03    -106.708E-03     19.7234E-03    -106.571E-03     212.631E-03    -106.758E-03     19.4745E-03
            1112     3.23520E-03     119.025E-03    -95.2848E+06    -129.772E+06    -63.5656E+06    -8.56503E+06    -106.399E-03     213.083E-03    -106.684E-03     24.7675E-03    -106.604E-03     212.674E-03    -106.676E-03     24.4523E-03
            1113     4.04475E-03     119.051E-03    -86.6712E+06    -113.820E+06    -46.2420E+06    -10.5231E+06    -105.971E-03     212.608E-03    -106.637E-03     30.2397E-03    -106.186E-03     212.246E-03    -106.578E-03     29.8517E-03
            1114     4.85475E-03     119.085E-03    -78.0384E+06    -98.9058E+06    -30.7480E+06    -11.8705E+06    -105.544E-03     212.073E-03    -106.529E-03     34.3756E-03    -105.764E-03     211.754E-03    -106.427E-03     33.9269E-03
            1115     5.66461E-03     119.119E-03    -69.5215E+06    -85.4073E+06    -17.1089E+06    -12.9379E+06    -105.450E-03     211.858E-03    -106.408E-03     37.4803E-03    -105.672E-03     211.581E-03    -106.269E-03     36.9676E-03
            1116     6.47423E-03     119.159E-03    -61.5299E+06    -73.3395E+06    -5.70970E+06    -13.8143E+06    -105.188E-03     211.476E-03    -106.288E-03     40.9132E-03    -105.411E-03     211.237E-03    -106.121E-03     40.3297E-03
            1117     7.28538E-03     119.201E-03    -54.0833E+06    -62.5568E+06     3.74160E+06    -14.5616E+06    -104.994E-03     211.153E-03    -106.159E-03     44.1967E-03    -105.218E-03     210.951E-03    -105.971E-03     43.5478E-03
            1118     8.09613E-03     119.249E-03    -47.3392E+06    -51.5929E+06     12.2085E+06    -14.2292E+06    -104.890E-03     210.922E-03    -106.032E-03     47.3664E-03    -105.116E-03     210.762E-03    -105.827E-03     46.6620E-03
            1119     8.90681E-03     119.297E-03    -41.4081E+06    -41.8564E+06     19.4922E+06    -13.9019E+06    -104.482E-03     210.382E-03    -105.899E-03     49.5589E-03    -104.713E-03     210.259E-03    -105.681E-03     48.7981E-03
            1120     9.71798E-03     119.349E-03    -35.9414E+06    -31.1384E+06     25.8574E+06    -13.2523E+06    -104.261E-03     210.015E-03    -105.755E-03     51.1891E-03    -104.498E-03     209.940E-03    -105.528E-03     50.3669E-03
            1121     10.5294E-03     119.401E-03    -30.2030E+06    -19.8481E+06     31.9681E+06    -12.0681E+06    -104.230E-03     209.849E-03    -105.619E-03     52.3037E-03    -104.475E-03     209.823E-03    -105.386E-03     51.4240E-03
            1122     11.3415E-03     119.454E-03    -25.0631E+06    -2.65043E+06     38.4405E+06    -10.8293E+06    -104.187E-03     209.681E-03    -105.494E-03     52.6162E-03    -104.452E-03     209.736E-03    -105.261E-03     51.6706E-03
            1123     12.1535E-03     119.508E-03    -21.1616E+06     10.1693E+06     42.9274E+06    -10.5798E+06    -104.610E-03     210.008E-03    -105.398E-03     52.2467E-03    -104.893E-03     210.127E-03    -105.167E-03     51.2058E-03
            1124     12.9626E-03     119.560E-03    -17.0372E+06     43.5250E+06     51.2974E+06    -9.74146E+06    -104.946E-03     210.277E-03    -105.331E-03     50.2571E-03    -105.276E-03     210.552E-03    -105.113E-03     49.1517E-03
            1125     13.7735E-03     119.609E-03    -12.0245E+06     75.8793E+06     59.9918E+06    -7.01052E+06    -104.936E-03     210.226E-03    -105.290E-03     46.6296E-03    -105.308E-03     210.650E-03    -105.082E-03     45.4564E-03
            1126     14.5842E-03     119.656E-03    -8.08961E+06     78.4014E+06     63.9466E+06    -6.84403E+06    -105.198E-03     210.486E-03    -105.288E-03     40.7694E-03    -105.570E-03     210.922E-03    -105.070E-03     39.4357E-03
            1127     15.3934E-03     119.694E-03    -4.64476E+06     81.1248E+06     74.1660E+06    -4.78639E+06    -105.973E-03     211.329E-03    -105.356E-03     28.2715E-03    -106.313E-03     211.725E-03    -105.096E-03     27.0701E-03
            1128     809.861E-06     120.153E-03    -112.640E+06    -166.362E+06    -109.797E+06    -3.16877E+06    -105.283E-03     210.889E-03    -105.606E-03     7.31751E-03    -105.441E-03     210.390E-03    -105.751E-03     7.22143E-03
            1129     1.62020E-03     120.162E-03    -109.124E+06    -155.986E+06    -99.0418E+06    -5.56548E+06    -105.409E-03     210.875E-03    -105.466E-03     13.1182E-03    -105.587E-03     210.399E-03    -105.576E-03     12.9606E-03
            1130     2.42993E-03     120.176E-03    -102.148E+06    -140.645E+06    -81.9052E+06    -7.88856E+06    -105.625E-03     211.154E-03    -105.528E-03     19.2594E-03    -105.817E-03     210.721E-03    -105.586E-03     19.0303E-03
            1131     3.24004E-03     120.199E-03    -94.4165E+06    -123.901E+06    -63.7061E+06    -9.32792E+06    -105.830E-03     211.462E-03    -105.632E-03     24.5644E-03    -106.037E-03     211.079E-03    -105.634E-03     24.2797E-03
            1132     4.04825E-03     120.223E-03    -86.6891E+06    -108.039E+06    -46.1895E+06    -10.8327E+06    -105.503E-03     211.198E-03    -105.695E-03     30.2401E-03    -105.725E-03     210.862E-03    -105.643E-03     29.8814E-03
            1133     4.85841E-03     120.255E-03    -78.3329E+06    -93.8762E+06    -30.7558E+06    -12.5918E+06    -105.107E-03     210.777E-03    -105.669E-03     35.8960E-03    -105.336E-03     210.483E-03    -105.573E-03     35.4588E-03
            1134     5.66855E-03     120.291E-03    -70.2565E+06    -81.4237E+06    -17.9128E+06    -13.8631E+06    -105.225E-03     210.842E-03    -105.617E-03     39.7335E-03    -105.455E-03     210.585E-03    -105.487E-03     39.2358E-03
            1135     6.47913E-03     120.329E-03    -62.3885E+06    -69.8669E+06    -6.63238E+06    -14.6085E+06    -105.227E-03     210.805E-03    -105.578E-03     43.0312E-03    -105.456E-03     210.584E-03    -105.420E-03     42.4786E-03
            1136     7.28920E-03     120.372E-03    -55.7856E+06    -59.5177E+06     2.68674E+06    -14.8669E+06    -105.028E-03     210.557E-03    -105.529E-03     46.5013E-03    -105.260E-03     210.371E-03    -105.348E-03     45.8970E-03
            1137     8.09972E-03     120.418E-03    -49.7247E+06    -50.1855E+06     10.6408E+06    -14.7829E+06    -104.671E-03     210.124E-03    -105.453E-03     49.2468E-03    -104.905E-03     209.972E-03    -105.255E-03     48.5894E-03
            1138     8.91122E-03     120.467E-03    -43.6346E+06    -40.3302E+06     17.9832E+06    -14.3991E+06    -104.386E-03     209.741E-03    -105.354E-03     51.4131E-03    -104.623E-03     209.627E-03    -105.143E-03     50.6991E-03
            1139     9.72266E-03     120.517E-03    -37.7584E+06    -30.5521E+06     24.3799E+06    -14.0981E+06    -104.443E-03     209.698E-03    -105.255E-03     53.2343E-03    -104.684E-03     209.626E-03    -105.034E-03     52.4554E-03
            1140     10.5341E-03     120.570E-03    -32.3289E+06    -20.4307E+06     30.0254E+06    -13.2989E+06    -104.570E-03     209.743E-03    -105.173E-03     53.6920E-03    -104.815E-03     209.714E-03    -104.947E-03     52.8589E-03
            1141     11.3447E-03     120.623E-03    -26.8385E+06    -3.71576E+06     36.8090E+06    -11.6344E+06    -104.616E-03     209.723E-03    -105.107E-03     53.6840E-03    -104.877E-03     209.769E-03    -104.878E-03     52.8003E-03
            1142     12.1552E-03     120.676E-03    -21.5808E+06     10.8789E+06     42.7444E+06    -10.0865E+06    -104.767E-03     209.823E-03    -105.056E-03     53.7822E-03    -105.046E-03     209.940E-03    -104.827E-03     52.8120E-03
            1143     12.9675E-03     120.731E-03    -17.6654E+06     42.8499E+06     51.0538E+06    -9.58550E+06    -105.115E-03     210.134E-03    -105.019E-03     52.2636E-03    -105.446E-03     210.406E-03    -104.801E-03     51.1834E-03
            1144     13.7770E-03     120.780E-03    -12.9723E+06     73.7606E+06     59.0993E+06    -8.81027E+06    -105.726E-03     210.746E-03    -105.020E-03     49.4229E-03    -106.101E-03     211.165E-03    -104.813E-03     48.2367E-03
            1145     14.5863E-03     120.827E-03    -7.47082E+06     76.8647E+06     65.4154E+06    -6.83721E+06    -106.520E-03     211.616E-03    -105.096E-03     44.0265E-03    -106.892E-03     212.045E-03    -104.870E-03     42.7029E-03
            1146     15.3962E-03     120.866E-03    -3.61502E+06     76.2428E+06     74.9505E+06    -3.95189E+06    -107.783E-03     213.037E-03    -105.254E-03     31.7176E-03    -108.119E-03     213.413E-03    -104.985E-03     30.5036E-03
            1147     810.538E-06     121.321E-03    -111.877E+06    -158.352E+06    -108.992E+06    -3.06335E+06    -104.190E-03     208.698E-03    -104.508E-03     6.37571E-03    -104.357E-03     208.237E-03    -104.661E-03     6.30263E-03
            1148     1.62142E-03     121.331E-03    -107.494E+06    -148.159E+06    -97.6531E+06    -5.66026E+06    -104.453E-03     208.853E-03    -104.400E-03     13.0963E-03    -104.636E-03     208.412E-03    -104.517E-03     12.9524E-03
            1149     2.43144E-03     121.346E-03    -102.199E+06    -134.336E+06    -82.2056E+06    -7.78244E+06    -104.665E-03     209.162E-03    -104.497E-03     19.3264E-03    -104.866E-03     208.761E-03    -104.565E-03     19.1267E-03
            1150     3.24124E-03     121.368E-03    -94.9231E+06    -118.252E+06    -64.1104E+06    -9.49007E+06    -104.393E-03     208.959E-03    -104.566E-03     25.1784E-03    -104.609E-03     208.604E-03    -104.577E-03     24.9203E-03
            1151     4.05344E-03     121.393E-03    -86.8803E+06    -101.996E+06    -46.6399E+06    -10.9471E+06    -104.320E-03     208.892E-03    -104.573E-03     30.7993E-03    -104.548E-03     208.586E-03    -104.532E-03     30.4808E-03
            1152     4.86433E-03     121.424E-03    -79.4491E+06    -88.9634E+06    -31.8953E+06    -12.7062E+06    -104.371E-03     208.940E-03    -104.568E-03     36.8027E-03    -104.608E-03     208.671E-03    -104.484E-03     36.4150E-03
            1153     5.67559E-03     121.460E-03    -71.8853E+06    -77.0873E+06    -19.2907E+06    -13.9472E+06    -104.457E-03     209.021E-03    -104.564E-03     41.1613E-03    -104.696E-03     208.787E-03    -104.444E-03     40.7172E-03
            1154     6.48581E-03     121.499E-03    -65.2887E+06    -66.4997E+06    -8.67896E+06    -14.3628E+06    -104.651E-03     209.219E-03    -104.568E-03     44.8717E-03    -104.893E-03     209.018E-03    -104.421E-03     44.3795E-03
            1155     7.29642E-03     121.542E-03    -58.9518E+06    -56.8566E+06     710.851E+03    -14.5186E+06    -104.602E-03     209.174E-03    -104.572E-03     49.1604E-03    -104.847E-03     209.006E-03    -104.401E-03     48.6116E-03
            1156     8.10749E-03     121.587E-03    -52.8066E+06    -47.5501E+06     8.81598E+06    -14.9841E+06    -104.467E-03     209.022E-03    -104.555E-03     52.3865E-03    -104.715E-03     208.888E-03    -104.365E-03     51.7776E-03
            1157     8.91852E-03     121.635E-03    -46.7078E+06    -38.7349E+06     15.8329E+06    -15.1945E+06    -104.637E-03     209.169E-03    -104.533E-03     54.7602E-03    -104.885E-03     209.068E-03    -104.330E-03     54.0893E-03
            1158     9.72958E-03     121.686E-03    -40.9047E+06    -29.3636E+06     22.2110E+06    -14.9780E+06    -104.979E-03     209.508E-03    -104.529E-03     56.3529E-03    -105.230E-03     209.445E-03    -104.316E-03     55.6257E-03
            1159     10.5399E-03     121.739E-03    -34.9636E+06    -19.8463E+06     28.2119E+06    -14.7458E+06    -105.232E-03     209.777E-03    -104.545E-03     56.6882E-03    -105.484E-03     209.753E-03    -104.324E-03     55.8942E-03
            1160     11.3510E-03     121.792E-03    -28.8254E+06    -4.67228E+06     34.9162E+06    -13.9553E+06    -105.355E-03     209.924E-03    -104.569E-03     56.5705E-03    -105.620E-03     209.968E-03    -104.345E-03     55.6952E-03
            1161     12.1624E-03     121.846E-03    -22.5500E+06     9.53585E+06     41.4860E+06    -12.3476E+06    -105.447E-03     210.046E-03    -104.598E-03     56.1187E-03    -105.724E-03     210.156E-03    -104.372E-03     55.1589E-03
            1162     12.9720E-03     121.899E-03    -16.1582E+06     42.9219E+06     51.7284E+06    -10.1228E+06    -105.695E-03     210.325E-03    -104.630E-03     53.7697E-03    -106.017E-03     210.592E-03    -104.410E-03     52.7146E-03
            1163     13.7834E-03     121.951E-03    -11.5887E+06     72.9814E+06     59.2971E+06    -9.21691E+06    -106.749E-03     211.446E-03    -104.697E-03     50.2621E-03    -107.114E-03     211.857E-03    -104.489E-03     49.0886E-03
            1164     14.5925E-03     121.999E-03    -8.07740E+06     72.8190E+06     62.6287E+06    -7.13773E+06    -108.369E-03     213.230E-03    -104.861E-03     43.8518E-03    -108.728E-03     213.638E-03    -104.642E-03     42.5501E-03
            1165     15.3989E-03     122.040E-03    -3.70223E+06     71.0957E+06     72.3069E+06    -3.33854E+06    -109.856E-03     214.991E-03    -105.135E-03     32.0254E-03    -110.178E-03     215.342E-03    -104.871E-03     30.8279E-03
            1166     811.480E-06     122.488E-03    -112.000E+06    -150.628E+06    -109.297E+06    -3.02494E+06    -103.265E-03     206.516E-03    -103.251E-03     6.46978E-03    -103.443E-03     206.094E-03    -103.416E-03     6.41950E-03
            1167     1.62290E-03     122.497E-03    -108.677E+06    -141.066E+06    -98.2824E+06    -5.09699E+06    -103.211E-03     206.488E-03    -103.277E-03     14.1740E-03    -103.409E-03     206.085E-03    -103.406E-03     14.0550E-03
            1168     2.43466E-03     122.515E-03    -103.468E+06    -127.610E+06    -83.4170E+06    -7.23040E+06    -102.980E-03     206.244E-03    -103.264E-03     20.5304E-03    -103.195E-03     205.880E-03    -103.346E-03     20.3538E-03
            1169     3.24735E-03     122.534E-03    -96.5814E+06    -112.372E+06    -66.0164E+06    -9.13314E+06    -102.982E-03     206.223E-03    -103.241E-03     26.4486E-03    -103.212E-03     205.903E-03    -103.268E-03     26.2136E-03
            1170     4.05840E-03     122.560E-03    -89.2854E+06    -97.3396E+06    -49.3094E+06    -10.4277E+06    -103.270E-03     206.528E-03    -103.259E-03     31.9599E-03    -103.511E-03     206.251E-03    -103.235E-03     31.6861E-03
            1171     4.86986E-03     122.591E-03    -82.1164E+06    -83.6979E+06    -34.2155E+06    -11.4864E+06    -103.263E-03     206.556E-03    -103.293E-03     37.5183E-03    -103.513E-03     206.317E-03    -103.224E-03     37.2076E-03
            1172     5.68124E-03     122.627E-03    -75.7178E+06    -72.7373E+06    -21.6387E+06    -12.6930E+06    -103.009E-03     206.300E-03    -103.290E-03     42.9484E-03    -103.267E-03     206.093E-03    -103.183E-03     42.5801E-03
            1173     6.49367E-03     122.666E-03    -69.5231E+06    -63.0067E+06    -11.2124E+06    -13.5451E+06    -103.253E-03     206.525E-03    -103.272E-03     47.7426E-03    -103.515E-03     206.348E-03    -103.136E-03     47.3207E-03
            1174     7.30572E-03     122.709E-03    -62.9836E+06    -53.7281E+06    -1.88181E+06    -14.4546E+06    -103.737E-03     207.023E-03    -103.287E-03     51.8137E-03    -103.998E-03     206.876E-03    -103.127E-03     51.3351E-03
            1175     8.11753E-03     122.754E-03    -56.6983E+06    -44.5171E+06     6.19691E+06    -15.0107E+06    -104.194E-03     207.528E-03    -103.334E-03     55.1553E-03    -104.456E-03     207.413E-03    -103.156E-03     54.6177E-03
            1176     8.92875E-03     122.803E-03    -50.7169E+06    -36.0482E+06     13.3898E+06    -15.7032E+06    -104.894E-03     208.310E-03    -103.417E-03     58.1064E-03    -105.157E-03     208.227E-03    -103.224E-03     57.4974E-03
            1177     9.73907E-03     122.855E-03    -44.2563E+06    -26.9480E+06     20.1429E+06    -16.5879E+06    -105.465E-03     208.995E-03    -103.531E-03     59.8744E-03    -105.728E-03     208.948E-03    -103.327E-03     59.1843E-03
            1178     10.5498E-03     122.908E-03    -37.3176E+06    -17.9578E+06     26.4752E+06      -17.17E+06    -105.994E-03     209.659E-03    -103.665E-03     60.4139E-03    -106.255E-03     209.648E-03    -103.453E-03     59.6304E-03
            1179     11.3594E-03     122.961E-03    -30.4526E+06    -4.28099E+06     33.0701E+06    -17.1801E+06    -106.786E-03     210.609E-03    -103.823E-03     59.7051E-03    -107.055E-03     210.659E-03    -103.607E-03     58.8197E-03
            1180     12.1682E-03     123.015E-03    -23.8739E+06     7.62258E+06     39.0476E+06    -15.8447E+06    -107.409E-03     211.419E-03    -104.010E-03     57.7979E-03    -107.682E-03     211.521E-03    -103.791E-03     56.8253E-03
            1181     12.9782E-03     123.070E-03    -17.6521E+06     38.9815E+06     48.9733E+06    -12.8188E+06    -107.961E-03     212.169E-03    -104.208E-03     54.5365E-03    -108.274E-03     212.416E-03    -103.994E-03     53.4874E-03
            1182     13.7856E-03     123.122E-03    -12.1353E+06     71.3663E+06     58.2976E+06    -8.93932E+06    -109.018E-03     213.453E-03    -104.435E-03     50.4459E-03    -109.375E-03     213.851E-03    -104.229E-03     49.3102E-03
            1183     14.5919E-03     123.175E-03    -7.86179E+06     71.7295E+06     62.9870E+06    -6.62935E+06    -110.472E-03     215.211E-03    -104.739E-03     43.8339E-03    -110.824E-03     215.607E-03    -104.517E-03     42.5616E-03
            1184     15.3973E-03     123.216E-03    -4.57408E+06     65.5228E+06     70.0958E+06    -3.99214E+06    -110.891E-03     215.987E-03    -105.096E-03     31.8069E-03    -111.201E-03     216.310E-03    -104.834E-03     30.6265E-03
            1185     812.900E-06     123.652E-03    -116.096E+06    -144.270E+06    -112.723E+06    -1.97199E+06    -101.848E-03     203.513E-03    -101.665E-03     7.49544E-03    -102.051E-03     203.133E-03    -101.851E-03     7.45214E-03
            1186     1.62525E-03     123.662E-03    -112.708E+06    -134.416E+06    -101.955E+06    -4.23496E+06    -101.623E-03     203.382E-03    -101.759E-03     14.3279E-03    -101.845E-03     203.023E-03    -101.910E-03     14.2370E-03
            1187     2.43871E-03     123.676E-03    -107.033E+06    -121.069E+06    -86.8609E+06    -6.34761E+06    -101.191E-03     202.884E-03    -101.693E-03     20.8168E-03    -101.426E-03     202.561E-03    -101.796E-03     20.6796E-03
            1188     3.25137E-03     123.698E-03    -101.167E+06    -106.988E+06    -70.5668E+06    -8.13396E+06    -101.408E-03     203.041E-03    -101.633E-03     27.6209E-03    -101.660E-03     202.759E-03    -101.684E-03     27.4367E-03
            1189     4.06445E-03     123.724E-03    -94.2724E+06    -93.0884E+06    -53.9911E+06    -9.56504E+06    -101.728E-03     203.385E-03    -101.657E-03     34.1512E-03    -101.992E-03     203.140E-03    -101.655E-03     33.9293E-03
            1190     4.87716E-03     123.755E-03    -86.9157E+06    -79.7298E+06    -38.3848E+06    -10.0299E+06    -101.619E-03     203.310E-03    -101.691E-03     39.9312E-03    -101.891E-03     203.102E-03    -101.641E-03     39.6831E-03
            1191     5.69122E-03     123.790E-03    -80.0867E+06    -68.0936E+06    -24.7161E+06    -10.9417E+06    -101.398E-03     203.081E-03    -101.683E-03     45.4168E-03    -101.676E-03     202.905E-03    -101.592E-03     45.1264E-03
            1192     6.50502E-03     123.830E-03    -73.4836E+06    -58.6985E+06    -13.8433E+06    -12.6526E+06    -101.866E-03     203.539E-03    -101.674E-03     50.6839E-03    -102.145E-03     203.389E-03    -101.551E-03     50.3400E-03
            1193     7.31755E-03     123.874E-03    -67.1929E+06    -49.6706E+06    -4.89548E+06    -13.9994E+06    -102.837E-03     204.566E-03    -101.729E-03     54.5349E-03    -103.115E-03     204.444E-03    -101.584E-03     54.1397E-03
            1194     8.12930E-03     123.919E-03    -60.4799E+06    -40.7270E+06     3.60526E+06    -15.5627E+06    -103.824E-03     205.687E-03    -101.863E-03     58.2934E-03    -104.101E-03     205.594E-03    -101.698E-03     57.8191E-03
            1195     8.94074E-03     123.970E-03    -52.9373E+06    -31.9376E+06     11.5743E+06    -17.3473E+06    -104.890E-03     206.945E-03    -102.055E-03     61.5956E-03    -105.163E-03     206.883E-03    -101.874E-03     61.0280E-03
            1196     9.75159E-03     124.023E-03    -45.7093E+06    -23.1925E+06     18.6402E+06    -18.8065E+06    -105.967E-03     208.262E-03    -102.295E-03     62.9809E-03    -106.236E-03     208.233E-03    -102.102E-03     62.3188E-03
            1197     10.5614E-03     124.076E-03    -39.0392E+06    -15.0335E+06     24.7331E+06    -19.9948E+06    -107.220E-03     209.803E-03    -102.583E-03     63.4222E-03    -107.488E-03     209.808E-03    -102.381E-03     62.6520E-03
            1198     11.3704E-03     124.132E-03    -32.4150E+06    -2.79702E+06     31.2100E+06    -20.3149E+06    -108.738E-03     211.664E-03    -102.925E-03     62.6497E-03    -109.012E-03     211.722E-03    -102.718E-03     61.7736E-03
            1199     12.1777E-03     124.188E-03    -26.3497E+06     6.71020E+06     36.4572E+06    -19.4264E+06    -110.097E-03     213.417E-03    -103.320E-03     60.2223E-03    -110.374E-03     213.519E-03    -103.109E-03     59.2415E-03
            1200     12.9830E-03     124.242E-03    -19.2492E+06     34.1020E+06     45.7267E+06    -16.3901E+06    -111.059E-03     214.796E-03    -103.737E-03     57.2811E-03    -111.368E-03     215.025E-03    -103.530E-03     56.2005E-03
            1201     13.7887E-03     124.298E-03    -12.1623E+06     65.1368E+06     55.5830E+06    -11.3106E+06    -111.828E-03     215.988E-03    -104.161E-03     53.6528E-03    -112.174E-03     216.362E-03    -103.960E-03     52.4833E-03
            1202     14.5941E-03     124.350E-03    -7.15720E+06     67.7127E+06     62.0217E+06    -6.61457E+06    -112.273E-03     216.880E-03    -104.607E-03     47.2818E-03    -112.618E-03     217.260E-03    -104.385E-03     46.0076E-03
            1203     15.3982E-03     124.397E-03    -4.02972E+06     61.4010E+06     70.3509E+06    -3.49447E+06    -111.805E-03     216.850E-03    -105.046E-03     33.2597E-03    -112.107E-03     217.153E-03    -104.777E-03     32.0966E-03
            1204     814.252E-06     124.812E-03    -125.571E+06    -138.348E+06    -123.701E+06    -2.39188E+06    -99.6341E-03     198.843E-03    -99.2087E-03     9.85759E-03    -99.8809E-03     198.522E-03    -99.4446E-03     9.80029E-03
            1205     1.62837E-03     124.822E-03    -121.512E+06    -128.480E+06    -112.042E+06    -4.08715E+06    -99.7367E-03     199.245E-03    -99.5079E-03     15.9337E-03    -99.9971E-03     198.942E-03    -99.7056E-03     15.8624E-03
            1206     2.44267E-03     124.835E-03    -116.100E+06    -115.767E+06    -95.9949E+06    -5.53738E+06    -99.6413E-03     199.262E-03    -99.6203E-03     22.7973E-03    -99.9157E-03     198.991E-03    -99.7641E-03     22.6998E-03
            1207     3.25803E-03     124.857E-03    -108.857E+06    -101.701E+06    -77.8698E+06    -7.31569E+06    -99.5289E-03     199.190E-03    -99.6610E-03     29.7557E-03    -99.8151E-03     198.954E-03    -99.7451E-03     29.6232E-03
            1208     4.07287E-03     124.883E-03    -101.364E+06    -88.6301E+06    -60.3829E+06    -8.72629E+06    -99.4781E-03     199.148E-03    -99.6704E-03     36.1178E-03    -99.7724E-03     198.943E-03    -99.6968E-03     35.9589E-03
            1209     4.88791E-03     124.915E-03    -92.8043E+06    -76.0530E+06    -43.7986E+06    -9.92294E+06    -99.7066E-03     199.392E-03    -99.6853E-03     41.8530E-03    -100.002E-03     199.214E-03    -99.6595E-03     41.6653E-03
            1210     5.70183E-03     124.949E-03    -84.1850E+06    -64.0661E+06    -29.4102E+06    -10.8866E+06    -100.187E-03     199.920E-03    -99.7330E-03     47.4567E-03    -100.480E-03     199.772E-03    -99.6651E-03     47.2367E-03
            1211     6.51594E-03     124.990E-03    -76.5699E+06    -53.8462E+06    -17.2461E+06    -12.4101E+06    -100.789E-03     200.610E-03    -99.8211E-03     53.2810E-03    -101.081E-03     200.489E-03    -99.7182E-03     53.0070E-03
            1212     7.33014E-03     125.035E-03    -68.6348E+06    -44.3879E+06    -6.77084E+06    -14.6806E+06    -101.876E-03     201.842E-03    -99.9656E-03     57.5840E-03    -102.162E-03     201.746E-03    -99.8355E-03     57.2371E-03
            1213     8.14335E-03     125.083E-03    -60.3931E+06    -35.0496E+06     2.46532E+06    -17.2679E+06    -103.497E-03     203.698E-03    -100.201E-03     61.3623E-03    -103.775E-03     203.630E-03    -100.050E-03     60.9253E-03
            1214     8.95492E-03     125.135E-03    -52.7883E+06    -26.8915E+06     10.4676E+06    -19.5490E+06    -105.112E-03     205.642E-03    -100.530E-03     64.3033E-03    -105.385E-03     205.601E-03    -100.362E-03     63.7711E-03
            1215     9.76529E-03     125.189E-03    -45.7851E+06    -19.0582E+06     17.4295E+06    -21.2339E+06    -106.859E-03     207.794E-03    -100.935E-03     65.5208E-03    -107.127E-03     207.781E-03    -100.754E-03     64.8926E-03
            1216     10.5740E-03     125.246E-03    -38.7990E+06    -11.2042E+06     24.1520E+06    -22.4142E+06    -108.772E-03     210.187E-03    -101.415E-03     65.9425E-03    -109.037E-03     210.205E-03    -101.222E-03     65.2050E-03
            1217     11.3808E-03     125.304E-03    -32.5439E+06    -627.948E+03     30.4377E+06    -23.0434E+06    -110.570E-03     212.524E-03    -101.955E-03     65.4224E-03    -110.841E-03     212.590E-03    -101.754E-03     64.5638E-03
            1218     12.1865E-03     125.363E-03    -25.9437E+06     7.02463E+06     35.8166E+06    -22.7194E+06    -112.328E-03     214.871E-03    -102.543E-03     63.3497E-03    -112.599E-03     214.971E-03    -102.336E-03     62.3625E-03
            1219     12.9912E-03     125.419E-03    -19.4436E+06     30.2494E+06     43.9012E+06    -20.2782E+06    -113.708E-03     216.861E-03    -103.153E-03     60.8481E-03    -114.009E-03     217.073E-03    -102.949E-03     59.7383E-03
            1220     13.7945E-03     125.476E-03    -13.4466E+06     56.2681E+06     51.9846E+06    -14.7297E+06    -114.364E-03     218.119E-03    -103.755E-03     57.1909E-03    -114.701E-03     218.457E-03    -103.557E-03     55.9846E-03
            1221     14.5968E-03     125.530E-03    -8.26726E+06     60.1422E+06     58.0672E+06    -7.99813E+06    -114.134E-03     218.470E-03    -104.336E-03     49.9011E-03    -114.471E-03     218.823E-03    -104.121E-03     48.6068E-03
            1222     15.4012E-03     125.574E-03    -3.22513E+06     56.8598E+06     69.7141E+06    -3.30755E+06    -113.911E-03     218.809E-03    -104.898E-03     34.9590E-03    -114.205E-03     219.092E-03    -104.627E-03     33.7758E-03
            1223     817.745E-06     125.966E-03    -144.854E+06    -131.286E+06    -142.740E+06    -3.60011E+06    -96.5209E-03     193.156E-03    -96.6349E-03     10.2576E-03    -96.8462E-03     192.925E-03    -96.9482E-03     10.2009E-03
            1224     1.63455E-03     125.976E-03    -139.548E+06    -121.891E+06    -129.776E+06    -5.64982E+06    -97.0852E-03     193.791E-03    -96.7054E-03     16.6477E-03    -97.4191E-03     193.572E-03    -96.9752E-03     16.5820E-03
            1225     2.45038E-03     125.991E-03    -131.268E+06    -109.729E+06    -111.680E+06    -8.43535E+06    -97.6155E-03     194.579E-03    -96.9634E-03     24.3267E-03    -97.9507E-03     194.382E-03    -97.1723E-03     24.2245E-03
            1226     3.26539E-03     126.012E-03    -120.940E+06    -96.6978E+06    -90.6934E+06    -9.94119E+06    -97.6372E-03     194.825E-03    -97.1879E-03     31.3906E-03    -97.9704E-03     194.648E-03    -97.3258E-03     31.2700E-03
            1227     4.08183E-03     126.038E-03    -109.635E+06    -83.6189E+06    -69.7028E+06    -11.0770E+06    -97.5217E-03     194.838E-03    -97.3160E-03     37.7913E-03    -97.8478E-03     194.680E-03    -97.3842E-03     37.6544E-03
            1228     4.89844E-03     126.069E-03    -98.5763E+06    -71.4818E+06    -51.2409E+06    -12.4705E+06    -97.7817E-03     195.182E-03    -97.4003E-03     43.7151E-03    -98.0977E-03     195.043E-03    -97.4099E-03     43.5526E-03
            1229     5.71496E-03     126.105E-03    -87.6601E+06    -60.0070E+06    -35.0858E+06    -13.7918E+06    -98.7275E-03     196.255E-03    -97.5280E-03     50.2278E-03    -99.0315E-03     196.137E-03    -97.4893E-03     50.0242E-03
            1230     6.53009E-03     126.146E-03    -76.7777E+06    -48.4695E+06    -20.6103E+06    -15.5077E+06    -100.012E-03     197.756E-03    -97.7440E-03     56.1550E-03    -100.303E-03     197.662E-03    -97.6654E-03     55.8936E-03
            1231     7.34477E-03     126.193E-03    -66.4709E+06    -38.2233E+06    -8.21907E+06    -17.8202E+06    -101.591E-03     199.643E-03    -98.0522E-03     60.6072E-03    -101.868E-03     199.573E-03    -97.9415E-03     60.2739E-03
            1232     8.15755E-03     126.244E-03    -57.6351E+06    -29.3065E+06     1.84311E+06    -19.7966E+06    -103.645E-03     202.108E-03    -98.4630E-03     63.8000E-03    -103.911E-03     202.060E-03    -98.3277E-03     63.3961E-03
            1233     8.96892E-03     126.298E-03    -50.2335E+06    -21.4802E+06     10.4051E+06    -21.5669E+06    -105.697E-03     204.672E-03    -98.9753E-03     66.1693E-03    -105.958E-03     204.648E-03    -98.8193E-03     65.6786E-03
            1234     9.77858E-03     126.356E-03    -43.1783E+06    -14.2303E+06     18.0672E+06    -23.4912E+06    -107.774E-03     207.340E-03    -99.5662E-03     67.9118E-03    -108.032E-03     207.342E-03    -99.3926E-03     67.3119E-03
            1235     10.5864E-03     126.416E-03    -36.4151E+06    -7.02466E+06     25.1135E+06    -24.8944E+06    -110.014E-03     210.240E-03    -100.226E-03     68.8446E-03    -110.270E-03     210.269E-03    -100.038E-03     68.1279E-03
            1236     11.3928E-03     126.477E-03    -30.0762E+06     2.17544E+06     31.5681E+06    -25.5317E+06    -112.144E-03     213.087E-03    -100.943E-03     68.6588E-03    -112.406E-03     213.158E-03    -100.744E-03     67.8161E-03
            1237     12.1975E-03     126.538E-03    -24.0386E+06     7.33922E+06     36.5138E+06    -25.0157E+06    -114.112E-03     215.814E-03    -101.702E-03     66.7313E-03    -114.372E-03     215.909E-03    -101.495E-03     65.7609E-03
            1238     13.0002E-03     126.598E-03    -19.2137E+06     26.7360E+06     43.2002E+06    -22.4072E+06    -115.750E-03     218.225E-03    -102.475E-03     63.8378E-03    -116.040E-03     218.416E-03    -102.270E-03     62.7450E-03
            1239     13.8016E-03     126.657E-03    -15.0189E+06     47.5867E+06     49.8194E+06    -17.1099E+06    -116.570E-03     219.807E-03    -103.237E-03     59.5864E-03    -116.896E-03     220.104E-03    -103.035E-03     58.3852E-03
            1240     14.6038E-03     126.710E-03    -9.67522E+06     52.1515E+06     56.3929E+06    -10.4067E+06    -116.702E-03     220.677E-03    -103.975E-03     51.3036E-03    -117.029E-03     220.991E-03    -103.755E-03     49.9983E-03
            1241     15.4047E-03     126.755E-03    -4.60134E+06     50.9289E+06     68.8288E+06    -4.46666E+06    -117.104E-03     221.809E-03    -104.705E-03     36.5638E-03    -117.396E-03     222.065E-03    -104.428E-03     35.3565E-03
            1242     818.011E-06     127.113E-03    -168.614E+06    -120.308E+06    -165.444E+06    -5.89537E+06    -94.1306E-03     188.388E-03    -94.2569E-03     9.55930E-03    -94.5582E-03     188.278E-03    -94.6652E-03     9.49224E-03
            1243     1.63753E-03     127.122E-03    -162.183E+06    -111.476E+06    -152.019E+06    -9.83689E+06    -94.1161E-03     188.325E-03    -94.2090E-03     16.3462E-03    -94.5455E-03     188.224E-03    -94.5723E-03     16.2477E-03
            1244     2.45648E-03     127.140E-03    -151.860E+06    -100.167E+06    -131.490E+06    -13.8431E+06    -94.5876E-03     188.886E-03    -94.2985E-03     24.1772E-03    -95.0097E-03     188.794E-03    -94.5905E-03     24.0407E-03
            1245     3.27538E-03     127.160E-03    -139.235E+06    -88.6476E+06    -108.115E+06    -17.5243E+06    -95.0712E-03     189.561E-03    -94.4894E-03     31.9067E-03    -95.4805E-03     189.474E-03    -94.6996E-03     31.7299E-03
            1246     4.09310E-03     127.188E-03    -123.964E+06    -77.0870E+06    -84.8426E+06    -20.1984E+06    -95.5281E-03     190.229E-03    -94.7010E-03     39.0933E-03    -95.9112E-03     190.144E-03    -94.8337E-03     38.8798E-03
            1247     4.91068E-03     127.219E-03    -107.808E+06    -66.0492E+06    -62.9222E+06    -21.5397E+06    -96.1931E-03     191.119E-03    -94.9257E-03     45.5163E-03    -96.5433E-03     191.034E-03    -94.9882E-03     45.2777E-03
            1248     5.72834E-03     127.256E-03    -91.4389E+06    -54.5113E+06    -42.9557E+06    -22.8192E+06    -97.6790E-03     192.896E-03    -95.2174E-03     52.0704E-03    -97.9946E-03     192.818E-03    -95.2205E-03     51.7965E-03
            1249     6.54476E-03     127.300E-03    -76.0564E+06    -43.8178E+06    -25.6814E+06    -23.4021E+06    -99.6936E-03     195.326E-03    -95.6320E-03     57.0711E-03    -99.9750E-03     195.256E-03    -95.5866E-03     56.7688E-03
            1250     7.35868E-03     127.349E-03    -63.6538E+06    -33.9498E+06    -11.0222E+06    -23.2102E+06    -101.714E-03     197.875E-03    -96.1608E-03     61.8325E-03    -101.974E-03     197.820E-03    -96.0744E-03     61.4918E-03
            1251     8.17152E-03     127.404E-03    -53.9013E+06    -24.7291E+06     1.49600E+06    -23.5311E+06    -103.882E-03     200.660E-03    -96.7772E-03     65.8113E-03    -104.131E-03     200.625E-03    -96.6557E-03     65.4104E-03
            1252     8.98221E-03     127.461E-03    -45.7125E+06    -16.2213E+06     11.9088E+06    -24.4141E+06    -106.200E-03     203.671E-03    -97.4707E-03     68.5462E-03    -106.444E-03     203.660E-03    -97.3214E-03     68.0653E-03
            1253     9.79153E-03     127.522E-03    -38.3676E+06    -8.36859E+06     20.9044E+06    -25.8321E+06    -108.516E-03     206.748E-03    -98.2317E-03     70.6844E-03    -108.758E-03     206.763E-03    -98.0595E-03     70.1008E-03
            1254     10.5993E-03     127.585E-03    -31.8364E+06    -2.84725E+06     27.9307E+06    -27.1898E+06    -110.971E-03     210.021E-03    -99.0500E-03     71.8267E-03    -111.210E-03     210.057E-03    -98.8601E-03     71.1296E-03
            1255     11.4045E-03     127.650E-03    -26.0362E+06     3.96988E+06     34.2791E+06    -26.9413E+06    -113.495E-03     213.419E-03    -99.9242E-03     71.5295E-03    -113.737E-03     213.484E-03    -99.7208E-03     70.7260E-03
            1256     12.2078E-03     127.714E-03     -21.647E+06     8.10145E+06     38.8705E+06    -25.8936E+06    -115.800E-03     216.643E-03    -100.843E-03     69.5597E-03    -116.047E-03     216.729E-03    -100.629E-03     68.6396E-03
            1257     13.0095E-03     127.778E-03    -17.5760E+06     22.9200E+06     44.3849E+06    -23.2602E+06    -117.579E-03     219.351E-03    -101.772E-03     66.2560E-03    -117.850E-03     219.513E-03    -101.558E-03     65.2150E-03
            1258     13.8103E-03     127.839E-03    -12.8176E+06     40.5418E+06     51.2017E+06    -18.2010E+06    -118.786E-03     221.478E-03    -102.692E-03     60.9148E-03    -119.084E-03     221.726E-03    -102.476E-03     59.7667E-03
            1259     14.6090E-03     127.894E-03    -8.15017E+06     43.5688E+06     57.2489E+06    -12.3977E+06    -119.790E-03     223.392E-03    -103.602E-03     52.2782E-03    -120.091E-03     223.653E-03    -103.367E-03     50.9896E-03
            1260     15.4073E-03     127.941E-03    -3.32485E+06     41.9048E+06     69.0154E+06    -5.60558E+06    -120.458E-03     224.972E-03    -104.514E-03     37.9086E-03    -120.729E-03     225.179E-03    -104.225E-03     36.6898E-03
            1261     820.710E-06     128.253E-03    -164.134E+06    -104.326E+06    -160.777E+06    -6.78989E+06    -92.2936E-03     184.031E-03    -91.7374E-03     8.87857E-03    -92.7293E-03     183.989E-03    -92.1520E-03     8.81834E-03
            1262     1.64108E-03     128.265E-03    -158.395E+06    -96.1140E+06    -147.724E+06    -13.4168E+06    -91.7105E-03     183.697E-03    -91.9863E-03     17.0183E-03    -92.1490E-03     183.660E-03    -92.3559E-03     16.8771E-03
            1263     2.46212E-03     128.281E-03    -149.483E+06    -85.6352E+06    -128.918E+06    -19.2693E+06    -91.8333E-03     183.789E-03    -91.9553E-03     24.3732E-03    -92.2674E-03     183.762E-03    -92.2590E-03     24.1767E-03
            1264     3.28299E-03     128.304E-03    -138.582E+06    -75.1445E+06    -108.216E+06    -24.8497E+06    -92.5033E-03     184.554E-03    -92.0503E-03     31.5559E-03    -92.9274E-03     184.532E-03    -92.2815E-03     31.3025E-03
            1265     4.10348E-03     128.332E-03    -126.773E+06    -66.1456E+06    -88.6447E+06    -29.6311E+06    -93.5289E-03     185.805E-03    -92.2766E-03     38.1671E-03    -93.9345E-03     185.783E-03    -92.4401E-03     37.8595E-03
            1266     4.92338E-03     128.364E-03    -112.986E+06    -57.0332E+06    -69.8722E+06    -33.3019E+06    -95.2834E-03     187.929E-03    -92.6453E-03     44.9709E-03    -95.6602E-03     187.905E-03    -92.7481E-03     44.6122E-03
            1267     5.74073E-03     128.404E-03    -98.5313E+06    -47.2353E+06    -52.2086E+06    -35.4520E+06    -97.4308E-03     190.599E-03    -93.1683E-03     51.5685E-03    -97.7759E-03     190.578E-03    -93.2179E-03     51.1707E-03
            1268     6.55614E-03     128.452E-03    -83.5766E+06    -39.8846E+06    -34.6638E+06    -35.6960E+06    -99.3604E-03     193.166E-03    -93.8060E-03     56.7646E-03    -99.6686E-03     193.137E-03    -93.8003E-03     56.3418E-03
            1269     7.37095E-03     128.503E-03    -68.0024E+06    -32.1067E+06    -17.1961E+06    -34.0487E+06    -101.388E-03     195.896E-03    -94.5079E-03     62.1040E-03    -101.659E-03     195.862E-03    -94.4487E-03     61.6612E-03
            1270     8.18398E-03     128.561E-03    -53.1986E+06    -22.0064E+06     -576.67E+03    -31.9023E+06    -103.646E-03     198.911E-03    -95.2651E-03     66.8193E-03    -103.888E-03     198.888E-03    -95.1590E-03     66.3485E-03
            1271     8.99553E-03     128.622E-03    -40.7880E+06    -13.2919E+06     13.4044E+06    -30.1322E+06    -106.243E-03     202.331E-03    -96.0879E-03     70.1946E-03    -106.464E-03     202.321E-03    -95.9424E-03     69.6823E-03
            1272     9.80448E-03     128.687E-03    -32.0723E+06    -5.25035E+06     24.2625E+06    -28.3620E+06    -109.165E-03     206.152E-03    -96.9872E-03     72.7099E-03    -109.379E-03     206.164E-03    -96.8118E-03     72.1457E-03
            1273     10.6111E-03     128.754E-03    -27.1126E+06     817.962E+03     32.2396E+06    -27.3566E+06    -111.969E-03     209.928E-03    -97.9589E-03     73.8040E-03    -112.189E-03     209.962E-03    -97.7596E-03     73.1659E-03
            1274     11.4160E-03     128.823E-03    -23.1382E+06     5.53647E+06     38.1950E+06    -27.0695E+06    -114.552E-03     213.530E-03    -98.9779E-03     73.6728E-03    -114.780E-03     213.585E-03    -98.7614E-03     72.9346E-03
            1275     12.2185E-03     128.892E-03    -18.5229E+06     8.86452E+06     43.0834E+06    -26.2307E+06    -117.142E-03     217.174E-03    -100.032E-03     71.9924E-03    -117.372E-03     217.245E-03    -99.8028E-03     71.1444E-03
            1276     13.0189E-03     128.959E-03    -14.3474E+06     19.6745E+06     48.3147E+06    -23.6713E+06    -119.443E-03     220.550E-03    -101.107E-03     68.2519E-03    -119.689E-03     220.675E-03    -100.873E-03     67.2968E-03
            1277     13.8171E-03     129.023E-03    -10.7530E+06     33.2696E+06     54.3121E+06    -18.4290E+06    -121.091E-03     223.274E-03    -102.183E-03     62.3746E-03    -121.361E-03     223.467E-03    -101.945E-03     61.3157E-03
            1278     14.6149E-03     129.081E-03    -7.91107E+06     35.3061E+06     57.2406E+06    -12.0957E+06    -122.420E-03     225.661E-03    -103.241E-03     54.3791E-03    -122.702E-03     225.874E-03    -102.994E-03     53.1536E-03
            1279     15.4105E-03     129.131E-03    -5.25153E+06     32.4554E+06     66.9046E+06    -6.08517E+06    -123.507E-03     227.816E-03    -104.309E-03     40.0480E-03    -123.770E-03     227.982E-03    -104.014E-03     38.8368E-03
            1280     822.401E-06     129.392E-03    -127.517E+06    -85.4451E+06    -125.178E+06    -7.73530E+06    -89.9978E-03     179.761E-03    -89.7632E-03     9.15893E-03    -90.3269E-03     179.707E-03    -90.0803E-03     9.07332E-03
            1281     1.64501E-03     129.402E-03    -122.594E+06    -77.0310E+06    -112.172E+06    -14.7190E+06    -90.3069E-03     180.302E-03    -89.9953E-03     15.7389E-03    -90.6448E-03     180.257E-03    -90.2667E-03     15.5787E-03
            1282     2.46782E-03     129.418E-03    -115.739E+06    -67.5041E+06    -96.3088E+06    -21.5580E+06    -90.3931E-03     180.556E-03    -90.1624E-03     22.7447E-03    -90.7325E-03     180.524E-03    -90.3782E-03     22.5098E-03
            1283     3.28980E-03     129.442E-03    -108.004E+06    -58.8681E+06    -80.2390E+06    -27.3731E+06    -91.1285E-03     181.472E-03    -90.3432E-03     29.4394E-03    -91.4644E-03     181.448E-03    -90.5025E-03     29.1406E-03
            1284     4.11128E-03     129.470E-03    -99.9696E+06    -50.6553E+06    -65.1031E+06    -32.7380E+06    -92.6588E-03     183.329E-03    -90.6699E-03     35.5368E-03    -92.9876E-03     183.312E-03    -90.7770E-03     35.1796E-03
            1285     4.93070E-03     129.507E-03    -92.6469E+06    -43.7569E+06    -52.5076E+06    -37.7267E+06    -94.8814E-03     186.064E-03    -91.1827E-03     42.4538E-03    -95.2016E-03     186.052E-03    -91.2474E-03     42.0302E-03
            1286     5.74827E-03     129.551E-03    -85.0156E+06    -36.8193E+06    -40.2709E+06    -41.4845E+06    -96.9125E-03     188.753E-03    -91.8404E-03     48.9717E-03    -97.2231E-03     188.748E-03    -91.8651E-03     48.4886E-03
            1287     6.56523E-03     129.600E-03    -76.3268E+06    -32.3551E+06    -27.9674E+06    -43.9303E+06    -98.7436E-03     191.309E-03    -92.5651E-03     54.7163E-03    -99.0367E-03     191.297E-03    -92.5474E-03     54.1809E-03
            1288     7.38036E-03     129.655E-03    -66.2004E+06    -28.4843E+06    -15.6896E+06    -44.6105E+06    -100.908E-03     194.243E-03    -93.3346E-03     60.3980E-03    -101.177E-03     194.221E-03    -93.2757E-03     59.8254E-03
            1289     8.19392E-03     129.716E-03    -54.8357E+06    -20.7146E+06    -2.74443E+06    -43.0523E+06    -103.350E-03     197.512E-03    -94.1622E-03     65.0281E-03    -103.596E-03     197.498E-03    -94.0664E-03     64.4427E-03
            1290     9.00548E-03     129.781E-03    -43.3213E+06    -14.2238E+06     10.5190E+06    -39.4277E+06    -106.060E-03     201.125E-03    -95.0652E-03     68.5116E-03    -106.282E-03     201.113E-03    -94.9292E-03     67.9297E-03
            1291     9.81495E-03     129.851E-03    -32.2272E+06    -7.77808E+06     23.9050E+06    -34.0109E+06    -109.096E-03     205.145E-03    -96.0497E-03     71.6401E-03    -109.299E-03     205.137E-03    -95.8721E-03     71.0673E-03
            1292     10.6212E-03     129.923E-03    -22.5207E+06     811.936E+03     36.2650E+06    -29.0093E+06    -112.144E-03     209.249E-03    -97.1052E-03     73.6443E-03    -112.337E-03     209.261E-03    -96.8924E-03     73.0608E-03
            1293     11.4250E-03     129.996E-03    -16.5789E+06     7.06796E+06     44.9174E+06    -26.1243E+06    -114.972E-03     213.180E-03    -98.2087E-03     74.4587E-03    -115.169E-03     213.214E-03    -97.9703E-03     73.8201E-03
            1294     12.2274E-03     130.069E-03    -13.8745E+06     9.66317E+06     49.7603E+06    -24.3933E+06    -117.852E-03     217.200E-03    -99.3478E-03     73.7342E-03    -118.058E-03     217.247E-03    -99.0929E-03     73.0106E-03
            1295     13.0268E-03     130.142E-03    -12.0764E+06     16.8132E+06     53.9575E+06    -21.8503E+06    -120.700E-03     221.221E-03    -100.521E-03     70.5622E-03    -120.926E-03     221.308E-03    -100.258E-03     69.7400E-03
            1296     13.8243E-03     130.209E-03    -9.60921E+06     26.1794E+06     59.0010E+06    -17.4986E+06    -122.953E-03     224.671E-03    -101.718E-03     64.7886E-03    -123.202E-03     224.809E-03    -101.447E-03     63.8484E-03
            1297     14.6198E-03     130.270E-03    -5.48620E+06     27.0050E+06     59.4420E+06    -11.7342E+06    -124.735E-03     227.632E-03    -102.897E-03     56.8492E-03    -124.987E-03     227.788E-03    -102.631E-03     55.7190E-03
            1298     15.4148E-03     130.323E-03    -1.33187E+06     23.8181E+06     66.7191E+06    -5.45893E+06    -126.435E-03     230.535E-03    -104.099E-03     42.3897E-03    -126.663E-03     230.649E-03    -103.798E-03     41.2285E-03
            1299     824.959E-06     130.526E-03    -85.8828E+06    -63.9881E+06    -83.2675E+06    -8.97369E+06    -88.8534E-03     178.336E-03    -89.4824E-03     7.93314E-03    -89.0673E-03     178.268E-03    -89.6814E-03     7.81599E-03
            1300     1.64702E-03     130.536E-03    -81.5275E+06    -57.0765E+06    -72.3346E+06    -15.4438E+06    -89.8492E-03     179.186E-03    -89.3367E-03     12.3831E-03    -90.0690E-03     179.124E-03    -89.4974E-03     12.1939E-03
            1301     2.46923E-03     130.552E-03    -76.2343E+06     -49.235E+06    -58.1672E+06    -21.5813E+06    -90.4622E-03     180.119E-03    -89.6567E-03     18.4969E-03    -90.6872E-03     180.067E-03    -89.7656E-03     18.2258E-03
            1302     3.29198E-03     130.577E-03    -69.6418E+06    -42.2365E+06    -43.5411E+06    -26.9487E+06    -91.3299E-03     181.342E-03    -90.0120E-03     24.0383E-03    -91.5536E-03     181.295E-03    -90.0675E-03     23.7029E-03
            1303     4.11322E-03     130.608E-03    -62.7860E+06    -35.0859E+06    -30.0750E+06    -31.5715E+06    -92.9227E-03     183.388E-03    -90.4649E-03     29.9946E-03    -93.1423E-03     183.347E-03    -90.4734E-03     29.5958E-03
            1304     4.93284E-03     130.648E-03    -56.9004E+06    -28.8057E+06    -18.5911E+06    -35.9545E+06    -94.6963E-03     185.735E-03    -91.0386E-03     36.4631E-03    -94.9131E-03     185.701E-03    -91.0073E-03     35.9938E-03
            1305     5.75159E-03     130.694E-03    -51.8865E+06    -24.5571E+06    -9.34289E+06    -39.4944E+06    -96.3287E-03     188.008E-03    -91.6789E-03     42.2319E-03    -96.5410E-03     187.976E-03    -91.6147E-03     41.7089E-03
            1306     6.56852E-03     130.746E-03    -48.3471E+06    -21.8647E+06    -2.42212E+06    -42.0853E+06    -98.2825E-03     190.647E-03    -92.3649E-03     47.6708E-03    -98.4920E-03     190.615E-03    -92.2752E-03     47.1098E-03
            1307     7.38399E-03     130.805E-03    -46.1760E+06    -20.3303E+06     3.07303E+06    -44.1194E+06    -100.509E-03     193.623E-03    -93.1142E-03     53.2212E-03    -100.719E-03     193.588E-03    -93.0024E-03     52.6262E-03
            1308     8.19741E-03     130.869E-03    -44.2631E+06    -17.0780E+06     8.64100E+06    -44.6635E+06    -102.860E-03     196.788E-03    -93.9274E-03     58.2881E-03    -103.075E-03     196.760E-03    -93.7953E-03     57.6780E-03
            1309     9.00871E-03     130.939E-03    -41.2706E+06    -14.2497E+06     15.4705E+06    -43.1967E+06    -105.380E-03     200.186E-03    -94.8064E-03     62.7696E-03    -105.595E-03     200.160E-03    -94.6486E-03     62.1639E-03
            1310     9.81795E-03     131.012E-03    -35.5770E+06    -11.1069E+06     24.4569E+06    -39.9837E+06    -107.906E-03     203.650E-03    -95.7441E-03     66.9606E-03    -108.114E-03     203.622E-03    -95.5541E-03     66.3653E-03
            1311     10.6262E-03     131.090E-03    -27.9590E+06    -3.74734E+06     35.4539E+06    -34.6717E+06    -110.751E-03     207.486E-03    -96.7355E-03     70.2780E-03    -110.953E-03     207.474E-03    -96.5123E-03     69.7067E-03
            1312     11.4317E-03     131.168E-03    -20.0791E+06     3.70947E+06     46.8799E+06    -28.1472E+06    -114.014E-03     211.813E-03    -97.7987E-03     72.2930E-03    -114.212E-03     211.817E-03    -97.5405E-03     71.7433E-03
            1313     12.2338E-03     131.246E-03    -13.8840E+06     8.51775E+06     55.5634E+06    -22.9411E+06    -117.216E-03     216.142E-03    -98.9261E-03     73.1301E-03    -117.414E-03     216.160E-03    -98.6405E-03     72.5532E-03
            1314     13.0340E-03     131.323E-03    -9.36925E+06     14.1150E+06     61.5045E+06    -19.5662E+06    -120.427E-03     220.529E-03    -100.103E-03     71.5601E-03    -120.631E-03     220.573E-03    -99.8022E-03     70.9000E-03
            1315     13.8310E-03     131.396E-03    -4.93515E+06     22.0501E+06     67.1330E+06    -16.6950E+06    -123.765E-03     225.102E-03    -101.337E-03     66.7947E-03    -123.982E-03     225.185E-03    -101.026E-03     66.0040E-03
            1316     14.6256E-03     131.461E-03    -1.78955E+06     16.5723E+06     65.3544E+06    -10.9842E+06    -126.864E-03     229.473E-03    -102.609E-03     59.3568E-03    -127.076E-03     229.549E-03    -102.304E-03     58.3749E-03
            1317     15.4169E-03     131.518E-03    -768.318E+03     13.5478E+06     68.0968E+06    -2.76047E+06    -129.096E-03     233.023E-03    -103.927E-03     45.0346E-03    -129.300E-03     233.075E-03    -103.605E-03     43.9958E-03
            1318     820.459E-06     131.658E-03    -45.3872E+06    -42.4153E+06    -42.6584E+06    -8.59033E+06    -90.7133E-03     182.460E-03    -91.7465E-03     4.25403E-03    -90.8173E-03     182.384E-03    -91.8325E-03     4.13188E-03
            1319     1.64490E-03     131.670E-03    -43.1032E+06    -38.0887E+06    -34.4234E+06    -14.9121E+06    -91.2172E-03     182.491E-03    -91.2739E-03     7.52999E-03    -91.3289E-03     182.414E-03    -91.3283E-03     7.31569E-03
            1320     2.46665E-03     131.689E-03    -38.6494E+06    -31.8921E+06    -22.1582E+06    -20.3277E+06    -92.3072E-03     183.787E-03    -91.4797E-03     11.3759E-03    -92.4229E-03     183.716E-03    -91.4882E-03     11.0763E-03
            1321     3.28661E-03     131.714E-03    -34.1053E+06    -26.7958E+06    -9.46947E+06    -24.9130E+06    -93.3217E-03     185.209E-03    -91.8872E-03     15.5267E-03    -93.4418E-03     185.140E-03    -91.8463E-03     15.1436E-03
            1322     4.10637E-03     131.748E-03    -29.5821E+06    -21.2853E+06     1.72203E+06    -28.7233E+06    -94.4500E-03     186.808E-03    -92.3583E-03     20.2404E-03    -94.5732E-03     186.745E-03    -92.2759E-03     19.7832E-03
            1323     4.92536E-03     131.789E-03    -26.0792E+06    -16.3071E+06     10.7290E+06    -31.4093E+06    -95.5546E-03     188.418E-03    -92.8631E-03     24.4234E-03    -95.6818E-03     188.363E-03    -92.7480E-03     23.9192E-03
            1324     5.74323E-03     131.837E-03    -24.1576E+06    -14.0100E+06     17.6138E+06    -33.1581E+06    -96.7154E-03     190.103E-03    -93.3879E-03     28.5593E-03    -96.8475E-03     190.048E-03    -93.2445E-03     28.0279E-03
            1325     6.56023E-03     131.892E-03    -23.2637E+06    -12.3099E+06     23.1143E+06    -34.4528E+06    -98.2349E-03     192.180E-03    -93.9455E-03     33.2618E-03    -98.3740E-03     192.126E-03    -93.7784E-03     32.7122E-03
            1326     7.37532E-03     131.954E-03    -23.2894E+06    -11.6752E+06     27.6487E+06    -35.4496E+06    -99.8643E-03     194.413E-03    -94.5491E-03     38.3516E-03    -100.012E-03     194.357E-03    -94.3602E-03     37.7925E-03
            1327     8.18934E-03     132.022E-03    -24.0168E+06    -10.9988E+06     31.5200E+06    -35.7859E+06    -101.479E-03     196.663E-03    -95.1846E-03     43.9074E-03    -101.637E-03     196.606E-03    -94.9762E-03     43.3502E-03
            1328     9.00215E-03     132.095E-03    -25.1682E+06    -10.1826E+06     34.5983E+06    -35.6747E+06    -103.326E-03     199.173E-03    -95.8468E-03     49.4864E-03    -103.496E-03     199.117E-03    -95.6226E-03     48.9410E-03
            1329     9.81341E-03     132.172E-03    -27.1563E+06    -9.43842E+06     37.0950E+06    -35.3964E+06    -105.470E-03     202.019E-03    -96.5499E-03     54.7356E-03    -105.654E-03     201.967E-03    -96.3114E-03     54.2038E-03
            1330     10.6225E-03     132.252E-03    -27.6548E+06    -6.02740E+06     41.7516E+06    -34.1251E+06    -107.944E-03     205.257E-03    -97.3132E-03     59.6062E-03    -108.143E-03     205.217E-03    -97.0556E-03     59.0926E-03
            1331     11.4294E-03     132.337E-03    -24.3403E+06    -2.10941E+06     48.9705E+06    -30.4606E+06    -110.852E-03     209.006E-03    -98.1535E-03     63.4311E-03    -111.053E-03     208.972E-03    -97.8703E-03     62.9530E-03
            1332     12.2342E-03     132.420E-03    -18.3801E+06     3.36526E+06     57.6759E+06    -24.6934E+06    -114.165E-03     213.245E-03    -99.0797E-03     66.4742E-03    -114.363E-03     213.222E-03    -98.7696E-03     66.0212E-03
            1333     13.0360E-03     132.503E-03    -12.7460E+06     11.0815E+06     66.3211E+06    -19.6961E+06    -117.926E-03     218.027E-03    -100.101E-03     67.6302E-03    -118.129E-03     218.032E-03    -99.7673E-03     67.1470E-03
            1334     13.8349E-03     132.582E-03    -8.88847E+06     18.7053E+06     72.7862E+06    -15.9169E+06    -122.310E-03     223.543E-03    -101.234E-03     65.5563E-03    -122.527E-03     223.585E-03    -100.884E-03     64.9753E-03
            1335     14.6291E-03     132.654E-03    -6.43080E+06     2.88080E+06     66.4115E+06    -8.52156E+06    -127.030E-03     229.500E-03    -102.470E-03     60.2813E-03    -127.225E-03     229.490E-03    -102.133E-03     59.5387E-03
            1336     15.4202E-03     132.716E-03    -3.80247E+06     3.86069E+06     64.9966E+06    -603.112E+03    -130.435E-03     234.236E-03    -103.801E-03     46.9129E-03    -130.621E-03     234.234E-03    -103.476E-03     46.0593E-03
            1337     818.951E-06     132.799E-03    -9.52031E+06    -23.4731E+06    -6.22366E+06    -6.92932E+06    -96.9378E-03     192.594E-03    -95.6557E-03     1.32343E-03    -96.9357E-03     192.508E-03    -95.6390E-03     1.20791E-03
            1338     1.63576E-03     132.811E-03    -8.31770E+06    -20.7701E+06     96.8628E+03    -12.3181E+06    -96.5021E-03     192.906E-03    -96.4037E-03     1.29382E-03    -96.5161E-03     192.812E-03    -96.3611E-03     1.07775E-03
            1339     2.45382E-03     132.831E-03    -5.96062E+06    -16.8454E+06     9.75646E+06    -16.8528E+06    -96.6706E-03     193.243E-03    -96.5724E-03     1.80813E-03    -96.6922E-03     193.152E-03    -96.4905E-03     1.50329E-03
            1340     3.27166E-03     132.858E-03    -3.71223E+06    -13.6454E+06     18.9476E+06    -20.3715E+06    -97.4503E-03     194.267E-03    -96.8167E-03     3.35503E-03    -97.4794E-03     194.176E-03    -96.6967E-03     2.96648E-03
            1341     4.08802E-03     132.893E-03    -2.39534E+06    -10.4450E+06     26.8585E+06    -22.6461E+06    -98.1131E-03     195.265E-03    -97.1517E-03     5.26614E-03    -98.1526E-03     195.178E-03    -96.9988E-03     4.81909E-03
            1342     4.90362E-03     132.936E-03    -1.99459E+06    -7.92854E+06     33.8493E+06    -23.5477E+06    -98.4002E-03     195.893E-03    -97.4929E-03     6.87160E-03    -98.4520E-03     195.809E-03    -97.3093E-03     6.39775E-03
            1343     5.71909E-03     132.985E-03    -2.13885E+06    -6.56924E+06     40.3900E+06    -23.9125E+06    -98.7471E-03     196.560E-03    -97.8131E-03     9.10276E-03    -98.8119E-03     196.475E-03    -97.5986E-03     8.61129E-03
            1344     6.53387E-03     133.042E-03    -2.96937E+06    -5.57601E+06     46.0479E+06    -24.0913E+06    -99.2500E-03     197.379E-03    -98.1288E-03     12.0652E-03    -99.3295E-03     197.293E-03    -97.8862E-03     11.5634E-03
            1345     7.34860E-03     133.105E-03    -4.63633E+06    -5.45028E+06     50.1831E+06    -24.2728E+06    -99.7078E-03     198.150E-03    -98.4422E-03     15.1530E-03    -99.8026E-03     198.062E-03    -98.1766E-03     14.6534E-03
            1346     8.16286E-03     133.174E-03    -6.46338E+06    -6.14829E+06     53.1337E+06    -24.1432E+06    -100.054E-03     198.794E-03    -98.7406E-03     19.0306E-03    -100.162E-03     198.703E-03    -98.4566E-03     18.5431E-03
            1347     8.97670E-03     133.249E-03    -8.15600E+06    -5.84723E+06     55.9031E+06    -23.5681E+06    -100.672E-03     199.702E-03    -99.0295E-03     23.7152E-03    -100.793E-03     199.611E-03    -98.7296E-03     23.2495E-03
            1348     9.78977E-03     133.328E-03    -9.58940E+06    -4.79326E+06     58.5973E+06    -23.5514E+06    -101.894E-03     201.235E-03    -99.3412E-03     28.6772E-03    -102.028E-03     201.148E-03    -99.0274E-03     28.2336E-03
            1349     10.6015E-03     133.413E-03    -10.9953E+06    -3.24494E+06     60.8698E+06    -23.8310E+06    -103.323E-03     203.017E-03    -99.6944E-03     34.0914E-03    -103.469E-03     202.937E-03    -99.3694E-03     33.6692E-03
            1350     11.4122E-03     133.500E-03    -13.0393E+06    -2.99969E+06      62.147E+06    -23.3271E+06    -104.995E-03     205.085E-03    -100.090E-03     39.8339E-03    -105.153E-03     205.007E-03    -99.7559E-03     39.4418E-03
            1351     12.2210E-03     133.589E-03    -14.6544E+06    -1.62178E+06     63.9811E+06    -20.7108E+06    -107.523E-03     208.076E-03    -100.552E-03     45.7854E-03    -107.694E-03     208.005E-03    -100.209E-03     45.4397E-03
            1352     13.0273E-03     133.677E-03    -14.4553E+06     6.81918E+06     68.9988E+06    -16.2811E+06    -111.026E-03     212.151E-03    -101.125E-03     51.4889E-03    -111.218E-03     212.117E-03    -100.769E-03     51.1871E-03
            1353     13.8293E-03     133.764E-03    -13.3182E+06     14.5244E+06     72.0764E+06    -11.8222E+06    -115.714E-03     217.553E-03    -101.839E-03     55.9252E-03    -115.922E-03     217.558E-03    -101.480E-03     55.6162E-03
            1354     14.6277E-03     133.844E-03    -10.3311E+06    -6.44982E+06     62.8374E+06    -8.23995E+06    -121.825E-03     224.555E-03    -102.730E-03     57.5547E-03    -121.989E-03     224.479E-03    -102.392E-03     57.1206E-03
            1355     15.4198E-03     133.916E-03    -5.05526E+06    -3.07738E+06     58.5450E+06    -3.52533E+06    -128.070E-03     231.901E-03    -103.831E-03     48.5938E-03    -128.217E-03     231.850E-03    -103.526E-03     48.0092E-03
            1356     811.761E-06     133.958E-03     22.3663E+06    -9.08795E+06     24.8669E+06    -4.24194E+06    -105.413E-03     209.896E-03    -104.483E-03    -3.03085E-03    -105.314E-03     209.797E-03    -104.378E-03    -3.12049E-03
            1357     1.62200E-03     133.970E-03     22.1977E+06    -7.48566E+06     29.5080E+06    -7.49697E+06    -105.295E-03     210.414E-03    -105.120E-03    -6.64886E-03    -105.219E-03     210.297E-03    -104.993E-03    -6.81219E-03
            1358     2.43283E-03     133.988E-03     21.0758E+06    -6.26843E+06     34.6912E+06    -10.0556E+06    -104.801E-03     210.065E-03    -105.265E-03    -8.62539E-03    -104.740E-03     209.948E-03    -105.113E-03    -8.85836E-03
            1359     3.24360E-03     134.016E-03     19.4780E+06     -4.8338E+06     40.6248E+06    -11.6637E+06    -104.789E-03     210.137E-03    -105.348E-03    -10.6236E-03    -104.746E-03     210.020E-03    -105.166E-03    -10.9028E-03
            1360     4.05384E-03     134.052E-03     17.2808E+06    -3.70750E+06     47.1959E+06    -12.3881E+06    -104.475E-03     209.932E-03    -105.457E-03    -12.7000E-03    -104.454E-03     209.815E-03    -105.241E-03    -13.0049E-03
            1361     4.86474E-03     134.094E-03     15.3275E+06    -2.78630E+06     54.2931E+06    -12.5662E+06    -103.869E-03     209.404E-03    -105.535E-03    -14.2437E-03    -103.869E-03     209.283E-03    -105.281E-03    -14.5667E-03
            1362     5.67569E-03     134.143E-03     13.5936E+06    -2.20571E+06     60.8173E+06    -12.3999E+06    -103.264E-03     208.836E-03    -105.572E-03    -15.1776E-03    -103.282E-03     208.712E-03    -105.285E-03    -15.5109E-03
            1363     6.48690E-03     134.199E-03     11.7687E+06    -1.98063E+06     66.0515E+06    -12.0009E+06    -102.557E-03     208.134E-03    -105.577E-03    -15.4472E-03    -102.592E-03     208.007E-03    -105.261E-03    -15.7829E-03
            1364     7.29794E-03     134.262E-03     10.0308E+06    -1.62158E+06     70.3260E+06    -11.5806E+06    -101.731E-03     207.277E-03    -105.546E-03    -15.6477E-03    -101.781E-03     207.148E-03    -105.207E-03    -15.9768E-03
            1365     8.10955E-03     134.330E-03     8.24083E+06    -2.70448E+06     73.5069E+06    -11.4865E+06    -100.801E-03     206.278E-03    -105.477E-03    -15.4200E-03    -100.863E-03     206.142E-03    -105.117E-03    -15.7417E-03
            1366     8.92211E-03     134.404E-03     6.63877E+06    -3.06224E+06     76.1690E+06    -11.5984E+06    -99.8489E-03     205.218E-03    -105.369E-03    -14.0649E-03    -99.9223E-03     205.080E-03    -104.993E-03    -14.3844E-03
            1367     9.73500E-03     134.485E-03     5.10974E+06    -1.43656E+06     78.5580E+06    -11.6313E+06    -98.9907E-03     204.220E-03    -105.229E-03    -11.9902E-03    -99.0775E-03     204.090E-03    -104.842E-03    -12.3022E-03
            1368     10.5483E-03     134.570E-03     2.68147E+06    -834.590E+03     79.4722E+06    -11.1170E+06    -98.3239E-03     203.388E-03    -105.064E-03    -9.35050E-03    -98.4249E-03     203.264E-03    -104.669E-03    -9.64098E-03
            1369     11.3622E-03     134.657E-03    -165.993E+03    -978.452E+03     78.8710E+06    -10.4304E+06    -98.0223E-03     202.908E-03    -104.886E-03    -5.65968E-03    -98.1364E-03     202.790E-03    -104.490E-03    -5.92420E-03
            1370     12.1765E-03     134.748E-03    -2.32170E+06    -2.37168E+06     76.1653E+06    -10.0446E+06    -98.1679E-03     202.876E-03    -104.708E-03    -713.735E-06    -98.2864E-03     202.759E-03    -104.321E-03    -953.431E-06
            1371     12.9905E-03     134.841E-03    -3.36038E+06     2.57960E+06     74.2100E+06    -8.31143E+06    -99.1472E-03     203.706E-03    -104.559E-03     5.85048E-03    -99.2745E-03     203.618E-03    -104.187E-03     5.64950E-03
            1372     13.8041E-03     134.933E-03     -4.0669E+06     8.71774E+06     70.7219E+06    -4.26559E+06    -101.586E-03     206.068E-03    -104.482E-03     13.9619E-03    -101.721E-03     206.018E-03    -104.135E-03     13.8133E-03
            1373     14.6134E-03     135.023E-03    -3.86555E+06    -5.76272E+06     56.8512E+06    -3.04929E+06    -105.816E-03     210.340E-03    -104.523E-03     23.6246E-03    -105.914E-03     210.244E-03    -104.225E-03     23.4369E-03
            1374     15.4171E-03     135.106E-03    -4.03999E+06    -4.11058E+06     44.7028E+06    -5.14065E+06    -110.683E-03     215.406E-03    -104.723E-03     29.6894E-03    -110.773E-03     215.343E-03    -104.488E-03     29.3827E-03
            1375     15.3880E-03     67.0182E-03     2.99288E+06     97.8144E+06     82.0845E+06     5.45440E+06    -103.591E-03     209.352E-03    -105.760E-03     25.8636E-03    -103.920E-03     209.799E-03    -105.496E-03     24.7403E-03
            1376     14.5775E-03     66.9924E-03    -12.7072E+06     92.3730E+06     64.9638E+06     14.0262E+06    -105.700E-03     211.447E-03    -105.747E-03     36.3563E-03    -106.117E-03     211.958E-03    -105.538E-03     35.1800E-03
            1377     13.7675E-03     66.9489E-03    -17.9235E+06     86.9346E+06     61.8447E+06     3.07395E+06    -106.755E-03     212.463E-03    -105.708E-03     42.9202E-03    -107.197E-03     212.970E-03    -105.499E-03     41.6553E-03
            1378     12.9587E-03     66.8970E-03    -17.1703E+06     72.8179E+06     62.2823E+06    -5.81041E+06    -106.311E-03     211.986E-03    -105.676E-03     47.1528E-03    -106.731E-03     212.423E-03    -105.445E-03     45.8237E-03
            1379     12.1504E-03     66.8421E-03    -21.8462E+06     38.5079E+06     53.5687E+06    -4.22681E+06    -105.654E-03     211.328E-03    -105.674E-03     49.7757E-03    -106.029E-03     211.607E-03    -105.430E-03     48.5505E-03
            1380     11.3388E-03     66.7837E-03    -29.6109E+06     2.47805E+06     41.9545E+06    -5.26481E+06    -105.179E-03     210.889E-03    -105.709E-03     51.0251E-03    -105.515E-03     211.006E-03    -105.460E-03     49.8686E-03
            1381     10.5290E-03     66.7263E-03    -35.8553E+06    -17.2368E+06     35.4770E+06    -3.04343E+06    -105.211E-03     210.982E-03    -105.770E-03     51.4183E-03    -105.529E-03     211.008E-03    -105.516E-03     50.3686E-03
            1382     9.71810E-03     66.6690E-03    -39.4918E+06    -33.9708E+06     30.1555E+06    -174.236E+03    -105.882E-03     211.692E-03    -105.810E-03     51.1087E-03    -106.173E-03     211.635E-03    -105.553E-03     50.1798E-03
            1383     8.90823E-03     66.6121E-03    -42.8223E+06    -52.0369E+06     23.9093E+06    -1.01160E+06    -105.808E-03     211.636E-03    -105.828E-03     49.3894E-03    -106.067E-03     211.489E-03    -105.571E-03     48.5360E-03
            1384     8.09829E-03     66.5567E-03    -48.6470E+06    -67.2568E+06     16.1401E+06    -598.563E+03    -105.039E-03     210.922E-03    -105.883E-03     47.8617E-03    -105.283E-03     210.708E-03    -105.634E-03     47.0859E-03
            1385     7.28723E-03     66.5027E-03    -56.6025E+06    -85.3140E+06     5.47546E+06    -646.602E+03    -104.876E-03     210.867E-03    -105.990E-03     45.7849E-03    -105.109E-03     210.580E-03    -105.757E-03     45.0686E-03
            1386     6.47581E-03     66.4555E-03    -64.2718E+06    -103.327E+06    -5.15757E+06    -952.078E+03    -105.522E-03     211.611E-03    -106.089E-03     43.2596E-03    -105.740E-03     211.249E-03    -105.872E-03     42.6151E-03
            1387     5.66583E-03     66.4077E-03    -72.2008E+06    -119.179E+06    -16.7754E+06    -599.957E+03    -106.411E-03     212.503E-03    -106.093E-03     39.9136E-03    -106.618E-03     212.080E-03    -105.899E-03     39.3452E-03
            1388     4.85851E-03     66.3644E-03    -80.5556E+06    -135.329E+06    -31.3919E+06    -240.075E+03    -107.005E-03     212.959E-03    -105.953E-03     35.2212E-03    -107.199E-03     212.477E-03    -105.797E-03     34.7303E-03
            1389     4.04922E-03     66.3273E-03    -87.2754E+06    -152.720E+06    -46.4504E+06    -168.108E+03    -106.653E-03     212.388E-03    -105.735E-03     29.9501E-03    -106.823E-03     211.841E-03    -105.619E-03     29.5354E-03
            1390     3.23993E-03     66.2993E-03    -96.5934E+06    -173.785E+06    -64.3503E+06    -212.309E+03    -105.748E-03     211.318E-03    -105.570E-03     24.7060E-03    -105.901E-03     210.698E-03    -105.500E-03     24.3665E-03
            1391     2.43026E-03     66.2728E-03    -107.001E+06    -193.441E+06    -84.3907E+06     27.4705E+03    -105.356E-03     210.862E-03    -105.505E-03     19.3054E-03    -105.496E-03     210.179E-03    -105.492E-03     19.0574E-03
            1392     1.61986E-03     66.2526E-03    -111.833E+06    -208.256E+06    -99.6104E+06     649.152E+03    -105.288E-03     210.819E-03    -105.531E-03     13.0910E-03    -105.402E-03     210.086E-03    -105.565E-03     12.9388E-03
            1393     810.978E-06     66.2433E-03    -115.671E+06    -223.524E+06    -111.145E+06     1.59035E+06    -105.475E-03     211.104E-03    -105.629E-03     5.92199E-03    -105.559E-03     210.322E-03    -105.693E-03     5.85640E-03
            1394     15.3852E-03     65.8570E-03    -9.39679E+06     88.3089E+06     75.8630E+06     7.00471E+06    -103.815E-03     209.618E-03    -105.803E-03     24.2395E-03    -104.165E-03     210.025E-03    -105.538E-03     23.3128E-03
            1395     14.5728E-03     65.8148E-03    -14.1839E+06     96.5173E+06     70.4699E+06     4.48283E+06    -105.999E-03     211.797E-03    -105.797E-03     34.8370E-03    -106.429E-03     212.314E-03    -105.565E-03     33.5832E-03
            1396     13.7689E-03     65.7746E-03    -5.12608E+06     102.643E+06     74.7813E+06    -728.996E+03    -107.334E-03     213.064E-03    -105.731E-03     41.0234E-03    -107.754E-03     213.614E-03    -105.498E-03     39.6650E-03
            1397     12.9607E-03     65.7250E-03    -11.4395E+06     71.4418E+06     64.8212E+06    -2.73879E+06    -106.392E-03     212.054E-03    -105.662E-03     47.4741E-03    -106.789E-03     212.476E-03    -105.425E-03     46.1643E-03
            1398     12.1495E-03     65.6715E-03    -19.7872E+06     35.7088E+06     53.8928E+06    -1.88695E+06    -105.619E-03     211.276E-03    -105.657E-03     51.4636E-03    -105.984E-03     211.541E-03    -105.410E-03     50.2641E-03
            1399     11.3403E-03     65.6137E-03     -26.316E+06     5.78960E+06     44.8666E+06    -1.11177E+06    -105.286E-03     210.981E-03    -105.695E-03     52.3262E-03    -105.614E-03     211.105E-03    -105.440E-03     51.2422E-03
            1400     10.5279E-03     65.5580E-03    -32.3424E+06    -19.7524E+06     36.0175E+06    -3.54445E+06    -105.456E-03     211.197E-03    -105.741E-03     52.4675E-03    -105.752E-03     211.203E-03    -105.485E-03     51.4337E-03
            1401     9.71814E-03     65.4964E-03    -37.1596E+06    -37.1102E+06     30.8578E+06    -3.65503E+06    -105.755E-03     211.536E-03    -105.781E-03     51.8749E-03    -106.031E-03     211.459E-03    -105.519E-03     50.9066E-03
            1402     8.90937E-03     65.4414E-03    -43.2686E+06    -52.6013E+06     24.1012E+06    -1.15647E+06    -105.601E-03     211.412E-03    -105.811E-03     50.3235E-03    -105.863E-03     211.264E-03    -105.552E-03     49.4648E-03
            1403     8.09872E-03     65.3870E-03    -50.1976E+06    -67.9009E+06     15.6506E+06    -18.8465E+03    -105.037E-03     210.912E-03    -105.875E-03     48.8017E-03    -105.287E-03     210.697E-03    -105.625E-03     48.0476E-03
            1404     7.28669E-03     65.3354E-03    -57.0063E+06    -84.9854E+06     5.53497E+06     230.867E+03    -105.183E-03     211.149E-03    -105.966E-03     46.3328E-03    -105.416E-03     210.862E-03    -105.732E-03     45.6489E-03
            1405     6.47667E-03     65.2831E-03    -64.5987E+06    -103.351E+06    -6.45375E+06     118.358E+03    -106.138E-03     212.134E-03    -105.996E-03     42.6062E-03    -106.355E-03     211.774E-03    -105.785E-03     41.9791E-03
            1406     5.66845E-03     65.2361E-03    -71.5393E+06    -119.684E+06    -18.2540E+06    -1.02575E+06    -106.304E-03     212.254E-03    -105.950E-03     39.2731E-03    -106.504E-03     211.829E-03    -105.764E-03     38.7013E-03
            1407     4.85770E-03     65.1920E-03    -77.9617E+06    -135.059E+06    -29.3325E+06    -1.33479E+06    -105.916E-03     211.825E-03    -105.909E-03     35.5886E-03    -106.101E-03     211.340E-03    -105.747E-03     35.0722E-03
            1408     4.04846E-03     65.1566E-03    -87.2198E+06    -153.475E+06    -44.4174E+06     257.868E+03    -105.970E-03     211.834E-03    -105.864E-03     30.1542E-03    -106.144E-03     211.282E-03    -105.737E-03     29.7248E-03
            1409     3.23914E-03     65.1274E-03    -97.2520E+06    -173.219E+06    -63.6972E+06     1.13865E+06    -106.279E-03     212.003E-03    -105.724E-03     25.4626E-03    -106.437E-03     211.386E-03    -105.651E-03     25.1375E-03
            1410     2.43039E-03     65.1028E-03    -105.512E+06    -193.336E+06    -83.8435E+06     22.4333E+03    -105.857E-03     211.391E-03    -105.534E-03     20.3263E-03    -105.990E-03     210.707E-03    -105.520E-03     20.0742E-03
            1411     1.61985E-03     65.0848E-03    -110.239E+06    -209.680E+06     -99.645E+06    -618.663E+03    -105.018E-03     210.581E-03    -105.563E-03     13.6755E-03    -105.122E-03     209.839E-03    -105.597E-03     13.4987E-03
            1412     807.448E-06     65.0724E-03    -113.357E+06    -222.079E+06    -109.059E+06     12.5338E+03    -105.191E-03     211.339E-03    -106.148E-03     7.36533E-03    -105.269E-03     210.558E-03    -106.207E-03     7.28032E-03
            1413     15.3901E-03     64.6854E-03    -15.7641E+06     90.9760E+06     77.9204E+06     2.89000E+06    -106.249E-03     211.976E-03    -105.727E-03     22.4354E-03    -106.522E-03     212.273E-03    -105.447E-03     21.4286E-03
            1414     14.5823E-03     64.6449E-03    -4.11634E+06     103.051E+06     82.4156E+06    -1.83308E+06    -104.873E-03     210.580E-03    -105.707E-03     34.8689E-03    -105.222E-03     211.036E-03    -105.438E-03     33.5710E-03
            1415     13.7678E-03     64.5999E-03    -9.07950E+06     101.044E+06     72.9482E+06    -392.599E+03    -104.869E-03     210.575E-03    -105.706E-03     41.9137E-03    -105.303E-03     211.123E-03    -105.474E-03     40.6072E-03
            1416     12.9575E-03     64.5547E-03    -12.8633E+06     73.6031E+06     65.9139E+06     510.189E+03    -106.086E-03     211.811E-03    -105.725E-03     47.3592E-03    -106.490E-03     212.240E-03    -105.484E-03     46.1252E-03
            1417     12.1487E-03     64.4998E-03    -17.5633E+06     33.4522E+06     55.3131E+06    -962.763E+03    -105.859E-03     211.587E-03    -105.728E-03     50.4991E-03    -106.206E-03     211.830E-03    -105.474E-03     49.3354E-03
            1418     11.3371E-03     64.4444E-03    -21.8612E+06     8.59269E+06     48.8758E+06     429.874E+03    -105.776E-03     211.523E-03    -105.746E-03     52.2033E-03    -106.091E-03     211.648E-03    -105.483E-03     51.1366E-03
            1419     10.5296E-03     64.3854E-03    -27.7720E+06    -17.6917E+06     38.7378E+06    -1.14937E+06    -105.841E-03     211.599E-03    -105.758E-03     52.8062E-03    -106.121E-03     211.605E-03    -105.498E-03     51.8037E-03
            1420     9.71939E-03     64.3277E-03    -35.8468E+06    -40.6329E+06     30.5945E+06    -2.26763E+06    -105.161E-03     210.972E-03    -105.810E-03     52.5866E-03    -105.425E-03     210.875E-03    -105.546E-03     51.6564E-03
            1421     8.90653E-03     64.2707E-03    -43.2341E+06    -53.8456E+06     23.3618E+06    -759.888E+03    -105.107E-03     210.999E-03    -105.892E-03     51.0606E-03    -105.366E-03     210.845E-03    -105.634E-03     50.2232E-03
            1422     8.09635E-03     64.2169E-03    -50.0939E+06    -69.5742E+06     14.5378E+06    -67.0496E+03    -105.953E-03     211.892E-03    -105.939E-03     48.7364E-03    -106.199E-03     211.671E-03    -105.693E-03     47.9692E-03
            1423     7.28775E-03     64.1646E-03    -56.1180E+06    -84.6615E+06     5.72869E+06     9.76344E+03    -106.580E-03     212.490E-03    -105.910E-03     46.7260E-03    -106.812E-03     212.205E-03    -105.677E-03     46.0187E-03
            1424     6.47907E-03     64.1106E-03    -62.8327E+06    -101.564E+06    -5.13345E+06    -480.700E+03    -106.333E-03     212.174E-03    -105.841E-03     43.1526E-03    -106.547E-03     211.820E-03    -105.629E-03     42.5011E-03
            1425     5.66850E-03     64.0659E-03    -70.6937E+06    -118.623E+06    -16.8044E+06    -538.243E+03    -105.644E-03     211.460E-03    -105.815E-03     39.3964E-03    -105.846E-03     211.037E-03    -105.625E-03     38.8206E-03
            1426     4.85870E-03     64.0220E-03    -80.4758E+06    -137.807E+06    -30.7755E+06    -179.731E+03    -105.113E-03     210.983E-03    -105.870E-03     35.2444E-03    -105.305E-03     210.489E-03    -105.708E-03     34.7435E-03
            1427     4.04738E-03     63.9863E-03    -89.7419E+06    -156.242E+06    -46.7360E+06     637.273E+03    -105.216E-03     211.185E-03    -105.969E-03     30.0426E-03    -105.394E-03     210.625E-03    -105.846E-03     29.6331E-03
            1428     3.23767E-03     63.9551E-03    -96.3197E+06    -171.944E+06    -63.2530E+06     1.23681E+06    -105.782E-03     211.798E-03    -106.017E-03     25.3594E-03    -105.937E-03     211.185E-03    -105.944E-03     25.0443E-03
            1429     2.42817E-03     63.9319E-03    -102.795E+06    -190.461E+06    -81.5114E+06     561.430E+03    -106.065E-03     212.032E-03    -105.967E-03     20.0453E-03    -106.193E-03     211.355E-03    -105.949E-03     19.7912E-03
            1430     1.61957E-03     63.9144E-03    -110.453E+06    -209.718E+06    -100.115E+06    -1.16329E+06    -105.973E-03     211.837E-03    -105.864E-03     13.9737E-03    -106.078E-03     211.097E-03    -105.900E-03     13.7765E-03
            1431     811.397E-06     63.9037E-03    -115.405E+06    -224.304E+06    -113.138E+06    -1.58927E+06    -105.848E-03     211.613E-03    -105.765E-03     8.39933E-03    -105.927E-03     210.830E-03    -105.838E-03     8.28064E-03
            1432     15.3901E-03     63.5069E-03    -4.79208E+06     90.8772E+06     84.6346E+06    -1.73843E+06    -106.131E-03     211.816E-03    -105.685E-03     24.8698E-03    -106.365E-03     212.094E-03    -105.387E-03     23.5074E-03
            1433     14.5798E-03     63.4782E-03    -2.89683E+06     104.164E+06     83.5360E+06     2.65548E+06    -104.806E-03     210.460E-03    -105.654E-03     35.9593E-03    -105.152E-03     210.919E-03    -105.383E-03     34.6412E-03
            1434     13.7677E-03     63.4336E-03    -6.30708E+06     100.571E+06     75.7305E+06    -296.928E+03    -103.950E-03     209.640E-03    -105.690E-03     42.7902E-03    -104.365E-03     210.170E-03    -105.448E-03     41.5669E-03
            1435     12.9576E-03     63.3790E-03    -10.9054E+06     73.6765E+06     67.4724E+06    -1.14045E+06    -104.951E-03     210.719E-03    -105.768E-03     46.7823E-03    -105.344E-03     211.139E-03    -105.522E-03     45.5539E-03
            1436     12.1484E-03     63.3304E-03    -16.1211E+06     32.9903E+06     55.5164E+06     752.914E+03    -106.017E-03     211.816E-03    -105.799E-03     50.3385E-03    -106.355E-03     212.053E-03    -105.546E-03     49.2030E-03
            1437     11.3394E-03     63.2727E-03    -23.6789E+06     6.77873E+06     47.6134E+06     1.09772E+06    -106.150E-03     211.953E-03    -105.803E-03     52.8115E-03    -106.469E-03     212.074E-03    -105.541E-03     51.7606E-03
            1438     10.5275E-03     63.2142E-03    -27.8247E+06    -13.8952E+06     40.6123E+06     1.76802E+06    -105.680E-03     211.497E-03    -105.817E-03     52.5235E-03    -105.967E-03     211.518E-03    -105.554E-03     51.5664E-03
            1439     9.71656E-03     63.1588E-03    -34.4482E+06    -39.4720E+06     30.8024E+06     186.655E+03    -105.321E-03     211.186E-03    -105.866E-03     51.7715E-03    -105.578E-03     211.091E-03    -105.604E-03     50.8736E-03
            1440     8.90729E-03     63.1008E-03    -43.5754E+06    -56.5921E+06     21.7885E+06    -577.517E+03    -105.507E-03     211.432E-03    -105.924E-03     50.3587E-03    -105.762E-03     211.267E-03    -105.670E-03     49.5099E-03
            1441     8.09698E-03     63.0458E-03    -48.8945E+06    -68.8405E+06     15.1567E+06    -106.519E+03    -106.478E-03     212.409E-03    -105.931E-03     48.6392E-03    -106.722E-03     212.191E-03    -105.684E-03     47.8523E-03
            1442     7.28832E-03     62.9903E-03    -55.6923E+06    -85.0970E+06     6.08039E+06    -626.203E+03    -106.872E-03     212.729E-03    -105.857E-03     46.5366E-03    -107.103E-03     212.442E-03    -105.623E-03     45.8036E-03
            1443     6.47870E-03     62.9414E-03    -63.5469E+06    -102.070E+06    -4.74202E+06    -99.0722E+03    -106.184E-03     211.960E-03    -105.776E-03     43.1713E-03    -106.401E-03     211.603E-03    -105.560E-03     42.5288E-03
            1444     5.66907E-03     62.8943E-03    -72.1532E+06    -118.802E+06    -17.0718E+06     957.659E+03    -105.540E-03     211.294E-03    -105.754E-03     39.1841E-03    -105.748E-03     210.874E-03    -105.563E-03     38.6273E-03
            1445     4.85852E-03     62.8533E-03    -80.1707E+06    -137.395E+06    -30.8250E+06     1.20348E+06    -105.137E-03     210.938E-03    -105.801E-03     34.9105E-03    -105.328E-03     210.446E-03    -105.640E-03     34.4308E-03
            1446     4.04847E-03     62.8161E-03    -88.7379E+06    -156.088E+06    -47.2142E+06    -353.325E+03    -104.921E-03     210.835E-03    -105.913E-03     29.7842E-03    -105.093E-03     210.274E-03    -105.794E-03     29.3708E-03
            1447     3.23757E-03     62.7849E-03    -97.0799E+06    -173.123E+06    -64.0299E+06    -587.149E+03    -104.947E-03     211.049E-03    -106.103E-03     24.7236E-03    -105.103E-03     210.433E-03    -106.031E-03     24.3786E-03
            1448     2.42743E-03     62.7599E-03    -103.253E+06    -189.190E+06    -80.5218E+06     801.858E+03    -105.573E-03     211.882E-03    -106.308E-03     19.6310E-03    -105.706E-03     211.211E-03    -106.287E-03     19.3803E-03
            1449     1.61765E-03     62.7424E-03    -110.589E+06    -208.449E+06    -99.3565E+06     1.00606E+06    -106.475E-03     212.805E-03    -106.330E-03     13.7636E-03    -106.584E-03     212.070E-03    -106.364E-03     13.6014E-03
            1450     808.156E-06     62.7314E-03    -116.211E+06    -225.621E+06    -113.749E+06     194.552E+03    -106.815E-03     212.517E-03    -105.702E-03     8.49699E-03    -106.897E-03     211.730E-03    -105.775E-03     8.38917E-03
            1451     15.3885E-03     62.3383E-03    -4.08608E+06     91.6557E+06     85.3212E+06    -5.75235E+06    -104.815E-03     210.515E-03    -105.700E-03     24.6371E-03    -105.162E-03     210.923E-03    -105.400E-03     23.2312E-03
            1452     14.5787E-03     62.3045E-03    -8.74499E+06     98.8321E+06     76.2428E+06    -7.76662E+06    -105.441E-03     211.100E-03    -105.659E-03     34.7657E-03    -105.856E-03     211.613E-03    -105.408E-03     33.2511E-03
            1453     13.7716E-03     62.2638E-03    -8.23389E+06     100.171E+06     74.0421E+06    -2.29054E+06    -104.722E-03     210.388E-03    -105.667E-03     42.3333E-03    -105.141E-03     210.919E-03    -105.430E-03     41.0836E-03
            1454     12.9578E-03     62.2122E-03    -10.7964E+06     70.4140E+06     65.8736E+06     374.000E+03    -103.832E-03     209.591E-03    -105.759E-03     47.7386E-03    -104.213E-03     209.992E-03    -105.516E-03     46.5856E-03
            1455     12.1451E-03     62.1574E-03    -17.5729E+06     33.1446E+06     54.5460E+06     3.07022E+06    -105.379E-03     211.228E-03    -105.850E-03     50.9608E-03    -105.722E-03     211.469E-03    -105.599E-03     49.8774E-03
            1456     11.3362E-03     62.1000E-03    -22.1378E+06     6.88371E+06     48.0158E+06     2.04953E+06    -106.401E-03     212.274E-03    -105.873E-03     51.9271E-03    -106.714E-03     212.393E-03    -105.611E-03     50.8727E-03
            1457     10.5276E-03     62.0455E-03    -29.8219E+06    -15.1323E+06     39.2987E+06     2.35789E+06    -106.082E-03     211.945E-03    -105.863E-03     51.4172E-03    -106.377E-03     211.966E-03    -105.601E-03     50.4441E-03
            1458     9.71820E-03     61.9862E-03    -36.9325E+06    -35.8143E+06     30.2251E+06     2.70802E+06    -106.058E-03     211.919E-03    -105.860E-03     50.6258E-03    -106.333E-03     211.847E-03    -105.604E-03     49.7391E-03
            1459     8.90743E-03     61.9319E-03    -41.7800E+06    -54.7851E+06     23.6792E+06     544.591E+03    -106.210E-03     212.069E-03    -105.859E-03     49.9111E-03    -106.462E-03     211.909E-03    -105.600E-03     49.0629E-03
            1460     8.09802E-03     61.8726E-03    -49.9310E+06    -67.8135E+06     15.4581E+06     1.09383E+06    -106.281E-03     212.113E-03    -105.832E-03     48.8259E-03    -106.532E-03     211.902E-03    -105.584E-03     48.0572E-03
            1461     7.28834E-03     61.8196E-03    -58.0466E+06    -86.0548E+06     4.49118E+06     990.951E+03    -106.161E-03     211.954E-03    -105.793E-03     45.7696E-03    -106.399E-03     211.668E-03    -105.561E-03     45.0665E-03
            1462     6.47889E-03     61.7695E-03    -65.3694E+06    -103.497E+06    -6.30123E+06     152.862E+03    -105.883E-03     211.647E-03    -105.764E-03     42.7035E-03    -106.104E-03     211.287E-03    -105.550E-03     42.0725E-03
            1463     5.66915E-03     61.7245E-03    -72.2186E+06    -119.145E+06    -17.7103E+06     587.530E+03    -105.589E-03     211.345E-03    -105.756E-03     39.3128E-03    -105.795E-03     210.924E-03    -105.567E-03     38.7523E-03
            1464     4.85911E-03     61.6832E-03    -79.5866E+06    -136.173E+06    -30.2028E+06     617.584E+03    -105.450E-03     211.226E-03    -105.776E-03     35.4178E-03    -105.640E-03     210.738E-03    -105.614E-03     34.9331E-03
            1465     4.04884E-03     61.6458E-03    -87.9779E+06    -154.775E+06    -46.0361E+06     150.357E+03    -105.323E-03     211.136E-03    -105.813E-03     29.9982E-03    -105.494E-03     210.580E-03    -105.692E-03     29.5951E-03
            1466     3.23855E-03     61.6162E-03    -95.4928E+06    -172.192E+06    -63.8843E+06    -524.986E+03    -105.077E-03     210.983E-03    -105.907E-03     24.2391E-03    -105.226E-03     210.368E-03    -105.838E-03     23.9025E-03
            1467     2.42727E-03     61.5890E-03    -104.304E+06    -191.185E+06    -82.7384E+06    -757.399E+03    -105.279E-03     211.357E-03    -106.079E-03     18.7977E-03    -105.410E-03     210.680E-03    -106.064E-03     18.5371E-03
            1468     1.61796E-03     61.5696E-03    -110.611E+06    -208.631E+06    -98.4200E+06     729.831E+03    -106.020E-03     212.218E-03    -106.198E-03     12.3448E-03    -106.129E-03     211.480E-03    -106.228E-03     12.1848E-03
            1469     810.115E-06     61.5582E-03    -114.134E+06    -223.221E+06    -110.450E+06     1.19555E+06    -106.228E-03     212.399E-03    -106.171E-03     5.63343E-03    -106.308E-03     211.615E-03    -106.234E-03     5.55447E-03
            1470     15.3903E-03     61.1687E-03    -5.82187E+06     96.9339E+06     86.5303E+06    -4.45456E+06    -105.091E-03     210.774E-03    -105.682E-03     23.4135E-03    -105.470E-03     211.225E-03    -105.382E-03     22.1672E-03
            1471     14.5793E-03     61.1329E-03    -10.6535E+06     97.0030E+06     73.2266E+06    -7.84606E+06    -104.791E-03     210.430E-03    -105.639E-03     34.3886E-03    -105.217E-03     210.950E-03    -105.398E-03     32.9165E-03
            1472     13.7674E-03     61.0915E-03    -17.6965E+06     93.1177E+06     64.0323E+06    -5.93665E+06    -104.827E-03     210.470E-03    -105.643E-03     41.0763E-03    -105.273E-03     210.998E-03    -105.432E-03     39.7260E-03
            1473     12.9584E-03     61.0459E-03    -22.5721E+06     65.9933E+06     58.6391E+06    -597.951E+03    -104.952E-03     210.658E-03    -105.705E-03     46.7947E-03    -105.374E-03     211.064E-03    -105.475E-03     45.6069E-03
            1474     12.1479E-03     60.9861E-03    -25.8928E+06     31.6940E+06     50.7250E+06     1.22430E+06    -104.986E-03     210.760E-03    -105.774E-03     49.5245E-03    -105.362E-03     211.009E-03    -105.528E-03     48.4140E-03
            1475     11.3372E-03     60.9287E-03     -29.444E+06     5.28465E+06     43.4791E+06     691.040E+03    -105.440E-03     211.270E-03    -105.830E-03     49.7628E-03    -105.779E-03     211.397E-03    -105.578E-03     48.6801E-03
            1476     10.5273E-03     60.8725E-03    -33.0980E+06    -14.9314E+06     38.0561E+06     1.94152E+06    -106.095E-03     211.951E-03    -105.855E-03     50.7641E-03    -106.406E-03     211.981E-03    -105.595E-03     49.7647E-03
            1477     9.71746E-03     60.8163E-03    -37.8725E+06    -32.1911E+06     31.8612E+06     3.46775E+06    -106.486E-03     212.324E-03    -105.838E-03     51.1601E-03    -106.775E-03     212.272E-03    -105.577E-03     50.2684E-03
            1478     8.90920E-03     60.7587E-03    -44.7981E+06    -53.2122E+06     22.3803E+06     2.54771E+06    -106.724E-03     212.506E-03    -105.783E-03     50.5345E-03    -106.991E-03     212.361E-03    -105.529E-03     49.7143E-03
            1479     8.09965E-03     60.7031E-03    -51.4889E+06    -68.9680E+06     14.1867E+06     1.46889E+06    -106.234E-03     211.962E-03    -105.729E-03     48.7292E-03    -106.489E-03     211.748E-03    -105.483E-03     47.9681E-03
            1480     7.28927E-03     60.6482E-03    -57.1220E+06    -84.5222E+06     5.51300E+06     1.37387E+06    -105.511E-03     211.234E-03    -105.722E-03     45.6468E-03    -105.748E-03     210.951E-03    -105.489E-03     44.9555E-03
            1481     6.47881E-03     60.5999E-03    -64.2593E+06    -102.093E+06    -5.22086E+06     688.191E+03    -105.345E-03     211.103E-03    -105.758E-03     42.5524E-03    -105.565E-03     210.748E-03    -105.543E-03     41.9205E-03
            1482     5.66814E-03     60.5537E-03    -73.1610E+06    -119.113E+06    -18.0751E+06     398.502E+03    -105.573E-03     211.357E-03    -105.784E-03     39.2537E-03    -105.784E-03     210.938E-03    -105.596E-03     38.6893E-03
            1483     4.85831E-03     60.5128E-03    -81.0990E+06    -136.921E+06    -32.4318E+06     210.854E+03    -105.665E-03     211.448E-03    -105.782E-03     35.1175E-03    -105.858E-03     210.961E-03    -105.628E-03     34.6315E-03
            1484     4.04869E-03     60.4753E-03    -88.2813E+06    -154.412E+06    -46.5694E+06    -397.687E+03    -105.734E-03     211.495E-03    -105.761E-03     30.3175E-03    -105.907E-03     210.941E-03    -105.642E-03     29.9065E-03
            1485     3.23946E-03     60.4453E-03    -96.4879E+06    -171.808E+06    -64.3659E+06     212.045E+03    -106.064E-03     211.720E-03    -105.656E-03     24.5849E-03    -106.218E-03     211.108E-03    -105.588E-03     24.2626E-03
            1486     2.43084E-03     60.4195E-03    -104.822E+06    -191.553E+06    -84.2608E+06     62.8648E+03    -105.715E-03     211.215E-03    -105.501E-03     18.8987E-03    -105.846E-03     210.539E-03    -105.492E-03     18.6550E-03
            1487     1.62019E-03     60.3987E-03    -111.342E+06    -209.270E+06    -99.8292E+06    -828.304E+03    -105.154E-03     210.652E-03    -105.497E-03     12.9051E-03    -105.265E-03     209.914E-03    -105.531E-03     12.7264E-03
            1488     809.090E-06     60.3869E-03    -115.538E+06    -222.548E+06    -111.563E+06    -212.551E+03    -105.168E-03     211.083E-03    -105.916E-03     5.98276E-03    -105.254E-03     210.306E-03    -105.983E-03     5.89177E-03
            1489     15.3901E-03     59.9947E-03    -4.90491E+06     102.553E+06     85.2919E+06    -2.75335E+06    -105.184E-03     210.834E-03    -105.649E-03     23.3622E-03    -105.568E-03     211.316E-03    -105.365E-03     22.1387E-03
            1490     14.5807E-03     59.9653E-03    -12.0484E+06     96.7339E+06     66.9479E+06    -3.13581E+06    -104.651E-03     210.245E-03    -105.594E-03     34.4749E-03    -105.074E-03     210.774E-03    -105.382E-03     33.0772E-03
            1491     13.7696E-03     59.9213E-03    -17.9804E+06     89.2006E+06     61.5652E+06    -3.16937E+06    -105.286E-03     210.895E-03    -105.610E-03     40.8410E-03    -105.726E-03     211.409E-03    -105.405E-03     39.5061E-03
            1492     12.9596E-03     59.8726E-03    -24.5959E+06     64.2866E+06     56.6099E+06    -3.29676E+06    -106.011E-03     211.634E-03    -105.623E-03     46.2980E-03    -106.442E-03     212.042E-03    -105.397E-03     45.0286E-03
            1493     12.1510E-03     59.8167E-03    -28.3585E+06     28.9955E+06     48.0515E+06    -2.69288E+06    -105.251E-03     210.892E-03    -105.641E-03     49.8549E-03    -105.634E-03     211.137E-03    -105.401E-03     48.6771E-03
            1494     11.3390E-03     59.7605E-03    -32.5348E+06     4.87634E+06     41.5918E+06    -411.752E+03    -104.807E-03     210.511E-03    -105.704E-03     50.7001E-03    -105.158E-03     210.643E-03    -105.456E-03     49.6228E-03
            1495     10.5277E-03     59.7008E-03    -36.6476E+06    -18.0698E+06     34.8389E+06    -304.156E+03    -105.518E-03     211.283E-03    -105.764E-03     50.1267E-03    -105.835E-03     211.304E-03    -105.511E-03     49.1186E-03
            1496     9.71819E-03     59.6450E-03    -40.9731E+06    -34.6943E+06     29.9124E+06     1.21031E+06    -106.154E-03     211.934E-03    -105.780E-03     50.4438E-03    -106.451E-03     211.875E-03    -105.521E-03     49.5280E-03
            1497     8.90801E-03     59.5862E-03    -46.4420E+06    -50.3757E+06     22.1360E+06     2.61885E+06    -106.476E-03     212.219E-03    -105.742E-03     50.5332E-03    -106.755E-03     212.090E-03    -105.491E-03     49.7146E-03
            1498     8.09953E-03     59.5316E-03    -50.9257E+06    -68.6226E+06     14.2409E+06     588.277E+03    -106.190E-03     211.890E-03    -105.700E-03     48.6864E-03    -106.443E-03     211.677E-03    -105.456E-03     47.9113E-03
            1499     7.28961E-03     59.4792E-03    -57.7097E+06    -84.4524E+06     5.61109E+06     798.535E+03    -105.521E-03     211.216E-03    -105.695E-03     45.8541E-03    -105.761E-03     210.935E-03    -105.461E-03     45.1566E-03
            1500     6.47876E-03     59.4298E-03    -65.4616E+06    -100.558E+06    -5.77551E+06     1.84302E+06    -105.290E-03     211.015E-03    -105.725E-03     42.4787E-03    -105.517E-03     210.670E-03    -105.514E-03     41.8698E-03
            1501     5.66885E-03     59.3836E-03    -73.0289E+06    -118.392E+06    -18.5090E+06     858.409E+03    -105.500E-03     211.256E-03    -105.756E-03     39.1147E-03    -105.709E-03     210.840E-03    -105.571E-03     38.5688E-03
            1502     4.85924E-03     59.3412E-03    -81.0971E+06    -136.146E+06    -32.6863E+06    -232.142E+03    -105.547E-03     211.313E-03    -105.766E-03     34.7739E-03    -105.741E-03     210.830E-03    -105.615E-03     34.2833E-03
            1503     4.04884E-03     59.3062E-03    -89.0717E+06    -154.605E+06    -47.9948E+06    -440.249E+03    -105.730E-03     211.481E-03    -105.751E-03     30.9825E-03    -105.906E-03     210.931E-03    -105.637E-03     30.5559E-03
            1504     3.23922E-03     59.2720E-03    -98.8576E+06    -173.411E+06    -65.5589E+06    -321.678E+03    -106.295E-03     211.914E-03    -105.619E-03     25.8906E-03    -106.458E-03     211.301E-03    -105.552E-03     25.5433E-03
            1505     2.43045E-03     59.2494E-03    -106.129E+06    -190.866E+06    -83.6876E+06     607.460E+03    -106.171E-03     211.503E-03    -105.332E-03     19.6196E-03    -106.311E-03     210.832E-03    -105.320E-03     19.3711E-03
            1506     1.62079E-03     59.2305E-03    -111.307E+06    -208.814E+06    -101.252E+06     570.948E+03    -105.128E-03     210.260E-03    -105.132E-03     13.6790E-03    -105.237E-03     209.526E-03    -105.174E-03     13.5221E-03
            1507     810.147E-06     59.2185E-03    -116.156E+06    -223.095E+06    -114.461E+06    -217.907E+03    -104.639E-03     210.201E-03    -105.562E-03     7.53473E-03    -104.724E-03     209.426E-03    -105.643E-03     7.44805E-03
            1508     15.3902E-03     58.8274E-03    -4.83426E+06     104.882E+06     86.7079E+06     152.757E+03    -104.719E-03     210.418E-03    -105.699E-03     24.4584E-03    -105.109E-03     210.912E-03    -105.411E-03     23.2866E-03
            1509     14.5783E-03     58.7919E-03    -11.7484E+06     97.3907E+06     68.5447E+06    -1.74665E+06    -105.748E-03     211.379E-03    -105.631E-03     35.8700E-03    -106.175E-03     211.911E-03    -105.413E-03     34.4962E-03
            1510     13.7698E-03     58.7518E-03    -17.3070E+06     89.5066E+06     63.4058E+06    -3.80555E+06    -106.040E-03     211.638E-03    -105.598E-03     42.2244E-03    -106.484E-03     212.154E-03    -105.385E-03     40.8647E-03
            1511     12.9605E-03     58.6990E-03    -20.5376E+06     64.0310E+06     58.4120E+06    -3.34857E+06    -105.553E-03     211.152E-03    -105.599E-03     47.4121E-03    -105.973E-03     211.557E-03    -105.370E-03     46.1191E-03
            1512     12.1496E-03     58.6481E-03    -25.3692E+06     26.6556E+06     48.1954E+06    -2.73081E+06    -105.498E-03     211.119E-03    -105.621E-03     50.8945E-03    -105.867E-03     211.353E-03    -105.382E-03     49.6970E-03
            1513     11.3401E-03     58.5897E-03    -30.6201E+06     4.76245E+06     43.6755E+06    -948.192E+03    -105.569E-03     211.228E-03    -105.659E-03     52.5508E-03    -105.916E-03     211.356E-03    -105.403E-03     51.4652E-03
            1514     10.5305E-03     58.5315E-03    -38.1564E+06    -19.5737E+06     32.7764E+06    -779.281E+03    -105.711E-03     211.380E-03    -105.669E-03     51.8072E-03    -106.031E-03     211.400E-03    -105.421E-03     50.8050E-03
            1515     9.71955E-03     58.4740E-03    -43.1539E+06    -39.6439E+06     25.8366E+06    -1.60866E+06    -106.015E-03     211.689E-03    -105.674E-03     51.0082E-03    -106.309E-03     211.614E-03    -105.425E-03     50.0665E-03
            1516     8.90998E-03     58.4156E-03    -44.9524E+06    -49.8872E+06     23.3928E+06     367.685E+03    -105.817E-03     211.496E-03    -105.679E-03     49.7217E-03    -106.090E-03     211.364E-03    -105.424E-03     48.8806E-03
            1517     8.09870E-03     58.3606E-03    -51.3281E+06    -66.6891E+06     14.3916E+06     1.40423E+06    -105.560E-03     211.247E-03    -105.687E-03     47.7415E-03    -105.816E-03     211.042E-03    -105.444E-03     46.9866E-03
            1518     7.28908E-03     58.3084E-03    -59.3182E+06    -85.5975E+06     3.42418E+06     818.796E+03    -105.612E-03     211.313E-03    -105.701E-03     45.5949E-03    -105.855E-03     211.031E-03    -105.473E-03     44.8989E-03
            1519     6.47955E-03     58.2602E-03    -65.9012E+06    -100.609E+06    -6.47579E+06     952.931E+03    -105.622E-03     211.332E-03    -105.709E-03     43.0802E-03    -105.850E-03     210.988E-03    -105.500E-03     42.4632E-03
            1520     5.66920E-03     58.2127E-03    -72.2139E+06    -116.416E+06    -17.4950E+06     846.209E+03    -105.462E-03     211.186E-03    -105.724E-03     39.5260E-03    -105.672E-03     210.777E-03    -105.538E-03     38.9822E-03
            1521     4.85833E-03     58.1720E-03    -81.5350E+06    -135.682E+06    -32.2435E+06     331.037E+03    -105.483E-03     211.222E-03    -105.740E-03     34.9417E-03    -105.679E-03     210.741E-03    -105.586E-03     34.4643E-03
            1522     4.04873E-03     58.1346E-03    -91.3874E+06    -155.126E+06    -49.0637E+06     745.118E+03    -105.622E-03     211.354E-03    -105.732E-03     30.8305E-03    -105.807E-03     210.806E-03    -105.619E-03     30.4257E-03
            1523     3.23886E-03     58.1024E-03    -97.1757E+06    -172.042E+06    -65.1351E+06     331.443E+03    -105.565E-03     211.275E-03    -105.711E-03     25.9312E-03    -105.723E-03     210.667E-03    -105.646E-03     25.5930E-03
            1524     2.42912E-03     58.0766E-03    -105.368E+06    -191.324E+06    -84.6362E+06    -1.16906E+06    -105.769E-03     211.414E-03    -105.645E-03     19.6650E-03    -105.904E-03     210.741E-03    -105.638E-03     19.3814E-03
            1525     1.62037E-03     58.0621E-03    -113.139E+06    -209.732E+06    -102.224E+06    -342.260E+03    -105.855E-03     211.327E-03    -105.472E-03     14.1240E-03    -105.971E-03     210.594E-03    -105.515E-03     13.9337E-03
            1526     810.293E-06     58.0494E-03    -114.363E+06    -222.152E+06    -111.983E+06     578.793E+03    -105.339E-03     210.705E-03    -105.366E-03     8.82489E-03    -105.421E-03     209.929E-03    -105.438E-03     8.73288E-03
            1527     15.3859E-03     57.6552E-03    -4.82767E+06     105.932E+06     90.4710E+06     131.434E+03    -104.878E-03     210.638E-03    -105.760E-03     24.7258E-03    -105.276E-03     211.133E-03    -105.454E-03     23.5381E-03
            1528     14.5787E-03     57.6200E-03    -9.80864E+06     100.359E+06     75.1404E+06    -2.41155E+06    -106.031E-03     211.721E-03    -105.690E-03     34.9045E-03    -106.462E-03     212.256E-03    -105.446E-03     33.5015E-03
            1529     13.7699E-03     57.5777E-03    -14.3211E+06     89.2028E+06     65.1336E+06    -3.31076E+06    -105.467E-03     211.112E-03    -105.646E-03     42.1685E-03    -105.899E-03     211.621E-03    -105.429E-03     40.8157E-03
            1530     12.9592E-03     57.5310E-03    -20.5323E+06     62.1275E+06     58.2108E+06    -2.09038E+06    -105.261E-03     210.937E-03    -105.676E-03     48.5516E-03    -105.681E-03     211.335E-03    -105.445E-03     47.2730E-03
            1531     12.1488E-03     57.4762E-03    -25.9104E+06     24.2825E+06     47.7947E+06    -1.76880E+06    -105.851E-03     211.554E-03    -105.702E-03     52.0995E-03    -106.223E-03     211.780E-03    -105.461E-03     50.9007E-03
            1532     11.3391E-03     57.4185E-03    -31.5880E+06     2.29205E+06     42.5020E+06    -534.515E+03    -106.059E-03     211.773E-03    -105.714E-03     53.3369E-03    -106.407E-03     211.893E-03    -105.459E-03     52.2458E-03
            1533     10.5284E-03     57.3615E-03    -36.2197E+06    -14.2327E+06     35.4875E+06    -270.923E+03    -106.145E-03     211.845E-03    -105.700E-03     53.8563E-03    -106.471E-03     211.889E-03    -105.450E-03     52.8477E-03
            1534     9.72006E-03     57.3015E-03    -41.7673E+06    -38.6019E+06     26.0166E+06    -2.20185E+06    -106.389E-03     212.063E-03    -105.674E-03     52.9622E-03    -106.682E-03     211.995E-03    -105.427E-03     52.0014E-03
            1535     8.91020E-03     57.2464E-03    -48.4504E+06    -56.0362E+06     18.7959E+06    -2.03321E+06    -106.040E-03     211.689E-03    -105.649E-03     50.7469E-03    -106.317E-03     211.541E-03    -105.404E-03     49.8641E-03
            1536     8.10031E-03     57.1906E-03    -52.9076E+06    -67.7304E+06     12.8142E+06         986.770    -105.381E-03     211.042E-03    -105.660E-03     47.9561E-03    -105.642E-03     210.837E-03    -105.421E-03     47.1807E-03
            1537     7.28890E-03     57.1390E-03    -58.0182E+06    -84.0802E+06     4.30896E+06     687.011E+03    -105.258E-03     210.965E-03    -105.707E-03     45.7168E-03    -105.497E-03     210.687E-03    -105.479E-03     45.0238E-03
            1538     6.47852E-03     57.0884E-03    -65.4740E+06    -100.642E+06    -5.87824E+06     148.380E+03    -105.719E-03     211.453E-03    -105.734E-03     43.3612E-03    -105.947E-03     211.108E-03    -105.523E-03     42.7275E-03
            1539     5.66893E-03     57.0436E-03    -73.6741E+06    -117.327E+06    -17.9620E+06     739.694E+03    -105.742E-03     211.464E-03    -105.722E-03     39.1701E-03    -105.958E-03     211.054E-03    -105.535E-03     38.6206E-03
            1540     4.85941E-03     57.0010E-03    -81.2193E+06    -134.682E+06    -31.6020E+06     1.70520E+06    -105.629E-03     211.330E-03    -105.701E-03     35.1226E-03    -105.826E-03     210.853E-03    -105.546E-03     34.6641E-03
            1541     4.04953E-03     56.9644E-03    -89.2888E+06    -153.812E+06    -47.5539E+06     787.113E+03    -105.634E-03     211.306E-03    -105.672E-03     30.5484E-03    -105.812E-03     210.759E-03    -105.557E-03     30.1516E-03
            1542     3.23937E-03     56.9323E-03    -96.9836E+06    -172.722E+06    -65.1636E+06    -238.546E+03    -105.092E-03     210.790E-03    -105.698E-03     25.0700E-03    -105.247E-03     210.177E-03    -105.633E-03     24.7310E-03
            1543     2.42814E-03     56.9075E-03    -103.855E+06    -190.927E+06    -83.7385E+06     115.096E+03    -105.002E-03     210.854E-03    -105.852E-03     19.1154E-03    -105.130E-03     210.179E-03    -105.843E-03     18.8639E-03
            1544     1.61752E-03     56.8891E-03    -110.910E+06    -209.228E+06    -101.489E+06    -784.593E+03    -105.785E-03     211.771E-03    -105.986E-03     13.2612E-03    -105.891E-03     211.035E-03    -106.029E-03     13.0772E-03
            1545     809.659E-06     56.8794E-03    -116.106E+06    -223.107E+06    -113.163E+06    -1.51585E+06    -106.245E-03     212.016E-03    -105.772E-03     8.38309E-03    -106.332E-03     211.240E-03    -105.846E-03     8.25289E-03
            1546     15.3902E-03     56.4812E-03    -4.86970E+06     107.724E+06     89.0307E+06    -1.16673E+06    -104.655E-03     210.385E-03    -105.730E-03     25.2903E-03    -105.058E-03     210.895E-03    -105.434E-03     24.0704E-03
            1547     14.5796E-03     56.4484E-03    -7.77584E+06     101.994E+06     75.1100E+06    -1.80649E+06    -104.390E-03     210.107E-03    -105.716E-03     35.2105E-03    -104.816E-03     210.649E-03    -105.477E-03     33.8206E-03
            1548     13.7674E-03     56.4083E-03    -14.8400E+06     88.7300E+06     63.1665E+06    -438.784E+03    -104.501E-03     210.250E-03    -105.749E-03     43.4232E-03    -104.930E-03     210.758E-03    -105.540E-03     42.1524E-03
            1549     12.9565E-03     56.3600E-03    -20.8918E+06     60.8143E+06     56.5216E+06    -841.669E+03    -105.794E-03     211.596E-03    -105.802E-03     49.5043E-03    -106.209E-03     211.989E-03    -105.577E-03     48.2562E-03
            1550     12.1475E-03     56.3040E-03    -26.1524E+06     23.8562E+06     47.0656E+06    -1.38492E+06    -106.422E-03     212.227E-03    -105.805E-03     51.9286E-03    -106.792E-03     212.452E-03    -105.566E-03     50.7318E-03
            1551     11.3375E-03     56.2481E-03    -30.9512E+06     2.17046E+06     41.3356E+06    -1.26342E+06    -106.390E-03     212.178E-03    -105.788E-03     52.6061E-03    -106.732E-03     212.298E-03    -105.539E-03     51.4990E-03
            1552     10.5286E-03     56.1894E-03    -35.6622E+06    -15.4827E+06     35.3114E+06    -988.558E+03    -106.292E-03     212.059E-03    -105.767E-03     52.9660E-03    -106.612E-03     212.096E-03    -105.517E-03     51.9426E-03
            1553     9.71771E-03     56.1306E-03    -41.6477E+06    -36.8122E+06     26.7862E+06    -411.121E+03    -106.045E-03     211.800E-03    -105.755E-03     52.5564E-03    -106.341E-03     211.739E-03    -105.507E-03     51.6223E-03
            1554     8.90855E-03     56.0742E-03    -47.3246E+06    -55.9694E+06     18.8707E+06    -2.38891E+06    -106.082E-03     211.830E-03    -105.748E-03     51.2971E-03    -106.356E-03     211.682E-03    -105.504E-03     50.3992E-03
            1555     8.09922E-03     56.0204E-03    -54.4167E+06    -71.0235E+06     11.2180E+06    -2.37360E+06    -105.878E-03     211.622E-03    -105.744E-03     48.9443E-03    -106.143E-03     211.409E-03    -105.506E-03     48.1178E-03
            1556     7.28937E-03     55.9700E-03    -60.6653E+06    -84.6509E+06     3.38588E+06    -256.462E+03    -105.677E-03     211.429E-03    -105.752E-03     46.8659E-03    -105.929E-03     211.155E-03    -105.524E-03     46.1546E-03
            1557     6.47875E-03     55.9179E-03    -66.3939E+06    -100.490E+06    -6.63227E+06     211.691E+03    -105.837E-03     211.589E-03    -105.751E-03     43.6912E-03    -106.069E-03     211.247E-03    -105.542E-03     43.0585E-03
            1558     5.66928E-03     55.8718E-03    -74.0978E+06    -118.206E+06    -18.8262E+06     318.830E+03    -105.916E-03     211.637E-03    -105.721E-03     38.9421E-03    -106.130E-03     211.223E-03    -105.536E-03     38.3887E-03
            1559     4.85903E-03     55.8318E-03    -81.3374E+06    -135.013E+06    -31.7330E+06     491.046E+03    -105.645E-03     211.333E-03    -105.688E-03     35.3795E-03    -105.843E-03     210.855E-03    -105.533E-03     34.9028E-03
            1560     4.04914E-03     55.7926E-03    -87.8804E+06    -152.560E+06    -46.7641E+06     756.005E+03    -105.500E-03     211.172E-03    -105.672E-03     31.1966E-03    -105.674E-03     210.628E-03    -105.557E-03     30.7957E-03
            1561     3.23963E-03     55.7634E-03    -97.3622E+06    -173.099E+06    -66.0509E+06    -69.4906E+03    -105.590E-03     211.230E-03    -105.640E-03     24.9752E-03    -105.745E-03     210.616E-03    -105.578E-03     24.6398E-03
            1562     2.42954E-03     55.7380E-03    -104.213E+06    -190.161E+06    -82.4602E+06     352.589E+03    -105.261E-03     210.916E-03    -105.655E-03     18.5610E-03    -105.393E-03     210.242E-03    -105.641E-03     18.3262E-03
            1563     1.61959E-03     55.7184E-03    -109.707E+06    -206.862E+06    -98.5291E+06     859.516E+03    -105.204E-03     211.017E-03    -105.813E-03     12.4503E-03    -105.310E-03     210.285E-03    -105.846E-03     12.3056E-03
            1564     808.407E-06     55.7069E-03    -119.520E+06    -224.857E+06    -116.044E+06    -188.659E+03    -105.909E-03     211.826E-03    -105.917E-03     7.09746E-03    -106.005E-03     211.050E-03    -105.998E-03     6.99821E-03
            1565     15.3891E-03     55.3125E-03    -3.43692E+06     107.815E+06     87.7524E+06    -1.21030E+06    -102.833E-03     208.575E-03    -105.742E-03     27.1158E-03    -103.226E-03     209.084E-03    -105.454E-03     25.9576E-03
            1566     14.5761E-03     55.2795E-03    -10.1348E+06     99.7048E+06     71.4138E+06     1.63458E+06    -103.126E-03     208.940E-03    -105.814E-03     37.0601E-03    -103.554E-03     209.479E-03    -105.587E-03     35.7623E-03
            1567     13.7647E-03     55.2395E-03    -17.5779E+06     89.8534E+06     61.7652E+06     1.63835E+06    -105.181E-03     211.058E-03    -105.877E-03     44.3973E-03    -105.624E-03     211.579E-03    -105.673E-03     43.1501E-03
            1568     12.9555E-03     55.1861E-03    -23.2903E+06     62.0906E+06     55.3322E+06    -1.31374E+06    -106.765E-03     212.652E-03    -105.886E-03     48.6664E-03    -107.192E-03     213.056E-03    -105.666E-03     47.3989E-03
            1569     12.1465E-03     55.1324E-03    -27.1198E+06     26.5334E+06     47.3042E+06    -2.03828E+06    -106.956E-03     212.800E-03    -105.845E-03     49.6709E-03    -107.330E-03     213.035E-03    -105.607E-03     48.4651E-03
            1570     11.3376E-03     55.0760E-03    -31.4063E+06     2.01791E+06     40.6411E+06    -2.53479E+06    -106.552E-03     212.352E-03    -105.800E-03     51.1639E-03    -106.891E-03     212.470E-03    -105.555E-03     50.0458E-03
            1571     10.5283E-03     55.0172E-03    -35.9522E+06    -19.5295E+06     34.4005E+06    -2.06115E+06    -105.992E-03     211.781E-03    -105.789E-03     51.9662E-03    -106.305E-03     211.798E-03    -105.536E-03     50.9307E-03
            1572     9.71889E-03     54.9616E-03    -40.5346E+06    -35.7267E+06     28.5422E+06    -572.597E+03    -105.521E-03     211.335E-03    -105.815E-03     52.1018E-03    -105.814E-03     211.276E-03    -105.561E-03     51.1640E-03
            1573     8.90744E-03     54.9025E-03    -47.1088E+06    -54.9315E+06     19.7910E+06    -769.781E+03    -105.390E-03     211.255E-03    -105.865E-03     50.8162E-03    -105.665E-03     211.111E-03    -105.618E-03     49.9461E-03
            1574     8.09693E-03     54.8502E-03    -53.9084E+06    -72.2688E+06     10.8042E+06    -1.91908E+06    -105.906E-03     211.806E-03    -105.900E-03     48.9573E-03    -106.166E-03     211.586E-03    -105.663E-03     48.1344E-03
            1575     7.28747E-03     54.7975E-03    -60.2681E+06    -86.3093E+06     2.34211E+06    -1.86463E+06    -106.485E-03     212.361E-03    -105.875E-03     47.4056E-03    -106.733E-03     212.081E-03    -105.651E-03     46.6585E-03
            1576     6.47904E-03     54.7478E-03    -66.9309E+06    -101.413E+06    -7.43951E+06    -566.809E+03    -106.077E-03     211.907E-03    -105.830E-03     44.2853E-03    -106.310E-03     211.564E-03    -105.623E-03     43.6407E-03
            1577     5.66846E-03     54.7010E-03    -74.0957E+06    -117.879E+06    -19.1988E+06     166.582E+03    -105.858E-03     211.661E-03    -105.803E-03     40.2066E-03    -106.073E-03     211.250E-03    -105.620E-03     39.6520E-03
            1578     4.85959E-03     54.6606E-03    -81.5918E+06    -135.264E+06    -33.0230E+06    -465.560E+03    -106.041E-03     211.793E-03    -105.752E-03     35.5459E-03    -106.238E-03     211.315E-03    -105.602E-03     35.0545E-03
            1579     4.04880E-03     54.6243E-03    -88.6858E+06    -152.396E+06    -47.4158E+06    -612.372E+03    -105.749E-03     211.437E-03    -105.688E-03     30.7100E-03    -105.926E-03     210.896E-03    -105.575E-03     30.2872E-03
            1580     3.23851E-03     54.5906E-03    -97.6593E+06    -171.963E+06    -65.2865E+06    -130.895E+03    -105.702E-03     211.321E-03    -105.619E-03     24.8732E-03    -105.861E-03     210.713E-03    -105.555E-03     24.5328E-03
            1581     2.43062E-03     54.5680E-03    -107.039E+06    -191.897E+06    -84.6331E+06    -272.077E+03    -105.769E-03     211.268E-03    -105.499E-03     19.2313E-03    -105.910E-03     210.594E-03    -105.489E-03     18.9762E-03
            1582     1.61995E-03     54.5499E-03    -113.388E+06    -208.379E+06    -99.6338E+06     933.638E+03    -105.512E-03     210.873E-03    -105.361E-03     13.6171E-03    -105.634E-03     210.142E-03    -105.392E-03     13.4662E-03
            1583     810.720E-06     54.5360E-03    -115.982E+06    -221.937E+06    -110.685E+06     2.61437E+06    -105.461E-03     210.560E-03    -105.099E-03     7.21607E-03    -105.550E-03     209.786E-03    -105.162E-03     7.16888E-03
            1584     15.3870E-03     54.1461E-03    -6.24399E+06     105.501E+06      86.337E+06     747.415E+03    -102.404E-03     208.184E-03    -105.780E-03     24.5265E-03    -102.801E-03     208.683E-03    -105.492E-03     23.3916E-03
            1585     14.5738E-03     54.1116E-03    -12.2302E+06     98.6736E+06     71.5744E+06     1.84087E+06    -103.828E-03     209.676E-03    -105.848E-03     35.4684E-03    -104.261E-03     210.209E-03    -105.616E-03     34.1706E-03
            1586     13.7642E-03     54.0656E-03    -14.4829E+06     93.3302E+06     66.1913E+06     1.11251E+06    -106.296E-03     212.159E-03    -105.863E-03     41.6125E-03    -106.731E-03     212.682E-03    -105.646E-03     40.3390E-03
            1587     12.9562E-03     54.0130E-03    -18.2544E+06     66.2459E+06     60.3051E+06    -991.001E+03    -106.633E-03     212.469E-03    -105.836E-03     45.4828E-03    -107.039E-03     212.870E-03    -105.604E-03     44.2419E-03
            1588     12.1478E-03     53.9594E-03    -23.5277E+06     26.4015E+06     49.2120E+06    -2.61599E+06    -106.240E-03     212.049E-03    -105.809E-03     48.5719E-03    -106.596E-03     212.272E-03    -105.567E-03     47.3762E-03
            1589     11.3389E-03     53.9039E-03    -28.9869E+06     1.39458E+06     42.6856E+06    -2.17632E+06    -105.893E-03     211.707E-03    -105.814E-03     51.4144E-03    -106.225E-03     211.817E-03    -105.561E-03     50.2960E-03
            1590     10.5281E-03     53.8479E-03    -35.9625E+06    -20.6985E+06     34.5496E+06    -1.74422E+06    -105.658E-03     211.495E-03    -105.837E-03     52.5975E-03    -105.970E-03     211.506E-03    -105.582E-03     51.5735E-03
            1591     9.71696E-03     53.7897E-03    -41.6389E+06    -37.7910E+06     27.3599E+06    -1.55964E+06    -105.708E-03     211.577E-03    -105.869E-03     52.2904E-03    -106.002E-03     211.510E-03    -105.617E-03     51.3451E-03
            1592     8.90739E-03     53.7341E-03    -45.5182E+06    -53.9251E+06     20.7041E+06    -676.407E+03    -105.587E-03     211.496E-03    -105.909E-03     49.8823E-03    -105.853E-03     211.349E-03    -105.661E-03     49.0290E-03
            1593     8.09630E-03     53.6790E-03    -51.2869E+06    -70.8617E+06     11.9987E+06    -1.60533E+06    -105.724E-03     211.670E-03    -105.945E-03     47.8981E-03    -105.971E-03     211.448E-03    -105.708E-03     47.1020E-03
            1594     7.28703E-03     53.6250E-03    -59.6563E+06    -87.6444E+06     1.94278E+06    -1.46528E+06    -106.034E-03     211.993E-03    -105.959E-03     46.1882E-03    -106.274E-03     211.705E-03    -105.736E-03     45.4525E-03
            1595     6.47705E-03     53.5764E-03    -66.0890E+06    -102.006E+06    -7.51389E+06    -695.274E+03    -105.932E-03     211.890E-03    -105.958E-03     43.4065E-03    -106.160E-03     211.543E-03    -105.752E-03     42.7452E-03
            1596     5.66745E-03     53.5313E-03    -73.0672E+06    -117.594E+06    -19.2839E+06    -1.34707E+06    -105.906E-03     211.859E-03    -105.953E-03     40.5154E-03    -106.118E-03     211.450E-03    -105.773E-03     39.9202E-03
            1597     4.85710E-03     53.4878E-03    -81.4832E+06    -135.323E+06    -32.7628E+06    -1.57283E+06    -106.505E-03     212.392E-03    -105.887E-03     36.0445E-03    -106.703E-03     211.915E-03    -105.736E-03     35.5213E-03
            1598     4.05009E-03     53.4532E-03    -90.2306E+06    -153.627E+06    -47.8550E+06    -918.326E+03    -106.308E-03     212.053E-03    -105.745E-03     30.4256E-03    -106.492E-03     211.510E-03    -105.631E-03     29.9881E-03
            1599     3.24045E-03     53.4215E-03    -99.6822E+06    -172.998E+06    -66.1470E+06     216.247E+03    -105.264E-03     210.950E-03    -105.686E-03     25.5113E-03    -105.430E-03     210.340E-03    -105.622E-03     25.1840E-03
            1600     2.42804E-03     53.3973E-03    -107.756E+06    -191.546E+06    -85.5638E+06     718.126E+03    -105.673E-03     211.346E-03    -105.673E-03     20.3089E-03    -105.817E-03     210.676E-03    -105.667E-03     20.0688E-03
            1601     1.62043E-03     53.3783E-03    -113.098E+06    -209.270E+06    -102.505E+06     40.7992E+03    -106.210E-03     211.628E-03    -105.418E-03     13.8506E-03    -106.325E-03     210.896E-03    -105.463E-03     13.6752E-03
            1602     810.365E-06     53.3684E-03    -113.825E+06    -220.120E+06    -110.894E+06    -378.798E+03    -105.932E-03     210.398E-03    -104.465E-03     7.49296E-03    -106.012E-03     209.630E-03    -104.536E-03     7.39613E-03
            1603     15.3897E-03     52.9816E-03    -4.68174E+06     105.110E+06     89.9448E+06     1.26069E+06    -104.342E-03     210.089E-03    -105.747E-03     22.8597E-03    -104.736E-03     210.579E-03    -105.443E-03     21.6844E-03
            1604     14.5786E-03     52.9399E-03    -7.41462E+06     100.521E+06     77.8195E+06    -729.679E+03    -105.340E-03     211.062E-03    -105.722E-03     36.1133E-03    -105.763E-03     211.590E-03    -105.468E-03     34.7600E-03
            1605     13.7702E-03     52.8925E-03    -10.6344E+06     93.2763E+06     69.2719E+06    -1.71170E+06    -105.882E-03     211.569E-03    -105.687E-03     41.3638E-03    -106.303E-03     212.082E-03    -105.460E-03     40.0472E-03
            1606     12.9602E-03     52.8414E-03    -14.6205E+06     67.3304E+06     63.5932E+06     281.114E+03    -105.109E-03     210.819E-03    -105.709E-03     44.9718E-03    -105.501E-03     211.213E-03    -105.468E-03     43.7744E-03
            1607     12.1481E-03     52.7897E-03    -22.0133E+06     27.5732E+06     50.8300E+06     330.783E+03    -104.593E-03     210.368E-03    -105.775E-03     49.1297E-03    -104.941E-03     210.588E-03    -105.529E-03     48.0225E-03
            1608     11.3361E-03     52.7327E-03    -29.2830E+06    -757.605E+03     41.7795E+06    -740.009E+03    -105.178E-03     211.035E-03    -105.857E-03     51.6903E-03    -105.504E-03     211.133E-03    -105.605E-03     50.6230E-03
            1609     10.5263E-03     52.6776E-03    -34.3417E+06    -19.8008E+06     34.6872E+06    -675.604E+03    -106.026E-03     211.920E-03    -105.894E-03     52.2274E-03    -106.329E-03     211.931E-03    -105.642E-03     51.2243E-03
            1610     9.71718E-03     52.6184E-03    -38.3794E+06    -38.2865E+06     27.8655E+06    -2.33577E+06    -106.172E-03     212.068E-03    -105.897E-03     51.1036E-03    -106.448E-03     211.991E-03    -105.646E-03     50.1447E-03
            1611     8.90728E-03     52.5628E-03    -45.0920E+06    -55.1150E+06     20.4983E+06    -1.69855E+06    -106.084E-03     211.980E-03    -105.895E-03     49.5372E-03    -106.348E-03     211.828E-03    -105.648E-03     48.6546E-03
            1612     8.09878E-03     52.5082E-03    -52.5821E+06    -70.1907E+06     11.5351E+06    -432.685E+03    -105.982E-03     211.872E-03    -105.891E-03     47.9392E-03    -106.235E-03     211.657E-03    -105.655E-03     47.1528E-03
            1613     7.28743E-03     52.4555E-03    -57.6644E+06    -87.2105E+06     3.18876E+06    -1.54314E+06    -105.520E-03     211.438E-03    -105.918E-03     45.2258E-03    -105.751E-03     211.145E-03    -105.692E-03     44.4942E-03
            1614     6.47693E-03     52.4051E-03    -65.3457E+06    -103.285E+06    -7.00598E+06    -1.58948E+06    -105.517E-03     211.484E-03    -105.967E-03     42.0582E-03    -105.739E-03     211.128E-03    -105.758E-03     41.3857E-03
            1615     5.66709E-03     52.3601E-03    -73.7771E+06    -117.950E+06    -19.0768E+06    -561.799E+03    -105.724E-03     211.723E-03    -106.000E-03     39.3017E-03    -105.938E-03     211.313E-03    -105.817E-03     38.7159E-03
            1616     4.85796E-03     52.3169E-03    -82.3041E+06    -136.112E+06    -33.6364E+06    -710.462E+03    -105.717E-03     211.737E-03    -106.020E-03     36.3502E-03    -105.916E-03     211.259E-03    -105.872E-03     35.8411E-03
            1617     4.04759E-03     52.2791E-03    -92.4272E+06    -156.342E+06    -50.7085E+06    -1.38743E+06    -105.907E-03     211.927E-03    -106.020E-03     31.0057E-03    -106.093E-03     211.378E-03    -105.913E-03     30.5594E-03
            1618     3.23784E-03     52.2544E-03    -99.4107E+06    -172.518E+06    -65.9255E+06     434.153E+03    -106.036E-03     212.015E-03    -105.979E-03     26.2002E-03    -106.203E-03     211.408E-03    -105.915E-03     25.8653E-03
            1619     2.42902E-03     52.2253E-03    -105.583E+06    -188.901E+06    -83.5824E+06     1.18084E+06    -105.849E-03     211.773E-03    -105.924E-03     20.7363E-03    -105.989E-03     211.110E-03    -105.915E-03     20.4970E-03
            1620     1.61857E-03     52.2070E-03    -112.032E+06    -207.368E+06    -101.916E+06    -463.893E+03    -105.805E-03     211.706E-03    -105.901E-03     13.5699E-03    -105.918E-03     210.981E-03    -105.947E-03     13.3822E-03
            1621     810.122E-06     52.1981E-03    -117.443E+06    -223.209E+06    -115.545E+06    -1.35438E+06    -106.155E-03     211.788E-03    -105.633E-03     7.84150E-03    -106.241E-03     211.017E-03    -105.717E-03     7.70771E-03
            1622     15.3883E-03     51.8056E-03    -4.30980E+06     106.025E+06     91.0648E+06    -1.02759E+06    -105.784E-03     211.446E-03    -105.663E-03     23.6580E-03    -106.179E-03     211.939E-03    -105.355E-03     22.4538E-03
            1623     14.5817E-03     51.7702E-03    -7.06524E+06     100.788E+06     78.4811E+06    -1.57755E+06    -105.896E-03     211.475E-03    -105.578E-03     37.6112E-03    -106.324E-03     212.007E-03    -105.322E-03     36.2320E-03
            1624     13.7702E-03     51.7199E-03    -11.9975E+06     91.1949E+06     66.9102E+06    -1.19208E+06    -104.700E-03     210.247E-03    -105.547E-03     42.9394E-03    -105.123E-03     210.757E-03    -105.328E-03     41.6548E-03
            1625     12.9591E-03     51.6735E-03    -18.7349E+06     63.6179E+06     59.7536E+06     867.408E+03    -103.965E-03     209.600E-03    -105.635E-03     45.4823E-03    -104.367E-03     209.988E-03    -105.401E-03     44.3071E-03
            1626     12.1479E-03     51.6202E-03    -23.6992E+06     30.3423E+06     50.8675E+06     2.54224E+06    -104.299E-03     210.049E-03    -105.750E-03     49.3621E-03    -104.659E-03     210.285E-03    -105.505E-03     48.2967E-03
            1627     11.3372E-03     51.5641E-03    -27.9620E+06     1.49796E+06     41.9869E+06    -197.071E+03    -105.292E-03     211.125E-03    -105.833E-03     50.8606E-03    -105.612E-03     211.229E-03    -105.585E-03     49.8129E-03
            1628     10.5270E-03     51.5041E-03    -32.4252E+06    -19.5447E+06     35.6281E+06    -1.55443E+06    -105.977E-03     211.847E-03    -105.870E-03     51.2466E-03    -106.272E-03     211.854E-03    -105.616E-03     50.2310E-03
            1629     9.71785E-03     51.4474E-03    -39.7076E+06    -37.7243E+06     27.5759E+06    -532.904E+03    -106.058E-03     211.932E-03    -105.874E-03     50.4907E-03    -106.342E-03     211.861E-03    -105.623E-03     49.5443E-03
            1630     8.90763E-03     51.3924E-03    -47.1037E+06    -57.0565E+06     18.6951E+06    -1.19817E+06    -105.993E-03     211.869E-03    -105.875E-03     49.8833E-03    -106.263E-03     211.714E-03    -105.631E-03     48.9968E-03
            1631     8.09690E-03     51.3358E-03    -52.3190E+06    -70.7191E+06     12.0770E+06    -772.509E+03    -105.995E-03     211.875E-03    -105.880E-03     48.3521E-03    -106.249E-03     211.657E-03    -105.641E-03     47.5535E-03
            1632     7.28885E-03     51.2856E-03    -57.5856E+06    -86.6740E+06     3.54347E+06    -658.150E+03    -105.713E-03     211.606E-03    -105.893E-03     45.9152E-03    -105.946E-03     211.317E-03    -105.666E-03     45.1905E-03
            1633     6.47839E-03     51.2351E-03    -67.1142E+06    -105.057E+06    -8.36219E+06    -1.57078E+06    -105.530E-03     211.457E-03    -105.927E-03     43.3587E-03    -105.756E-03     211.096E-03    -105.719E-03     42.6959E-03
            1634     5.66809E-03     51.1891E-03    -74.8748E+06    -119.277E+06    -19.2706E+06    -334.388E+03    -105.488E-03     211.466E-03    -105.978E-03     39.6187E-03    -105.706E-03     211.051E-03    -105.793E-03     39.0430E-03
            1635     4.85699E-03     51.1467E-03    -80.2787E+06    -134.152E+06    -31.8748E+06     638.976E+03    -104.986E-03     211.065E-03    -106.079E-03     35.4658E-03    -105.180E-03     210.591E-03    -105.927E-03     34.9823E-03
            1636     4.04544E-03     51.1104E-03    -90.3252E+06    -155.111E+06    -49.9609E+06    -1.11952E+06    -105.266E-03     211.489E-03    -106.223E-03     30.0950E-03    -105.444E-03     210.940E-03    -106.117E-03     29.6641E-03
            1637     3.23672E-03     51.0786E-03    -99.6052E+06    -174.062E+06    -66.6175E+06    -1.70235E+06    -106.358E-03     212.617E-03    -106.258E-03     25.2125E-03    -106.523E-03     212.003E-03    -106.195E-03     24.8358E-03
            1638     2.42873E-03     51.0554E-03    -106.218E+06    -190.747E+06    -83.1887E+06    -646.783E+03    -106.165E-03     212.358E-03    -106.192E-03     20.2141E-03    -106.307E-03     211.686E-03    -106.177E-03     19.9384E-03
            1639     1.61848E-03     51.0369E-03    -111.875E+06    -207.179E+06    -99.5102E+06     613.555E+03    -105.651E-03     211.950E-03    -106.299E-03     13.5469E-03    -105.767E-03     211.222E-03    -106.334E-03     13.3905E-03
            1640     807.432E-06     51.0252E-03    -118.358E+06    -223.338E+06    -114.044E+06     1.08294E+06    -105.691E-03     212.827E-03    -107.136E-03     7.00600E-03    -105.785E-03     212.054E-03    -107.211E-03     6.92763E-03
            1641     15.3929E-03     50.6330E-03    -5.46181E+06     108.183E+06     86.5865E+06    -1.57213E+06    -106.157E-03     211.730E-03    -105.572E-03     24.8232E-03    -106.555E-03     212.241E-03    -105.288E-03     23.6313E-03
            1642     14.5815E-03     50.5981E-03    -11.7931E+06     99.6938E+06     70.6233E+06    -1.92972E+06    -105.491E-03     210.969E-03    -105.478E-03     36.7483E-03    -105.925E-03     211.510E-03    -105.252E-03     35.3810E-03
            1643     13.7722E-03     50.5514E-03    -17.1846E+06     89.9644E+06     63.1154E+06     72.3055E+03    -104.052E-03     209.545E-03    -105.494E-03     42.0865E-03    -104.488E-03     210.057E-03    -105.284E-03     40.8507E-03
            1644     12.9601E-03     50.5049E-03    -21.5244E+06     62.1691E+06     56.3020E+06     556.885E+03    -103.955E-03     209.551E-03    -105.596E-03     45.5101E-03    -104.364E-03     209.941E-03    -105.373E-03     44.3263E-03
            1645     12.1484E-03     50.4510E-03    -24.5821E+06     28.9657E+06     49.3534E+06     177.936E+03    -105.017E-03     210.708E-03    -105.691E-03     49.5742E-03    -105.382E-03     210.945E-03    -105.451E-03     48.4369E-03
            1646     11.3387E-03     50.3921E-03    -28.7523E+06     5.33090E+06     43.1009E+06     371.183E+03    -105.530E-03     211.271E-03    -105.742E-03     51.2364E-03    -105.864E-03     211.398E-03    -105.492E-03     50.1708E-03
            1647     10.5287E-03     50.3348E-03    -35.4898E+06    -20.6653E+06     34.3658E+06    -490.207E+03    -105.460E-03     211.241E-03    -105.781E-03     51.1837E-03    -105.766E-03     211.248E-03    -105.528E-03     50.1866E-03
            1648     9.71705E-03     50.2761E-03    -41.2058E+06    -38.4111E+06     27.4168E+06    -547.480E+03    -105.493E-03     211.317E-03    -105.824E-03     50.2278E-03    -105.781E-03     211.244E-03    -105.572E-03     49.2912E-03
            1649     8.90779E-03     50.2213E-03    -45.7617E+06    -54.6694E+06     20.2567E+06    -449.484E+03    -105.578E-03     211.443E-03    -105.865E-03     49.5812E-03    -105.844E-03     211.294E-03    -105.618E-03     48.7245E-03
            1650     8.09833E-03     50.1657E-03    -52.1780E+06    -71.6208E+06     12.5260E+06    -1.06002E+06    -105.406E-03     211.326E-03    -105.920E-03     48.6279E-03    -105.658E-03     211.102E-03    -105.678E-03     47.8385E-03
            1651     7.28638E-03     50.1140E-03    -60.9617E+06    -88.5050E+06     1.32682E+06    -342.985E+03    -105.611E-03     211.580E-03    -105.969E-03     46.4685E-03    -105.856E-03     211.290E-03    -105.745E-03     45.7545E-03
            1652     6.47687E-03     50.0650E-03    -66.1893E+06    -104.017E+06    -8.72726E+06    -788.294E+03    -105.871E-03     211.868E-03    -105.997E-03     44.2415E-03    -106.094E-03     211.512E-03    -105.794E-03     43.5957E-03
            1653     5.66710E-03     50.0178E-03    -71.9081E+06    -118.989E+06    -17.3813E+06    -2.64588E+06    -105.836E-03     211.858E-03    -106.022E-03     40.0489E-03    -106.045E-03     211.439E-03    -105.832E-03     39.4215E-03
            1654     4.85779E-03     49.9773E-03    -81.2078E+06    -134.385E+06    -30.1081E+06    -47.5229E+03    -105.488E-03     211.550E-03    -106.062E-03     34.7232E-03    -105.691E-03     211.074E-03    -105.899E-03     34.2066E-03
            1655     4.04825E-03     49.9398E-03    -88.9579E+06    -151.601E+06    -46.7935E+06     2.34190E+06    -105.229E-03     211.383E-03    -106.154E-03     30.4087E-03    -105.409E-03     210.844E-03    -106.039E-03     30.0385E-03
            1656     3.23719E-03     49.9072E-03    -98.6923E+06    -174.449E+06    -67.8756E+06    -330.859E+03    -105.563E-03     211.836E-03    -106.273E-03     25.0788E-03    -105.718E-03     211.219E-03    -106.217E-03     24.7599E-03
            1657     2.42652E-03     49.8829E-03    -107.043E+06    -193.969E+06    -86.3184E+06    -1.95843E+06    -106.089E-03     212.436E-03    -106.346E-03     18.9864E-03    -106.224E-03     211.753E-03    -106.341E-03     18.7108E-03
            1658     1.61826E-03     49.8654E-03    -111.826E+06    -208.657E+06    -100.652E+06    -821.933E+03    -106.301E-03     212.649E-03    -106.349E-03     13.2674E-03    -106.412E-03     211.915E-03    -106.387E-03     13.0916E-03
            1659     810.254E-06     49.8534E-03    -116.235E+06    -222.397E+06    -113.857E+06    -150.921E+03    -105.807E-03     212.644E-03    -106.837E-03     7.03220E-03    -105.893E-03     211.871E-03    -106.915E-03     6.95817E-03
            1660     15.3903E-03     49.4626E-03    -4.92134E+06     108.279E+06     87.1298E+06     192.899E+03    -106.218E-03     211.799E-03    -105.581E-03     26.6527E-03    -106.617E-03     212.312E-03    -105.295E-03     25.4773E-03
            1661     14.5829E-03     49.4248E-03    -11.3182E+06     100.189E+06     69.6455E+06     1.03289E+06    -105.461E-03     210.940E-03    -105.479E-03     36.4987E-03    -105.892E-03     211.484E-03    -105.259E-03     35.1735E-03
            1662     13.7711E-03     49.3847E-03    -18.8746E+06     89.0374E+06     61.0378E+06     569.143E+03    -104.224E-03     209.714E-03    -105.489E-03     42.0128E-03    -104.669E-03     210.230E-03    -105.286E-03     40.7542E-03
            1663     12.9593E-03     49.3349E-03    -23.2817E+06     64.9821E+06     57.0689E+06    -1.30878E+06    -104.689E-03     210.261E-03    -105.572E-03     47.0469E-03    -105.117E-03     210.671E-03    -105.347E-03     45.8221E-03
            1664     12.1504E-03     49.2801E-03    -26.9635E+06     27.6379E+06     48.6367E+06    -2.63871E+06    -105.558E-03     211.181E-03    -105.624E-03     50.1411E-03    -105.934E-03     211.419E-03    -105.381E-03     48.9516E-03
            1665     11.3394E-03     49.2225E-03    -31.1768E+06     3.04651E+06     42.4093E+06    -88.4355E+03    -105.382E-03     211.040E-03    -105.657E-03     51.2331E-03    -105.725E-03     211.159E-03    -105.404E-03     50.1599E-03
            1666     10.5289E-03     49.1635E-03    -34.2929E+06    -18.3683E+06     35.5628E+06     403.163E+03    -105.124E-03     210.830E-03    -105.707E-03     51.3903E-03    -105.430E-03     210.846E-03    -105.452E-03     50.4062E-03
            1667     9.71950E-03     49.1076E-03    -38.8320E+06    -38.6292E+06     28.7519E+06    -1.72075E+06    -105.043E-03     210.824E-03    -105.781E-03     50.9591E-03    -105.322E-03     210.744E-03    -105.525E-03     50.0166E-03
            1668     8.90789E-03     49.0495E-03    -45.7777E+06    -54.0348E+06     21.1600E+06    -662.289E+03    -104.904E-03     210.775E-03    -105.871E-03     49.9187E-03    -105.173E-03     210.628E-03    -105.620E-03     49.0667E-03
            1669     8.09622E-03     48.9974E-03    -52.6249E+06    -71.8116E+06     11.6743E+06    -331.137E+03    -105.123E-03     211.091E-03    -105.967E-03     48.9638E-03    -105.377E-03     210.869E-03    -105.729E-03     48.1785E-03
            1670     7.28680E-03     48.9425E-03    -58.7989E+06    -88.0454E+06     2.75253E+06    -1.75902E+06    -105.709E-03     211.747E-03    -106.038E-03     46.3672E-03    -105.947E-03     211.455E-03    -105.811E-03     45.6224E-03
            1671     6.47662E-03     48.8944E-03    -65.9793E+06    -102.999E+06    -7.62598E+06    -880.063E+03    -105.913E-03     211.978E-03    -106.064E-03     43.1557E-03    -106.138E-03     211.624E-03    -105.858E-03     42.5010E-03
            1672     5.66702E-03     48.8457E-03    -74.8035E+06    -122.101E+06    -20.7962E+06    -2.02715E+06    -105.698E-03     211.789E-03    -106.092E-03     39.9797E-03    -105.909E-03     211.362E-03    -105.910E-03     39.3760E-03
            1673     4.85745E-03     48.8062E-03    -82.9735E+06    -137.367E+06    -31.9583E+06    -1.05401E+06    -105.783E-03     211.919E-03    -106.137E-03     35.9616E-03    -105.986E-03     211.433E-03    -105.977E-03     35.4504E-03
            1674     4.04713E-03     48.7694E-03    -90.1818E+06    -150.958E+06    -46.6272E+06     2.95810E+06    -105.897E-03     212.049E-03    -106.152E-03     31.7566E-03    -106.084E-03     211.515E-03    -106.035E-03     31.4023E-03
            1675     3.23739E-03     48.7372E-03    -96.2380E+06    -170.143E+06    -65.2848E+06     2.31798E+06    -105.755E-03     211.926E-03    -106.172E-03     25.4291E-03    -105.907E-03     211.323E-03    -106.112E-03     25.1473E-03
            1676     2.42837E-03     48.7107E-03    -105.271E+06    -192.660E+06    -86.3278E+06    -667.769E+03    -105.775E-03     212.012E-03    -106.237E-03     18.7266E-03    -105.902E-03     211.333E-03    -106.237E-03     18.4682E-03
            1677     1.61838E-03     48.6933E-03    -114.476E+06    -211.848E+06    -104.616E+06    -2.00924E+06    -106.118E-03     212.424E-03    -106.306E-03     13.5021E-03    -106.232E-03     211.683E-03    -106.356E-03     13.3011E-03
            1678     808.639E-06     48.6808E-03    -117.280E+06    -222.659E+06    -114.077E+06    -572.818E+03    -106.290E-03     212.656E-03    -106.366E-03     7.86372E-03    -106.381E-03     211.883E-03    -106.444E-03     7.77782E-03
            1679     15.3902E-03     48.2862E-03    -5.12205E+06     105.832E+06      89.818E+06     1.55155E+06    -105.374E-03     211.051E-03    -105.676E-03     27.6747E-03    -105.780E-03     211.554E-03    -105.373E-03     26.4863E-03
            1680     14.5803E-03     48.2553E-03    -9.32753E+06     99.4054E+06     75.0042E+06     3.04970E+06    -105.705E-03     211.307E-03    -105.602E-03     36.5624E-03    -106.137E-03     211.841E-03    -105.358E-03     35.2321E-03
            1681     13.7704E-03     48.2145E-03    -12.9290E+06     93.0190E+06     67.5843E+06     337.600E+03    -105.291E-03     210.864E-03    -105.573E-03     42.1982E-03    -105.725E-03     211.386E-03    -105.351E-03     40.9045E-03
            1682     12.9609E-03     48.1651E-03    -17.8798E+06     68.7766E+06     62.9248E+06    -1.53212E+06    -105.256E-03     210.866E-03    -105.609E-03     48.8724E-03    -105.674E-03     211.282E-03    -105.369E-03     47.6364E-03
            1683     12.1497E-03     48.1083E-03    -25.1876E+06     26.4590E+06     49.0373E+06    -1.92423E+06    -105.742E-03     211.369E-03    -105.627E-03     51.9949E-03    -106.112E-03     211.602E-03    -105.384E-03     50.8098E-03
            1684     11.3411E-03     48.0524E-03    -29.0859E+06    -103.528E+03     42.1797E+06    -2.49056E+06    -105.529E-03     211.182E-03    -105.653E-03     52.4151E-03    -105.857E-03     211.284E-03    -105.399E-03     51.3181E-03
            1685     10.5296E-03     47.9950E-03    -33.1647E+06    -17.2829E+06     36.8088E+06    -794.595E+03    -104.987E-03     210.694E-03    -105.708E-03     52.6273E-03    -105.290E-03     210.712E-03    -105.450E-03     51.6431E-03
            1686     9.71779E-03     47.9363E-03    -40.7511E+06    -39.7009E+06     26.8430E+06    -126.112E+03    -104.791E-03     210.583E-03    -105.793E-03     51.7712E-03    -105.075E-03     210.504E-03    -105.542E-03     50.8577E-03
            1687     8.90729E-03     47.8822E-03    -44.8547E+06    -55.6861E+06     20.7856E+06    -1.39015E+06    -104.959E-03     210.857E-03    -105.899E-03     50.3401E-03    -105.222E-03     210.703E-03    -105.649E-03     49.4675E-03
            1688     8.09699E-03     47.8257E-03    -50.5857E+06    -69.8028E+06     13.7966E+06    -758.122E+03    -105.290E-03     211.283E-03    -105.993E-03     48.8464E-03    -105.540E-03     211.066E-03    -105.750E-03     48.0489E-03
            1689     7.28631E-03     47.7725E-03    -59.8162E+06    -88.1532E+06     2.77487E+06     123.441E+03    -105.515E-03     211.581E-03    -106.066E-03     47.0003E-03    -105.758E-03     211.291E-03    -105.838E-03     46.2824E-03
            1690     6.47722E-03     47.7215E-03    -67.7444E+06    -103.881E+06    -8.54702E+06     583.916E+03    -105.585E-03     211.714E-03    -106.129E-03     43.9910E-03    -105.817E-03     211.361E-03    -105.923E-03     43.3550E-03
            1691     5.66652E-03     47.6776E-03    -75.2165E+06    -121.718E+06    -23.2283E+06    -645.014E+03    -105.626E-03     211.810E-03    -106.184E-03     40.3719E-03    -105.835E-03     211.387E-03    -106.014E-03     39.8038E-03
            1692     4.85505E-03     47.6339E-03    -82.0068E+06    -140.772E+06    -35.0697E+06    -3.92082E+06    -106.128E-03     212.350E-03    -106.222E-03     35.5883E-03    -106.316E-03     211.849E-03    -106.075E-03     35.0389E-03
            1693     4.04665E-03     47.5977E-03    -89.0396E+06    -152.980E+06    -44.9936E+06    -1.35295E+06    -106.407E-03     212.595E-03    -106.188E-03     30.4952E-03    -106.589E-03     212.049E-03    -106.062E-03     30.0498E-03
            1694     3.23844E-03     47.5644E-03    -95.4929E+06    -167.107E+06    -61.6032E+06     1.94845E+06    -105.923E-03     212.055E-03    -106.133E-03     25.4217E-03    -106.084E-03     211.463E-03    -106.060E-03     25.0980E-03
            1695     2.42814E-03     47.5413E-03    -103.495E+06    -189.388E+06    -82.4279E+06     1.20852E+06    -105.740E-03     211.901E-03    -106.161E-03     19.8972E-03    -105.870E-03     211.231E-03    -106.149E-03     19.6528E-03
            1696     1.61821E-03     47.5210E-03    -113.890E+06    -212.158E+06    -103.465E+06     26.9726E+03    -106.026E-03     212.243E-03    -106.217E-03     13.6941E-03    -106.138E-03     211.499E-03    -106.262E-03     13.5235E-03
            1697     809.136E-06     47.5095E-03    -117.621E+06    -224.337E+06    -114.149E+06    -492.280E+03    -106.390E-03     212.468E-03    -106.078E-03     7.14423E-03    -106.482E-03     211.687E-03    -106.153E-03     7.04987E-03
            1698     15.3879E-03     47.1194E-03     -3.1832E+06     104.048E+06     91.5628E+06     117.407E+03    -104.538E-03     210.241E-03    -105.703E-03     24.4318E-03    -104.928E-03     210.723E-03    -105.391E-03     23.2397E-03
            1699     14.5769E-03     47.0805E-03    -5.02959E+06     99.0609E+06     79.6122E+06     302.561E+03    -104.516E-03     210.210E-03    -105.694E-03     35.0069E-03    -104.928E-03     210.725E-03    -105.432E-03     33.6589E-03
            1700     13.7692E-03     47.0431E-03    -8.67600E+06     95.7626E+06     71.7239E+06     275.772E+03    -105.697E-03     211.381E-03    -105.684E-03     42.0968E-03    -106.116E-03     211.901E-03    -105.452E-03     40.8210E-03
            1701     12.9581E-03     46.9950E-03    -15.6516E+06     67.8537E+06     63.2610E+06     1.23773E+06    -106.012E-03     211.692E-03    -105.680E-03     49.0147E-03    -106.415E-03     212.097E-03    -105.440E-03     47.8287E-03
            1702     12.1488E-03     46.9370E-03    -21.3202E+06     29.2141E+06     50.9497E+06     159.449E+03    -105.437E-03     211.126E-03    -105.690E-03     51.4364E-03    -105.792E-03     211.362E-03    -105.446E-03     50.2903E-03
            1703     11.3373E-03     46.8818E-03    -28.1882E+06     462.146E+03     41.8137E+06    -1.55906E+06    -105.074E-03     210.818E-03    -105.744E-03     52.7072E-03    -105.400E-03     210.924E-03    -105.494E-03     51.6172E-03
            1704     10.5284E-03     46.8244E-03    -36.2838E+06    -20.7565E+06     34.3511E+06    -969.812E+03    -105.202E-03     211.019E-03    -105.817E-03     53.8887E-03    -105.517E-03     211.032E-03    -105.563E-03     52.8852E-03
            1705     9.71802E-03     46.7685E-03    -39.4625E+06    -36.3813E+06     28.7411E+06    -254.377E+03    -105.361E-03     211.247E-03    -105.885E-03     52.6094E-03    -105.650E-03     211.183E-03    -105.632E-03     51.6758E-03
            1706     8.90698E-03     46.7105E-03    -46.2030E+06    -57.5556E+06     18.9374E+06    -1.52287E+06    -105.538E-03     211.479E-03    -105.942E-03     50.8884E-03    -105.803E-03     211.321E-03    -105.696E-03     50.0089E-03
            1707     8.09705E-03     46.6560E-03    -53.8206E+06    -73.7565E+06     11.3108E+06    -689.955E+03    -105.412E-03     211.422E-03    -106.010E-03     49.3254E-03    -105.668E-03     211.192E-03    -105.769E-03     48.5408E-03
            1708     7.28653E-03     46.6021E-03    -58.1192E+06    -86.6477E+06     3.71205E+06     666.459E+03    -105.162E-03     211.265E-03    -106.103E-03     47.2058E-03    -105.399E-03     210.978E-03    -105.875E-03     46.5055E-03
            1709     6.47442E-03     46.5516E-03    -64.3003E+06    -102.821E+06    -6.97777E+06    -442.447E+03    -105.571E-03     211.765E-03    -106.195E-03     43.6411E-03    -105.789E-03     211.411E-03    -105.987E-03     42.9857E-03
            1710     5.66503E-03     46.5052E-03    -71.5103E+06    -117.557E+06    -18.1172E+06     130.955E+03    -106.206E-03     212.432E-03    -106.226E-03     39.3241E-03    -106.411E-03     212.019E-03    -106.043E-03     38.7466E-03
            1711     4.85780E-03     46.4626E-03    -82.5952E+06    -140.165E+06    -36.7263E+06    -946.125E+03    -106.262E-03     212.450E-03    -106.188E-03     35.5811E-03    -106.453E-03     211.957E-03    -106.048E-03     35.0562E-03
            1712     4.04836E-03     46.4245E-03    -90.1982E+06    -158.649E+06    -49.6550E+06    -3.98559E+06    -106.068E-03     212.238E-03    -106.170E-03     30.9809E-03    -106.242E-03     211.673E-03    -106.058E-03     30.4865E-03
            1713     3.23720E-03     46.3952E-03    -97.0522E+06    -170.780E+06    -62.0206E+06    -1.61406E+06    -105.906E-03     212.080E-03    -106.175E-03     25.3898E-03    -106.068E-03     211.472E-03    -106.097E-03     25.0185E-03
            1714     2.42753E-03     46.3688E-03    -105.359E+06    -188.994E+06    -81.6083E+06     1.95323E+06    -105.969E-03     212.140E-03    -106.171E-03     19.9271E-03    -106.110E-03     211.473E-03    -106.152E-03     19.6997E-03
            1715     1.61918E-03     46.3497E-03    -110.374E+06    -208.578E+06    -98.9452E+06     1.77565E+06    -106.125E-03     212.277E-03    -106.152E-03     14.1097E-03    -106.232E-03     211.539E-03    -106.184E-03     13.9584E-03
            1716     809.906E-06     46.3376E-03    -115.137E+06    -225.439E+06    -113.358E+06     74.5624E+03    -106.049E-03     212.247E-03    -106.198E-03     8.27516E-03    -106.128E-03     211.456E-03    -106.271E-03     8.17044E-03
            1717     15.3935E-03     45.9497E-03    -5.64117E+06     105.320E+06     88.4227E+06    -1.77826E+06    -104.555E-03     210.212E-03    -105.657E-03     23.3316E-03    -104.950E-03     210.704E-03    -105.359E-03     22.1358E-03
            1718     14.5806E-03     45.9138E-03    -9.04208E+06     99.1613E+06     74.1323E+06    -1.38326E+06    -103.838E-03     209.495E-03    -105.657E-03     35.3034E-03    -104.258E-03     210.019E-03    -105.417E-03     33.9825E-03
            1719     13.7655E-03     45.8713E-03    -13.2702E+06     93.1294E+06     66.0404E+06     312.062E+03    -105.270E-03     210.951E-03    -105.681E-03     40.6302E-03    -105.692E-03     211.465E-03    -105.467E-03     39.3929E-03
            1720     12.9592E-03     45.8205E-03    -18.4942E+06     64.7291E+06     59.9352E+06     364.889E+03    -105.985E-03     211.683E-03    -105.698E-03     46.3166E-03    -106.388E-03     212.076E-03    -105.465E-03     45.1214E-03
            1721     12.1493E-03     45.7684E-03    -21.7809E+06     31.6593E+06     52.4501E+06     1.20649E+06    -105.060E-03     210.790E-03    -105.731E-03     49.7253E-03    -105.422E-03     211.036E-03    -105.483E-03     48.5778E-03
            1722     11.3381E-03     45.7122E-03    -28.3944E+06     4.39803E+06     43.0918E+06     1.32490E+06    -104.617E-03     210.426E-03    -105.810E-03     51.3929E-03    -104.952E-03     210.552E-03    -105.559E-03     50.3211E-03
            1723     10.5251E-03     45.6547E-03    -33.4079E+06    -22.5437E+06     34.3787E+06    -1.30806E+06    -104.965E-03     210.875E-03    -105.909E-03     52.3495E-03    -105.263E-03     210.874E-03    -105.656E-03     51.3269E-03
            1724     9.71548E-03     45.5956E-03    -38.7466E+06    -37.0102E+06     29.7228E+06    -1.03494E+06    -105.463E-03     211.458E-03    -105.995E-03     52.6063E-03    -105.749E-03     211.389E-03    -105.737E-03     51.6588E-03
            1725     8.90671E-03     45.5409E-03    -46.5628E+06    -54.2105E+06     20.0382E+06     604.067E+03    -105.762E-03     211.806E-03    -106.043E-03     51.6635E-03    -106.035E-03     211.663E-03    -105.797E-03     50.8211E-03
            1726     8.09602E-03     45.4847E-03    -52.6457E+06    -74.5042E+06     10.0231E+06    -1.28525E+06    -105.862E-03     211.944E-03    -106.082E-03     49.8626E-03    -106.109E-03     211.711E-03    -105.847E-03     49.0691E-03
            1727     7.28580E-03     45.4325E-03    -57.1455E+06    -88.2398E+06     3.65450E+06    -2.20351E+06    -105.976E-03     212.097E-03    -106.120E-03     46.9245E-03    -106.208E-03     211.802E-03    -105.891E-03     46.1628E-03
            1728     6.47693E-03     45.3806E-03    -63.5438E+06    -101.131E+06    -4.94269E+06    -665.249E+03    -105.885E-03     212.035E-03    -106.150E-03     43.3710E-03    -106.107E-03     211.687E-03    -105.936E-03     42.6910E-03
            1729     5.66763E-03     45.3325E-03    -73.5530E+06    -119.106E+06    -18.2244E+06     1.21133E+06    -105.795E-03     211.977E-03    -106.182E-03     39.7456E-03    -106.009E-03     211.560E-03    -105.994E-03     39.1803E-03
            1730     4.85611E-03     45.2916E-03    -80.7337E+06    -135.732E+06    -33.0280E+06     1.84149E+06    -105.777E-03     211.994E-03    -106.217E-03     36.1612E-03    -105.969E-03     211.514E-03    -106.068E-03     35.6990E-03
            1731     4.04544E-03     45.2538E-03    -89.9301E+06    -158.673E+06    -52.2913E+06    -1.40694E+06    -105.897E-03     212.144E-03    -106.247E-03     31.3083E-03    -106.064E-03     211.581E-03    -106.148E-03     30.8737E-03
            1732     3.23773E-03     45.2226E-03    -101.394E+06    -179.148E+06    -69.6611E+06     -3.1238E+06    -106.246E-03     212.489E-03    -106.242E-03     25.6487E-03    -106.407E-03     211.856E-03    -106.184E-03     25.2657E-03
            1733     2.42890E-03     45.1979E-03    -106.759E+06    -190.409E+06    -83.4254E+06    -301.378E+03    -106.241E-03     212.421E-03    -106.179E-03     20.1644E-03    -106.385E-03     211.751E-03    -106.166E-03     19.9049E-03
            1734     1.61806E-03     45.1781E-03    -110.859E+06    -206.420E+06    -98.4099E+06     1.59246E+06    -106.007E-03     212.156E-03    -106.149E-03     13.9975E-03    -106.120E-03     211.429E-03    -106.181E-03     13.8429E-03
            1735     808.384E-06     45.1661E-03    -115.207E+06    -223.058E+06    -111.546E+06     1.53795E+06    -105.760E-03     212.291E-03    -106.532E-03     7.65699E-03    -105.845E-03     211.508E-03    -106.599E-03     7.58141E-03
            1736     15.3871E-03     44.7792E-03    -6.00661E+06     108.527E+06     88.2291E+06     342.772E+03    -104.809E-03     210.499E-03    -105.691E-03     24.7190E-03    -105.216E-03     211.014E-03    -105.398E-03     23.5190E-03
            1737     14.5781E-03     44.7445E-03    -14.6256E+06     98.5649E+06     69.4325E+06    -1.91251E+06    -105.678E-03     211.301E-03    -105.624E-03     35.9056E-03    -106.124E-03     211.845E-03    -105.398E-03     34.5146E-03
            1738     13.7724E-03     44.6998E-03    -17.8879E+06     90.0688E+06     62.5997E+06    -2.27881E+06    -104.862E-03     210.477E-03    -105.615E-03     41.6169E-03    -105.305E-03     210.994E-03    -105.407E-03     40.3110E-03
            1739     12.9588E-03     44.6498E-03    -20.2133E+06     65.4824E+06     60.2992E+06    -1.64881E+06    -104.501E-03     210.199E-03    -105.698E-03     46.8773E-03    -104.919E-03     210.602E-03    -105.462E-03     45.6459E-03
            1740     12.1478E-03     44.5985E-03    -24.8189E+06     28.9752E+06     50.6495E+06    -685.610E+03    -104.819E-03     210.602E-03    -105.783E-03     50.3191E-03    -105.191E-03     210.842E-03    -105.536E-03     49.1513E-03
            1741     11.3373E-03     44.5423E-03    -27.5953E+06     4.98232E+06     43.8131E+06     801.151E+03    -105.362E-03     211.213E-03    -105.851E-03     52.5391E-03    -105.696E-03     211.339E-03    -105.599E-03     51.4645E-03
            1742     10.5287E-03     44.4851E-03    -31.9482E+06    -19.7906E+06     35.8652E+06    -8.57275E+03    -105.311E-03     211.222E-03    -105.912E-03     51.7341E-03    -105.606E-03     211.231E-03    -105.658E-03     50.7227E-03
            1743     9.71596E-03     44.4269E-03    -39.0523E+06    -40.6106E+06     27.7444E+06    -640.418E+03    -104.759E-03     210.766E-03    -106.007E-03     51.2626E-03    -105.035E-03     210.679E-03    -105.753E-03     50.3353E-03
            1744     8.90407E-03     44.3682E-03    -44.0754E+06    -52.6481E+06     21.9010E+06     529.201E+03    -105.280E-03     211.396E-03    -106.116E-03     50.9905E-03    -105.545E-03     211.255E-03    -105.866E-03     50.1410E-03
            1745     8.09499E-03     44.3144E-03    -50.3107E+06    -69.5491E+06     12.9815E+06     302.813E+03    -106.272E-03     212.434E-03    -106.163E-03     49.5785E-03    -106.522E-03     212.222E-03    -105.924E-03     48.7749E-03
            1746     7.28630E-03     44.2591E-03    -60.7510E+06    -90.8004E+06     613.032E+03    -1.24347E+06    -106.324E-03     212.480E-03    -106.157E-03     47.3892E-03    -106.566E-03     212.183E-03    -105.934E-03     46.6375E-03
            1747     6.47698E-03     44.2096E-03    -68.6647E+06    -104.675E+06    -9.20352E+06    -500.417E+03    -105.780E-03     211.958E-03    -106.177E-03     45.0248E-03    -106.016E-03     211.605E-03    -105.972E-03     44.3735E-03
            1748     5.66530E-03     44.1630E-03    -73.9960E+06    -119.109E+06    -18.9940E+06     1.52254E+06    -105.634E-03     211.879E-03    -106.245E-03     41.3512E-03    -105.849E-03     211.463E-03    -106.060E-03     40.8086E-03
            1749     4.85634E-03     44.1198E-03    -81.6867E+06    -136.212E+06    -32.4664E+06     1.60705E+06    -105.915E-03     212.218E-03    -106.303E-03     36.2907E-03    -106.112E-03     211.736E-03    -106.149E-03     35.8210E-03
            1750     4.04772E-03     44.0826E-03    -89.6639E+06    -154.746E+06    -49.7551E+06     1.12449E+06    -106.013E-03     212.337E-03    -106.324E-03     31.0556E-03    -106.188E-03     211.789E-03    -106.218E-03     30.6468E-03
            1751     3.23631E-03     44.0507E-03    -98.4089E+06    -177.267E+06    -69.7004E+06    -1.63316E+06    -106.221E-03     212.535E-03    -106.314E-03     25.8188E-03    -106.370E-03     211.907E-03    -106.263E-03     25.4468E-03
            1752     2.42709E-03     44.0252E-03    -107.711E+06    -194.918E+06    -86.5300E+06    -2.93026E+06    -106.622E-03     212.831E-03    -106.209E-03     19.8657E-03    -106.759E-03     212.145E-03    -106.203E-03     19.5626E-03
            1753     1.61949E-03     44.0072E-03    -112.350E+06    -207.395E+06    -100.665E+06    -618.053E+03    -106.490E-03     212.441E-03    -105.951E-03     13.1358E-03    -106.606E-03     211.715E-03    -105.991E-03     12.9467E-03
            1754     810.269E-06     43.9942E-03    -115.243E+06    -221.383E+06    -112.243E+06    -569.054E+03    -105.860E-03     211.557E-03    -105.698E-03     6.75703E-03    -105.947E-03     210.784E-03    -105.771E-03     6.65298E-03
            1755     15.3881E-03     43.6069E-03    -5.07437E+06     109.371E+06     91.1260E+06     1.52916E+06    -104.892E-03     210.617E-03    -105.724E-03     24.7895E-03    -105.300E-03     211.131E-03    -105.420E-03     23.6081E-03
            1756     14.5816E-03     43.5681E-03    -11.8705E+06     101.933E+06     74.7254E+06    -1.02580E+06    -105.589E-03     211.253E-03    -105.664E-03     35.4046E-03    -106.037E-03     211.804E-03    -105.421E-03     34.0000E-03
            1757     13.7682E-03     43.5329E-03    -17.6232E+06     89.5696E+06     63.7615E+06    -2.55366E+06    -104.499E-03     210.158E-03    -105.659E-03     43.0056E-03    -104.946E-03     210.675E-03    -105.445E-03     41.6872E-03
            1758     12.9578E-03     43.4798E-03    -21.1467E+06     65.8634E+06     59.7865E+06    -1.93772E+06    -104.153E-03     209.914E-03    -105.761E-03     48.3904E-03    -104.578E-03     210.324E-03    -105.527E-03     47.1614E-03
            1759     12.1466E-03     43.4295E-03    -25.3369E+06     28.2245E+06     48.9640E+06    -2.34616E+06    -104.904E-03     210.760E-03    -105.856E-03     50.4649E-03    -105.273E-03     210.997E-03    -105.615E-03     49.2916E-03
            1760     11.3360E-03     43.3704E-03    -30.0488E+06     1.01924E+06     41.5620E+06    -1.91157E+06    -105.464E-03     211.392E-03    -105.928E-03     53.1613E-03    -105.800E-03     211.504E-03    -105.678E-03     52.0624E-03
            1761     10.5256E-03     43.3130E-03    -34.4611E+06    -18.0946E+06     35.4346E+06     1.11885E+06    -105.718E-03     211.696E-03    -105.978E-03     53.3401E-03    -106.033E-03     211.722E-03    -105.725E-03     52.3261E-03
            1762     9.71770E-03     43.2580E-03    -39.4613E+06    -37.6358E+06     27.3038E+06     857.197E+03    -105.568E-03     211.593E-03    -106.025E-03     52.5499E-03    -105.854E-03     211.526E-03    -105.777E-03     51.6202E-03
            1763     8.90612E-03     43.2003E-03    -46.8555E+06    -56.4381E+06     19.5866E+06    -476.571E+03    -105.488E-03     211.584E-03    -106.097E-03     51.7198E-03    -105.760E-03     211.433E-03    -105.849E-03     50.8505E-03
            1764     8.09520E-03     43.1402E-03    -53.7391E+06    -71.2584E+06     11.6547E+06     1.50185E+06    -105.762E-03     211.922E-03    -106.161E-03     49.1328E-03    -106.025E-03     211.708E-03    -105.921E-03     48.3446E-03
            1765     7.28527E-03     43.0892E-03    -59.2252E+06    -87.5977E+06     1.50284E+06     1.24279E+06    -105.652E-03     211.868E-03    -106.215E-03     46.4899E-03    -105.891E-03     211.581E-03    -105.995E-03     45.7850E-03
            1766     6.47372E-03     43.0385E-03    -66.8250E+06    -105.822E+06    -9.81622E+06    -1.10755E+06    -105.823E-03     212.100E-03    -106.277E-03     44.1617E-03    -106.046E-03     211.738E-03    -106.076E-03     43.5013E-03
            1767     5.66572E-03     42.9914E-03    -74.8442E+06    -121.061E+06    -19.8438E+06    -812.488E+03    -106.154E-03     212.472E-03    -106.318E-03     40.3872E-03    -106.370E-03     212.050E-03    -106.133E-03     39.7948E-03
            1768     4.85561E-03     42.9478E-03    -82.9686E+06    -136.554E+06    -32.8728E+06     718.795E+03    -106.110E-03     212.436E-03    -106.326E-03     35.8849E-03    -106.314E-03     211.956E-03    -106.172E-03     35.3823E-03
            1769     4.04533E-03     42.9110E-03    -90.2218E+06    -154.108E+06    -47.9655E+06     809.131E+03    -106.130E-03     212.457E-03    -106.327E-03     30.7914E-03    -106.313E-03     211.912E-03    -106.212E-03     30.3687E-03
            1770     3.23751E-03     42.8790E-03    -97.5327E+06    -173.288E+06    -65.9815E+06     919.973E+03    -106.231E-03     212.531E-03    -106.301E-03     25.5616E-03    -106.386E-03     211.917E-03    -106.238E-03     25.2295E-03
            1771     2.42833E-03     42.8528E-03    -106.271E+06    -195.734E+06    -86.9196E+06    -940.764E+03    -106.411E-03     212.624E-03    -106.213E-03     19.8415E-03    -106.539E-03     211.933E-03    -106.210E-03     19.5680E-03
            1772     1.61908E-03     42.8340E-03    -112.334E+06    -211.188E+06    -101.793E+06    -2.44816E+06    -106.418E-03     212.456E-03    -106.038E-03     13.5860E-03    -106.527E-03     211.712E-03    -106.078E-03     13.3699E-03
            1773     810.199E-06     42.8254E-03    -115.728E+06    -222.193E+06    -112.477E+06    -542.029E+03    -106.296E-03     211.819E-03    -105.523E-03     7.68128E-03    -106.384E-03     211.043E-03    -105.596E-03     7.56582E-03
            1774     15.3913E-03     42.4343E-03    -3.97314E+06     107.410E+06     91.4129E+06     2.67016E+03    -104.465E-03     210.161E-03    -105.696E-03     25.2151E-03    -104.862E-03     210.660E-03    -105.389E-03     24.0610E-03
            1775     14.5760E-03     42.4006E-03    -6.57863E+06     103.026E+06     79.7265E+06     750.994E+03    -103.685E-03     209.400E-03    -105.714E-03     34.7205E-03    -104.109E-03     209.934E-03    -105.455E-03     33.4051E-03
            1776     13.7679E-03     42.3598E-03    -12.4164E+06     93.0797E+06     66.1362E+06     276.738E+03    -104.191E-03     209.949E-03    -105.759E-03     41.8110E-03    -104.614E-03     210.468E-03    -105.545E-03     40.5582E-03
            1777     12.9565E-03     42.3128E-03    -19.1734E+06     64.0760E+06     57.3014E+06    -1.78972E+06    -104.850E-03     210.692E-03    -105.842E-03     48.4659E-03    -105.259E-03     211.095E-03    -105.621E-03     47.2284E-03
            1778     12.1462E-03     42.2562E-03    -25.4703E+06     28.4547E+06     48.9307E+06    -1.06898E+06    -105.262E-03     211.183E-03    -105.922E-03     50.8765E-03    -105.636E-03     211.426E-03    -105.681E-03     49.6949E-03
            1779     11.3363E-03     42.2021E-03    -30.8755E+06     564.961E+03     40.0707E+06    -1.68785E+06    -105.098E-03     211.092E-03    -105.993E-03     52.4597E-03    -105.438E-03     211.207E-03    -105.749E-03     51.3465E-03
            1780     10.5245E-03     42.1420E-03    -36.6482E+06    -21.3605E+06     33.3271E+06    -2.03234E+06    -105.133E-03     211.221E-03    -106.088E-03     53.1084E-03    -105.451E-03     211.236E-03    -105.837E-03     52.0577E-03
            1781     9.71301E-03     42.0853E-03    -43.1875E+06    -36.1105E+06     27.1004E+06     1.28964E+06    -106.348E-03     212.486E-03    -106.138E-03     53.0888E-03    -106.657E-03     212.435E-03    -105.887E-03     52.1445E-03
            1782     8.90597E-03     42.0285E-03    -49.0243E+06    -55.7871E+06     18.3464E+06     1.75019E+06    -106.706E-03     212.828E-03    -106.122E-03     52.5242E-03    -106.989E-03     212.685E-03    -105.878E-03     51.6828E-03
            1783     8.09633E-03     41.9708E-03    -53.3441E+06    -73.1641E+06     10.3948E+06    -1.19308E+06    -105.759E-03     211.891E-03    -106.132E-03     49.3791E-03    -106.014E-03     211.667E-03    -105.897E-03     48.5715E-03
            1784     7.28500E-03     41.9182E-03    -57.3663E+06    -86.1893E+06     3.96408E+06    -105.149E+03    -105.723E-03     211.915E-03    -106.191E-03     45.8089E-03    -105.959E-03     211.629E-03    -105.963E-03     45.0755E-03
            1785     6.47650E-03     41.8672E-03    -65.2259E+06    -103.942E+06    -7.15462E+06     1.07468E+06    -106.041E-03     212.270E-03    -106.228E-03     43.0623E-03    -106.264E-03     211.913E-03    -106.019E-03     42.4035E-03
            1786     5.66572E-03     41.8187E-03    -74.3351E+06    -122.470E+06    -20.6780E+06    -765.107E+03    -105.921E-03     212.171E-03    -106.250E-03     39.8031E-03    -106.132E-03     211.744E-03    -106.068E-03     39.1929E-03
            1787     4.85668E-03     41.7773E-03    -81.5485E+06    -136.777E+06    -31.8976E+06    -1.08391E+06    -106.018E-03     212.298E-03    -106.280E-03     35.8325E-03    -106.216E-03     211.814E-03    -106.123E-03     35.3021E-03
            1788     4.04771E-03     41.7384E-03    -90.7366E+06    -154.919E+06    -47.5083E+06     58.2119E+03    -106.244E-03     212.512E-03    -106.267E-03     30.7385E-03    -106.429E-03     211.962E-03    -106.149E-03     30.3109E-03
            1789     3.23722E-03     41.7076E-03    -99.1382E+06    -173.550E+06    -65.2333E+06     1.60198E+06    -106.225E-03     212.438E-03    -106.213E-03     25.4153E-03    -106.388E-03     211.822E-03    -106.144E-03     25.0999E-03
            1790     2.42767E-03     41.6808E-03    -104.334E+06    -191.873E+06    -83.3948E+06     1.69864E+06    -105.877E-03     212.078E-03    -106.202E-03     19.5987E-03    -106.005E-03     211.397E-03    -106.189E-03     19.3681E-03
            1791     1.61773E-03     41.6634E-03    -111.124E+06    -211.659E+06    -102.252E+06    -379.702E+03    -105.833E-03     212.150E-03    -106.317E-03     12.9839E-03    -105.934E-03     211.402E-03    -106.360E-03     12.8106E-03
            1792     807.939E-06     41.6521E-03    -118.214E+06    -225.488E+06    -115.061E+06    -1.59458E+06    -106.516E-03     212.808E-03    -106.292E-03     6.86056E-03    -106.608E-03     212.022E-03    -106.368E-03     6.74572E-03
            1793     15.3892E-03     41.2658E-03    -4.54379E+06     106.486E+06     89.9717E+06    -353.183E+03    -104.082E-03     209.783E-03    -105.701E-03     24.8249E-03    -104.478E-03     210.280E-03    -105.399E-03     23.6653E-03
            1794     14.5809E-03     41.2319E-03    -6.68131E+06     102.237E+06     76.9227E+06     671.462E+03    -103.615E-03     209.339E-03    -105.724E-03     34.6724E-03    -104.033E-03     209.873E-03    -105.478E-03     33.3651E-03
            1795     13.7655E-03     41.1911E-03    -10.3429E+06     95.9545E+06     66.6507E+06    -83.1447E+03    -104.201E-03     209.980E-03    -105.779E-03     40.9747E-03    -104.619E-03     210.509E-03    -105.570E-03     39.7072E-03
            1796     12.9554E-03     41.1406E-03    -16.7333E+06     63.8657E+06     58.0827E+06     2.90294E+03    -104.751E-03     210.622E-03    -105.871E-03     46.7769E-03    -105.148E-03     211.018E-03    -105.649E-03     45.5434E-03
            1797     12.1453E-03     41.0864E-03    -22.9382E+06     26.3416E+06     49.3592E+06     522.569E+03    -104.835E-03     210.805E-03    -105.970E-03     50.5217E-03    -105.195E-03     211.034E-03    -105.728E-03     49.3525E-03
            1798     11.3346E-03     41.0303E-03    -30.6742E+06     3.50823E+06     41.3142E+06     679.059E+03    -105.132E-03     211.191E-03    -106.058E-03     52.4641E-03    -105.479E-03     211.321E-03    -105.812E-03     51.3693E-03
            1799     10.5248E-03     40.9736E-03    -37.8720E+06    -23.1474E+06     32.0663E+06    -742.527E+03    -105.588E-03     211.722E-03    -106.134E-03     53.0437E-03    -105.904E-03     211.729E-03    -105.886E-03     52.0243E-03
            1800     9.71446E-03     40.9139E-03    -42.0830E+06    -38.3498E+06     27.3257E+06    -932.786E+03    -106.243E-03     212.422E-03    -106.180E-03     52.6321E-03    -106.541E-03     212.356E-03    -105.927E-03     51.6693E-03
            1801     8.90425E-03     40.8533E-03    -45.3914E+06    -52.5454E+06     21.0470E+06    -336.855E+03    -106.552E-03     212.730E-03    -106.178E-03     50.9717E-03    -106.828E-03     212.597E-03    -105.931E-03     50.0741E-03
            1802     8.09546E-03     40.8015E-03    -51.8962E+06    -72.3454E+06     11.7734E+06    -1.41100E+06    -106.298E-03     212.469E-03    -106.171E-03     49.4487E-03    -106.552E-03     212.247E-03    -105.931E-03     48.6135E-03
            1803     7.28649E-03     40.7458E-03    -60.9226E+06    -88.8573E+06     1.94588E+06    -910.125E+03    -106.191E-03     212.366E-03    -106.175E-03     47.5773E-03    -106.440E-03     212.078E-03    -105.948E-03     46.8249E-03
            1804     6.47637E-03     40.6958E-03    -67.7401E+06    -104.213E+06    -7.73542E+06     668.705E+03    -106.112E-03     212.296E-03    -106.184E-03     44.3884E-03    -106.346E-03     211.942E-03    -105.973E-03     43.7360E-03
            1805     5.66681E-03     40.6490E-03    -73.7847E+06    -120.203E+06    -19.2997E+06     1.00405E+06    -106.047E-03     212.236E-03    -106.189E-03     40.5297E-03    -106.260E-03     211.816E-03    -106.005E-03     39.9593E-03
            1806     4.85600E-03     40.6049E-03    -81.6550E+06    -138.571E+06    -32.5367E+06    -12.7154E+03    -105.990E-03     212.190E-03    -106.200E-03     35.8131E-03    -106.185E-03     211.697E-03    -106.043E-03     35.3022E-03
            1807     4.04624E-03     40.5671E-03    -90.9998E+06    -155.834E+06    -48.7433E+06     218.926E+03    -105.899E-03     212.107E-03    -106.209E-03     31.1414E-03    -106.081E-03     211.555E-03    -106.095E-03     30.7161E-03
            1808     3.23807E-03     40.5352E-03    -99.0864E+06    -173.698E+06    -66.2204E+06     467.270E+03    -105.979E-03     212.197E-03    -106.218E-03     26.1093E-03    -106.141E-03     211.583E-03    -106.153E-03     25.7709E-03
            1809     2.42868E-03     40.5103E-03    -105.319E+06    -191.340E+06    -82.7310E+06     543.189E+03    -105.888E-03     212.142E-03    -106.254E-03     19.8595E-03    -106.023E-03     211.464E-03    -106.237E-03     19.6040E-03
            1810     1.61885E-03     40.4920E-03    -112.346E+06    -209.256E+06    -100.704E+06     1.07035E+06    -105.791E-03     212.197E-03    -106.406E-03     13.6401E-03    -105.903E-03     211.460E-03    -106.443E-03     13.4817E-03
            1811     809.648E-06     40.4799E-03    -118.082E+06    -227.050E+06    -116.328E+06     110.196E+03    -106.358E-03     213.040E-03    -106.681E-03     7.78285E-03    -106.446E-03     212.247E-03    -106.762E-03     7.69395E-03
            1812     15.3891E-03     40.0945E-03    -5.71324E+06     108.207E+06     88.7848E+06    -1.39916E+06    -103.928E-03     209.653E-03    -105.725E-03     23.8391E-03    -104.332E-03     210.163E-03    -105.429E-03     22.6292E-03
            1813     14.5755E-03     40.0632E-03    -10.4100E+06     102.410E+06     73.5512E+06    -1.67254E+06    -104.198E-03     209.929E-03    -105.731E-03     34.8953E-03    -104.633E-03     210.477E-03    -105.497E-03     33.5329E-03
            1814     13.7689E-03     40.0200E-03    -14.6410E+06     93.1438E+06     65.5792E+06      898.69E+03    -104.457E-03     210.237E-03    -105.780E-03     42.1047E-03    -104.893E-03     210.761E-03    -105.566E-03     40.8468E-03
            1815     12.9579E-03     39.9710E-03    -19.6325E+06     65.6462E+06     59.1980E+06     2.69570E+06    -104.336E-03     210.214E-03    -105.879E-03     47.2801E-03    -104.751E-03     210.621E-03    -105.650E-03     46.0974E-03
            1816     12.1453E-03     39.9175E-03    -26.1551E+06     25.9357E+06     47.6428E+06     1.28255E+06    -104.449E-03     210.443E-03    -105.994E-03     50.7492E-03    -104.820E-03     210.674E-03    -105.755E-03     49.6156E-03
            1817     11.3339E-03     39.8597E-03    -29.2766E+06     4.02960E+06     43.1056E+06     831.395E+03    -105.351E-03     211.450E-03    -106.099E-03     52.3342E-03    -105.692E-03     211.576E-03    -105.847E-03     51.2515E-03
            1818     10.5235E-03     39.8015E-03    -32.4689E+06    -18.7913E+06     35.8063E+06     75.7567E+03    -106.491E-03     212.623E-03    -106.132E-03     52.8176E-03    -106.795E-03     212.641E-03    -105.879E-03     51.7858E-03
            1819     9.71535E-03     39.7413E-03    -39.8210E+06    -41.5340E+06     26.7261E+06    -2.25761E+06    -106.393E-03     212.521E-03    -106.128E-03     52.3100E-03    -106.676E-03     212.438E-03    -105.877E-03     51.3160E-03
            1820     8.90539E-03     39.6839E-03    -45.9812E+06    -54.7245E+06     21.3993E+06    -1.19698E+06    -105.653E-03     211.817E-03    -106.164E-03     50.1626E-03    -105.929E-03     211.674E-03    -105.911E-03     49.2466E-03
            1821     8.09445E-03     39.6280E-03    -52.8323E+06    -69.8801E+06     12.7175E+06     1.20100E+06    -105.791E-03     212.010E-03    -106.219E-03     49.1298E-03    -106.054E-03     211.801E-03    -105.978E-03     48.3317E-03
            1822     7.28482E-03     39.5750E-03    -61.3681E+06    -89.6589E+06     95.1797E+03    -326.935E+03    -106.167E-03     212.414E-03    -106.247E-03     47.9190E-03    -106.414E-03     212.125E-03    -106.028E-03     47.1750E-03
            1823     6.47502E-03     39.5242E-03    -68.3542E+06    -106.269E+06    -9.20917E+06    -1.51152E+06    -106.426E-03     212.678E-03    -106.252E-03     44.7660E-03    -106.659E-03     212.317E-03    -106.044E-03     44.0830E-03
            1824     5.66596E-03     39.4763E-03    -75.2839E+06    -120.077E+06    -19.4322E+06    -79.3448E+03    -106.486E-03     212.704E-03    -106.218E-03     40.9151E-03    -106.706E-03     212.287E-03    -106.032E-03     40.3292E-03
            1825     4.85816E-03     39.4339E-03    -83.5501E+06    -138.233E+06    -34.2513E+06     502.366E+03    -106.043E-03     212.230E-03    -106.187E-03     36.3561E-03    -106.246E-03     211.745E-03    -106.037E-03     35.8513E-03
            1826     4.04792E-03     39.3966E-03    -89.8569E+06    -155.695E+06    -48.8542E+06     19.7765E+03    -105.676E-03     211.896E-03    -106.220E-03     31.5649E-03    -105.854E-03     211.344E-03    -106.109E-03     31.1373E-03
            1827     3.23623E-03     39.3638E-03    -98.0839E+06    -173.789E+06    -66.2451E+06    -256.275E+03    -105.619E-03     211.932E-03    -106.313E-03     26.2088E-03    -105.777E-03     211.317E-03    -106.250E-03     25.8565E-03
            1828     2.42678E-03     39.3381E-03    -106.654E+06    -192.709E+06    -84.5097E+06    -374.622E+03    -105.812E-03     212.261E-03    -106.450E-03     20.2753E-03    -105.950E-03     211.582E-03    -106.438E-03     20.0038E-03
            1829     1.61764E-03     39.3209E-03    -112.320E+06    -209.201E+06    -100.183E+06     645.488E+03    -106.282E-03     212.858E-03    -106.577E-03     14.5365E-03    -106.395E-03     212.122E-03    -106.611E-03     14.3725E-03
            1830     807.716E-06     39.3074E-03    -115.428E+06    -224.616E+06    -110.407E+06     1.88127E+06    -106.539E-03     213.243E-03    -106.703E-03     8.44958E-03    -106.627E-03     212.449E-03    -106.762E-03     8.38635E-03
            1831     15.3886E-03     38.9267E-03    -4.57054E+06     108.898E+06     90.2900E+06    -1.21394E+06    -103.730E-03     209.469E-03    -105.739E-03     23.5544E-03    -104.132E-03     209.979E-03    -105.439E-03     22.3420E-03
            1832     14.5800E-03     38.8917E-03    -11.0898E+06     100.397E+06     73.5075E+06    -409.704E+03    -103.908E-03     209.666E-03    -105.759E-03     35.1603E-03    -104.341E-03     210.203E-03    -105.521E-03     33.8354E-03
            1833     13.7656E-03     38.8504E-03    -18.1980E+06     89.1386E+06     63.1304E+06     1.54113E+06    -103.943E-03     209.771E-03    -105.828E-03     42.9766E-03    -104.387E-03     210.284E-03    -105.616E-03     41.7509E-03
            1834     12.9542E-03     38.8009E-03    -22.4977E+06     67.0470E+06     58.4875E+06     2.12614E+06    -104.580E-03     210.520E-03    -105.940E-03     48.6036E-03    -105.012E-03     210.940E-03    -105.712E-03     47.4241E-03
            1835     12.1446E-03     38.7477E-03    -23.7930E+06     30.5844E+06     50.4055E+06     166.214E+03    -105.571E-03     211.589E-03    -106.018E-03     50.9693E-03    -105.943E-03     211.838E-03    -105.776E-03     49.7976E-03
            1836     11.3347E-03     38.6890E-03    -28.4423E+06     3.02311E+06     43.6624E+06    -1.05210E+06    -106.099E-03     212.157E-03    -106.058E-03     52.1258E-03    -106.437E-03     212.277E-03    -105.802E-03     50.9998E-03
            1837     10.5257E-03     38.6287E-03    -35.3307E+06    -18.0196E+06     35.2777E+06    -61.9578E+03    -106.293E-03     212.357E-03    -106.063E-03     52.3282E-03    -106.613E-03     212.385E-03    -105.810E-03     51.2778E-03
            1838     9.71563E-03     38.5693E-03    -41.4594E+06    -40.6656E+06     25.9971E+06     76.0830E+03    -105.968E-03     212.042E-03    -106.075E-03     51.5609E-03    -106.259E-03     211.967E-03    -105.826E-03     50.5944E-03
            1839     8.90565E-03     38.5137E-03    -47.6071E+06    -59.4500E+06     18.5492E+06    -1.11389E+06    -105.530E-03     211.657E-03    -106.127E-03     50.3290E-03    -105.801E-03     211.494E-03    -105.879E-03     49.4331E-03
            1840     8.09521E-03     38.4580E-03    -52.4013E+06    -70.5823E+06     12.8953E+06     823.824E+03    -105.445E-03     211.655E-03    -106.210E-03     48.9743E-03    -105.704E-03     211.439E-03    -105.967E-03     48.1838E-03
            1841     7.28432E-03     38.4033E-03    -57.9613E+06    -85.8729E+06     3.28219E+06     1.32858E+06    -105.862E-03     212.138E-03    -106.276E-03     47.1850E-03    -106.102E-03     211.858E-03    -106.051E-03     46.4625E-03
            1842     6.47548E-03     38.3516E-03    -66.3509E+06    -105.451E+06    -8.29389E+06    -326.346E+03    -106.256E-03     212.563E-03    -106.307E-03     44.4914E-03    -106.481E-03     212.202E-03    -106.099E-03     43.8194E-03
            1843     5.66618E-03     38.3046E-03    -74.9908E+06    -121.819E+06    -20.6216E+06    -823.549E+03    -106.018E-03     212.343E-03    -106.325E-03     41.0465E-03    -106.233E-03     211.919E-03    -106.143E-03     40.4531E-03
            1844     4.85498E-03     38.2621E-03    -81.6357E+06    -137.718E+06    -34.0544E+06    -974.093E+03    -105.956E-03     212.317E-03    -106.362E-03     37.4259E-03    -106.151E-03     211.832E-03    -106.214E-03     36.9063E-03
            1845     4.04595E-03     38.2254E-03    -89.1962E+06    -155.767E+06    -48.2625E+06    -797.332E+03    -106.146E-03     212.543E-03    -106.397E-03     32.7170E-03    -106.322E-03     211.989E-03    -106.283E-03     32.2789E-03
            1846     3.23800E-03     38.1926E-03    -97.1293E+06    -173.690E+06    -65.6080E+06    -530.389E+03    -105.872E-03     212.320E-03    -106.449E-03     26.5416E-03    -106.025E-03     211.703E-03    -106.384E-03     26.1883E-03
            1847     2.42713E-03     38.1678E-03    -105.639E+06    -193.232E+06    -85.4803E+06    -267.872E+03    -106.049E-03     212.592E-03    -106.543E-03     20.3658E-03    -106.179E-03     211.909E-03    -106.537E-03     20.1067E-03
            1848     1.61740E-03     38.1467E-03    -110.781E+06    -209.658E+06    -100.768E+06    -323.721E+03    -106.738E-03     213.264E-03    -106.526E-03     13.8474E-03    -106.842E-03     212.523E-03    -106.565E-03     13.6761E-03
            1849     810.562E-06     38.1345E-03    -113.908E+06    -223.906E+06    -111.034E+06    -1.03317E+06    -106.307E-03     212.897E-03    -106.590E-03     7.66059E-03    -106.387E-03     212.106E-03    -106.655E-03     7.55842E-03
            1850     15.3889E-03     37.7567E-03    -5.48769E+06     109.303E+06     90.3645E+06     594.312E+03    -103.274E-03     209.032E-03    -105.758E-03     24.0979E-03    -103.681E-03     209.545E-03    -105.457E-03     22.9226E-03
            1851     14.5753E-03     37.7220E-03    -13.0659E+06     98.5007E+06     72.2402E+06     1.53993E+06    -103.629E-03     209.427E-03    -105.798E-03     35.8883E-03    -104.067E-03     209.958E-03    -105.561E-03     34.6111E-03
            1852     13.7662E-03     37.6824E-03    -17.8670E+06     88.6885E+06     63.1987E+06     176.381E+03    -104.351E-03     210.217E-03    -105.866E-03     41.7967E-03    -104.792E-03     210.727E-03    -105.653E-03     40.5368E-03
            1853     12.9546E-03     37.6303E-03    -20.2974E+06     68.6281E+06     60.8262E+06    -1.58622E+06    -105.174E-03     211.125E-03    -105.952E-03     47.0263E-03    -105.600E-03     211.547E-03    -105.718E-03     45.7718E-03
            1854     12.1449E-03     37.5745E-03    -25.3708E+06     31.1255E+06     50.4927E+06    -1.10744E+06    -106.146E-03     212.130E-03    -105.984E-03     50.0552E-03    -106.528E-03     212.387E-03    -105.740E-03     48.8366E-03
            1855     11.3365E-03     37.5173E-03    -32.2550E+06      2.1698E+06     41.8342E+06     102.585E+03    -106.321E-03     212.308E-03    -105.987E-03     52.3086E-03    -106.675E-03     212.434E-03    -105.735E-03     51.1879E-03
            1856     10.5263E-03     37.4572E-03    -37.9580E+06    -19.5391E+06     33.3004E+06     446.997E+03    -105.670E-03     211.673E-03    -106.003E-03     53.0077E-03    -105.996E-03     211.699E-03    -105.753E-03     51.9877E-03
            1857     9.71583E-03     37.3994E-03    -40.2813E+06    -38.6915E+06     27.0206E+06     249.721E+03    -105.271E-03     211.342E-03    -106.071E-03     52.1821E-03    -105.561E-03     211.273E-03    -105.822E-03     51.2338E-03
            1858     8.90509E-03     37.3424E-03    -45.8021E+06    -57.7759E+06     19.2308E+06    -653.905E+03    -105.608E-03     211.758E-03    -106.151E-03     51.3362E-03    -105.874E-03     211.601E-03    -105.904E-03     50.4531E-03
            1859     8.09549E-03     37.2872E-03    -53.0761E+06    -74.3243E+06     11.2922E+06    -1.37786E+06    -105.945E-03     212.154E-03    -106.209E-03     49.9194E-03    -106.201E-03     211.925E-03    -105.968E-03     49.0960E-03
            1860     7.28585E-03     37.2328E-03    -58.6187E+06    -86.2735E+06     4.16875E+06     1.06884E+06    -105.695E-03     211.964E-03    -106.269E-03     47.9947E-03    -105.938E-03     211.681E-03    -106.038E-03     47.2789E-03
            1861     6.47481E-03     37.1797E-03    -64.2587E+06    -102.711E+06    -6.40993E+06     1.73047E+06    -105.514E-03     211.871E-03    -106.357E-03     45.0609E-03    -105.735E-03     211.518E-03    -106.147E-03     44.4308E-03
            1862     5.66434E-03     37.1337E-03    -70.8349E+06    -121.362E+06    -18.5045E+06    -537.118E+03    -105.735E-03     212.193E-03    -106.458E-03     40.8290E-03    -105.933E-03     211.762E-03    -106.272E-03     40.2367E-03
            1863     4.85500E-03     37.0914E-03    -80.5200E+06    -138.654E+06    -33.0635E+06    -724.017E+03    -106.017E-03     212.551E-03    -106.533E-03     36.6249E-03    -106.206E-03     212.057E-03    -106.381E-03     36.1087E-03
            1864     4.04520E-03     37.0517E-03    -88.8170E+06    -155.879E+06    -48.4300E+06    -624.604E+03    -106.203E-03     212.785E-03    -106.582E-03     31.6928E-03    -106.375E-03     212.229E-03    -106.470E-03     31.2585E-03
            1865     3.23500E-03     37.0213E-03    -96.6364E+06    -173.975E+06    -65.5697E+06    -798.394E+03    -106.575E-03     213.149E-03    -106.573E-03     26.1544E-03    -106.726E-03     212.529E-03    -106.509E-03     25.7974E-03
            1866     2.42690E-03     36.9951E-03    -105.028E+06    -192.725E+06    -84.5880E+06    -319.293E+03    -106.855E-03     213.302E-03    -106.447E-03     20.4755E-03    -106.984E-03     212.620E-03    -106.439E-03     20.2100E-03
            1867     1.61927E-03     36.9735E-03    -111.022E+06    -209.764E+06    -100.536E+06    -872.742E+03    -106.533E-03     212.795E-03    -106.263E-03     13.7895E-03    -106.639E-03     212.055E-03    -106.300E-03     13.5971E-03
            1868     808.281E-06     36.9633E-03    -116.597E+06    -225.719E+06    -113.867E+06    -423.964E+03    -106.122E-03     212.319E-03    -106.197E-03     6.85814E-03    -106.210E-03     211.527E-03    -106.270E-03     6.75188E-03
            1869     15.3881E-03     36.5894E-03    -5.74528E+06     107.848E+06     89.8356E+06     1.79458E+06    -103.428E-03     209.207E-03    -105.780E-03     23.5705E-03    -103.833E-03     209.715E-03    -105.479E-03     22.4015E-03
            1870     14.5772E-03     36.5530E-03    -11.1502E+06     100.403E+06     74.2090E+06     1.74477E+06    -104.219E-03     210.022E-03    -105.804E-03     35.2030E-03    -104.654E-03     210.560E-03    -105.562E-03     33.8972E-03
            1871     13.7657E-03     36.5097E-03    -15.9554E+06     91.3926E+06     64.6446E+06    -477.157E+03    -105.304E-03     211.126E-03    -105.822E-03     41.1686E-03    -105.744E-03     211.647E-03    -105.608E-03     39.8641E-03
            1872     12.9574E-03     36.4602E-03    -21.2105E+06     68.2170E+06     61.0394E+06    -1.54131E+06    -105.520E-03     211.386E-03    -105.866E-03     46.8718E-03    -105.950E-03     211.806E-03    -105.629E-03     45.6152E-03
            1873     12.1466E-03     36.4032E-03    -27.4008E+06     29.8594E+06     49.2294E+06    -509.210E+03    -105.386E-03     211.290E-03    -105.904E-03     50.6017E-03    -105.771E-03     211.541E-03    -105.661E-03     49.4319E-03
            1874     11.3359E-03     36.3451E-03    -30.1815E+06     580.478E+03     41.0277E+06    -917.005E+03    -105.452E-03     211.410E-03    -105.958E-03     52.6202E-03    -105.790E-03     211.524E-03    -105.710E-03     51.5093E-03
            1875     10.5258E-03     36.2873E-03    -32.6173E+06    -18.8246E+06     35.7280E+06    -865.782E+03    -105.290E-03     211.320E-03    -106.029E-03     53.2907E-03    -105.595E-03     211.338E-03    -105.776E-03     52.2551E-03
            1876     9.71488E-03     36.2291E-03    -39.0819E+06    -39.8743E+06     27.9407E+06    -748.829E+03    -105.084E-03     211.210E-03    -106.126E-03     52.5190E-03    -105.368E-03     211.132E-03    -105.871E-03     51.5569E-03
            1877     8.90430E-03     36.1721E-03    -45.2338E+06    -56.1668E+06     20.9098E+06     701.738E+03    -105.336E-03     211.569E-03    -106.233E-03     52.3139E-03    -105.604E-03     211.416E-03    -105.982E-03     51.4590E-03
            1878     8.09416E-03     36.1146E-03    -52.0447E+06    -72.7792E+06     11.8781E+06     114.142E+03    -106.065E-03     212.369E-03    -106.304E-03     51.2123E-03    -106.319E-03     212.145E-03    -106.063E-03     50.4165E-03
            1879     7.28467E-03     36.0617E-03    -59.4966E+06    -89.6776E+06     2.10557E+06    -1.24714E+06    -106.128E-03     212.470E-03    -106.343E-03     48.3709E-03    -106.369E-03     212.176E-03    -106.116E-03     47.6206E-03
            1880     6.47447E-03     36.0101E-03    -65.0976E+06    -103.193E+06    -6.84791E+06     -58.997E+03    -105.596E-03     212.009E-03    -106.413E-03     44.9269E-03    -105.820E-03     211.656E-03    -106.203E-03     44.2690E-03
            1881     5.66424E-03     35.9616E-03    -72.1822E+06    -121.557E+06    -18.4128E+06     220.612E+03    -105.880E-03     212.387E-03    -106.508E-03     40.8017E-03    -106.085E-03     211.958E-03    -106.319E-03     40.2087E-03
            1882     4.85500E-03     35.9186E-03    -79.5250E+06    -137.066E+06    -31.4868E+06     857.122E+03    -106.365E-03     212.914E-03    -106.548E-03     36.2870E-03    -106.554E-03     212.425E-03    -106.392E-03     35.7804E-03
            1883     4.04559E-03     35.8810E-03    -88.0411E+06    -154.993E+06    -48.0717E+06     84.5783E+03    -106.387E-03     212.927E-03    -106.540E-03     30.8511E-03    -106.557E-03     212.374E-03    -106.428E-03     30.4190E-03
            1884     3.23656E-03     35.8480E-03    -97.2495E+06    -174.903E+06    -65.4033E+06    -575.306E+03    -106.703E-03     213.185E-03    -106.481E-03     25.4883E-03    -106.856E-03     212.561E-03    -106.414E-03     25.1289E-03
            1885     2.42851E-03     35.8206E-03    -104.924E+06    -192.034E+06    -82.8490E+06    -342.450E+03    -106.725E-03     213.055E-03    -106.329E-03     19.8094E-03    -106.858E-03     212.373E-03    -106.313E-03     19.5348E-03
            1886     1.61830E-03     35.8037E-03    -112.294E+06    -210.571E+06    -101.336E+06     307.825E+03    -106.185E-03     212.391E-03    -106.206E-03     13.7403E-03    -106.295E-03     211.650E-03    -106.245E-03     13.5643E-03
            1887     810.185E-06     35.7905E-03    -115.983E+06    -225.423E+06    -112.890E+06     943.997E+03    -106.329E-03     212.359E-03    -106.030E-03     7.42233E-03    -106.415E-03     211.566E-03    -106.099E-03     7.34490E-03
            1888     15.3877E-03     35.4179E-03    -5.76802E+06     105.339E+06     89.8602E+06     925.701E+03    -104.109E-03     209.879E-03    -105.770E-03     23.4599E-03    -104.511E-03     210.374E-03    -105.465E-03     22.2749E-03
            1889     14.5776E-03     35.3832E-03    -8.33167E+06     100.018E+06     78.0346E+06     1.39500E+06    -104.914E-03     210.681E-03    -105.767E-03     35.6907E-03    -105.343E-03     211.210E-03    -105.510E-03     34.3617E-03
            1890     13.7683E-03     35.3383E-03    -11.8341E+06     96.2186E+06     68.9659E+06     936.944E+03    -105.243E-03     211.002E-03    -105.759E-03     41.9731E-03    -105.677E-03     211.535E-03    -105.536E-03     40.6974E-03
            1891     12.9572E-03     35.2882E-03    -17.6608E+06     66.9010E+06     60.6428E+06    -597.527E+03    -105.333E-03     211.127E-03    -105.794E-03     47.0432E-03    -105.743E-03     211.536E-03    -105.562E-03     45.8042E-03
            1892     12.1473E-03     35.2339E-03    -20.9843E+06     29.7549E+06     52.0517E+06    -1.32403E+06    -104.790E-03     210.657E-03    -105.866E-03     50.9822E-03    -105.147E-03     210.893E-03    -105.619E-03     49.8165E-03
            1893     11.3360E-03     35.1750E-03    -26.6320E+06     2.31569E+06     43.5978E+06    -1.05909E+06    -104.520E-03     210.494E-03    -105.975E-03     53.1044E-03    -104.846E-03     210.608E-03    -105.722E-03     52.0108E-03
            1894     10.5248E-03     35.1170E-03    -33.7263E+06    -21.4370E+06     35.0126E+06    -467.569E+03    -104.875E-03     210.972E-03    -106.097E-03     53.6396E-03    -105.181E-03     210.980E-03    -105.842E-03     52.6153E-03
            1895     9.71474E-03     35.0584E-03    -39.5903E+06    -40.0236E+06     27.8236E+06     337.131E+03    -105.242E-03     211.450E-03    -106.208E-03     53.0602E-03    -105.528E-03     211.373E-03    -105.954E-03     52.1156E-03
            1896     8.90380E-03     35.0026E-03    -45.7180E+06    -58.0168E+06     19.9747E+06     -87.119E+03    -105.499E-03     211.807E-03    -106.308E-03     52.4573E-03    -105.766E-03     211.648E-03    -106.058E-03     51.5872E-03
            1897     8.09274E-03     34.9429E-03    -50.9169E+06    -72.0020E+06     12.8375E+06     408.255E+03    -105.815E-03     212.210E-03    -106.395E-03     50.9648E-03    -106.066E-03     211.987E-03    -106.152E-03     50.1712E-03
            1898     7.28335E-03     34.8889E-03    -57.3530E+06    -87.7003E+06     3.53953E+06    -98.1548E+03    -106.340E-03     212.782E-03    -106.442E-03     47.7085E-03    -106.576E-03     212.493E-03    -106.214E-03     46.9605E-03
            1899     6.47474E-03     34.8386E-03    -65.7342E+06    -104.129E+06    -7.32500E+06    -867.262E+03    -106.488E-03     212.939E-03    -106.450E-03     44.6047E-03    -106.715E-03     212.584E-03    -106.241E-03     43.9145E-03
            1900     5.66472E-03     34.7909E-03    -73.6512E+06    -121.626E+06    -19.6116E+06    -375.236E+03    -106.329E-03     212.779E-03    -106.451E-03     40.8135E-03    -106.540E-03     212.354E-03    -106.265E-03     40.2085E-03
            1901     4.85488E-03     34.7453E-03    -80.1530E+06    -137.255E+06    -31.4913E+06    -464.782E+03    -106.300E-03     212.756E-03    -106.456E-03     35.7191E-03    -106.492E-03     212.268E-03    -106.298E-03     35.1863E-03
            1902     4.04630E-03     34.7086E-03    -89.2729E+06    -154.913E+06    -47.0119E+06     1.29142E+06    -106.433E-03     212.866E-03    -106.434E-03     31.2533E-03    -106.611E-03     212.314E-03    -106.315E-03     30.8334E-03
            1903     3.23763E-03     34.6751E-03    -97.6535E+06    -174.601E+06    -65.7281E+06     1.48195E+06    -106.363E-03     212.747E-03    -106.383E-03     26.6836E-03    -106.518E-03     212.126E-03    -106.317E-03     26.3577E-03
            1904     2.42715E-03     34.6496E-03    -104.452E+06    -192.556E+06    -83.8361E+06    -255.882E+03    -106.156E-03     212.520E-03    -106.364E-03     20.3484E-03    -106.284E-03     211.837E-03    -106.353E-03     20.0771E-03
            1905     1.61878E-03     34.6310E-03    -111.160E+06    -210.246E+06    -100.449E+06    -279.816E+03    -106.182E-03     212.584E-03    -106.402E-03     13.9574E-03    -106.288E-03     211.841E-03    -106.439E-03     13.7737E-03
            1906     808.078E-06     34.6202E-03    -113.600E+06    -223.772E+06    -112.034E+06     280.982E+03    -106.307E-03     212.857E-03    -106.550E-03     8.32024E-03    -106.385E-03     212.068E-03    -106.621E-03     8.23518E-03
            1907     15.3892E-03     34.2483E-03    -5.09999E+06     105.703E+06     89.2270E+06    -206.792E+03    -104.351E-03     210.078E-03    -105.726E-03     24.2383E-03    -104.749E-03     210.574E-03    -105.426E-03     23.0606E-03
            1908     14.5787E-03     34.2112E-03    -9.96819E+06     97.9860E+06     76.2447E+06    -1.52479E+06    -104.888E-03     210.605E-03    -105.717E-03     36.1036E-03    -105.321E-03     211.129E-03    -105.463E-03     34.7348E-03
            1909     13.7680E-03     34.1681E-03    -11.5956E+06     96.0867E+06     69.8958E+06    -305.141E+03    -104.795E-03     210.524E-03    -105.729E-03     42.7306E-03    -105.229E-03     211.055E-03    -105.502E-03     41.4533E-03
            1910     12.9581E-03     34.1172E-03    -14.0971E+06     69.4323E+06     63.0079E+06     397.263E+03    -104.628E-03     210.427E-03    -105.798E-03     47.9144E-03    -105.029E-03     210.841E-03    -105.564E-03     46.7016E-03
            1911     12.1471E-03     34.0639E-03    -21.5413E+06     28.4554E+06     51.7146E+06    -151.589E+03    -104.622E-03     210.521E-03    -105.899E-03     51.6274E-03    -104.982E-03     210.755E-03    -105.650E-03     50.4696E-03
            1912     11.3355E-03     34.0068E-03    -28.7478E+06     2.30886E+06     43.3533E+06     1.00131E+06    -104.468E-03     210.487E-03    -106.020E-03     53.6429E-03    -104.805E-03     210.605E-03    -105.764E-03     52.5816E-03
            1913     10.5241E-03     33.9464E-03    -34.4903E+06    -21.8540E+06     34.3453E+06     196.257E+03    -104.593E-03     210.748E-03    -106.155E-03     53.7436E-03    -104.901E-03     210.756E-03    -105.901E-03     52.7381E-03
            1914     9.71236E-03     33.8888E-03    -39.4957E+06    -40.7047E+06     27.4891E+06    -621.708E+03    -105.474E-03     211.747E-03    -106.273E-03     53.1925E-03    -105.760E-03     211.668E-03    -106.020E-03     52.2279E-03
            1915     8.90326E-03     33.8292E-03    -44.7123E+06    -56.1954E+06     20.9482E+06     496.488E+03    -106.205E-03     212.542E-03    -106.336E-03     51.8917E-03    -106.473E-03     212.391E-03    -106.085E-03     51.0042E-03
            1916     8.09432E-03     33.7738E-03    -51.6650E+06    -72.3262E+06     11.9882E+06    -125.798E+03    -106.038E-03     212.413E-03    -106.375E-03     50.1026E-03    -106.291E-03     212.191E-03    -106.135E-03     49.2882E-03
            1917     7.28325E-03     33.7158E-03     -57.068E+06    -86.9990E+06     4.20701E+06     208.222E+03    -106.102E-03     212.526E-03    -106.424E-03     47.0197E-03    -106.338E-03     212.239E-03    -106.194E-03     46.2719E-03
            1918     6.47342E-03     33.6665E-03    -63.7598E+06    -103.958E+06    -5.97611E+06     149.674E+03    -106.538E-03     212.978E-03    -106.440E-03     43.7622E-03    -106.758E-03     212.620E-03    -106.226E-03     43.0698E-03
            1919     5.66580E-03     33.6170E-03    -73.0504E+06    -120.674E+06    -18.9752E+06    -214.967E+03    -106.435E-03     212.858E-03    -106.423E-03     41.3671E-03    -106.645E-03     212.436E-03    -106.237E-03     40.7668E-03
            1920     4.85695E-03     33.5753E-03    -83.3677E+06    -138.887E+06    -34.0332E+06    -247.096E+03    -106.224E-03     212.643E-03    -106.420E-03     37.1607E-03    -106.425E-03     212.155E-03    -106.267E-03     36.6468E-03
            1921     4.04612E-03     33.5358E-03    -91.0191E+06    -156.846E+06    -48.6555E+06    -92.8531E+03    -106.150E-03     212.586E-03    -106.436E-03     32.0927E-03    -106.332E-03     212.029E-03    -106.320E-03     31.6601E-03
            1922     3.23606E-03     33.5038E-03    -97.0563E+06    -173.475E+06    -64.4535E+06     1.10489E+06    -106.002E-03     212.481E-03    -106.479E-03     26.6840E-03    -106.157E-03     211.862E-03    -106.409E-03     26.3533E-03
            1923     2.42756E-03     33.4774E-03    -104.401E+06    -191.900E+06    -83.4409E+06     1.11625E+06    -106.026E-03     212.595E-03    -106.569E-03     20.6242E-03    -106.155E-03     211.915E-03    -106.557E-03     20.3733E-03
            1924     1.61716E-03     33.4593E-03    -111.265E+06    -210.443E+06    -100.954E+06    -88.0443E+03    -106.470E-03     213.123E-03    -106.653E-03     14.2376E-03    -106.576E-03     212.380E-03    -106.691E-03     14.0530E-03
            1925     809.639E-06     33.4468E-03    -115.623E+06    -224.058E+06    -112.137E+06    -419.651E+03    -106.785E-03     213.338E-03    -106.553E-03     7.82567E-03    -106.872E-03     212.551E-03    -106.621E-03     7.71906E-03
            1926     15.3893E-03     33.0769E-03    -3.54026E+06     106.689E+06     90.6772E+06    -697.000E+03    -104.643E-03     210.335E-03    -105.692E-03     24.8071E-03    -105.037E-03     210.832E-03    -105.388E-03     23.6321E-03
            1927     14.5789E-03     33.0414E-03    -7.46625E+06     99.7087E+06     76.9869E+06    -2.04732E+06    -104.367E-03     210.049E-03    -105.682E-03     35.8097E-03    -104.791E-03     210.577E-03    -105.431E-03     34.4385E-03
            1928     13.7685E-03     32.9971E-03    -14.0915E+06     93.1568E+06     67.2703E+06    -2.05079E+06    -103.839E-03     209.572E-03    -105.733E-03     42.9174E-03    -104.276E-03     210.095E-03    -105.511E-03     41.6331E-03
            1929     12.9563E-03     32.9486E-03    -19.9570E+06     67.5557E+06     60.6364E+06     218.824E+03    -103.991E-03     209.849E-03    -105.857E-03     48.5756E-03    -104.415E-03     210.266E-03    -105.623E-03     47.3729E-03
            1930     12.1446E-03     32.8935E-03    -23.3199E+06     29.9702E+06     51.1755E+06     1.50256E+06    -104.659E-03     210.639E-03    -105.979E-03     52.0241E-03    -105.030E-03     210.885E-03    -105.733E-03     50.8861E-03
            1931     11.3350E-03     32.8362E-03    -28.6515E+06     1.05639E+06     42.7379E+06     401.688E+03    -105.072E-03     211.155E-03    -106.083E-03     53.5413E-03    -105.408E-03     211.269E-03    -105.829E-03     52.4512E-03
            1932     10.5239E-03     32.7780E-03    -34.1114E+06    -19.8238E+06     35.4214E+06     697.804E+03    -105.250E-03     211.427E-03    -106.178E-03     53.6406E-03    -105.561E-03     211.444E-03    -105.922E-03     52.6265E-03
            1933     9.71397E-03     32.7170E-03    -39.9434E+06    -40.0558E+06     27.0989E+06     201.048E+03    -105.629E-03     211.889E-03    -106.260E-03     53.0920E-03    -105.916E-03     211.814E-03    -106.009E-03     52.1428E-03
            1934     8.90370E-03     32.6575E-03    -45.7854E+06    -57.1723E+06     19.8490E+06    -197.227E+03    -106.159E-03     212.476E-03    -106.317E-03     52.0762E-03    -106.429E-03     212.324E-03    -106.069E-03     51.1819E-03
            1935     8.09399E-03     32.6007E-03    -51.1158E+06    -71.5603E+06     12.5077E+06     53.8425E+03    -106.492E-03     212.828E-03    -106.336E-03     50.3567E-03    -106.747E-03     212.611E-03    -106.095E-03     49.5227E-03
            1936     7.28528E-03     32.5463E-03    -58.7006E+06    -89.4642E+06     2.20616E+06     90.4617E+03    -106.144E-03     212.495E-03    -106.351E-03     47.7016E-03    -106.383E-03     212.202E-03    -106.125E-03     46.9489E-03
            1937     6.47579E-03     32.4927E-03    -65.2980E+06    -104.448E+06    -6.49610E+06     250.430E+03    -105.794E-03     212.205E-03    -106.411E-03     44.4889E-03    -106.020E-03     211.847E-03    -106.198E-03     43.8151E-03
            1938     5.66409E-03     32.4475E-03    -72.5171E+06    -118.960E+06    -17.4946E+06     1.12241E+06    -105.958E-03     212.441E-03    -106.483E-03     41.5989E-03    -106.171E-03     212.025E-03    -106.293E-03     41.0222E-03
            1939     4.85355E-03     32.4011E-03    -81.3916E+06    -137.549E+06    -33.1919E+06     580.290E+03    -106.281E-03     212.798E-03    -106.517E-03     37.4514E-03    -106.477E-03     212.313E-03    -106.365E-03     36.9473E-03
            1940     4.04606E-03     32.3651E-03    -90.1088E+06    -157.009E+06    -49.1563E+06    -800.069E+03    -106.398E-03     212.917E-03    -106.519E-03     32.0497E-03    -106.576E-03     212.360E-03    -106.406E-03     31.5953E-03
            1941     3.23682E-03     32.3313E-03    -98.4799E+06    -174.037E+06    -65.2604E+06    -502.457E+03    -106.184E-03     212.714E-03    -106.530E-03     26.1439E-03    -106.344E-03     212.097E-03    -106.462E-03     25.7783E-03
            1942     2.42605E-03     32.3064E-03    -105.431E+06    -191.326E+06    -82.7277E+06     476.025E+03    -106.246E-03     212.814E-03    -106.568E-03     19.9271E-03    -106.382E-03     212.137E-03    -106.551E-03     19.6620E-03
            1943     1.61776E-03     32.2854E-03    -112.206E+06    -209.953E+06    -100.344E+06     1.01101E+06    -106.564E-03     213.123E-03    -106.560E-03     13.4925E-03    -106.676E-03     212.383E-03    -106.594E-03     13.3193E-03
            1944     808.414E-06     32.2736E-03    -117.151E+06    -224.616E+06    -113.276E+06    -250.806E+03    -106.751E-03     213.033E-03    -106.282E-03     7.20077E-03    -106.843E-03     212.246E-03    -106.353E-03     7.08479E-03
            1945     15.3905E-03     31.9054E-03    -3.28925E+06     108.194E+06     91.4983E+06    -1.86128E+06    -104.471E-03     210.163E-03    -105.692E-03     25.8613E-03    -104.869E-03     210.669E-03    -105.387E-03     24.6679E-03
            1946     14.5802E-03     31.8716E-03    -8.93626E+06     99.4633E+06     75.8724E+06    -1.46053E+06    -103.881E-03     209.577E-03    -105.696E-03     36.1892E-03    -104.310E-03     210.108E-03    -105.448E-03     34.8313E-03
            1947     13.7671E-03     31.8296E-03    -14.2015E+06     92.9851E+06     66.8125E+06     24.1681E+03    -103.437E-03     209.213E-03    -105.776E-03     43.4852E-03    -103.873E-03     209.735E-03    -105.556E-03     42.2449E-03
            1948     12.9555E-03     31.7789E-03    -19.3213E+06     65.4399E+06     59.5952E+06    -1.01672E+06    -104.099E-03     210.011E-03    -105.912E-03     48.6665E-03    -104.516E-03     210.419E-03    -105.681E-03     47.4400E-03
            1949     12.1452E-03     31.7235E-03    -25.0608E+06     28.1430E+06     49.6196E+06     122.976E+03    -104.849E-03     210.877E-03    -106.028E-03     51.5013E-03    -105.225E-03     211.120E-03    -105.784E-03     50.3308E-03
            1950     11.3333E-03     31.6655E-03    -29.5243E+06     2.96848E+06     42.9129E+06     1.52571E+06    -105.509E-03     211.621E-03    -106.112E-03     52.9220E-03    -105.854E-03     211.748E-03    -105.859E-03     51.8208E-03
            1951     10.5243E-03     31.6061E-03    -33.7477E+06    -19.1111E+06     35.6692E+06     628.686E+03    -105.912E-03     212.077E-03    -106.165E-03     53.3933E-03    -106.226E-03     212.100E-03    -105.910E-03     52.3511E-03
            1952     9.71420E-03     31.5462E-03    -39.7829E+06    -37.9584E+06     27.8698E+06     1.09974E+06    -105.740E-03     211.956E-03    -106.216E-03     53.3560E-03    -106.031E-03     211.890E-03    -105.964E-03     52.4178E-03
            1953     8.90363E-03     31.4870E-03    -47.4754E+06    -59.3142E+06     17.9013E+06    -105.197E+03    -105.791E-03     212.069E-03    -106.278E-03     52.5089E-03    -106.064E-03     211.910E-03    -106.033E-03     51.6268E-03
            1954     8.09382E-03     31.4279E-03    -53.9027E+06    -75.2373E+06     9.79557E+06    -1.21119E+06    -106.056E-03     212.390E-03    -106.334E-03     50.7333E-03    -106.315E-03     212.163E-03    -106.098E-03     49.8872E-03
            1955     7.28450E-03     31.3736E-03    -57.6317E+06    -87.3551E+06     4.19958E+06     392.438E+03    -106.015E-03     212.406E-03    -106.391E-03     48.3688E-03    -106.256E-03     212.120E-03    -106.160E-03     47.6165E-03
            1956     6.47328E-03     31.3239E-03    -65.0405E+06    -103.238E+06    -5.87103E+06     1.05424E+06    -106.079E-03     212.521E-03    -106.443E-03     45.2214E-03    -106.306E-03     212.168E-03    -106.228E-03     44.5595E-03
            1957     5.66470E-03     31.2738E-03    -73.9318E+06    -119.673E+06    -18.8875E+06     491.294E+03    -106.266E-03     212.736E-03    -106.470E-03     40.7901E-03    -106.483E-03     212.320E-03    -106.284E-03     40.1895E-03
            1958     4.85609E-03     31.2311E-03    -81.3330E+06    -137.140E+06    -32.9901E+06     66.2738E+03    -106.130E-03     212.622E-03    -106.492E-03     36.1535E-03    -106.327E-03     212.139E-03    -106.340E-03     35.6262E-03
            1959     4.04491E-03     31.1906E-03    -90.1719E+06    -156.549E+06    -48.6311E+06    -818.929E+03    -106.214E-03     212.734E-03    -106.520E-03     31.3349E-03    -106.393E-03     212.178E-03    -106.405E-03     30.8741E-03
            1960     3.23626E-03     31.1603E-03    -98.2175E+06    -173.912E+06    -64.9111E+06    -492.798E+03    -106.581E-03     213.074E-03    -106.493E-03     25.9502E-03    -106.742E-03     212.457E-03    -106.423E-03     25.5786E-03
            1961     2.42849E-03     31.1331E-03    -106.152E+06    -191.732E+06    -84.0022E+06     17.0899E+03    -106.607E-03     212.985E-03    -106.379E-03     20.1383E-03    -106.744E-03     212.309E-03    -106.367E-03     19.8722E-03
            1962     1.61910E-03     31.1136E-03    -112.101E+06    -209.033E+06    -99.9625E+06     98.2002E+03    -106.262E-03     212.557E-03    -106.294E-03     13.7948E-03    -106.375E-03     211.820E-03    -106.329E-03     13.6188E-03
            1963     809.817E-06     31.1019E-03    -116.917E+06    -223.720E+06    -112.900E+06     555.608E+03    -106.199E-03     212.521E-03    -106.322E-03     7.43829E-03    -106.291E-03     211.738E-03    -106.393E-03     7.34458E-03
            1964     15.3883E-03     30.7349E-03    -5.42457E+06     109.169E+06     89.9338E+06    -863.661E+03    -103.624E-03     209.351E-03    -105.728E-03     26.0000E-03    -104.033E-03     209.868E-03    -105.428E-03     24.8153E-03
            1965     14.5767E-03     30.7021E-03    -10.6887E+06     101.363E+06     73.8626E+06    -912.449E+03    -103.781E-03     209.536E-03    -105.755E-03     36.0235E-03    -104.222E-03     210.084E-03    -105.517E-03     34.6595E-03
            1966     13.7665E-03     30.6612E-03    -15.6820E+06     92.0934E+06     65.2108E+06    -1.59404E+06    -104.169E-03     209.994E-03    -105.824E-03     43.2398E-03    -104.612E-03     210.518E-03    -105.609E-03     41.9489E-03
            1967     12.9555E-03     30.6082E-03    -20.1257E+06        64.4E+06     58.7565E+06    -324.865E+03    -104.587E-03     210.515E-03    -105.928E-03     48.7479E-03    -105.007E-03     210.922E-03    -105.698E-03     47.5170E-03
            1968     12.1443E-03     30.5537E-03    -25.1205E+06     26.5979E+06     48.5876E+06     693.938E+03    -105.205E-03     211.221E-03    -106.016E-03     51.2444E-03    -105.579E-03     211.459E-03    -105.775E-03     50.0641E-03
            1969     11.3352E-03     30.4941E-03    -29.5979E+06     2.84408E+06     42.7016E+06     240.002E+03    -105.522E-03     211.611E-03    -106.089E-03     52.9938E-03    -105.868E-03     211.738E-03    -105.836E-03     51.8744E-03
            1970     10.5246E-03     30.4345E-03    -35.8794E+06    -18.8837E+06     34.5782E+06     1.04277E+06    -105.762E-03     211.905E-03    -106.143E-03     53.5707E-03    -106.086E-03     211.934E-03    -105.891E-03     52.5325E-03
            1971     9.71446E-03     30.3756E-03    -41.9548E+06    -37.7404E+06     27.1050E+06     1.80001E+06    -105.997E-03     212.185E-03    -106.188E-03     53.4554E-03    -106.301E-03     212.127E-03    -105.937E-03     52.5103E-03
            1972     8.90481E-03     30.3154E-03    -45.3909E+06    -56.0921E+06     20.1250E+06     1.77377E+03    -105.811E-03     212.051E-03    -106.240E-03     52.4906E-03    -106.082E-03     211.903E-03    -105.992E-03     51.6020E-03
            1973     8.09436E-03     30.2575E-03    -51.9214E+06    -73.2152E+06     11.4928E+06    -1.07899E+06    -105.458E-03     211.779E-03    -106.321E-03     50.3521E-03    -105.712E-03     211.556E-03    -106.082E-03     49.5183E-03
            1974     7.28264E-03     30.2029E-03    -60.4048E+06    -90.4984E+06     1.70586E+06    -1.47646E+06    -105.977E-03     212.379E-03    -106.402E-03     47.5436E-03    -106.224E-03     212.085E-03    -106.174E-03     46.7616E-03
            1975     6.47485E-03     30.1502E-03    -66.7314E+06    -104.265E+06    -7.14310E+06     223.238E+03    -106.622E-03     213.041E-03    -106.419E-03     44.2902E-03    -106.856E-03     212.688E-03    -106.206E-03     43.5950E-03
            1976     5.66553E-03     30.1021E-03    -73.9770E+06    -119.122E+06    -18.3622E+06     950.415E+03    -106.384E-03     212.783E-03    -106.399E-03     40.6938E-03    -106.604E-03     212.371E-03    -106.211E-03     40.0920E-03
            1977     4.85546E-03     30.0586E-03    -81.9568E+06    -136.429E+06    -32.2349E+06     578.136E+03    -106.088E-03     212.493E-03    -106.405E-03     36.7841E-03    -106.289E-03     212.013E-03    -106.250E-03     36.2745E-03
            1978     4.04682E-03     30.0206E-03    -90.5820E+06    -155.566E+06    -49.6662E+06     300.327E+03    -106.134E-03     212.554E-03    -106.420E-03     31.7392E-03    -106.314E-03     212.005E-03    -106.311E-03     31.3116E-03
            1979     3.23658E-03     29.9863E-03    -98.8160E+06    -175.414E+06    -66.8500E+06    -754.360E+03    -106.303E-03     212.722E-03    -106.418E-03     26.0762E-03    -106.461E-03     212.100E-03    -106.355E-03     25.7119E-03
            1980     2.42728E-03     29.9608E-03    -105.741E+06    -192.492E+06    -84.3962E+06     27.8254E+03    -106.316E-03     212.705E-03    -106.388E-03     20.5593E-03    -106.449E-03     212.024E-03    -106.378E-03     20.3000E-03
            1981     1.61811E-03     29.9424E-03    -112.210E+06    -209.383E+06    -102.099E+06    -33.0988E+03    -106.252E-03     212.627E-03    -106.374E-03     14.5177E-03    -106.362E-03     211.891E-03    -106.419E-03     14.3496E-03
            1982     808.441E-06     29.9300E-03    -116.600E+06    -223.460E+06    -113.559E+06    -658.161E+03    -106.375E-03     212.757E-03    -106.382E-03     8.11596E-03    -106.466E-03     211.976E-03    -106.457E-03     8.01772E-03
            1983     15.3892E-03     29.5685E-03    -6.02212E+06     109.368E+06       90.64E+06     16.4517E+03    -103.508E-03     209.251E-03    -105.744E-03     24.0126E-03    -103.920E-03     209.768E-03    -105.441E-03     22.8115E-03
            1984     14.5769E-03     29.5314E-03    -10.8910E+06     101.454E+06     73.6584E+06    -1.31971E+06    -103.723E-03     209.493E-03    -105.770E-03     34.7995E-03    -104.163E-03     210.041E-03    -105.533E-03     33.4192E-03
            1985     13.7664E-03     29.4901E-03    -15.8625E+06     91.8724E+06     64.5276E+06    -1.47995E+06    -104.515E-03     210.343E-03    -105.828E-03     42.2863E-03    -104.959E-03     210.870E-03    -105.616E-03     40.9663E-03
            1986     12.9556E-03     29.4391E-03    -21.5950E+06     64.2457E+06     58.8634E+06     58.2896E+03    -104.971E-03     210.885E-03    -105.914E-03     48.6057E-03    -105.399E-03     211.294E-03    -105.682E-03     47.3732E-03
            1987     12.1458E-03     29.3816E-03    -26.2576E+06     26.1401E+06     48.1955E+06    -21.7826E+03    -105.270E-03     211.253E-03    -105.983E-03     51.4335E-03    -105.648E-03     211.491E-03    -105.742E-03     50.2459E-03
            1988     11.3348E-03     29.3241E-03    -31.4342E+06     2.79106E+06     41.7671E+06     556.199E+03    -105.330E-03     211.386E-03    -106.056E-03     53.1370E-03    -105.683E-03     211.517E-03    -105.806E-03     52.0267E-03
            1989     10.5241E-03     29.2638E-03    -37.0429E+06    -19.6465E+06     33.2250E+06     235.482E+03    -105.568E-03     211.690E-03    -106.122E-03     53.9640E-03    -105.894E-03     211.718E-03    -105.873E-03     52.9280E-03
            1990     9.71439E-03     29.2034E-03    -39.8007E+06    -38.5527E+06     27.8271E+06     42.1670E+03    -105.996E-03     212.176E-03    -106.180E-03     53.8083E-03    -106.289E-03     212.111E-03    -105.927E-03     52.8361E-03
            1991     8.90472E-03     29.1442E-03    -44.7969E+06    -53.2600E+06     22.0060E+06     831.106E+03    -106.065E-03     212.287E-03    -106.222E-03     52.5304E-03    -106.342E-03     212.152E-03    -105.970E-03     51.6377E-03
            1992     8.09425E-03     29.0875E-03    -52.5429E+06    -70.2701E+06     12.5351E+06     872.316E+03    -106.022E-03     212.277E-03    -106.256E-03     49.9329E-03    -106.286E-03     212.070E-03    -106.015E-03     49.1070E-03
            1993     7.28550E-03     29.0310E-03    -62.4024E+06    -92.8615E+06    -1.50318E+06    -1.15750E+06    -105.995E-03     212.280E-03    -106.285E-03     47.5386E-03    -106.243E-03     211.981E-03    -106.067E-03     46.7687E-03
            1994     6.47498E-03     28.9775E-03    -70.0168E+06    -109.047E+06    -11.2637E+06    -2.29724E+06    -105.990E-03     212.320E-03    -106.330E-03     44.7591E-03    -106.226E-03     211.953E-03    -106.127E-03     44.0517E-03
            1995     5.66536E-03     28.9309E-03    -74.0079E+06    -118.520E+06    -17.0529E+06     606.450E+03    -106.134E-03     212.511E-03    -106.377E-03     40.9814E-03    -106.356E-03     212.099E-03    -106.183E-03     40.3846E-03
            1996     4.85573E-03     28.8871E-03      -81.41E+06    -134.857E+06    -32.0297E+06     1.78697E+06    -106.303E-03     212.674E-03    -106.371E-03     36.7589E-03    -106.504E-03     212.201E-03    -106.218E-03     36.2679E-03
            1997     4.04591E-03     28.8477E-03    -90.0330E+06    -154.116E+06    -49.9014E+06     1.01309E+06    -106.285E-03     212.626E-03    -106.341E-03     31.8671E-03    -106.463E-03     212.083E-03    -106.237E-03     31.4562E-03
            1998     3.23750E-03     28.8154E-03    -97.7058E+06    -174.340E+06    -67.1743E+06    -75.9431E+03    -106.059E-03     212.398E-03    -106.339E-03     26.1241E-03    -106.212E-03     211.780E-03    -106.280E-03     25.7780E-03
            1999     2.42719E-03     28.7891E-03    -105.869E+06    -192.868E+06    -84.7186E+06    -918.438E+03    -106.074E-03     212.445E-03    -106.371E-03     19.8254E-03    -106.207E-03     211.763E-03    -106.361E-03     19.5464E-03
            2000     1.61780E-03     28.7696E-03    -112.593E+06    -209.247E+06    -101.721E+06    -271.484E+03    -106.358E-03     212.722E-03    -106.364E-03     13.4320E-03    -106.470E-03     211.987E-03    -106.406E-03     13.2447E-03
            2001     809.592E-06     28.7576E-03    -116.247E+06    -224.343E+06    -113.990E+06    -568.966E+03    -106.413E-03     212.664E-03    -106.251E-03     7.35661E-03    -106.500E-03     211.878E-03    -106.327E-03     7.24893E-03
            2002     15.3891E-03     28.3972E-03    -5.30920E+06     110.208E+06     91.0977E+06     578.174E+03    -103.768E-03     209.495E-03    -105.727E-03     23.9547E-03    -104.180E-03     210.016E-03    -105.424E-03     22.7477E-03
            2003     14.5789E-03     28.3639E-03    -10.4803E+06     101.577E+06     73.4225E+06     391.114E+03    -103.780E-03     209.522E-03    -105.743E-03     35.7735E-03    -104.217E-03     210.070E-03    -105.508E-03     34.4363E-03
            2004     13.7665E-03     28.3193E-03    -15.9195E+06     89.7048E+06     63.6155E+06    -233.432E+03    -104.484E-03     210.285E-03    -105.801E-03     43.1599E-03    -104.925E-03     210.803E-03    -105.590E-03     41.8705E-03
            2005     12.9565E-03     28.2681E-03    -21.2207E+06     64.7469E+06     59.7231E+06     119.385E+03    -105.120E-03     211.006E-03    -105.886E-03     48.5107E-03    -105.550E-03     211.417E-03    -105.651E-03     47.2644E-03
            2006     12.1454E-03     28.2115E-03    -27.2121E+06     26.8616E+06     48.2787E+06    -355.916E+03    -105.145E-03     211.095E-03    -105.950E-03     51.5070E-03    -105.529E-03     211.338E-03    -105.708E-03     50.3200E-03
            2007     11.3353E-03     28.1534E-03    -31.5229E+06     1.76050E+06     40.6995E+06    -804.671E+03    -105.371E-03     211.389E-03    -106.019E-03     52.9570E-03    -105.722E-03     211.517E-03    -105.772E-03     51.8252E-03
            2008     10.5253E-03     28.0932E-03    -33.5034E+06    -18.5141E+06     35.1334E+06    -1.24481E+06    -105.600E-03     211.685E-03    -106.085E-03     53.8060E-03    -105.913E-03     211.712E-03    -105.834E-03     52.7450E-03
            2009     9.71455E-03     28.0323E-03    -40.4498E+06    -40.2589E+06     27.5884E+06    -1.63525E+06    -105.761E-03     211.910E-03    -106.148E-03     53.4435E-03    -106.056E-03     211.838E-03    -105.893E-03     52.4452E-03
            2010     8.90413E-03     27.9729E-03    -48.4609E+06    -55.4600E+06     19.5200E+06     960.540E+03    -106.167E-03     212.351E-03    -106.185E-03     52.1519E-03    -106.455E-03     212.214E-03    -105.936E-03     51.2563E-03
            2011     8.09589E-03     27.9146E-03    -53.6557E+06    -70.7530E+06     11.4517E+06     1.67724E+06    -106.345E-03     212.538E-03    -106.193E-03     50.3233E-03    -106.613E-03     212.331E-03    -105.955E-03     49.5091E-03
            2012     7.28584E-03     27.8603E-03    -58.6073E+06    -87.8700E+06     2.73103E+06     1.14018E+06    -105.913E-03     212.130E-03    -106.217E-03     48.2350E-03    -106.155E-03     211.844E-03    -105.991E-03     47.5073E-03
            2013     6.47524E-03     27.8078E-03    -66.6840E+06    -106.488E+06    -10.0950E+06    -605.482E+03    -105.744E-03     212.010E-03    -106.267E-03     45.1491E-03    -105.966E-03     211.648E-03    -106.066E-03     44.4871E-03
            2014     5.66491E-03     27.7582E-03    -76.0867E+06    -124.179E+06    -21.9744E+06    -2.52230E+06    -106.237E-03     212.540E-03    -106.304E-03     40.7278E-03    -106.453E-03     212.109E-03    -106.123E-03     40.0971E-03
            2015     4.85625E-03     27.7150E-03    -82.4663E+06    -136.214E+06    -32.8494E+06    -253.527E+03    -106.454E-03     212.731E-03    -106.277E-03     36.1078E-03    -106.657E-03     212.253E-03    -106.125E-03     35.5819E-03
            2016     4.04726E-03     27.6762E-03    -87.5650E+06    -151.989E+06    -47.2568E+06     500.804E+03    -106.214E-03     212.440E-03    -106.227E-03     31.0650E-03    -106.387E-03     211.901E-03    -106.116E-03     30.6354E-03
            2017     3.23674E-03     27.6434E-03    -97.3940E+06    -173.851E+06    -65.7243E+06    -160.662E+03    -106.171E-03     212.353E-03    -106.181E-03     25.4354E-03    -106.326E-03     211.735E-03    -106.117E-03     25.0795E-03
            2018     2.42838E-03     27.6174E-03    -106.048E+06    -192.868E+06    -84.1333E+06     208.486E+03    -106.216E-03     212.321E-03    -106.105E-03     19.4850E-03    -106.350E-03     211.638E-03    -106.092E-03     19.2203E-03
            2019     1.61928E-03     27.5976E-03    -111.979E+06    -209.370E+06    -100.737E+06    -25.6415E+03    -106.063E-03     212.078E-03    -106.015E-03     13.2794E-03    -106.173E-03     211.340E-03    -106.053E-03     13.0972E-03
            2020     809.232E-06     27.5859E-03    -115.831E+06    -224.729E+06    -112.955E+06     385.471E+03    -105.993E-03     211.935E-03    -105.942E-03     7.26632E-03    -106.079E-03     211.144E-03    -106.013E-03     7.17036E-03
            2021     15.3890E-03     27.2271E-03    -4.28936E+06     110.774E+06     90.6981E+06     432.724E+03    -103.617E-03     209.344E-03    -105.727E-03     24.2689E-03    -104.026E-03     209.868E-03    -105.428E-03     23.0590E-03
            2022     14.5770E-03     27.1947E-03    -10.3806E+06     102.007E+06     73.7116E+06     1.85929E+06    -104.280E-03     210.018E-03    -105.738E-03     36.1939E-03    -104.719E-03     210.568E-03    -105.502E-03     34.8712E-03
            2023     13.7672E-03     27.1490E-03    -16.0527E+06     89.6443E+06     64.2504E+06     1.42451E+06    -104.812E-03     210.587E-03    -105.775E-03     43.5201E-03    -105.253E-03     211.103E-03    -105.560E-03     42.2598E-03
            2024     12.9565E-03     27.0970E-03    -21.5620E+06     64.1160E+06     58.4254E+06     192.414E+03    -104.957E-03     210.802E-03    -105.845E-03     48.2417E-03    -105.385E-03     211.212E-03    -105.615E-03     46.9989E-03
            2025     12.1465E-03     27.0417E-03    -25.0355E+06     28.9762E+06     49.1818E+06    -451.614E+03    -105.172E-03     211.087E-03    -105.914E-03     51.4636E-03    -105.550E-03     211.336E-03    -105.674E-03     50.2766E-03
            2026     11.3358E-03     26.9823E-03    -29.5706E+06     1.83196E+06     42.2344E+06    -2.10904E+06    -105.434E-03     211.419E-03    -105.985E-03     53.4202E-03    -105.778E-03     211.542E-03    -105.733E-03     52.2762E-03
            2027     10.5254E-03     26.9223E-03    -37.4257E+06    -19.9672E+06     34.1076E+06    -491.647E+03    -105.717E-03     211.757E-03    -106.040E-03     54.1225E-03    -106.047E-03     211.784E-03    -105.786E-03     53.0692E-03
            2028     9.71558E-03     26.8617E-03    -43.5141E+06    -39.6899E+06     25.6174E+06     625.727E+03    -105.859E-03     211.940E-03    -106.081E-03     53.6586E-03    -106.166E-03     211.877E-03    -105.832E-03     52.7000E-03
            2029     8.90607E-03     26.8013E-03    -48.5192E+06    -58.4771E+06     16.9893E+06    -1.51059E+06    -105.878E-03     211.998E-03    -106.120E-03     52.5839E-03    -106.157E-03     211.847E-03    -105.880E-03     51.6790E-03
            2030     8.09482E-03     26.7433E-03    -51.7784E+06    -71.7050E+06     12.0350E+06    -1.30907E+06    -106.002E-03     212.168E-03    -106.166E-03     50.5018E-03    -106.260E-03     211.953E-03    -105.927E-03     49.6605E-03
            2031     7.28501E-03     26.6890E-03    -56.6411E+06    -85.9892E+06     5.59926E+06     859.462E+03    -106.350E-03     212.536E-03    -106.186E-03     47.6219E-03    -106.589E-03     212.253E-03    -105.952E-03     46.8753E-03
            2032     6.47598E-03     26.6364E-03    -64.1309E+06    -102.079E+06    -6.91289E+06     1.59869E+06    -106.447E-03     212.600E-03    -106.153E-03     44.3288E-03    -106.668E-03     212.251E-03    -105.947E-03     43.6810E-03
            2033     5.66693E-03     26.5869E-03    -73.1814E+06    -123.084E+06    -21.8663E+06    -1.45287E+06    -106.274E-03     212.384E-03    -106.110E-03     40.1317E-03    -106.477E-03     211.953E-03    -105.935E-03     39.5187E-03
            2034     4.85701E-03     26.5426E-03    -82.2158E+06    -140.206E+06    -33.6777E+06    -3.22081E+06    -106.236E-03     212.310E-03    -106.075E-03     35.4532E-03    -106.431E-03     211.813E-03    -105.920E-03     34.8866E-03
            2035     4.04752E-03     26.5047E-03    -89.8809E+06    -153.228E+06    -47.2832E+06    -186.380E+03    -106.221E-03     212.223E-03    -106.002E-03     30.4876E-03    -106.405E-03     211.681E-03    -105.886E-03     30.0445E-03
            2036     3.23901E-03     26.4722E-03    -97.7004E+06    -173.620E+06    -65.5309E+06     1.11671E+06    -106.090E-03     211.991E-03    -105.901E-03     25.1147E-03    -106.246E-03     211.374E-03    -105.835E-03     24.7798E-03
            2037     2.42895E-03     26.4455E-03    -104.976E+06    -193.154E+06    -84.0131E+06     181.704E+03    -105.896E-03     211.697E-03    -105.801E-03     19.4058E-03    -106.025E-03     211.011E-03    -105.788E-03     19.1468E-03
            2038     1.61926E-03     26.4273E-03    -109.875E+06    -209.638E+06    -99.4743E+06    -16.3179E+03    -105.738E-03     211.468E-03    -105.730E-03     13.3789E-03    -105.839E-03     210.723E-03    -105.764E-03     13.2018E-03
            2039     809.741E-06     26.4151E-03    -114.200E+06    -224.529E+06    -110.769E+06     223.713E+03    -105.708E-03     211.394E-03    -105.686E-03     7.29986E-03    -105.789E-03     210.599E-03    -105.749E-03     7.20387E-03
            2040     15.3886E-03     26.0598E-03    -5.96945E+06     109.040E+06     89.2186E+06     1.33878E+06    -103.939E-03     209.668E-03    -105.729E-03     24.5540E-03    -104.351E-03     210.187E-03    -105.432E-03     23.3603E-03
            2041     14.5783E-03     26.0227E-03    -10.5768E+06     101.632E+06     73.7485E+06     1.82638E+06    -104.839E-03     210.558E-03    -105.719E-03     36.2116E-03    -105.280E-03     211.108E-03    -105.482E-03     34.8744E-03
            2042     13.7682E-03     25.9785E-03    -14.1278E+06     93.1565E+06     66.6818E+06     971.072E+03    -104.911E-03     210.649E-03    -105.738E-03     42.9282E-03    -105.352E-03     211.177E-03    -105.519E-03     41.6470E-03
            2043     12.9573E-03     25.9272E-03    -18.1284E+06     65.8206E+06     60.7552E+06    -640.913E+03    -104.730E-03     210.540E-03    -105.810E-03     48.2836E-03    -105.146E-03     210.949E-03    -105.575E-03     47.0403E-03
            2044     12.1463E-03     25.8706E-03    -24.2337E+06     27.4412E+06     49.6336E+06    -692.802E+03    -105.047E-03     210.935E-03    -105.888E-03     51.7919E-03    -105.419E-03     211.175E-03    -105.645E-03     50.6072E-03
            2045     11.3361E-03     25.8123E-03    -30.4994E+06     2.34477E+06     42.7938E+06     903.038E+03    -105.490E-03     211.450E-03    -105.960E-03     53.8042E-03    -105.840E-03     211.576E-03    -105.705E-03     52.7096E-03
            2046     10.5258E-03     25.7511E-03    -36.0682E+06    -20.2474E+06     33.8470E+06    -43.0905E+03    -105.852E-03     211.852E-03    -106.000E-03     54.2999E-03    -106.174E-03     211.876E-03    -105.749E-03     53.2628E-03
            2047     9.71594E-03     25.6904E-03    -40.0173E+06    -39.1201E+06     26.6882E+06    -1.39437E+06    -105.990E-03     212.020E-03    -106.030E-03     53.8345E-03    -106.281E-03     211.953E-03    -105.782E-03     52.8566E-03
            2048     8.90528E-03     25.6308E-03    -44.4270E+06    -56.4921E+06     20.1927E+06    -1.52768E+06    -106.049E-03     212.108E-03    -106.060E-03     52.3209E-03    -106.315E-03     211.958E-03    -105.813E-03     51.4129E-03
            2049     8.09587E-03     25.5727E-03    -52.3428E+06    -73.3787E+06     11.5119E+06    -1.67633E+06    -106.305E-03     212.373E-03    -106.067E-03     49.5960E-03    -106.562E-03     212.150E-03    -105.828E-03     48.7428E-03
            2050     7.28653E-03     25.5164E-03    -59.9060E+06    -89.5145E+06     1.87199E+06    -1.04204E+06    -106.681E-03     212.709E-03    -106.028E-03     46.5899E-03    -106.926E-03     212.419E-03    -105.802E-03     45.8099E-03
            2051     6.47773E-03     25.4641E-03    -66.0621E+06    -103.047E+06    -7.04411E+06     588.235E+03    -106.673E-03     212.622E-03    -105.949E-03     43.5079E-03    -106.903E-03     212.272E-03    -105.739E-03     42.8344E-03
            2052     5.66822E-03     25.4157E-03    -72.0398E+06    -118.361E+06    -18.3179E+06     1.50189E+06    -106.282E-03     212.145E-03    -105.863E-03     39.7823E-03    -106.490E-03     211.730E-03    -105.678E-03     39.2117E-03
            2053     4.85872E-03     25.3718E-03    -80.8703E+06    -139.669E+06    -33.7590E+06    -596.177E+03    -106.009E-03     211.800E-03    -105.791E-03     35.1929E-03    -106.196E-03     211.302E-03    -105.640E-03     34.6746E-03
            2054     4.04916E-03     25.3332E-03    -91.8768E+06    -157.703E+06    -50.0994E+06    -1.59848E+06    -105.926E-03     211.639E-03    -105.713E-03     30.2448E-03    -106.108E-03     211.080E-03    -105.602E-03     29.7950E-03
            2055     3.23915E-03     25.3009E-03    -98.4757E+06    -173.559E+06    -65.8462E+06     169.869E+03    -105.765E-03     211.387E-03    -105.622E-03     25.0385E-03    -105.924E-03     210.772E-03    -105.557E-03     24.7007E-03
            2056     2.42966E-03     25.2758E-03    -103.740E+06    -191.809E+06    -83.2383E+06     266.837E+03    -105.552E-03     211.095E-03    -105.543E-03     19.2697E-03    -105.677E-03     210.412E-03    -105.530E-03     19.0177E-03
            2057     1.61965E-03     25.2563E-03    -110.937E+06    -210.306E+06    -100.283E+06    -302.926E+03    -105.491E-03     210.976E-03    -105.485E-03     13.1507E-03    -105.595E-03     210.230E-03    -105.520E-03     12.9729E-03
            2058     809.948E-06     25.2451E-03    -114.599E+06    -224.461E+06    -111.701E+06     18.6115E+03    -105.487E-03     210.900E-03    -105.413E-03     7.25932E-03    -105.569E-03     210.107E-03    -105.479E-03     7.16762E-03
            2059     15.3886E-03     24.8885E-03    -4.65640E+06     106.944E+06     91.0379E+06     270.744E+03    -104.485E-03     210.207E-03    -105.722E-03     25.1837E-03    -104.890E-03     210.712E-03    -105.416E-03     23.9840E-03
            2060     14.5789E-03     24.8516E-03    -6.73551E+06     101.607E+06     79.0021E+06     349.468E+03    -104.907E-03     210.613E-03    -105.706E-03     36.2815E-03    -105.338E-03     211.151E-03    -105.448E-03     34.9158E-03
            2061     13.7682E-03     24.8082E-03    -10.6841E+06     95.0490E+06     70.3973E+06     797.310E+03    -104.565E-03     210.287E-03    -105.723E-03     43.0893E-03    -104.997E-03     210.815E-03    -105.493E-03     41.8096E-03
            2062     12.9578E-03     24.7571E-03    -18.1815E+06     65.8927E+06     61.5151E+06     862.079E+03    -104.668E-03     210.467E-03    -105.799E-03     49.0087E-03    -105.086E-03     210.876E-03    -105.561E-03     47.7937E-03
            2063     12.1469E-03     24.7011E-03    -24.4784E+06     27.3304E+06     49.7450E+06     1.03715E+06    -105.238E-03     211.108E-03    -105.870E-03     52.3766E-03    -105.611E-03     211.348E-03    -105.626E-03     51.2235E-03
            2064     11.3362E-03     24.6410E-03    -28.0228E+06     2.17742E+06     42.5702E+06    -429.105E+03    -105.833E-03     211.750E-03    -105.917E-03     53.7893E-03    -106.169E-03     211.871E-03    -105.667E-03     52.6800E-03
            2065     10.5265E-03     24.5801E-03    -31.2655E+06    -19.0429E+06     35.9017E+06    -1.50714E+06    -106.130E-03     212.067E-03    -105.937E-03     53.7685E-03    -106.432E-03     212.086E-03    -105.684E-03     52.7063E-03
            2066     9.71616E-03     24.5195E-03    -37.5675E+06    -39.2133E+06     28.8854E+06    -1.27249E+06    -106.346E-03     212.286E-03    -105.940E-03     52.7144E-03    -106.629E-03     212.213E-03    -105.684E-03     51.7184E-03
            2067     8.90717E-03     24.4592E-03    -45.1409E+06    -56.2016E+06     20.7756E+06     12.4408E+03    -106.572E-03     212.485E-03    -105.912E-03     50.9972E-03    -106.844E-03     212.336E-03    -105.662E-03     50.0874E-03
            2068     8.09788E-03     24.4007E-03    -52.3461E+06    -72.9748E+06     11.1039E+06     160.893E+03    -106.649E-03     212.501E-03    -105.852E-03     48.9196E-03    -106.905E-03     212.280E-03    -105.615E-03     48.0903E-03
            2069     7.28872E-03     24.3449E-03    -59.8529E+06    -90.3249E+06     1.42437E+06    -620.620E+03    -106.546E-03     212.325E-03    -105.779E-03     46.3197E-03    -106.787E-03     212.029E-03    -105.554E-03     45.5604E-03
            2070     6.47892E-03     24.2925E-03    -66.9128E+06    -104.969E+06    -8.07221E+06    -501.193E+03    -106.386E-03     212.080E-03    -105.695E-03     43.0358E-03    -106.615E-03     211.723E-03    -105.486E-03     42.3567E-03
            2071     5.66969E-03     24.2446E-03    -73.1873E+06    -119.292E+06    -18.0638E+06     856.084E+03    -106.192E-03     211.793E-03    -105.602E-03     39.2644E-03    -106.404E-03     211.375E-03    -105.413E-03     38.6894E-03
            2072     4.86011E-03     24.2011E-03    -80.5338E+06    -136.498E+06    -31.7718E+06     2.08473E+06    -105.885E-03     211.386E-03    -105.501E-03     34.9467E-03    -106.077E-03     210.900E-03    -105.346E-03     34.4773E-03
            2073     4.05019E-03     24.1630E-03    -89.2053E+06    -156.896E+06    -49.5433E+06     186.267E+03    -105.573E-03     210.981E-03    -105.408E-03     30.0025E-03    -105.743E-03     210.421E-03    -105.299E-03     29.5914E-03
            2074     3.24029E-03     24.1311E-03    -98.6751E+06    -176.062E+06    -67.4652E+06    -1.76949E+06    -105.404E-03     210.734E-03    -105.330E-03     24.5456E-03    -105.558E-03     210.108E-03    -105.268E-03     24.1877E-03
            2075     2.43016E-03     24.1053E-03    -106.267E+06    -192.899E+06    -84.3054E+06    -599.079E+03    -105.317E-03     210.567E-03    -105.250E-03     18.8366E-03    -105.451E-03     209.885E-03    -105.238E-03     18.5764E-03
            2076     1.62034E-03     24.0871E-03    -111.331E+06    -209.879E+06    -100.390E+06     431.003E+03    -105.194E-03     210.370E-03    -105.176E-03     12.9172E-03    -105.301E-03     209.628E-03    -105.212E-03     12.7534E-03
            2077     809.959E-06     24.0751E-03    -116.496E+06    -224.678E+06    -113.380E+06    -239.079E+03    -105.156E-03     210.262E-03    -105.106E-03     7.04887E-03    -105.245E-03     209.474E-03    -105.178E-03     6.95200E-03
            2078     15.3898E-03     23.7166E-03    -3.16377E+06     108.027E+06     91.4914E+06    -1.84187E+06    -104.560E-03     210.241E-03    -105.681E-03     24.8701E-03    -104.960E-03     210.747E-03    -105.375E-03     23.6475E-03
            2079     14.5794E-03     23.6814E-03    -8.16736E+06     99.2663E+06     77.0049E+06    -2.30663E+06    -103.932E-03     209.617E-03    -105.685E-03     36.1330E-03    -104.362E-03     210.147E-03    -105.432E-03     34.7485E-03
            2080     13.7684E-03     23.6384E-03    -13.3283E+06     91.9118E+06     67.4810E+06     1.76208E+06    -104.260E-03     209.996E-03    -105.737E-03     44.2037E-03    -104.696E-03     210.516E-03    -105.513E-03     42.9630E-03
            2081     12.9567E-03     23.5873E-03    -17.3969E+06     66.8806E+06     60.4470E+06     3.57145E+06    -105.337E-03     211.139E-03    -105.802E-03     49.4848E-03    -105.752E-03     211.555E-03    -105.571E-03     48.3000E-03
            2082     12.1466E-03     23.5299E-03    -21.2032E+06     30.7952E+06     51.2086E+06     456.117E+03    -106.098E-03     211.926E-03    -105.828E-03     52.0075E-03    -106.463E-03     212.177E-03    -105.586E-03     50.8309E-03
            2083     11.3374E-03     23.4697E-03    -26.8788E+06     4.10426E+06     43.4804E+06    -817.477E+03    -106.364E-03     212.187E-03    -105.824E-03     52.8632E-03    -106.699E-03     212.316E-03    -105.574E-03     51.7300E-03
            2084     10.5275E-03     23.4089E-03    -34.0351E+06    -20.3860E+06     34.9746E+06    -403.212E+03    -106.575E-03     212.372E-03    -105.797E-03     52.6811E-03    -106.888E-03     212.391E-03    -105.543E-03     51.6158E-03
            2085     9.71888E-03     23.3475E-03    -40.3414E+06    -40.4192E+06     27.3067E+06     575.132E+03    -106.758E-03     212.504E-03    -105.746E-03     51.8720E-03    -107.051E-03     212.431E-03    -105.492E-03     50.8922E-03
            2086     8.90945E-03     23.2877E-03    -46.1957E+06    -56.4194E+06     19.7566E+06     519.259E+03    -106.720E-03     212.392E-03    -105.672E-03     50.5154E-03    -106.994E-03     212.244E-03    -105.425E-03     49.6169E-03
            2087     8.10005E-03     23.2293E-03    -52.5617E+06    -72.1060E+06     11.5802E+06     605.128E+03    -106.562E-03     212.151E-03    -105.589E-03     48.5406E-03    -106.819E-03     211.932E-03    -105.350E-03     47.7293E-03
            2088     7.29044E-03     23.1738E-03    -59.0276E+06    -89.5186E+06     2.46260E+06     229.757E+03    -106.390E-03     211.889E-03    -105.500E-03     45.7836E-03    -106.628E-03     211.593E-03    -105.272E-03     45.0486E-03
            2089     6.48116E-03     23.1218E-03    -66.1137E+06    -105.313E+06    -8.00277E+06    -714.923E+03    -106.179E-03     211.577E-03    -105.398E-03     42.3910E-03    -106.402E-03     211.215E-03    -105.190E-03     41.7228E-03
            2090     5.67130E-03     23.0739E-03    -74.1284E+06    -121.506E+06    -19.6895E+06    -271.679E+03    -105.942E-03     211.232E-03    -105.290E-03     38.5332E-03    -106.152E-03     210.805E-03    -105.105E-03     37.9547E-03
            2091     4.86152E-03     23.0310E-03    -81.1620E+06    -137.087E+06    -31.7286E+06     757.912E+03    -105.662E-03     210.843E-03    -105.180E-03     34.1609E-03    -105.855E-03     210.353E-03    -105.023E-03     33.6808E-03
            2092     4.05159E-03     22.9934E-03    -88.6591E+06    -154.239E+06    -47.2536E+06     1.59538E+06    -105.369E-03     210.435E-03    -105.066E-03     29.2736E-03    -105.542E-03     209.882E-03    -104.950E-03     28.8880E-03
            2093     3.24145E-03     22.9616E-03    -97.4738E+06    -174.815E+06    -66.5998E+06     794.287E+03    -105.117E-03     210.070E-03    -104.953E-03     23.9718E-03    -105.266E-03     209.446E-03    -104.892E-03     23.6573E-03
            2094     2.43123E-03     22.9364E-03    -106.468E+06    -194.116E+06    -86.1322E+06    -805.409E+03    -104.929E-03     209.783E-03    -104.854E-03     18.3448E-03    -105.060E-03     209.097E-03    -104.849E-03     18.0896E-03
            2095     1.62072E-03     22.9178E-03    -113.123E+06    -210.690E+06    -101.405E+06    -631.186E+03    -104.819E-03     209.596E-03    -104.776E-03     12.5292E-03    -104.932E-03     208.853E-03    -104.814E-03     12.3548E-03
            2096     810.620E-06     22.9067E-03    -116.770E+06    -224.299E+06    -113.060E+06     407.734E+03    -104.755E-03     209.448E-03    -104.693E-03     6.86754E-03    -104.846E-03     208.662E-03    -104.764E-03     6.78226E-03
            2097     15.3917E-03     22.5466E-03    -5.75039E+06     109.194E+06     88.1006E+06    -457.554E+03    -104.126E-03     209.803E-03    -105.677E-03     25.8769E-03    -104.536E-03     210.325E-03    -105.387E-03     24.6802E-03
            2098     14.5788E-03     22.5140E-03    -11.8421E+06     99.5695E+06     71.2262E+06     575.508E+03    -103.963E-03     209.646E-03    -105.684E-03     37.0941E-03    -104.404E-03     210.192E-03    -105.455E-03     35.7633E-03
            2099     13.7660E-03     22.4686E-03    -18.0604E+06     88.2199E+06     62.4542E+06    -481.542E+03    -105.106E-03     210.827E-03    -105.721E-03     43.8345E-03    -105.555E-03     211.344E-03    -105.510E-03     42.5448E-03
            2100     12.9572E-03     22.4151E-03    -21.8450E+06     67.8712E+06     58.6703E+06    -855.034E+03    -106.221E-03     211.959E-03    -105.738E-03     48.0304E-03    -106.659E-03     212.390E-03    -105.511E-03     46.7492E-03
            2101     12.1488E-03     22.3578E-03    -24.4268E+06     33.0440E+06     50.4812E+06    -225.872E+03    -106.664E-03     212.373E-03    -105.709E-03     50.5603E-03    -107.049E-03     212.643E-03    -105.469E-03     49.3413E-03
            2102     11.3392E-03     22.2982E-03    -30.1415E+06     3.02148E+06     42.3987E+06     456.713E+03    -106.777E-03     212.438E-03    -105.661E-03     51.9864E-03    -107.127E-03     212.568E-03    -105.409E-03     50.8545E-03
            2103     10.5305E-03     22.2369E-03    -34.8186E+06    -19.9187E+06     35.0927E+06     1.12052E+06    -106.854E-03     212.446E-03    -105.593E-03     52.2305E-03    -107.171E-03     212.468E-03    -105.338E-03     51.1881E-03
            2104     9.72082E-03     22.1762E-03    -40.5617E+06    -39.7925E+06     27.0053E+06    -28.5125E+03    -106.839E-03     212.344E-03    -105.505E-03     51.5786E-03    -107.131E-03     212.273E-03    -105.254E-03     50.6033E-03
            2105     8.91169E-03     22.1162E-03    -46.5184E+06    -56.6234E+06     19.9316E+06    -123.207E+03    -106.765E-03     212.171E-03    -105.406E-03     50.0508E-03    -107.038E-03     212.021E-03    -105.157E-03     49.1567E-03
            2106     8.10238E-03     22.0585E-03    -52.2177E+06    -71.7665E+06     12.5780E+06     1.20361E+06    -106.588E-03     211.882E-03    -105.293E-03     47.7807E-03    -106.844E-03     211.661E-03    -105.051E-03     46.9887E-03
            2107     7.29302E-03     22.0031E-03    -59.5034E+06    -88.8573E+06     1.59747E+06     465.471E+03    -106.331E-03     211.493E-03    -105.161E-03     44.8842E-03    -106.569E-03     211.200E-03    -104.938E-03     44.1657E-03
            2108     6.48323E-03     21.9516E-03    -66.6463E+06    -106.115E+06    -9.11798E+06    -486.856E+03    -106.048E-03     211.076E-03    -105.028E-03     41.4183E-03    -106.268E-03     210.710E-03    -104.823E-03     40.7685E-03
            2109     5.67356E-03     21.9042E-03    -73.7152E+06    -121.683E+06    -20.1602E+06    -233.969E+03    -105.727E-03     210.617E-03    -104.890E-03     37.4421E-03    -105.932E-03     210.187E-03    -104.708E-03     36.8776E-03
            2110     4.86355E-03     21.8615E-03    -81.9338E+06    -138.500E+06    -33.2974E+06    -129.807E+03    -105.395E-03     210.144E-03    -104.748E-03     33.0214E-03    -105.586E-03     209.649E-03    -104.595E-03     32.5395E-03
            2111     4.05340E-03     21.8244E-03    -89.8164E+06    -154.995E+06    -47.7188E+06     902.102E+03    -105.053E-03     209.660E-03    -104.607E-03     28.2306E-03    -105.229E-03     209.105E-03    -104.490E-03     27.8450E-03
            2112     3.24301E-03     21.7931E-03    -97.2614E+06    -172.905E+06    -65.1091E+06     1.62104E+06    -104.733E-03     209.199E-03    -104.466E-03     23.0819E-03    -104.886E-03     208.582E-03    -104.400E-03     22.7865E-03
            2113     2.43239E-03     21.7682E-03    -104.776E+06    -192.566E+06    -84.0679E+06     1.04553E+06    -104.478E-03     208.818E-03    -104.340E-03     17.6440E-03    -104.605E-03     208.133E-03    -104.329E-03     17.4194E-03
            2114     1.62178E-03     21.7501E-03    -112.092E+06    -211.146E+06    -102.055E+06    -267.766E+03    -104.298E-03     208.536E-03    -104.238E-03     12.0348E-03    -104.404E-03     207.791E-03    -104.280E-03     11.8711E-03
            2115     810.719E-06     21.7387E-03    -116.962E+06    -224.942E+06    -113.730E+06    -785.806E+03    -104.217E-03     208.373E-03    -104.156E-03     6.59013E-03    -104.306E-03     207.585E-03    -104.229E-03     6.49443E-03
            2116     15.3864E-03     21.3780E-03    -5.94022E+06     109.154E+06     88.9772E+06     941.938E+03    -104.275E-03     210.000E-03    -105.724E-03     24.7059E-03    -104.689E-03     210.522E-03    -105.429E-03     23.4889E-03
            2117     14.5771E-03     21.3427E-03    -12.5433E+06     100.073E+06     72.1096E+06     840.163E+03    -105.641E-03     211.321E-03    -105.680E-03     36.0050E-03    -106.090E-03     211.872E-03    -105.446E-03     34.6228E-03
            2118     13.7703E-03     21.2970E-03    -15.7200E+06     91.5568E+06     65.0712E+06    -695.005E+03    -106.362E-03     211.991E-03    -105.629E-03     42.8179E-03    -106.809E-03     212.518E-03    -105.413E-03     41.4863E-03
            2119     12.9605E-03     21.2428E-03    -19.2045E+06     67.7244E+06     60.9313E+06    -2.57839E+06    -106.440E-03     212.036E-03    -105.596E-03     47.7302E-03    -106.868E-03     212.459E-03    -105.362E-03     46.4260E-03
            2120     12.1506E-03     21.1862E-03    -25.0003E+06     30.1442E+06     49.7479E+06    -712.261E+03    -106.755E-03     212.297E-03    -105.541E-03     50.4845E-03    -107.138E-03     212.553E-03    -105.300E-03     49.2644E-03
            2121     11.3418E-03     21.1261E-03    -29.3513E+06     2.17357E+06     42.6553E+06     642.982E+03    -107.019E-03     212.488E-03    -105.469E-03     51.8949E-03    -107.362E-03     212.611E-03    -105.216E-03     50.7746E-03
            2122     10.5323E-03     21.0656E-03    -35.0217E+06    -19.8516E+06     35.0146E+06     489.362E+03    -107.094E-03     212.459E-03    -105.365E-03     51.9265E-03    -107.410E-03     212.479E-03    -105.111E-03     50.8886E-03
            2123     9.72358E-03     21.0047E-03    -40.4837E+06    -38.0700E+06     27.7917E+06     555.349E+03    -107.077E-03     212.316E-03    -105.239E-03     50.8733E-03    -107.370E-03     212.250E-03    -104.986E-03     49.9179E-03
            2124     8.91438E-03     20.9453E-03    -46.6902E+06    -57.4744E+06     19.1660E+06     85.6396E+03    -106.981E-03     212.070E-03    -105.089E-03     49.0097E-03    -107.250E-03     211.915E-03    -104.843E-03     48.1297E-03
            2125     8.10529E-03     20.8876E-03    -52.8473E+06     -72.682E+06     11.1673E+06     290.336E+03    -106.750E-03     211.670E-03    -104.920E-03     46.5132E-03    -107.003E-03     211.445E-03    -104.682E-03     45.7206E-03
            2126     7.29590E-03     20.8331E-03    -58.2814E+06    -87.2250E+06     2.53648E+06     810.047E+03    -106.389E-03     211.125E-03    -104.736E-03     43.4185E-03    -106.622E-03     210.834E-03    -104.513E-03     42.7174E-03
            2127     6.48639E-03     20.7819E-03    -65.5818E+06    -105.426E+06    -8.85045E+06     194.300E+03    -105.977E-03     210.522E-03    -104.544E-03     39.8167E-03    -106.191E-03     210.154E-03    -104.341E-03     39.1898E-03
            2128     5.67651E-03     20.7350E-03     -73.819E+06    -122.366E+06    -20.6973E+06    -120.861E+03    -105.532E-03     209.883E-03    -104.351E-03     35.8125E-03    -105.734E-03     209.448E-03    -104.170E-03     35.2636E-03
            2129     4.86638E-03     20.6931E-03    -81.4530E+06    -138.332E+06    -33.6507E+06     137.267E+03    -105.055E-03     209.213E-03    -104.158E-03     31.4634E-03    -105.241E-03     208.717E-03    -104.007E-03     31.0003E-03
            2130     4.05587E-03     20.6565E-03    -89.5026E+06    -156.154E+06    -48.4219E+06     73.8809E+03    -104.600E-03     208.574E-03    -103.973E-03     26.7889E-03    -104.770E-03     208.012E-03    -103.859E-03     26.4054E-03
            2131     3.24512E-03     20.6258E-03    -97.3173E+06    -172.948E+06    -64.8862E+06     817.546E+03    -104.187E-03     207.986E-03    -103.799E-03     21.8389E-03    -104.340E-03     207.367E-03    -103.731E-03     21.5441E-03
            2132     2.43412E-03     20.6014E-03    -104.296E+06    -191.048E+06    -82.9532E+06     1.20072E+06    -103.849E-03     207.491E-03    -103.642E-03     16.6655E-03    -103.977E-03     206.812E-03    -103.629E-03     16.4540E-03
            2133     1.62278E-03     20.5835E-03    -110.006E+06    -209.491E+06    -99.4703E+06     945.501E+03    -103.612E-03     207.133E-03    -103.521E-03     11.3498E-03    -103.713E-03     206.389E-03    -103.555E-03     11.2091E-03
            2134     811.577E-06     20.5726E-03    -114.616E+06    -225.394E+06    -112.579E+06     294.587E+03    -103.482E-03     206.916E-03    -103.434E-03     6.19604E-03    -103.560E-03     206.120E-03    -103.504E-03     6.11416E-03
            2135     15.3906E-03     20.2077E-03    -6.24357E+06     109.213E+06     90.3964E+06     624.018E+03    -105.329E-03     211.020E-03    -105.691E-03     23.8257E-03    -105.746E-03     211.539E-03    -105.388E-03     22.5948E-03
            2136     14.5809E-03     20.1693E-03    -10.8449E+06     101.449E+06     75.5069E+06    -535.071E+03    -106.210E-03     211.813E-03    -105.604E-03     36.0562E-03    -106.657E-03     212.364E-03    -105.358E-03     34.6524E-03
            2137     13.7706E-03     20.1243E-03    -14.0174E+06     92.2204E+06     66.2659E+06    -1.04082E+06    -106.564E-03     212.080E-03    -105.516E-03     43.4058E-03    -107.006E-03     212.608E-03    -105.298E-03     42.0716E-03
            2138     12.9616E-03     20.0719E-03    -17.1833E+06     67.1181E+06     61.9198E+06    -117.135E+03    -106.741E-03     212.204E-03    -105.463E-03     48.4761E-03    -107.158E-03     212.619E-03    -105.226E-03     47.2209E-03
            2139     12.1527E-03     20.0140E-03    -23.3758E+06     28.2782E+06     50.2389E+06     90.6675E+03    -107.123E-03     212.501E-03    -105.378E-03     50.7086E-03    -107.494E-03     212.744E-03    -105.134E-03     49.5177E-03
            2140     11.3436E-03     19.9545E-03    -29.3503E+06     1.67683E+06     42.2483E+06     544.487E+03    -107.475E-03     212.735E-03    -105.260E-03     51.4190E-03    -107.815E-03     212.855E-03    -105.009E-03     50.3060E-03
            2141     10.5353E-03     19.8936E-03    -35.1660E+06    -18.9695E+06     34.8688E+06     996.054E+03    -107.632E-03     212.732E-03    -105.100E-03     50.9275E-03    -107.948E-03     212.755E-03    -104.847E-03     49.9022E-03
            2142     9.72648E-03     19.8333E-03    -41.1881E+06    -38.6012E+06     26.6861E+06     739.760E+03    -107.603E-03     212.506E-03    -104.903E-03     49.5136E-03    -107.895E-03     212.437E-03    -104.653E-03     48.5694E-03
            2143     8.91798E-03     19.7741E-03    -46.3075E+06    -56.3996E+06     18.8421E+06     457.146E+03    -107.397E-03     212.073E-03    -104.676E-03     47.3111E-03    -107.663E-03     211.919E-03    -104.432E-03     46.4479E-03
            2144     8.10908E-03     19.7173E-03    -52.3784E+06    -72.6845E+06     10.6418E+06    -187.243E+03    -107.031E-03     211.457E-03    -104.425E-03     44.4699E-03    -107.278E-03     211.228E-03    -104.191E-03     43.6839E-03
            2145     7.30006E-03     19.6632E-03    -59.2177E+06    -88.4783E+06     1.89794E+06     228.938E+03    -106.534E-03     210.694E-03    -104.160E-03     41.1571E-03    -106.765E-03     210.395E-03    -103.936E-03     40.4626E-03
            2146     6.49056E-03     19.6130E-03    -65.8712E+06    -104.035E+06    -8.43989E+06     924.374E+03    -105.925E-03     209.808E-03    -103.883E-03     37.4868E-03    -106.139E-03     209.443E-03    -103.679E-03     36.8875E-03
            2147     5.68064E-03     19.5670E-03    -73.1170E+06    -121.910E+06    -20.5216E+06     280.863E+03    -105.268E-03     208.877E-03    -103.609E-03     33.4973E-03    -105.463E-03     208.439E-03    -103.429E-03     32.9738E-03
            2148     4.87022E-03     19.5258E-03    -81.0642E+06    -138.503E+06    -33.4983E+06    -30.6223E+03    -104.609E-03     207.954E-03    -103.345E-03     29.2421E-03    -104.791E-03     207.453E-03    -103.194E-03     28.7965E-03
            2149     4.05938E-03     19.4901E-03    -89.0282E+06    -155.989E+06    -48.4940E+06     169.912E+03    -103.981E-03     207.076E-03    -103.096E-03     24.7678E-03    -104.146E-03     206.513E-03    -102.983E-03     24.4045E-03
            2150     3.24807E-03     19.4601E-03    -96.9144E+06    -173.652E+06    -65.4291E+06     82.2177E+03    -103.424E-03     206.291E-03    -102.868E-03     20.1065E-03    -103.571E-03     205.668E-03    -102.803E-03     19.8181E-03
            2151     2.43636E-03     19.4363E-03    -103.892E+06    -190.659E+06    -83.0314E+06     433.887E+03    -102.973E-03     205.644E-03    -102.671E-03     15.2886E-03    -103.098E-03     204.964E-03    -102.659E-03     15.0787E-03
            2152     1.62447E-03     19.4190E-03    -109.885E+06    -208.767E+06    -98.9023E+06     775.104E+03    -102.655E-03     205.177E-03    -102.522E-03     10.3834E-03    -102.757E-03     204.435E-03    -102.554E-03     10.2507E-03
            2153     812.173E-06     19.4082E-03    -113.742E+06    -223.712E+06    -110.007E+06     968.535E+03    -102.471E-03     204.892E-03    -102.421E-03     5.65983E-03    -102.552E-03     204.100E-03    -102.482E-03     5.59536E-03
            2154     15.3900E-03     19.0351E-03     -5.7526E+06     109.669E+06     90.6210E+06     359.954E+03    -105.910E-03     211.539E-03    -105.629E-03     25.5006E-03    -106.325E-03     212.060E-03    -105.327E-03     24.2908E-03
            2155     14.5809E-03     18.9980E-03    -10.0451E+06     102.311E+06     76.1960E+06    -133.740E+03    -106.276E-03     211.801E-03    -105.524E-03     37.1602E-03    -106.722E-03     212.353E-03    -105.277E-03     35.7810E-03
            2156     13.7719E-03     18.9525E-03    -14.9619E+06     91.4205E+06     64.8280E+06    -987.928E+03    -106.783E-03     212.202E-03    -105.418E-03     43.3621E-03    -107.227E-03     212.729E-03    -105.205E-03     42.0300E-03
            2157     12.9632E-03     18.8991E-03    -21.7756E+06     64.4282E+06     58.2154E+06    -17.0098E+03    -107.457E-03     212.783E-03    -105.325E-03     47.7930E-03    -107.889E-03     213.197E-03    -105.096E-03     46.5263E-03
            2158     12.1546E-03     18.8421E-03    -27.2185E+06     28.8398E+06     48.7986E+06     1.23117E+06    -107.945E-03     213.128E-03    -105.183E-03     49.8471E-03    -108.332E-03     213.380E-03    -104.942E-03     48.6691E-03
            2159     11.3467E-03     18.7818E-03    -32.1068E+06     2.18246E+06     40.3859E+06     427.151E+03    -108.292E-03     213.278E-03    -104.986E-03     50.1211E-03    -108.642E-03     213.404E-03    -104.741E-03     49.0101E-03
            2160     10.5386E-03     18.7216E-03    -36.2188E+06    -19.4857E+06     33.5781E+06     298.187E+03    -108.452E-03     213.192E-03    -104.740E-03     49.1041E-03    -108.767E-03     213.212E-03    -104.491E-03     48.0751E-03
            2161     9.73087E-03     18.6615E-03    -40.5445E+06    -37.7720E+06     26.7603E+06     576.707E+03    -108.344E-03     212.789E-03    -104.444E-03     47.1991E-03    -108.629E-03     212.718E-03    -104.197E-03     46.2618E-03
            2162     8.92277E-03     18.6031E-03    -46.5056E+06    -55.7875E+06     18.8512E+06     96.7852E+03    -108.000E-03     212.110E-03    -104.109E-03     44.5914E-03    -108.263E-03     211.954E-03    -103.867E-03     43.7376E-03
            2163     8.11456E-03     18.5470E-03    -52.7157E+06    -72.4064E+06     10.6263E+06     269.592E+03    -107.435E-03     211.180E-03    -103.744E-03     41.4602E-03    -107.678E-03     210.948E-03    -103.510E-03     40.6992E-03
            2164     7.30572E-03     18.4942E-03    -59.1807E+06    -88.9187E+06     1.45981E+06     120.326E+03    -106.694E-03     210.055E-03    -103.361E-03     37.9796E-03    -106.918E-03     209.749E-03    -103.139E-03     37.3064E-03
            2165     6.49639E-03     18.4450E-03    -65.7761E+06    -104.236E+06    -8.35659E+06     110.648E+03    -105.831E-03     208.804E-03    -102.972E-03     34.2466E-03    -106.040E-03     208.434E-03    -102.768E-03     33.6615E-03
            2166     5.68636E-03     18.4003E-03    -72.7176E+06    -120.871E+06    -19.7914E+06     520.777E+03    -104.908E-03     207.499E-03    -102.591E-03     30.3290E-03    -105.100E-03     207.062E-03    -102.409E-03     29.8341E-03
            2167     4.87565E-03     18.3603E-03    -80.4562E+06    -138.265E+06    -33.2473E+06     201.919E+03    -103.985E-03     206.212E-03    -102.228E-03     26.2845E-03    -104.161E-03     205.708E-03    -102.077E-03     25.8665E-03
            2168     4.06422E-03     18.3257E-03    -88.3956E+06    -155.793E+06    -48.2853E+06    -49.7555E+03    -103.125E-03     205.018E-03    -101.894E-03     22.1334E-03    -103.285E-03     204.452E-03    -101.781E-03     21.7893E-03
            2169     3.25219E-03     18.2967E-03    -96.1176E+06    -173.525E+06    -65.0447E+06    -22.8563E+03    -102.374E-03     203.970E-03    -101.596E-03     17.8871E-03    -102.517E-03     203.344E-03    -101.530E-03     17.6165E-03
            2170     2.43965E-03     18.2738E-03    -103.603E+06    -191.167E+06    -82.7542E+06     100.598E+03    -101.772E-03     203.117E-03    -101.345E-03     13.5604E-03    -101.896E-03     202.434E-03    -101.331E-03     13.3611E-03
            2171     1.62662E-03     18.2571E-03    -109.490E+06    -208.358E+06    -98.9376E+06     447.034E+03    -101.342E-03     202.494E-03    -101.152E-03     9.19212E-03    -101.443E-03     201.754E-03    -101.186E-03     9.06476E-03
            2172     813.475E-06     18.2468E-03    -113.617E+06    -222.407E+06    -110.943E+06     146.275E+03    -101.088E-03     202.112E-03    -101.025E-03     5.00276E-03    -101.169E-03     201.328E-03    -101.092E-03     4.93225E-03
            2173     15.3911E-03     17.8626E-03    -4.83350E+06     109.983E+06     89.8922E+06     386.939E+03    -106.306E-03     211.897E-03    -105.591E-03     25.6113E-03    -106.717E-03     212.420E-03    -105.294E-03     24.3924E-03
            2174     14.5821E-03     17.8258E-03    -10.2489E+06     102.406E+06     74.0062E+06     336.115E+03    -106.986E-03     212.433E-03    -105.447E-03     36.8035E-03    -107.431E-03     212.991E-03    -105.211E-03     35.4110E-03
            2175     13.7735E-03     17.7795E-03    -16.5533E+06     91.4385E+06     62.6434E+06     1.15801E+06    -107.724E-03     213.014E-03    -105.290E-03     43.0631E-03    -108.172E-03     213.547E-03    -105.086E-03     41.7538E-03
            2176     12.9653E-03     17.7263E-03    -22.1922E+06     63.8310E+06     56.2980E+06     1.25372E+06    -108.485E-03     213.613E-03    -105.127E-03     46.8553E-03    -108.914E-03     214.026E-03    -104.906E-03     45.5971E-03
            2177     12.1580E-03     17.6685E-03    -27.1121E+06     29.0630E+06     48.1141E+06     510.190E+03    -109.114E-03     214.015E-03    -104.901E-03     48.2692E-03    -109.497E-03     214.266E-03    -104.663E-03     47.0735E-03
            2178     11.3508E-03     17.6089E-03    -31.4305E+06     4.26941E+06     40.8896E+06    -114.630E+03    -109.441E-03     214.041E-03    -104.600E-03     48.0476E-03    -109.787E-03     214.172E-03    -104.356E-03     46.9292E-03
            2179     10.5440E-03     17.5485E-03    -36.5804E+06    -20.2731E+06     32.9266E+06    -773.038E+03    -109.517E-03     213.750E-03    -104.233E-03     46.4857E-03    -109.826E-03     213.762E-03    -103.986E-03     45.4486E-03
            2180     9.73694E-03     17.4894E-03    -41.8915E+06    -37.9437E+06     26.2837E+06    -297.951E+03    -109.277E-03     213.083E-03    -103.807E-03     44.0805E-03    -109.562E-03     213.009E-03    -103.560E-03     43.1440E-03
            2181     8.92981E-03     17.4319E-03    -46.8199E+06    -55.2808E+06     18.8985E+06     135.373E+03    -108.718E-03     212.047E-03    -103.330E-03     41.0826E-03    -108.976E-03     211.888E-03    -103.087E-03     40.2476E-03
            2182     8.12201E-03     17.3772E-03    -52.4409E+06    -72.4641E+06     10.6731E+06    -131.108E+03    -107.889E-03     210.707E-03    -102.818E-03     37.6745E-03    -108.124E-03     210.468E-03    -102.584E-03     36.9304E-03
            2183     7.31365E-03     17.3258E-03    -58.4448E+06    -88.3719E+06     1.86465E+06    -129.641E+03    -106.842E-03     209.130E-03    -102.288E-03     34.0487E-03    -107.059E-03     208.821E-03    -102.066E-03     33.3967E-03
            2184     6.50435E-03     17.2785E-03    -65.2086E+06    -104.567E+06    -8.24422E+06    -89.3587E+03    -105.646E-03     207.403E-03    -101.756E-03     30.3210E-03    -105.847E-03     207.025E-03    -101.551E-03     29.7581E-03
            2185     5.69411E-03     17.2354E-03    -72.3870E+06    -120.895E+06    -19.6269E+06     36.2732E+03    -104.383E-03     205.624E-03    -101.241E-03     26.5622E-03    -104.570E-03     205.181E-03    -101.059E-03     26.0853E-03
            2186     4.88288E-03     17.1972E-03    -79.6211E+06    -137.564E+06    -32.6136E+06     208.962E+03    -103.135E-03     203.892E-03    -100.756E-03     22.8036E-03    -103.306E-03     203.386E-03    -100.604E-03     22.4087E-03
            2187     4.07069E-03     17.1641E-03    -87.5238E+06    -155.567E+06    -47.7979E+06      94.789E+03    -101.982E-03     202.299E-03    -100.317E-03     19.0542E-03    -102.137E-03     201.729E-03    -100.203E-03     18.7321E-03
            2188     3.25764E-03     17.1366E-03    -95.6687E+06    -173.410E+06    -64.6785E+06     89.6882E+03    -100.987E-03     200.919E-03    -99.9323E-03     15.3104E-03    -101.126E-03     200.291E-03    -99.8656E-03     15.0583E-03
            2189     2.44385E-03     17.1147E-03    -103.056E+06    -191.325E+06      -82.34E+06     250.615E+03    -100.195E-03     199.809E-03    -99.6139E-03     11.5621E-03    -100.315E-03     199.123E-03    -99.5988E-03     11.3790E-03
            2190     1.62958E-03     17.0988E-03    -109.482E+06    -208.101E+06    -98.6090E+06     320.285E+03    -99.6301E-03     199.002E-03    -99.3724E-03     7.82281E-03    -99.7315E-03     198.262E-03    -99.4049E-03     7.70330E-03
            2191     814.822E-06     17.0890E-03    -113.638E+06    -221.530E+06    -110.662E+06     492.168E+03    -99.2815E-03     198.505E-03    -99.2239E-03     4.25790E-03    -99.3649E-03     197.724E-03    -99.2912E-03     4.19640E-03
            2192     15.3914E-03     16.6902E-03    -5.16500E+06     109.079E+06     87.8900E+06     1.02109E+06    -107.208E-03     212.753E-03    -105.545E-03     25.9568E-03    -107.617E-03     213.276E-03    -105.257E-03     24.7363E-03
            2193     14.5830E-03     16.6523E-03    -11.2844E+06     101.849E+06     71.3758E+06     2.40359E+06    -108.088E-03     213.430E-03    -105.342E-03     36.7997E-03    -108.534E-03     213.990E-03    -105.116E-03     35.4248E-03
            2194     13.7756E-03     16.6059E-03    -16.7768E+06     91.2312E+06     62.9614E+06     2.42950E+06    -109.115E-03     214.233E-03    -105.118E-03     42.3212E-03    -109.564E-03     214.764E-03    -104.911E-03     41.0117E-03
            2195     12.9690E-03     16.5518E-03    -21.3185E+06     66.3457E+06     57.5927E+06     1.07773E+06    -109.975E-03     214.826E-03    -104.851E-03     45.4795E-03    -110.402E-03     215.247E-03    -104.629E-03     44.2047E-03
            2196     12.1627E-03     16.4943E-03    -25.1946E+06     30.2231E+06     48.7502E+06    -398.079E+03    -110.603E-03     215.105E-03    -104.501E-03     46.2664E-03    -110.976E-03     215.354E-03    -104.265E-03     45.0502E-03
            2197     11.3569E-03     16.4346E-03    -30.0568E+06     4.32835E+06     41.8518E+06    -481.169E+03    -110.881E-03     214.947E-03    -104.067E-03     45.4295E-03    -111.216E-03     215.070E-03    -103.820E-03     44.3045E-03
            2198     10.5511E-03     16.3752E-03    -35.2882E+06    -19.2532E+06     33.8106E+06    -388.514E+03    -110.803E-03     214.349E-03    -103.546E-03     43.3179E-03    -111.102E-03     214.357E-03    -103.298E-03     42.2925E-03
            2199     9.74527E-03     16.3168E-03    -40.5228E+06    -38.6859E+06     26.5633E+06    -933.609E+03    -110.342E-03     213.299E-03    -102.956E-03     40.3994E-03    -110.613E-03     213.211E-03    -102.709E-03     39.4672E-03
            2200     8.93885E-03     16.2610E-03    -45.9420E+06    -55.3383E+06     19.2621E+06    -697.733E+03    -109.506E-03     211.814E-03    -102.309E-03     36.9900E-03    -109.753E-03     211.647E-03    -102.066E-03     36.1608E-03
            2201     8.13181E-03     16.2080E-03    -51.4848E+06    -72.1406E+06     11.1156E+06    -446.705E+03    -108.342E-03     209.965E-03    -101.623E-03     33.3173E-03    -108.567E-03     209.719E-03    -101.388E-03     32.5882E-03
            2202     7.32367E-03     16.1589E-03    -57.7806E+06    -88.4759E+06     2.06944E+06    -399.239E+03    -106.924E-03     207.843E-03    -100.919E-03     29.5714E-03    -107.132E-03     207.526E-03    -100.696E-03     28.9357E-03
            2203     6.51440E-03     16.1137E-03    -64.4026E+06    -104.504E+06    -7.96591E+06    -164.081E+03    -105.340E-03     205.558E-03    -100.218E-03     25.8643E-03    -105.533E-03     205.175E-03    -100.013E-03     25.3203E-03
            2204     5.70381E-03     16.0731E-03    -71.5439E+06    -120.854E+06    -19.4153E+06    -82.5269E+03    -103.688E-03     203.230E-03    -99.5421E-03     22.2589E-03    -103.867E-03     202.782E-03    -99.3602E-03     21.7999E-03
            2205     4.89191E-03     16.0371E-03    -79.3189E+06    -137.578E+06    -32.5604E+06     49.9752E+03    -102.066E-03     200.976E-03    -98.9101E-03     18.7864E-03    -102.232E-03     200.467E-03    -98.7584E-03     18.4078E-03
            2206     4.07874E-03     16.0061E-03    -87.1029E+06    -155.180E+06    -47.5451E+06     297.512E+03    -100.566E-03     198.905E-03    -98.3391E-03     15.4514E-03    -100.718E-03     198.335E-03    -98.2256E-03     15.1499E-03
            2207     3.26443E-03     15.9803E-03    -94.8259E+06    -173.292E+06    -64.2599E+06     328.483E+03    -99.2672E-03     197.111E-03    -97.8437E-03     12.2438E-03    -99.4022E-03     196.480E-03    -97.7762E-03     12.0107E-03
            2208     2.44919E-03     15.9599E-03    -102.229E+06    -191.154E+06    -81.6723E+06     404.083E+03    -98.2289E-03     195.666E-03    -97.4370E-03     9.14254E-03    -98.3455E-03     194.978E-03    -97.4200E-03     8.97316E-03
            2209     1.63316E-03     15.9450E-03    -108.253E+06    -207.692E+06    -97.5856E+06     443.610E+03    -97.4827E-03     194.614E-03    -97.1316E-03     6.13333E-03    -97.5799E-03     193.873E-03    -97.1614E-03     6.02495E-03
            2210     816.766E-06     15.9359E-03    -112.588E+06    -220.703E+06    -109.375E+06     221.974E+03    -97.0173E-03     193.968E-03    -96.9507E-03     3.31336E-03    -97.0988E-03     193.188E-03    -97.0143E-03     3.25726E-03
            2211     15.3920E-03     15.5162E-03    -4.38061E+06     106.344E+06     88.8544E+06     1.69265E+06    -108.701E-03     214.207E-03    -105.506E-03     26.0299E-03    -109.106E-03     214.716E-03    -105.209E-03     24.7917E-03
            2212     14.5851E-03     15.4778E-03    -9.33767E+06     101.032E+06     75.2957E+06     3.49099E+06    -109.831E-03     215.050E-03    -105.220E-03     36.3624E-03    -110.272E-03     215.599E-03    -104.976E-03     34.9735E-03
            2213     13.7792E-03     15.4301E-03    -14.0563E+06     93.9775E+06     66.9380E+06     2.62260E+06    -110.899E-03     215.777E-03    -104.877E-03     41.3239E-03    -111.345E-03     216.312E-03    -104.659E-03     39.9907E-03
            2214     12.9738E-03     15.3761E-03    -18.6613E+06     69.4227E+06     60.1452E+06     427.429E+03    -111.793E-03     216.267E-03    -104.473E-03     43.8885E-03    -112.214E-03     216.693E-03    -104.246E-03     42.5861E-03
            2215     12.1692E-03     15.3183E-03    -23.8405E+06     31.1272E+06     49.6929E+06    -527.921E+03    -112.408E-03     216.379E-03    -103.971E-03     44.0054E-03    -112.773E-03     216.625E-03    -103.733E-03     42.7777E-03
            2216     11.3648E-03     15.2595E-03    -28.6521E+06     3.86235E+06     42.5006E+06    -543.661E+03    -112.571E-03     215.940E-03    -103.369E-03     42.4703E-03    -112.895E-03     216.053E-03    -103.121E-03     41.3413E-03
            2217     10.5605E-03     15.2008E-03    -33.3535E+06    -18.4868E+06     34.8957E+06    -599.133E+03    -112.268E-03     214.936E-03    -102.667E-03     39.7287E-03    -112.555E-03     214.937E-03    -102.418E-03     38.7036E-03
            2218     9.75574E-03     15.1442E-03    -38.6112E+06    -38.1597E+06     27.4715E+06    -748.430E+03    -111.502E-03     213.388E-03    -101.887E-03     36.2635E-03    -111.759E-03     213.294E-03    -101.638E-03     35.3417E-03
            2219     8.95034E-03     15.0903E-03    -44.4294E+06    -55.7388E+06     19.6582E+06    -897.251E+03    -110.303E-03     211.347E-03    -101.043E-03     32.4510E-03    -110.538E-03     211.169E-03    -100.800E-03     31.6296E-03
            2220     8.14379E-03     15.0400E-03    -50.6075E+06    -72.2119E+06     11.3453E+06    -614.604E+03    -108.746E-03     208.906E-03    -100.160E-03     28.5297E-03    -108.962E-03     208.653E-03    -99.9255E-03     27.8101E-03
            2221     7.33598E-03     14.9935E-03    -56.8428E+06    -88.5101E+06     2.27165E+06    -331.508E+03    -106.918E-03     206.179E-03    -99.2608E-03     24.6711E-03    -107.117E-03     205.855E-03    -99.0387E-03     24.0485E-03
            2222     6.52659E-03     14.9515E-03    -63.6705E+06    -104.586E+06    -7.87870E+06    -183.181E+03    -104.916E-03     203.285E-03    -98.3688E-03     20.9921E-03    -105.101E-03     202.896E-03    -98.1642E-03     20.4596E-03
            2223     5.71559E-03     14.9138E-03    -70.9091E+06    -120.739E+06    -19.2706E+06     63.8133E+03    -102.844E-03     200.352E-03    -97.5086E-03     17.5629E-03    -103.017E-03     199.901E-03    -97.3271E-03     17.1169E-03
            2224     4.90290E-03     14.8808E-03    -78.3780E+06    -137.536E+06    -32.2285E+06     214.806E+03    -100.807E-03     197.510E-03    -96.7032E-03     14.4135E-03    -100.967E-03     196.997E-03    -96.5513E-03     14.0474E-03
            2225     4.08860E-03     14.8524E-03    -86.2337E+06    -155.055E+06    -47.0746E+06     313.074E+03    -98.9092E-03     194.883E-03    -95.9738E-03     11.5489E-03    -99.0558E-03     194.309E-03    -95.8593E-03     11.2559E-03
            2226     3.27282E-03     14.8290E-03    -94.0221E+06    -172.940E+06    -63.5694E+06     462.548E+03    -97.2453E-03     192.585E-03    -95.3395E-03     8.94784E-03    -97.3765E-03     191.952E-03    -95.2703E-03     8.72361E-03
            2227     2.45576E-03     14.8104E-03    -101.113E+06    -190.801E+06    -80.7430E+06     441.673E+03    -95.8952E-03     190.714E-03    -94.8186E-03     6.56597E-03    -96.0076E-03     190.024E-03    -94.7990E-03     6.40396E-03
            2228     1.63777E-03     14.7970E-03    -107.181E+06    -207.106E+06    -96.5427E+06     369.866E+03    -94.9112E-03     189.338E-03    -94.4270E-03     4.35519E-03    -95.0053E-03     188.597E-03    -94.4540E-03     4.24856E-03
            2229     819.019E-06     14.7886E-03    -111.192E+06    -219.967E+06    -108.452E+06     259.611E+03    -94.3097E-03     188.484E-03    -94.1745E-03     2.32977E-03    -94.3867E-03     187.704E-03    -94.2366E-03     2.27277E-03
            2230     15.3930E-03     14.3399E-03    -4.29619E+06     103.199E+06     89.1155E+06     581.447E+03    -110.646E-03     216.080E-03    -105.434E-03     26.1232E-03    -111.048E-03     216.575E-03    -105.132E-03     24.8351E-03
            2231     14.5880E-03     14.3007E-03    -7.34214E+06     99.4525E+06     78.5912E+06     2.28862E+06    -111.932E-03     216.974E-03    -105.042E-03     36.1392E-03    -112.369E-03     217.510E-03    -104.783E-03     34.6979E-03
            2232     13.7837E-03     14.2528E-03    -10.9430E+06     97.0187E+06     70.4880E+06     2.50044E+06    -113.035E-03     217.592E-03    -104.557E-03     40.5309E-03    -113.474E-03     218.132E-03    -104.329E-03     39.1661E-03
            2233     12.9802E-03     14.1982E-03    -16.1300E+06     72.0484E+06     61.9883E+06     1.28428E+06    -113.961E-03     217.950E-03    -103.989E-03     42.2745E-03    -114.374E-03     218.382E-03    -103.760E-03     40.9590E-03
            2234     12.1773E-03     14.1410E-03    -21.3621E+06     32.3327E+06     51.0374E+06     111.886E+03    -114.511E-03     217.821E-03    -103.310E-03     41.5713E-03    -114.864E-03     218.065E-03    -103.070E-03     40.3349E-03
            2235     11.3747E-03     14.0828E-03    -26.5551E+06     4.07784E+06     43.3281E+06    -489.044E+03    -114.468E-03     216.982E-03    -102.513E-03     39.2875E-03    -114.778E-03     217.086E-03    -102.264E-03     38.1484E-03
            2236     10.5718E-03     14.0260E-03    -31.9313E+06    -18.2314E+06     35.4856E+06    -450.694E+03    -113.845E-03     215.451E-03    -101.607E-03     35.9119E-03    -114.121E-03     215.447E-03    -101.356E-03     34.8824E-03
            2237     9.76835E-03     13.9714E-03    -37.4247E+06    -37.7236E+06     27.9635E+06    -444.651E+03    -112.679E-03     213.295E-03    -100.616E-03     31.9473E-03    -112.927E-03     213.195E-03    -100.367E-03     31.0263E-03
            2238     8.96376E-03     13.9204E-03    -43.2020E+06    -55.6065E+06     20.0146E+06    -362.765E+03    -111.049E-03     210.611E-03    -99.5618E-03     27.7941E-03    -111.273E-03     210.427E-03    -99.3185E-03     26.9779E-03
            2239     8.15782E-03     13.8732E-03    -49.3741E+06    -72.3239E+06     11.5589E+06    -322.866E+03    -109.048E-03     207.518E-03    -98.4700E-03     23.6973E-03    -109.254E-03     207.259E-03    -98.2358E-03     22.9797E-03
            2240     7.35012E-03     13.8304E-03    -56.0048E+06    -88.5418E+06     2.38911E+06    -143.221E+03    -106.774E-03     204.140E-03    -97.3660E-03     19.8215E-03    -106.965E-03     203.812E-03    -97.1445E-03     19.1989E-03
            2241     6.54058E-03     13.7919E-03    -62.7791E+06    -104.540E+06    -7.67344E+06     103.834E+03    -104.327E-03     200.602E-03    -96.2756E-03     16.2850E-03    -104.506E-03     200.210E-03    -96.0713E-03     15.7524E-03
            2242     5.72898E-03     13.7581E-03    -69.9362E+06    -120.657E+06    -18.9441E+06     211.393E+03    -101.815E-03     197.040E-03    -95.2253E-03     13.1424E-03    -101.982E-03     196.586E-03    -95.0436E-03     12.6924E-03
            2243     4.91534E-03     13.7286E-03    -77.5120E+06    -137.335E+06    -31.7663E+06     352.899E+03    -99.3501E-03     193.591E-03    -94.2409E-03     10.4035E-03    -99.5058E-03     193.076E-03    -94.0882E-03     10.0317E-03
            2244     4.09970E-03     13.7037E-03    -85.2130E+06    -154.808E+06    -46.3220E+06     469.373E+03    -97.0430E-03     190.390E-03    -93.3473E-03     8.04880E-03    -97.1857E-03     189.815E-03    -93.2309E-03     7.75002E-03
            2245     3.28220E-03     13.6831E-03    -92.8435E+06    -172.555E+06    -62.5363E+06     455.373E+03    -95.0001E-03     187.568E-03    -92.5674E-03     6.04000E-03    -95.1275E-03     186.934E-03    -92.4953E-03     5.80780E-03
            2246     2.46315E-03     13.6671E-03    -100.059E+06    -190.262E+06    -79.6016E+06     422.170E+03    -93.3200E-03     185.244E-03    -91.9239E-03     4.31701E-03    -93.4297E-03     184.553E-03    -91.9009E-03     4.14686E-03
            2247     1.64279E-03     13.6554E-03    -106.052E+06    -206.547E+06    -95.3373E+06     286.453E+03    -92.0754E-03     183.513E-03    -91.4375E-03     2.80858E-03    -92.1665E-03     182.771E-03    -91.4609E-03     2.69572E-03
            2248     821.671E-06     13.6482E-03    -110.251E+06    -219.365E+06    -106.929E+06     112.822E+03    -91.3229E-03     182.424E-03    -91.1013E-03     1.48551E-03    -91.3977E-03     181.644E-03    -91.1580E-03     1.42429E-03
            2249     15.3949E-03     13.1615E-03    -5.01917E+06     102.494E+06     88.0321E+06    -250.226E+03    -112.751E-03     218.072E-03    -105.321E-03     26.4565E-03    -113.157E-03     218.569E-03    -105.022E-03     25.1150E-03
            2250     14.5913E-03     13.1214E-03    -9.23782E+06     97.9958E+06     76.6330E+06    -492.326E+03    -114.248E-03     219.047E-03    -104.799E-03     35.9898E-03    -114.692E-03     219.584E-03    -104.544E-03     34.4634E-03
            2251     13.7891E-03     13.0728E-03    -12.0646E+06     96.4689E+06     69.7629E+06     608.928E+03    -115.547E-03     219.707E-03    -104.161E-03     39.7181E-03    -115.992E-03     220.250E-03    -103.934E-03     38.2849E-03
            2252     12.9877E-03     13.0184E-03    -15.2828E+06     73.5699E+06     62.7239E+06     1.49428E+06    -116.458E-03     219.871E-03    -103.413E-03     40.6079E-03    -116.870E-03     220.308E-03    -103.184E-03     39.2593E-03
            2253     12.1869E-03     12.9616E-03    -20.1803E+06     34.3276E+06     51.9375E+06     944.975E+03    -116.815E-03     219.347E-03    -102.532E-03     39.0414E-03    -117.164E-03     219.596E-03    -102.293E-03     37.7871E-03
            2254     11.3860E-03     12.9051E-03    -25.6308E+06     4.67605E+06     43.6536E+06     339.966E+03    -116.456E-03     217.980E-03    -101.524E-03     36.0134E-03    -116.760E-03     218.083E-03    -101.275E-03     34.8618E-03
            2255     10.5848E-03     12.8503E-03    -31.0949E+06    -17.8588E+06     35.6474E+06     130.870E+03    -115.403E-03     215.803E-03    -100.400E-03     32.0521E-03    -115.673E-03     215.796E-03    -100.151E-03     31.0098E-03
            2256     9.78246E-03     12.7989E-03    -36.7461E+06    -37.4070E+06     28.0392E+06     135.141E+03    -113.750E-03     212.944E-03    -99.1942E-03     27.6993E-03    -113.992E-03     212.842E-03    -98.9465E-03     26.7662E-03
            2257     8.97871E-03     12.7513E-03    -42.6573E+06    -55.3595E+06     20.0570E+06     153.024E+03    -111.617E-03     209.549E-03    -97.9318E-03     23.3583E-03    -111.837E-03     209.363E-03    -97.6894E-03     22.5293E-03
            2258     8.17308E-03     12.7082E-03    -48.8178E+06    -72.0356E+06     11.6832E+06     224.057E+03    -109.112E-03     205.753E-03    -96.6411E-03     19.2653E-03    -109.315E-03     205.493E-03    -96.4075E-03     18.5347E-03
            2259     7.36538E-03     12.6696E-03    -55.2577E+06    -88.4451E+06     2.58948E+06     273.915E+03    -106.352E-03     201.702E-03    -95.3503E-03     15.5706E-03    -106.539E-03     201.372E-03    -95.1290E-03     14.9318E-03
            2260     6.55532E-03     12.6357E-03    -62.1336E+06    -104.328E+06    -7.36099E+06     319.283E+03    -103.451E-03     197.538E-03    -94.0868E-03     12.3554E-03    -103.627E-03     197.144E-03    -93.8822E-03     11.8030E-03
            2261     5.74290E-03     12.6063E-03    -69.2739E+06    -120.411E+06    -18.4529E+06     415.181E+03    -100.525E-03     193.402E-03    -92.8776E-03     9.63216E-03    -100.689E-03     192.947E-03    -92.6948E-03     9.16148E-03
            2262     4.92805E-03     12.5812E-03    -76.6978E+06    -137.062E+06    -31.0144E+06     449.711E+03    -97.6856E-03     189.434E-03    -91.7488E-03     7.36973E-03    -97.8388E-03     188.919E-03    -91.5939E-03     6.97578E-03
            2263     4.11089E-03     12.5602E-03    -84.3549E+06    -154.388E+06    -45.2614E+06     404.656E+03    -95.0432E-03     185.768E-03    -90.7249E-03     5.51707E-03    -95.1838E-03     185.192E-03    -90.6050E-03     5.19547E-03
            2264     3.29162E-03     12.5433E-03    -91.9636E+06    -172.075E+06    -61.1870E+06     320.525E+03    -92.7024E-03     182.531E-03    -89.8289E-03     4.01156E-03    -92.8282E-03     181.897E-03    -89.7520E-03     3.75813E-03
            2265     2.47048E-03     12.5301E-03    -98.9954E+06    -189.792E+06    -78.0302E+06     171.233E+03    -90.7596E-03     179.844E-03    -89.0845E-03     2.78166E-03    -90.8671E-03     179.152E-03    -89.0559E-03     2.59212E-03
            2266     1.64791E-03     12.5207E-03    -104.975E+06    -206.035E+06    -93.7788E+06     11.8313E+03    -89.2950E-03     177.810E-03    -88.5153E-03     1.75883E-03    -89.3841E-03     177.067E-03    -88.5333E-03     1.63169E-03
            2267     824.207E-06     12.5148E-03    -109.094E+06    -219.186E+06    -105.922E+06    -130.024E+03    -88.3960E-03     176.505E-03    -88.1091E-03     906.646E-06    -88.4666E-03     175.724E-03    -88.1627E-03     836.907E-06
            2268     15.3967E-03     11.9807E-03    -4.70395E+06     103.281E+06     88.8895E+06    -180.937E+03    -115.204E-03     220.396E-03    -105.192E-03     27.0505E-03    -115.616E-03     220.900E-03    -104.891E-03     25.6574E-03
            2269     14.5955E-03     11.9395E-03    -9.76417E+06     98.5688E+06     75.8156E+06    -978.737E+03    -116.893E-03     221.409E-03    -104.515E-03     35.9974E-03    -117.345E-03     221.956E-03    -104.265E-03     34.4051E-03
            2270     13.7953E-03     11.8903E-03    -14.7237E+06     94.7056E+06     67.1017E+06    -1.52253E+06    -118.287E-03     221.987E-03    -103.700E-03     38.9449E-03    -118.743E-03     222.533E-03    -103.481E-03     37.4272E-03
            2271     12.9963E-03     11.8360E-03    -18.5890E+06     72.6264E+06     60.8259E+06    -469.087E+03    -119.107E-03     221.865E-03    -102.758E-03     38.9524E-03    -119.533E-03     222.307E-03    -102.532E-03     37.5275E-03
            2272     12.1975E-03     11.7806E-03    -22.0297E+06     35.1525E+06     51.0668E+06     720.999E+03    -119.175E-03     220.841E-03    -101.666E-03     36.5191E-03    -119.533E-03     221.099E-03    -101.430E-03     35.2177E-03
            2273     11.3986E-03     11.7260E-03    -26.4547E+06     5.56114E+06     43.1585E+06     802.551E+03    -118.365E-03     218.806E-03    -100.442E-03     32.7687E-03    -118.673E-03     218.916E-03    -100.196E-03     31.5821E-03
            2274     10.5987E-03     11.6745E-03    -31.6027E+06    -17.2881E+06     35.2409E+06     630.953E+03    -116.759E-03     215.867E-03    -99.1073E-03     28.3517E-03    -117.032E-03     215.864E-03    -98.8602E-03     27.2764E-03
            2275     9.79741E-03     11.6267E-03    -36.9841E+06    -37.0471E+06     27.7821E+06     592.139E+03    -114.520E-03     212.223E-03    -97.7036E-03     23.8187E-03    -114.764E-03     212.125E-03    -97.4574E-03     22.8528E-03
            2276     8.99411E-03     11.5837E-03    -42.6177E+06    -54.8991E+06     20.0598E+06     602.682E+03    -111.797E-03     208.059E-03    -96.2616E-03     19.5321E-03    -112.019E-03     207.877E-03    -96.0199E-03     18.6701E-03
            2277     8.18851E-03     11.5453E-03    -48.5875E+06    -71.6867E+06     11.8629E+06     563.260E+03    -108.733E-03     203.547E-03    -94.8139E-03     15.7038E-03    -108.936E-03     203.289E-03    -94.5802E-03     14.9392E-03
            2278     7.38030E-03     11.5119E-03    -54.8943E+06    -87.9851E+06     3.01259E+06     531.168E+03    -105.476E-03     198.867E-03    -93.3914E-03     12.4353E-03    -105.664E-03     198.540E-03    -93.1691E-03     11.7630E-03
            2279     6.56941E-03     11.4831E-03    -61.4575E+06    -103.963E+06    -6.63834E+06     465.511E+03    -102.160E-03     194.182E-03    -92.0217E-03     9.74306E-03    -102.336E-03     193.790E-03    -91.8151E-03     9.15706E-03
            2280     5.75577E-03     11.4588E-03    -68.4134E+06    -120.014E+06    -17.3622E+06     365.714E+03    -98.9071E-03     189.638E-03    -90.7304E-03     7.58209E-03    -99.0717E-03     189.184E-03    -90.5440E-03     7.07759E-03
            2281     4.93948E-03     11.4385E-03    -75.6692E+06    -136.622E+06    -29.4785E+06     242.274E+03    -95.8241E-03     185.364E-03    -89.5400E-03     5.87371E-03    -95.9769E-03     184.849E-03    -89.3796E-03     5.44764E-03
            2282     4.12068E-03     11.4220E-03    -83.1342E+06    -153.903E+06    -43.2936E+06     77.7547E+03    -93.0101E-03     181.481E-03    -88.4705E-03     4.51930E-03    -93.1497E-03     180.904E-03    -88.3433E-03     4.16761E-03
            2283     3.29961E-03     11.4089E-03    -90.6088E+06    -171.582E+06    -58.8612E+06    -190.649E+03    -90.5500E-03     178.091E-03    -87.5405E-03     3.42189E-03    -90.6743E-03     177.455E-03    -87.4546E-03     3.14071E-03
            2284     2.47663E-03     11.3990E-03    -97.7368E+06    -189.470E+06    -75.6474E+06    -449.809E+03    -88.5214E-03     175.291E-03    -86.7695E-03     2.49244E-03    -88.6273E-03     174.597E-03    -86.7313E-03     2.28017E-03
            2285     1.65203E-03     11.3921E-03    -103.846E+06    -206.089E+06    -91.8175E+06    -542.902E+03    -86.9935E-03     173.172E-03    -86.1787E-03     1.65697E-03    -87.0803E-03     172.425E-03    -86.1884E-03     1.51111E-03
            2286     826.374E-06     11.3879E-03    -108.304E+06    -219.688E+06    -104.436E+06    -346.178E+03    -86.0544E-03     171.811E-03    -85.7565E-03     892.451E-06    -86.1223E-03     171.025E-03    -85.8030E-03     811.581E-06
            2287     15.3989E-03     10.7967E-03    -4.82919E+06     103.744E+06     89.2226E+06    -259.662E+03    -117.982E-03     223.031E-03    -105.050E-03     27.8110E-03    -118.401E-03     223.543E-03    -104.747E-03     26.3527E-03
            2288     14.5999E-03     10.7547E-03    -9.54889E+06     99.5346E+06     76.2784E+06    -518.703E+03    -119.826E-03     224.033E-03    -104.207E-03     36.1842E-03    -120.286E-03     224.591E-03    -103.956E-03     34.5247E-03
            2289     13.8023E-03     10.7050E-03    -14.4161E+06     95.5128E+06     67.0760E+06    -1.31548E+06    -121.186E-03     224.387E-03    -103.202E-03     38.2671E-03    -121.647E-03     224.942E-03    -102.984E-03     36.6820E-03
            2290     13.0054E-03     10.6513E-03    -19.3546E+06     71.1697E+06     59.4883E+06    -1.84489E+06    -121.782E-03     223.836E-03    -102.054E-03     37.2613E-03    -122.212E-03     224.278E-03    -101.832E-03     35.7515E-03
            2291     12.2088E-03     10.5975E-03    -23.7002E+06     33.7728E+06     49.5750E+06    -746.292E+03    -121.397E-03     222.149E-03    -100.753E-03     33.9391E-03    -121.762E-03     222.407E-03    -100.519E-03     32.5546E-03
            2292     11.4116E-03     10.5461E-03    -27.7784E+06     5.92373E+06     42.3990E+06     396.598E+03    -119.952E-03     219.279E-03    -99.3269E-03     29.6104E-03    -120.269E-03     219.396E-03    -99.0832E-03     28.3579E-03
            2293     10.6129E-03     10.4985E-03    -32.3691E+06    -16.8421E+06     34.8950E+06     630.422E+03    -117.653E-03     215.465E-03    -97.8122E-03     24.9876E-03    -117.932E-03     215.469E-03    -97.5664E-03     23.8541E-03
            2294     9.81204E-03     10.4556E-03    -37.4350E+06    -36.5647E+06     27.7391E+06     650.240E+03    -114.707E-03     210.964E-03    -96.2567E-03     20.5804E-03    -114.958E-03     210.872E-03    -96.0107E-03     19.5593E-03
            2295     9.00872E-03     10.4178E-03    -42.8316E+06    -54.4599E+06     20.2930E+06     627.466E+03    -111.317E-03     206.016E-03    -94.6989E-03     16.6938E-03    -111.544E-03     205.839E-03    -94.4564E-03     15.7796E-03
            2296     8.20250E-03     10.3852E-03    -48.5172E+06    -71.0939E+06     12.5013E+06     547.174E+03    -107.681E-03     200.856E-03    -93.1757E-03     13.4719E-03    -107.889E-03     200.605E-03    -92.9398E-03     12.6591E-03
            2297     7.39328E-03     10.3575E-03    -54.4762E+06    -87.4157E+06     4.11204E+06     319.619E+03    -103.979E-03     195.697E-03    -91.7188E-03     10.9236E-03    -104.171E-03     195.375E-03    -91.4925E-03     10.2057E-03
            2298     6.58098E-03     10.3344E-03    -60.7613E+06    -103.400E+06    -4.99419E+06     62.0416E+03    -100.360E-03     190.713E-03    -90.3539E-03     8.97854E-03    -100.539E-03     190.325E-03    -90.1408E-03     8.35139E-03
            2299     5.76575E-03     10.3155E-03    -67.3144E+06    -119.491E+06    -15.0782E+06    -225.655E+03    -96.9458E-03     186.048E-03    -89.1018E-03     7.51224E-03    -97.1119E-03     185.594E-03    -88.9063E-03     6.97103E-03
            2300     4.94772E-03     10.3002E-03    -74.2141E+06    -136.150E+06    -26.5452E+06    -548.907E+03    -93.8325E-03     181.811E-03    -87.9784E-03     6.38061E-03    -93.9853E-03     181.294E-03    -87.8061E-03     5.92139E-03
            2301     4.12721E-03     10.2882E-03    -81.3853E+06    -153.482E+06    -39.8349E+06    -917.076E+03    -91.0925E-03     178.088E-03    -86.9954E-03     5.44258E-03    -91.2306E-03     177.508E-03    -86.8541E-03     5.06188E-03
            2302     3.30454E-03     10.2791E-03    -88.7059E+06    -171.401E+06    -55.3169E+06    -1.19847E+06    -88.7847E-03     174.947E-03    -86.1619E-03     4.56422E-03    -88.9059E-03     174.305E-03    -86.0613E-03     4.25995E-03
            2303     2.48002E-03     10.2724E-03    -95.9139E+06    -189.764E+06    -72.6670E+06    -1.25321E+06    -86.9568E-03     172.443E-03    -85.4866E-03     3.63322E-03    -87.0582E-03     171.742E-03    -85.4357E-03     3.40434E-03
            2304     1.65417E-03     10.2678E-03    -102.489E+06    -206.935E+06    -89.8175E+06    -1.04371E+06    -85.6391E-03     170.619E-03    -84.9800E-03     2.58168E-03    -85.7213E-03     169.864E-03    -84.9804E-03     2.42756E-03
            2305     827.298E-06     10.2652E-03    -107.291E+06    -221.040E+06    -103.358E+06    -687.827E+03    -84.8587E-03     169.488E-03    -84.6297E-03     1.45449E-03    -84.9206E-03     168.692E-03    -84.6704E-03     1.37262E-03
            2306     15.4012E-03     9.60963E-03    -4.89558E+06     104.137E+06     89.5735E+06    -262.419E+03    -120.943E-03     225.842E-03    -104.899E-03     28.7086E-03    -121.372E-03     226.363E-03    -104.595E-03     27.1751E-03
            2307     14.6047E-03     9.56645E-03    -9.57460E+06     100.093E+06     76.6479E+06    -760.446E+03    -122.905E-03     226.787E-03    -103.882E-03     36.4476E-03    -123.376E-03     227.358E-03    -103.631E-03     34.6966E-03
            2308     13.8094E-03     9.51666E-03    -13.8434E+06     96.7193E+06     67.6622E+06    -1.34606E+06    -124.156E-03     226.838E-03    -102.682E-03     37.4817E-03    -124.625E-03     227.405E-03    -102.464E-03     35.8083E-03
            2309     13.0150E-03     9.46404E-03    -18.4682E+06     71.1358E+06     59.6126E+06    -1.50282E+06    -124.292E-03     225.624E-03    -101.331E-03     35.3571E-03    -124.724E-03     226.070E-03    -101.110E-03     33.7672E-03
            2310     12.2203E-03     9.41304E-03    -23.5990E+06     32.1978E+06     49.0474E+06    -1.07051E+06    -123.178E-03     223.019E-03    -99.8406E-03     31.2604E-03    -123.546E-03     223.276E-03    -99.6078E-03     29.7916E-03
            2311     11.4242E-03     9.36567E-03    -28.4543E+06     5.46348E+06     42.0453E+06    -365.910E+03    -120.886E-03     219.140E-03    -98.2542E-03     26.6426E-03    -121.211E-03     219.262E-03    -98.0106E-03     25.3051E-03
            2312     10.6260E-03     9.32320E-03    -32.9988E+06    -16.6325E+06     34.9494E+06     80.3157E+03    -117.712E-03     214.333E-03    -96.6208E-03     22.1995E-03    -118.001E-03     214.345E-03    -96.3741E-03     20.9894E-03
            2313     9.82504E-03     9.28615E-03    -37.7776E+06    -36.2509E+06     28.2758E+06     253.552E+03    -113.943E-03     208.942E-03    -94.9992E-03     18.3792E-03    -114.203E-03     208.858E-03    -94.7505E-03     17.2909E-03
            2314     9.02082E-03     9.25467E-03    -42.9073E+06    -53.8281E+06     21.4200E+06     162.095E+03    -109.872E-03     203.305E-03    -93.4326E-03     15.3705E-03    -110.109E-03     203.137E-03    -93.1852E-03     14.3978E-03
            2315     8.21324E-03     9.22839E-03    -48.2251E+06    -70.3986E+06     14.2918E+06    -225.593E+03    -105.752E-03     197.710E-03    -91.9581E-03     13.1465E-03    -105.969E-03     197.465E-03    -91.7147E-03     12.2814E-03
            2316     7.40222E-03     9.20692E-03    -53.7253E+06    -86.6638E+06     6.69104E+06    -681.284E+03    -101.775E-03     192.378E-03    -90.6033E-03     11.5789E-03    -101.974E-03     192.060E-03    -90.3662E-03     10.8169E-03
            2317     6.58799E-03     9.18966E-03    -59.4519E+06    -102.749E+06    -1.58841E+06    -1.25343E+06    -98.0886E-03     187.475E-03    -89.3867E-03     10.4880E-03    -98.2720E-03     187.088E-03    -89.1595E-03     9.82336E-03
            2318     5.77075E-03     9.17608E-03    -65.4815E+06    -118.968E+06    -10.8905E+06    -1.85210E+06    -94.7981E-03     183.117E-03    -88.3194E-03     9.66396E-03    -94.9658E-03     182.662E-03    -88.1064E-03     9.09112E-03
            2319     4.95094E-03     9.16555E-03    -71.7861E+06    -135.838E+06    -21.8371E+06    -2.42779E+06    -91.9672E-03     179.372E-03    -87.4048E-03     8.91550E-03    -92.1180E-03     178.849E-03    -87.2129E-03     8.42950E-03
            2320     4.12888E-03     9.15763E-03    -78.4911E+06    -153.678E+06    -35.3312E+06    -2.74412E+06    -89.6312E-03     176.271E-03    -86.6402E-03     8.07450E-03    -89.7630E-03     175.682E-03    -86.4802E-03     7.67315E-03
            2321     3.30501E-03     9.15178E-03    -85.6332E+06    -172.321E+06    -51.8639E+06    -2.56211E+06    -87.8024E-03     173.821E-03    -86.0188E-03     7.00612E-03    -87.9132E-03     173.167E-03    -85.9041E-03     6.69002E-03
            2322     2.47981E-03     9.14768E-03    -92.8725E+06    -191.319E+06    -70.4384E+06    -1.82472E+06    -86.4678E-03     172.003E-03    -85.5352E-03     5.64084E-03    -86.5556E-03     171.286E-03    -85.4753E-03     5.41121E-03
            2323     1.65364E-03     9.14494E-03    -99.4741E+06    -208.609E+06    -88.0196E+06    -791.135E+03    -85.5807E-03     170.767E-03    -85.1864E-03     3.99694E-03    -85.6481E-03     169.996E-03    -85.1798E-03     3.85065E-03
            2324     826.993E-06     9.14338E-03    -104.665E+06    -222.137E+06    -101.432E+06     22.4468E+03    -85.0859E-03     170.044E-03    -84.9583E-03     2.23543E-03    -85.1358E-03     169.236E-03    -84.9916E-03     2.16267E-03
            2325     15.4036E-03     8.41905E-03    -4.69288E+06     104.719E+06     90.5925E+06    -371.174E+03    -124.033E-03     228.779E-03    -104.746E-03     29.6548E-03    -124.473E-03     229.311E-03    -104.438E-03     28.0325E-03
            2326     14.6095E-03     8.37490E-03    -9.37912E+06     100.936E+06     77.2811E+06    -951.896E+03    -126.055E-03     229.603E-03    -103.548E-03     36.5571E-03    -126.539E-03     230.188E-03    -103.295E-03     34.6999E-03
            2327     13.8170E-03     8.32514E-03    -14.2446E+06     97.0334E+06     67.6060E+06    -1.38971E+06    -126.944E-03     229.098E-03    -102.154E-03     36.3446E-03    -127.425E-03     229.677E-03    -101.936E-03     34.5682E-03
            2328     13.0245E-03     8.27477E-03    -19.1177E+06     71.1517E+06     59.6365E+06    -1.33363E+06    -126.280E-03     226.905E-03    -100.625E-03     33.1158E-03    -126.723E-03     227.360E-03    -100.402E-03     31.4306E-03
            2329     12.2311E-03     8.22769E-03    -23.6431E+06     31.7037E+06     49.4114E+06    -956.454E+03    -124.098E-03     223.090E-03    -98.9928E-03     28.5211E-03    -124.473E-03     223.352E-03    -98.7574E-03     26.9644E-03
            2330     11.4355E-03     8.18571E-03    -28.2540E+06     5.17354E+06     42.8269E+06    -686.449E+03    -120.660E-03     217.984E-03    -97.3236E-03     24.1436E-03    -120.993E-03     218.111E-03    -97.0760E-03     22.7240E-03
            2331     10.6369E-03     8.14958E-03    -33.1357E+06    -16.4585E+06     36.2098E+06    -612.527E+03    -116.438E-03     212.118E-03    -95.6800E-03     20.5576E-03    -116.738E-03     212.137E-03    -95.4271E-03     19.2760E-03
            2332     9.83451E-03     8.11949E-03    -37.9356E+06    -35.8780E+06     30.2050E+06    -760.742E+03    -111.857E-03     205.982E-03    -94.1250E-03     17.9580E-03    -112.129E-03     205.905E-03    -93.8669E-03     16.8118E-03
            2333     9.02833E-03     8.09494E-03    -42.5736E+06    -52.8909E+06     24.3280E+06    -1.30514E+06    -107.269E-03     199.966E-03    -92.6975E-03     16.2769E-03    -107.517E-03     199.806E-03    -92.4374E-03     15.2573E-03
            2334     8.21836E-03     8.07538E-03    -47.2272E+06    -69.5309E+06     18.1655E+06    -2.10871E+06    -102.944E-03     194.370E-03    -91.4259E-03     15.2823E-03    -103.170E-03     194.129E-03    -91.1657E-03     14.3808E-03
            2335     7.40492E-03     8.06007E-03    -51.9840E+06    -85.8121E+06     11.5507E+06    -3.05154E+06    -99.0627E-03     189.386E-03    -90.3233E-03     14.6812E-03    -99.2674E-03     189.068E-03    -90.0658E-03     13.8904E-03
            2336     6.58834E-03     8.04832E-03    -56.8898E+06    -102.152E+06     4.04353E+06    -4.01640E+06    -95.7220E-03     185.114E-03    -89.3917E-03     14.1924E-03    -95.9060E-03     184.722E-03    -89.1409E-03     13.5040E-03
            2337     5.76919E-03     8.03941E-03    -62.0619E+06    -118.750E+06    -5.19054E+06    -4.87146E+06    -92.9643E-03     181.587E-03    -88.6226E-03     13.5835E-03    -93.1265E-03     181.123E-03    -88.3864E-03     12.9903E-03
            2338     4.94788E-03     8.03280E-03    -67.7524E+06    -136.442E+06    -17.3551E+06    -5.30575E+06    -90.7955E-03     178.796E-03    -88.0001E-03     12.6700E-03    -90.9335E-03     178.259E-03    -87.7908E-03     12.1682E-03
            2339     4.12499E-03     8.02792E-03    -74.0707E+06    -155.557E+06    -33.0297E+06    -4.85310E+06    -89.1758E-03     176.681E-03    -87.5049E-03     11.3522E-03    -89.2873E-03     176.073E-03    -87.3371E-03     10.9433E-03
            2340     3.30097E-03     8.02442E-03    -80.9178E+06    -175.202E+06    -51.2807E+06    -3.38229E+06    -88.0323E-03     175.152E-03    -87.1199E-03     9.61806E-03    -88.1170E-03     174.476E-03    -87.0049E-03     9.30685E-03
            2341     2.47620E-03     8.02190E-03    -87.8248E+06    -194.368E+06    -69.7289E+06    -1.33978E+06    -87.2773E-03     174.111E-03    -86.8333E-03     7.52778E-03    -87.3370E-03     173.371E-03    -86.7728E-03     7.31573E-03
            2342     1.65104E-03     8.02024E-03    -94.0581E+06    -210.463E+06    -85.1754E+06     493.754E+03    -86.8149E-03     173.450E-03    -86.6355E-03     5.20116E-03    -86.8570E-03     172.659E-03    -86.6199E-03     5.07837E-03
            2343     825.540E-06     8.01924E-03    -98.4730E+06    -221.141E+06    -95.8682E+06     1.20871E+06    -86.5623E-03     173.076E-03    -86.5136E-03     2.85644E-03    -86.5919E-03     172.255E-03    -86.5295E-03     2.79989E-03
            2344     15.4059E-03     7.22482E-03    -4.83107E+06     105.411E+06     91.6207E+06    -573.856E+03    -127.216E-03     231.803E-03    -104.587E-03     30.5441E-03    -127.670E-03     232.348E-03    -104.274E-03     28.8206E-03
            2345     14.6147E-03     7.17969E-03    -9.59087E+06     101.336E+06     78.1566E+06    -950.303E+03    -129.082E-03     232.292E-03    -103.210E-03     36.3611E-03    -129.581E-03     232.891E-03    -102.953E-03     34.3872E-03
            2346     13.8243E-03     7.13106E-03    -14.1020E+06     97.3724E+06     68.7004E+06    -1.31535E+06    -129.176E-03     230.821E-03    -101.645E-03     34.6478E-03    -129.669E-03     231.411E-03    -101.422E-03     32.7590E-03
            2347     13.0334E-03     7.08409E-03    -18.5016E+06     71.1576E+06     61.1117E+06    -1.46483E+06    -127.146E-03     227.137E-03    -99.9904E-03     30.5367E-03    -127.599E-03     227.599E-03    -99.7612E-03     28.7486E-03
            2348     12.2404E-03     7.04271E-03    -23.2989E+06     31.2315E+06     51.2241E+06    -1.02267E+06    -123.421E-03     221.734E-03    -98.3129E-03     26.2620E-03    -123.807E-03     222.000E-03    -98.0683E-03     24.6262E-03
            2349     11.4439E-03     7.00771E-03    -28.3470E+06     5.79435E+06     45.4547E+06    -938.532E+03    -118.616E-03     215.311E-03    -96.6953E-03     23.1049E-03    -118.963E-03     215.447E-03    -96.4353E-03     21.6342E-03
            2350     10.6431E-03     6.97928E-03    -33.0344E+06    -15.4795E+06     39.7013E+06    -1.80765E+06    -113.428E-03     208.628E-03    -95.2006E-03     21.1473E-03    -113.742E-03     208.656E-03    -94.9318E-03     19.8316E-03
            2351     9.83794E-03     6.95676E-03    -37.1317E+06    -34.8156E+06     34.7081E+06    -3.02161E+06    -108.352E-03     202.231E-03    -93.8797E-03     20.2091E-03    -108.635E-03     202.160E-03    -93.6018E-03     19.0396E-03
            2352     9.02864E-03     6.93939E-03    -40.9154E+06    -51.6645E+06     29.8591E+06    -4.34824E+06    -103.734E-03     196.485E-03    -92.7511E-03     19.9239E-03    -103.990E-03     196.326E-03    -92.4676E-03     18.8917E-03
            2353     8.21563E-03     6.92618E-03    -44.5762E+06    -68.5797E+06     24.4916E+06    -5.74844E+06    -99.7840E-03     191.603E-03    -91.8185E-03     19.8303E-03    -100.011E-03     191.358E-03    -91.5320E-03     18.9229E-03
            2354     7.39950E-03     6.91626E-03    -48.2797E+06    -85.0770E+06     18.0546E+06    -7.12670E+06    -96.5675E-03     187.635E-03    -91.0679E-03     19.5720E-03    -96.7667E-03     187.309E-03    -90.7842E-03     18.7757E-03
            2355     6.58099E-03     6.90888E-03    -52.2557E+06    -102.245E+06     9.17225E+06    -8.24485E+06    -94.0747E-03     184.549E-03    -90.4746E-03     18.9133E-03    -94.2442E-03     184.144E-03    -90.2047E-03     18.2173E-03
            2356     5.76060E-03     6.90344E-03    -56.8437E+06    -120.019E+06    -3.10993E+06    -8.51596E+06    -92.2343E-03     182.244E-03    -90.0098E-03     17.7342E-03    -92.3723E-03     181.763E-03    -89.7689E-03     17.1358E-03
            2357     4.93901E-03     6.89934E-03    -62.3841E+06    -139.348E+06    -18.8775E+06    -7.56711E+06    -90.9455E-03     180.594E-03    -89.6484E-03     16.0188E-03    -91.0506E-03     180.037E-03    -89.4502E-03     15.5205E-03
            2358     4.11660E-03     6.89631E-03    -68.8956E+06    -159.865E+06    -36.6147E+06    -5.38806E+06    -90.0861E-03     179.457E-03    -89.3711E-03     13.8493E-03    -90.1604E-03     178.825E-03    -89.2224E-03     13.4572E-03
            2359     3.29369E-03     6.89401E-03    -75.8013E+06    -180.044E+06    -54.1122E+06    -2.39282E+06    -89.5332E-03     178.696E-03    -89.1629E-03     11.3527E-03    -89.5814E-03     177.993E-03    -89.0625E-03     11.0704E-03
            2360     2.47050E-03     6.89235E-03    -82.3580E+06    -197.954E+06    -69.3434E+06     619.375E+03    -89.1886E-03     178.200E-03    -89.0118E-03     8.65372E-03    -89.2166E-03     177.434E-03    -88.9520E-03     8.47573E-03
            2361     1.64707E-03     6.89117E-03    -87.7504E+06    -210.657E+06    -81.0609E+06     2.22338E+06    -88.9780E-03     177.883E-03    -88.9048E-03     5.86826E-03    -88.9943E-03     177.075E-03    -88.8774E-03     5.77345E-03
            2362     823.614E-06     6.89048E-03    -91.3495E+06    -217.733E+06    -89.2390E+06     1.83899E+06    -88.8423E-03     177.687E-03    -88.8450E-03     3.18965E-03    -88.8514E-03     176.864E-03    -88.8430E-03     3.14797E-03
            2363     15.4087E-03     6.02693E-03    -4.78887E+06     105.941E+06     92.7707E+06    -714.146E+03    -130.462E-03     234.887E-03    -104.425E-03     31.4144E-03    -130.931E-03     235.446E-03    -104.108E-03     29.5792E-03
            2364     14.6196E-03     5.98120E-03    -9.15853E+06     101.658E+06     80.1005E+06    -1.37412E+06    -131.569E-03     234.457E-03    -102.888E-03     35.6971E-03    -132.085E-03     235.069E-03    -102.622E-03     33.5883E-03
            2365     13.8313E-03     5.93487E-03    -13.3486E+06     97.3733E+06     71.9063E+06    -1.61642E+06    -129.946E-03     231.163E-03    -101.217E-03     32.6325E-03    -130.452E-03     231.759E-03    -100.979E-03     30.6312E-03
            2366     13.0407E-03     5.89393E-03    -18.6423E+06     70.8362E+06     64.3754E+06    -960.305E+03    -125.818E-03     225.372E-03    -99.5538E-03     28.8340E-03    -126.285E-03     225.838E-03    -99.3076E-03     26.9932E-03
            2367     12.2459E-03     5.86031E-03    -24.2877E+06     31.7908E+06     54.8795E+06    -978.738E+03    -120.350E-03     218.343E-03    -97.9933E-03     26.1223E-03    -120.754E-03     218.616E-03    -97.7298E-03     24.4777E-03
            2368     11.4462E-03     5.83393E-03    -28.7934E+06     7.86944E+06     50.5016E+06    -2.57202E+06    -114.446E-03     211.058E-03    -96.6114E-03     24.9777E-03    -114.812E-03     211.204E-03    -96.3286E-03     23.5204E-03
            2369     10.6416E-03     5.81370E-03    -32.2312E+06    -13.1163E+06     45.7678E+06    -4.92016E+06    -108.897E-03     204.339E-03    -95.4421E-03     24.9148E-03    -109.223E-03     204.372E-03    -95.1475E-03     23.6272E-03
            2370     9.83247E-03     5.79878E-03    -35.1803E+06    -33.0992E+06     41.2874E+06    -7.23962E+06    -104.148E-03     198.648E-03    -94.4998E-03     25.2695E-03    -104.435E-03     198.573E-03    -94.1943E-03     24.1354E-03
            2371     9.01953E-03     5.78766E-03    -37.7923E+06    -50.3178E+06     36.1568E+06    -9.35391E+06    -100.350E-03     194.111E-03    -93.7611E-03     25.4521E-03    -100.599E-03     193.943E-03    -93.4525E-03     24.4526E-03
            2372     8.20378E-03     5.77946E-03    -40.2488E+06    -68.0685E+06     28.8648E+06    -11.1553E+06    -97.4777E-03     190.672E-03    -93.1946E-03     25.0875E-03    -97.6875E-03     190.414E-03    -92.8932E-03     24.2033E-03
            2373     7.38603E-03     5.77333E-03    -43.0133E+06    -85.7036E+06     18.3931E+06    -12.1477E+06    -95.4123E-03     188.174E-03    -92.7617E-03     24.0621E-03    -95.5815E-03     187.833E-03    -92.4831E-03     23.2820E-03
            2374     6.56688E-03     5.76871E-03    -46.7978E+06    -104.669E+06     4.65954E+06    -11.8195E+06    -94.0061E-03     186.437E-03    -92.4312E-03     22.3790E-03    -94.1351E-03     186.015E-03    -92.1883E-03     21.7013E-03
            2375     5.74699E-03     5.76513E-03    -52.0730E+06    -124.365E+06    -11.5209E+06    -9.93752E+06    -93.0855E-03     185.262E-03    -92.1764E-03     20.1688E-03    -93.1785E-03     184.762E-03    -91.9782E-03     19.5994E-03
            2376     4.92654E-03     5.76237E-03    -58.5866E+06    -145.111E+06    -28.4603E+06    -6.77044E+06    -92.4986E-03     184.480E-03    -91.9810E-03     17.5883E-03    -92.5603E-03     183.900E-03    -91.8279E-03     17.1342E-03
            2377     4.10581E-03     5.76016E-03    -65.5258E+06    -165.878E+06    -44.1158E+06    -3.03479E+06    -92.1262E-03     183.960E-03    -91.8338E-03     14.7844E-03    -92.1626E-03     183.302E-03    -91.7188E-03     14.4458E-03
            2378     3.28488E-03     5.75851E-03    -72.1739E+06    -185.176E+06    -57.2867E+06     583.662E+03    -91.8866E-03     183.611E-03    -91.7245E-03     11.8715E-03    -91.9035E-03     182.880E-03    -91.6378E-03     11.6422E-03
            2379     2.46377E-03     5.75723E-03    -77.8212E+06    -199.973E+06    -68.0865E+06     3.08917E+06    -91.7244E-03     183.363E-03    -91.6388E-03     8.92525E-03    -91.7278E-03     182.577E-03    -91.5764E-03     8.78931E-03
            2380     1.64262E-03     5.75637E-03    -81.9341E+06    -208.240E+06    -76.8986E+06     3.54576E+06    -91.6073E-03     183.174E-03    -91.5670E-03     6.00349E-03    -91.6035E-03     182.363E-03    -91.5307E-03     5.93212E-03
            2381     821.288E-06     5.75585E-03    -84.3999E+06    -212.659E+06    -83.0784E+06     2.38351E+06    -91.5038E-03     183.047E-03    -91.5432E-03     3.24821E-03    -91.4939E-03     182.229E-03    -91.5279E-03     3.21559E-03
            2382     15.4110E-03     4.82511E-03    -4.20107E+06     106.885E+06     95.3218E+06    -1.46245E+06    -133.118E-03     237.426E-03    -104.307E-03     32.7330E-03    -133.605E-03     238.000E-03    -103.980E-03     30.7788E-03
            2383     14.6247E-03     4.77980E-03    -8.37543E+06     101.638E+06     83.1922E+06    -2.13634E+06    -132.338E-03     235.014E-03    -102.676E-03     35.7300E-03    -132.871E-03     235.638E-03    -102.395E-03     33.5210E-03
            2384     13.8361E-03     4.73960E-03    -14.0041E+06     95.3388E+06     74.1928E+06    -604.306E+03    -127.944E-03     228.974E-03    -101.029E-03     32.2638E-03    -128.465E-03     229.569E-03    -100.776E-03     30.2553E-03
            2385     13.0426E-03     4.70735E-03    -20.5066E+06     71.7453E+06     68.0779E+06     109.220E+03    -121.525E-03     221.078E-03    -99.5525E-03     30.0938E-03    -122.012E-03     221.550E-03    -99.2864E-03     28.3337E-03
            2386     12.2435E-03     4.68331E-03    -25.4139E+06     35.8054E+06     60.3060E+06    -2.86500E+06    -114.938E-03     213.250E-03    -98.3112E-03     29.6177E-03    -115.361E-03     213.536E-03    -98.0247E-03     28.0746E-03
            2387     11.4389E-03     4.66592E-03    -28.4689E+06     11.3807E+06     55.9710E+06    -6.77797E+06    -109.078E-03     206.404E-03    -97.3260E-03     30.2215E-03    -109.449E-03     206.553E-03    -97.0213E-03     28.8717E-03
            2388     10.6294E-03     4.65346E-03    -30.7207E+06    -9.97488E+06     49.8902E+06    -10.2444E+06    -104.459E-03     201.029E-03    -96.5697E-03     30.7800E-03    -104.779E-03     201.060E-03    -96.2612E-03     29.5979E-03
            2389     9.81649E-03     4.64429E-03    -32.2790E+06    -31.4180E+06     42.0553E+06    -13.3545E+06    -101.096E-03     197.102E-03    -96.0061E-03     30.6030E-03    -101.360E-03     197.019E-03    -95.7034E-03     29.5539E-03
            2390     9.00142E-03     4.63744E-03    -33.6381E+06    -50.0040E+06     31.8413E+06    -15.3672E+06    -98.7508E-03     194.334E-03    -95.5828E-03     29.6022E-03    -98.9623E-03     194.156E-03    -95.3024E-03     28.6667E-03
            2391     8.18491E-03     4.63220E-03    -35.8576E+06    -69.8371E+06     18.6273E+06    -15.8543E+06    -97.1958E-03     192.459E-03    -95.2633E-03     27.8454E-03    -97.3556E-03     192.190E-03    -95.0169E-03     27.0152E-03
            2392     7.36751E-03     4.62808E-03    -39.7247E+06    -89.6591E+06     3.51220E+06    -14.4629E+06    -96.1937E-03     191.212E-03    -95.0179E-03     25.5289E-03    -96.3101E-03     190.858E-03    -94.8127E-03     24.8074E-03
            2393     6.54970E-03     4.62474E-03    -45.2773E+06    -110.741E+06    -12.1939E+06    -11.3910E+06    -95.5578E-03     190.387E-03    -94.8289E-03     22.8553E-03    -95.6387E-03     189.949E-03    -94.6636E-03     22.2499E-03
            2394     5.73147E-03     4.62208E-03    -51.8175E+06    -131.477E+06    -26.9287E+06    -7.24035E+06    -95.1476E-03     189.830E-03    -94.6821E-03     19.9976E-03    -95.2011E-03     189.310E-03    -94.5510E-03     19.5134E-03
            2395     4.91308E-03     4.61991E-03    -58.4180E+06    -152.024E+06    -39.6337E+06    -2.98214E+06    -94.8734E-03     189.443E-03    -94.5697E-03     17.0764E-03    -94.9039E-03     188.841E-03    -94.4627E-03     16.7087E-03
            2396     4.09449E-03     4.61823E-03    -64.4161E+06    -171.453E+06    -50.1062E+06     782.796E+03    -94.6805E-03     189.163E-03    -94.4828E-03     14.1538E-03    -94.6916E-03     188.482E-03    -94.3913E-03     13.8928E-03
            2397     3.27576E-03     4.61689E-03    -69.3974E+06    -188.396E+06    -58.3533E+06     3.55642E+06    -94.5379E-03     188.952E-03    -94.4142E-03     11.2630E-03    -94.5328E-03     188.201E-03    -94.3322E-03     11.0933E-03
            2398     2.45696E-03     4.61592E-03    -73.1831E+06    -199.154E+06    -65.7826E+06     4.68669E+06    -94.4222E-03     188.772E-03    -94.3495E-03     8.42369E-03    -94.4056E-03     187.979E-03    -94.2836E-03     8.32233E-03
            2399     1.63800E-03     4.61525E-03    -75.6984E+06    -203.998E+06    -72.0124E+06     4.01265E+06    -94.3284E-03     188.620E-03    -94.2912E-03     5.64941E-03    -94.3060E-03     187.813E-03    -94.2457E-03     5.59298E-03
            2400     819.068E-06     4.61488E-03    -77.1002E+06    -206.783E+06    -75.9467E+06     2.46042E+06    -94.2212E-03     188.517E-03    -94.2959E-03     3.05058E-03    -94.1938E-03     187.707E-03    -94.2640E-03     3.02389E-03
            2401     15.4122E-03     3.61997E-03    -5.72698E+06     109.328E+06     94.8811E+06    -1.43006E+06    -133.806E-03     238.184E-03    -104.379E-03     37.1007E-03    -134.324E-03     238.796E-03    -104.054E-03     35.1009E-03
            2402     14.6249E-03     3.57896E-03    -11.4903E+06     100.739E+06     80.2491E+06    -2.38720E+06    -130.055E-03     232.848E-03    -102.793E-03     38.3103E-03    -130.609E-03     233.487E-03    -102.521E-03     36.1581E-03
            2403     13.8331E-03     3.54887E-03    -16.4898E+06     90.9946E+06     71.7100E+06     141.517E+03    -122.796E-03     224.171E-03    -101.375E-03     35.3130E-03    -123.315E-03     224.748E-03    -101.125E-03     33.4857E-03
            2404     13.0343E-03     3.52761E-03    -21.4000E+06     76.6759E+06     65.9966E+06    -268.124E+03    -115.302E-03     215.555E-03    -100.253E-03     35.0467E-03    -115.782E-03     216.041E-03    -100.003E-03     33.5364E-03
            2405     12.2291E-03     3.51309E-03    -25.4224E+06     43.9057E+06     56.5441E+06    -6.66230E+06    -109.438E-03     208.863E-03    -99.4247E-03     35.4125E-03    -109.844E-03     209.171E-03    -99.1687E-03     34.1055E-03
            2406     11.4194E-03     3.50314E-03    -27.4760E+06     14.8352E+06     47.6662E+06    -12.5550E+06    -105.346E-03     204.168E-03    -98.8221E-03     35.0918E-03    -105.680E-03     204.319E-03    -98.5654E-03     33.9363E-03
            2407     10.6072E-03     3.49542E-03    -28.2552E+06    -7.20101E+06     35.6003E+06    -16.1797E+06    -102.598E-03     200.958E-03    -98.3599E-03     33.7151E-03    -102.863E-03     200.994E-03    -98.1305E-03     32.6872E-03
            2408     9.79376E-03     3.48959E-03    -29.4765E+06    -31.5497E+06     22.3717E+06    -18.4422E+06    -100.796E-03     198.810E-03    -98.0141E-03     31.5367E-03    -100.995E-03     198.727E-03    -97.8137E-03     30.6100E-03
            2409     8.97922E-03     3.48490E-03    -32.2972E+06    -53.1191E+06     7.81426E+06    -18.0465E+06    -99.6168E-03     197.357E-03    -97.7406E-03     28.8892E-03    -99.7625E-03     197.177E-03    -97.5776E-03     28.0690E-03
            2410     8.16414E-03     3.48108E-03    -37.0162E+06    -75.3707E+06    -6.29206E+06    -15.5318E+06    -98.8351E-03     196.363E-03    -97.5275E-03     26.0056E-03    -98.9404E-03     196.087E-03    -97.3960E-03     25.2987E-03
            2411     7.34871E-03     3.47792E-03    -43.0169E+06    -97.1475E+06    -19.2381E+06    -11.5663E+06    -98.2931E-03     195.652E-03    -97.3584E-03     23.0829E-03    -98.3692E-03     195.285E-03    -97.2513E-03     22.4946E-03
            2412     6.53283E-03     3.47536E-03    -49.3015E+06    -118.634E+06    -30.2484E+06    -7.03024E+06    -97.8976E-03     195.123E-03    -97.2252E-03     20.2081E-03    -97.9509E-03     194.667E-03    -97.1329E-03     19.7376E-03
            2413     5.71679E-03     3.47323E-03    -54.9624E+06    -138.734E+06    -39.3282E+06    -2.83156E+06    -97.5978E-03     194.716E-03    -97.1186E-03     17.4233E-03    -97.6310E-03     194.176E-03    -97.0344E-03     17.0609E-03
            2414     4.90047E-03     3.47155E-03    -59.6036E+06    -157.615E+06    -46.5896E+06     744.749E+03    -97.3677E-03     194.401E-03    -97.0337E-03     14.7353E-03    -97.3808E-03     193.778E-03    -96.9517E-03     14.4685E-03
            2415     4.08401E-03     3.47020E-03    -63.2471E+06    -174.881E+06    -52.3568E+06     3.36206E+06    -97.1892E-03     194.155E-03    -96.9656E-03     12.1402E-03    -97.1828E-03     193.454E-03    -96.8821E-03     11.9551E-03
            2416     3.26741E-03     3.46920E-03    -66.0332E+06    -188.953E+06    -57.2994E+06     4.79692E+06    -97.0471E-03     193.954E-03    -96.9070E-03     9.62808E-03    -97.0237E-03     193.191E-03    -96.8238E-03     9.50760E-03
            2417     2.45065E-03     3.46847E-03    -67.9736E+06    -196.360E+06    -62.2479E+06     4.80476E+06    -96.9286E-03     193.777E-03    -96.8487E-03     7.18828E-03    -96.8941E-03     192.985E-03    -96.7766E-03     7.11211E-03
            2418     1.63386E-03     3.46800E-03    -69.2352E+06    -199.171E+06    -66.3524E+06     3.70058E+06    -96.8369E-03     193.635E-03    -96.7985E-03     4.81549E-03    -96.7970E-03     192.835E-03    -96.7411E-03     4.77121E-03
            2419     816.907E-06     3.46773E-03    -70.0762E+06    -201.116E+06    -69.2622E+06     2.10189E+06    -96.7144E-03     193.543E-03    -96.8290E-03     2.59849E-03    -96.6694E-03     192.742E-03    -96.7821E-03     2.57854E-03
            2420     15.4046E-03     2.41348E-03    -6.24906E+06     111.343E+06     94.6281E+06     745.010E+03    -132.695E-03     237.661E-03    -104.966E-03     44.5795E-03    -133.232E-03     238.298E-03    -104.646E-03     42.7027E-03
            2421     14.6151E-03     2.38305E-03    -12.9756E+06     103.099E+06     74.5622E+06    -501.818E+03    -125.180E-03     228.729E-03    -103.550E-03     42.1359E-03    -125.712E-03     229.367E-03    -103.308E-03     40.3198E-03
            2422     13.8170E-03     2.36570E-03    -18.1851E+06     89.3696E+06     58.1583E+06    -2.28497E+06    -116.984E-03     219.432E-03    -102.448E-03     39.7203E-03    -117.446E-03     219.979E-03    -102.261E-03     38.2796E-03
            2423     13.0120E-03     2.35466E-03    -19.7919E+06     80.6962E+06     46.1976E+06    -3.61886E+06    -111.303E-03     212.951E-03    -101.648E-03     38.3293E-03    -111.703E-03     213.433E-03    -101.505E-03     37.1991E-03
            2424     12.2035E-03     2.34645E-03    -21.4642E+06     53.2632E+06     27.0069E+06    -8.40327E+06    -107.765E-03     208.807E-03    -101.041E-03     35.6554E-03    -108.074E-03     209.150E-03    -100.952E-03     34.6953E-03
            2425     11.3939E-03     2.33985E-03    -24.3851E+06     18.9681E+06     13.1666E+06    -15.0541E+06    -105.487E-03     206.089E-03    -100.602E-03     32.3416E-03    -105.718E-03     206.263E-03    -100.529E-03     31.4524E-03
            2426     10.5833E-03     2.33489E-03    -27.6847E+06    -7.15672E+06     17.7288E+03    -17.9501E+06    -103.895E-03     204.137E-03    -100.242E-03     28.9573E-03    -104.070E-03     204.188E-03    -100.191E-03     28.1463E-03
            2427     9.77153E-03     2.33078E-03    -32.1955E+06    -35.2332E+06    -11.9886E+06    -17.1855E+06    -102.742E-03     202.695E-03    -99.9531E-03     25.7010E-03    -102.870E-03     202.618E-03    -99.9152E-03     24.9868E-03
            2428     8.95925E-03     2.32743E-03    -38.0946E+06    -59.7024E+06    -21.4407E+06    -14.2872E+06    -101.855E-03     201.575E-03    -99.7198E-03     22.6709E-03    -101.955E-03     201.389E-03    -99.6852E-03     22.0625E-03
            2429     8.14633E-03     2.32466E-03    -44.2569E+06    -82.9799E+06    -29.5138E+06    -10.3637E+06    -101.152E-03     200.680E-03    -99.5283E-03     19.9056E-03    -101.231E-03     200.393E-03    -99.4914E-03     19.4043E-03
            2430     7.33282E-03     2.32239E-03    -49.7674E+06    -104.964E+06    -35.9468E+06    -6.36564E+06    -100.587E-03     199.960E-03    -99.3723E-03     17.3723E-03    -100.647E-03     199.574E-03    -99.3276E-03     16.9711E-03
            2431     6.51901E-03     2.32050E-03    -54.1149E+06    -125.202E+06    -41.2797E+06    -2.83919E+06    -100.132E-03     199.376E-03    -99.2433E-03     15.0424E-03    -100.173E-03     198.899E-03    -99.1897E-03     14.7292E-03
            2432     5.70475E-03     2.31900E-03    -57.3995E+06    -143.901E+06    -45.6343E+06     73.5911E+03    -99.7677E-03     198.906E-03    -99.1381E-03     12.8766E-03    -99.7881E-03     198.344E-03    -99.0744E-03     12.6396E-03
            2433     4.89027E-03     2.31777E-03    -59.8150E+06    -160.880E+06    -49.3152E+06     2.25316E+06    -99.4804E-03     198.533E-03    -99.0526E-03     10.8420E-03    -99.4797E-03     197.892E-03    -98.9792E-03     10.6692E-03
            2434     4.07554E-03     2.31685E-03    -61.4836E+06    -176.222E+06    -52.3142E+06     3.68154E+06    -99.2589E-03     198.244E-03    -98.9848E-03     8.91031E-03    -99.2373E-03     197.530E-03    -98.9017E-03     8.79015E-03
            2435     3.26062E-03     2.31615E-03    -62.5879E+06    -187.805E+06    -55.2305E+06     4.17979E+06    -99.0894E-03     198.016E-03    -98.9269E-03     7.05790E-03    -99.0503E-03     197.248E-03    -98.8400E-03     6.97732E-03
            2436     2.44561E-03     2.31568E-03    -63.3178E+06    -193.228E+06    -58.5035E+06     3.74910E+06    -98.9585E-03     197.831E-03    -98.8724E-03     5.26703E-03    -98.9087E-03     197.040E-03    -98.7929E-03     5.21416E-03
            2437     1.63042E-03     2.31537E-03    -63.8686E+06    -195.001E+06    -61.3318E+06     2.81941E+06    -98.8664E-03     197.694E-03    -98.8281E-03     3.52708E-03    -98.8117E-03     196.899E-03    -98.7594E-03     3.49450E-03
            2438     815.271E-06     2.31522E-03    -64.3587E+06    -196.351E+06    -63.4895E+06     1.66372E+06    -98.7296E-03     197.612E-03    -98.8827E-03     1.90237E-03    -98.6688E-03     196.819E-03    -98.8221E-03     1.88633E-03
            2439     15.3857E-03     1.20734E-03    -4.35537E+06     111.733E+06     95.8919E+06      803.54E+03    -133.999E-03     240.404E-03    -106.405E-03     51.7997E-03    -134.496E-03     241.005E-03    -106.081E-03     50.2892E-03
            2440     14.5912E-03     1.19482E-03    -9.20240E+06     106.987E+06     73.0064E+06     1.88812E+06    -123.874E-03     228.910E-03    -105.036E-03     41.7460E-03    -124.302E-03     229.474E-03    -104.813E-03     40.6386E-03
            2441     13.7888E-03     1.18729E-03    -14.1236E+06     93.8432E+06     39.2873E+06    -2.19877E+06    -117.040E-03     221.003E-03    -103.963E-03     34.1260E-03    -117.376E-03     221.508E-03    -103.882E-03     33.3209E-03
            2442     12.9849E-03     1.18056E-03    -17.0490E+06     80.3210E+06     12.3734E+06    -4.94551E+06    -112.913E-03     216.059E-03    -103.146E-03     27.9037E-03    -113.180E-03     216.514E-03    -103.176E-03     27.2625E-03
            2443     12.1805E-03     1.17568E-03    -19.8167E+06     59.2266E+06    -12.5067E+06    -5.95780E+06    -110.075E-03     212.563E-03    -102.488E-03     22.9990E-03    -110.273E-03     212.937E-03    -102.608E-03     22.4678E-03
            2444     11.3738E-03     1.17209E-03    -24.9570E+06     24.3484E+06    -26.9719E+06    -9.82638E+06    -107.929E-03     209.935E-03    -102.006E-03     19.4244E-03    -108.072E-03     210.154E-03    -102.140E-03     18.9270E-03
            2445     10.5654E-03     1.16921E-03    -31.9018E+06    -10.3420E+06    -32.9003E+06    -11.4441E+06    -106.263E-03     207.910E-03    -101.646E-03     16.6139E-03    -106.375E-03     207.967E-03    -101.750E-03     16.1564E-03
            2446     9.75613E-03     1.16696E-03    -39.0411E+06    -40.2621E+06    -37.2664E+06    -9.53916E+06    -104.941E-03     206.289E-03    -101.349E-03     14.3292E-03    -105.035E-03     206.210E-03    -101.420E-03     13.9427E-03
            2447     8.94562E-03     1.16515E-03    -45.3514E+06    -66.0313E+06    -39.6785E+06    -7.17063E+06    -103.857E-03     204.961E-03    -101.104E-03     12.4200E-03    -103.939E-03     204.763E-03    -101.141E-03     12.1015E-03
            2448     8.13431E-03     1.16365E-03    -50.3439E+06    -88.9909E+06    -42.1130E+06    -4.62856E+06    -102.979E-03     203.876E-03    -100.897E-03     10.7716E-03    -103.047E-03     203.571E-03    -100.906E-03     10.5166E-03
            2449     7.32243E-03     1.16242E-03    -54.0688E+06    -109.963E+06    -44.0545E+06    -2.50255E+06    -102.265E-03     202.991E-03    -100.726E-03     9.32385E-03    -102.316E-03     202.588E-03    -100.708E-03     9.12199E-03
            2450     6.50985E-03     1.16142E-03    -56.7471E+06    -129.145E+06    -46.1491E+06    -739.346E+03    -101.690E-03     202.273E-03    -100.583E-03     8.02769E-03    -101.722E-03     201.779E-03    -100.545E-03     7.87147E-03
            2451     5.69694E-03     1.16060E-03    -58.4612E+06    -146.640E+06    -48.1286E+06     668.850E+03    -101.234E-03     201.701E-03    -100.467E-03     6.84700E-03    -101.245E-03     201.124E-03    -100.410E-03     6.72945E-03
            2452     4.88360E-03     1.15998E-03    -59.3895E+06    -162.378E+06    -50.0080E+06     1.70731E+06    -100.880E-03     201.254E-03    -100.374E-03     5.75350E-03    -100.869E-03     200.601E-03    -100.303E-03     5.66802E-03
            2453     4.07001E-03     1.15949E-03    -59.8072E+06    -176.353E+06    -51.7152E+06     2.26840E+06    -100.615E-03     200.917E-03    -100.302E-03     4.72349E-03    -100.582E-03     200.196E-03    -100.218E-03     4.66376E-03
            2454     3.25623E-03     1.15914E-03    -59.9562E+06    -186.509E+06    -53.4494E+06     2.34217E+06    -100.421E-03     200.665E-03    -100.245E-03     3.74061E-03    -100.371E-03     199.895E-03    -100.154E-03     3.69946E-03
            2455     2.44225E-03     1.15890E-03    -60.0867E+06    -190.974E+06    -55.7765E+06     2.09121E+06    -100.281E-03     200.474E-03    -100.193E-03     2.79114E-03    -100.221E-03     199.685E-03    -100.108E-03     2.76343E-03
            2456     1.62826E-03     1.15875E-03    -60.3071E+06    -192.151E+06    -57.8263E+06     1.52605E+06    -100.190E-03     200.344E-03    -100.154E-03     1.86918E-03    -100.125E-03     199.551E-03    -100.077E-03     1.85241E-03
            2457     814.104E-06     1.15868E-03    -60.5640E+06    -193.213E+06    -59.6391E+06     816.082E+03    -100.045E-03     200.270E-03    -100.225E-03     1.00867E-03    -99.9730E-03     199.479E-03    -100.155E-03     1.00248E-03


