********************************************************************************
Field Output Report, written Wed May 29 01:20:11 2024

Source 1
---------

   ODB: G:/Abaqus_calc_2019/1740/Vel_5/odb/zeides_2a_40_red_2000_cal_100_vel_5_fric_025.odb
   Step: Step-1
   Frame: Increment  34046440: Step Time =    3.228

Loc 1 : Nodal values from source 1

Output sorted by column "Nodal Label".

Field Output reported at nodes for region: DIE_2A_40_D0_36-1.Region_1
   Computation algorithm: EXTRAPOLATE_COMPUTE_AVERAGE
   Averaged at nodes
   Averaging regions: ODB_REGIONS

      Node Label     COORD.COOR1     COORD.COOR2
                          @Loc 1          @Loc 1
-------------------------------------------------
               1     19.3251E-03     169.121E-03


Field Output reported at nodes for region: DIE_2A_40_D0_36-1.Region_2
   Computation algorithm: EXTRAPOLATE_COMPUTE_AVERAGE
   Averaged at nodes
   Averaging regions: ODB_REGIONS

      Node Label     COORD.COOR1     COORD.COOR2
                          @Loc 1          @Loc 1
-------------------------------------------------
               1     19.3251E-03     169.121E-03


Field Output reported at nodes for part: WIRE-1
   Computation algorithm: EXTRAPOLATE_COMPUTE_AVERAGE
   Averaged at nodes
   Averaging regions: ODB_REGIONS

      Node Label     COORD.COOR1     COORD.COOR2           S.S11           S.S22           S.S33           S.S12         PE.PE11         PE.PE22         PE.PE33         PE.PE12         LE.LE11         LE.LE22         LE.LE33         LE.LE12
                          @Loc 1          @Loc 1          @Loc 1          @Loc 1          @Loc 1          @Loc 1          @Loc 1          @Loc 1          @Loc 1          @Loc 1          @Loc 1          @Loc 1          @Loc 1          @Loc 1
-------------------------------------------------------------------------------------------------------------------------------------------------------------------------------------------------------------------------------------------------
               1     516.953E-09     84.4500E-03    -117.615E+06    -310.333E+06    -117.876E+06     760.392E+03    -229.648E-03     458.147E-03    -228.499E-03     15.5337E-03    -229.645E-03     456.968E-03    -228.468E-03     13.7946E-03
               2     14.3167E-03     88.7997E-03    -3.16658E+06     73.9536E+06     82.5994E+06    -966.563E+03    -227.622E-03     456.811E-03    -229.189E-03     71.4291E-03    -231.108E-03     460.309E-03    -228.879E-03     49.3188E-03
               3     13.8022E-03     176.849E-03     51.2335E+06    -4.11821E+06     53.3324E+06     22.9260E+06     150.068E-03     102.051E-03    -252.119E-03    -3.73761E-03     150.004E-03     101.629E-03    -251.921E-03    -3.43422E-03
               4    -8.11312E-06     168.766E-03    -39.2611E+06    -33.1251E+06    -56.5081E+06    -12.3130E+06    -219.452E-03     449.165E-03    -229.712E-03    -64.3994E-03    -220.235E-03     448.323E-03    -229.890E-03    -65.6581E-03
               5     809.506E-09    -17.0142E-15    -79.2681E+06    -266.706E+06    -80.0945E+06    -1.75592E+06    -213.455E-03     427.649E-03    -214.194E-03     1.73565E-03    -213.344E-03     426.548E-03    -214.093E-03     1.57723E-03
               6     13.9481E-03    -17.0142E-15    -3.74534E+06     91.1895E+06     86.2816E+06    -2.37112E+06    -525.990E-03     767.232E-03    -241.243E-03     356.146E-03    -540.136E-03     781.406E-03    -240.938E-03     283.985E-03
               7     715.969E-06     84.4714E-03    -116.810E+06    -308.471E+06    -115.097E+06     792.393E+03    -229.542E-03     458.348E-03    -228.806E-03     25.3518E-03    -229.603E-03     457.235E-03    -228.765E-03     22.4916E-03
               8     1.43163E-03     84.5190E-03    -114.936E+06    -287.102E+06    -109.703E+06     555.538E+03    -229.608E-03     458.722E-03    -229.115E-03     46.2176E-03    -229.890E-03     457.896E-03    -229.080E-03     40.9535E-03
               9     2.14729E-03     84.5966E-03    -111.972E+06    -259.512E+06    -99.7667E+06     484.262E+03    -230.023E-03     459.162E-03    -229.139E-03     68.2924E-03    -230.673E-03     458.783E-03    -229.099E-03     60.3953E-03
              10     2.86300E-03     84.7045E-03    -107.006E+06    -244.551E+06    -83.3750E+06     841.807E+03    -230.626E-03     459.818E-03    -229.192E-03     90.3551E-03    -231.779E-03     459.965E-03    -229.099E-03     79.6577E-03
              11     3.57876E-03     84.8424E-03    -100.488E+06    -232.249E+06    -66.0980E+06     1.04152E+06    -231.438E-03     460.692E-03    -229.254E-03     112.337E-03    -233.258E-03     461.523E-03    -229.102E-03     98.6270E-03
              12     4.29443E-03     85.0094E-03    -93.4313E+06    -201.805E+06    -50.8504E+06     1.11652E+06    -232.259E-03     461.543E-03    -229.284E-03     134.146E-03    -234.965E-03     463.348E-03    -229.110E-03     117.211E-03
              13     5.00998E-03     85.2051E-03    -86.1057E+06    -160.015E+06    -36.1332E+06     1.20380E+06    -232.983E-03     462.272E-03    -229.288E-03     155.717E-03    -236.814E-03     465.333E-03    -229.112E-03     135.347E-03
              14     5.72569E-03     85.4289E-03    -78.4691E+06    -130.071E+06    -20.4920E+06     1.09261E+06    -233.648E-03     462.949E-03    -229.301E-03     176.922E-03    -238.844E-03     467.464E-03    -229.101E-03     152.879E-03
              15     6.44150E-03     85.6791E-03     -70.226E+06    -90.6412E+06    -3.76148E+06     740.533E+03    -234.144E-03     463.436E-03    -229.292E-03     197.693E-03    -240.995E-03     469.727E-03    -229.078E-03     169.788E-03
              16     7.15747E-03     85.9556E-03    -61.9131E+06    -38.2167E+06     14.6095E+06     1.23528E+06    -234.385E-03     463.641E-03    -229.256E-03     217.741E-03    -243.193E-03     472.051E-03    -229.038E-03     185.902E-03
              17     7.87390E-03     86.2564E-03    -53.9901E+06     10.5509E+06     32.2933E+06     2.28172E+06    -234.490E-03     463.703E-03    -229.213E-03     236.426E-03    -245.512E-03     474.477E-03    -228.989E-03     200.653E-03
              18     8.59035E-03     86.5800E-03    -45.9271E+06     37.9278E+06     44.5639E+06     2.66329E+06    -234.637E-03     463.819E-03    -229.182E-03     253.467E-03    -248.016E-03     477.041E-03    -228.948E-03     213.929E-03
              19     9.30624E-03     86.9248E-03    -37.9553E+06     46.5517E+06     55.7831E+06     2.49887E+06    -234.462E-03     463.653E-03    -229.191E-03     266.465E-03    -250.056E-03     479.116E-03    -228.925E-03     223.820E-03
              20     10.0220E-03     87.2800E-03    -30.9866E+06     51.8030E+06     68.6211E+06     1.61931E+06    -233.543E-03     462.770E-03    -229.227E-03     271.050E-03    -250.680E-03     479.782E-03    -228.914E-03     226.621E-03
              21     10.7374E-03     87.6327E-03    -25.2470E+06     54.8787E+06     77.3708E+06     728.351E+03    -231.569E-03     460.814E-03    -229.245E-03     262.991E-03    -248.967E-03     478.093E-03    -228.901E-03     218.649E-03
              22     11.4541E-03     87.9612E-03    -19.3508E+06     61.4048E+06     80.1588E+06     224.228E+03    -229.056E-03     458.270E-03    -229.214E-03     243.398E-03    -245.418E-03     474.548E-03    -228.874E-03     200.705E-03
              23     12.1712E-03     88.2537E-03    -12.7830E+06     69.6233E+06     82.2293E+06     681.608E+03    -227.211E-03     456.380E-03    -229.169E-03     213.221E-03    -241.162E-03     470.294E-03    -228.840E-03     173.823E-03
              24     12.8886E-03     88.5005E-03    -8.38232E+06     75.6565E+06     84.1099E+06     129.203E+03    -226.499E-03     455.649E-03    -229.150E-03     187.332E-03    -238.467E-03     467.612E-03    -228.827E-03     150.285E-03
              25     13.6008E-03     88.7163E-03    -5.21530E+06     76.1393E+06     83.1850E+06    -1.07836E+06    -227.035E-03     456.202E-03    -229.167E-03     125.617E-03    -234.587E-03     463.765E-03    -228.854E-03     96.1064E-03
              26     14.3158E-03     90.2969E-03    -3.40642E+06     73.6149E+06     82.9274E+06     225.513E+03    -227.365E-03     456.641E-03    -229.275E-03     71.1463E-03    -230.837E-03     460.121E-03    -228.963E-03     49.1738E-03
              27     14.3162E-03     91.8011E-03    -1.24080E+06     74.4908E+06     83.4584E+06     776.197E+03    -225.285E-03     454.567E-03    -229.282E-03     74.3497E-03    -228.802E-03     458.103E-03    -228.971E-03     52.5076E-03
              28     14.3190E-03     93.2945E-03    -1.21137E+06     75.4529E+06     83.0768E+06     198.944E+03    -225.735E-03     454.948E-03    -229.213E-03     76.0022E-03    -229.319E-03     458.555E-03    -228.905E-03     53.9043E-03
              29     14.3161E-03     94.7993E-03    -2.68280E+06     74.9071E+06     82.3322E+06    -42.9348E+03    -226.895E-03     456.127E-03    -229.232E-03     73.8249E-03    -230.477E-03     459.727E-03    -228.925E-03     51.5496E-03
              30     14.3162E-03     96.2949E-03    -1.24263E+06     76.2275E+06     83.1130E+06    -251.001E+03    -226.786E-03     456.048E-03    -229.262E-03     75.6819E-03    -230.406E-03     459.693E-03    -228.955E-03     53.3212E-03
              31     14.3174E-03     97.7959E-03    -2.73163E+06     75.0470E+06     81.8312E+06    -304.414E+03    -226.225E-03     455.468E-03    -229.243E-03     74.2456E-03    -229.768E-03     459.031E-03    -228.939E-03     52.1866E-03
              32     14.3166E-03     99.2959E-03    -2.51725E+06     73.3852E+06     82.3708E+06    -719.194E+03    -225.743E-03     454.979E-03    -229.236E-03     75.7791E-03    -229.290E-03     458.539E-03    -228.927E-03     53.8135E-03
              33     14.3184E-03     100.791E-03    -2.88957E+06     72.5420E+06     82.7405E+06     638.110E+03    -226.228E-03     455.438E-03    -229.210E-03     75.5234E-03    -229.740E-03     458.958E-03    -228.898E-03     53.6606E-03
              34     14.3166E-03     102.295E-03    -1.57723E+06     74.5234E+06     83.8575E+06     322.524E+03    -225.994E-03     455.230E-03    -229.236E-03     74.8914E-03    -229.531E-03     458.783E-03    -228.923E-03     52.9132E-03
              35     14.3173E-03     103.789E-03    -2.06650E+06     75.3320E+06     83.2656E+06     101.096E+03    -226.328E-03     455.568E-03    -229.240E-03     76.8484E-03    -229.969E-03     459.227E-03    -228.930E-03     54.5491E-03
              36     14.3168E-03     105.292E-03    -2.83877E+06     74.3926E+06     82.7781E+06    -184.778E+03    -226.565E-03     455.808E-03    -229.243E-03     74.2163E-03    -230.143E-03     459.399E-03    -228.933E-03     51.9996E-03
              37     14.3165E-03     106.788E-03    -1.13061E+06     73.8993E+06     83.7415E+06    -490.056E+03    -226.046E-03     455.297E-03    -229.251E-03     75.3784E-03    -229.625E-03     458.892E-03    -228.938E-03     53.2021E-03
              38     14.3181E-03     108.287E-03    -2.02631E+06     72.8097E+06     82.6591E+06     298.946E+03    -225.796E-03     454.998E-03    -229.202E-03     75.6991E-03    -229.373E-03     458.587E-03    -228.892E-03     53.6182E-03
              39     14.3182E-03     109.788E-03    -1.38467E+06     74.0631E+06     83.9241E+06     118.796E+03    -225.957E-03     455.149E-03    -229.192E-03     76.5072E-03    -229.587E-03     458.794E-03    -228.878E-03     54.2663E-03
              40     14.3169E-03     111.285E-03    -2.24469E+06     74.7697E+06     83.6562E+06    -3.03539E+03    -226.284E-03     455.477E-03    -229.193E-03     76.3732E-03    -229.884E-03     459.092E-03    -228.880E-03     54.2353E-03
              41     14.3188E-03     112.784E-03    -2.72319E+06     74.7246E+06     83.2028E+06    -446.313E+03    -226.746E-03     455.929E-03    -229.183E-03     74.9017E-03    -230.289E-03     459.486E-03    -228.871E-03     52.8560E-03
              42     14.3162E-03     114.282E-03    -3.18464E+06     75.0077E+06     82.8915E+06     803.969E+03    -227.760E-03     456.996E-03    -229.237E-03     72.3995E-03    -231.254E-03     460.505E-03    -228.926E-03     50.3873E-03
              43     14.3149E-03     115.788E-03    -1.22580E+06     75.7692E+06     84.4848E+06    -549.073E+03    -226.171E-03     455.498E-03    -229.327E-03     73.3835E-03    -229.702E-03     459.049E-03    -229.013E-03     51.3462E-03
              44     14.3175E-03     117.277E-03    -2.52301E+06     72.0827E+06     82.3070E+06    -467.235E+03    -225.057E-03     454.356E-03    -229.300E-03     75.3153E-03    -228.631E-03     457.939E-03    -228.989E-03     53.2942E-03
              45     14.3166E-03     118.783E-03    -3.12508E+06     72.4521E+06     83.1074E+06     1.07499E+06    -225.833E-03     455.090E-03    -229.257E-03     74.1151E-03    -229.406E-03     458.668E-03    -228.942E-03     52.0216E-03
              46     14.3173E-03     120.276E-03    -1.00264E+06     75.3904E+06     86.3553E+06    -117.764E+03    -225.725E-03     454.978E-03    -229.253E-03     75.1023E-03    -229.348E-03     458.615E-03    -228.929E-03     52.8166E-03
              47     14.3176E-03     121.779E-03    -2.74255E+06     75.5076E+06     84.5878E+06     544.904E+03    -226.076E-03     455.318E-03    -229.242E-03     75.0419E-03    -229.676E-03     458.931E-03    -228.924E-03     52.8570E-03
              48     14.3161E-03     123.277E-03    -2.40794E+06     78.1475E+06     84.4567E+06     191.898E+03    -226.465E-03     455.767E-03    -229.302E-03     73.3535E-03    -230.071E-03     459.396E-03    -228.989E-03     51.0167E-03
              49     14.3145E-03     124.773E-03    -2.54944E+06     79.7681E+06     84.2289E+06     1.00895E+06    -225.944E-03     455.288E-03    -229.344E-03     73.0689E-03    -229.531E-03     458.905E-03    -229.035E-03     50.8469E-03
              50     14.3174E-03     126.273E-03    -2.71926E+06     81.9422E+06     85.9287E+06     267.725E+03    -225.524E-03     454.838E-03    -229.314E-03     74.1995E-03    -229.107E-03     458.453E-03    -228.999E-03     52.0942E-03
              51     14.3159E-03     127.773E-03    -1.34306E+06     80.4978E+06     84.8951E+06    -1.29621E+06    -224.799E-03     454.072E-03    -229.273E-03     75.7368E-03    -228.427E-03     457.735E-03    -228.963E-03     53.5353E-03
              52     14.3190E-03     129.268E-03    -843.866E+03     78.4425E+06     85.8037E+06     787.620E+03    -224.534E-03     453.788E-03    -229.254E-03     76.4383E-03    -228.189E-03     457.470E-03    -228.937E-03     54.1930E-03
              53     14.3161E-03     130.766E-03    -1.73704E+06     83.7542E+06     89.2657E+06     1.04958E+06    -226.060E-03     455.286E-03    -229.226E-03     75.4246E-03    -229.693E-03     458.951E-03    -228.899E-03     53.1484E-03
              54     14.3188E-03     132.264E-03    -2.55879E+06     90.0890E+06     87.7155E+06     2.37124E+06    -225.840E-03     455.031E-03    -229.190E-03     74.7506E-03    -229.437E-03     458.684E-03    -228.879E-03     52.6766E-03
              55     14.3177E-03     133.766E-03    -3.96623E+06     95.9321E+06     87.0118E+06     593.569E+03    -224.896E-03     454.098E-03    -229.201E-03     74.4940E-03    -228.536E-03     457.812E-03    -228.900E-03     52.3937E-03
              56     14.3173E-03     135.255E-03    -1.91456E+06     96.7521E+06     89.8298E+06    -570.682E+03    -225.217E-03     454.453E-03    -229.236E-03     72.6335E-03    -228.823E-03     458.135E-03    -228.924E-03     50.5257E-03
              57     14.3174E-03     136.757E-03    -2.32741E+06     95.5766E+06     90.3854E+06     330.373E+03    -224.264E-03     453.516E-03    -229.252E-03     72.0650E-03    -227.840E-03     457.161E-03    -228.935E-03     50.1179E-03
              58     14.3183E-03     138.251E-03    -2.00348E+06     94.1919E+06     90.1435E+06    -1.49312E+06    -222.432E-03     451.657E-03    -229.226E-03     75.4491E-03    -226.035E-03     455.327E-03    -228.909E-03     53.6518E-03
              59     14.3206E-03     139.747E-03    -2.74464E+06     91.4248E+06     90.9274E+06     1.24380E+06    -220.981E-03     450.163E-03    -229.182E-03     76.0910E-03    -224.580E-03     453.814E-03    -228.856E-03     54.5489E-03
              60     14.3202E-03     141.234E-03    -1.37590E+06     98.2571E+06     95.1965E+06     1.74971E+06    -220.323E-03     449.369E-03    -229.047E-03     76.6633E-03    -223.954E-03     453.068E-03    -228.711E-03     55.0785E-03
              61     14.3278E-03     142.717E-03    -1.57464E+06     99.8392E+06     95.8432E+06    -1.16948E+06    -220.393E-03     449.149E-03    -228.757E-03     74.5535E-03    -223.940E-03     452.768E-03    -228.420E-03     53.0767E-03
              62     14.3291E-03     144.214E-03    -2.57099E+06     99.7959E+06     96.9761E+06     1.57642E+06    -221.337E-03     449.794E-03    -228.457E-03     75.5053E-03    -224.898E-03     453.419E-03    -228.113E-03     54.0355E-03
              63     14.3348E-03     145.704E-03    -4.54125E+06     104.328E+06     100.354E+06     962.406E+03    -220.978E-03     449.071E-03    -228.093E-03     80.0514E-03    -224.621E-03     452.777E-03    -227.736E-03     58.5698E-03
              64     14.3439E-03     147.193E-03    -1.08634E+06     102.360E+06     102.035E+06    -702.380E+03    -220.440E-03     447.954E-03    -227.515E-03     84.6052E-03    -224.154E-03     451.732E-03    -227.151E-03     63.0031E-03
              65     14.3536E-03     148.684E-03    -2.19620E+06     103.821E+06     103.208E+06     2.63502E+06    -224.310E-03     451.025E-03    -226.715E-03     90.7801E-03    -228.201E-03     454.977E-03    -226.346E-03     68.5492E-03
              66     14.3647E-03     150.184E-03    -2.85273E+06     108.826E+06     105.864E+06     2.03977E+06    -230.399E-03     456.200E-03    -225.801E-03     94.6298E-03    -234.426E-03     460.297E-03    -225.425E-03     71.4626E-03
              67     14.3757E-03     151.690E-03    -4.19359E+06     105.870E+06     106.325E+06    -2.12352E+06    -238.317E-03     463.120E-03    -224.804E-03     102.106E-03    -242.513E-03     467.371E-03    -224.419E-03     77.7984E-03
              68     14.3881E-03     153.216E-03    -1.21978E+06     112.562E+06     115.147E+06     4.70863E+06    -251.856E-03     475.611E-03    -223.755E-03     111.014E-03    -256.188E-03     480.008E-03    -223.340E-03     85.5349E-03
              69     14.3945E-03     154.770E-03    -5.31187E+06     122.103E+06     117.779E+06     739.770E+03    -269.223E-03     492.007E-03    -222.783E-03     117.830E-03    -273.720E-03     496.579E-03    -222.364E-03     90.4561E-03
              70     14.4006E-03     156.339E-03     266.672E+03     124.549E+06     119.924E+06     1.13804E+06    -288.884E-03     510.869E-03    -221.986E-03     124.462E-03    -293.408E-03     515.494E-03    -221.567E-03     95.5308E-03
              71     14.4008E-03     157.956E-03    -7.14421E+06     116.041E+06     112.377E+06    -3.13796E+06    -309.069E-03     530.447E-03    -221.377E-03     131.357E-03    -313.708E-03     535.152E-03    -220.973E-03     100.586E-03
              72     14.4015E-03     159.586E-03    -120.864E+03     117.212E+06     111.821E+06    -2.39111E+06    -326.958E-03     547.880E-03    -220.922E-03     140.440E-03    -331.735E-03     552.754E-03    -220.533E-03     107.860E-03
              73     14.4023E-03     161.253E-03    -3.95287E+06     109.840E+06     107.241E+06    -292.964E+03    -343.679E-03     564.211E-03    -220.532E-03     148.022E-03    -348.513E-03     569.117E-03    -220.149E-03     114.191E-03
              74     14.4011E-03     162.937E-03    -2.71636E+06     76.9968E+06     97.4752E+06    -11.0945E+06    -359.040E-03     579.219E-03    -220.180E-03     153.274E-03    -363.894E-03     584.057E-03    -219.800E-03     117.718E-03
              75     14.4036E-03     164.637E-03     586.228E+03     53.1719E+06     95.2271E+06    -2.91721E+06    -370.620E-03     590.541E-03    -219.921E-03     152.245E-03    -375.407E-03     595.246E-03    -219.523E-03     115.686E-03
              76     14.4009E-03     166.360E-03    -2.93469E+06     53.0688E+06     100.514E+06     6.14149E+06    -378.679E-03     598.444E-03    -219.765E-03     155.616E-03    -383.585E-03     603.242E-03    -219.336E-03     118.172E-03
              77     14.4047E-03     168.091E-03    -6.08170E+06     41.3830E+06     110.869E+06    -9.79287E+06    -379.864E-03     599.608E-03    -219.745E-03     160.239E-03    -384.880E-03     604.433E-03    -219.241E-03     122.357E-03
              78     14.4041E-03     169.818E-03      651.82E+03     16.3758E+06     139.356E+06    -4.74544E+06    -373.033E-03     592.959E-03    -219.925E-03     168.474E-03    -378.187E-03     597.775E-03    -219.253E-03     131.618E-03
              79     14.4107E-03     171.527E-03      -61.84E+03     32.8708E+06     176.912E+06     14.1494E+06    -352.048E-03     572.448E-03    -220.400E-03     179.507E-03    -357.640E-03     577.656E-03    -219.563E-03     144.359E-03
              80     14.4083E-03     173.198E-03    -2.80738E+06     78.3012E+06     172.784E+06     13.6847E+06    -300.871E-03     522.224E-03    -221.353E-03     218.910E-03    -307.743E-03     528.885E-03    -220.599E-03     186.996E-03
              81     14.4219E-03     174.778E-03    -17.1511E+06     55.2198E+06     101.670E+06    -21.6777E+06    -154.977E-03     379.870E-03    -224.893E-03     255.021E-03    -159.456E-03     384.377E-03    -224.440E-03     238.834E-03
              82     14.4009E-03     175.933E-03    -13.1953E+06     343.648E+03     43.2045E+06    -21.2258E+06     53.1700E-03     186.791E-03    -239.961E-03     124.624E-03     52.5366E-03     187.180E-03    -239.726E-03     123.336E-03
              83     12.9576E-03     176.387E-03     31.7008E+06     21.2396E+06     82.4922E+06    -14.4234E+06     127.276E-03     132.553E-03    -259.828E-03     18.4126E-03     127.220E-03     132.554E-03    -259.493E-03     18.2684E-03
              84     12.0159E-03     175.839E-03     2.43580E+06    -23.3588E+06     97.7610E+06     5.27517E+06     90.7804E-03     182.485E-03    -273.265E-03     4.98051E-03     90.6263E-03     182.595E-03    -272.746E-03     4.92642E-03
              85     11.2203E-03     175.204E-03     1.22721E+06    -2.20587E+06     147.259E+06     18.5404E+06     78.3616E-03     204.856E-03    -283.217E-03    -36.7654E-03     77.8984E-03     205.039E-03    -282.479E-03    -37.0322E-03
              86     10.4400E-03     174.551E-03    -4.10094E+06     26.8442E+06     174.603E+06    -11.5834E+06     74.9116E-03     215.591E-03    -290.502E-03    -68.9293E-03     74.3946E-03     215.831E-03    -289.662E-03    -70.0270E-03
              87     9.69750E-03     173.895E-03    -7.82566E+06    -11.8521E+06     145.499E+06    -13.4179E+06     65.3692E-03     229.708E-03    -295.077E-03    -129.471E-03     65.1627E-03     229.511E-03    -294.321E-03    -131.124E-03
              88     9.00106E-03     173.246E-03    -4.38304E+06    -9.43306E+06     137.498E+06    -16.7726E+06     54.6929E-03     241.762E-03    -296.455E-03    -199.447E-03     54.8770E-03     241.106E-03    -295.747E-03    -201.681E-03
              89     8.33712E-03     172.625E-03    -9.76888E+06    -15.5155E+06     116.264E+06    -11.3993E+06     40.9041E-03     253.784E-03    -294.688E-03    -268.948E-03     41.5538E-03     252.546E-03    -294.070E-03    -271.658E-03
              90     7.70176E-03     172.035E-03    -14.4580E+06    -8.40726E+06     94.7704E+06    -15.3811E+06     23.0432E-03     267.213E-03    -290.256E-03    -331.850E-03     24.1225E-03     265.450E-03    -289.749E-03    -335.129E-03
              91     7.08164E-03     171.492E-03    -22.0687E+06    -11.8922E+06     72.8198E+06    -18.3409E+06     228.120E-06     283.638E-03    -283.866E-03    -383.397E-03     1.62667E-03     281.401E-03    -283.453E-03    -387.191E-03
              92     6.47010E-03     170.998E-03    -28.1971E+06    -14.7681E+06     57.6624E+06    -23.6553E+06    -27.8836E-03     304.066E-03    -276.182E-03    -419.870E-03    -26.3268E-03     301.510E-03    -275.831E-03    -424.189E-03
              93     5.86083E-03     170.555E-03    -34.1412E+06    -19.6417E+06     45.0009E+06    -27.2961E+06    -59.6088E-03     327.377E-03    -267.768E-03    -437.637E-03    -58.0844E-03     324.689E-03    -267.465E-03    -442.370E-03
              94     5.24829E-03     170.165E-03    -36.9046E+06    -22.7079E+06     34.3858E+06    -31.7669E+06    -92.5832E-03     351.773E-03    -259.190E-03    -434.893E-03    -91.2317E-03     349.141E-03    -258.931E-03    -439.939E-03
              95     4.62845E-03     169.827E-03    -38.6222E+06    -27.4391E+06     22.6921E+06    -32.9648E+06    -123.669E-03     374.649E-03    -250.980E-03    -411.597E-03    -122.597E-03     372.241E-03    -250.771E-03    -416.704E-03
              96     3.99694E-03     169.538E-03    -37.4799E+06    -29.9967E+06     12.2918E+06    -33.7374E+06    -150.501E-03     394.084E-03    -243.583E-03    -373.184E-03    -149.736E-03     392.004E-03    -243.423E-03    -378.159E-03
              97     3.35088E-03     169.300E-03    -34.5259E+06    -27.6035E+06     4.98245E+06    -32.2280E+06    -172.575E-03     409.786E-03    -237.211E-03    -325.680E-03    -172.112E-03     408.065E-03    -237.096E-03    -330.334E-03
              98     2.69407E-03     169.107E-03    -31.6288E+06    -20.9230E+06    -2.83744E+06    -28.5238E+06    -189.401E-03     421.338E-03    -231.937E-03    -271.426E-03    -189.255E-03     419.997E-03    -231.875E-03    -275.490E-03
              99     2.02648E-03     168.957E-03    -29.5052E+06    -18.2989E+06    -14.0100E+06    -24.6925E+06    -200.992E-03     429.037E-03    -228.045E-03    -213.325E-03    -201.114E-03     428.023E-03    -228.046E-03    -216.616E-03
             100     1.34896E-03     168.848E-03    -28.9769E+06    -17.7322E+06    -24.6472E+06    -20.0618E+06    -209.450E-03     435.493E-03    -226.044E-03    -153.715E-03    -209.822E-03     434.698E-03    -226.099E-03    -156.075E-03
             101     668.720E-06     168.784E-03    -34.1775E+06    -25.8952E+06    -43.0999E+06    -14.6782E+06    -216.377E-03     444.025E-03    -227.648E-03    -93.9920E-03    -217.020E-03     443.241E-03    -227.776E-03    -95.5461E-03
             102     2.87163E-06     167.267E-03    -76.8415E+06    -45.9897E+06    -74.5488E+06    -6.75911E+06    -177.287E-03     358.819E-03    -181.532E-03    -32.8263E-03    -177.904E-03     358.352E-03    -181.726E-03    -33.4970E-03
             103    -934.002E-09     166.033E-03    -141.390E+06    -85.6427E+06    -136.599E+06    -8.79052E+06    -116.596E-03     232.559E-03    -115.962E-03     4.71208E-03    -117.041E-03     232.476E-03    -116.316E-03     4.50859E-03
             104     539.314E-09     164.881E-03    -208.615E+06    -139.174E+06    -208.745E+06    -13.0540E+06    -91.7132E-03     182.505E-03    -90.7918E-03     15.3857E-03    -92.2636E-03     182.407E-03    -91.3312E-03     15.1443E-03
             105     1.37415E-06     163.760E-03    -275.216E+06    -186.471E+06    -270.727E+06    -10.4234E+06    -86.1763E-03     169.735E-03    -83.5590E-03     23.6067E-03    -86.8910E-03     169.595E-03    -84.2431E-03     23.4553E-03
             106     830.524E-09     162.638E-03    -261.980E+06    -220.530E+06    -261.724E+06    -6.17536E+06    -94.0298E-03     185.482E-03    -91.4518E-03     28.0006E-03    -94.6482E-03     185.131E-03    -92.0608E-03     27.9253E-03
             107     896.444E-09     161.483E-03    -182.539E+06    -228.336E+06    -182.813E+06     2.29690E+06    -112.261E-03     221.819E-03    -109.558E-03     28.6265E-03    -112.597E-03     221.190E-03    -109.876E-03     28.6290E-03
             108     1.48578E-06     160.275E-03    -141.957E+06    -215.844E+06    -141.162E+06     3.24955E+06    -134.937E-03     267.467E-03    -132.530E-03     27.7321E-03    -135.156E-03     266.781E-03    -132.717E-03     27.6472E-03
             109    -231.648E-09     159.008E-03    -119.654E+06    -210.786E+06    -119.386E+06    -838.127E+03    -157.365E-03     313.379E-03    -156.014E-03     25.8269E-03    -157.514E-03     312.662E-03    -156.132E-03     25.5021E-03
             110     913.201E-09     157.681E-03    -103.254E+06    -216.826E+06    -104.514E+06    -1.22901E+06    -178.081E-03     354.727E-03    -176.647E-03     24.0820E-03    -178.161E-03     353.945E-03    -176.705E-03     23.4903E-03
             111     396.327E-09     156.303E-03    -104.546E+06    -225.757E+06    -109.671E+06    -1.97543E+06    -195.510E-03     389.158E-03    -193.648E-03     22.5393E-03    -195.576E-03     388.351E-03    -193.717E-03     21.6688E-03
             112     852.917E-09     154.882E-03    -105.975E+06    -236.521E+06    -109.127E+06    -1.89937E+06    -208.711E-03     415.872E-03    -207.161E-03     20.8008E-03    -208.768E-03     415.020E-03    -207.210E-03     19.6880E-03
             113    -6.97289E-09     153.430E-03    -115.150E+06    -249.774E+06    -115.451E+06    -1.95969E+06    -218.192E-03     435.557E-03    -217.365E-03     19.2230E-03    -218.267E-03     434.667E-03    -217.413E-03     17.8729E-03
             114     233.849E-09     151.953E-03    -125.728E+06    -261.005E+06    -126.918E+06    -1.91090E+06    -224.777E-03     449.156E-03    -224.379E-03     17.4219E-03    -224.871E-03     448.244E-03    -224.453E-03     15.9139E-03
             115    -1.44867E-09     150.460E-03    -132.483E+06    -268.943E+06    -132.138E+06    -793.418E+03    -228.848E-03     457.396E-03    -228.548E-03     16.0897E-03    -228.956E-03     456.463E-03    -228.627E-03     14.4898E-03
             116     118.285E-09     148.960E-03    -134.853E+06    -275.519E+06    -135.222E+06    -1.11302E+06    -231.248E-03     461.990E-03    -230.742E-03     15.0259E-03    -231.353E-03     461.032E-03    -230.823E-03     13.3514E-03
             117     414.908E-09     147.454E-03    -131.277E+06    -281.987E+06    -131.492E+06    -1.16030E+06    -232.534E-03     464.394E-03    -231.861E-03     14.4714E-03    -232.617E-03     463.393E-03    -231.919E-03     12.7606E-03
             118    -49.9385E-09     145.945E-03    -127.230E+06    -288.352E+06    -127.714E+06    -964.880E+03    -232.776E-03     465.212E-03    -232.437E-03     14.6199E-03    -232.837E-03     464.170E-03    -232.473E-03     12.8511E-03
             119     105.179E-09     144.436E-03    -127.782E+06    -294.743E+06    -127.270E+06    -1.19637E+06    -232.621E-03     464.805E-03    -232.183E-03     14.6549E-03    -232.677E-03     463.731E-03    -232.207E-03     12.8338E-03
             120     412.173E-09     142.929E-03    -124.437E+06    -303.281E+06    -125.068E+06    -1.64663E+06    -232.255E-03     463.899E-03    -231.644E-03     14.7350E-03    -232.286E-03     462.775E-03    -231.649E-03     12.8907E-03
             121    -119.779E-09     141.424E-03    -121.727E+06    -309.243E+06    -121.471E+06    -126.596E+03    -231.926E-03     463.212E-03    -231.286E-03     14.4290E-03    -231.939E-03     462.048E-03    -231.268E-03     12.6602E-03
             122     688.560E-09     139.919E-03    -122.286E+06    -311.815E+06    -122.065E+06    -472.029E+03    -231.768E-03     462.430E-03    -230.663E-03     14.2470E-03    -231.777E-03     461.254E-03    -230.644E-03     12.5151E-03
             123     267.653E-09     138.417E-03    -124.311E+06    -315.914E+06    -124.866E+06    -884.904E+03    -231.163E-03     461.678E-03    -230.515E-03     14.7541E-03    -231.173E-03     460.489E-03    -230.501E-03     13.0181E-03
             124    -364.652E-09     136.913E-03    -123.518E+06    -316.244E+06    -123.793E+06     761.583E+03    -230.542E-03     461.006E-03    -230.465E-03     14.6180E-03    -230.548E-03     459.812E-03    -230.446E-03     12.9346E-03
             125     507.430E-09     135.413E-03    -121.304E+06    -313.643E+06    -121.185E+06     284.920E+03    -230.448E-03     460.321E-03    -229.873E-03     14.7118E-03    -230.452E-03     459.133E-03    -229.848E-03     13.0007E-03
             126     112.659E-09     133.912E-03    -120.560E+06    -313.187E+06    -120.813E+06    -100.124E+03    -230.390E-03     460.065E-03    -229.675E-03     15.0086E-03    -230.393E-03     458.880E-03    -229.650E-03     13.2292E-03
             127     225.304E-09     132.411E-03    -119.309E+06    -311.505E+06    -119.019E+06     501.095E+03    -230.240E-03     459.913E-03    -229.673E-03     14.9764E-03    -230.242E-03     458.732E-03    -229.643E-03     13.1926E-03
             128     189.125E-09     130.912E-03    -118.276E+06    -310.447E+06    -118.083E+06    -530.464E+03    -230.261E-03     459.708E-03    -229.448E-03     14.9345E-03    -230.260E-03     458.529E-03    -229.416E-03     13.1751E-03
             129     499.057E-09     129.412E-03    -118.787E+06    -311.861E+06    -119.507E+06     110.382E+03    -230.404E-03     459.526E-03    -229.122E-03     14.6639E-03    -230.400E-03     458.341E-03    -229.095E-03     12.9512E-03
             130     579.071E-09     127.913E-03    -117.271E+06    -309.756E+06    -116.898E+06     901.687E+03    -230.107E-03     459.353E-03    -229.245E-03     15.1267E-03    -230.104E-03     458.174E-03    -229.210E-03     13.3922E-03
             131    -486.143E-09     126.413E-03    -115.048E+06    -307.526E+06    -114.883E+06    -5.93959E+03    -229.705E-03     459.193E-03    -229.488E-03     15.0727E-03    -229.697E-03     458.019E-03    -229.450E-03     13.3099E-03
             132     641.184E-09     124.915E-03    -115.992E+06    -308.790E+06    -116.182E+06    -530.512E+03    -229.957E-03     459.240E-03    -229.283E-03     14.9984E-03    -229.951E-03     458.064E-03    -229.248E-03     13.2131E-03
             133     105.223E-09     123.415E-03    -118.258E+06    -310.128E+06    -118.015E+06    -186.289E+03    -230.142E-03     459.476E-03    -229.334E-03     15.1206E-03    -230.142E-03     458.299E-03    -229.303E-03     13.3346E-03
             134     243.084E-09     121.915E-03    -118.648E+06    -310.645E+06    -118.838E+06     308.067E+03    -230.025E-03     459.378E-03    -229.353E-03     14.9795E-03    -230.025E-03     458.200E-03    -229.325E-03     13.2255E-03
             135     305.547E-09     120.416E-03    -116.426E+06    -309.359E+06    -116.765E+06     38.2879E+03    -229.939E-03     459.024E-03    -229.085E-03     14.7165E-03    -229.930E-03     457.844E-03    -229.052E-03     13.0046E-03
             136     302.108E-09     118.919E-03    -114.655E+06    -307.471E+06    -114.888E+06     278.691E+03    -229.775E-03     458.806E-03    -229.030E-03     14.3373E-03    -229.763E-03     457.629E-03    -228.993E-03     12.6553E-03
             137     96.2910E-09     117.420E-03    -114.683E+06    -305.748E+06    -113.977E+06     32.9727E+03    -229.555E-03     458.805E-03    -229.250E-03     14.3112E-03    -229.547E-03     457.636E-03    -229.210E-03     12.6060E-03
             138    -107.688E-09     115.922E-03    -117.187E+06    -308.201E+06    -117.475E+06    -850.804E+03    -229.382E-03     458.766E-03    -229.384E-03     14.2954E-03    -229.379E-03     457.595E-03    -229.354E-03     12.5567E-03
             139     59.3354E-09     114.424E-03    -118.648E+06    -311.270E+06    -119.002E+06     209.443E+03    -229.739E-03     459.083E-03    -229.343E-03     14.6812E-03    -229.737E-03     457.901E-03    -229.315E-03     12.9371E-03
             140     492.449E-09     112.923E-03    -114.148E+06    -307.053E+06    -113.983E+06     919.013E+03    -230.339E-03     459.274E-03    -228.936E-03     14.8578E-03    -230.327E-03     458.100E-03    -228.895E-03     13.1259E-03
             141     902.303E-09     111.424E-03    -109.166E+06    -300.776E+06    -109.865E+06     952.437E+03    -230.370E-03     458.885E-03    -228.515E-03     15.1139E-03    -230.349E-03     457.729E-03    -228.470E-03     13.3995E-03
             142     285.616E-09     109.926E-03    -114.102E+06    -298.956E+06    -114.005E+06     85.1641E+03    -230.075E-03     458.860E-03    -228.785E-03     15.1324E-03    -230.075E-03     457.726E-03    -228.757E-03     13.4091E-03
             143     305.497E-09     108.427E-03    -120.059E+06    -305.639E+06    -119.765E+06    -1.68394E+06    -229.764E-03     458.851E-03    -229.087E-03     14.7399E-03    -229.775E-03     457.699E-03    -229.068E-03     12.9968E-03
             144     14.2098E-09     106.929E-03    -118.402E+06    -311.214E+06    -119.170E+06    -242.117E+03    -229.496E-03     458.701E-03    -229.205E-03     14.7095E-03    -229.491E-03     457.518E-03    -229.178E-03     13.0105E-03
             145     13.1179E-09     105.431E-03    -116.021E+06    -308.671E+06    -115.778E+06     428.433E+03    -229.483E-03     458.929E-03    -229.446E-03     14.7257E-03    -229.475E-03     457.751E-03    -229.409E-03     13.0248E-03
             146    -47.2703E-09     103.932E-03    -114.007E+06    -306.553E+06    -113.922E+06     408.702E+03    -229.782E-03     459.181E-03    -229.400E-03     14.7072E-03    -229.769E-03     458.008E-03    -229.360E-03     13.0151E-03
             147     565.776E-09     102.432E-03    -112.710E+06    -304.492E+06    -112.637E+06     513.053E+03    -230.108E-03     459.226E-03    -229.118E-03     14.8657E-03    -230.094E-03     458.059E-03    -229.076E-03     13.1759E-03
             148     268.307E-09     100.933E-03    -114.009E+06    -305.351E+06    -114.040E+06    -976.356E+03    -229.982E-03     459.237E-03    -229.255E-03     15.2150E-03    -229.973E-03     458.071E-03    -229.217E-03     13.4632E-03
             149    -129.394E-09     99.4340E-03    -115.264E+06    -307.407E+06    -115.439E+06     138.579E+03    -229.756E-03     459.167E-03    -229.411E-03     15.1063E-03    -229.748E-03     457.995E-03    -229.375E-03     13.3524E-03
             150     417.837E-09     97.9349E-03    -117.068E+06    -308.573E+06    -116.783E+06    -164.857E+03    -229.763E-03     458.922E-03    -229.159E-03     14.9925E-03    -229.761E-03     457.749E-03    -229.126E-03     13.2231E-03
             151     97.9538E-09     96.4375E-03    -119.247E+06    -311.217E+06    -119.580E+06    -670.849E+03    -229.805E-03     458.857E-03    -229.052E-03     15.0046E-03    -229.805E-03     457.677E-03    -229.025E-03     13.2422E-03
             152     397.718E-09     94.9376E-03    -117.965E+06    -310.399E+06    -118.156E+06     549.238E+03    -229.793E-03     458.771E-03    -228.977E-03     14.9362E-03    -229.790E-03     457.591E-03    -228.947E-03     13.2141E-03
             153     208.244E-09     93.4403E-03    -116.716E+06    -309.013E+06    -116.496E+06     44.3876E+03    -229.726E-03     458.721E-03    -228.995E-03     15.1203E-03    -229.721E-03     457.544E-03    -228.960E-03     13.3890E-03
             154     168.088E-09     91.9417E-03    -113.340E+06    -306.342E+06    -113.709E+06     835.230E+03    -229.796E-03     458.807E-03    -229.011E-03     14.6454E-03    -229.780E-03     457.633E-03    -228.971E-03     12.9466E-03
             155     513.135E-09     90.4435E-03    -109.995E+06    -299.463E+06    -110.071E+06     1.25614E+06    -229.778E-03     458.642E-03    -228.864E-03     14.5631E-03    -229.761E-03     457.493E-03    -228.821E-03     12.8658E-03
             156     52.9306E-09     88.9454E-03    -115.758E+06    -298.839E+06    -115.159E+06    -843.489E+03    -229.658E-03     458.701E-03    -229.043E-03     14.8311E-03    -229.665E-03     457.571E-03    -229.017E-03     13.0856E-03
             157     205.496E-09     87.4465E-03    -119.574E+06    -306.143E+06    -119.871E+06    -1.53794E+06    -229.617E-03     458.796E-03    -229.179E-03     14.9068E-03    -229.625E-03     457.643E-03    -229.161E-03     13.1447E-03
             158     97.0139E-09     85.9473E-03    -118.651E+06    -311.286E+06    -119.291E+06    -285.627E+03    -229.530E-03     458.368E-03    -228.838E-03     15.2208E-03    -229.527E-03     457.187E-03    -228.811E-03     13.4786E-03
             159     440.668E-09     82.9530E-03    -114.187E+06    -306.518E+06    -113.983E+06     398.544E+03    -229.740E-03     458.544E-03    -228.804E-03     15.4980E-03    -229.731E-03     457.373E-03    -228.764E-03     13.7479E-03
             160    -127.269E-09     81.4546E-03    -111.249E+06    -303.706E+06    -111.435E+06     359.631E+03    -229.561E-03     458.771E-03    -229.209E-03     14.9705E-03    -229.544E-03     457.605E-03    -229.165E-03     13.2379E-03
             161     251.679E-09     79.9562E-03    -112.796E+06    -299.612E+06    -113.133E+06     1.11288E+06    -229.684E-03     458.914E-03    -229.230E-03     14.9994E-03    -229.678E-03     457.774E-03    -229.198E-03     13.2790E-03
             162     205.677E-09     78.4572E-03    -117.347E+06    -297.337E+06    -116.891E+06    -300.707E+03    -229.904E-03     458.998E-03    -229.094E-03     14.6438E-03    -229.918E-03     457.880E-03    -229.077E-03     12.8981E-03
             163     440.135E-09     76.9595E-03    -116.624E+06    -302.782E+06    -116.469E+06    -1.43116E+06    -229.874E-03     458.880E-03    -229.006E-03     14.4348E-03    -229.876E-03     457.733E-03    -228.980E-03     12.6871E-03
             164     100.053E-09     75.4602E-03    -113.246E+06    -306.017E+06    -113.791E+06     349.855E+03    -229.944E-03     459.033E-03    -229.088E-03     14.6104E-03    -229.930E-03     457.861E-03    -229.049E-03     12.8923E-03
             165     520.256E-09     73.9609E-03    -115.028E+06    -305.394E+06    -114.824E+06    -367.082E+03    -229.800E-03     458.854E-03    -229.054E-03     14.8045E-03    -229.794E-03     457.691E-03    -229.019E-03     13.0397E-03
             166    -132.151E-09     72.4625E-03    -116.147E+06    -307.077E+06    -116.781E+06    -73.3751E+03    -229.500E-03     458.625E-03    -229.125E-03     15.1026E-03    -229.495E-03     457.458E-03    -229.095E-03     13.3503E-03
             167     209.441E-09     70.9649E-03    -116.135E+06    -307.715E+06    -115.480E+06    -104.266E+03    -229.504E-03     458.531E-03    -229.027E-03     14.4811E-03    -229.498E-03     457.357E-03    -228.989E-03     12.7551E-03
             168     344.512E-09     69.4671E-03    -115.038E+06    -307.530E+06    -115.736E+06    -134.633E+03    -229.477E-03     458.268E-03    -228.791E-03     14.6676E-03    -229.466E-03     457.095E-03    -228.757E-03     12.9426E-03
             169     16.3173E-09     67.9689E-03    -113.174E+06    -303.547E+06    -113.114E+06     1.45090E+06    -229.404E-03     458.324E-03    -228.920E-03     14.8623E-03    -229.394E-03     457.164E-03    -228.881E-03     13.1409E-03
             170     253.147E-09     66.4717E-03    -114.535E+06    -303.572E+06    -113.545E+06    -1.36643E+06    -229.502E-03     458.469E-03    -228.967E-03     14.7242E-03    -229.498E-03     457.312E-03    -228.928E-03     12.9675E-03
             171     192.395E-09     64.9730E-03    -115.121E+06    -307.193E+06    -116.082E+06     22.2134E+03    -229.574E-03     458.408E-03    -228.834E-03     14.6604E-03    -229.563E-03     457.236E-03    -228.802E-03     12.9721E-03
             172     350.077E-09     63.4757E-03    -117.228E+06    -308.167E+06    -117.114E+06    -42.4479E+03    -229.542E-03     458.243E-03    -228.701E-03     14.6607E-03    -229.538E-03     457.071E-03    -228.670E-03     12.9777E-03
             173     249.578E-09     61.9781E-03    -118.871E+06    -310.791E+06    -119.666E+06    -782.362E+03    -229.462E-03     458.107E-03    -228.646E-03     14.8106E-03    -229.459E-03     456.928E-03    -228.621E-03     13.0825E-03
             174     248.890E-09     60.4802E-03    -117.059E+06    -309.552E+06    -116.702E+06     784.444E+03    -229.318E-03     457.881E-03    -228.563E-03     14.9510E-03    -229.313E-03     456.702E-03    -228.528E-03     13.2280E-03
             175     272.159E-09     58.9836E-03    -116.432E+06    -308.596E+06    -116.134E+06     53.0911E+03    -229.188E-03     457.804E-03    -228.616E-03     15.2512E-03    -229.182E-03     456.628E-03    -228.581E-03     13.5290E-03
             176    -41.3142E-09     57.4862E-03    -115.873E+06    -308.272E+06    -115.923E+06     319.495E+03    -228.978E-03     457.691E-03    -228.713E-03     14.9773E-03    -228.969E-03     456.515E-03    -228.678E-03     13.2783E-03
             177     122.597E-09     55.9902E-03    -115.852E+06    -308.137E+06    -115.749E+06    -308.776E+03    -228.906E-03     457.388E-03    -228.482E-03     14.7861E-03    -228.898E-03     456.213E-03    -228.446E-03     13.0672E-03
             178     340.689E-09     54.4941E-03    -117.154E+06    -309.097E+06    -116.575E+06     62.5716E+03    -228.927E-03     457.246E-03    -228.320E-03     14.7125E-03    -228.923E-03     456.070E-03    -228.285E-03     12.9808E-03
             179     9.79269E-09     52.9982E-03    -116.209E+06    -308.393E+06    -116.216E+06    -46.2079E+03    -228.863E-03     457.107E-03    -228.244E-03     14.6671E-03    -228.857E-03     455.932E-03    -228.209E-03     12.9299E-03
             180     467.068E-09     51.5018E-03    -116.685E+06    -308.666E+06    -116.109E+06    -67.0887E+03    -228.834E-03     456.897E-03    -228.063E-03     14.7719E-03    -228.830E-03     455.721E-03    -228.027E-03     13.0450E-03
             181     104.968E-09     50.0069E-03    -115.641E+06    -308.538E+06    -116.612E+06     199.463E+03    -228.537E-03     456.426E-03    -227.889E-03     14.7322E-03    -228.527E-03     455.251E-03    -227.857E-03     12.9930E-03
             182     181.915E-09     48.5120E-03    -116.512E+06    -308.396E+06    -115.699E+06    -111.263E+03    -228.070E-03     455.766E-03    -227.696E-03     14.6561E-03    -228.066E-03     454.591E-03    -227.658E-03     12.9054E-03
             183     16.7815E-09     47.0194E-03    -116.626E+06    -308.746E+06    -116.379E+06    -56.2081E+03    -227.983E-03     455.387E-03    -227.405E-03     14.5029E-03    -227.976E-03     454.210E-03    -227.370E-03     12.8072E-03
             184     555.987E-09     45.5255E-03    -113.700E+06    -306.652E+06    -115.349E+06     337.783E+03    -228.006E-03     455.029E-03    -227.023E-03     14.2066E-03    -227.988E-03     453.855E-03    -226.990E-03     12.5542E-03
             185     207.359E-09     44.0342E-03    -115.299E+06    -307.120E+06    -114.777E+06    -425.716E+03    -227.802E-03     454.491E-03    -226.689E-03     14.1526E-03    -227.793E-03     453.317E-03    -226.650E-03     12.4675E-03
             186     575.791E-09     42.5416E-03    -116.234E+06    -308.504E+06    -116.371E+06     358.384E+03    -227.371E-03     453.917E-03    -226.546E-03     14.3349E-03    -227.362E-03     452.740E-03    -226.512E-03     12.6568E-03
             187    -234.687E-09     41.0512E-03     -113.46E+06    -305.705E+06    -113.919E+06     293.007E+03    -226.685E-03     452.923E-03    -226.238E-03     14.1186E-03    -226.670E-03     451.752E-03    -226.199E-03     12.4774E-03
             188     476.129E-09     39.5626E-03    -117.119E+06    -309.418E+06    -117.975E+06    -1.33225E+06    -226.222E-03     451.797E-03    -225.575E-03     14.0649E-03    -226.213E-03     450.619E-03    -225.547E-03     12.4114E-03
             189     148.014E-09     38.0753E-03    -117.910E+06    -309.780E+06    -117.421E+06     1.09649E+06    -225.742E-03     450.697E-03    -224.955E-03     14.0083E-03    -225.737E-03     449.517E-03    -224.922E-03     12.4009E-03
             190     307.283E-09     36.5897E-03    -114.725E+06    -305.410E+06    -113.094E+06     64.9684E+03    -224.895E-03     449.127E-03    -224.232E-03     13.6856E-03    -224.886E-03     447.957E-03    -224.188E-03     12.0753E-03
             191     155.101E-09     35.1080E-03    -119.141E+06    -310.520E+06    -119.621E+06    -1.57986E+06    -224.196E-03     447.795E-03    -223.599E-03     13.6292E-03    -224.193E-03     446.616E-03    -223.574E-03     11.9847E-03
             192     187.703E-09     33.6265E-03    -118.246E+06    -310.183E+06    -119.084E+06     1.24384E+06    -223.581E-03     446.778E-03    -223.197E-03     13.2063E-03    -223.574E-03     445.597E-03    -223.171E-03     11.6177E-03
             193    -29.5798E-09     32.1469E-03    -110.402E+06    -301.456E+06    -109.872E+06     1.23532E+06    -222.886E-03     445.546E-03    -222.660E-03     13.0837E-03    -222.865E-03     444.384E-03    -222.612E-03     11.5074E-03
             194     158.467E-09     30.6692E-03    -110.756E+06    -301.430E+06    -110.857E+06    -752.201E+03    -222.404E-03     444.185E-03    -221.781E-03     13.0474E-03    -222.383E-03     443.025E-03    -221.738E-03     11.4838E-03
             195     566.090E-09     29.1927E-03    -122.082E+06    -303.699E+06    -123.175E+06     420.550E+03    -221.687E-03     442.336E-03    -220.649E-03     13.0935E-03    -221.701E-03     441.197E-03    -220.647E-03     11.6104E-03
             196     150.090E-09     27.7211E-03    -117.678E+06    -298.698E+06    -117.475E+06     834.393E+03    -220.598E-03     440.421E-03    -219.823E-03     12.9726E-03    -220.604E-03     439.293E-03    -219.807E-03     11.5012E-03
             197     207.510E-09     26.2514E-03    -115.377E+06    -295.121E+06    -115.658E+06     320.909E+03    -219.432E-03     438.488E-03    -219.057E-03     12.4784E-03    -219.434E-03     437.371E-03    -219.040E-03     11.0033E-03
             198    -65.6582E-09     24.7846E-03    -119.288E+06    -289.394E+06    -120.002E+06     1.64997E+06    -218.014E-03     436.151E-03    -218.137E-03     12.0939E-03    -218.037E-03     435.073E-03    -218.144E-03     10.6753E-03
             199    -298.157E-09     23.3222E-03    -114.961E+06    -282.170E+06    -114.626E+06     692.694E+03    -216.339E-03     433.242E-03    -216.903E-03     11.0927E-03    -216.357E-03     432.184E-03    -216.900E-03     9.70726E-03
             200    -180.099E-09     21.8645E-03    -113.457E+06    -280.265E+06    -113.699E+06    -26.4486E+03    -214.140E-03     428.935E-03    -214.796E-03     9.93081E-03    -214.152E-03     427.881E-03    -214.793E-03     8.62356E-03
             201    -314.568E-09     20.4135E-03    -112.328E+06    -280.649E+06    -111.871E+06     263.747E+03    -210.714E-03     422.120E-03    -211.406E-03     8.87547E-03    -210.720E-03     421.057E-03    -211.396E-03     7.68839E-03
             202    -204.776E-09     18.9749E-03    -110.219E+06    -279.918E+06    -110.606E+06    -169.284E+03    -205.995E-03     412.658E-03    -206.664E-03     7.83819E-03    -205.992E-03     411.592E-03    -206.651E-03     6.73229E-03
             203    -258.857E-09     17.5532E-03    -107.867E+06    -278.911E+06    -108.462E+06    -72.1719E+03    -200.453E-03     401.327E-03    -200.874E-03     6.33217E-03    -200.441E-03     400.256E-03    -200.855E-03     5.32839E-03
             204     108.400E-09     16.1468E-03    -106.352E+06    -280.035E+06    -106.506E+06    -605.954E+03    -193.819E-03     387.903E-03    -194.084E-03     4.90372E-03    -193.799E-03     386.819E-03    -194.056E-03     4.01485E-03
             205    -332.936E-09     14.7619E-03    -102.477E+06    -278.914E+06    -102.743E+06     757.843E+03    -186.165E-03     372.481E-03    -186.316E-03     3.57008E-03    -186.131E-03     371.389E-03    -186.277E-03     2.83705E-03
             206     355.262E-09     13.3994E-03    -99.8670E+06    -274.158E+06    -99.3949E+06     1.63909E+06    -178.023E-03     355.931E-03    -177.907E-03     2.40327E-03    -177.987E-03     354.852E-03    -177.862E-03     1.78861E-03
             207    -167.680E-09     12.0588E-03    -108.596E+06    -271.263E+06    -108.200E+06    -320.873E+03    -169.220E-03     338.441E-03    -169.221E-03     1.60277E-03    -169.218E-03     337.401E-03    -169.211E-03     1.05175E-03
             208     11.5138E-09     10.7427E-03    -109.825E+06    -269.580E+06    -110.951E+06     1.21511E+06    -160.686E-03     320.871E-03    -160.185E-03     689.016E-06    -160.688E-03     319.845E-03    -160.190E-03     223.484E-06
             209     937.920E-09     9.44938E-03    -99.2432E+06    -257.569E+06    -98.0247E+06     3.59477E+06    -153.568E-03     305.774E-03    -152.206E-03     750.691E-06    -153.553E-03     304.776E-03    -152.178E-03     310.176E-06
             210     251.223E-09     8.17315E-03    -95.2762E+06    -243.643E+06    -92.9923E+06     1.16515E+06    -149.782E-03     298.570E-03    -148.788E-03     2.92264E-03    -149.775E-03     297.631E-03    -148.761E-03     2.42479E-03
             211     132.042E-09     6.89836E-03    -95.8317E+06    -243.015E+06    -94.3507E+06    -673.793E+03    -153.003E-03     305.928E-03    -152.925E-03     6.66572E-03    -153.002E-03     304.994E-03    -152.906E-03     6.13602E-03
             212    -359.515E-09     5.60238E-03    -97.1982E+06    -249.110E+06    -95.8260E+06    -1.23551E+06    -164.270E-03     329.059E-03    -164.789E-03     9.80269E-03    -164.272E-03     328.093E-03    -164.766E-03     9.26827E-03
             213    -140.062E-09     4.26644E-03    -89.2009E+06    -257.355E+06    -89.7198E+06    -1.49770E+06    -180.693E-03     362.069E-03    -181.376E-03     10.8567E-03    -180.653E-03     361.037E-03    -181.322E-03     10.3377E-03
             214    -329.135E-09     2.88074E-03    -80.4087E+06    -263.048E+06    -81.6884E+06    -150.404E+03    -196.852E-03     395.188E-03    -198.336E-03     9.43893E-03    -196.766E-03     394.105E-03    -198.246E-03     9.01970E-03
             215    -1.35353E-06     1.45298E-03    -79.0074E+06    -265.168E+06    -79.8081E+06    -478.559E+03    -208.754E-03     419.032E-03    -210.278E-03     4.95402E-03    -208.650E-03     417.937E-03    -210.178E-03     4.70365E-03
             216     725.226E-06    -17.0142E-15    -78.5599E+06    -265.465E+06    -78.4451E+06    -1.11387E+06    -213.520E-03     427.494E-03    -213.974E-03     4.02504E-03    -213.413E-03     426.395E-03    -213.868E-03     3.78057E-03
             217     1.45053E-03    -17.0142E-15    -76.8048E+06    -262.433E+06    -74.4144E+06    -517.466E+03    -213.339E-03     427.023E-03    -213.684E-03     8.22493E-03    -213.238E-03     425.932E-03    -213.564E-03     7.78395E-03
             218     2.17632E-03    -17.0142E-15    -74.2092E+06    -257.964E+06    -68.3497E+06    -733.327E+03    -212.759E-03     426.272E-03    -213.513E-03     12.1025E-03    -212.665E-03     425.196E-03    -213.373E-03     11.4488E-03
             219     2.90256E-03    -17.0142E-15    -71.4120E+06    -244.699E+06    -63.0427E+06    -659.684E+03    -212.008E-03     425.269E-03    -213.261E-03     16.1058E-03    -211.933E-03     424.253E-03    -213.118E-03     15.2482E-03
             220     3.62917E-03    -17.0142E-15    -68.3593E+06    -218.500E+06    -59.2921E+06    -1.23706E+06    -211.088E-03     424.014E-03    -212.927E-03     20.1160E-03    -211.048E-03     423.127E-03    -212.807E-03     19.0365E-03
             221     4.35687E-03    -17.0142E-15     -63.469E+06    -183.673E+06    -55.3221E+06    -5.00881E+06    -210.121E-03     422.656E-03    -212.535E-03     24.1353E-03    -210.123E-03     421.939E-03    -212.453E-03     22.7803E-03
             222     5.08486E-03    -17.0142E-15     -55.303E+06    -145.441E+06    -50.8806E+06    -8.92363E+06    -209.277E-03     421.393E-03    -212.116E-03     28.1613E-03    -209.313E-03     420.862E-03    -212.079E-03     26.5170E-03
             223     5.81373E-03    -17.0142E-15    -44.9682E+06    -99.6215E+06    -43.9398E+06    -10.4703E+06    -208.687E-03     420.393E-03    -211.706E-03     31.8464E-03    -208.760E-03     420.079E-03    -211.716E-03     29.9372E-03
             224     6.54317E-03    -17.0142E-15    -33.6554E+06    -36.3780E+06    -32.3898E+06    -11.5138E+06    -208.495E-03     419.832E-03    -211.337E-03     35.0438E-03    -208.635E-03     419.817E-03    -211.398E-03     32.8656E-03
             225     7.27248E-03    -17.0142E-15    -23.7006E+06     10.5764E+06    -13.0383E+06    -6.73781E+06    -209.053E-03     420.176E-03    -211.123E-03     38.3605E-03    -209.260E-03     420.372E-03    -211.169E-03     35.9507E-03
             226     8.00083E-03    -17.0142E-15    -19.8883E+06     24.3168E+06     7.34122E+06     2.92705E+06    -210.767E-03     421.888E-03    -211.120E-03     42.4444E-03    -211.028E-03     422.142E-03    -211.090E-03     39.8316E-03
             227     8.72676E-03    -17.0142E-15    -20.0889E+06     29.4162E+06     21.5118E+06     3.14941E+06    -213.861E-03     425.185E-03    -211.323E-03     47.0027E-03    -214.184E-03     425.478E-03    -211.229E-03     43.9528E-03
             228     9.45116E-03    -17.0142E-15    -18.7762E+06     34.8521E+06     33.4499E+06     663.943E+03    -219.023E-03     430.833E-03    -211.809E-03     51.1437E-03    -219.410E-03     431.180E-03    -211.666E-03     47.4358E-03
             229     10.1710E-03    -17.0142E-15    -15.1498E+06     38.6010E+06     51.8271E+06     1.81140E+06    -227.633E-03     440.383E-03    -212.750E-03     56.1132E-03    -228.095E-03     440.778E-03    -212.525E-03     51.6371E-03
             230     10.8821E-03    -17.0142E-15    -10.6458E+06     48.4283E+06     74.1291E+06    -2.00814E+06    -241.771E-03     456.094E-03    -214.323E-03     61.7946E-03    -242.320E-03     456.566E-03    -214.008E-03     56.4281E-03
             231     11.5843E-03    -17.0142E-15    -5.96875E+06     62.4892E+06     85.7661E+06     1.31459E+06    -266.155E-03     482.955E-03    -216.800E-03     72.7550E-03    -266.839E-03     483.599E-03    -216.453E-03     66.0228E-03
             232     12.2577E-03    -17.0142E-15    -8.27208E+06     64.9013E+06     82.3914E+06     7.29246E+06    -305.986E-03     526.687E-03    -220.701E-03     103.736E-03    -307.092E-03     527.764E-03    -220.371E-03     93.5655E-03
             233     12.8870E-03    -17.0142E-15    -12.5889E+06     68.0301E+06     77.5138E+06     3.57656E+06    -371.161E-03     597.930E-03    -226.769E-03     167.702E-03    -374.267E-03     601.053E-03    -226.462E-03     144.650E-03
             234     13.4747E-03    -17.0142E-15    -7.98856E+06     82.1792E+06     82.0006E+06    -959.268E+03    -469.055E-03     704.902E-03    -235.848E-03     282.620E-03    -478.515E-03     714.412E-03    -235.545E-03     229.835E-03
             235     14.1701E-03     2.24400E-03    -9.85793E+06     87.3269E+06     77.6762E+06    -8.10117E+06    -447.057E-03     684.555E-03    -237.499E-03     301.489E-03    -459.137E-03     696.637E-03    -237.223E-03     242.338E-03
             236     14.2491E-03     3.93398E-03    -1.30474E+06     86.3836E+06     72.5715E+06    -3.73047E+06    -341.729E-03     573.950E-03    -232.221E-03     223.628E-03    -350.556E-03     582.830E-03    -231.982E-03     181.502E-03
             237     14.2852E-03     5.54131E-03     6.72531E+06     87.6529E+06     80.1769E+06     2.58034E+06    -317.680E-03     547.624E-03    -229.943E-03     162.333E-03    -324.222E-03     554.261E-03    -229.679E-03     124.767E-03
             238     14.2860E-03     7.17954E-03    -2.68535E+06     85.1754E+06     83.1508E+06    -148.787E+03    -316.389E-03     545.372E-03    -228.983E-03     125.441E-03    -321.893E-03     550.924E-03    -228.687E-03     88.7521E-03
             239     14.3020E-03     8.80856E-03    -2.33867E+06     81.1524E+06     82.4915E+06    -2.17802E+06    -303.472E-03     532.110E-03    -228.638E-03     115.703E-03    -308.558E-03     537.234E-03    -228.340E-03     81.0757E-03
             240     14.3053E-03     10.4078E-03     1.20689E+06     78.5320E+06     85.1832E+06    -6.26082E+06    -289.630E-03     518.174E-03    -228.544E-03     103.797E-03    -294.145E-03     522.724E-03    -228.234E-03     71.8513E-03
             241     14.3068E-03     11.9906E-03    -2.09077E+06     76.8722E+06     85.9606E+06     39.3192E+03    -278.834E-03     507.555E-03    -228.721E-03     93.6512E-03    -282.897E-03     511.635E-03    -228.400E-03     64.6554E-03
             242     14.3057E-03     13.5584E-03    -2.96411E+06     74.7560E+06     83.3318E+06     4.22981E+06    -264.801E-03     493.947E-03    -229.146E-03     81.1234E-03    -268.382E-03     497.541E-03    -228.834E-03     55.0828E-03
             243     14.3012E-03     15.0904E-03    -2.46297E+06     71.7735E+06     81.4266E+06     1.02843E+06    -251.265E-03     480.840E-03    -229.576E-03     77.1896E-03    -254.675E-03     484.260E-03    -229.269E-03     52.8309E-03
             244     14.3059E-03     16.6168E-03    -1.80527E+06     70.9942E+06     82.4539E+06    -315.699E+03    -242.179E-03     471.919E-03    -229.740E-03     74.6838E-03    -245.472E-03     475.218E-03    -229.428E-03     51.6274E-03
             245     14.3051E-03     18.1321E-03    -1.12501E+06     70.8727E+06     80.5424E+06    -719.459E+03    -238.109E-03     467.804E-03    -229.695E-03     71.5617E-03    -241.308E-03     471.017E-03    -229.393E-03     49.0629E-03
             246     14.3097E-03     19.6406E-03    -2.97666E+06     69.6967E+06     79.0474E+06     829.914E+03    -237.480E-03     467.092E-03    -229.612E-03     65.8775E-03    -240.550E-03     470.170E-03    -229.314E-03     43.7190E-03
             247     14.3065E-03     21.1612E-03    -1.90607E+06     71.8801E+06     81.6033E+06     607.638E+03    -238.274E-03     467.814E-03    -229.540E-03     65.4006E-03    -241.332E-03     470.884E-03    -229.233E-03     43.2991E-03
             248     14.3116E-03     22.6757E-03    -2.02398E+06     72.2991E+06     80.9235E+06    -51.0225E+03    -237.556E-03     466.974E-03    -229.418E-03     67.1529E-03    -240.665E-03     470.098E-03    -229.115E-03     44.9609E-03
             249     14.3122E-03     24.1968E-03    -3.16037E+06     73.2787E+06     81.2261E+06     831.040E+03    -236.151E-03     465.502E-03    -229.350E-03     67.8140E-03    -239.328E-03     468.692E-03    -229.046E-03     45.6086E-03
             250     14.3116E-03     25.7092E-03    -2.64631E+06     74.0841E+06     80.8965E+06     338.740E+03    -236.036E-03     465.370E-03    -229.334E-03     68.3949E-03    -239.313E-03     468.665E-03    -229.033E-03     45.8178E-03
             251     14.3129E-03     27.2187E-03    -2.07416E+06     73.3214E+06     82.1841E+06    -220.038E+03    -235.595E-03     464.878E-03    -229.284E-03     67.4686E-03    -238.886E-03     468.184E-03    -228.976E-03     44.8193E-03
             252     14.3147E-03     28.7349E-03    -1.72058E+06     73.2977E+06     84.5442E+06     388.490E+03    -234.912E-03     464.126E-03    -229.214E-03     68.7186E-03    -238.253E-03     467.476E-03    -228.895E-03     46.0594E-03
             253     14.3154E-03     30.2487E-03    -1.71755E+06     73.3855E+06     83.3803E+06    -1.42829E+06    -234.253E-03     463.405E-03    -229.152E-03     69.9968E-03    -237.657E-03     466.822E-03    -228.839E-03     47.1105E-03
             254     14.3162E-03     31.7560E-03    -2.61661E+06     72.4934E+06     83.2327E+06    -1.69353E+06    -234.350E-03     463.489E-03    -229.139E-03     70.8156E-03    -237.748E-03     466.894E-03    -228.824E-03     48.1149E-03
             255     14.3146E-03     33.2776E-03    -3.32269E+06     70.8446E+06     81.9749E+06     1.57854E+06    -232.366E-03     461.564E-03    -229.198E-03     73.7019E-03    -235.730E-03     464.930E-03    -228.886E-03     51.7117E-03
             256     14.3167E-03     34.7804E-03    -1.09978E+06     72.6232E+06     82.1372E+06     947.567E+03    -229.654E-03     458.899E-03    -229.245E-03     75.9980E-03    -233.087E-03     462.348E-03    -228.938E-03     53.9788E-03
             257     14.3151E-03     36.2764E-03    -1.67807E+06     73.3604E+06     82.5714E+06    -219.819E+03    -230.952E-03     460.170E-03    -229.218E-03     72.7835E-03    -234.438E-03     463.671E-03    -228.909E-03     50.2170E-03
             258     14.3156E-03     37.7881E-03    -3.48707E+06     71.5231E+06     81.5554E+06     176.514E+03    -231.222E-03     460.432E-03    -229.210E-03     71.2404E-03    -234.671E-03     463.886E-03    -228.901E-03     48.7846E-03
             259     14.3162E-03     39.2937E-03    -794.552E+03     73.0035E+06     82.4800E+06     193.703E+03    -228.902E-03     458.096E-03    -229.194E-03     74.9470E-03    -232.407E-03     461.618E-03    -228.886E-03     52.6197E-03
             260     14.3188E-03     40.7956E-03    -1.32484E+06     75.0203E+06     83.9666E+06     723.992E+03    -228.282E-03     457.425E-03    -229.143E-03     75.7706E-03    -231.823E-03     460.984E-03    -228.830E-03     53.4617E-03
             261     14.3170E-03     42.2992E-03    -2.98174E+06     76.2262E+06     83.6310E+06    -66.6771E+03    -229.340E-03     458.484E-03    -229.144E-03     74.3432E-03    -232.894E-03     462.056E-03    -228.832E-03     51.9257E-03
             262     14.3163E-03     43.8017E-03    -2.14094E+06     76.7665E+06     82.7542E+06     132.230E+03    -229.158E-03     458.320E-03    -229.163E-03     74.1613E-03    -232.705E-03     461.892E-03    -228.857E-03     51.7496E-03
             263     14.3184E-03     45.3030E-03    -2.39536E+06     75.5894E+06     83.1944E+06    -602.740E+03    -228.798E-03     457.982E-03    -229.183E-03     72.8850E-03    -232.296E-03     461.497E-03    -228.873E-03     50.6224E-03
             264     14.3145E-03     46.8084E-03    -2.08182E+06     73.6572E+06     83.1074E+06    -295.547E+03    -228.524E-03     457.766E-03    -229.242E-03     74.0121E-03    -232.044E-03     461.300E-03    -228.931E-03     51.7320E-03
             265     14.3175E-03     48.3119E-03    -1.45415E+06     73.1727E+06     82.4905E+06     370.951E+03    -226.377E-03     455.628E-03    -229.251E-03     77.0067E-03    -229.936E-03     459.203E-03    -228.942E-03     54.8957E-03
             266     14.3180E-03     49.8044E-03    -1.16676E+06     72.3044E+06     82.1129E+06    -776.906E+03    -227.038E-03     456.205E-03    -229.167E-03     75.1133E-03    -230.576E-03     459.758E-03    -228.860E-03     52.8839E-03
             267     14.3175E-03     51.3058E-03    -3.40540E+06     69.7658E+06     81.6605E+06    -189.761E+03    -228.600E-03     457.743E-03    -229.143E-03     71.0657E-03    -232.055E-03     461.197E-03    -228.831E-03     48.8848E-03
             268     14.3171E-03     52.8122E-03    -2.58186E+06     70.6034E+06     82.3631E+06     435.759E+03    -227.592E-03     456.771E-03    -229.179E-03     73.6870E-03    -231.099E-03     460.281E-03    -228.866E-03     51.5994E-03
             269     14.3179E-03     54.3108E-03    -1.21602E+06     72.9435E+06     83.5486E+06     32.8814E+03    -227.461E-03     456.660E-03    -229.199E-03     74.7382E-03    -231.035E-03     460.247E-03    -228.886E-03     52.4328E-03
             270     14.3158E-03     55.8131E-03    -2.94763E+06     72.9816E+06     83.1564E+06    -995.470E+03    -227.964E-03     457.188E-03    -229.225E-03     74.7353E-03    -231.524E-03     460.756E-03    -228.910E-03     52.4438E-03
             271     14.3172E-03     57.3149E-03    -2.46644E+06     73.4548E+06     82.1672E+06     356.169E+03    -227.287E-03     456.520E-03    -229.233E-03     76.1295E-03    -230.803E-03     460.050E-03    -228.925E-03     54.1797E-03
             272     14.3168E-03     58.8165E-03    -2.38966E+06     72.7412E+06     80.9607E+06     1.08207E+06    -225.791E-03     455.053E-03    -229.261E-03     75.3320E-03    -229.270E-03     458.547E-03    -228.959E-03     53.6130E-03
             273     14.3165E-03     60.3095E-03    -2.27735E+06     71.7126E+06     82.0029E+06    -281.441E+03    -225.785E-03     455.065E-03    -229.280E-03     75.9273E-03    -229.331E-03     458.620E-03    -228.971E-03     53.9302E-03
             274     14.3168E-03     61.8102E-03    -1.60910E+06     72.4565E+06     83.5290E+06     45.1388E+03    -226.650E-03     455.912E-03    -229.261E-03     75.3926E-03    -230.227E-03     459.498E-03    -228.946E-03     53.2122E-03
             275     14.3166E-03     63.3114E-03    -2.26785E+06     73.2472E+06     82.8732E+06     125.854E+03    -226.513E-03     455.750E-03    -229.237E-03     76.3442E-03    -230.110E-03     459.359E-03    -228.926E-03     54.1507E-03
             276     14.3181E-03     64.8078E-03    -804.128E+03     74.9744E+06     84.0693E+06     1.06579E+06    -226.556E-03     455.772E-03    -229.215E-03     75.6621E-03    -230.134E-03     459.369E-03    -228.903E-03     53.4831E-03
             277     14.3164E-03     66.3105E-03    -1.18007E+06     76.6818E+06     82.7749E+06    -603.554E+03    -227.121E-03     456.321E-03    -229.200E-03     75.7148E-03    -230.726E-03     459.954E-03    -228.895E-03     53.3252E-03
             278     14.3178E-03     67.8082E-03    -4.58887E+06     73.0412E+06     79.8523E+06    -2.80796E+06    -227.612E-03     456.805E-03    -229.193E-03     75.9986E-03    -231.242E-03     460.447E-03    -228.893E-03     53.4899E-03
             279     14.3161E-03     69.3134E-03    -2.31905E+06     73.0425E+06     82.6396E+06     725.457E+03    -227.537E-03     456.772E-03    -229.235E-03     76.1124E-03    -231.097E-03     460.343E-03    -228.924E-03     54.0186E-03
             280     14.3167E-03     70.8136E-03    -2.05646E+06     74.1312E+06     83.8976E+06     899.917E+03    -226.628E-03     455.945E-03    -229.317E-03     76.2177E-03    -230.080E-03     459.409E-03    -229.002E-03     54.6696E-03
             281     14.3144E-03     72.3112E-03    -2.19723E+06     71.3579E+06     83.1666E+06    -635.447E+03    -225.972E-03     455.348E-03    -229.377E-03     75.7513E-03    -229.426E-03     458.806E-03    -229.061E-03     54.1584E-03
             282     14.3159E-03     73.8061E-03    -2.14454E+06     70.8379E+06     83.3686E+06     766.523E+03    -226.180E-03     455.527E-03    -229.348E-03     75.8531E-03    -229.712E-03     459.061E-03    -229.030E-03     53.9352E-03
             283     14.3164E-03     75.3073E-03    -1.10547E+06     71.2909E+06     82.0798E+06     548.665E+03    -225.652E-03     454.893E-03    -229.241E-03     76.0939E-03    -229.205E-03     458.458E-03    -228.933E-03     54.0596E-03
             284     14.3201E-03     76.8035E-03    -2.63304E+06     71.9074E+06     81.4472E+06    -685.386E+03    -225.945E-03     455.120E-03    -229.175E-03     75.5685E-03    -229.554E-03     458.740E-03    -228.869E-03     53.2165E-03
             285     14.3153E-03     78.3053E-03    -1.77027E+06     74.7229E+06     84.7850E+06     42.5285E+03    -227.682E-03     456.886E-03    -229.204E-03     76.2669E-03    -231.298E-03     460.516E-03    -228.886E-03     53.8913E-03
             286     14.3178E-03     79.8108E-03    -2.13074E+06     75.4853E+06     83.3183E+06     1.38464E+06    -226.898E-03     456.139E-03    -229.240E-03     78.9297E-03    -230.465E-03     459.723E-03    -228.930E-03     57.0290E-03
             287     14.3165E-03     81.3075E-03    -1.86513E+06     75.8111E+06     82.9452E+06    -303.160E+03    -225.247E-03     454.504E-03    -229.257E-03     77.0221E-03    -228.738E-03     458.018E-03    -228.950E-03     55.3868E-03
             288     14.3178E-03     82.7957E-03    -1.72857E+06     75.6972E+06     83.0816E+06    -207.540E+03    -226.031E-03     455.253E-03    -229.222E-03     74.3933E-03    -229.513E-03     458.758E-03    -228.914E-03     52.5842E-03
             289     14.3172E-03     84.3015E-03    -3.12640E+06     74.3409E+06     81.6079E+06     749.255E+03    -226.920E-03     456.119E-03    -229.199E-03     72.6558E-03    -230.418E-03     459.633E-03    -228.894E-03     50.6358E-03
             290     14.3169E-03     85.7992E-03    -176.072E+03     76.8085E+06     83.7973E+06    -82.2093E+03    -226.452E-03     455.639E-03    -229.188E-03     74.5037E-03    -230.002E-03     459.219E-03    -228.880E-03     52.3298E-03
             291     14.3197E-03     87.2960E-03    -2.26907E+06     74.9808E+06     81.9831E+06    -369.387E+03    -226.362E-03     455.506E-03    -229.145E-03     72.8026E-03    -229.870E-03     459.034E-03    -228.840E-03     50.7404E-03
             292     715.673E-06     85.9688E-03    -117.735E+06    -309.663E+06    -116.713E+06    -93.7671E+03    -229.448E-03     458.449E-03    -229.001E-03     25.0698E-03    -229.509E-03     457.332E-03    -228.965E-03     22.2016E-03
             293     1.43148E-03     86.0168E-03    -115.477E+06    -287.874E+06    -110.599E+06     442.212E+03    -229.579E-03     458.732E-03    -229.152E-03     45.9439E-03    -229.861E-03     457.902E-03    -229.120E-03     40.6808E-03
             294     2.14710E-03     86.0948E-03    -112.200E+06    -259.890E+06    -99.5044E+06     624.365E+03    -230.104E-03     459.280E-03    -229.176E-03     68.0705E-03    -230.755E-03     458.899E-03    -229.134E-03     60.1683E-03
             295     2.86268E-03     86.2026E-03    -107.287E+06    -245.646E+06    -83.9539E+06     676.642E+03    -230.758E-03     460.003E-03    -229.246E-03     90.2686E-03    -231.910E-03     460.146E-03    -229.154E-03     79.5576E-03
             296     3.57829E-03     86.3406E-03    -100.929E+06    -232.958E+06    -67.4356E+06     891.093E+03    -231.464E-03     460.773E-03    -229.309E-03     112.326E-03    -233.281E-03     461.600E-03    -229.163E-03     98.6276E-03
             297     4.29395E-03     86.5078E-03    -93.9219E+06    -201.983E+06    -51.6661E+06     657.835E+03    -232.165E-03     461.490E-03    -229.325E-03     134.242E-03    -234.869E-03     463.294E-03    -229.155E-03     117.328E-03
             298     5.00977E-03     86.7037E-03    -86.3885E+06    -160.111E+06    -36.6314E+06     223.360E+03    -232.845E-03     462.150E-03    -229.305E-03     155.957E-03    -236.676E-03     465.212E-03    -229.131E-03     135.600E-03
             299     5.72577E-03     86.9271E-03    -78.5322E+06    -130.109E+06    -20.9725E+06    -154.394E+03    -233.504E-03     462.798E-03    -229.294E-03     177.181E-03    -238.700E-03     467.313E-03    -229.096E-03     153.150E-03
             300     6.44187E-03     87.1777E-03    -71.2227E+06    -91.0126E+06    -4.66551E+06    -157.302E+03    -234.038E-03     463.306E-03    -229.268E-03     197.783E-03    -240.889E-03     469.595E-03    -229.056E-03     169.897E-03
             301     7.15805E-03     87.4537E-03    -64.1962E+06    -40.1226E+06     12.7835E+06     102.381E+03    -234.404E-03     463.634E-03    -229.230E-03     217.587E-03    -243.212E-03     472.034E-03    -229.015E-03     185.740E-03
             302     7.87408E-03     87.7547E-03    -56.0430E+06     8.19036E+06     30.1790E+06     442.739E+03    -234.626E-03     463.823E-03    -229.197E-03     236.307E-03    -245.650E-03     474.590E-03    -228.977E-03     200.482E-03
             303     8.58972E-03     88.0787E-03    -47.8816E+06     36.5387E+06     42.6640E+06     759.847E+03    -234.683E-03     463.859E-03    -229.176E-03     253.486E-03    -248.065E-03     477.077E-03    -228.946E-03     213.909E-03
             304     9.30596E-03     88.4228E-03    -40.5650E+06     45.7213E+06     52.5681E+06     688.265E+03    -234.321E-03     463.496E-03    -229.175E-03     266.484E-03    -249.920E-03     478.961E-03    -228.920E-03     223.820E-03
             305     10.0223E-03     88.7793E-03    -33.5203E+06     51.9735E+06     63.3644E+06     1.20636E+06    -233.194E-03     462.378E-03    -229.185E-03     270.830E-03    -250.332E-03     479.398E-03    -228.895E-03     226.409E-03
             306     10.7391E-03     89.1320E-03    -26.4103E+06     56.3932E+06     73.7233E+06     1.25750E+06    -231.201E-03     460.392E-03    -229.192E-03     262.044E-03    -248.583E-03     477.667E-03    -228.866E-03     217.701E-03
             307     11.4554E-03     89.4588E-03    -19.2365E+06     61.9929E+06     79.9421E+06     389.428E+03    -229.270E-03     458.455E-03    -229.185E-03     242.070E-03    -245.589E-03     474.694E-03    -228.847E-03     199.332E-03
             308     12.1702E-03     89.7544E-03    -13.8512E+06     68.8401E+06     82.1879E+06    -145.113E+03    -227.919E-03     457.106E-03    -229.186E-03     211.483E-03    -241.880E-03     471.023E-03    -228.855E-03     171.812E-03
             309     12.8855E-03     89.9946E-03    -8.57738E+06     76.7256E+06     85.3206E+06     509.361E+03    -227.053E-03     456.271E-03    -229.219E-03     185.328E-03    -238.995E-03     468.208E-03    -228.891E-03     148.117E-03
             310     13.6030E-03     90.2245E-03    -4.31423E+06     77.1503E+06     84.9926E+06     828.480E+03    -227.091E-03     456.349E-03    -229.258E-03     124.597E-03    -234.573E-03     463.842E-03    -228.938E-03     95.2395E-03
             311     715.491E-06     87.4666E-03    -118.419E+06    -306.832E+06    -117.256E+06    -1.88806E+06    -229.523E-03     458.778E-03    -229.256E-03     25.0120E-03    -229.591E-03     457.678E-03    -229.225E-03     22.1171E-03
             312     1.43114E-03     87.5148E-03    -115.775E+06    -289.610E+06    -112.140E+06    -1.30810E+06    -229.600E-03     458.887E-03    -229.287E-03     46.1345E-03    -229.879E-03     458.052E-03    -229.260E-03     40.8507E-03
             313     2.14694E-03     87.5929E-03    -112.247E+06    -262.014E+06    -101.662E+06     391.846E+03    -230.079E-03     459.334E-03    -229.255E-03     68.2543E-03    -230.724E-03     458.945E-03    -229.220E-03     60.3626E-03
             314     2.86258E-03     87.7012E-03    -107.517E+06    -245.801E+06    -85.0794E+06     646.273E+03    -230.729E-03     460.022E-03    -229.293E-03     90.4862E-03    -231.880E-03     460.166E-03    -229.207E-03     79.7870E-03
             315     3.57819E-03     87.8390E-03    -101.080E+06    -232.606E+06    -68.2722E+06    -50.9794E+03    -231.410E-03     460.745E-03    -229.335E-03     112.645E-03    -233.228E-03     461.576E-03    -229.192E-03     98.9454E-03
             316     4.29402E-03     88.0061E-03    -93.3422E+06    -201.315E+06    -52.4622E+06    -468.237E+03    -232.061E-03     461.387E-03    -229.326E-03     134.562E-03    -234.762E-03     463.195E-03    -229.161E-03     117.656E-03
             317     5.01006E-03     88.2017E-03    -85.7891E+06    -159.763E+06    -37.2711E+06    -678.533E+03    -232.760E-03     462.048E-03    -229.288E-03     156.118E-03    -236.585E-03     465.110E-03    -229.119E-03     135.771E-03
             318     5.72598E-03     88.4255E-03    -78.8738E+06    -130.315E+06    -21.9361E+06    -499.816E+03    -233.483E-03     462.754E-03    -229.271E-03     177.131E-03    -238.675E-03     467.267E-03    -229.077E-03     153.105E-03
             319     6.44189E-03     88.6756E-03    -71.7861E+06    -92.0777E+06    -5.79352E+06     140.009E+03    -234.077E-03     463.327E-03    -229.250E-03     197.593E-03    -240.922E-03     469.607E-03    -229.042E-03     169.712E-03
             320     7.15783E-03     88.9522E-03    -64.1085E+06    -39.7465E+06     12.2846E+06     381.852E+03    -234.475E-03     463.696E-03    -229.221E-03     217.446E-03    -243.281E-03     472.098E-03    -229.009E-03     185.587E-03
             321     7.87374E-03     89.2532E-03    -56.7944E+06     8.19293E+06     29.5632E+06    -289.606E+03    -234.693E-03     463.890E-03    -229.197E-03     236.411E-03    -245.730E-03     474.669E-03    -228.979E-03     200.545E-03
             322     8.59028E-03     89.5774E-03    -49.2482E+06     35.0070E+06     42.0228E+06    -298.848E+03    -234.736E-03     463.919E-03    -229.184E-03     253.487E-03    -248.127E-03     477.138E-03    -228.953E-03     213.870E-03
             323     9.30620E-03     89.9218E-03    -41.5706E+06     45.4838E+06     52.9673E+06     241.726E+03    -234.381E-03     463.574E-03    -229.193E-03     266.237E-03    -249.989E-03     479.043E-03    -228.934E-03     223.535E-03
             324     10.0220E-03     90.2774E-03    -34.2674E+06     50.9792E+06     64.2442E+06     85.1568E+03    -233.273E-03     462.490E-03    -229.217E-03     270.022E-03    -250.410E-03     479.500E-03    -228.920E-03     225.533E-03
             325     10.7378E-03     90.6292E-03    -27.0225E+06     56.3792E+06     74.6479E+06    -68.5872E+03    -231.523E-03     460.770E-03    -229.247E-03     260.760E-03    -248.882E-03     478.017E-03    -228.916E-03     216.313E-03
             326     11.4534E-03     90.9581E-03    -20.4785E+06     62.5655E+06     79.0972E+06    -386.489E+03    -229.706E-03     458.971E-03    -229.265E-03     240.791E-03    -246.006E-03     475.191E-03    -228.931E-03     197.907E-03
             327     12.1699E-03     91.2533E-03    -13.9298E+06     69.0488E+06     81.5670E+06     503.032E+03    -228.340E-03     457.635E-03    -229.295E-03     211.164E-03    -242.301E-03     471.556E-03    -228.967E-03     171.413E-03
             328     12.8835E-03     91.4998E-03    -8.93443E+06     76.5932E+06     84.5391E+06     1.48800E+06    -226.802E-03     456.128E-03    -229.326E-03     186.193E-03    -238.767E-03     468.088E-03    -229.001E-03     149.053E-03
             329     13.5969E-03     91.7177E-03    -4.31323E+06     76.7192E+06     83.8726E+06     958.067E+03    -225.531E-03     454.837E-03    -229.306E-03     126.685E-03    -233.047E-03     462.367E-03    -228.992E-03     97.4617E-03
             330     715.504E-06     88.9652E-03    -114.950E+06    -300.163E+06    -112.471E+06    -1.76596E+06    -229.612E-03     458.810E-03    -229.197E-03     25.0824E-03    -229.680E-03     457.730E-03    -229.158E-03     22.1994E-03
             331     1.43115E-03     89.0128E-03    -113.153E+06    -290.688E+06    -107.522E+06    -1.79703E+06    -229.738E-03     459.077E-03    -229.340E-03     46.3606E-03    -230.009E-03     458.227E-03    -229.292E-03     41.0693E-03
             332     2.14673E-03     89.0912E-03    -109.777E+06    -265.585E+06    -99.7852E+06    -368.812E+03    -230.110E-03     459.423E-03    -229.314E-03     68.4109E-03    -230.741E-03     459.011E-03    -229.268E-03     60.5033E-03
             333     2.86251E-03     89.1994E-03    -104.271E+06    -244.171E+06    -85.3884E+06    -360.371E+03    -230.617E-03     459.925E-03    -229.308E-03     90.5318E-03    -231.753E-03     460.072E-03    -229.229E-03     79.8329E-03
             334     3.57840E-03     89.3373E-03    -97.9736E+06    -231.236E+06    -68.3598E+06    -1.15182E+06    -231.315E-03     460.637E-03    -229.322E-03     112.600E-03    -233.119E-03     461.470E-03    -229.186E-03     98.8920E-03
             335     4.29423E-03     89.5041E-03    -91.6105E+06    -201.233E+06    -53.3353E+06    -1.13305E+06    -232.074E-03     461.381E-03    -229.306E-03     134.409E-03    -234.765E-03     463.187E-03    -229.148E-03     117.486E-03
             336     5.01002E-03     89.6999E-03    -85.3167E+06    -160.066E+06    -38.5835E+06    -597.057E+03    -232.795E-03     462.070E-03    -229.276E-03     155.898E-03    -236.613E-03     465.129E-03    -229.113E-03     135.545E-03
             337     5.72596E-03     89.9236E-03    -78.7033E+06    -131.007E+06    -22.6932E+06     38.9279E+03    -233.502E-03     462.771E-03    -229.268E-03     176.952E-03    -238.689E-03     467.279E-03    -229.078E-03     152.927E-03
             338     6.44191E-03     90.1741E-03    -71.5196E+06    -92.4841E+06    -6.12215E+06     62.8607E+03    -234.118E-03     463.372E-03    -229.254E-03     197.581E-03    -240.964E-03     469.653E-03    -229.046E-03     169.681E-03
             339     7.15784E-03     90.4507E-03    -63.8888E+06    -40.1424E+06     11.8483E+06    -40.2698E+03    -234.528E-03     463.756E-03    -229.229E-03     217.474E-03    -243.340E-03     472.165E-03    -229.019E-03     185.574E-03
             340     7.87415E-03     90.7516E-03    -55.9052E+06     8.34042E+06     29.6161E+06     732.216E+03    -234.799E-03     464.013E-03    -229.213E-03     236.276E-03    -245.841E-03     474.800E-03    -228.996E-03     200.373E-03
             341     8.58956E-03     91.0763E-03    -48.8202E+06     35.8299E+06     41.9047E+06     715.628E+03    -234.887E-03     464.100E-03    -229.213E-03     253.083E-03    -248.286E-03     477.331E-03    -228.985E-03     213.414E-03
             342     9.30551E-03     91.4200E-03    -41.8696E+06     45.6014E+06     52.0836E+06    -107.797E+03    -234.574E-03     463.813E-03    -229.239E-03     265.738E-03    -250.192E-03     479.293E-03    -228.984E-03     222.950E-03
             343     10.0214E-03     91.7770E-03    -34.1230E+06     51.1255E+06     64.2844E+06    -387.052E+03    -233.587E-03     462.875E-03    -229.289E-03     269.669E-03    -250.740E-03     479.903E-03    -228.992E-03     225.065E-03
             344     10.7369E-03     92.1285E-03    -26.7582E+06     55.8848E+06     75.4988E+06    -296.157E+03    -231.939E-03     461.284E-03    -229.344E-03     261.194E-03    -249.326E-03     478.555E-03    -229.009E-03     216.658E-03
             345     11.4521E-03     92.4581E-03    -20.4542E+06     62.8959E+06     80.0157E+06     154.127E+03    -230.041E-03     459.414E-03    -229.372E-03     242.095E-03    -246.372E-03     475.663E-03    -229.034E-03     199.234E-03
             346     12.1659E-03     92.7529E-03    -15.7510E+06     67.9405E+06     79.7037E+06     781.428E+03    -227.751E-03     457.119E-03    -229.368E-03     212.934E-03    -241.752E-03     471.074E-03    -229.045E-03     173.330E-03
             347     12.8838E-03     92.9985E-03    -9.89774E+06     75.3357E+06     82.3496E+06     988.067E+03    -225.383E-03     454.708E-03    -229.325E-03     187.399E-03    -237.326E-03     466.645E-03    -229.008E-03     150.562E-03
             348     13.6034E-03     93.2175E-03    -3.58469E+06     78.0202E+06     83.8425E+06     567.802E+03    -225.041E-03     454.291E-03    -229.251E-03     127.675E-03    -232.545E-03     461.817E-03    -228.939E-03     98.5283E-03
             349     715.810E-06     90.4633E-03    -109.716E+06    -298.345E+06    -107.071E+06     1.31597E+06    -229.700E-03     458.808E-03    -229.108E-03     24.8540E-03    -229.751E-03     457.722E-03    -229.052E-03     22.0218E-03
             350     1.43124E-03     90.5115E-03    -107.932E+06    -289.863E+06    -100.753E+06     562.648E+03    -229.769E-03     459.125E-03    -229.356E-03     46.2583E-03    -230.026E-03     458.262E-03    -229.283E-03     40.9847E-03
             351     2.14675E-03     90.5896E-03    -104.870E+06    -265.389E+06    -94.5396E+06    -822.362E+03    -230.123E-03     459.454E-03    -229.331E-03     68.4887E-03    -230.740E-03     459.030E-03    -229.266E-03     60.5557E-03
             352     2.86247E-03     90.6974E-03    -101.310E+06    -242.356E+06    -84.6254E+06    -1.33361E+06    -230.661E-03     459.967E-03    -229.306E-03     90.5918E-03    -231.788E-03     460.120E-03    -229.231E-03     79.8683E-03
             353     3.57827E-03     90.8353E-03    -96.7615E+06    -231.223E+06    -68.9973E+06    -883.650E+03    -231.365E-03     460.692E-03    -229.327E-03     112.475E-03    -233.162E-03     461.524E-03    -229.196E-03     98.7602E-03
             354     4.29405E-03     91.0024E-03    -91.5556E+06    -201.722E+06    -53.4557E+06    -318.496E+03    -232.109E-03     461.432E-03    -229.323E-03     134.275E-03    -234.800E-03     463.237E-03    -229.165E-03     117.346E-03
             355     5.00988E-03     91.1982E-03    -85.5774E+06    -160.644E+06    -38.7411E+06     47.9231E+03    -232.836E-03     462.134E-03    -229.298E-03     155.779E-03    -236.658E-03     465.194E-03    -229.135E-03     135.410E-03
             356     5.72579E-03     91.4217E-03    -78.9353E+06    -131.332E+06    -23.1031E+06     31.1011E+03    -233.533E-03     462.826E-03    -229.293E-03     176.849E-03    -238.722E-03     467.336E-03    -229.104E-03     152.800E-03
             357     6.44172E-03     91.6725E-03    -71.9808E+06    -92.3705E+06    -6.42649E+06     40.3333E+03    -234.149E-03     463.431E-03    -229.282E-03     197.404E-03    -240.997E-03     469.714E-03    -229.076E-03     169.483E-03
             358     7.15778E-03     91.9489E-03    -64.9838E+06    -40.4097E+06     11.3632E+06     125.562E+03    -234.659E-03     463.925E-03    -229.266E-03     217.194E-03    -243.477E-03     472.336E-03    -229.057E-03     185.256E-03
             359     7.87319E-03     92.2505E-03    -57.8760E+06     7.20912E+06     28.0074E+06    -191.465E+03    -234.962E-03     464.225E-03    -229.263E-03     236.002E-03    -246.012E-03     475.014E-03    -229.049E-03     200.043E-03
             360     8.58940E-03     92.5752E-03    -49.3142E+06     35.6507E+06     41.5197E+06     81.8456E+03    -234.982E-03     464.257E-03    -229.276E-03     252.964E-03    -248.390E-03     477.496E-03    -229.048E-03     213.248E-03
             361     9.30482E-03     92.9197E-03    -41.0300E+06     46.4676E+06     53.4863E+06     300.921E+03    -234.637E-03     463.944E-03    -229.308E-03     266.007E-03    -250.260E-03     479.431E-03    -229.048E-03     223.223E-03
             362     10.0201E-03     93.2758E-03    -34.4058E+06     51.3258E+06     65.1048E+06    -95.7121E+03    -233.687E-03     463.037E-03    -229.351E-03     270.563E-03    -250.855E-03     480.077E-03    -229.050E-03     225.986E-03
             363     10.7359E-03     93.6282E-03    -28.3077E+06     56.1655E+06     75.3968E+06    -399.482E+03    -231.825E-03     461.213E-03    -229.388E-03     262.386E-03    -249.257E-03     478.525E-03    -229.051E-03     217.868E-03
             364     11.4518E-03     93.9581E-03    -23.4522E+06     61.0381E+06     77.5636E+06    -18.4573E+03    -229.310E-03     458.677E-03    -229.368E-03     243.752E-03    -245.675E-03     474.951E-03    -229.034E-03     201.065E-03
             365     12.1693E-03     94.2540E-03    -16.8106E+06     66.7456E+06     78.6625E+06    -166.940E+03    -227.011E-03     456.320E-03    -229.309E-03     214.545E-03    -241.033E-03     470.291E-03    -228.988E-03     175.135E-03
             366     12.8850E-03     94.4942E-03    -9.12999E+06     76.8918E+06     83.3934E+06    -351.704E+03    -225.833E-03     455.091E-03    -229.258E-03     187.319E-03    -237.801E-03     467.058E-03    -228.939E-03     150.343E-03
             367     13.6008E-03     94.7125E-03    -4.42832E+06     78.3300E+06     83.3608E+06     48.5275E+03    -226.270E-03     455.502E-03    -229.232E-03     126.018E-03    -233.785E-03     463.038E-03    -228.923E-03     96.6048E-03
             368     715.326E-06     91.9618E-03    -112.222E+06    -304.323E+06    -111.102E+06     1.88849E+06    -229.687E-03     458.883E-03    -229.195E-03     24.9169E-03    -229.737E-03     457.776E-03    -229.147E-03     22.0913E-03
             369     1.43104E-03     92.0099E-03    -109.954E+06    -288.195E+06    -105.486E+06     1.65806E+06    -229.703E-03     459.056E-03    -229.353E-03     46.1775E-03    -229.965E-03     458.211E-03    -229.303E-03     40.9244E-03
             370     2.14695E-03     92.0877E-03    -107.372E+06    -261.381E+06    -96.2727E+06    -287.888E+03    -230.094E-03     459.414E-03    -229.319E-03     68.3058E-03    -230.725E-03     459.015E-03    -229.266E-03     60.3893E-03
             371     2.86264E-03     92.1960E-03    -103.939E+06    -242.910E+06    -82.9821E+06    -492.003E+03    -230.724E-03     460.051E-03    -229.327E-03     90.4666E-03    -231.866E-03     460.203E-03    -229.239E-03     79.7387E-03
             372     3.57816E-03     92.3336E-03    -99.2231E+06    -231.821E+06    -67.9859E+06     173.860E+03    -231.448E-03     460.810E-03    -229.362E-03     112.412E-03    -233.261E-03     461.645E-03    -229.222E-03     98.6859E-03
             373     4.29391E-03     92.5006E-03    -93.2391E+06    -202.090E+06    -52.9885E+06     317.207E+03    -232.147E-03     461.510E-03    -229.364E-03     134.249E-03    -234.848E-03     463.317E-03    -229.200E-03     117.313E-03
             374     5.00977E-03     92.6966E-03    -86.6401E+06    -161.087E+06    -38.4650E+06     219.588E+03    -232.884E-03     462.224E-03    -229.340E-03     155.739E-03    -236.714E-03     465.286E-03    -229.173E-03     135.355E-03
             375     5.72553E-03     92.9201E-03    -79.8893E+06    -131.059E+06    -23.1076E+06     208.927E+03    -233.655E-03     462.995E-03    -229.340E-03     176.735E-03    -238.853E-03     467.511E-03    -229.150E-03     152.658E-03
             376     6.44137E-03     93.1707E-03    -72.8735E+06    -92.2165E+06    -6.75083E+06     44.3404E+03    -234.333E-03     463.675E-03    -229.342E-03     197.301E-03    -241.190E-03     469.965E-03    -229.136E-03     169.340E-03
             377     7.15691E-03     93.4478E-03    -65.0644E+06    -40.8672E+06     11.4600E+06     140.708E+03    -234.787E-03     464.127E-03    -229.340E-03     217.178E-03    -243.608E-03     472.538E-03    -229.129E-03     185.219E-03
             378     7.87294E-03     93.7497E-03    -56.5964E+06     8.05699E+06     29.9039E+06     311.936E+03    -234.928E-03     464.266E-03    -229.338E-03     236.161E-03    -245.976E-03     475.055E-03    -229.118E-03     200.223E-03
             379     8.58819E-03     94.0742E-03    -49.1602E+06     35.8102E+06     42.5677E+06    -633.969E+03    -234.852E-03     464.184E-03    -229.331E-03     253.512E-03    -248.266E-03     477.426E-03    -229.099E-03     213.830E-03
             380     9.30440E-03     94.4187E-03    -42.1126E+06     45.4022E+06     52.7958E+06    -741.858E+03    -234.523E-03     463.859E-03    -229.337E-03     266.693E-03    -250.156E-03     479.351E-03    -229.077E-03     223.932E-03
             381     10.0210E-03     94.7754E-03    -34.4979E+06     50.8511E+06     64.4730E+06     344.498E+03    -233.487E-03     462.843E-03    -229.356E-03     271.209E-03    -250.662E-03     479.889E-03    -229.057E-03     226.692E-03
             382     10.7366E-03     95.1289E-03    -27.7032E+06     55.8799E+06     74.5340E+06     993.880E+03    -231.311E-03     460.671E-03    -229.359E-03     262.787E-03    -248.728E-03     477.971E-03    -229.027E-03     218.435E-03
             383     11.4530E-03     95.4559E-03    -20.9389E+06     63.1702E+06     79.1417E+06     259.059E+03    -228.858E-03     458.173E-03    -229.315E-03     243.210E-03    -245.207E-03     474.442E-03    -228.981E-03     200.583E-03
             384     12.1700E-03     95.7499E-03    -15.2212E+06     68.5552E+06     80.0560E+06    -926.100E+03    -227.137E-03     456.397E-03    -229.260E-03     212.319E-03    -241.103E-03     470.320E-03    -228.937E-03     172.823E-03
             385     12.8872E-03     95.9953E-03    -10.4950E+06     74.6988E+06     81.7739E+06    -545.050E+03    -226.552E-03     455.794E-03    -229.241E-03     186.093E-03    -238.489E-03     467.721E-03    -228.926E-03     149.014E-03
             386     13.6001E-03     96.2167E-03    -4.50524E+06     77.2861E+06     82.8408E+06    -126.703E+03    -226.711E-03     455.962E-03    -229.252E-03     127.359E-03    -234.268E-03     463.538E-03    -228.943E-03     97.8317E-03
             387     715.746E-06     93.4603E-03    -116.205E+06    -308.374E+06    -115.606E+06     7.99044E+03    -229.675E-03     458.850E-03    -229.175E-03     25.1297E-03    -229.732E-03     457.736E-03    -229.137E-03     22.2649E-03
             388     1.43125E-03     93.5081E-03    -114.649E+06    -288.073E+06    -111.899E+06     261.755E+03    -229.757E-03     459.092E-03    -229.335E-03     46.1384E-03    -230.032E-03     458.262E-03    -229.310E-03     40.8810E-03
             389     2.14663E-03     93.5861E-03    -111.934E+06    -259.609E+06    -100.298E+06     449.983E+03    -230.150E-03     459.483E-03    -229.333E-03     68.2757E-03    -230.799E-03     459.104E-03    -229.296E-03     60.3803E-03
             390     2.86227E-03     93.6942E-03    -107.320E+06    -244.090E+06    -83.0523E+06     509.138E+03    -230.737E-03     460.107E-03    -229.370E-03     90.4422E-03    -231.894E-03     460.258E-03    -229.276E-03     79.7223E-03
             391     3.57810E-03     93.8322E-03    -100.800E+06    -232.047E+06    -66.9056E+06     560.602E+03    -231.466E-03     460.871E-03    -229.405E-03     112.374E-03    -233.288E-03     461.706E-03    -229.257E-03     98.6468E-03
             392     4.29371E-03     93.9990E-03    -93.8942E+06    -202.175E+06    -52.2700E+06     585.022E+03    -232.234E-03     461.642E-03    -229.408E-03     134.210E-03    -234.940E-03     463.448E-03    -229.240E-03     117.267E-03
             393     5.00943E-03     94.1949E-03    -87.2634E+06    -161.007E+06    -37.7120E+06     610.483E+03    -233.002E-03     462.395E-03    -229.393E-03     155.745E-03    -236.836E-03     465.457E-03    -229.222E-03     135.356E-03
             394     5.72522E-03     94.4188E-03    -80.2159E+06    -131.015E+06    -22.3276E+06     446.916E+03    -233.811E-03     463.215E-03    -229.404E-03     176.775E-03    -239.014E-03     467.733E-03    -229.210E-03     152.685E-03
             395     6.44072E-03     94.6696E-03    -72.8924E+06    -91.4809E+06    -5.84977E+06     284.090E+03    -234.437E-03     463.850E-03    -229.412E-03     197.485E-03    -241.301E-03     470.147E-03    -229.203E-03     169.517E-03
             396     7.15652E-03     94.9470E-03    -65.4558E+06    -40.2242E+06     12.0631E+06    -590.518E+03    -234.703E-03     464.103E-03    -229.400E-03     217.610E-03    -243.534E-03     472.524E-03    -229.186E-03     185.657E-03
             397     7.87210E-03     95.2484E-03    -57.3111E+06     7.54607E+06     29.5802E+06    -1.31673E+06    -234.734E-03     464.106E-03    -229.372E-03     236.737E-03    -245.794E-03     474.904E-03    -229.152E-03     200.810E-03
             398     8.58895E-03     95.5733E-03    -48.7110E+06     35.8113E+06     43.0491E+06    -299.925E+03    -234.745E-03     464.089E-03    -229.345E-03     253.947E-03    -248.164E-03     477.339E-03    -229.111E-03     214.291E-03
             399     9.30493E-03     95.9177E-03    -41.2282E+06     45.1770E+06     53.3676E+06     340.142E+03    -234.448E-03     463.786E-03    -229.338E-03     266.872E-03    -250.084E-03     479.282E-03    -229.077E-03     224.138E-03
             400     10.0201E-03     96.2746E-03    -34.9317E+06     49.9469E+06     63.7096E+06     2.84963E+03    -233.149E-03     462.487E-03    -229.338E-03     271.123E-03    -250.313E-03     479.519E-03    -229.041E-03     226.682E-03
             401     10.7370E-03     96.6262E-03    -27.7711E+06     55.4660E+06     73.9009E+06    -89.1476E+03    -231.083E-03     460.408E-03    -229.325E-03     262.178E-03    -248.468E-03     477.677E-03    -228.996E-03     217.873E-03
             402     11.4539E-03     96.9545E-03    -19.2412E+06     63.3132E+06     79.6367E+06      488.41E+03    -229.336E-03     458.634E-03    -229.298E-03     242.528E-03    -245.669E-03     474.893E-03    -228.964E-03     199.807E-03
             403     12.1682E-03     97.2505E-03    -13.0943E+06     70.9227E+06     81.9868E+06     458.591E+03    -227.907E-03     457.194E-03    -229.287E-03     212.620E-03    -241.913E-03     471.168E-03    -228.961E-03     172.954E-03
             404     12.8824E-03     97.4920E-03    -9.18554E+06     75.7243E+06     83.0249E+06    -311.983E+03    -226.333E-03     455.616E-03    -229.283E-03     186.564E-03    -238.284E-03     467.562E-03    -228.964E-03     149.484E-03
             405     13.6022E-03     97.7158E-03    -4.82856E+06     75.6422E+06     82.1385E+06    -344.354E+03    -225.877E-03     455.135E-03    -229.258E-03     126.606E-03    -233.373E-03     462.645E-03    -228.950E-03     97.3247E-03
             406     715.497E-06     94.9589E-03    -117.396E+06    -308.811E+06    -115.455E+06     341.515E+03    -229.707E-03     458.889E-03    -229.182E-03     24.9924E-03    -229.769E-03     457.774E-03    -229.142E-03     22.1350E-03
             407     1.43099E-03     95.0066E-03    -115.825E+06    -288.185E+06    -110.158E+06     100.394E+03    -229.787E-03     459.158E-03    -229.371E-03     46.1187E-03    -230.071E-03     458.327E-03    -229.336E-03     40.8499E-03
             408     2.14679E-03     95.0846E-03    -112.321E+06    -260.207E+06    -100.187E+06     172.020E+03    -230.207E-03     459.576E-03    -229.368E-03     68.3071E-03    -230.858E-03     459.195E-03    -229.329E-03     60.4024E-03
             409     2.86237E-03     95.1928E-03    -106.911E+06    -244.864E+06    -84.2813E+06     346.015E+03    -230.792E-03     460.194E-03    -229.403E-03     90.4610E-03    -231.943E-03     460.342E-03    -229.314E-03     79.7467E-03
             410     3.57788E-03     95.3306E-03    -100.863E+06    -232.800E+06    -67.4251E+06     723.983E+03    -231.515E-03     460.959E-03    -229.444E-03     112.396E-03    -233.335E-03     461.790E-03    -229.297E-03     98.6721E-03
             411     4.29361E-03     95.4977E-03    -94.2480E+06    -202.359E+06    -51.8541E+06     972.019E+03    -232.293E-03     461.745E-03    -229.452E-03     134.240E-03    -235.001E-03     463.551E-03    -229.281E-03     117.301E-03
             412     5.00923E-03     95.6937E-03    -87.0396E+06    -160.695E+06    -36.8905E+06     802.802E+03    -233.081E-03     462.521E-03    -229.440E-03     155.927E-03    -236.917E-03     465.585E-03    -229.266E-03     135.541E-03
             413     5.72477E-03     95.9177E-03    -79.7052E+06    -130.631E+06    -21.4304E+06     523.715E+03    -233.835E-03     463.283E-03    -229.448E-03     177.213E-03    -239.042E-03     467.805E-03    -229.250E-03     153.128E-03
             414     6.44051E-03     96.1689E-03    -72.1393E+06    -91.3556E+06    -5.17154E+06     356.882E+03    -234.332E-03     463.771E-03    -229.439E-03     197.996E-03    -241.202E-03     470.075E-03    -229.228E-03     170.040E-03
             415     7.15637E-03     96.4456E-03    -64.3908E+06    -38.0106E+06     13.2976E+06     186.319E+03    -234.587E-03     463.993E-03    -229.406E-03     218.066E-03    -243.429E-03     472.433E-03    -229.191E-03     186.135E-03
             416     7.87297E-03     96.7474E-03    -57.3077E+06     9.28386E+06     30.5518E+06    -695.178E+03    -234.795E-03     464.167E-03    -229.373E-03     236.868E-03    -245.869E-03     474.982E-03    -229.150E-03     200.926E-03
             417     8.58842E-03     97.0716E-03    -50.4486E+06     33.8065E+06     41.6661E+06    -1.56261E+06    -234.816E-03     464.164E-03    -229.349E-03     253.767E-03    -248.243E-03     477.411E-03    -229.116E-03     214.066E-03
             418     9.30426E-03     97.4172E-03    -42.4481E+06     43.5535E+06     51.6297E+06    -894.212E+03    -234.247E-03     463.584E-03    -229.337E-03     266.587E-03    -249.873E-03     479.065E-03    -229.081E-03     223.877E-03
             419     10.0215E-03     97.7729E-03    -34.0877E+06     50.3961E+06      63.697E+06    -79.1583E+03    -233.019E-03     462.352E-03    -229.333E-03     270.562E-03    -250.169E-03     479.375E-03    -229.038E-03     226.131E-03
             420     10.7374E-03     98.1250E-03    -26.8123E+06     56.5670E+06     74.9090E+06    -300.404E+03    -231.341E-03     460.675E-03    -229.334E-03     261.793E-03    -248.728E-03     477.950E-03    -229.003E-03     217.406E-03
             421     11.4522E-03     98.4537E-03    -21.3120E+06     61.6286E+06     78.1702E+06    -1.12250E+06    -229.364E-03     458.677E-03    -229.313E-03     242.696E-03    -245.691E-03     474.921E-03    -228.981E-03     199.973E-03
             422     12.1697E-03     98.7498E-03    -14.3875E+06     69.3368E+06     80.8225E+06    -95.1845E+03    -227.624E-03     456.914E-03    -229.289E-03     213.470E-03    -241.609E-03     470.859E-03    -228.965E-03     173.957E-03
             423     12.8865E-03     98.9948E-03    -8.09935E+06     77.5123E+06     84.2700E+06     901.376E+03    -226.361E-03     455.636E-03    -229.275E-03     187.480E-03    -238.387E-03     467.665E-03    -228.955E-03     150.293E-03
             424     13.5988E-03     99.2115E-03    -4.55494E+06     75.9140E+06     82.7003E+06    -231.631E+03    -225.773E-03     455.022E-03    -229.250E-03     127.624E-03    -233.356E-03     462.619E-03    -228.940E-03     98.1807E-03
             425     715.493E-06     96.4569E-03    -117.858E+06    -309.381E+06    -116.615E+06    -326.788E+03    -229.727E-03     458.963E-03    -229.236E-03     25.1136E-03    -229.789E-03     457.848E-03    -229.200E-03     22.2481E-03
             426     1.43119E-03     96.5053E-03    -114.766E+06    -287.946E+06    -110.147E+06    -41.7566E+03    -229.823E-03     459.228E-03    -229.405E-03     46.2130E-03    -230.101E-03     458.395E-03    -229.371E-03     40.9564E-03
             427     2.14647E-03     96.5832E-03    -111.544E+06    -260.378E+06    -99.8760E+06     177.690E+03    -230.249E-03     459.652E-03    -229.403E-03     68.2842E-03    -230.895E-03     459.267E-03    -229.363E-03     60.3842E-03
             428     2.86211E-03     96.6914E-03    -107.516E+06    -245.952E+06    -84.7356E+06     664.481E+03    -230.816E-03     460.253E-03    -229.436E-03     90.4409E-03    -231.968E-03     460.395E-03    -229.347E-03     79.7384E-03
             429     3.57781E-03     96.8293E-03    -101.490E+06    -233.395E+06    -67.9342E+06     625.765E+03    -231.540E-03     461.013E-03    -229.474E-03     112.520E-03    -233.362E-03     461.843E-03    -229.328E-03     98.7999E-03
             430     4.29332E-03     96.9964E-03    -94.0680E+06    -202.678E+06    -52.1537E+06     362.832E+03    -232.318E-03     461.796E-03    -229.478E-03     134.463E-03    -235.027E-03     463.603E-03    -229.309E-03     117.509E-03
             431     5.00908E-03     97.1925E-03    -86.3241E+06    -160.531E+06    -36.9062E+06     206.726E+03    -233.052E-03     462.512E-03    -229.459E-03     156.172E-03    -236.890E-03     465.581E-03    -229.286E-03     135.768E-03
             432     5.72495E-03     97.4168E-03    -78.5423E+06    -130.626E+06    -21.0129E+06     137.988E+03    -233.730E-03     463.185E-03    -229.455E-03     177.398E-03    -238.935E-03     467.709E-03    -229.257E-03     153.315E-03
             433     6.44085E-03     97.6677E-03    -70.6816E+06    -91.2637E+06    -4.36939E+06    -17.4905E+03    -234.263E-03     463.699E-03    -229.436E-03     197.900E-03    -241.127E-03     470.001E-03    -229.223E-03     169.939E-03
             434     7.15701E-03     97.9444E-03    -62.7261E+06    -38.3758E+06     13.7735E+06     148.816E+03    -234.652E-03     464.057E-03    -229.405E-03     217.691E-03    -243.482E-03     472.488E-03    -229.190E-03     185.736E-03
             435     7.87236E-03     98.2463E-03    -54.2882E+06     9.78448E+06     31.3784E+06     1.38645E+06    -234.846E-03     464.225E-03    -229.378E-03     236.672E-03    -245.907E-03     475.037E-03    -229.157E-03     200.742E-03
             436     8.58837E-03     98.5715E-03    -46.6064E+06     36.8128E+06     44.3574E+06     1.87988E+06    -234.731E-03     464.088E-03    -229.357E-03     253.895E-03    -248.153E-03     477.346E-03    -229.121E-03     214.260E-03
             437     9.30469E-03     98.9151E-03    -40.7571E+06     44.8875E+06     54.0039E+06     299.011E+03    -234.252E-03     463.595E-03    -229.343E-03     266.741E-03    -249.883E-03     479.084E-03    -229.079E-03     224.056E-03
             438     10.0201E-03     99.2712E-03    -34.5658E+06     50.0638E+06     64.2256E+06    -971.909E+03    -233.251E-03     462.592E-03    -229.341E-03     270.847E-03    -250.424E-03     479.634E-03    -229.042E-03     226.349E-03
             439     10.7360E-03     99.6237E-03    -27.1649E+06     56.5985E+06     75.0844E+06    -925.837E+03    -231.359E-03     460.704E-03    -229.345E-03     262.360E-03    -248.774E-03     478.006E-03    -229.012E-03     217.945E-03
             440     11.4534E-03     99.9529E-03    -19.6564E+06     63.3775E+06     80.4153E+06    -267.982E+03    -229.252E-03     458.573E-03    -229.321E-03     243.247E-03    -245.588E-03     474.831E-03    -228.982E-03     200.574E-03
             441     12.1684E-03     100.248E-03    -15.2502E+06     67.5569E+06     80.3761E+06    -516.898E+03    -227.616E-03     456.901E-03    -229.285E-03     213.379E-03    -241.583E-03     470.820E-03    -228.959E-03     173.890E-03
             442     12.8842E-03     100.493E-03    -10.2128E+06     75.5155E+06     82.3381E+06    -773.119E+03    -225.891E-03     455.146E-03    -229.256E-03     186.363E-03    -237.896E-03     467.145E-03    -228.939E-03     149.195E-03
             443     13.6034E-03     100.713E-03    -4.37014E+06     76.9766E+06     83.4984E+06     214.231E+03    -225.576E-03     454.800E-03    -229.224E-03     126.679E-03    -233.137E-03     462.377E-03    -228.912E-03     97.3124E-03
             444     715.616E-06     97.9559E-03    -116.559E+06    -307.151E+06    -115.267E+06    -888.224E+03    -229.760E-03     459.076E-03    -229.316E-03     25.0464E-03    -229.821E-03     457.968E-03    -229.278E-03     22.1669E-03
             445     1.43086E-03     98.0038E-03    -115.351E+06    -288.806E+06    -111.618E+06    -964.444E+03    -229.874E-03     459.328E-03    -229.455E-03     46.1235E-03    -230.150E-03     458.494E-03    -229.427E-03     40.8621E-03
             446     2.14666E-03     98.0822E-03    -112.552E+06    -262.110E+06    -101.410E+06     272.844E+03    -230.228E-03     459.671E-03    -229.443E-03     68.2509E-03    -230.874E-03     459.282E-03    -229.407E-03     60.3534E-03
             447     2.86213E-03     98.1900E-03    -106.953E+06    -245.664E+06    -84.2908E+06     390.498E+03    -230.792E-03     460.256E-03    -229.464E-03     90.4746E-03    -231.943E-03     460.399E-03    -229.374E-03     79.7648E-03
             448     3.57775E-03     98.3280E-03    -99.8493E+06    -232.974E+06    -67.3811E+06    -277.818E+03    -231.539E-03     461.029E-03    -229.490E-03     112.626E-03    -233.353E-03     461.857E-03    -229.344E-03     98.9007E-03
             449     4.29351E-03     98.4953E-03    -92.7741E+06    -202.304E+06    -52.2629E+06    -430.189E+03    -232.331E-03     461.819E-03    -229.488E-03     134.537E-03    -235.036E-03     463.628E-03    -229.321E-03     117.567E-03
             450     5.00912E-03     98.6914E-03    -85.6484E+06    -160.617E+06    -37.2957E+06    -493.828E+03    -233.058E-03     462.526E-03    -229.469E-03     156.112E-03    -236.895E-03     465.597E-03    -229.298E-03     135.680E-03
             451     5.72484E-03     98.9154E-03    -78.4187E+06    -130.740E+06    -21.6766E+06    -757.405E+03    -233.731E-03     463.196E-03    -229.465E-03     177.152E-03    -238.934E-03     467.720E-03    -229.270E-03     153.041E-03
             452     6.44065E-03     99.1664E-03    -71.0954E+06    -91.3865E+06    -5.16493E+06    -780.200E+03    -234.316E-03     463.768E-03    -229.452E-03     197.683E-03    -241.181E-03     470.071E-03    -229.242E-03     169.694E-03
             453     7.15601E-03     99.4434E-03    -63.7246E+06    -39.6592E+06     12.6306E+06    -444.119E+03    -234.651E-03     464.076E-03    -229.424E-03     217.708E-03    -243.488E-03     472.509E-03    -229.211E-03     185.733E-03
             454     7.87233E-03     99.7452E-03    -56.4207E+06     7.37177E+06     29.4238E+06    -251.400E+03    -234.669E-03     464.055E-03    -229.387E-03     236.846E-03    -245.735E-03     474.862E-03    -229.168E-03     200.924E-03
             455     8.58876E-03     100.070E-03    -47.9370E+06     35.1908E+06     41.7182E+06     338.967E+03    -234.556E-03     463.899E-03    -229.343E-03     253.835E-03    -247.972E-03     477.148E-03    -229.116E-03     214.206E-03
             456     9.30482E-03     100.414E-03    -38.5279E+06     46.2744E+06     53.4649E+06     1.79825E+06    -234.232E-03     463.556E-03    -229.323E-03     266.648E-03    -249.846E-03     479.042E-03    -229.067E-03     223.983E-03
             457     10.0213E-03     100.771E-03    -31.1030E+06     53.1938E+06     66.8874E+06     1.72347E+06    -233.208E-03     462.536E-03    -229.328E-03     271.226E-03    -250.367E-03     479.579E-03    -229.026E-03     226.806E-03
             458     10.7375E-03     101.123E-03    -25.5957E+06     57.4025E+06     77.1067E+06     531.971E+03    -231.366E-03     460.696E-03    -229.330E-03     262.625E-03    -248.792E-03     478.011E-03    -228.991E-03     218.226E-03
             459     11.4529E-03     101.450E-03    -21.1321E+06     61.4924E+06     79.0179E+06     443.513E+03    -229.360E-03     458.661E-03    -229.301E-03     243.294E-03    -245.726E-03     474.941E-03    -228.965E-03     200.550E-03
             460     12.1698E-03     101.749E-03    -14.4348E+06     68.2049E+06     81.5630E+06    -210.674E+03    -227.773E-03     457.052E-03    -229.279E-03     214.007E-03    -241.746E-03     470.980E-03    -228.949E-03     174.529E-03
             461     12.8852E-03     101.992E-03    -8.84923E+06     76.1020E+06     84.4229E+06    -424.801E+03    -226.289E-03     455.556E-03    -229.266E-03     186.260E-03    -238.274E-03     467.534E-03    -228.942E-03     149.133E-03
             462     13.5999E-03     102.207E-03    -4.88106E+06     76.7654E+06     83.3254E+06     253.397E+03    -225.731E-03     454.974E-03    -229.244E-03     125.707E-03    -233.293E-03     462.550E-03    -228.931E-03     96.2741E-03
             463     715.293E-06     99.4546E-03    -114.260E+06    -304.676E+06    -112.024E+06    -29.1318E+03    -229.749E-03     459.235E-03    -229.486E-03     25.1407E-03    -229.807E-03     458.132E-03    -229.439E-03     22.2722E-03
             464     1.43093E-03     99.5028E-03    -111.849E+06    -289.407E+06    -105.464E+06    -49.7012E+03    -229.883E-03     459.422E-03    -229.539E-03     46.1758E-03    -230.151E-03     458.571E-03    -229.485E-03     40.9148E-03
             465     2.14623E-03     99.5805E-03    -108.384E+06    -263.728E+06    -97.5678E+06    -71.0823E+03    -230.229E-03     459.722E-03    -229.494E-03     68.2711E-03    -230.859E-03     459.315E-03    -229.442E-03     60.3553E-03
             466     2.86205E-03     99.6888E-03    -103.938E+06    -244.479E+06    -84.8343E+06    -382.405E+03    -230.808E-03     460.287E-03    -229.479E-03     90.4761E-03    -231.945E-03     460.434E-03    -229.398E-03     79.7420E-03
             467     3.57772E-03     99.8266E-03    -98.6739E+06    -232.231E+06    -68.3335E+06    -542.417E+03    -231.596E-03     461.103E-03    -229.507E-03     112.568E-03    -233.404E-03     461.935E-03    -229.369E-03     98.8325E-03
             468     4.29323E-03     99.9942E-03    -92.4591E+06    -201.494E+06    -52.7204E+06    -748.743E+03    -232.356E-03     461.868E-03    -229.512E-03     134.410E-03    -235.060E-03     463.681E-03    -229.350E-03     117.428E-03
             469     5.00893E-03     100.190E-03    -85.7601E+06    -160.362E+06    -37.9493E+06    -1.00386E+06    -233.063E-03     462.556E-03    -229.494E-03     155.978E-03    -236.898E-03     465.628E-03    -229.327E-03     135.536E-03
             470     5.72460E-03     100.414E-03    -78.8206E+06    -130.700E+06    -22.3474E+06    -859.587E+03    -233.738E-03     463.227E-03    -229.489E-03     177.204E-03    -238.945E-03     467.755E-03    -229.297E-03     153.086E-03
             471     6.44027E-03     100.665E-03    -71.8832E+06    -91.5661E+06    -6.12668E+06    -636.221E+03    -234.250E-03     463.716E-03    -229.466E-03     198.036E-03    -241.123E-03     470.026E-03    -229.260E-03     170.057E-03
             472     7.15660E-03     100.943E-03    -64.5288E+06    -40.4558E+06     11.6464E+06    -397.748E+03    -234.548E-03     463.973E-03    -229.425E-03     218.004E-03    -243.387E-03     472.406E-03    -229.214E-03     186.061E-03
             473     7.87252E-03     101.244E-03    -56.5948E+06     7.65077E+06     29.5420E+06    -169.146E+03    -234.660E-03     464.042E-03    -229.382E-03     236.828E-03    -245.724E-03     474.847E-03    -229.164E-03     200.918E-03
             474     8.58840E-03     101.569E-03    -49.6654E+06     34.7960E+06     41.6800E+06    -928.179E+03    -234.596E-03     463.939E-03    -229.343E-03     253.854E-03    -248.017E-03     477.186E-03    -229.113E-03     214.212E-03
             475     9.30459E-03     101.913E-03    -43.6396E+06     42.8008E+06     49.2793E+06    -1.90627E+06    -234.177E-03     463.490E-03    -229.313E-03     266.602E-03    -249.802E-03     478.969E-03    -229.065E-03     223.894E-03
             476     10.0208E-03     102.269E-03    -36.4310E+06     51.2539E+06     60.0801E+06    -857.685E+03    -233.034E-03     462.334E-03    -229.300E-03     270.661E-03    -250.189E-03     479.368E-03    -229.021E-03     226.200E-03
             477     10.7372E-03     102.621E-03    -28.6247E+06     57.0184E+06     72.1018E+06     551.965E+03    -231.339E-03     460.644E-03    -229.306E-03     262.152E-03    -248.753E-03     477.950E-03    -228.986E-03     217.729E-03
             478     11.4534E-03     102.951E-03    -20.8096E+06     62.8450E+06     78.8648E+06    -115.997E+03    -229.515E-03     458.818E-03    -229.303E-03     242.833E-03    -245.887E-03     475.111E-03    -228.970E-03     199.988E-03
             479     12.1688E-03     103.245E-03    -14.8236E+06     68.3524E+06     81.5119E+06    -588.628E+03    -227.623E-03     456.915E-03    -229.292E-03     212.936E-03    -241.597E-03     470.843E-03    -228.962E-03     173.384E-03
             480     12.8858E-03     103.493E-03    -9.66797E+06     74.5951E+06     83.2993E+06    -54.7205E+03    -226.085E-03     455.356E-03    -229.271E-03     185.784E-03    -238.014E-03     467.274E-03    -228.949E-03     148.796E-03
             481     13.6006E-03     103.710E-03    -4.19029E+06     77.6576E+06     83.6843E+06     119.865E+03    -225.920E-03     455.167E-03    -229.247E-03     126.868E-03    -233.486E-03     462.752E-03    -228.935E-03     97.4022E-03
             482     715.479E-06     100.954E-03    -113.161E+06    -303.689E+06    -112.132E+06    -673.290E+03    -229.860E-03     459.273E-03    -229.413E-03     25.1797E-03    -229.914E-03     458.173E-03    -229.369E-03     22.3065E-03
             483     1.43084E-03     101.002E-03    -110.979E+06    -289.532E+06    -107.117E+06    -227.564E+03    -229.877E-03     459.419E-03    -229.542E-03     46.1548E-03    -230.139E-03     458.570E-03    -229.497E-03     40.8879E-03
             484     2.14657E-03     101.080E-03    -108.223E+06    -263.822E+06    -98.1304E+06    -241.197E+03    -230.289E-03     459.793E-03    -229.505E-03     68.2669E-03    -230.917E-03     459.386E-03    -229.456E-03     60.3472E-03
             485     2.86198E-03     101.187E-03    -104.306E+06    -243.831E+06    -84.3968E+06    -353.522E+03    -230.913E-03     460.425E-03    -229.512E-03     90.4747E-03    -232.054E-03     460.575E-03    -229.429E-03     79.7355E-03
             486     3.57748E-03     101.326E-03    -98.6089E+06    -231.354E+06    -68.2057E+06    -567.620E+03    -231.631E-03     461.178E-03    -229.547E-03     112.575E-03    -233.443E-03     462.016E-03    -229.410E-03     98.8288E-03
             487     4.29307E-03     101.493E-03    -91.9730E+06    -201.275E+06    -52.7772E+06    -892.770E+03    -232.326E-03     461.871E-03    -229.545E-03     134.530E-03    -235.030E-03     463.687E-03    -229.384E-03     117.544E-03
             488     5.00870E-03     101.689E-03    -85.2951E+06    -160.166E+06    -37.9693E+06    -585.655E+03    -232.992E-03     462.504E-03    -229.512E-03     156.196E-03    -236.827E-03     465.577E-03    -229.346E-03     135.775E-03
             489     5.72456E-03     101.913E-03    -78.8677E+06    -130.718E+06    -22.4966E+06     -241.18E+03    -233.654E-03     463.146E-03    -229.492E-03     177.435E-03    -238.862E-03     467.675E-03    -229.300E-03     153.346E-03
             490     6.44065E-03     102.164E-03    -72.1055E+06    -91.8591E+06    -6.18505E+06     33.3183E+03    -234.187E-03     463.646E-03    -229.459E-03     198.065E-03    -241.056E-03     469.951E-03    -229.252E-03     170.120E-03
             491     7.15642E-03     102.441E-03    -65.0074E+06    -40.0771E+06     11.8209E+06    -71.8671E+03    -234.535E-03     463.950E-03    -229.415E-03     217.912E-03    -243.369E-03     472.377E-03    -229.203E-03     185.992E-03
             492     7.87244E-03     102.743E-03    -57.5909E+06     7.84543E+06     29.2035E+06    -670.163E+03    -234.677E-03     464.050E-03    -229.373E-03     236.791E-03    -245.746E-03     474.857E-03    -229.155E-03     200.870E-03
             493     8.58877E-03     103.067E-03    -49.3861E+06     35.6270E+06     41.5218E+06    -167.885E+03    -234.606E-03     463.940E-03    -229.334E-03     253.856E-03    -248.031E-03     477.196E-03    -229.106E-03     214.213E-03
             494     9.30494E-03     103.412E-03    -41.5186E+06     45.1797E+06     52.4821E+06     308.465E+03    -234.248E-03     463.566E-03    -229.318E-03     266.717E-03    -249.874E-03     479.054E-03    -229.061E-03     224.037E-03
             495     10.0208E-03     103.767E-03    -34.8005E+06     50.0035E+06     64.9145E+06    -592.388E+03    -233.300E-03     462.629E-03    -229.329E-03     270.979E-03    -250.465E-03     479.659E-03    -229.026E-03     226.502E-03
             496     10.7367E-03     104.120E-03    -27.5102E+06     55.6430E+06     75.4991E+06    -1.00205E+06    -231.648E-03     460.991E-03    -229.343E-03     262.517E-03    -249.069E-03     478.292E-03    -229.006E-03     218.046E-03
             497     11.4528E-03     104.450E-03    -20.1548E+06     63.4969E+06     80.0608E+06    -181.392E+03    -229.597E-03     458.934E-03    -229.337E-03     242.877E-03    -245.976E-03     475.234E-03    -228.999E-03     200.012E-03
             498     12.1683E-03     104.747E-03    -14.9031E+06     68.7012E+06     81.0116E+06     125.618E+03    -227.468E-03     456.782E-03    -229.314E-03     213.226E-03    -241.473E-03     470.743E-03    -228.987E-03     173.695E-03
             499     12.8833E-03     104.989E-03    -9.90208E+06     74.9256E+06     82.5568E+06    -564.571E+03    -225.842E-03     455.120E-03    -229.278E-03     186.386E-03    -237.792E-03     467.062E-03    -228.960E-03     149.410E-03
             500     13.6028E-03     105.208E-03    -4.88313E+06     76.6604E+06     82.8820E+06    -601.128E+03    -225.925E-03     455.174E-03    -229.248E-03     125.784E-03    -233.458E-03     462.720E-03    -228.938E-03     96.3484E-03
             501     715.338E-06     102.453E-03    -112.453E+06    -302.793E+06    -110.578E+06     257.132E+03    -229.931E-03     459.280E-03    -229.349E-03     24.9208E-03    -229.984E-03     458.180E-03    -229.300E-03     22.0825E-03
             502     1.43088E-03     102.500E-03    -111.343E+06    -289.176E+06    -106.101E+06    -103.889E+03    -229.902E-03     459.457E-03    -229.555E-03     46.0437E-03    -230.167E-03     458.609E-03    -229.505E-03     40.7705E-03
             503     2.14629E-03     102.578E-03    -108.248E+06    -263.233E+06    -97.5334E+06    -459.918E+03    -230.328E-03     459.852E-03    -229.525E-03     68.2759E-03    -230.958E-03     459.446E-03    -229.474E-03     60.3552E-03
             504     2.86181E-03     102.687E-03    -103.437E+06    -243.005E+06    -83.5492E+06    -680.953E+03    -230.936E-03     460.470E-03    -229.534E-03     90.6028E-03    -232.076E-03     460.622E-03    -229.450E-03     79.8657E-03
             505     3.57733E-03     102.824E-03    -97.9647E+06    -231.323E+06    -67.6101E+06    -480.603E+03    -231.595E-03     461.157E-03    -229.562E-03     112.787E-03    -233.407E-03     461.996E-03    -229.422E-03     99.0355E-03
             506     4.29304E-03     102.992E-03    -92.2406E+06    -201.574E+06    -52.6978E+06    -186.668E+03    -232.251E-03     461.795E-03    -229.545E-03     134.728E-03    -234.956E-03     463.610E-03    -229.382E-03     117.766E-03
             507     5.00894E-03     103.188E-03    -86.1660E+06    -160.751E+06    -38.2385E+06     48.2396E+03    -232.950E-03     462.450E-03    -229.500E-03     156.296E-03    -236.786E-03     465.521E-03    -229.334E-03     135.898E-03
             508     5.72483E-03     103.412E-03    -79.4062E+06    -130.743E+06    -22.3846E+06     291.431E+03    -233.652E-03     463.131E-03    -229.479E-03     177.384E-03    -238.860E-03     467.658E-03    -229.286E-03     153.308E-03
             509     6.44052E-03     103.663E-03    -72.2604E+06    -91.5021E+06    -5.60108E+06     116.379E+03    -234.198E-03     463.649E-03    -229.451E-03     198.013E-03    -241.067E-03     469.953E-03    -229.241E-03     170.073E-03
             510     7.15655E-03     103.940E-03    -64.4210E+06    -39.9086E+06     12.5909E+06     150.264E+03    -234.515E-03     463.922E-03    -229.407E-03     218.009E-03    -243.350E-03     472.350E-03    -229.192E-03     186.094E-03
             511     7.87270E-03     104.241E-03    -56.3893E+06     8.60727E+06     30.3617E+06     495.183E+03    -234.662E-03     464.024E-03    -229.362E-03     236.917E-03    -245.728E-03     474.832E-03    -229.141E-03     201.021E-03
             512     8.58858E-03     104.566E-03    -49.3993E+06     35.7907E+06     42.0307E+06    -326.456E+03    -234.688E-03     464.014E-03    -229.325E-03     253.878E-03    -248.116E-03     477.271E-03    -229.095E-03     214.216E-03
             513     9.30468E-03     104.910E-03    -42.1443E+06     44.6944E+06     51.7947E+06    -952.533E+03    -234.371E-03     463.688E-03    -229.316E-03     266.548E-03    -250.004E-03     479.179E-03    -229.061E-03     223.796E-03
             514     10.0213E-03     105.267E-03    -33.6232E+06     51.5068E+06     64.2732E+06    -690.536E+03    -233.490E-03     462.827E-03    -229.337E-03     270.581E-03    -250.658E-03     479.872E-03    -229.042E-03     226.007E-03
             515     10.7370E-03     105.620E-03    -26.4114E+06     56.0708E+06     74.9683E+06    -795.515E+03    -231.805E-03     461.175E-03    -229.370E-03     262.176E-03    -249.233E-03     478.491E-03    -229.038E-03     217.626E-03
             516     11.4520E-03     105.950E-03    -20.6350E+06     60.6082E+06     78.9952E+06    -342.069E+03    -229.389E-03     458.757E-03    -229.368E-03     242.686E-03    -245.761E-03     475.042E-03    -229.031E-03     199.873E-03
             517     12.1688E-03     106.244E-03    -14.4016E+06     68.9491E+06     81.5751E+06     572.752E+03    -227.148E-03     456.481E-03    -229.333E-03     212.271E-03    -241.096E-03     470.386E-03    -229.004E-03     172.868E-03
             518     12.8872E-03     106.489E-03    -9.00442E+06     76.5725E+06     83.8215E+06     194.682E+03    -225.937E-03     455.230E-03    -229.292E-03     186.228E-03    -237.867E-03     467.156E-03    -228.971E-03     149.292E-03
             519     13.5980E-03     106.708E-03    -3.99157E+06     76.0555E+06     83.3923E+06    -483.812E+03    -225.849E-03     455.109E-03    -229.260E-03     127.059E-03    -233.407E-03     462.681E-03    -228.947E-03     97.6253E-03
             520     715.457E-06     103.952E-03    -112.810E+06    -304.644E+06    -111.036E+06     950.222E+03    -229.753E-03     459.232E-03    -229.479E-03     24.8445E-03    -229.804E-03     458.124E-03    -229.429E-03     22.0116E-03
             521     1.43084E-03     103.999E-03    -110.059E+06    -288.522E+06    -104.811E+06     878.051E+03    -229.898E-03     459.435E-03    -229.537E-03     46.1718E-03    -230.161E-03     458.586E-03    -229.483E-03     40.9055E-03
             522     2.14635E-03     104.077E-03    -107.289E+06    -261.738E+06    -96.0607E+06     94.2369E+03    -230.303E-03     459.808E-03    -229.506E-03     68.5405E-03    -230.932E-03     459.406E-03    -229.451E-03     60.6390E-03
             523     2.86196E-03     104.185E-03    -104.111E+06    -243.207E+06    -83.1888E+06     48.0561E+03    -230.861E-03     460.366E-03    -229.505E-03     90.8490E-03    -232.005E-03     460.518E-03    -229.417E-03     80.1334E-03
             524     3.57764E-03     104.324E-03    -99.2742E+06    -231.863E+06    -67.5757E+06     361.780E+03    -231.567E-03     461.093E-03    -229.526E-03     112.901E-03    -233.386E-03     461.933E-03    -229.384E-03     99.1635E-03
             525     4.29330E-03     104.491E-03    -93.0390E+06    -201.722E+06    -52.0005E+06     677.107E+03    -232.294E-03     461.812E-03    -229.518E-03     134.716E-03    -235.003E-03     463.626E-03    -229.351E-03     117.767E-03
             526     5.00900E-03     104.687E-03    -86.3292E+06    -160.862E+06    -36.9056E+06     771.973E+03    -232.991E-03     462.479E-03    -229.488E-03     156.228E-03    -236.831E-03     465.548E-03    -229.314E-03     135.831E-03
             527     5.72467E-03     104.911E-03    -79.3723E+06    -130.766E+06    -21.5286E+06     579.957E+03    -233.650E-03     463.120E-03    -229.470E-03     177.366E-03    -238.859E-03     467.645E-03    -229.273E-03     153.295E-03
             528     6.44069E-03     105.162E-03    -72.0754E+06    -90.7308E+06    -5.03885E+06     356.651E+03    -234.165E-03     463.603E-03    -229.438E-03     198.074E-03    -241.037E-03     469.912E-03    -229.227E-03     170.140E-03
             529     7.15671E-03     105.438E-03    -64.8302E+06    -40.0062E+06     12.7918E+06    -59.6992E+03    -234.510E-03     463.904E-03    -229.394E-03     217.978E-03    -243.346E-03     472.331E-03    -229.178E-03     186.060E-03
             530     7.87274E-03     105.740E-03    -56.9557E+06     7.99192E+06     30.3335E+06    -348.195E+03    -234.734E-03     464.088E-03    -229.355E-03     236.821E-03    -245.798E-03     474.891E-03    -229.132E-03     200.902E-03
             531     8.58907E-03     106.065E-03    -48.0977E+06     37.1349E+06     44.3580E+06     134.953E+03    -234.843E-03     464.180E-03    -229.336E-03     253.652E-03    -248.266E-03     477.434E-03    -229.098E-03     213.964E-03
             532     9.30487E-03     106.409E-03    -40.1553E+06     46.2936E+06     55.5578E+06    -215.655E+03    -234.645E-03     463.997E-03    -229.352E-03     266.332E-03    -250.286E-03     479.499E-03    -229.083E-03     223.514E-03
             533     10.0198E-03     106.765E-03    -34.0888E+06     51.4432E+06     65.2980E+06    -1.07932E+06    -233.667E-03     463.049E-03    -229.382E-03     270.784E-03    -250.863E-03     480.117E-03    -229.080E-03     226.148E-03
             534     10.7353E-03     107.119E-03    -27.7636E+06     55.4611E+06     73.9739E+06    -601.708E+03    -231.492E-03     460.889E-03    -229.398E-03     262.471E-03    -248.925E-03     478.206E-03    -229.068E-03     218.005E-03
             535     11.4523E-03     107.448E-03    -21.0215E+06     60.2241E+06     78.1837E+06    -208.719E+03    -229.088E-03     458.457E-03    -229.369E-03     243.293E-03    -245.459E-03     474.740E-03    -229.035E-03     200.582E-03
             536     12.1678E-03     107.743E-03    -14.8728E+06     67.9927E+06     80.3528E+06    -518.162E+03    -227.445E-03     456.770E-03    -229.325E-03     213.427E-03    -241.440E-03     470.721E-03    -229.001E-03     173.926E-03
             537     12.8815E-03     107.985E-03    -8.28432E+06     76.6521E+06     83.7652E+06    -257.405E+03    -225.735E-03     455.021E-03    -229.286E-03     186.906E-03    -237.680E-03     466.965E-03    -228.966E-03     149.985E-03
             538     13.6044E-03     108.208E-03    -3.39536E+06     76.4578E+06     83.6347E+06     215.666E+03    -225.242E-03     454.473E-03    -229.230E-03     127.279E-03    -232.773E-03     462.020E-03    -228.918E-03     98.0231E-03
             539     715.417E-06     105.451E-03    -115.659E+06    -307.801E+06    -114.536E+06     638.781E+03    -229.583E-03     459.031E-03    -229.448E-03     24.9381E-03    -229.640E-03     457.917E-03    -229.407E-03     22.0903E-03
             540     1.43104E-03     105.498E-03    -114.588E+06    -288.578E+06    -110.709E+06     566.364E+03    -229.849E-03     459.280E-03    -229.431E-03     46.2636E-03    -230.126E-03     458.446E-03    -229.400E-03     40.9997E-03
             541     2.14664E-03     105.576E-03    -111.673E+06    -261.013E+06    -99.5997E+06     432.359E+03    -230.263E-03     459.692E-03    -229.429E-03     68.4672E-03    -230.910E-03     459.305E-03    -229.387E-03     60.5731E-03
             542     2.86221E-03     105.684E-03    -106.386E+06    -244.768E+06    -82.5637E+06     815.416E+03    -230.832E-03     460.295E-03    -229.462E-03     90.6833E-03    -231.985E-03     460.441E-03    -229.366E-03     79.9759E-03
             543     3.57779E-03     105.822E-03    -100.009E+06    -232.199E+06    -66.0345E+06     1.11413E+06    -231.555E-03     461.048E-03    -229.494E-03     112.749E-03    -233.376E-03     461.882E-03    -229.342E-03     99.0339E-03
             544     4.29338E-03     105.989E-03    -93.3098E+06    -201.922E+06    -50.8596E+06     1.19101E+06    -232.316E-03     461.808E-03    -229.492E-03     134.688E-03    -235.028E-03     463.620E-03    -229.318E-03     117.746E-03
             545     5.00900E-03     106.186E-03    -86.2527E+06    -160.881E+06    -36.0140E+06     1.00196E+06    -233.012E-03     462.479E-03    -229.467E-03     156.319E-03    -236.855E-03     465.549E-03    -229.289E-03     135.920E-03
             546     5.72498E-03     106.409E-03    -79.0833E+06    -130.382E+06    -20.6207E+06     813.707E+03    -233.672E-03     463.126E-03    -229.454E-03     177.393E-03    -238.882E-03     467.652E-03    -229.253E-03     153.322E-03
             547     6.44083E-03     106.660E-03    -71.9510E+06     -90.757E+06    -4.55697E+06     827.812E+03    -234.233E-03     463.661E-03    -229.428E-03     197.946E-03    -241.104E-03     469.968E-03    -229.215E-03     170.004E-03
             548     7.15675E-03     106.937E-03    -64.3969E+06    -38.5920E+06     13.9503E+06     683.033E+03    -234.635E-03     464.033E-03    -229.399E-03     217.748E-03    -243.474E-03     472.467E-03    -229.180E-03     185.802E-03
             549     7.87274E-03     107.239E-03    -56.6436E+06     9.78169E+06     32.1364E+06    -379.374E+03    -234.890E-03     464.269E-03    -229.379E-03     236.576E-03    -245.959E-03     475.078E-03    -229.150E-03     200.615E-03
             550     8.58826E-03     107.564E-03    -49.0765E+06     36.2845E+06     43.7025E+06    -1.60332E+06    -234.930E-03     464.296E-03    -229.366E-03     253.543E-03    -248.354E-03     477.548E-03    -229.129E-03     213.810E-03
             551     9.30401E-03     107.909E-03    -41.3164E+06     45.3352E+06     52.8729E+06    -816.553E+03    -234.550E-03     463.918E-03    -229.369E-03     266.653E-03    -250.194E-03     479.423E-03    -229.110E-03     223.857E-03
             552     10.0204E-03     108.266E-03    -33.4715E+06     52.2038E+06     65.0261E+06     390.118E+03    -233.346E-03     462.727E-03    -229.381E-03     271.522E-03    -250.546E-03     479.806E-03    -229.083E-03     227.004E-03
             553     10.7367E-03     108.618E-03    -26.5565E+06     55.4635E+06     75.0479E+06     133.678E+03    -231.265E-03     460.642E-03    -229.377E-03     263.036E-03    -248.697E-03     477.959E-03    -229.044E-03     218.670E-03
             554     11.4527E-03     108.946E-03    -20.0931E+06     61.2088E+06     78.8928E+06    -603.491E+03    -229.025E-03     458.356E-03    -229.332E-03     243.603E-03    -245.384E-03     474.633E-03    -228.997E-03     200.942E-03
             555     12.1700E-03     109.243E-03    -13.5064E+06     69.0234E+06     81.2179E+06    -687.236E+03    -227.247E-03     456.526E-03    -229.279E-03     213.972E-03    -241.253E-03     470.494E-03    -228.953E-03     174.499E-03
             556     12.8881E-03     109.487E-03    -9.15285E+06     74.5423E+06     82.3952E+06     74.4666E+03    -225.916E-03     455.152E-03    -229.236E-03     186.714E-03    -237.863E-03     467.093E-03    -228.919E-03     149.757E-03
             557     13.5986E-03     109.701E-03    -4.69427E+06     75.7405E+06     82.7531E+06     335.358E+03    -225.643E-03     454.845E-03    -229.202E-03     127.118E-03    -233.186E-03     462.401E-03    -228.891E-03     97.7426E-03
             558     715.728E-06     106.949E-03    -117.585E+06    -309.521E+06    -116.402E+06     60.2331E+03    -229.602E-03     458.899E-03    -229.298E-03     24.9135E-03    -229.663E-03     457.782E-03    -229.260E-03     22.0633E-03
             559     1.43114E-03     106.997E-03    -115.247E+06    -288.899E+06    -110.026E+06     447.511E+03    -229.850E-03     459.238E-03    -229.388E-03     46.1385E-03    -230.129E-03     458.402E-03    -229.352E-03     40.8763E-03
             560     2.14657E-03     107.075E-03    -111.827E+06    -261.466E+06    -99.4302E+06     437.713E+03    -230.249E-03     459.650E-03    -229.401E-03     68.3642E-03    -230.897E-03     459.261E-03    -229.357E-03     60.4670E-03
             561     2.86212E-03     107.183E-03    -107.106E+06    -246.181E+06    -83.8851E+06     747.631E+03    -230.850E-03     460.287E-03    -229.438E-03     90.6271E-03    -232.001E-03     460.428E-03    -229.345E-03     79.9199E-03
             562     3.57779E-03     107.321E-03    -100.896E+06    -233.030E+06    -66.7417E+06     1.24197E+06    -231.558E-03     461.037E-03    -229.479E-03     112.666E-03    -233.381E-03     461.868E-03    -229.329E-03     98.9564E-03
             563     4.29351E-03     107.488E-03    -93.8163E+06    -201.912E+06    -50.9365E+06     965.006E+03    -232.264E-03     461.743E-03    -229.480E-03     134.542E-03    -234.977E-03     463.554E-03    -229.305E-03     117.597E-03
             564     5.00942E-03     107.684E-03    -86.3378E+06    -160.594E+06    -35.9338E+06     450.668E+03    -232.999E-03     462.453E-03    -229.454E-03     156.074E-03    -236.838E-03     465.520E-03    -229.276E-03     135.675E-03
             565     5.72500E-03     107.908E-03    -78.5321E+06    -130.702E+06    -20.1987E+06     372.254E+03    -233.741E-03     463.192E-03    -229.451E-03     177.126E-03    -238.946E-03     467.713E-03    -229.248E-03     153.035E-03
             566     6.44074E-03     108.159E-03    -70.1932E+06    -91.2603E+06    -3.35428E+06     545.307E+03    -234.338E-03     463.778E-03    -229.441E-03     197.784E-03    -241.202E-03     470.079E-03    -229.223E-03     169.814E-03
             567     7.15649E-03     108.436E-03    -61.4945E+06    -38.6757E+06     15.1529E+06     802.577E+03    -234.741E-03     464.159E-03    -229.418E-03     217.823E-03    -243.572E-03     472.591E-03    -229.197E-03     185.857E-03
             568     7.87212E-03     108.738E-03    -53.1178E+06     11.3334E+06     33.1386E+06     1.51619E+06    -234.923E-03     464.317E-03    -229.395E-03     236.969E-03    -245.986E-03     475.136E-03    -229.169E-03     201.038E-03
             569     8.58822E-03     109.063E-03    -46.0652E+06     38.6698E+06     45.9200E+06     1.89538E+06    -234.819E-03     464.193E-03    -229.374E-03     254.293E-03    -248.250E-03     477.464E-03    -229.133E-03     214.650E-03
             570     9.30431E-03     109.408E-03    -40.3118E+06     45.9166E+06     54.8673E+06     635.457E+03    -234.284E-03     463.638E-03    -229.355E-03     267.466E-03    -249.934E-03     479.149E-03    -229.088E-03     224.782E-03
             571     10.0205E-03     109.764E-03    -34.0448E+06     51.4930E+06     64.9674E+06    -423.809E+03    -233.109E-03     462.445E-03    -229.337E-03     271.831E-03    -250.301E-03     479.511E-03    -229.037E-03     227.392E-03
             572     10.7371E-03     110.117E-03    -26.6108E+06     56.2336E+06     75.2596E+06    -387.398E+03    -231.232E-03     460.555E-03    -229.323E-03     262.883E-03    -248.665E-03     477.875E-03    -228.990E-03     218.501E-03
             573     11.4533E-03     110.446E-03    -19.9790E+06     62.3193E+06     79.5895E+06    -415.202E+03    -229.091E-03     458.378E-03    -229.287E-03     243.371E-03    -245.465E-03     474.671E-03    -228.950E-03     200.652E-03
             574     12.1688E-03     110.740E-03    -15.1170E+06     67.6080E+06     80.2365E+06    -157.080E+03    -227.236E-03     456.476E-03    -229.240E-03     213.609E-03    -241.262E-03     470.455E-03    -228.915E-03     174.094E-03
             575     12.8838E-03     110.984E-03    -10.2448E+06     73.5726E+06     82.1831E+06     30.6311E+03    -226.077E-03     455.288E-03    -229.211E-03     185.994E-03    -238.027E-03     467.224E-03    -228.892E-03     148.968E-03
             576     13.6047E-03     111.204E-03    -4.85640E+06     76.2424E+06     83.3700E+06    -43.6629E+03    -226.011E-03     455.207E-03    -229.196E-03     126.557E-03    -233.530E-03     462.738E-03    -228.883E-03     97.1818E-03
             577     715.453E-06     108.448E-03    -118.472E+06    -306.681E+06    -117.189E+06    -1.99283E+06    -229.711E-03     458.968E-03    -229.257E-03     24.9618E-03    -229.780E-03     457.868E-03    -229.226E-03     22.0694E-03
             578     1.43096E-03     108.496E-03    -115.458E+06    -290.517E+06    -111.900E+06    -1.32878E+06    -229.820E-03     459.228E-03    -229.408E-03     46.1639E-03    -230.096E-03     458.387E-03    -229.379E-03     40.8729E-03
             579     2.14668E-03     108.573E-03    -112.115E+06    -263.209E+06    -101.102E+06     449.109E+03    -230.261E-03     459.668E-03    -229.407E-03     68.3002E-03    -230.904E-03     459.272E-03    -229.369E-03     60.4077E-03
             580     2.86232E-03     108.682E-03    -107.289E+06    -246.519E+06    -84.2455E+06     812.883E+03    -230.869E-03     460.319E-03    -229.450E-03     90.4737E-03    -232.019E-03     460.457E-03    -229.358E-03     79.7698E-03
             581     3.57779E-03     108.820E-03    -100.403E+06    -233.268E+06    -67.3156E+06     55.0934E+03    -231.570E-03     461.061E-03    -229.492E-03     112.512E-03    -233.388E-03     461.891E-03    -229.344E-03     98.7753E-03
             582     4.29337E-03     108.987E-03    -92.4804E+06    -201.817E+06    -51.5869E+06    -218.067E+03    -232.289E-03     461.781E-03    -229.492E-03     134.392E-03    -234.993E-03     463.590E-03    -229.323E-03     117.426E-03
             583     5.00893E-03     109.183E-03    -84.7019E+06    -160.323E+06    -35.9803E+06    -152.697E+03    -233.005E-03     462.474E-03    -229.469E-03     155.996E-03    -236.833E-03     465.537E-03    -229.294E-03     135.593E-03
             584     5.72479E-03     109.407E-03    -77.1957E+06    -130.845E+06    -20.1562E+06    -224.286E+03    -233.709E-03     463.172E-03    -229.462E-03     177.220E-03    -238.908E-03     467.691E-03    -229.261E-03     153.125E-03
             585     6.44055E-03     109.658E-03    -69.8941E+06    -91.9750E+06    -3.97813E+06    -261.820E+03    -234.308E-03     463.750E-03    -229.443E-03     198.107E-03    -241.171E-03     470.051E-03    -229.228E-03     170.138E-03
             586     7.15641E-03     109.935E-03    -62.9752E+06    -39.8786E+06     13.5802E+06    -38.7606E+03    -234.688E-03     464.096E-03    -229.409E-03     218.322E-03    -243.526E-03     472.531E-03    -229.192E-03     186.375E-03
             587     7.87264E-03     110.237E-03    -55.9068E+06     9.12669E+06     30.8313E+06     342.482E+03    -234.766E-03     464.137E-03    -229.370E-03     237.353E-03    -245.843E-03     474.957E-03    -229.148E-03     201.436E-03
             588     8.58883E-03     110.562E-03    -47.3740E+06     37.3279E+06     43.2738E+06     995.886E+03    -234.547E-03     463.873E-03    -229.326E-03     254.347E-03    -247.978E-03     477.143E-03    -229.095E-03     214.729E-03
             589     9.30529E-03     110.906E-03    -38.2925E+06     47.7358E+06     54.4870E+06     2.15667E+06    -234.107E-03     463.403E-03    -229.295E-03     267.186E-03    -249.741E-03     478.912E-03    -229.037E-03     224.544E-03
             590     10.0219E-03     111.263E-03    -31.1603E+06     53.6688E+06     67.3865E+06     2.34360E+06    -233.123E-03     462.412E-03    -229.289E-03     271.546E-03    -250.295E-03     479.469E-03    -228.985E-03     227.149E-03
             591     10.7374E-03     111.616E-03    -26.0668E+06     57.4400E+06     77.0954E+06     1.15595E+06    -231.174E-03     460.454E-03    -229.280E-03     262.851E-03    -248.596E-03     477.764E-03    -228.940E-03     218.531E-03
             592     11.4539E-03     111.944E-03    -20.6248E+06     62.5309E+06     80.0860E+06     628.946E+03    -229.142E-03     458.383E-03    -229.242E-03     243.612E-03    -245.526E-03     474.684E-03    -228.902E-03     200.917E-03
             593     12.1707E-03     112.240E-03    -14.6189E+06     68.1293E+06     81.2862E+06     891.048E+03    -227.507E-03     456.712E-03    -229.205E-03     214.028E-03    -241.536E-03     470.695E-03    -228.876E-03     174.528E-03
             594     12.8876E-03     112.485E-03    -9.12750E+06     74.5224E+06     83.6158E+06     299.701E+03    -226.300E-03     455.487E-03    -229.188E-03     187.451E-03    -238.314E-03     467.491E-03    -228.864E-03     150.343E-03
             595     13.5985E-03     112.701E-03    -4.60606E+06     76.0402E+06     83.6372E+06    -437.020E+03    -226.332E-03     455.513E-03    -229.181E-03     127.051E-03    -233.895E-03     463.087E-03    -228.866E-03     97.6108E-03
             596     715.442E-06     109.946E-03    -113.743E+06    -299.863E+06    -111.210E+06    -1.33198E+06    -229.885E-03     459.002E-03    -229.117E-03     25.2305E-03    -229.949E-03     457.921E-03    -229.073E-03     22.3449E-03
             597     1.43111E-03     109.994E-03    -112.047E+06    -291.647E+06    -105.524E+06    -1.69239E+06    -229.900E-03     459.355E-03    -229.455E-03     46.2635E-03    -230.167E-03     458.495E-03    -229.397E-03     40.9666E-03
             598     2.14647E-03     110.072E-03    -108.412E+06    -266.928E+06    -97.8132E+06    -173.694E+03    -230.349E-03     459.809E-03    -229.460E-03     68.3174E-03    -230.974E-03     459.385E-03    -229.405E-03     60.4104E-03
             599     2.86184E-03     110.181E-03    -102.925E+06    -244.795E+06    -84.1830E+06    -300.493E+03    -230.879E-03     460.357E-03    -229.478E-03     90.4765E-03    -232.011E-03     460.498E-03    -229.395E-03     79.7540E-03
             600     3.57758E-03     110.318E-03    -96.6409E+06    -232.430E+06    -67.3123E+06    -964.438E+03    -231.540E-03     461.048E-03    -229.508E-03     112.614E-03    -233.340E-03     461.875E-03    -229.367E-03     98.8731E-03
             601     4.29323E-03     110.486E-03    -90.4072E+06    -201.936E+06    -52.2114E+06    -708.459E+03    -232.257E-03     461.752E-03    -229.495E-03     134.652E-03    -234.951E-03     463.559E-03    -229.332E-03     117.693E-03
             602     5.00908E-03     110.682E-03    -84.0929E+06    -160.794E+06    -37.3076E+06    -318.294E+03    -232.950E-03     462.407E-03    -229.458E-03     156.391E-03    -236.776E-03     465.473E-03    -229.289E-03     135.999E-03
             603     5.72487E-03     110.906E-03    -77.4602E+06    -131.301E+06    -21.2914E+06    -46.6924E+03    -233.666E-03     463.107E-03    -229.441E-03     177.651E-03    -238.867E-03     467.628E-03    -229.244E-03     153.576E-03
             604     6.44088E-03     111.157E-03    -70.8883E+06    -92.0034E+06    -4.77110E+06     325.329E+03    -234.272E-03     463.688E-03    -229.416E-03     198.336E-03    -241.140E-03     469.992E-03    -229.204E-03     170.390E-03
             605     7.15696E-03     111.434E-03    -63.9519E+06    -40.1774E+06     12.7651E+06     573.819E+03    -234.587E-03     463.963E-03    -229.376E-03     218.295E-03    -243.425E-03     472.395E-03    -229.162E-03     186.376E-03
             606     7.87281E-03     111.736E-03    -55.9395E+06     9.02885E+06     30.5954E+06     491.823E+03    -234.603E-03     463.934E-03    -229.331E-03     237.226E-03    -245.675E-03     474.751E-03    -229.110E-03     201.339E-03
             607     8.58895E-03     112.061E-03    -48.8822E+06     36.8119E+06     43.0400E+06    -58.5885E+03    -234.519E-03     463.805E-03    -229.286E-03     254.236E-03    -247.953E-03     477.071E-03    -229.053E-03     214.616E-03
             608     9.30520E-03     112.404E-03    -42.9816E+06     44.9519E+06     50.6238E+06    -604.235E+03    -234.237E-03     463.492E-03    -229.255E-03     267.051E-03    -249.890E-03     479.005E-03    -229.005E-03     224.327E-03
             609     10.0211E-03     112.762E-03    -36.3106E+06     51.7541E+06     60.4829E+06     112.553E+03    -233.050E-03     462.295E-03    -229.245E-03     271.021E-03    -250.234E-03     479.358E-03    -228.965E-03     226.546E-03
             610     10.7383E-03     113.114E-03    -28.1860E+06     58.2316E+06     73.4869E+06     1.06871E+06    -231.156E-03     460.408E-03    -229.251E-03     261.975E-03    -248.565E-03     477.710E-03    -228.928E-03     217.605E-03
             611     11.4546E-03     113.442E-03    -20.6701E+06     63.0362E+06     79.6324E+06     588.864E+03    -229.311E-03     458.554E-03    -229.243E-03     242.236E-03    -245.663E-03     474.825E-03    -228.906E-03     199.470E-03
             612     12.1700E-03     113.739E-03    -14.4251E+06     68.9478E+06     81.4782E+06     72.7964E+03    -227.380E-03     456.603E-03    -229.224E-03     211.688E-03    -241.337E-03     470.518E-03    -228.895E-03     172.155E-03
             613     12.8856E-03     113.981E-03    -8.96568E+06     75.0123E+06     83.9015E+06    -90.6287E+03    -226.159E-03     455.370E-03    -229.212E-03     185.395E-03    -238.101E-03     467.303E-03    -228.888E-03     148.298E-03
             614     13.6060E-03     114.205E-03    -4.95304E+06     75.6418E+06     83.2861E+06     256.525E+03    -226.876E-03     456.096E-03    -229.220E-03     125.162E-03    -234.388E-03     463.618E-03    -228.906E-03     95.7511E-03
             615     715.764E-06     111.445E-03    -108.882E+06    -298.840E+06    -106.710E+06     1.33174E+06    -230.078E-03     459.077E-03    -228.999E-03     25.0847E-03    -230.125E-03     457.987E-03    -228.941E-03     22.2447E-03
             616     1.43091E-03     111.493E-03    -107.208E+06    -291.019E+06    -99.6880E+06     920.288E+03    -229.941E-03     459.441E-03    -229.500E-03     46.1952E-03    -230.192E-03     458.567E-03    -229.421E-03     40.9401E-03
             617     2.14641E-03     111.571E-03    -104.254E+06    -267.124E+06    -93.4295E+06    -580.971E+03    -230.318E-03     459.807E-03    -229.489E-03     68.5174E-03    -230.929E-03     459.370E-03    -229.417E-03     60.6058E-03
             618     2.86213E-03     111.679E-03    -100.697E+06    -243.388E+06    -83.9834E+06    -1.11342E+06    -230.842E-03     460.310E-03    -229.468E-03     90.6983E-03    -231.966E-03     460.456E-03    -229.389E-03     79.9710E-03
             619     3.57768E-03     111.817E-03    -96.3299E+06    -232.354E+06    -68.3106E+06    -566.779E+03    -231.474E-03     460.958E-03    -229.484E-03     112.786E-03    -233.272E-03     461.787E-03    -229.349E-03     99.0644E-03
             620     4.29350E-03     111.984E-03    -91.0203E+06    -202.495E+06    -52.6682E+06    -148.206E+03    -232.140E-03     461.601E-03    -229.461E-03     134.816E-03    -234.836E-03     463.408E-03    -229.298E-03     117.880E-03
             621     5.00934E-03     112.180E-03    -84.9433E+06    -161.087E+06    -37.8380E+06     139.887E+03    -232.882E-03     462.295E-03    -229.413E-03     156.472E-03    -236.710E-03     465.360E-03    -229.245E-03     136.098E-03
             622     5.72537E-03     112.404E-03    -78.5519E+06    -131.641E+06    -22.1284E+06     405.772E+03    -233.680E-03     463.075E-03    -229.396E-03     177.702E-03    -238.882E-03     467.596E-03    -229.201E-03     153.645E-03
             623     6.44104E-03     112.656E-03    -71.4185E+06    -92.9559E+06    -5.61697E+06     698.836E+03    -234.281E-03     463.658E-03    -229.377E-03     198.371E-03    -241.153E-03     469.963E-03    -229.166E-03     170.422E-03
             624     7.15676E-03     112.933E-03    -63.6513E+06    -40.1263E+06     12.8392E+06     814.960E+03    -234.539E-03     463.880E-03    -229.341E-03     218.320E-03    -243.383E-03     472.319E-03    -229.126E-03     186.395E-03
             625     7.87315E-03     113.234E-03    -56.3502E+06     9.16189E+06     30.5163E+06     763.788E+03    -234.588E-03     463.885E-03    -229.297E-03     237.108E-03    -245.662E-03     474.704E-03    -229.076E-03     201.217E-03
             626     8.58974E-03     113.559E-03    -48.6722E+06     37.1429E+06     42.7264E+06     1.37315E+06    -234.639E-03     463.898E-03    -229.259E-03     253.998E-03    -248.070E-03     477.165E-03    -229.029E-03     214.364E-03
             627     9.30562E-03     113.904E-03    -40.9187E+06     46.7744E+06     53.8649E+06     1.61443E+06    -234.369E-03     463.625E-03    -229.256E-03     266.796E-03    -250.017E-03     479.138E-03    -228.995E-03     224.073E-03
             628     10.0218E-03     114.260E-03    -33.8647E+06     51.8448E+06     66.5419E+06     606.938E+03    -233.374E-03     462.657E-03    -229.283E-03     270.585E-03    -250.557E-03     479.711E-03    -228.976E-03     226.055E-03
             629     10.7371E-03     114.611E-03    -27.3367E+06     57.1797E+06     76.7648E+06     157.159E+03    -231.689E-03     461.002E-03    -229.313E-03     261.572E-03    -249.114E-03     478.310E-03    -228.973E-03     217.058E-03
             630     11.4524E-03     114.942E-03    -21.0771E+06     64.0347E+06     80.2544E+06     477.565E+03    -229.691E-03     459.013E-03    -229.321E-03     241.958E-03    -246.062E-03     475.303E-03    -228.982E-03     199.077E-03
             631     12.1683E-03     115.237E-03    -15.4366E+06     69.1099E+06     80.6367E+06    -125.647E+03    -227.750E-03     457.070E-03    -229.320E-03     211.351E-03    -241.763E-03     471.040E-03    -228.995E-03     171.602E-03
             632     12.8847E-03     115.481E-03    -11.0286E+06     74.1223E+06     81.8859E+06    -65.5733E+03    -226.553E-03     455.878E-03    -229.326E-03     185.316E-03    -238.514E-03     467.826E-03    -229.008E-03     148.120E-03
             633     13.5957E-03     115.701E-03    -5.09617E+06     76.1076E+06     83.2124E+06     40.7127E+03    -226.242E-03     455.569E-03    -229.327E-03     125.780E-03    -233.743E-03     463.081E-03    -229.014E-03     96.4347E-03
             634     715.150E-06     112.944E-03    -113.220E+06    -305.458E+06    -111.709E+06     2.06309E+06    -229.985E-03     459.229E-03    -229.245E-03     24.9450E-03    -230.036E-03     458.119E-03    -229.196E-03     22.1127E-03
             635     1.43095E-03     112.992E-03    -111.300E+06    -289.593E+06    -106.696E+06     1.79549E+06    -229.782E-03     459.288E-03    -229.506E-03     46.1924E-03    -230.045E-03     458.438E-03    -229.458E-03     40.9571E-03
             636     2.14661E-03     113.070E-03    -108.514E+06    -262.880E+06    -96.9508E+06    -336.977E+03    -230.160E-03     459.604E-03    -229.444E-03     68.5117E-03    -230.793E-03     459.200E-03    -229.391E-03     60.6087E-03
             637     2.86213E-03     113.178E-03    -104.522E+06    -244.305E+06    -82.7371E+06    -507.376E+03    -230.708E-03     460.136E-03    -229.428E-03     90.7154E-03    -231.852E-03     460.282E-03    -229.336E-03     80.0023E-03
             638     3.57790E-03     113.316E-03    -99.4136E+06    -233.175E+06    -67.6425E+06     207.363E+03    -231.412E-03     460.845E-03    -229.433E-03     112.816E-03    -233.227E-03     461.675E-03    -229.289E-03     99.1016E-03
             639     4.29367E-03     113.483E-03    -93.2457E+06    -202.940E+06    -52.6606E+06     294.512E+03    -232.156E-03     461.569E-03    -229.413E-03     134.797E-03    -234.863E-03     463.377E-03    -229.247E-03     117.859E-03
             640     5.00963E-03     113.679E-03    -86.4720E+06    -161.182E+06    -37.8423E+06     186.365E+03    -232.930E-03     462.308E-03    -229.378E-03     156.389E-03    -236.768E-03     465.376E-03    -229.208E-03     136.001E-03
             641     5.72531E-03     113.903E-03    -79.3956E+06    -131.889E+06    -22.2330E+06     221.401E+03    -233.674E-03     463.044E-03    -229.370E-03     177.573E-03    -238.882E-03     467.566E-03    -229.174E-03     153.503E-03
             642     6.44132E-03     114.154E-03    -71.9914E+06    -93.1165E+06    -5.69843E+06    -123.937E+03    -234.205E-03     463.556E-03    -229.351E-03     198.213E-03    -241.075E-03     469.857E-03    -229.141E-03     170.266E-03
             643     7.15757E-03     114.431E-03    -64.3326E+06    -41.7170E+06     12.1878E+06     312.070E+03    -234.569E-03     463.888E-03    -229.319E-03     217.980E-03    -243.408E-03     472.315E-03    -229.104E-03     186.038E-03
             644     7.87347E-03     114.733E-03    -56.3193E+06     8.21434E+06     30.2848E+06     1.50044E+06    -234.820E-03     464.115E-03    -229.295E-03     236.576E-03    -245.889E-03     474.926E-03    -229.074E-03     200.637E-03
             645     8.58894E-03     115.058E-03    -48.8067E+06     37.2664E+06     42.7718E+06     1.10492E+06    -234.834E-03     464.118E-03    -229.284E-03     253.355E-03    -248.268E-03     477.387E-03    -229.054E-03     213.636E-03
             646     9.30514E-03     115.402E-03    -41.6259E+06     46.5746E+06     53.2105E+06     621.749E+03    -234.457E-03     463.757E-03    -229.300E-03     265.879E-03    -250.095E-03     479.258E-03    -229.041E-03     223.079E-03
             647     10.0210E-03     115.759E-03    -33.6991E+06     52.4137E+06     65.1819E+06     1.17823E+06    -233.497E-03     462.832E-03    -229.335E-03     269.890E-03    -250.668E-03     479.881E-03    -229.036E-03     225.301E-03
             648     10.7366E-03     116.113E-03    -26.3402E+06     57.5346E+06     76.0374E+06     1.35912E+06    -231.747E-03     461.121E-03    -229.374E-03     261.662E-03    -249.172E-03     478.436E-03    -229.039E-03     217.149E-03
             649     11.4525E-03     116.441E-03    -20.5384E+06     64.2589E+06     80.8501E+06     1.15570E+06    -229.774E-03     459.158E-03    -229.384E-03     242.878E-03    -246.151E-03     475.456E-03    -229.043E-03     200.057E-03
             650     12.1677E-03     116.738E-03    -14.9182E+06     69.1172E+06     81.8407E+06     1.40009E+06    -228.078E-03     457.462E-03    -229.385E-03     212.766E-03    -242.116E-03     471.456E-03    -229.054E-03     173.055E-03
             651     12.8820E-03     116.979E-03    -9.06216E+06     76.7665E+06     84.1815E+06     256.900E+03    -226.405E-03     455.784E-03    -229.379E-03     187.580E-03    -238.406E-03     467.781E-03    -229.056E-03     150.478E-03
             652     13.6017E-03     117.206E-03    -4.42236E+06     77.1462E+06     83.4783E+06    -839.577E+03    -225.302E-03     454.634E-03    -229.332E-03     128.290E-03    -232.850E-03     462.198E-03    -229.020E-03     99.0329E-03
             653     715.474E-06     114.443E-03    -117.623E+06    -309.983E+06    -117.203E+06     214.890E+03    -229.667E-03     459.074E-03    -229.407E-03     24.9957E-03    -229.727E-03     457.956E-03    -229.373E-03     22.1289E-03
             654     1.43094E-03     114.490E-03    -115.251E+06    -288.575E+06    -112.163E+06     202.640E+03    -229.730E-03     459.150E-03    -229.421E-03     46.3942E-03    -230.007E-03     458.320E-03    -229.396E-03     41.1359E-03
             655     2.14653E-03     114.569E-03    -112.191E+06    -260.497E+06    -100.189E+06     202.854E+03    -230.070E-03     459.440E-03    -229.370E-03     68.5523E-03    -230.720E-03     459.057E-03    -229.330E-03     60.6653E-03
             656     2.86247E-03     114.676E-03    -107.588E+06    -245.683E+06    -82.8968E+06     481.942E+03    -230.617E-03     459.987E-03    -229.370E-03     90.7111E-03    -231.775E-03     460.130E-03    -229.272E-03     80.0110E-03
             657     3.57828E-03     114.814E-03    -101.278E+06    -233.283E+06    -66.7383E+06     463.952E+03    -231.436E-03     460.821E-03    -229.385E-03     112.770E-03    -233.263E-03     461.653E-03    -229.233E-03     99.0415E-03
             658     4.29397E-03     114.981E-03    -94.1889E+06    -202.489E+06    -52.0728E+06     78.9274E+03    -232.306E-03     461.693E-03    -229.387E-03     134.599E-03    -235.019E-03     463.504E-03    -229.218E-03     117.635E-03
             659     5.00955E-03     115.177E-03    -86.9761E+06    -161.398E+06    -37.5631E+06    -115.390E+03    -233.049E-03     462.429E-03    -229.379E-03     156.129E-03    -236.891E-03     465.497E-03    -229.207E-03     135.710E-03
             660     5.72544E-03     115.402E-03    -79.7792E+06    -132.055E+06    -22.3791E+06    -252.735E+03    -233.704E-03     463.089E-03    -229.385E-03     177.171E-03    -238.913E-03     467.610E-03    -229.189E-03     153.066E-03
             661     6.44127E-03     115.653E-03    -72.7670E+06    -92.8506E+06    -6.06212E+06     19.7755E+03    -234.245E-03     463.621E-03    -229.375E-03     197.594E-03    -241.111E-03     469.916E-03    -229.165E-03     169.629E-03
             662     7.15697E-03     115.930E-03    -65.6031E+06    -42.9344E+06     11.5414E+06    -9.54324E+03    -234.691E-03     464.049E-03    -229.359E-03     217.342E-03    -243.521E-03     472.461E-03    -229.144E-03     185.371E-03
             663     7.87268E-03     116.232E-03    -57.6174E+06     6.47943E+06     29.1762E+06    -317.215E+03    -234.946E-03     464.294E-03    -229.348E-03     236.190E-03    -246.012E-03     475.095E-03    -229.128E-03     200.196E-03
             664     8.58876E-03     116.557E-03    -48.7332E+06     36.6230E+06     43.4257E+06     653.717E+03    -234.997E-03     464.351E-03    -229.354E-03     253.229E-03    -248.434E-03     477.619E-03    -229.119E-03     213.469E-03
             665     9.30404E-03     116.901E-03    -40.7621E+06     46.6093E+06     54.9475E+06     1.52035E+06    -234.666E-03     464.047E-03    -229.381E-03     266.158E-03    -250.318E-03     479.560E-03    -229.115E-03     223.333E-03
             666     10.0194E-03     117.258E-03    -34.3940E+06     52.4046E+06     65.0265E+06     752.766E+03    -233.508E-03     462.915E-03    -229.407E-03     270.546E-03    -250.691E-03     479.973E-03    -229.108E-03     225.979E-03
             667     10.7358E-03     117.610E-03    -27.7686E+06     56.7954E+06     74.5739E+06     384.122E+03    -231.605E-03     461.031E-03    -229.425E-03     262.033E-03    -249.026E-03     478.339E-03    -229.095E-03     217.555E-03
             668     11.4518E-03     117.941E-03    -21.3830E+06     64.0327E+06     79.8067E+06     904.519E+03    -229.418E-03     458.833E-03    -229.415E-03     242.892E-03    -245.784E-03     475.119E-03    -229.077E-03     200.122E-03
             669     12.1680E-03     118.237E-03    -15.9233E+06     68.3045E+06     80.5488E+06     883.724E+03    -227.337E-03     456.714E-03    -229.377E-03     213.378E-03    -241.338E-03     470.668E-03    -229.050E-03     173.887E-03
             670     12.8848E-03     118.482E-03    -8.48463E+06     77.1289E+06     84.5233E+06    -176.884E+03    -225.723E-03     455.055E-03    -229.332E-03     187.330E-03    -237.691E-03     467.022E-03    -229.009E-03     150.373E-03
             671     13.5997E-03     118.696E-03    -3.38505E+06     78.8668E+06     85.3739E+06     20.5021E+03    -225.457E-03     454.737E-03    -229.281E-03     126.812E-03    -233.000E-03     462.301E-03    -228.963E-03     97.4966E-03
             672     715.680E-06     115.941E-03    -116.693E+06    -307.397E+06    -115.822E+06    -1.54413E+06    -229.490E-03     458.867E-03    -229.377E-03     24.6892E-03    -229.550E-03     457.758E-03    -229.341E-03     21.8036E-03
             673     1.43125E-03     115.989E-03    -115.242E+06    -289.141E+06    -111.762E+06    -1.31116E+06    -229.711E-03     459.051E-03    -229.340E-03     46.1810E-03    -229.988E-03     458.217E-03    -229.313E-03     40.8945E-03
             674     2.14698E-03     116.067E-03    -112.268E+06    -262.157E+06    -101.252E+06     363.814E+03    -230.080E-03     459.394E-03    -229.314E-03     68.3131E-03    -230.725E-03     459.004E-03    -229.277E-03     60.4261E-03
             675     2.86255E-03     116.175E-03    -107.097E+06    -245.614E+06    -84.3289E+06     514.810E+03    -230.724E-03     460.063E-03    -229.338E-03     90.4395E-03    -231.877E-03     460.207E-03    -229.248E-03     79.7263E-03
             676     3.57823E-03     116.313E-03    -100.215E+06    -232.623E+06    -67.2282E+06    -160.155E+03    -231.568E-03     460.956E-03    -229.388E-03     112.506E-03    -233.389E-03     461.791E-03    -229.242E-03     98.7503E-03
             677     4.29373E-03     116.480E-03    -93.0226E+06    -202.372E+06    -52.0164E+06    -224.774E+03    -232.414E-03     461.831E-03    -229.417E-03     134.327E-03    -235.120E-03     463.639E-03    -229.248E-03     117.342E-03
             678     5.00933E-03     116.676E-03    -86.1040E+06    -161.659E+06    -37.4329E+06     46.3806E+03    -233.167E-03     462.592E-03    -229.425E-03     155.836E-03    -237.002E-03     465.656E-03    -229.253E-03     135.401E-03
             679     5.72488E-03     116.900E-03    -79.3985E+06    -132.249E+06    -22.0997E+06     573.825E+03    -233.854E-03     463.301E-03    -229.447E-03     176.861E-03    -239.061E-03     467.820E-03    -229.250E-03     152.737E-03
             680     6.44051E-03     117.151E-03    -72.6167E+06    -93.6727E+06    -6.06664E+06     1.03355E+06    -234.419E-03     463.871E-03    -229.452E-03     197.415E-03    -241.287E-03     470.167E-03    -229.241E-03     169.418E-03
             681     7.15628E-03     117.429E-03    -65.4134E+06    -41.3666E+06     12.3262E+06     952.574E+03    -234.785E-03     464.228E-03    -229.443E-03     217.396E-03    -243.621E-03     472.649E-03    -229.227E-03     185.421E-03
             682     7.87214E-03     117.731E-03    -58.2754E+06     8.11458E+06     30.4817E+06    -178.171E+03    -234.946E-03     464.378E-03    -229.432E-03     236.321E-03    -246.019E-03     475.185E-03    -229.207E-03     200.340E-03
             683     8.58774E-03     118.056E-03    -51.4071E+06     34.2493E+06     41.4685E+06    -1.31305E+06    -234.951E-03     464.370E-03    -229.419E-03     253.451E-03    -248.384E-03     477.622E-03    -229.187E-03     213.706E-03
             684     9.30383E-03     118.401E-03    -43.1434E+06     43.9197E+06     51.1863E+06    -921.143E+03    -234.528E-03     463.949E-03    -229.422E-03     266.372E-03    -250.169E-03     479.445E-03    -229.167E-03     223.568E-03
             685     10.0203E-03     118.757E-03    -34.3769E+06     52.0790E+06     64.1767E+06     636.218E+03    -233.445E-03     462.886E-03    -229.441E-03     270.695E-03    -250.622E-03     479.939E-03    -229.145E-03     226.152E-03
             686     10.7356E-03     119.111E-03    -28.1600E+06     57.5380E+06     74.9593E+06     835.145E+03    -231.584E-03     461.040E-03    -229.456E-03     262.445E-03    -249.020E-03     478.363E-03    -229.124E-03     217.983E-03
             687     11.4512E-03     119.439E-03    -21.4781E+06     63.1324E+06     80.0638E+06    -28.6457E+03    -229.087E-03     458.518E-03    -229.430E-03     243.183E-03    -245.454E-03     474.799E-03    -229.090E-03     200.483E-03
             688     12.1679E-03     119.735E-03    -13.6647E+06     68.8839E+06     82.4534E+06    -426.507E+03    -226.854E-03     456.224E-03    -229.370E-03     213.084E-03    -240.838E-03     470.165E-03    -229.037E-03     173.626E-03
             689     12.8850E-03     119.977E-03    -9.18715E+06     77.0367E+06     84.0501E+06     870.641E+03    -225.665E-03     454.971E-03    -229.307E-03     186.276E-03    -237.604E-03     466.908E-03    -228.985E-03     149.346E-03
             690     13.6016E-03     120.201E-03    -4.57736E+06     78.4011E+06     85.0390E+06     1.13737E+06    -225.555E-03     454.819E-03    -229.264E-03     126.526E-03    -233.093E-03     462.373E-03    -228.946E-03     97.1788E-03
             691     715.394E-06     117.440E-03    -113.962E+06    -304.053E+06    -111.037E+06    -151.651E+03    -229.595E-03     458.926E-03    -229.331E-03     24.6732E-03    -229.654E-03     457.823E-03    -229.280E-03     21.8143E-03
             692     1.43105E-03     117.487E-03    -111.938E+06    -289.794E+06    -105.110E+06    -57.4786E+03    -229.796E-03     459.200E-03    -229.404E-03     45.9015E-03    -230.064E-03     458.347E-03    -229.347E-03     40.6250E-03
             693     2.14667E-03     117.565E-03    -108.515E+06    -263.944E+06    -97.6073E+06     31.4590E+03    -230.209E-03     459.598E-03    -229.389E-03     67.8911E-03    -230.837E-03     459.186E-03    -229.337E-03     59.9851E-03
             694     2.86237E-03     117.673E-03    -103.670E+06    -244.306E+06    -84.8342E+06    -380.988E+03    -230.857E-03     460.264E-03    -229.407E-03     90.1758E-03    -231.991E-03     460.409E-03    -229.327E-03     79.4443E-03
             695     3.57778E-03     117.811E-03    -98.1683E+06    -232.785E+06    -68.2186E+06    -360.511E+03    -231.672E-03     461.139E-03    -229.467E-03     112.371E-03    -233.479E-03     461.969E-03    -229.328E-03     98.6140E-03
             696     4.29338E-03     117.979E-03    -92.1948E+06    -203.024E+06    -52.4814E+06     116.353E+03    -232.472E-03     461.971E-03    -229.500E-03     134.221E-03    -235.172E-03     463.776E-03    -229.334E-03     117.235E-03
             697     5.00893E-03     118.175E-03    -85.8416E+06    -162.503E+06    -37.4049E+06     692.509E+03    -233.215E-03     462.724E-03    -229.508E-03     155.676E-03    -237.045E-03     465.780E-03    -229.335E-03     135.247E-03
             698     5.72451E-03     118.399E-03    -78.7288E+06    -133.259E+06    -21.5229E+06     1.09525E+06    -233.934E-03     463.464E-03    -229.530E-03     176.867E-03    -239.138E-03     467.978E-03    -229.330E-03     152.740E-03
             699     6.44009E-03     118.651E-03    -70.7848E+06    -94.1835E+06    -4.71484E+06     1.21588E+06    -234.514E-03     464.050E-03    -229.536E-03     197.555E-03    -241.378E-03     470.343E-03    -229.321E-03     169.545E-03
             700     7.15574E-03     118.928E-03    -62.6648E+06    -41.5486E+06     13.5062E+06     1.68229E+06    -234.813E-03     464.333E-03    -229.520E-03     217.491E-03    -243.638E-03     472.749E-03    -229.302E-03     185.522E-03
             701     7.87153E-03     119.230E-03    -54.4758E+06     9.53669E+06     31.7231E+06     2.64670E+06    -234.900E-03     464.394E-03    -229.494E-03     236.545E-03    -245.955E-03     475.198E-03    -229.270E-03     200.625E-03
             702     8.58754E-03     119.556E-03    -47.2026E+06     38.0161E+06     45.1043E+06     2.62429E+06    -234.833E-03     464.304E-03    -229.471E-03     253.749E-03    -248.250E-03     477.558E-03    -229.232E-03     214.109E-03
             703     9.30338E-03     119.900E-03    -41.6656E+06     45.4368E+06     54.2932E+06     789.809E+03    -234.437E-03     463.897E-03    -229.460E-03     266.684E-03    -250.074E-03     479.390E-03    -229.194E-03     223.954E-03
             704     10.0187E-03     120.257E-03    -36.3890E+06     50.1320E+06     63.7398E+06    -654.980E+03    -233.342E-03     462.799E-03    -229.457E-03     271.154E-03    -250.535E-03     479.857E-03    -229.159E-03     226.627E-03
             705     10.7353E-03     120.609E-03    -27.8786E+06     57.4198E+06     75.5339E+06    -410.522E+03    -231.229E-03     460.680E-03    -229.451E-03     262.861E-03    -248.669E-03     478.005E-03    -229.116E-03     218.461E-03
             706     11.4522E-03     120.939E-03    -19.1062E+06     62.8758E+06     81.5420E+06     273.275E+03    -228.882E-03     458.288E-03    -229.406E-03     243.386E-03    -245.244E-03     474.569E-03    -229.062E-03     200.712E-03
             707     12.1686E-03     121.232E-03    -13.8393E+06     66.3139E+06     82.4888E+06     676.522E+03    -227.305E-03     456.656E-03    -229.351E-03     213.686E-03    -241.314E-03     470.612E-03    -229.015E-03     174.174E-03
             708     12.8836E-03     121.479E-03    -8.52247E+06     77.9272E+06     85.6475E+06     912.576E+03    -225.858E-03     455.164E-03    -229.306E-03     186.609E-03    -237.793E-03     467.097E-03    -228.979E-03     149.733E-03
             709     13.6003E-03     121.694E-03    -3.99802E+06     80.6602E+06     85.8402E+06     769.325E+03    -225.525E-03     454.785E-03    -229.260E-03     126.289E-03    -233.031E-03     462.315E-03    -228.942E-03     97.0600E-03
             710     715.726E-06     118.938E-03    -113.601E+06    -305.566E+06    -112.005E+06     901.514E+03    -229.779E-03     459.021E-03    -229.241E-03     24.7540E-03    -229.832E-03     457.911E-03    -229.194E-03     21.9197E-03
             711     1.43099E-03     118.986E-03    -111.040E+06    -289.566E+06    -105.805E+06     810.333E+03    -229.965E-03     459.432E-03    -229.467E-03     46.0436E-03    -230.229E-03     458.580E-03    -229.415E-03     40.7800E-03
             712     2.14631E-03     119.064E-03    -107.812E+06    -262.980E+06    -96.8388E+06    -292.435E+03    -230.416E-03     459.912E-03    -229.496E-03     68.0851E-03    -231.044E-03     459.505E-03    -229.443E-03     60.1644E-03
             713     2.86175E-03     119.172E-03    -104.052E+06    -244.459E+06    -83.7120E+06    -178.723E+03    -231.016E-03     460.554E-03    -229.539E-03     90.2718E-03    -232.154E-03     460.698E-03    -229.452E-03     79.5339E-03
             714     3.57745E-03     119.310E-03    -99.1855E+06    -233.489E+06    -67.9524E+06     399.593E+03    -231.742E-03     461.337E-03    -229.595E-03     112.302E-03    -233.551E-03     462.162E-03    -229.452E-03     98.5581E-03
             715     4.29284E-03     119.478E-03    -93.2424E+06    -203.779E+06    -52.3826E+06     666.830E+03    -232.483E-03     462.097E-03    -229.614E-03     134.185E-03    -235.186E-03     463.898E-03    -229.446E-03     117.207E-03
             716     5.00832E-03     119.674E-03    -86.4089E+06    -163.023E+06    -37.2379E+06     667.501E+03    -233.173E-03     462.778E-03    -229.605E-03     155.708E-03    -237.006E-03     465.833E-03    -229.429E-03     135.278E-03
             717     5.72398E-03     119.898E-03    -79.0491E+06    -133.791E+06    -21.7180E+06     382.718E+03    -233.867E-03     463.471E-03    -229.604E-03     177.004E-03    -239.069E-03     467.981E-03    -229.404E-03     152.884E-03
             718     6.43964E-03     120.150E-03    -71.6754E+06    -94.8473E+06    -5.45786E+06     254.972E+03    -234.469E-03     464.060E-03    -229.591E-03     197.852E-03    -241.334E-03     470.349E-03    -229.376E-03     169.857E-03
             719     7.15528E-03     120.427E-03    -64.3802E+06    -43.7533E+06     12.1997E+06     552.945E+03    -234.800E-03     464.363E-03    -229.562E-03     217.842E-03    -243.634E-03     472.777E-03    -229.344E-03     185.863E-03
             720     7.87123E-03     120.729E-03    -56.7983E+06     6.71837E+06     29.7889E+06     1.21292E+06    -234.846E-03     464.371E-03    -229.524E-03     236.877E-03    -245.915E-03     475.175E-03    -229.303E-03     200.937E-03
             721     8.58737E-03     121.054E-03    -48.1554E+06     37.3081E+06     42.6515E+06     2.02314E+06    -234.683E-03     464.163E-03    -229.480E-03     253.924E-03    -248.107E-03     477.425E-03    -229.251E-03     214.282E-03
             722     9.30359E-03     121.399E-03    -39.1884E+06     47.7904E+06     54.0340E+06     3.14896E+06    -234.225E-03     463.678E-03    -229.452E-03     266.956E-03    -249.858E-03     479.184E-03    -229.195E-03     224.295E-03
             723     10.0203E-03     121.756E-03    -30.9602E+06     54.5298E+06     68.4644E+06     2.65517E+06    -233.052E-03     462.495E-03    -229.444E-03     271.548E-03    -250.232E-03     479.560E-03    -229.135E-03     227.144E-03
             724     10.7362E-03     122.109E-03    -25.1865E+06     58.5574E+06     79.2209E+06     1.05226E+06    -231.081E-03     460.504E-03    -229.422E-03     262.963E-03    -248.504E-03     477.815E-03    -229.075E-03     218.646E-03
             725     11.4525E-03     122.436E-03    -20.8934E+06     62.4277E+06     81.0943E+06     528.489E+03    -229.027E-03     458.394E-03    -229.368E-03     243.274E-03    -245.401E-03     474.681E-03    -229.022E-03     200.564E-03
             726     12.1687E-03     122.733E-03    -15.3814E+06     67.3906E+06     81.8302E+06     504.851E+03    -227.355E-03     456.673E-03    -229.318E-03     213.595E-03    -241.361E-03     470.626E-03    -228.984E-03     174.110E-03
             727     12.8857E-03     122.976E-03    -10.2039E+06     76.5028E+06     84.3379E+06     663.444E+03    -226.504E-03     455.801E-03    -229.296E-03     186.230E-03    -238.455E-03     467.742E-03    -228.971E-03     149.237E-03
             728     13.6017E-03     123.194E-03    -5.27122E+06     80.2084E+06     84.5328E+06     489.497E+03    -226.430E-03     455.725E-03    -229.295E-03     125.076E-03    -233.979E-03     463.295E-03    -228.981E-03     95.5671E-03
             729     715.351E-06     120.437E-03    -116.014E+06    -308.355E+06    -115.326E+06     295.920E+03    -229.893E-03     459.204E-03    -229.311E-03     24.8848E-03    -229.950E-03     458.089E-03    -229.272E-03     22.0287E-03
             730     1.43092E-03     120.485E-03    -115.026E+06    -288.552E+06    -111.538E+06     158.810E+03    -230.017E-03     459.550E-03    -229.534E-03     45.9936E-03    -230.293E-03     458.718E-03    -229.506E-03     40.7202E-03
             731     2.14644E-03     120.563E-03    -112.540E+06    -261.560E+06    -100.621E+06    -290.640E+03    -230.494E-03     460.062E-03    -229.568E-03     68.1295E-03    -231.142E-03     459.674E-03    -229.529E-03     60.2113E-03
             732     2.86166E-03     120.671E-03    -107.552E+06    -246.485E+06    -83.6587E+06     51.3062E+03    -231.139E-03     460.778E-03    -229.639E-03     90.4506E-03    -232.293E-03     460.918E-03    -229.544E-03     79.7092E-03
             733     3.57675E-03     120.809E-03    -101.019E+06    -234.091E+06    -67.1060E+06     637.573E+03    -231.809E-03     461.504E-03    -229.695E-03     112.620E-03    -233.632E-03     462.332E-03    -229.545E-03     98.8729E-03
             734     4.29231E-03     120.977E-03    -93.9976E+06    -204.160E+06    -51.9406E+06     648.048E+03    -232.441E-03     462.135E-03    -229.694E-03     134.586E-03    -235.151E-03     463.938E-03    -229.522E-03     117.617E-03
             735     5.00805E-03     121.174E-03    -86.9675E+06    -163.216E+06    -37.2217E+06     643.848E+03    -233.117E-03     462.775E-03    -229.658E-03     156.199E-03    -236.957E-03     465.834E-03    -229.481E-03     135.780E-03
             736     5.72370E-03     121.398E-03    -80.2430E+06    -133.437E+06    -21.7954E+06     723.895E+03    -233.835E-03     463.473E-03    -229.639E-03     177.453E-03    -239.045E-03     467.988E-03    -229.438E-03     153.358E-03
             737     6.43956E-03     121.649E-03    -73.8264E+06    -94.6568E+06    -5.97074E+06     571.453E+03    -234.389E-03     463.998E-03    -229.609E-03     198.232E-03    -241.265E-03     470.293E-03    -229.394E-03     170.268E-03
             738     7.15555E-03     121.927E-03    -66.8054E+06    -44.5735E+06     11.1325E+06     373.386E+03    -234.737E-03     464.304E-03    -229.567E-03     218.103E-03    -243.583E-03     472.722E-03    -229.349E-03     186.136E-03
             739     7.87136E-03     122.228E-03    -59.0105E+06     5.71153E+06     28.8169E+06     96.6700E+03    -234.832E-03     464.355E-03    -229.523E-03     237.050E-03    -245.916E-03     475.166E-03    -229.302E-03     201.094E-03
             740     8.58724E-03     122.554E-03    -51.3482E+06     36.0851E+06     41.3894E+06    -721.146E+03    -234.647E-03     464.123E-03    -229.476E-03     254.109E-03    -248.092E-03     477.394E-03    -229.247E-03     214.429E-03
             741     9.30351E-03     122.897E-03    -43.7809E+06     45.1472E+06     50.2569E+06    -1.78901E+06    -234.087E-03     463.523E-03    -229.436E-03     266.853E-03    -249.733E-03     479.028E-03    -229.186E-03     224.126E-03
             742     10.0196E-03     123.255E-03    -36.0619E+06     53.1107E+06     62.1424E+06    -1.47901E+06    -232.899E-03     462.310E-03    -229.411E-03     270.812E-03    -250.086E-03     479.377E-03    -229.125E-03     226.300E-03
             743     10.7369E-03     123.606E-03    -27.3807E+06     56.1550E+06     74.0156E+06     953.652E+03    -231.120E-03     460.524E-03    -229.404E-03     261.650E-03    -248.533E-03     477.825E-03    -229.075E-03     217.210E-03
             744     11.4528E-03     123.937E-03    -20.1652E+06     62.3792E+06     80.1511E+06     2.79790E+06    -229.129E-03     458.510E-03    -229.381E-03     241.860E-03    -245.467E-03     474.766E-03    -229.041E-03     199.137E-03
             745     12.1688E-03     124.230E-03    -14.8328E+06     71.6454E+06     83.0441E+06     808.471E+03    -227.641E-03     456.999E-03    -229.358E-03     211.898E-03    -241.591E-03     470.910E-03    -229.025E-03     172.412E-03
             746     12.8845E-03     124.476E-03    -9.56772E+06     76.4293E+06     84.2161E+06    -9.43920E+03    -226.716E-03     456.071E-03    -229.355E-03     185.296E-03    -238.626E-03     467.974E-03    -229.030E-03     148.284E-03
             747     13.5973E-03     124.698E-03    -4.88329E+06     79.2206E+06     83.9424E+06     1.13944E+06    -226.118E-03     455.467E-03    -229.349E-03     125.040E-03    -233.649E-03     463.018E-03    -229.037E-03     95.6141E-03
             748     715.450E-06     121.936E-03    -117.691E+06    -308.988E+06    -115.923E+06     158.086E+03    -229.960E-03     459.477E-03    -229.517E-03     25.0313E-03    -230.024E-03     458.363E-03    -229.478E-03     22.1485E-03
             749     1.43060E-03     121.984E-03    -114.991E+06    -288.391E+06    -109.362E+06     199.211E+03    -230.057E-03     459.721E-03    -229.664E-03     46.1250E-03    -230.338E-03     458.886E-03    -229.625E-03     40.8438E-03
             750     2.14585E-03     122.062E-03    -111.812E+06    -261.552E+06    -98.8174E+06     558.914E+03    -230.475E-03     460.133E-03    -229.657E-03     68.2977E-03    -231.123E-03     459.742E-03    -229.610E-03     60.3881E-03
             751     2.86139E-03     122.171E-03    -107.462E+06    -247.157E+06    -83.5444E+06     510.462E+03    -231.053E-03     460.738E-03    -229.686E-03     90.6316E-03    -232.206E-03     460.875E-03    -229.589E-03     79.9068E-03
             752     3.57706E-03     122.309E-03    -101.084E+06    -234.822E+06    -67.0162E+06     514.784E+03    -231.722E-03     461.434E-03    -229.711E-03     112.879E-03    -233.546E-03     462.259E-03    -229.559E-03     99.1352E-03
             753     4.29254E-03     122.476E-03    -94.2645E+06    -204.718E+06    -51.7790E+06     925.485E+03    -232.394E-03     462.087E-03    -229.693E-03     134.870E-03    -235.107E-03     463.889E-03    -229.518E-03     117.914E-03
             754     5.00822E-03     122.673E-03    -87.3888E+06    -163.914E+06    -37.0446E+06     1.10652E+06    -233.115E-03     462.765E-03    -229.649E-03     156.498E-03    -236.959E-03     465.823E-03    -229.470E-03     136.095E-03
             755     5.72404E-03     122.897E-03     -80.312E+06    -133.776E+06    -21.5671E+06     1.44487E+06    -233.872E-03     463.502E-03    -229.630E-03     177.591E-03    -239.085E-03     468.018E-03    -229.427E-03     153.503E-03
             756     6.43966E-03     123.148E-03    -72.8990E+06    -94.6265E+06    -5.20492E+06     1.88350E+06    -234.408E-03     464.013E-03    -229.605E-03     198.184E-03    -241.282E-03     470.307E-03    -229.388E-03     170.229E-03
             757     7.15544E-03     123.426E-03    -65.4245E+06    -43.3193E+06     12.6765E+06     1.61927E+06    -234.660E-03     464.222E-03    -229.562E-03     218.086E-03    -243.501E-03     472.640E-03    -229.341E-03     186.150E-03
             758     7.87142E-03     123.728E-03    -57.8268E+06     7.79064E+06     30.7623E+06     552.657E+03    -234.746E-03     464.258E-03    -229.513E-03     237.024E-03    -245.828E-03     475.074E-03    -229.286E-03     201.085E-03
             759     8.58778E-03     124.052E-03    -49.4793E+06     38.1331E+06     43.9334E+06    -153.694E+03    -234.698E-03     464.166E-03    -229.469E-03     253.991E-03    -248.147E-03     477.448E-03    -229.233E-03     214.285E-03
             760     9.30372E-03     124.397E-03    -41.5584E+06     47.6028E+06     55.2203E+06    -623.669E+03    -234.313E-03     463.768E-03    -229.455E-03     266.554E-03    -249.979E-03     479.295E-03    -229.188E-03     223.748E-03
             761     10.0201E-03     124.752E-03    -34.5744E+06     51.4956E+06     67.2969E+06    -947.143E+03    -233.378E-03     462.847E-03    -229.468E-03     270.566E-03    -250.580E-03     479.913E-03    -229.156E-03     225.959E-03
             762     10.7347E-03     125.106E-03    -28.8034E+06     50.5500E+06     73.9197E+06    -475.515E+03    -231.598E-03     461.076E-03    -229.478E-03     261.352E-03    -249.012E-03     478.353E-03    -229.140E-03     216.839E-03
             763     11.4509E-03     125.433E-03    -22.1768E+06     60.3196E+06     78.2347E+06     154.812E+03    -229.483E-03     458.952E-03    -229.469E-03     241.397E-03    -245.834E-03     475.212E-03    -229.133E-03     198.528E-03
             764     12.1669E-03     125.731E-03    -15.0634E+06     72.5854E+06     82.0666E+06     1.11009E+06    -227.750E-03     457.205E-03    -229.455E-03     212.096E-03    -241.704E-03     471.125E-03    -229.128E-03     172.582E-03
             765     12.8811E-03     125.976E-03    -9.11175E+06     76.9224E+06     84.2671E+06     1.43153E+06    -225.663E-03     455.084E-03    -229.421E-03     186.252E-03    -237.559E-03     466.976E-03    -229.098E-03     149.512E-03
             766     13.6014E-03     126.195E-03    -4.35308E+06     80.5316E+06     85.7381E+06     687.337E+03    -224.945E-03     454.298E-03    -229.353E-03     126.186E-03    -232.466E-03     461.841E-03    -229.035E-03     97.0118E-03
             767     715.104E-06     123.436E-03    -117.326E+06    -308.601E+06    -115.319E+06    -205.288E+03    -230.013E-03     459.534E-03    -229.521E-03     25.2427E-03    -230.078E-03     458.422E-03    -229.480E-03     22.3381E-03
             768     1.43064E-03     123.484E-03    -114.891E+06    -289.280E+06    -109.400E+06     60.0497E+03    -230.027E-03     459.703E-03    -229.677E-03     46.4520E-03    -230.307E-03     458.866E-03    -229.638E-03     41.1649E-03
             769     2.14616E-03     123.562E-03    -111.274E+06    -262.988E+06    -98.8699E+06     725.513E+03    -230.434E-03     460.083E-03    -229.648E-03     68.6812E-03    -231.080E-03     459.686E-03    -229.600E-03     60.7749E-03
             770     2.86150E-03     123.670E-03    -106.128E+06    -247.471E+06    -82.9643E+06     1.19045E+06    -231.012E-03     460.675E-03    -229.663E-03     90.8791E-03    -232.160E-03     460.809E-03    -229.565E-03     80.1721E-03
             771     3.57697E-03     123.808E-03    -99.8556E+06    -235.075E+06    -66.1278E+06     1.12945E+06    -231.682E-03     461.367E-03    -229.684E-03     112.870E-03    -233.501E-03     462.188E-03    -229.529E-03     99.1388E-03
             772     4.29271E-03     123.976E-03    -93.0937E+06    -205.297E+06    -50.5489E+06     1.43770E+06    -232.410E-03     462.081E-03    -229.671E-03     134.707E-03    -235.118E-03     463.877E-03    -229.491E-03     117.744E-03
             773     5.00840E-03     124.172E-03    -86.0007E+06    -164.718E+06    -35.8913E+06     1.80230E+06    -233.173E-03     462.811E-03    -229.638E-03     156.321E-03    -237.009E-03     465.862E-03    -229.454E-03     135.913E-03
             774     5.72393E-03     124.396E-03    -78.7747E+06    -134.897E+06    -20.7287E+06     1.86924E+06    -233.889E-03     463.515E-03    -229.626E-03     177.457E-03    -239.096E-03     468.024E-03    -229.420E-03     153.354E-03
             775     6.43965E-03     124.647E-03    -70.9725E+06    -95.4739E+06    -4.01615E+06     1.89358E+06    -234.401E-03     464.005E-03    -229.604E-03     198.074E-03    -241.267E-03     470.292E-03    -229.383E-03     170.106E-03
             776     7.15554E-03     124.925E-03    -62.5361E+06    -43.5449E+06     14.6446E+06     2.16493E+06    -234.653E-03     464.217E-03    -229.564E-03     217.932E-03    -243.484E-03     472.629E-03    -229.337E-03     185.987E-03
             777     7.87177E-03     125.226E-03    -54.0914E+06     10.0174E+06     34.1223E+06     2.55182E+06    -234.773E-03     464.293E-03    -229.520E-03     236.748E-03    -245.845E-03     475.110E-03    -229.286E-03     200.809E-03
             778     8.58746E-03     125.552E-03    -47.1031E+06     40.9163E+06     47.1333E+06     1.53062E+06    -234.865E-03     464.355E-03    -229.490E-03     253.538E-03    -248.311E-03     477.642E-03    -229.245E-03     213.799E-03
             779     9.30352E-03     125.895E-03    -40.6179E+06     48.3448E+06     56.5609E+06     795.683E+03    -234.658E-03     464.156E-03    -229.498E-03     265.879E-03    -250.323E-03     479.684E-03    -229.226E-03     222.989E-03
             780     10.0188E-03     126.253E-03    -34.0548E+06     51.4039E+06     66.5978E+06     1.70236E+06    -233.626E-03     463.156E-03    -229.530E-03     269.838E-03    -250.805E-03     480.203E-03    -229.222E-03     225.221E-03
             781     10.7354E-03     126.605E-03    -28.3316E+06     52.5445E+06     74.0797E+06     1.26976E+06    -231.713E-03     461.266E-03    -229.553E-03     261.187E-03    -249.106E-03     478.530E-03    -229.217E-03     216.721E-03
             782     11.4504E-03     126.934E-03    -22.5496E+06     61.5772E+06     79.6457E+06    -630.940E+03    -229.611E-03     459.161E-03    -229.550E-03     242.429E-03    -245.980E-03     475.438E-03    -229.208E-03     199.597E-03
             783     12.1651E-03     127.229E-03    -17.0419E+06     70.6394E+06     81.8877E+06     4.47088E+03    -227.328E-03     456.842E-03    -229.513E-03     213.020E-03    -241.300E-03     470.766E-03    -229.182E-03     173.629E-03
             784     12.8845E-03     127.474E-03    -11.1468E+06     77.1448E+06     83.4232E+06     1.18459E+06    -224.863E-03     454.297E-03    -229.434E-03     185.377E-03    -236.743E-03     466.170E-03    -229.113E-03     148.732E-03
             785     13.5990E-03     127.690E-03    -4.56701E+06     81.0463E+06     84.8159E+06    -199.553E+03    -224.252E-03     453.580E-03    -229.328E-03     126.015E-03    -231.781E-03     461.135E-03    -229.015E-03     96.7882E-03
             786     715.561E-06     124.935E-03    -115.475E+06    -307.570E+06    -114.241E+06    -559.247E+03    -229.922E-03     459.376E-03    -229.454E-03     25.1786E-03    -229.981E-03     458.265E-03    -229.412E-03     22.2740E-03
             787     1.43080E-03     124.983E-03    -113.880E+06    -290.231E+06    -108.839E+06    -203.513E+03    -230.009E-03     459.619E-03    -229.609E-03     46.3698E-03    -230.283E-03     458.773E-03    -229.568E-03     41.0852E-03
             788     2.14624E-03     125.061E-03    -110.450E+06    -264.719E+06    -98.2950E+06     539.041E+03    -230.395E-03     459.993E-03    -229.598E-03     68.5438E-03    -231.034E-03     459.585E-03    -229.545E-03     60.6395E-03
             789     2.86183E-03     125.169E-03    -105.188E+06    -248.613E+06    -82.7805E+06     962.572E+03    -231.012E-03     460.630E-03    -229.618E-03     90.7529E-03    -232.153E-03     460.755E-03    -229.519E-03     80.0397E-03
             790     3.57730E-03     125.307E-03    -98.7887E+06    -236.068E+06    -65.6663E+06     1.27969E+06    -231.762E-03     461.419E-03    -229.657E-03     112.778E-03    -233.573E-03     462.232E-03    -229.500E-03     99.0494E-03
             791     4.29267E-03     125.475E-03    -91.7878E+06    -206.354E+06    -49.5743E+06     1.82341E+06    -232.515E-03     462.181E-03    -229.667E-03     134.670E-03    -235.219E-03     463.971E-03    -229.482E-03     117.693E-03
             792     5.00817E-03     125.671E-03    -84.7566E+06    -165.736E+06    -34.5869E+06     2.12877E+06    -233.221E-03     462.869E-03    -229.648E-03     156.301E-03    -237.054E-03     465.913E-03    -229.458E-03     135.880E-03
             793     5.72393E-03     125.896E-03    -77.4316E+06    -135.173E+06    -19.3438E+06     1.91172E+06    -233.890E-03     463.527E-03    -229.637E-03     177.442E-03    -239.093E-03     468.032E-03    -229.426E-03     153.335E-03
             794     6.43970E-03     126.147E-03    -70.0942E+06    -95.6026E+06    -2.81617E+06     1.98805E+06    -234.424E-03     464.042E-03    -229.617E-03     197.901E-03    -241.291E-03     470.328E-03    -229.391E-03     169.908E-03
             795     7.15556E-03     126.424E-03    -62.8848E+06    -44.8871E+06     15.1151E+06     1.88042E+06    -234.800E-03     464.389E-03    -229.589E-03     217.575E-03    -243.634E-03     472.797E-03    -229.357E-03     185.576E-03
             796     7.87109E-03     126.726E-03    -55.0565E+06     8.57546E+06     33.7007E+06     1.76187E+06    -235.028E-03     464.593E-03    -229.565E-03     236.264E-03    -246.097E-03     475.399E-03    -229.329E-03     200.259E-03
             797     8.58732E-03     127.051E-03    -46.4192E+06     41.4469E+06     48.7745E+06     2.93714E+06    -235.120E-03     464.683E-03    -229.563E-03     253.021E-03    -248.550E-03     477.954E-03    -229.312E-03     213.268E-03
             798     9.30237E-03     127.396E-03    -39.3652E+06     48.3738E+06     58.9180E+06     3.94789E+06    -234.790E-03     464.377E-03    -229.588E-03     265.641E-03    -250.426E-03     479.875E-03    -229.306E-03     222.823E-03
             799     10.0180E-03     127.752E-03    -33.4294E+06     52.0513E+06     68.0882E+06     3.67636E+06    -233.598E-03     463.210E-03    -229.612E-03     269.999E-03    -250.765E-03     480.245E-03    -229.298E-03     225.456E-03
             800     10.7329E-03     128.104E-03    -26.5188E+06     56.3446E+06     77.0559E+06     2.70917E+06    -231.460E-03     461.077E-03    -229.617E-03     261.729E-03    -248.877E-03     478.376E-03    -229.275E-03     217.288E-03
             801     11.4497E-03     128.433E-03    -19.7150E+06     63.9294E+06     81.8714E+06     2.78633E+06    -228.905E-03     458.478E-03    -229.573E-03     242.800E-03    -245.248E-03     474.741E-03    -229.227E-03     200.176E-03
             802     12.1674E-03     128.730E-03    -13.0205E+06     71.4308E+06     84.8792E+06     2.64462E+06    -226.745E-03     456.240E-03    -229.495E-03     213.363E-03    -240.693E-03     470.149E-03    -229.156E-03     174.171E-03
             803     12.8808E-03     128.970E-03    -8.19836E+06     79.0437E+06     86.3452E+06    -346.233E+03    -225.029E-03     454.432E-03    -229.402E-03     186.320E-03    -236.987E-03     466.390E-03    -229.073E-03     149.488E-03
             804     13.6007E-03     129.187E-03    -3.82651E+06     81.0102E+06     85.5191E+06    -883.101E+03    -224.376E-03     453.676E-03    -229.300E-03     126.968E-03    -231.977E-03     461.303E-03    -228.984E-03     97.5298E-03
             805     715.345E-06     126.434E-03    -114.781E+06    -306.600E+06    -113.126E+06    -23.9434E+03    -229.778E-03     459.321E-03    -229.543E-03     25.1312E-03    -229.835E-03     458.211E-03    -229.498E-03     22.2494E-03
             806     1.43080E-03     126.482E-03    -112.884E+06    -290.935E+06    -107.572E+06     66.1716E+03    -230.014E-03     459.607E-03    -229.593E-03     46.2332E-03    -230.283E-03     458.755E-03    -229.545E-03     40.9594E-03
             807     2.14623E-03     126.560E-03    -109.451E+06    -266.421E+06    -97.1765E+06     441.637E+03    -230.420E-03     460.014E-03    -229.594E-03     68.4526E-03    -231.053E-03     459.594E-03    -229.535E-03     60.5394E-03
             808     2.86164E-03     126.668E-03    -104.806E+06    -249.721E+06    -82.1811E+06     933.377E+03    -231.018E-03     460.637E-03    -229.619E-03     90.6474E-03    -232.156E-03     460.755E-03    -229.516E-03     79.9288E-03
             809     3.57718E-03     126.807E-03    -98.8136E+06    -237.661E+06    -65.5710E+06     1.33630E+06    -231.793E-03     461.456E-03    -229.663E-03     112.632E-03    -233.600E-03     462.258E-03    -229.503E-03     98.9095E-03
             810     4.29271E-03     126.974E-03    -92.0126E+06    -208.090E+06    -49.8144E+06     1.73814E+06    -232.567E-03     462.245E-03    -229.679E-03     134.542E-03    -235.268E-03     464.025E-03    -229.493E-03     117.560E-03
             811     5.00830E-03     127.170E-03     -84.715E+06    -166.385E+06    -34.3231E+06     1.90592E+06    -233.280E-03     462.950E-03    -229.669E-03     156.114E-03    -237.114E-03     465.991E-03    -229.477E-03     135.667E-03
             812     5.72390E-03     127.395E-03    -77.6563E+06    -135.815E+06    -18.6785E+06     2.11508E+06    -233.972E-03     463.644E-03    -229.672E-03     177.099E-03    -239.172E-03     468.140E-03    -229.456E-03     152.984E-03
             813     6.43948E-03     127.646E-03    -70.7876E+06    -96.8735E+06    -2.66135E+06     2.69601E+06    -234.541E-03     464.204E-03    -229.663E-03     197.519E-03    -241.405E-03     470.481E-03    -229.434E-03     169.516E-03
             814     7.15497E-03     127.923E-03    -63.7687E+06    -44.1303E+06     15.6652E+06     2.97457E+06    -235.042E-03     464.694E-03    -229.652E-03     217.320E-03    -243.875E-03     473.098E-03    -229.417E-03     185.310E-03
             815     7.87075E-03     128.225E-03    -56.7845E+06     9.18186E+06     34.2380E+06     2.28882E+06    -235.350E-03     465.003E-03    -229.652E-03     236.063E-03    -246.424E-03     475.809E-03    -229.412E-03     200.023E-03
             816     8.58554E-03     128.551E-03    -50.2866E+06     37.9689E+06     45.6196E+06     1.87368E+06    -235.183E-03     464.836E-03    -229.653E-03     253.004E-03    -248.615E-03     478.092E-03    -229.407E-03     213.234E-03
             817     9.30167E-03     128.895E-03    -42.4854E+06     45.7233E+06     54.4300E+06     2.73195E+06    -234.490E-03     464.140E-03    -229.650E-03     265.884E-03    -250.116E-03     479.620E-03    -229.383E-03     223.135E-03
             818     10.0177E-03     129.252E-03    -33.3961E+06     52.1691E+06     66.5879E+06     3.37012E+06    -233.199E-03     462.845E-03    -229.645E-03     270.408E-03    -250.367E-03     479.886E-03    -229.340E-03     225.931E-03
             819     10.7345E-03     129.604E-03    -25.7703E+06     58.1070E+06     78.2418E+06     2.86803E+06    -231.090E-03     460.717E-03    -229.627E-03     262.172E-03    -248.508E-03     478.022E-03    -229.283E-03     217.822E-03
             820     11.4502E-03     129.932E-03    -19.2459E+06     62.6559E+06     82.0465E+06     2.05579E+06    -228.529E-03     458.084E-03    -229.555E-03     242.709E-03    -244.857E-03     474.329E-03    -229.208E-03     200.167E-03
             821     12.1665E-03     130.225E-03    -12.6400E+06     70.9509E+06     83.8926E+06     2.49738E+06    -225.973E-03     455.414E-03    -229.441E-03     212.785E-03    -239.905E-03     469.309E-03    -229.106E-03     173.642E-03
             822     12.8874E-03     130.471E-03    -7.15052E+06     80.9288E+06     87.8845E+06     2.43008E+06    -224.602E-03     453.929E-03    -229.327E-03     186.428E-03    -236.561E-03     465.895E-03    -228.995E-03     149.683E-03
             823     13.6007E-03     130.684E-03    -3.37026E+06     83.1213E+06     88.8047E+06     1.33674E+06    -225.293E-03     454.542E-03    -229.249E-03     126.886E-03    -232.891E-03     462.165E-03    -228.921E-03     97.4819E-03
             824     715.397E-06     127.933E-03    -116.292E+06    -307.894E+06    -114.030E+06     916.498E+03    -229.970E-03     459.419E-03    -229.449E-03     25.1740E-03    -230.032E-03     458.306E-03    -229.404E-03     22.3041E-03
             825     1.43081E-03     127.981E-03    -114.449E+06    -291.106E+06    -108.308E+06     586.506E+03    -230.004E-03     459.636E-03    -229.632E-03     46.1774E-03    -230.279E-03     458.785E-03    -229.586E-03     40.9067E-03
             826     2.14621E-03     128.059E-03    -111.150E+06    -267.466E+06    -98.1656E+06     222.020E+03    -230.468E-03     460.095E-03    -229.627E-03     68.3328E-03    -231.106E-03     459.673E-03    -229.569E-03     60.4186E-03
             827     2.86173E-03     128.168E-03    -105.691E+06    -251.487E+06    -82.3084E+06     781.522E+03    -231.100E-03     460.767E-03    -229.667E-03     90.5094E-03    -232.240E-03     460.877E-03    -229.560E-03     79.7829E-03
             828     3.57708E-03     128.306E-03    -99.2050E+06    -238.944E+06    -65.2220E+06     1.50564E+06    -231.844E-03     461.562E-03    -229.718E-03     112.465E-03    -233.651E-03     462.358E-03    -229.554E-03     98.7335E-03
             829     4.29249E-03     128.473E-03    -92.3390E+06    -209.292E+06    -49.6415E+06     1.63399E+06    -232.619E-03     462.356E-03    -229.737E-03     134.269E-03    -235.318E-03     464.127E-03    -229.547E-03     117.278E-03
             830     5.00790E-03     128.670E-03    -85.4435E+06    -167.425E+06    -34.5743E+06     2.00373E+06    -233.369E-03     463.101E-03    -229.732E-03     155.766E-03    -237.199E-03     466.133E-03    -229.538E-03     135.314E-03
             831     5.72330E-03     128.894E-03    -78.2480E+06    -137.422E+06    -18.7060E+06     2.57849E+06    -234.098E-03     463.843E-03    -229.746E-03     176.830E-03    -239.293E-03     468.327E-03    -229.526E-03     152.710E-03
             832     6.43881E-03     129.146E-03    -70.5581E+06    -98.7682E+06    -2.50347E+06     2.86903E+06    -234.749E-03     464.499E-03    -229.750E-03     197.308E-03    -241.601E-03     470.757E-03    -229.517E-03     169.294E-03
             833     7.15451E-03     129.423E-03    -62.3639E+06    -45.4908E+06     15.4273E+06     3.67917E+06    -235.215E-03     464.961E-03    -229.746E-03     217.174E-03    -244.029E-03     473.347E-03    -229.512E-03     185.166E-03
             834     7.86947E-03     129.726E-03    -54.3370E+06     8.77734E+06     34.0944E+06     5.41246E+06    -235.286E-03     465.024E-03    -229.738E-03     236.162E-03    -246.337E-03     475.815E-03    -229.502E-03     200.202E-03
             835     8.58556E-03     130.051E-03    -46.9426E+06     40.3767E+06     47.7640E+06     5.78666E+06    -234.963E-03     464.684E-03    -229.721E-03     253.233E-03    -248.381E-03     477.939E-03    -229.472E-03     213.576E-03
             836     9.30121E-03     130.395E-03    -40.6126E+06     47.2368E+06     56.4682E+06     3.83700E+06    -234.290E-03     463.984E-03    -229.694E-03     266.175E-03    -249.909E-03     479.463E-03    -229.422E-03     223.494E-03
             837     10.0174E-03     130.751E-03    -34.5635E+06     51.4916E+06     66.3280E+06     1.98589E+06    -232.916E-03     462.579E-03    -229.662E-03     270.393E-03    -250.066E-03     479.597E-03    -229.355E-03     225.982E-03
             838     10.7335E-03     131.102E-03    -27.2378E+06     58.6006E+06     77.8251E+06     1.26683E+06    -230.617E-03     460.234E-03    -229.617E-03     261.563E-03    -247.989E-03     477.492E-03    -229.274E-03     217.332E-03
             839     11.4508E-03     131.430E-03    -20.3975E+06     62.9326E+06     82.4430E+06     1.53191E+06    -228.107E-03     457.633E-03    -229.526E-03     242.214E-03    -244.413E-03     473.851E-03    -229.175E-03     199.766E-03
             840     12.1679E-03     131.724E-03    -16.2805E+06     69.2311E+06     82.9473E+06     1.49027E+06    -226.115E-03     455.525E-03    -229.410E-03     212.022E-03    -240.066E-03     469.423E-03    -229.072E-03     172.782E-03
             841     12.8828E-03     131.961E-03    -10.0897E+06     79.0577E+06     86.2897E+06     2.32561E+06    -224.764E-03     454.073E-03    -229.309E-03     185.067E-03    -236.677E-03     465.981E-03    -228.978E-03     148.318E-03
             842     13.6033E-03     132.187E-03    -3.88275E+06      85.879E+06     87.8576E+06     3.00274E+06    -225.052E-03     454.279E-03    -229.227E-03     125.837E-03    -232.577E-03     461.840E-03    -228.907E-03     96.6458E-03
             843     715.270E-06     129.432E-03    -117.581E+06    -309.717E+06    -116.308E+06     178.917E+03    -230.177E-03     459.611E-03    -229.435E-03     24.8835E-03    -230.238E-03     458.494E-03    -229.397E-03     22.0165E-03
             844     1.43059E-03     129.480E-03    -115.135E+06    -291.919E+06    -109.258E+06     647.647E+03    -230.098E-03     459.829E-03    -229.731E-03     46.0307E-03    -230.374E-03     458.977E-03    -229.687E-03     40.7547E-03
             845     2.14603E-03     129.559E-03    -111.708E+06    -267.699E+06    -97.6806E+06      808.83E+03    -230.539E-03     460.268E-03    -229.729E-03     68.1835E-03    -231.179E-03     459.844E-03    -229.667E-03     60.2784E-03
             846     2.86121E-03     129.667E-03    -106.475E+06    -252.902E+06    -81.8011E+06     662.937E+03    -231.175E-03     460.941E-03    -229.766E-03     90.3661E-03    -232.316E-03     461.043E-03    -229.654E-03     79.6344E-03
             847     3.57665E-03     129.805E-03    -99.9919E+06    -241.028E+06    -65.5402E+06     1.26702E+06    -231.926E-03     461.740E-03    -229.814E-03     112.370E-03    -233.733E-03     462.526E-03    -229.647E-03     98.6254E-03
             848     4.29199E-03     129.973E-03    -93.0565E+06    -210.630E+06    -50.1255E+06     1.85919E+06    -232.714E-03     462.544E-03    -229.830E-03     134.239E-03    -235.412E-03     464.309E-03    -229.640E-03     117.250E-03
             849     5.00737E-03     130.169E-03    -86.1024E+06    -168.532E+06    -35.1175E+06     2.24783E+06    -233.479E-03     463.305E-03    -229.826E-03     155.707E-03    -237.305E-03     466.329E-03    -229.632E-03     135.262E-03
             850     5.72292E-03     130.394E-03    -78.9793E+06    -138.950E+06    -19.8295E+06     2.62265E+06    -234.252E-03     464.094E-03    -229.842E-03     176.722E-03    -239.443E-03     468.569E-03    -229.626E-03     152.591E-03
             851     6.43829E-03     130.645E-03    -71.8743E+06    -100.185E+06    -3.91535E+06     2.80155E+06    -234.903E-03     464.756E-03    -229.852E-03     197.324E-03    -241.753E-03     471.006E-03    -229.623E-03     169.299E-03
             852     7.15314E-03     130.924E-03    -65.3209E+06    -48.5225E+06     13.1208E+06     3.29149E+06    -235.168E-03     465.010E-03    -229.843E-03     217.321E-03    -243.988E-03     473.389E-03    -229.612E-03     185.315E-03
             853     7.86930E-03     131.225E-03    -58.1055E+06     4.79875E+06     30.9294E+06     3.80146E+06    -235.031E-03     464.841E-03    -229.810E-03     236.166E-03    -246.083E-03     475.614E-03    -229.578E-03     200.223E-03
             854     8.58508E-03     131.551E-03    -49.1176E+06     39.4105E+06     44.7255E+06     4.21081E+06    -234.694E-03     464.455E-03    -229.761E-03     252.814E-03    -248.097E-03     477.694E-03    -229.523E-03     213.172E-03
             855     9.30142E-03     131.894E-03    -40.0898E+06     49.4224E+06     56.2593E+06     4.89549E+06    -234.024E-03     463.747E-03    -229.723E-03     265.455E-03    -249.615E-03     479.208E-03    -229.455E-03     222.820E-03
             856     10.0176E-03     132.250E-03    -33.1172E+06     55.1582E+06     69.1439E+06     4.43965E+06    -232.581E-03     462.265E-03    -229.684E-03     269.864E-03    -249.689E-03     479.250E-03    -229.370E-03     225.590E-03
             857     10.7342E-03     132.601E-03    -27.2136E+06     60.2252E+06     80.2136E+06     3.50551E+06    -230.288E-03     459.908E-03    -229.620E-03     261.287E-03    -247.640E-03     477.145E-03    -229.267E-03     217.195E-03
             858     11.4508E-03     132.927E-03    -22.7214E+06     63.5085E+06     82.4813E+06     2.74742E+06    -227.918E-03     457.427E-03    -229.509E-03     241.652E-03    -244.219E-03     473.634E-03    -229.156E-03     199.251E-03
             859     12.1684E-03     133.220E-03    -15.9896E+06     71.2534E+06     84.8350E+06     1.92548E+06    -226.290E-03     455.691E-03    -229.400E-03     211.884E-03    -240.237E-03     469.588E-03    -229.056E-03     172.644E-03
             860     12.8854E-03     133.465E-03    -11.1180E+06     77.0507E+06     86.0973E+06     1.87084E+06    -225.440E-03     454.760E-03    -229.320E-03     186.087E-03    -237.397E-03     466.701E-03    -228.985E-03     149.224E-03
             861     13.5989E-03     133.677E-03    -7.76124E+06     85.7001E+06     84.6307E+06     1.27250E+06    -225.032E-03     454.271E-03    -229.239E-03     126.416E-03    -232.619E-03     461.889E-03    -228.929E-03     97.0925E-03
             862     715.207E-06     130.932E-03    -118.034E+06    -309.720E+06    -116.424E+06    -384.866E+03    -230.180E-03     459.831E-03    -229.651E-03     24.9998E-03    -230.243E-03     458.714E-03    -229.613E-03     22.1141E-03
             863     1.43041E-03     130.980E-03    -115.843E+06    -293.349E+06    -110.420E+06    -92.4194E+03    -230.255E-03     460.102E-03    -229.847E-03     46.0972E-03    -230.530E-03     459.245E-03    -229.806E-03     40.8075E-03
             864     2.14558E-03     131.058E-03    -111.456E+06    -268.931E+06    -98.4405E+06     598.958E+03    -230.658E-03     460.510E-03    -229.852E-03     68.2425E-03    -231.293E-03     460.080E-03    -229.792E-03     60.3303E-03
             865     2.86109E-03     131.167E-03    -106.533E+06    -253.991E+06    -82.3165E+06     1.41940E+06    -231.251E-03     461.134E-03    -229.883E-03     90.3707E-03    -232.389E-03     461.231E-03    -229.772E-03     79.6549E-03
             866     3.57629E-03     131.305E-03    -100.776E+06    -242.636E+06    -65.9633E+06     1.76097E+06    -232.022E-03     461.947E-03    -229.925E-03     112.383E-03    -233.829E-03     462.726E-03    -229.757E-03     98.6394E-03
             867     4.29163E-03     131.473E-03    -93.9249E+06    -212.187E+06    -51.0306E+06     2.04925E+06    -232.816E-03     462.753E-03    -229.937E-03     134.197E-03    -235.512E-03     464.510E-03    -229.748E-03     117.212E-03
             868     5.00696E-03     131.670E-03    -86.8645E+06    -170.060E+06    -36.4726E+06     2.48490E+06    -233.603E-03     463.534E-03    -229.931E-03     155.634E-03    -237.427E-03     466.552E-03    -229.741E-03     135.183E-03
             869     5.72206E-03     131.894E-03    -80.0535E+06    -140.534E+06    -21.1950E+06     3.08203E+06    -234.379E-03     464.330E-03    -229.950E-03     176.752E-03    -239.570E-03     468.799E-03    -229.736E-03     152.611E-03
             870     6.43720E-03     132.146E-03    -73.4548E+06    -101.737E+06    -5.08444E+06     3.81862E+06    -234.874E-03     464.829E-03    -229.955E-03     197.399E-03    -241.727E-03     471.074E-03    -229.726E-03     169.391E-03
             871     7.15329E-03     132.423E-03    -66.2312E+06    -50.0976E+06     12.4379E+06     4.57159E+06    -235.058E-03     464.988E-03    -229.930E-03     217.195E-03    -243.876E-03     473.356E-03    -229.699E-03     185.215E-03
             872     7.86848E-03     132.726E-03    -58.8189E+06     5.34359E+06     31.1566E+06     4.46772E+06    -234.978E-03     464.864E-03    -229.886E-03     235.832E-03    -246.025E-03     475.631E-03    -229.653E-03     199.896E-03
             873     8.58442E-03     133.049E-03    -52.4108E+06     38.9417E+06     44.1444E+06     3.16178E+06    -234.640E-03     464.472E-03    -229.832E-03     252.497E-03    -248.045E-03     477.701E-03    -229.591E-03     212.851E-03
             874     9.30017E-03     133.393E-03    -45.9692E+06     47.1737E+06     52.1169E+06     1.76011E+06    -233.819E-03     463.592E-03    -229.773E-03     264.898E-03    -249.415E-03     479.041E-03    -229.515E-03     222.241E-03
             875     10.0168E-03     133.747E-03    -38.2270E+06     54.8286E+06     63.1051E+06     1.71782E+06    -232.165E-03     461.872E-03    -229.706E-03     268.849E-03    -249.259E-03     478.841E-03    -229.415E-03     224.572E-03
             876     10.7341E-03     134.098E-03    -29.7573E+06     58.3490E+06     75.0489E+06     2.70533E+06    -229.976E-03     459.607E-03    -229.632E-03     259.966E-03    -247.284E-03     476.799E-03    -229.298E-03     215.880E-03
             877     11.4514E-03     134.424E-03    -20.5030E+06     63.0162E+06     82.4379E+06     3.62573E+06    -227.969E-03     457.508E-03    -229.538E-03     240.517E-03    -244.233E-03     473.683E-03    -229.188E-03     198.078E-03
             878     12.1670E-03     134.718E-03    -15.2857E+06     71.1240E+06     84.4403E+06     3.71001E+06    -226.130E-03     455.564E-03    -229.433E-03     210.688E-03    -240.053E-03     469.440E-03    -229.092E-03     171.435E-03
             879     12.8848E-03     134.959E-03    -10.7902E+06     79.3401E+06     86.5295E+06     2.72301E+06    -225.136E-03     454.481E-03    -229.345E-03     185.047E-03    -237.027E-03     466.364E-03    -229.012E-03     148.324E-03
             880     13.6027E-03     135.184E-03    -4.19499E+06     90.2145E+06     89.1879E+06     785.867E+03    -225.170E-03     454.442E-03    -229.272E-03     125.263E-03    -232.687E-03     462.006E-03    -228.951E-03     96.0654E-03
             881     715.204E-06     132.432E-03    -118.612E+06    -310.164E+06    -116.729E+06     453.990E+03    -230.203E-03     460.013E-03    -229.810E-03     24.9961E-03    -230.268E-03     458.896E-03    -229.772E-03     22.1100E-03
             882     1.43030E-03     132.480E-03    -116.667E+06    -293.574E+06    -110.833E+06     202.557E+03    -230.355E-03     460.295E-03    -229.940E-03     46.1405E-03    -230.633E-03     459.439E-03    -229.900E-03     40.8658E-03
             883     2.14553E-03     132.558E-03    -113.099E+06    -270.601E+06    -99.9059E+06     444.904E+03    -230.799E-03     460.751E-03    -229.952E-03     68.2890E-03    -231.439E-03     460.318E-03    -229.895E-03     60.3678E-03
             884     2.86052E-03     132.667E-03    -107.812E+06    -256.326E+06    -84.2169E+06     1.30231E+06    -231.407E-03     461.400E-03    -229.993E-03     90.3827E-03    -232.546E-03     461.491E-03    -229.886E-03     79.6489E-03
             885     3.57589E-03     132.805E-03    -101.409E+06    -244.106E+06    -67.3211E+06     1.95879E+06    -232.169E-03     462.213E-03    -230.044E-03     112.330E-03    -233.974E-03     462.986E-03    -229.879E-03     98.5802E-03
             886     4.29098E-03     132.973E-03    -94.6924E+06    -213.627E+06    -51.8350E+06     2.42669E+06    -232.929E-03     462.989E-03    -230.060E-03     134.103E-03    -235.622E-03     464.739E-03    -229.873E-03     117.116E-03
             887     5.00617E-03     133.170E-03    -87.8396E+06    -171.901E+06    -37.3187E+06     2.90255E+06    -233.677E-03     463.728E-03    -230.051E-03     155.695E-03    -237.502E-03     466.740E-03    -229.861E-03     135.239E-03
             888     5.72155E-03     133.395E-03    -80.7502E+06    -142.622E+06    -22.1624E+06     3.40243E+06    -234.403E-03     464.463E-03    -230.060E-03     176.799E-03    -239.594E-03     468.926E-03    -229.847E-03     152.648E-03
             889     6.43707E-03     133.646E-03    -72.8748E+06    -104.271E+06    -5.84705E+06     4.08948E+06    -234.900E-03     464.955E-03    -230.056E-03     197.195E-03    -241.741E-03     471.185E-03    -229.828E-03     169.178E-03
             890     7.15198E-03     133.924E-03    -64.3630E+06    -52.1553E+06     12.4382E+06     4.68623E+06    -235.104E-03     465.131E-03    -230.028E-03     216.797E-03    -243.899E-03     473.477E-03    -229.797E-03     184.807E-03
             891     7.86802E-03     134.225E-03    -55.8701E+06     3.36275E+06     31.7548E+06     6.12332E+06    -234.967E-03     464.950E-03    -229.983E-03     235.244E-03    -245.982E-03     475.686E-03    -229.748E-03     199.323E-03
             892     8.58386E-03     134.549E-03    -47.5827E+06     41.2552E+06     46.6037E+06     7.61846E+06    -234.490E-03     464.410E-03    -229.920E-03     251.813E-03    -247.852E-03     477.614E-03    -229.678E-03     212.254E-03
             893     9.30016E-03     134.892E-03    -40.4667E+06     53.1453E+06     58.3404E+06     6.38867E+06    -233.683E-03     463.545E-03    -229.862E-03     264.253E-03    -249.237E-03     478.975E-03    -229.588E-03     221.711E-03
             894     10.0164E-03     135.246E-03    -34.1767E+06     56.4512E+06     70.7561E+06     3.93738E+06    -232.323E-03     462.134E-03    -229.811E-03     268.046E-03    -249.383E-03     479.068E-03    -229.490E-03     223.805E-03
             895     10.7326E-03     135.595E-03    -27.8128E+06     57.5742E+06     79.7135E+06     2.59404E+06    -230.251E-03     459.996E-03    -229.745E-03     259.191E-03    -247.538E-03     477.157E-03    -229.389E-03     215.063E-03
             896     11.4490E-03     135.922E-03    -22.8385E+06     59.3429E+06     80.7620E+06     2.58614E+06    -228.018E-03     457.661E-03    -229.643E-03     239.677E-03    -244.278E-03     473.816E-03    -229.292E-03     197.158E-03
             897     12.1670E-03     136.215E-03    -16.3924E+06     70.7129E+06     83.7418E+06     2.96037E+06    -226.133E-03     455.674E-03    -229.541E-03     209.626E-03    -240.051E-03     469.541E-03    -229.201E-03     170.284E-03
             898     12.8823E-03     136.457E-03      -9.023E+06     85.4771E+06     89.1435E+06     2.69330E+06    -224.534E-03     453.973E-03    -229.439E-03     184.558E-03    -236.412E-03     465.865E-03    -229.104E-03     147.896E-03
             899     13.5986E-03     136.677E-03    -4.34802E+06     92.5056E+06     89.9104E+06     1.35510E+06    -224.032E-03     453.348E-03    -229.315E-03     125.017E-03    -231.529E-03     460.897E-03    -228.994E-03     95.9981E-03
             900     714.974E-06     133.932E-03    -119.298E+06    -311.259E+06    -118.054E+06     70.7775E+03    -230.345E-03     460.202E-03    -229.858E-03     25.0824E-03    -230.410E-03     459.082E-03    -229.824E-03     22.1902E-03
             901     1.43020E-03     133.980E-03    -116.890E+06    -294.388E+06    -111.397E+06     822.552E+03    -230.485E-03     460.527E-03    -230.042E-03     46.1426E-03    -230.762E-03     459.667E-03    -230.002E-03     40.8770E-03
             902     2.14521E-03     134.059E-03    -113.861E+06    -271.934E+06    -100.116E+06     1.26407E+06    -230.933E-03     461.000E-03    -230.067E-03     68.1596E-03    -231.573E-03     460.561E-03    -230.008E-03     60.2500E-03
             903     2.86046E-03     134.167E-03    -109.005E+06    -257.862E+06    -84.8420E+06     1.24158E+06    -231.574E-03     461.691E-03    -230.118E-03     90.3589E-03    -232.715E-03     461.777E-03    -230.010E-03     79.6106E-03
             904     3.57528E-03     134.306E-03    -102.736E+06    -246.073E+06    -68.9127E+06     1.53702E+06    -232.315E-03     462.487E-03    -230.171E-03     112.366E-03    -234.123E-03     463.256E-03    -230.010E-03     98.5946E-03
             905     4.29046E-03     134.474E-03    -95.6981E+06    -215.774E+06    -53.4045E+06     2.17997E+06    -233.040E-03     463.228E-03    -230.188E-03     134.133E-03    -235.735E-03     464.973E-03    -230.003E-03     117.120E-03
             906     5.00572E-03     134.671E-03    -88.2753E+06    -173.682E+06    -38.1721E+06     2.79663E+06    -233.808E-03     463.988E-03    -230.180E-03     155.648E-03    -237.632E-03     466.993E-03    -229.991E-03     135.162E-03
             907     5.72087E-03     134.895E-03    -80.7040E+06    -144.430E+06    -22.7357E+06     3.07870E+06    -234.518E-03     464.710E-03    -230.192E-03     176.430E-03    -239.702E-03     469.161E-03    -229.979E-03     152.245E-03
             908     6.43586E-03     135.147E-03    -73.3911E+06    -106.460E+06    -6.86748E+06     3.18266E+06    -234.980E-03     465.169E-03    -230.189E-03     196.658E-03    -241.809E-03     471.379E-03    -229.962E-03     168.611E-03
             909     7.15163E-03     135.424E-03    -66.2111E+06    -55.1858E+06     10.6403E+06     3.67259E+06    -235.160E-03     465.321E-03    -230.161E-03     216.223E-03    -243.943E-03     473.642E-03    -229.931E-03     184.205E-03
             910     7.86673E-03     135.725E-03    -58.4581E+06    -1.88738E+06     28.8374E+06     4.42764E+06    -234.953E-03     465.066E-03    -230.113E-03     234.521E-03    -245.951E-03     475.766E-03    -229.881E-03     198.565E-03
             911     8.58252E-03     136.049E-03    -50.0912E+06     37.6275E+06     43.4849E+06     5.11092E+06    -234.390E-03     464.433E-03    -230.042E-03     250.772E-03    -247.724E-03     477.595E-03    -229.807E-03     211.179E-03
             912     9.29887E-03     136.390E-03    -41.5870E+06     53.6557E+06     56.4540E+06     6.40926E+06    -233.634E-03     463.614E-03    -229.981E-03     262.857E-03    -249.138E-03     478.998E-03    -229.716E-03     220.312E-03
             913     10.0153E-03     136.745E-03    -34.3413E+06     59.7702E+06     68.9746E+06     6.91759E+06    -232.288E-03     462.218E-03    -229.930E-03     266.445E-03    -249.302E-03     479.122E-03    -229.622E-03     222.211E-03
             914     10.7317E-03     137.093E-03    -28.9355E+06     61.6037E+06     79.0705E+06     5.41224E+06    -230.242E-03     460.116E-03    -229.874E-03     258.156E-03    -247.519E-03     477.279E-03    -229.526E-03     214.017E-03
             915     11.4482E-03     137.420E-03    -22.7084E+06     60.3199E+06     83.6835E+06     3.74655E+06    -228.108E-03     457.900E-03    -229.793E-03     239.478E-03    -244.362E-03     474.046E-03    -229.429E-03     196.985E-03
             916     12.1632E-03     137.712E-03    -16.9795E+06     71.6875E+06     86.1809E+06     3.28389E+06    -226.027E-03     455.708E-03    -229.681E-03     209.602E-03    -239.926E-03     469.551E-03    -229.329E-03     170.376E-03
             917     12.8820E-03     137.953E-03    -12.8990E+06     88.6786E+06     89.0971E+06     1.76722E+06    -223.538E-03     453.071E-03    -229.532E-03     183.823E-03    -235.421E-03     464.965E-03    -229.197E-03     147.280E-03
             918     13.6010E-03     138.173E-03    -6.30823E+06     93.6074E+06     89.7472E+06    -643.127E+03    -222.275E-03     451.610E-03    -229.335E-03     125.984E-03    -229.800E-03     459.184E-03    -229.012E-03     97.0763E-03
             919     715.211E-06     135.433E-03    -120.786E+06    -312.352E+06    -118.873E+06     492.848E+03    -230.466E-03     460.497E-03    -230.031E-03     24.9122E-03    -230.535E-03     459.374E-03    -229.997E-03     22.0574E-03
             920     1.42991E-03     135.481E-03    -118.685E+06    -296.581E+06    -112.440E+06     939.217E+03    -230.635E-03     460.828E-03    -230.193E-03     46.0807E-03    -230.916E-03     459.961E-03    -230.153E-03     40.8113E-03
             921     2.14494E-03     135.560E-03    -114.720E+06    -273.604E+06    -101.186E+06     1.37842E+06    -231.079E-03     461.296E-03    -230.217E-03     68.1097E-03    -231.718E-03     460.850E-03    -230.160E-03     60.2003E-03
             922     2.85975E-03     135.668E-03    -109.417E+06    -258.551E+06    -85.5082E+06     1.55512E+06    -231.728E-03     461.995E-03    -230.268E-03     90.2724E-03    -232.869E-03     462.079E-03    -230.162E-03     79.5182E-03
             923     3.57497E-03     135.807E-03    -103.136E+06    -246.784E+06    -68.7938E+06     1.67378E+06    -232.487E-03     462.817E-03    -230.330E-03     112.128E-03    -234.296E-03     463.583E-03    -230.167E-03     98.3260E-03
             924     4.28991E-03     135.975E-03    -96.1806E+06    -217.276E+06    -53.8305E+06     1.74113E+06    -233.270E-03     463.628E-03    -230.358E-03     133.708E-03    -235.964E-03     465.365E-03    -230.172E-03     116.645E-03
             925     5.00485E-03     136.172E-03    -88.9628E+06    -176.337E+06    -39.8129E+06     1.93009E+06    -234.011E-03     464.371E-03    -230.360E-03     155.117E-03    -237.828E-03     467.361E-03    -230.174E-03     134.580E-03
             926     5.71972E-03     136.397E-03    -81.8723E+06    -146.150E+06    -24.6021E+06     2.47017E+06    -234.659E-03     465.035E-03    -230.376E-03     175.892E-03    -239.835E-03     469.473E-03    -230.168E-03     151.675E-03
             927     6.43493E-03     136.648E-03    -74.6945E+06    -107.607E+06    -8.10942E+06     2.97612E+06    -235.101E-03     465.478E-03    -230.377E-03     196.046E-03    -241.924E-03     471.677E-03    -230.153E-03     167.959E-03
             928     7.14978E-03     136.925E-03    -67.3135E+06    -58.5675E+06     8.89902E+06     3.91412E+06    -235.204E-03     465.552E-03    -230.348E-03     215.406E-03    -243.966E-03     473.841E-03    -230.121E-03     183.371E-03
             929     7.86551E-03     137.226E-03    -60.0902E+06    -3.31108E+06     27.4306E+06     4.53317E+06    -234.947E-03     465.242E-03    -230.295E-03     233.531E-03    -245.913E-03     475.903E-03    -230.066E-03     197.592E-03
             930     8.58135E-03     137.548E-03    -53.1973E+06     35.7811E+06     43.2845E+06     4.31750E+06    -234.569E-03     464.806E-03    -230.237E-03     249.709E-03    -247.877E-03     477.926E-03    -229.995E-03     210.090E-03
             931     9.29682E-03     137.890E-03    -46.4318E+06     48.8688E+06     54.4718E+06     4.61060E+06    -233.802E-03     463.987E-03    -230.185E-03     261.837E-03    -249.284E-03     479.319E-03    -229.916E-03     219.248E-03
             932     10.0125E-03     138.243E-03    -39.2981E+06     57.8397E+06     65.2354E+06     5.32558E+06    -232.212E-03     462.334E-03    -230.122E-03     265.627E-03    -249.212E-03     479.210E-03    -229.822E-03     221.369E-03
             933     10.7291E-03     138.590E-03    -30.7230E+06     65.3077E+06     78.0288E+06     4.70141E+06    -229.886E-03     459.934E-03    -230.048E-03     257.352E-03    -247.154E-03     477.099E-03    -229.708E-03     213.203E-03
             934     11.4458E-03     138.917E-03    -23.0198E+06     60.4759E+06     83.4416E+06     4.23908E+06    -227.240E-03     457.170E-03    -229.930E-03     239.096E-03    -243.453E-03     473.274E-03    -229.567E-03     196.761E-03
             935     12.1643E-03     139.210E-03    -16.1762E+06     72.1916E+06     87.4718E+06     3.33065E+06    -225.134E-03     454.892E-03    -229.758E-03     210.697E-03    -238.993E-03     468.696E-03    -229.402E-03     171.775E-03
             936     12.8796E-03     139.450E-03    -8.32534E+06     95.3887E+06     94.1746E+06     511.713E+03    -222.832E-03     452.392E-03    -229.560E-03     183.962E-03    -234.746E-03     464.342E-03    -229.215E-03     147.457E-03
             937     13.5991E-03     139.661E-03    -3.61247E+06     94.8785E+06     92.8974E+06     150.904E+03    -221.153E-03     450.470E-03    -229.318E-03     125.424E-03    -228.710E-03     458.082E-03    -228.986E-03     96.5337E-03
             938     714.596E-06     136.934E-03    -122.847E+06    -314.689E+06    -121.427E+06     1.04166E+06    -230.580E-03     461.044E-03    -230.464E-03     24.7619E-03    -230.652E-03     459.915E-03    -230.436E-03     21.9265E-03
             939     1.42968E-03     136.982E-03    -120.177E+06    -298.211E+06    -114.400E+06     1.19440E+06    -230.788E-03     461.232E-03    -230.444E-03     45.8455E-03    -231.071E-03     460.362E-03    -230.410E-03     40.5644E-03
             940     2.14453E-03     137.061E-03    -116.389E+06    -274.753E+06    -102.999E+06     1.12839E+06    -231.256E-03     461.695E-03    -230.439E-03     67.8615E-03    -231.899E-03     461.248E-03    -230.387E-03     59.9251E-03
             941     2.85948E-03     137.170E-03    -111.682E+06    -259.925E+06    -87.9084E+06     1.23122E+06    -231.927E-03     462.410E-03    -230.483E-03     89.9580E-03    -233.073E-03     462.492E-03    -230.384E-03     79.1804E-03
             942     3.57402E-03     137.309E-03    -105.141E+06    -247.125E+06    -70.9344E+06     1.19034E+06    -232.743E-03     463.295E-03    -230.552E-03     111.820E-03    -234.558E-03     464.065E-03    -230.395E-03     97.9778E-03
             943     4.28867E-03     137.476E-03    -97.8629E+06    -217.751E+06    -55.4254E+06     841.764E+03    -233.573E-03     464.169E-03    -230.596E-03     133.425E-03    -236.273E-03     465.909E-03    -230.415E-03     116.299E-03
             944     5.00330E-03     137.673E-03    -90.4962E+06    -178.149E+06    -41.4233E+06     706.558E+03    -234.266E-03     464.877E-03    -230.611E-03     154.694E-03    -238.081E-03     467.858E-03    -230.428E-03     134.101E-03
             945     5.71836E-03     137.898E-03    -82.6984E+06    -148.061E+06    -26.4446E+06     1.41877E+06    -234.851E-03     465.480E-03    -230.629E-03     175.296E-03    -240.015E-03     469.901E-03    -230.426E-03     151.037E-03
             946     6.43310E-03     138.149E-03    -74.6744E+06    -110.515E+06    -10.2314E+06     2.48307E+06    -235.270E-03     465.898E-03    -230.628E-03     195.279E-03    -242.070E-03     472.070E-03    -230.411E-03     167.152E-03
             947     7.14832E-03     138.426E-03    -66.8062E+06    -62.5273E+06     7.50894E+06     3.68389E+06    -235.332E-03     465.936E-03    -230.603E-03     214.374E-03    -244.055E-03     474.178E-03    -230.378E-03     182.318E-03
             948     7.86348E-03     138.726E-03    -59.0277E+06    -6.91796E+06     27.0816E+06     5.94674E+06    -235.090E-03     465.645E-03    -230.555E-03     232.278E-03    -245.998E-03     476.241E-03    -230.324E-03     196.356E-03
             949     8.57880E-03     139.049E-03    -51.8345E+06     35.3344E+06     42.4102E+06     7.94434E+06    -234.564E-03     465.048E-03    -230.485E-03     248.529E-03    -247.805E-03     478.108E-03    -230.249E-03     208.993E-03
             950     9.29450E-03     139.390E-03    -45.4221E+06     50.6105E+06     54.2346E+06     7.44530E+06    -233.541E-03     463.953E-03    -230.412E-03     260.997E-03    -248.964E-03     479.237E-03    -230.148E-03     218.533E-03
             951     10.0111E-03     139.741E-03    -38.0605E+06     58.7860E+06     69.4371E+06     5.31473E+06    -231.949E-03     462.286E-03    -230.337E-03     265.619E-03    -248.917E-03     479.126E-03    -230.020E-03     221.473E-03
             952     10.7271E-03     140.090E-03    -31.2633E+06     67.0090E+06     82.2863E+06     3.60541E+06    -229.416E-03     459.640E-03    -230.224E-03     257.758E-03    -246.682E-03     476.794E-03    -229.864E-03     213.748E-03
             953     11.4445E-03     140.413E-03    -24.0450E+06     61.8526E+06     84.5258E+06     1.51361E+06    -226.323E-03     456.358E-03    -230.035E-03     239.216E-03    -242.533E-03     472.457E-03    -229.667E-03     197.019E-03
             954     12.1627E-03     140.704E-03    -15.1441E+06     72.2163E+06     87.4909E+06     449.949E+03    -223.368E-03     453.137E-03    -229.769E-03     210.704E-03    -237.175E-03     466.893E-03    -229.415E-03     172.049E-03
             955     12.8841E-03     140.947E-03    -9.48949E+06     93.5625E+06     93.1213E+06     1.47203E+06    -221.421E-03     450.898E-03    -229.477E-03     184.853E-03    -233.334E-03     462.839E-03    -229.134E-03     148.625E-03
             956     13.6013E-03     141.155E-03    -4.69709E+06     96.3794E+06     94.4484E+06     1.87298E+06    -220.631E-03     449.822E-03    -229.191E-03     126.603E-03    -228.248E-03     457.491E-03    -228.852E-03     97.7483E-03
             957     714.595E-06     138.436E-03    -123.521E+06    -315.044E+06    -123.308E+06    -923.533E+03    -231.066E-03     461.721E-03    -230.654E-03     24.7997E-03    -231.138E-03     460.594E-03    -230.635E-03     21.9172E-03
             958     1.42903E-03     138.484E-03    -121.514E+06    -300.069E+06    -118.295E+06    -279.462E+03    -231.122E-03     461.893E-03    -230.771E-03     45.7298E-03    -231.403E-03     461.021E-03    -230.751E-03     40.4133E-03
             959     2.14368E-03     138.563E-03    -118.609E+06    -276.131E+06    -107.304E+06     849.788E+03    -231.557E-03     462.317E-03    -230.760E-03     67.6355E-03    -232.203E-03     461.873E-03    -230.725E-03     59.6646E-03
             960     2.85822E-03     138.672E-03    -113.501E+06    -259.660E+06    -90.7729E+06     629.321E+03    -232.224E-03     463.028E-03    -230.804E-03     89.6037E-03    -233.373E-03     463.115E-03    -230.717E-03     78.7929E-03
             961     3.57301E-03     138.811E-03    -106.429E+06    -246.390E+06    -73.7070E+06    -423.784E+03    -233.034E-03     463.904E-03    -230.870E-03     111.408E-03    -234.849E-03     464.680E-03    -230.727E-03     97.5167E-03
             962     4.28754E-03     138.979E-03    -98.6595E+06    -217.653E+06    -57.9036E+06    -1.08486E+06    -233.832E-03     464.745E-03    -230.913E-03     132.910E-03    -236.527E-03     466.486E-03    -230.744E-03     115.721E-03
             963     5.00210E-03     139.176E-03    -90.4436E+06    -179.193E+06    -42.9924E+06    -1.17438E+06    -234.556E-03     465.490E-03    -230.934E-03     153.977E-03    -238.357E-03     468.458E-03    -230.758E-03     133.323E-03
             964     5.71633E-03     139.401E-03    -82.4317E+06    -150.903E+06    -28.5355E+06    -512.606E+03    -235.126E-03     466.080E-03    -230.955E-03     174.541E-03    -240.268E-03     470.477E-03    -230.759E-03     150.211E-03
             965     6.43106E-03     139.651E-03    -74.8272E+06    -114.809E+06    -12.7813E+06     966.666E+03    -235.429E-03     466.380E-03    -230.951E-03     194.481E-03    -242.195E-03     472.510E-03    -230.740E-03     166.323E-03
             966     7.14573E-03     139.928E-03    -67.5141E+06    -67.4344E+06     4.67192E+06     2.99009E+06    -235.486E-03     466.403E-03    -230.917E-03     213.512E-03    -244.164E-03     474.589E-03    -230.698E-03     181.460E-03
             967     7.86071E-03     140.227E-03    -60.3518E+06    -15.5192E+06     22.8060E+06     6.04488E+06    -235.160E-03     466.014E-03    -230.855E-03     231.656E-03    -246.017E-03     476.536E-03    -230.631E-03     195.765E-03
             968     8.57607E-03     140.549E-03    -53.0323E+06     31.7416E+06     39.2822E+06     8.63636E+06    -234.296E-03     465.048E-03    -230.752E-03     248.092E-03    -247.485E-03     478.047E-03    -230.524E-03     208.663E-03
             969     9.29244E-03     140.888E-03     -44.692E+06     54.0988E+06     53.6471E+06     7.93822E+06    -233.009E-03     463.635E-03    -230.627E-03     260.606E-03    -248.375E-03     478.879E-03    -230.372E-03     218.301E-03
             970     10.0087E-03     141.240E-03    -36.9089E+06     60.5016E+06     68.0007E+06     6.86786E+06    -231.004E-03     461.482E-03    -230.479E-03     265.503E-03    -247.889E-03     478.254E-03    -230.173E-03     221.661E-03
             971     10.7267E-03     141.587E-03    -30.5222E+06     71.7002E+06     82.3348E+06     5.31079E+06    -228.182E-03     458.458E-03    -230.276E-03     258.215E-03    -245.358E-03     475.541E-03    -229.924E-03     214.652E-03
             972     11.4449E-03     141.909E-03    -23.1160E+06     69.4249E+06     88.5909E+06     1.73820E+06    -225.275E-03     455.286E-03    -230.012E-03     240.518E-03    -241.451E-03     471.370E-03    -229.636E-03     198.713E-03
             973     12.1633E-03     142.198E-03    -18.6332E+06     71.2169E+06     88.4153E+06     453.273E+03    -222.255E-03     451.929E-03    -229.674E-03     212.065E-03    -236.099E-03     465.703E-03    -229.308E-03     173.656E-03
             974     12.8832E-03     142.433E-03    -13.1951E+06     90.4178E+06     92.7604E+06     1.48932E+06    -219.731E-03     449.026E-03    -229.295E-03     186.640E-03    -231.615E-03     460.916E-03    -228.943E-03     150.876E-03
             975     13.6060E-03     142.652E-03    -4.78661E+06     98.3994E+06     96.1781E+06     405.115E+03    -219.627E-03     448.559E-03    -228.932E-03     126.862E-03    -227.144E-03     456.129E-03    -228.587E-03     98.4417E-03
             976     714.243E-06     139.940E-03    -121.551E+06    -310.766E+06    -119.615E+06    -1.38652E+06    -231.571E-03     462.500E-03    -230.930E-03     24.4122E-03    -231.644E-03     461.387E-03    -230.901E-03     21.5061E-03
             977     1.42859E-03     139.987E-03    -120.095E+06    -302.411E+06    -114.851E+06    -1.18130E+06    -231.550E-03     462.736E-03    -231.187E-03     45.5530E-03    -231.825E-03     461.845E-03    -231.148E-03     40.2056E-03
             978     2.14289E-03     140.066E-03    -116.757E+06    -278.558E+06    -107.301E+06     34.4595E+03    -232.023E-03     463.197E-03    -231.174E-03     67.5345E-03    -232.657E-03     462.738E-03    -231.137E-03     59.5252E-03
             979     2.85723E-03     140.175E-03    -111.440E+06    -255.844E+06    -93.2554E+06    -803.423E+03    -232.687E-03     463.896E-03    -231.209E-03     89.4051E-03    -233.827E-03     464.003E-03    -231.143E-03     78.5300E-03
             980     3.57123E-03     140.314E-03    -104.969E+06    -243.861E+06    -76.0208E+06    -2.84129E+06    -233.433E-03     464.716E-03    -231.283E-03     111.066E-03    -235.238E-03     465.503E-03    -231.157E-03     97.0999E-03
             981     4.28539E-03     140.482E-03    -97.4183E+06    -217.221E+06    -60.5333E+06    -3.66402E+06    -234.157E-03     465.479E-03    -231.322E-03     132.455E-03    -236.835E-03     467.215E-03    -231.168E-03     115.204E-03
             982     4.99953E-03     140.679E-03    -90.5807E+06    -180.950E+06    -46.1921E+06    -2.58657E+06    -234.798E-03     466.128E-03    -231.329E-03     153.467E-03    -238.580E-03     469.079E-03    -231.167E-03     132.783E-03
             983     5.71404E-03     140.904E-03    -84.4069E+06    -152.604E+06    -31.7430E+06    -1.90151E+06    -235.287E-03     466.619E-03    -231.332E-03     174.037E-03    -240.415E-03     470.998E-03    -231.147E-03     149.687E-03
             984     6.42844E-03     141.154E-03    -77.6820E+06    -118.463E+06    -16.6924E+06    -1.19932E+06    -235.542E-03     466.847E-03    -231.305E-03     194.064E-03    -242.283E-03     472.941E-03    -231.104E-03     165.905E-03
             985     7.14331E-03     141.430E-03    -70.2293E+06    -75.0071E+06    -42.5267E+03     1.38654E+06    -235.442E-03     466.682E-03    -231.241E-03     213.290E-03    -244.076E-03     474.801E-03    -231.030E-03     181.295E-03
             986     7.85840E-03     141.729E-03    -62.4534E+06    -25.5497E+06     18.1408E+06     5.06836E+06    -234.837E-03     465.969E-03    -231.131E-03     231.488E-03    -245.633E-03     476.399E-03    -230.913E-03     195.725E-03
             987     8.57439E-03     142.049E-03    -54.1208E+06     27.4399E+06     36.6297E+06     7.30953E+06    -233.765E-03     464.728E-03    -230.963E-03     248.118E-03    -246.882E-03     477.644E-03    -230.742E-03     208.891E-03
             988     9.29047E-03     142.388E-03    -46.8253E+06     55.8582E+06     52.0090E+06     7.31360E+06    -232.138E-03     462.893E-03    -230.754E-03     261.158E-03    -247.436E-03     478.071E-03    -230.507E-03     219.189E-03
             989     10.0082E-03     142.737E-03    -40.3163E+06     60.4388E+06     65.3604E+06     6.26045E+06    -229.797E-03     460.301E-03    -230.504E-03     266.513E-03    -246.612E-03     476.998E-03    -230.206E-03     223.108E-03
             990     10.7270E-03     143.081E-03    -31.5529E+06     76.6306E+06     82.4986E+06     4.39286E+06    -226.714E-03     456.906E-03    -230.192E-03     259.456E-03    -243.816E-03     473.928E-03    -229.845E-03     216.378E-03
             991     11.4471E-03     143.403E-03    -23.9716E+06     76.5968E+06     91.0065E+06     1.60295E+06    -223.517E-03     453.337E-03    -229.820E-03     241.485E-03    -239.619E-03     469.362E-03    -229.441E-03     200.204E-03
             992     12.1688E-03     143.689E-03    -15.3233E+06     71.5075E+06     92.2176E+06     581.363E+03    -220.992E-03     450.394E-03    -229.402E-03     213.086E-03    -234.801E-03     464.135E-03    -229.022E-03     175.018E-03
             993     12.8895E-03     143.926E-03    -7.53170E+06     89.3176E+06     97.2829E+06     1.34368E+06    -219.254E-03     448.236E-03    -228.982E-03     188.211E-03    -231.169E-03     460.159E-03    -228.614E-03     152.493E-03
             994     13.6107E-03     144.135E-03    -4.26548E+06     98.8471E+06     98.2654E+06     1.52814E+06    -219.957E-03     448.576E-03    -228.618E-03     128.211E-03    -227.510E-03     456.179E-03    -228.264E-03     99.7631E-03
             995     713.875E-06     141.444E-03    -120.575E+06    -306.735E+06    -118.198E+06    -592.601E+03    -231.869E-03     463.316E-03    -231.447E-03     24.4921E-03    -231.946E-03     462.220E-03    -231.418E-03     21.5647E-03
             996     1.42786E-03     141.492E-03    -117.926E+06    -302.754E+06    -111.350E+06    -952.214E+03    -232.050E-03     463.678E-03    -231.628E-03     45.5289E-03    -232.320E-03     462.777E-03    -231.575E-03     40.1597E-03
             997     2.14181E-03     141.570E-03    -114.835E+06    -279.090E+06    -105.691E+06    -1.06672E+06    -232.559E-03     464.194E-03    -231.636E-03     67.5053E-03    -233.184E-03     463.728E-03    -231.593E-03     59.4588E-03
             998     2.85558E-03     141.680E-03    -110.926E+06    -250.234E+06    -95.9974E+06    -2.48986E+06    -233.148E-03     464.803E-03    -231.654E-03     89.3526E-03    -234.291E-03     464.941E-03    -231.611E-03     78.4240E-03
             999     3.56960E-03     141.819E-03    -105.872E+06    -238.843E+06    -79.9168E+06    -4.94930E+06    -233.809E-03     465.526E-03    -231.717E-03     111.071E-03    -235.617E-03     466.342E-03    -231.617E-03     97.0635E-03
            1000     4.28353E-03     141.987E-03    -100.485E+06    -216.633E+06    -64.6418E+06    -5.83917E+06    -234.449E-03     466.191E-03    -231.743E-03     132.566E-03    -237.130E-03     467.934E-03    -231.606E-03     115.297E-03
            1001     4.99765E-03     142.184E-03    -94.2140E+06    -184.062E+06    -49.9365E+06    -4.35873E+06    -234.970E-03     466.697E-03    -231.727E-03     153.567E-03    -238.749E-03     469.633E-03    -231.574E-03     132.878E-03
            1002     5.71176E-03     142.408E-03    -86.6382E+06    -152.578E+06    -34.1816E+06    -3.47959E+06    -235.360E-03     467.051E-03    -231.691E-03     174.130E-03    -240.471E-03     471.412E-03    -231.515E-03     149.823E-03
            1003     6.42630E-03     142.658E-03    -78.7881E+06    -121.302E+06    -18.6362E+06    -3.00486E+06    -235.478E-03     467.101E-03    -231.623E-03     194.194E-03    -242.185E-03     473.152E-03    -231.426E-03     166.109E-03
            1004     7.14105E-03     142.933E-03    -70.8959E+06    -83.0377E+06    -2.77839E+06    -876.517E+03    -235.084E-03     466.583E-03    -231.500E-03     213.520E-03    -243.661E-03     474.622E-03    -231.291E-03     181.657E-03
            1005     7.85674E-03     143.231E-03    -62.0511E+06    -35.0537E+06     14.7934E+06     2.16144E+06    -234.175E-03     465.480E-03    -231.305E-03     231.952E-03    -244.882E-03     475.800E-03    -231.090E-03     196.428E-03
            1006     8.57292E-03     143.550E-03    -53.7308E+06     19.5068E+06     32.9001E+06     6.32344E+06    -232.715E-03     463.742E-03    -231.027E-03     249.017E-03    -245.726E-03     476.536E-03    -230.812E-03     210.186E-03
            1007     9.29105E-03     143.886E-03    -46.3978E+06     55.6928E+06     48.5760E+06     8.90736E+06    -230.803E-03     461.487E-03    -230.684E-03     262.366E-03    -245.994E-03     476.571E-03    -230.455E-03     220.920E-03
            1008     10.0102E-03     144.232E-03    -38.5536E+06     66.7235E+06     65.4876E+06     6.48607E+06    -228.510E-03     458.833E-03    -230.323E-03     267.842E-03    -245.231E-03     475.464E-03    -230.036E-03     224.942E-03
            1009     10.7300E-03     144.576E-03    -30.4804E+06     80.1949E+06     83.9124E+06     2.91256E+06    -225.429E-03     455.352E-03    -229.924E-03     260.686E-03    -242.450E-03     472.307E-03    -229.576E-03     218.079E-03
            1010     11.4512E-03     144.893E-03    -21.7375E+06     81.9215E+06     94.3942E+06     1.20655E+06    -222.355E-03     451.833E-03    -229.478E-03     242.469E-03    -238.375E-03     467.793E-03    -229.093E-03     201.667E-03
            1011     12.1720E-03     145.179E-03    -16.3969E+06     71.8553E+06     92.2988E+06     226.132E+03    -220.139E-03     449.143E-03    -229.004E-03     213.403E-03    -233.901E-03     462.835E-03    -228.623E-03     175.597E-03
            1012     12.8950E-03     145.412E-03    -13.2269E+06     83.1931E+06     94.2919E+06     1.52457E+06    -219.148E-03     447.725E-03    -228.577E-03     188.414E-03    -231.082E-03     459.635E-03    -228.207E-03     152.647E-03
            1013     13.6150E-03     145.628E-03    -7.64337E+06     100.994E+06     100.364E+06     2.08589E+06    -220.039E-03     448.282E-03    -228.243E-03     130.841E-03    -227.656E-03     455.939E-03    -227.877E-03     102.318E-03
            1014     713.842E-06     142.950E-03    -123.667E+06    -302.776E+06    -122.920E+06    -1.76138E+06    -232.293E-03     464.114E-03    -231.821E-03     24.5897E-03    -232.384E-03     463.049E-03    -231.818E-03     21.6316E-03
            1015     1.42737E-03     142.998E-03    -121.172E+06    -299.852E+06    -116.844E+06    -2.47942E+06    -232.542E-03     464.579E-03    -232.036E-03     45.5378E-03    -232.824E-03     463.704E-03    -232.010E-03     40.1513E-03
            1016     2.14081E-03     143.077E-03    -117.212E+06    -276.377E+06    -109.180E+06    -3.47365E+06    -232.973E-03     465.038E-03    -232.064E-03     67.6855E-03    -233.608E-03     464.592E-03    -232.040E-03     59.6028E-03
            1017     2.85446E-03     143.186E-03    -112.838E+06    -246.526E+06    -97.9781E+06    -3.96682E+06    -233.483E-03     465.553E-03    -232.070E-03     89.5836E-03    -234.634E-03     465.713E-03    -232.039E-03     78.6417E-03
            1018     3.56801E-03     143.325E-03    -108.264E+06    -231.279E+06    -80.9603E+06    -5.34074E+06    -234.073E-03     466.178E-03    -232.106E-03     111.233E-03    -235.894E-03     467.029E-03    -232.018E-03     97.2499E-03
            1019     4.28184E-03     143.493E-03    -102.413E+06    -214.578E+06    -63.5898E+06    -6.77286E+06    -234.578E-03     466.691E-03    -232.114E-03     132.693E-03    -237.259E-03     468.432E-03    -231.972E-03     115.464E-03
            1020     4.99576E-03     143.689E-03    -94.8016E+06    -186.418E+06    -49.6144E+06    -6.78767E+06    -234.949E-03     466.998E-03    -232.049E-03     153.866E-03    -238.710E-03     469.905E-03    -231.889E-03     133.218E-03
            1021     5.71018E-03     143.912E-03    -86.8741E+06    -152.768E+06    -36.2323E+06    -6.19632E+06    -235.168E-03     467.102E-03    -231.933E-03     174.735E-03    -240.247E-03     471.435E-03    -231.767E-03     150.538E-03
            1022     6.42479E-03     144.162E-03    -79.4526E+06    -124.111E+06    -21.1723E+06    -5.26135E+06    -234.987E-03     466.772E-03    -231.785E-03     195.073E-03    -241.648E-03     472.772E-03    -231.595E-03     167.184E-03
            1023     7.14030E-03     144.435E-03    -71.5588E+06    -87.5842E+06    -5.00574E+06    -4.24643E+06    -234.287E-03     465.848E-03    -231.561E-03     214.856E-03    -242.805E-03     473.815E-03    -231.355E-03     183.267E-03
            1024     7.85662E-03     144.731E-03    -63.5303E+06    -43.8473E+06     11.1881E+06    -2.02210E+06    -233.071E-03     464.313E-03    -231.242E-03     233.766E-03    -243.699E-03     474.528E-03    -231.031E-03     198.620E-03
            1025     8.57472E-03     145.048E-03    -54.8226E+06     5.75634E+06     28.5922E+06     2.77784E+06    -231.439E-03     462.275E-03    -230.836E-03     250.884E-03    -244.341E-03     474.920E-03    -230.622E-03     212.525E-03
            1026     9.29386E-03     145.381E-03    -44.9571E+06     51.7507E+06     45.7869E+06     6.48849E+06    -229.584E-03     459.949E-03    -230.365E-03     264.208E-03    -244.664E-03     474.920E-03    -230.146E-03     223.261E-03
            1027     10.0137E-03     145.726E-03    -36.0081E+06     72.9789E+06     63.5265E+06     6.05404E+06    -227.111E-03     456.996E-03    -229.885E-03     269.599E-03    -243.708E-03     473.540E-03    -229.621E-03     227.306E-03
            1028     10.7352E-03     146.066E-03    -28.5605E+06     83.9245E+06     82.5127E+06     4.41757E+06    -224.053E-03     453.445E-03    -229.391E-03     262.998E-03    -240.944E-03     470.293E-03    -229.059E-03     221.108E-03
            1029     11.4570E-03     146.383E-03    -23.3553E+06     84.3398E+06     93.9906E+06     3.23103E+06    -221.594E-03     450.477E-03    -228.883E-03     246.083E-03    -237.563E-03     466.390E-03    -228.501E-03     205.879E-03
            1030     12.1800E-03     146.667E-03    -17.8080E+06     71.4257E+06     93.8191E+06     3.96152E+06    -220.411E-03     448.812E-03    -228.402E-03     218.360E-03    -234.202E-03     462.522E-03    -228.010E-03     180.923E-03
            1031     12.8995E-03     146.902E-03    -12.2171E+06     85.1788E+06     98.4512E+06     3.13874E+06    -219.562E-03     447.561E-03    -227.998E-03     194.194E-03    -231.605E-03     459.577E-03    -227.612E-03     158.532E-03
            1032     13.6221E-03     147.116E-03    -5.76709E+06     104.193E+06     103.934E+06     144.609E+03    -219.718E-03     447.388E-03    -227.670E-03     136.057E-03    -227.454E-03     455.172E-03    -227.293E-03     107.453E-03
            1033     713.241E-06     144.457E-03    -127.001E+06    -294.511E+06    -125.329E+06    -2.63472E+06    -232.644E-03     464.942E-03    -232.299E-03     24.6541E-03    -232.760E-03     463.926E-03    -232.314E-03     21.6987E-03
            1034     1.42653E-03     144.505E-03    -124.180E+06    -292.160E+06    -119.417E+06    -5.45639E+06    -232.852E-03     465.282E-03    -232.430E-03     45.7121E-03    -233.155E-03     464.453E-03    -232.423E-03     40.2980E-03
            1035     2.13998E-03     144.584E-03    -120.230E+06    -272.439E+06    -111.051E+06    -6.71107E+06    -233.176E-03     465.595E-03    -232.419E-03     67.8422E-03    -233.826E-03     465.173E-03    -232.405E-03     59.7420E-03
            1036     2.85343E-03     144.693E-03    -115.694E+06    -245.108E+06    -98.8839E+06    -6.06580E+06    -233.570E-03     465.947E-03    -232.377E-03     89.9241E-03    -234.730E-03     466.112E-03    -232.348E-03     79.0143E-03
            1037     3.56704E-03     144.832E-03    -109.860E+06    -225.162E+06    -81.7527E+06    -5.85213E+06    -234.043E-03     466.384E-03    -232.341E-03     111.864E-03    -235.870E-03     467.258E-03    -232.264E-03     97.9657E-03
            1038     4.28069E-03     144.999E-03    -102.939E+06    -209.598E+06    -63.7433E+06    -7.61799E+06    -234.410E-03     466.691E-03    -232.281E-03     133.666E-03    -237.088E-03     468.444E-03    -232.146E-03     116.549E-03
            1039     4.99502E-03     145.194E-03    -95.7927E+06    -184.893E+06    -49.4498E+06    -9.37277E+06    -234.607E-03     466.749E-03    -232.142E-03     155.236E-03    -238.354E-03     469.643E-03    -231.982E-03     134.739E-03
            1040     5.70970E-03     145.417E-03    -88.8007E+06    -153.243E+06    -37.8138E+06    -9.02679E+06    -234.480E-03     466.399E-03    -231.919E-03     176.399E-03    -239.531E-03     470.701E-03    -231.757E-03     152.442E-03
            1041     6.42537E-03     145.665E-03    -81.2349E+06    -124.650E+06    -24.1351E+06    -8.63116E+06    -233.913E-03     465.546E-03    -231.633E-03     197.096E-03    -240.526E-03     471.498E-03    -231.455E-03     169.559E-03
            1042     7.14204E-03     145.936E-03    -73.3632E+06    -90.0100E+06    -7.79487E+06    -8.08123E+06    -232.931E-03     464.194E-03    -231.264E-03     217.259E-03    -241.381E-03     472.087E-03    -231.066E-03     186.127E-03
            1043     7.86015E-03     146.230E-03    -65.0308E+06    -51.6091E+06     9.60900E+06    -5.64532E+06    -231.641E-03     462.452E-03    -230.811E-03     236.397E-03    -242.172E-03     472.541E-03    -230.594E-03     201.807E-03
            1044     8.57921E-03     146.544E-03    -56.4380E+06    -6.04025E+06     26.5600E+06    -2.19475E+06    -230.137E-03     460.416E-03    -230.279E-03     253.877E-03    -242.916E-03     472.895E-03    -230.055E-03     216.134E-03
            1045     9.29929E-03     146.876E-03    -48.6366E+06     44.4382E+06     42.9142E+06     1.11550E+06    -228.113E-03     457.790E-03    -229.677E-03     268.018E-03    -243.070E-03     472.607E-03    -229.456E-03     227.810E-03
            1046     10.0212E-03     147.218E-03    -41.7212E+06     72.2865E+06     58.0635E+06     3.11380E+06    -225.492E-03     454.540E-03    -229.048E-03     274.354E-03    -241.985E-03     470.973E-03    -228.802E-03     232.937E-03
            1047     10.7443E-03     147.555E-03    -35.4178E+06     84.9191E+06     74.0767E+06     2.99452E+06    -222.867E-03     451.294E-03    -228.428E-03     268.735E-03    -239.682E-03     468.071E-03    -228.129E-03     227.679E-03
            1048     11.4689E-03     147.871E-03    -27.7276E+06     83.8418E+06     89.0074E+06     2.60915E+06    -221.149E-03     449.020E-03    -227.871E-03     252.471E-03    -237.099E-03     464.911E-03    -227.507E-03     212.883E-03
            1049     12.1916E-03     148.156E-03    -18.6939E+06     70.5811E+06     93.9869E+06     1.79393E+06    -220.387E-03     447.783E-03    -227.396E-03     225.225E-03    -234.210E-03     461.517E-03    -227.001E-03     188.178E-03
            1050     12.9151E-03     148.393E-03    -9.71454E+06     87.7154E+06     101.764E+06     1.24275E+06    -220.104E-03     447.125E-03    -227.021E-03     201.008E-03    -232.223E-03     459.226E-03    -226.626E-03     165.512E-03
            1051     13.6354E-03     148.603E-03    -3.67035E+06     105.548E+06     106.842E+06     2.18530E+06    -222.199E-03     448.993E-03    -226.794E-03     142.321E-03    -230.075E-03     456.922E-03    -226.408E-03     113.410E-03
            1052     713.120E-06     145.965E-03    -126.638E+06    -285.014E+06    -124.758E+06    -2.08694E+06    -232.752E-03     465.253E-03    -232.501E-03     25.0718E-03    -232.881E-03     464.283E-03    -232.528E-03     22.1508E-03
            1053     1.42634E-03     146.013E-03    -124.720E+06    -279.522E+06    -116.109E+06    -5.28432E+06    -232.885E-03     465.450E-03    -232.565E-03     46.4862E-03    -233.215E-03     464.681E-03    -232.559E-03     41.1011E-03
            1054     2.13942E-03     146.092E-03    -121.050E+06    -267.227E+06    -105.335E+06    -7.16826E+06    -233.124E-03     465.648E-03    -232.524E-03     68.6682E-03    -233.792E-03     465.243E-03    -232.488E-03     60.6217E-03
            1055     2.85304E-03     146.200E-03    -116.189E+06    -243.212E+06    -95.5409E+06    -6.99770E+06    -233.295E-03     465.696E-03    -232.402E-03     91.0767E-03    -234.458E-03     465.861E-03    -232.358E-03     80.2699E-03
            1056     3.56697E-03     146.339E-03    -110.528E+06    -221.002E+06    -84.2372E+06    -7.69207E+06    -233.503E-03     465.733E-03    -232.229E-03     113.348E-03    -235.322E-03     466.619E-03    -232.170E-03     99.6111E-03
            1057     4.28161E-03     146.505E-03    -103.728E+06    -202.506E+06    -68.2444E+06    -9.39985E+06    -233.703E-03     465.741E-03    -232.038E-03     135.507E-03    -236.365E-03     467.513E-03    -231.935E-03     118.631E-03
            1058     4.99639E-03     146.700E-03    -96.6002E+06    -179.891E+06    -50.4878E+06    -10.8634E+06    -233.645E-03     465.439E-03    -231.793E-03     157.522E-03    -237.366E-03     468.325E-03    -231.645E-03     137.366E-03
            1059     5.71217E-03     146.920E-03    -89.1000E+06    -152.687E+06    -35.8109E+06    -11.2231E+06    -233.128E-03     464.572E-03    -231.445E-03     179.188E-03    -238.137E-03     468.827E-03    -231.273E-03     155.667E-03
            1060     6.42913E-03     147.166E-03    -81.3980E+06    -122.367E+06    -22.7895E+06    -11.2488E+06    -232.258E-03     463.243E-03    -230.985E-03     200.505E-03    -238.810E-03     469.137E-03    -230.803E-03     173.543E-03
            1061     7.14743E-03     147.435E-03    -73.9297E+06    -91.4381E+06    -8.07693E+06    -10.6829E+06    -231.128E-03     461.569E-03    -230.441E-03     221.229E-03    -239.484E-03     469.361E-03    -230.241E-03     190.820E-03
            1062     7.86705E-03     147.726E-03    -66.4279E+06    -56.8978E+06     8.39265E+06    -8.89136E+06    -229.839E-03     459.663E-03    -229.824E-03     241.327E-03    -240.244E-03     469.606E-03    -229.603E-03     207.602E-03
            1063     8.58797E-03     148.038E-03    -58.3331E+06    -14.1406E+06     25.3191E+06    -6.02338E+06    -228.197E-03     457.325E-03    -229.129E-03     260.086E-03    -240.833E-03     469.631E-03    -228.897E-03     223.361E-03
            1064     9.31085E-03     148.367E-03    -49.9045E+06     34.2799E+06     42.7097E+06    -826.299E+03    -226.063E-03     454.425E-03    -228.362E-03     275.274E-03    -240.856E-03     469.039E-03    -228.126E-03     236.259E-03
            1065     10.0357E-03     148.706E-03    -41.7623E+06     70.1691E+06     58.3659E+06     2.97958E+06    -223.992E-03     451.567E-03    -227.576E-03     282.489E-03    -240.345E-03     467.852E-03    -227.325E-03     242.241E-03
            1066     10.7615E-03     149.041E-03    -33.2939E+06     88.6962E+06     75.4630E+06     2.65872E+06    -222.445E-03     449.316E-03    -226.871E-03     277.443E-03    -239.193E-03     466.042E-03    -226.574E-03     237.278E-03
            1067     11.4856E-03     149.357E-03    -24.7363E+06     81.6146E+06     87.7244E+06     1.68581E+06    -221.650E-03     447.959E-03    -226.309E-03     261.726E-03    -237.592E-03     463.848E-03    -225.953E-03     222.752E-03
            1068     12.2097E-03     149.644E-03    -18.5142E+06     73.2515E+06     93.2454E+06     686.952E+03    -221.549E-03     447.443E-03    -225.894E-03     233.853E-03    -235.454E-03     461.272E-03    -225.507E-03     197.086E-03
            1069     12.9313E-03     149.878E-03    -14.3237E+06     87.7520E+06     99.7313E+06    -71.5639E+03    -223.171E-03     448.843E-03    -225.672E-03     207.959E-03    -235.447E-03     461.091E-03    -225.280E-03     172.142E-03
            1070     13.6523E-03     150.098E-03    -7.51079E+06     102.438E+06     104.230E+06     951.434E+03    -227.558E-03     453.267E-03    -225.709E-03     147.361E-03    -235.588E-03     461.333E-03    -225.326E-03     117.625E-03
            1071     713.357E-06     147.473E-03    -130.244E+06    -278.013E+06    -128.462E+06    -1.82218E+06    -232.406E-03     464.403E-03    -231.997E-03     25.4238E-03    -232.558E-03     463.478E-03    -232.047E-03     22.5639E-03
            1072     1.42679E-03     147.521E-03    -127.380E+06    -268.983E+06    -118.246E+06    -3.07490E+06    -232.341E-03     464.446E-03    -232.105E-03     47.4612E-03    -232.694E-03     463.735E-03    -232.121E-03     42.1995E-03
            1073     2.14058E-03     147.599E-03    -122.829E+06    -259.171E+06    -103.433E+06    -5.28015E+06    -232.455E-03     464.474E-03    -232.019E-03     70.0444E-03    -233.141E-03     464.104E-03    -231.983E-03     62.1796E-03
            1074     2.85452E-03     147.707E-03    -116.615E+06    -238.561E+06    -91.2442E+06    -7.51550E+06    -232.476E-03     464.306E-03    -231.830E-03     92.9445E-03    -233.645E-03     464.478E-03    -231.771E-03     82.3466E-03
            1075     3.56932E-03     147.844E-03    -109.891E+06    -214.606E+06    -80.5763E+06    -9.20684E+06    -232.418E-03     463.963E-03    -231.545E-03     115.726E-03    -234.231E-03     464.857E-03    -231.477E-03     102.274E-03
            1076     4.28448E-03     148.009E-03    -103.611E+06    -195.462E+06    -67.3762E+06    -10.8946E+06    -232.220E-03     463.417E-03    -231.197E-03     138.494E-03    -234.859E-03     465.189E-03    -231.100E-03     122.042E-03
            1077     5.00088E-03     148.202E-03    -96.8829E+06    -174.375E+06    -51.0878E+06    -12.0225E+06    -231.689E-03     462.454E-03    -230.765E-03     161.230E-03    -235.365E-03     465.316E-03    -230.628E-03     141.666E-03
            1078     5.71851E-03     148.420E-03     -89.609E+06    -149.112E+06    -34.3135E+06    -13.0543E+06    -230.861E-03     461.083E-03    -230.222E-03     183.852E-03    -235.806E-03     465.280E-03    -230.047E-03     161.082E-03
            1079     6.43764E-03     148.663E-03    -82.0602E+06    -120.082E+06    -20.1602E+06    -13.1896E+06    -229.811E-03     459.367E-03    -229.556E-03     206.274E-03    -236.272E-03     465.169E-03    -229.364E-03     180.245E-03
            1080     7.15842E-03     148.930E-03    -74.3492E+06    -91.7891E+06    -6.35746E+06    -12.3514E+06    -228.612E-03     457.412E-03    -228.800E-03     228.308E-03    -236.844E-03     465.071E-03    -228.591E-03     199.022E-03
            1081     7.88086E-03     149.218E-03    -66.6241E+06    -58.4228E+06     9.25207E+06    -11.2412E+06    -227.194E-03     455.163E-03    -227.969E-03     249.799E-03    -237.449E-03     464.946E-03    -227.742E-03     217.367E-03
            1082     8.60543E-03     149.527E-03    -58.4554E+06    -20.1621E+06     25.7801E+06    -8.91058E+06    -225.524E-03     452.595E-03    -227.071E-03     269.577E-03    -237.975E-03     464.690E-03    -226.828E-03     234.294E-03
            1083     9.33185E-03     149.853E-03    -49.1989E+06     21.3115E+06     43.2322E+06    -4.09621E+06    -224.099E-03     450.243E-03    -226.144E-03     285.391E-03    -238.690E-03     464.609E-03    -225.887E-03     247.780E-03
            1084     10.0592E-03     150.190E-03    -39.2964E+06     65.9353E+06     60.4715E+06     499.810E+03    -223.234E-03     448.497E-03    -225.263E-03     293.190E-03    -239.442E-03     464.623E-03    -224.999E-03     254.120E-03
            1085     10.7859E-03     150.526E-03    -30.3586E+06     89.9017E+06     75.5836E+06     2.39615E+06    -222.886E-03     447.431E-03    -224.545E-03     288.520E-03    -239.567E-03     464.104E-03    -224.253E-03     249.266E-03
            1086     11.5123E-03     150.844E-03    -23.9535E+06     83.8826E+06     83.0366E+06     1.47107E+06    -223.527E-03     447.585E-03    -224.057E-03     272.609E-03    -239.495E-03     463.525E-03    -223.729E-03     234.142E-03
            1087     12.2358E-03     151.132E-03    -17.4213E+06     73.1144E+06     90.2810E+06     913.717E+03    -225.952E-03     449.829E-03    -223.877E-03     243.524E-03    -239.977E-03     463.791E-03    -223.506E-03     206.599E-03
            1088     12.9552E-03     151.374E-03    -10.5674E+06     87.5618E+06     103.870E+06     3.49925E+06    -229.838E-03     453.880E-03    -224.041E-03     216.936E-03    -242.380E-03     466.395E-03    -223.634E-03     180.182E-03
            1089     13.6655E-03     151.601E-03    -6.06242E+06     105.595E+06     108.407E+06     1.57575E+06    -235.149E-03     459.650E-03    -224.501E-03     155.727E-03    -243.452E-03     467.993E-03    -224.103E-03     124.767E-03
            1090     714.106E-06     148.979E-03    -134.081E+06    -271.445E+06    -132.129E+06    -1.82159E+06    -231.137E-03     461.960E-03    -230.823E-03     26.1254E-03    -231.310E-03     461.077E-03    -230.896E-03     23.3596E-03
            1091     1.42847E-03     149.027E-03    -130.927E+06    -262.241E+06    -123.074E+06    -3.22303E+06    -230.972E-03     461.802E-03    -230.830E-03     48.6888E-03    -231.339E-03     461.131E-03    -230.876E-03     43.6085E-03
            1092     2.14311E-03     149.104E-03    -125.158E+06    -249.100E+06    -108.214E+06    -5.60208E+06    -230.853E-03     461.494E-03    -230.641E-03     71.9030E-03    -231.546E-03     461.172E-03    -230.640E-03     64.3145E-03
            1093     2.85850E-03     149.211E-03    -118.045E+06    -230.100E+06    -90.9328E+06    -8.81568E+06    -230.642E-03     460.993E-03    -230.352E-03     95.5799E-03    -231.808E-03     461.187E-03    -230.302E-03     85.3617E-03
            1094     3.57439E-03     149.346E-03    -110.697E+06    -208.324E+06    -75.3303E+06    -10.0961E+06    -230.211E-03     460.145E-03    -229.935E-03     119.484E-03    -232.011E-03     461.031E-03    -229.849E-03     106.556E-03
            1095     4.29177E-03     149.509E-03    -103.406E+06    -188.178E+06    -61.4403E+06    -10.9918E+06    -229.494E-03     458.874E-03    -229.380E-03     143.459E-03    -232.102E-03     460.624E-03    -229.264E-03     127.730E-03
            1096     5.01059E-03     149.699E-03    -96.2755E+06    -167.895E+06    -47.6885E+06    -12.6637E+06    -228.535E-03     457.225E-03    -228.689E-03     167.401E-03    -232.147E-03     460.036E-03    -228.545E-03     148.766E-03
            1097     5.73127E-03     149.914E-03    -89.0557E+06    -143.585E+06    -32.3262E+06    -13.6571E+06    -227.425E-03     455.303E-03    -227.878E-03     191.354E-03    -232.271E-03     459.416E-03    -227.702E-03     169.742E-03
            1098     6.45375E-03     150.154E-03    -81.7563E+06    -117.418E+06    -17.0407E+06    -14.0607E+06    -226.257E-03     453.219E-03    -226.962E-03     215.244E-03    -232.588E-03     458.891E-03    -226.758E-03     190.571E-03
            1099     7.17823E-03     150.417E-03    -74.1204E+06    -89.9506E+06    -2.62491E+06    -13.9381E+06    -225.056E-03     451.018E-03    -225.962E-03     238.786E-03    -233.130E-03     458.516E-03    -225.738E-03     211.032E-03
            1100     7.90470E-03     150.703E-03    -65.6640E+06    -57.7150E+06     12.6817E+06    -13.5612E+06    -223.816E-03     448.722E-03    -224.906E-03     261.366E-03    -233.883E-03     458.313E-03    -224.664E-03     230.589E-03
            1101     8.63308E-03     151.009E-03    -56.8108E+06    -24.6200E+06     28.7327E+06    -11.3924E+06    -223.000E-03     446.842E-03    -223.842E-03     281.950E-03    -235.233E-03     458.700E-03    -223.580E-03     248.327E-03
            1102     9.36266E-03     151.333E-03    -48.3020E+06     12.3380E+06     45.2360E+06    -7.67140E+06    -223.016E-03     445.859E-03    -222.843E-03     298.380E-03    -237.407E-03     459.990E-03    -222.565E-03     262.230E-03
            1103     10.0921E-03     151.671E-03    -40.3773E+06     58.1762E+06     60.5998E+06    -3.07231E+06    -223.709E-03     445.697E-03    -221.988E-03     306.424E-03    -239.785E-03     461.659E-03    -221.711E-03     268.502E-03
            1104     10.8208E-03     152.009E-03    -33.5197E+06     86.0569E+06     71.6073E+06     649.968E+03    -225.062E-03     446.453E-03    -221.391E-03     301.198E-03    -241.701E-03     463.070E-03    -221.109E-03     262.678E-03
            1105     11.5459E-03     152.329E-03    -27.1212E+06     86.9481E+06     77.8930E+06     1.44969E+06    -227.983E-03     449.137E-03    -221.154E-03     284.505E-03    -244.014E-03     465.155E-03    -220.851E-03     246.195E-03
            1106     12.2660E-03     152.626E-03    -21.0220E+06     73.9960E+06     86.1292E+06    -1.33688E+06    -233.100E-03     454.478E-03    -221.378E-03     256.204E-03    -247.321E-03     468.638E-03    -221.024E-03     218.761E-03
            1107     12.9771E-03     152.878E-03    -13.0611E+06     80.6812E+06     101.562E+06    -2.13674E+06    -238.930E-03     460.989E-03    -222.059E-03     229.153E-03    -251.839E-03     473.846E-03    -221.649E-03     190.973E-03
            1108     13.6895E-03     153.112E-03    -4.48573E+06     105.159E+06     113.100E+06     2.18396E+06    -246.777E-03     469.902E-03    -223.125E-03     165.615E-03    -255.378E-03     478.536E-03    -222.705E-03     133.087E-03
            1109     715.749E-06     150.480E-03    -130.719E+06    -264.056E+06    -128.299E+06    -1.64094E+06    -228.695E-03     457.236E-03    -228.541E-03     27.2379E-03    -228.865E-03     456.376E-03    -228.610E-03     24.6131E-03
            1110     1.43162E-03     150.527E-03    -126.773E+06    -253.812E+06    -118.761E+06    -4.14964E+06    -228.349E-03     456.742E-03    -228.394E-03     50.5805E-03    -228.707E-03     456.093E-03    -228.435E-03     45.7546E-03
            1111     2.14827E-03     150.603E-03    -120.867E+06    -239.396E+06    -105.481E+06    -6.78065E+06    -227.905E-03     455.947E-03    -228.042E-03     75.0693E-03    -228.579E-03     455.646E-03    -228.047E-03     67.8869E-03
            1112     2.86572E-03     150.708E-03    -114.832E+06    -221.521E+06    -89.1986E+06    -8.33067E+06    -227.233E-03     454.780E-03    -227.547E-03     99.9456E-03    -228.367E-03     454.977E-03    -227.505E-03     90.3615E-03
            1113     3.58483E-03     150.841E-03    -108.637E+06    -202.087E+06    -71.8251E+06    -9.92240E+06    -226.270E-03     453.160E-03    -226.890E-03     125.253E-03    -228.023E-03     454.017E-03    -226.799E-03     113.170E-03
            1114     4.30546E-03     151.001E-03    -100.654E+06    -181.064E+06    -55.3141E+06    -11.2266E+06    -225.127E-03     451.189E-03    -226.061E-03     150.736E-03    -227.661E-03     452.881E-03    -225.929E-03     136.082E-03
            1115     5.02818E-03     151.187E-03    -92.3766E+06    -160.776E+06    -40.2710E+06    -12.3290E+06    -223.889E-03     448.971E-03    -225.082E-03     176.312E-03    -227.392E-03     451.690E-03    -224.917E-03     159.002E-03
            1116     5.75295E-03     151.399E-03    -84.3948E+06    -138.054E+06    -25.8619E+06    -13.0744E+06    -222.651E-03     446.632E-03    -223.981E-03     201.980E-03    -227.346E-03     450.610E-03    -223.788E-03     181.926E-03
            1117     6.48018E-03     151.635E-03    -76.5284E+06    -113.090E+06    -10.8915E+06    -13.0445E+06    -221.571E-03     444.369E-03    -222.799E-03     227.542E-03    -227.710E-03     449.864E-03    -222.578E-03     204.647E-03
            1118     7.20939E-03     151.896E-03    -68.8480E+06    -85.2488E+06     4.37008E+06    -13.1252E+06    -220.749E-03     442.324E-03    -221.575E-03     252.465E-03    -228.601E-03     449.613E-03    -221.330E-03     226.633E-03
            1119     7.94068E-03     152.178E-03    -61.8964E+06    -54.9636E+06     18.9591E+06    -12.6215E+06    -220.527E-03     440.892E-03    -220.365E-03     276.030E-03    -230.352E-03     450.244E-03    -220.101E-03     247.203E-03
            1120     8.67319E-03     152.483E-03    -55.6212E+06    -25.7686E+06     33.0618E+06    -11.4629E+06    -221.358E-03     440.612E-03    -219.254E-03     297.398E-03    -233.364E-03     452.231E-03    -218.971E-03     265.554E-03
            1121     9.40542E-03     152.809E-03    -48.9935E+06     8.03108E+06     47.2090E+06    -9.05451E+06    -223.256E-03     441.583E-03    -218.327E-03     314.334E-03    -237.462E-03     455.506E-03    -218.032E-03     279.662E-03
            1122     10.1365E-03     153.149E-03    -41.4131E+06     50.0051E+06     62.0907E+06    -4.43370E+06    -226.047E-03     443.719E-03    -217.673E-03     322.361E-03    -242.004E-03     459.527E-03    -217.375E-03     285.503E-03
            1123     10.8640E-03     153.492E-03    -33.1712E+06     81.2900E+06     77.2090E+06     157.764E+03    -230.097E-03     447.517E-03    -217.420E-03     316.993E-03    -246.740E-03     464.108E-03    -217.104E-03     278.934E-03
            1124     11.5866E-03     153.821E-03    -24.7711E+06     88.9158E+06     83.6132E+06     1.12849E+06    -235.890E-03     453.535E-03    -217.645E-03     299.968E-03    -252.083E-03     469.716E-03    -217.320E-03     261.333E-03
            1125     12.3028E-03     154.128E-03    -17.4170E+06     82.2719E+06     89.0981E+06    -725.454E+03    -243.107E-03     461.535E-03    -218.428E-03     270.514E-03    -257.601E-03     476.005E-03    -218.077E-03     232.103E-03
            1126     13.0134E-03     154.396E-03    -12.8321E+06     74.9822E+06     97.1847E+06    -1.10693E+06    -252.358E-03     472.154E-03    -219.797E-03     241.025E-03    -265.672E-03     485.413E-03    -219.401E-03     200.719E-03
            1127     13.7072E-03     154.642E-03    -8.43164E+06     97.7919E+06     108.298E+06     152.880E+03    -263.481E-03     485.179E-03    -221.698E-03     174.134E-03    -272.421E-03     494.126E-03    -221.286E-03     139.117E-03
            1128     718.303E-06     151.972E-03    -124.187E+06    -256.129E+06    -122.681E+06    -2.72166E+06    -224.524E-03     448.884E-03    -224.360E-03     29.0489E-03    -224.680E-03     448.043E-03    -224.422E-03     26.6047E-03
            1129     1.43744E-03     152.018E-03    -119.182E+06    -243.991E+06    -111.439E+06    -4.60052E+06    -223.858E-03     447.981E-03    -224.123E-03     53.5129E-03    -224.193E-03     447.347E-03    -224.153E-03     49.0825E-03
            1130     2.15747E-03     152.092E-03    -113.754E+06    -230.263E+06    -97.9083E+06    -6.73394E+06    -222.915E-03     446.486E-03    -223.571E-03     79.5907E-03    -223.553E-03     446.184E-03    -223.562E-03     73.0378E-03
            1131     2.87900E-03     152.194E-03    -107.805E+06    -214.342E+06    -82.6940E+06    -8.13937E+06    -221.742E-03     444.549E-03    -222.807E-03     106.179E-03    -222.815E-03     444.715E-03    -222.754E-03     97.4702E-03
            1132     3.60227E-03     152.323E-03    -99.9400E+06    -194.545E+06    -64.9451E+06    -9.40682E+06    -220.369E-03     442.225E-03    -221.856E-03     133.194E-03    -222.023E-03     443.018E-03    -221.753E-03     122.267E-03
            1133     4.32797E-03     152.479E-03    -91.9576E+06    -174.296E+06    -47.3399E+06    -10.4933E+06    -218.900E-03     439.631E-03    -220.732E-03     160.525E-03    -221.299E-03     441.218E-03    -220.583E-03     147.304E-03
            1134     5.05600E-03     152.662E-03    -84.0456E+06    -155.253E+06    -31.3231E+06    -10.9507E+06    -217.544E-03     437.012E-03    -219.468E-03     188.045E-03    -220.872E-03     439.577E-03    -219.277E-03     172.443E-03
            1135     5.78671E-03     152.870E-03    -76.4259E+06    -132.969E+06    -17.0556E+06    -11.0032E+06    -216.521E-03     434.626E-03    -218.106E-03     215.652E-03    -220.997E-03     438.404E-03    -217.887E-03     197.554E-03
            1136     6.51948E-03     153.103E-03    -69.3640E+06    -107.870E+06    -3.40188E+06    -11.0417E+06    -216.020E-03     432.731E-03    -216.711E-03     242.973E-03    -221.899E-03     437.986E-03    -216.471E-03     222.218E-03
            1137     7.25451E-03     153.361E-03    -62.4052E+06    -81.1125E+06     11.0550E+06    -10.5315E+06    -216.405E-03     431.771E-03    -215.366E-03     269.254E-03    -223.966E-03     438.787E-03    -215.103E-03     245.626E-03
            1138     7.99050E-03     153.643E-03    -55.4264E+06    -52.4523E+06     26.1617E+06    -8.54504E+06    -218.070E-03     432.234E-03    -214.164E-03     293.807E-03    -227.600E-03     441.302E-03    -213.877E-03     267.089E-03
            1139     8.72607E-03     153.949E-03    -49.1354E+06    -22.3757E+06     41.4541E+06    -6.37524E+06    -221.081E-03     434.279E-03    -213.197E-03     315.843E-03    -232.828E-03     445.650E-03    -212.887E-03     285.855E-03
            1140     9.46050E-03     154.279E-03    -42.7415E+06     9.50183E+06     55.6029E+06    -5.16529E+06    -225.426E-03     437.971E-03    -212.545E-03     333.053E-03    -239.448E-03     451.714E-03    -212.219E-03     299.787E-03
            1141     10.1918E-03     154.626E-03    -35.7334E+06     43.4274E+06     69.2620E+06    -2.02994E+06    -231.204E-03     443.514E-03    -212.309E-03     340.662E-03    -247.075E-03     459.213E-03    -211.974E-03     304.559E-03
            1142     10.9185E-03     154.978E-03    -28.6591E+06     78.8771E+06     86.0116E+06     1.79540E+06    -238.540E-03     451.168E-03    -212.628E-03     334.338E-03    -255.245E-03     467.805E-03    -212.270E-03     296.234E-03
            1143     11.6368E-03     155.322E-03    -22.1860E+06     94.5958E+06     92.8413E+06     935.285E+03    -247.693E-03     461.258E-03    -213.566E-03     315.522E-03    -264.128E-03     477.687E-03    -213.207E-03     275.888E-03
            1144     12.3448E-03     155.643E-03    -17.1442E+06     83.9596E+06     92.9778E+06     287.690E+03    -258.460E-03     473.661E-03    -215.201E-03     282.961E-03    -273.338E-03     488.514E-03    -214.833E-03     242.467E-03
            1145     13.0395E-03     155.927E-03    -12.2761E+06     71.5980E+06     94.6596E+06     869.163E+03    -270.435E-03     487.950E-03    -217.515E-03     252.496E-03    -284.226E-03     501.685E-03    -217.128E-03     209.114E-03
            1146     13.7261E-03     156.209E-03    -4.57516E+06     96.4804E+06     106.752E+06     727.128E+03    -282.799E-03     503.201E-03    -220.402E-03     183.576E-03    -292.008E-03     512.433E-03    -220.001E-03     146.026E-03
            1147     723.429E-06     153.449E-03    -113.375E+06    -245.377E+06    -112.250E+06    -3.20733E+06    -217.809E-03     435.236E-03    -217.427E-03     31.6107E-03    -217.938E-03     434.412E-03    -217.468E-03     29.4418E-03
            1148     1.44698E-03     153.493E-03    -109.946E+06    -234.822E+06    -103.753E+06    -5.50225E+06    -216.825E-03     434.032E-03    -217.207E-03     57.6462E-03    -217.123E-03     433.401E-03    -217.226E-03     53.7472E-03
            1149     2.17225E-03     153.563E-03    -105.428E+06    -222.092E+06    -90.3350E+06    -6.98211E+06    -215.464E-03     431.956E-03    -216.492E-03     85.6354E-03    -216.047E-03     431.632E-03    -216.469E-03     79.9106E-03
            1150     2.89961E-03     153.662E-03    -99.2035E+06    -206.406E+06    -74.1432E+06    -8.48297E+06    -213.903E-03     429.408E-03    -215.505E-03     114.246E-03    -214.892E-03     429.521E-03    -215.433E-03     106.653E-03
            1151     3.62931E-03     153.787E-03    -92.0939E+06    -188.178E+06    -57.8347E+06    -9.48544E+06    -212.246E-03     426.545E-03    -214.299E-03     143.211E-03    -213.772E-03     427.237E-03    -214.182E-03     133.720E-03
            1152     4.36149E-03     153.939E-03    -84.7140E+06    -169.555E+06    -41.5968E+06    -9.54580E+06    -210.673E-03     423.596E-03    -212.923E-03     172.725E-03    -212.893E-03     425.026E-03    -212.762E-03     161.266E-03
            1153     5.09659E-03     154.117E-03    -77.2825E+06    -150.346E+06    -25.8716E+06    -9.38105E+06    -209.598E-03     421.036E-03    -211.438E-03     202.488E-03    -212.694E-03     423.391E-03    -211.237E-03     188.927E-03
            1154     5.83399E-03     154.321E-03    -69.9707E+06    -128.924E+06    -11.1264E+06    -9.03002E+06    -209.339E-03     419.263E-03    -209.925E-03     232.154E-03    -213.532E-03     422.776E-03    -209.692E-03     216.308E-03
            1155     6.57375E-03     154.552E-03    -62.5997E+06    -103.303E+06     3.61720E+06    -8.33051E+06    -210.265E-03     418.745E-03    -208.480E-03     261.152E-03    -215.817E-03     423.692E-03    -208.222E-03     242.757E-03
            1156     7.31435E-03     154.810E-03    -55.7495E+06    -79.0052E+06     17.7961E+06    -6.87222E+06    -212.768E-03     419.985E-03    -207.218E-03     288.826E-03    -219.977E-03     426.660E-03    -206.933E-03     267.530E-03
            1157     8.05453E-03     155.096E-03    -49.8592E+06    -53.0386E+06     31.8181E+06    -4.06078E+06    -216.992E-03     423.236E-03    -206.244E-03     314.392E-03    -226.192E-03     431.975E-03    -205.936E-03     289.792E-03
            1158     8.79333E-03     155.407E-03    -44.1099E+06    -19.9370E+06     48.2253E+06    -874.683E+03    -222.944E-03     428.604E-03    -205.659E-03     336.626E-03    -234.432E-03     439.723E-03    -205.325E-03     308.347E-03
            1159     9.52858E-03     155.745E-03    -39.7029E+06     14.3107E+06     63.5534E+06     987.975E+03    -230.698E-03     436.250E-03    -205.552E-03     353.037E-03    -244.580E-03     449.860E-03    -205.198E-03     320.830E-03
            1160     10.2585E-03     156.104E-03    -35.2718E+06     44.7686E+06     76.2460E+06     479.571E+03    -240.345E-03     446.379E-03    -206.033E-03     359.180E-03    -256.235E-03     462.087E-03    -205.666E-03     323.171E-03
            1161     10.9789E-03     156.472E-03    -28.3346E+06     76.6491E+06     89.3096E+06     763.045E+03    -251.472E-03     458.691E-03    -207.219E-03     350.605E-03    -268.357E-03     475.496E-03    -206.842E-03     311.505E-03
            1162     11.6892E-03     156.833E-03    -21.4034E+06     94.9186E+06     94.8381E+06     4.15162E+06    -264.068E-03     473.228E-03    -209.160E-03     329.580E-03    -280.819E-03     489.975E-03    -208.792E-03     288.012E-03
            1163     12.3863E-03     157.180E-03    -16.6984E+06     85.7552E+06     93.2134E+06     4.71594E+06    -277.928E-03     489.814E-03    -211.886E-03     296.639E-03    -293.294E-03     505.166E-03    -211.520E-03     253.222E-03
            1164     13.0698E-03     157.491E-03    -13.9625E+06     77.5850E+06     92.7174E+06     654.133E+03    -291.685E-03     507.002E-03    -215.317E-03     265.662E-03    -306.083E-03     521.367E-03    -214.946E-03     218.409E-03
            1165     13.7413E-03     157.789E-03    -10.1040E+06     97.3743E+06     102.446E+06    -2.59118E+06    -303.711E-03     522.992E-03    -219.280E-03     193.165E-03    -313.284E-03     532.585E-03    -218.895E-03     152.568E-03
            1166     730.346E-06     154.901E-03    -106.221E+06    -234.014E+06    -106.188E+06    -3.11461E+06    -207.955E-03     415.284E-03    -207.329E-03     34.0645E-03    -208.067E-03     414.486E-03    -207.366E-03     32.2799E-03
            1167     1.46186E-03     154.943E-03    -105.376E+06    -225.405E+06    -98.4384E+06    -5.19952E+06    -206.565E-03     413.704E-03    -207.139E-03     62.1211E-03    -206.837E-03     413.076E-03    -207.151E-03     58.9165E-03
            1168     2.19469E-03     155.010E-03    -101.514E+06    -213.548E+06    -86.2133E+06    -7.35534E+06    -205.122E-03     411.407E-03    -206.284E-03     92.5281E-03    -205.653E-03     411.056E-03    -206.258E-03     87.8044E-03
            1169     2.92964E-03     155.105E-03    -95.3309E+06    -198.876E+06    -70.7047E+06    -8.90009E+06    -203.399E-03     408.556E-03    -205.156E-03     123.706E-03    -204.292E-03     408.597E-03    -205.083E-03     117.447E-03
            1170     3.66721E-03     155.225E-03    -88.4544E+06    -182.719E+06    -54.6826E+06    -9.58813E+06    -201.741E-03     405.542E-03    -203.801E-03     155.192E-03    -203.116E-03     406.101E-03    -203.682E-03     147.365E-03
            1171     4.40798E-03     155.372E-03    -81.2269E+06    -165.927E+06    -39.0831E+06    -9.44318E+06    -200.636E-03     402.940E-03    -202.304E-03     187.204E-03    -202.639E-03     404.167E-03    -202.141E-03     177.711E-03
            1172     5.15125E-03     155.547E-03    -73.8134E+06    -146.596E+06    -23.6715E+06    -8.66805E+06    -200.529E-03     401.299E-03    -200.770E-03     219.265E-03    -203.341E-03     403.387E-03    -200.569E-03     207.931E-03
            1173     5.89685E-03     155.750E-03    -66.8639E+06    -126.138E+06    -8.38841E+06    -7.66820E+06    -201.923E-03     401.246E-03    -199.324E-03     250.887E-03    -205.773E-03     404.426E-03    -199.086E-03     237.429E-03
            1174     6.64312E-03     155.982E-03    -61.2079E+06    -102.561E+06     6.09353E+06    -5.11622E+06    -205.215E-03     403.303E-03    -198.087E-03     281.445E-03    -210.389E-03     407.870E-03    -197.819E-03     265.477E-03
            1175     7.38904E-03     156.244E-03    -57.6832E+06    -78.4532E+06     19.5292E+06    -1.81652E+06    -210.598E-03     407.787E-03    -197.188E-03     310.176E-03    -217.436E-03     414.080E-03    -196.893E-03     291.187E-03
            1176     8.13312E-03     156.536E-03    -55.4644E+06    -53.2407E+06     32.6961E+06     697.570E+03    -218.228E-03     414.968E-03    -196.741E-03     336.070E-03    -227.107E-03     423.367E-03    -196.420E-03     313.422E-03
            1177     8.87279E-03     156.858E-03    -53.1095E+06    -19.0177E+06     46.9487E+06     2.73607E+06    -228.111E-03     424.959E-03    -196.848E-03     357.580E-03    -239.394E-03     435.853E-03    -196.509E-03     330.597E-03
            1178     9.60627E-03     157.210E-03    -49.0949E+06     19.2623E+06     61.8682E+06     3.34305E+06    -240.186E-03     437.802E-03    -197.615E-03     372.560E-03    -254.028E-03     451.366E-03    -197.263E-03     340.704E-03
            1179     10.3303E-03     157.587E-03    -43.8397E+06     55.9003E+06     76.4342E+06     600.719E+03    -253.982E-03     453.123E-03    -199.141E-03     377.111E-03    -270.051E-03     469.024E-03    -198.776E-03     340.298E-03
            1180     11.0435E-03     157.978E-03    -38.4893E+06     77.1900E+06     83.2400E+06    -3.37906E+06    -269.024E-03     470.509E-03    -201.486E-03     367.052E-03    -286.283E-03     487.678E-03    -201.125E-03     325.917E-03
            1181     11.7420E-03     158.365E-03    -30.4944E+06     83.0764E+06     82.4028E+06    -3.50019E+06    -284.969E-03     489.642E-03    -204.672E-03     344.341E-03    -302.222E-03     506.857E-03    -204.337E-03     299.578E-03
            1182     12.4265E-03     158.740E-03    -19.7460E+06     84.6164E+06     86.0029E+06    -1.53785E+06    -300.316E-03     508.997E-03    -208.681E-03     308.688E-03    -316.269E-03     524.946E-03    -208.345E-03     261.201E-03
            1183     13.0970E-03     159.080E-03    -10.8687E+06     79.2911E+06     88.6220E+06     477.465E+03    -313.878E-03     527.204E-03    -213.326E-03     274.989E-03    -328.726E-03     542.050E-03    -212.982E-03     223.563E-03
            1184     13.7516E-03     159.414E-03    -3.83514E+06     96.4079E+06     99.5231E+06    -140.037E+03    -323.581E-03     541.925E-03    -218.344E-03     201.873E-03    -333.368E-03     551.761E-03    -217.981E-03     158.401E-03
            1185     740.090E-06     156.321E-03    -105.622E+06    -223.432E+06    -105.875E+06    -3.22790E+06    -194.578E-03     388.434E-03    -193.857E-03     36.8103E-03    -194.695E-03     387.672E-03    -193.909E-03     35.4466E-03
            1186     1.48125E-03     156.360E-03    -104.045E+06    -216.083E+06    -96.4015E+06    -5.45944E+06    -193.004E-03     386.670E-03    -193.666E-03     67.3060E-03    -193.255E-03     386.045E-03    -193.684E-03     64.8748E-03
            1187     2.22425E-03     156.424E-03    -98.7221E+06    -204.234E+06    -83.9153E+06    -7.48959E+06    -191.597E-03     384.329E-03    -192.732E-03     100.375E-03    -192.060E-03     383.940E-03    -192.712E-03     96.7784E-03
            1188     2.96958E-03     156.514E-03    -93.1487E+06    -191.133E+06    -69.6900E+06    -9.20338E+06    -190.126E-03     381.679E-03    -191.552E-03     134.260E-03    -190.897E-03     381.623E-03    -191.489E-03     129.470E-03
            1189     3.71789E-03     156.630E-03    -87.2160E+06    -178.036E+06    -54.4875E+06    -9.34369E+06    -189.185E-03     379.395E-03    -190.210E-03     168.538E-03    -190.373E-03     379.782E-03    -190.098E-03     162.498E-03
            1190     4.46829E-03     156.775E-03    -81.6287E+06    -162.680E+06    -39.5225E+06    -8.26632E+06    -189.399E-03     378.224E-03    -188.825E-03     203.057E-03    -191.148E-03     379.205E-03    -188.669E-03     195.622E-03
            1191     5.22083E-03     156.948E-03    -77.4155E+06    -144.713E+06    -25.7478E+06    -6.33182E+06    -191.286E-03     378.819E-03    -187.533E-03     237.250E-03    -193.782E-03     380.588E-03    -187.339E-03     228.181E-03
            1192     5.97397E-03     157.152E-03    -75.1308E+06    -125.524E+06    -12.6833E+06    -3.39794E+06    -195.347E-03     381.827E-03    -186.479E-03     270.528E-03    -198.835E-03     384.629E-03    -186.252E-03     259.448E-03
            1193     6.72665E-03     157.389E-03    -74.0088E+06    -103.689E+06    -25.9007E+03    -494.322E+03    -201.879E-03     387.679E-03    -185.800E-03     302.177E-03    -206.678E-03     391.842E-03    -185.542E-03     288.516E-03
            1194     7.47681E-03     157.660E-03    -71.4782E+06    -79.1209E+06     13.0111E+06     2.13685E+06    -211.067E-03     396.690E-03    -185.623E-03     331.191E-03    -217.547E-03     402.597E-03    -185.339E-03     314.232E-03
            1195     8.22211E-03     157.965E-03    -66.7759E+06    -51.8365E+06     27.3634E+06     4.23478E+06    -222.948E-03     409.015E-03    -186.067E-03     356.621E-03    -231.521E-03     417.091E-03    -185.758E-03     335.505E-03
            1196     8.96053E-03     158.305E-03    -59.9357E+06    -15.5295E+06     43.1852E+06     4.91118E+06    -237.408E-03     424.635E-03    -187.228E-03     377.208E-03    -248.499E-03     435.343E-03    -186.903E-03     350.939E-03
            1197     9.68901E-03     158.678E-03    -51.5048E+06     25.6272E+06     59.2513E+06     4.62403E+06    -254.010E-03     443.204E-03    -189.195E-03     390.882E-03    -267.847E-03     456.792E-03    -188.861E-03     358.633E-03
            1198     10.4058E-03     159.081E-03    -43.2779E+06     68.3149E+06     75.4425E+06     3.45786E+06    -271.877E-03     463.914E-03    -192.036E-03     393.630E-03    -288.160E-03     480.084E-03    -191.695E-03     355.187E-03
            1199     11.1078E-03     159.501E-03    -35.4564E+06     89.4344E+06     81.9776E+06    -322.604E+03    -290.402E-03     486.175E-03    -195.772E-03     381.758E-03    -308.073E-03     503.819E-03    -195.441E-03     337.729E-03
            1200     11.7940E-03     159.922E-03    -27.9808E+06     86.1458E+06     79.7844E+06    -6.17421E+06    -308.847E-03     509.234E-03    -200.387E-03     357.383E-03    -326.622E-03     527.004E-03    -200.072E-03     308.658E-03
            1201     12.4620E-03     160.330E-03    -21.6533E+06     80.2900E+06     81.7411E+06    -9.70264E+06    -324.435E-03     530.199E-03    -205.765E-03     321.173E-03    -340.998E-03     546.750E-03    -205.441E-03     269.147E-03
            1202     13.1139E-03     160.702E-03    -13.8667E+06     70.0384E+06     82.0112E+06    -9.97374E+06    -335.148E-03     546.729E-03    -211.581E-03     287.416E-03    -350.627E-03     562.183E-03    -211.253E-03     231.421E-03
            1203     13.7631E-03     161.053E-03    -6.36715E+06     87.0574E+06     93.6401E+06    -5.04958E+06    -341.499E-03     559.037E-03    -217.538E-03     211.675E-03    -351.609E-03     569.170E-03    -217.187E-03     165.347E-03
            1204     753.009E-06     157.697E-03    -103.549E+06    -213.983E+06    -102.721E+06    -2.27390E+06    -177.397E-03     354.181E-03    -176.784E-03     39.9119E-03    -177.514E-03     353.439E-03    -176.837E-03     38.9887E-03
            1205     1.50697E-03     157.734E-03    -103.154E+06    -206.144E+06    -97.1161E+06    -5.09332E+06    -176.229E-03     352.799E-03    -176.570E-03     73.4705E-03    -176.454E-03     352.178E-03    -176.607E-03     71.8075E-03
            1206     2.26262E-03     157.795E-03    -100.972E+06    -196.460E+06    -87.9885E+06    -7.00706E+06    -175.282E-03     351.034E-03    -175.752E-03     109.257E-03    -175.677E-03     350.601E-03    -175.761E-03     106.788E-03
            1207     3.02046E-03     157.882E-03    -98.4939E+06    -185.120E+06    -76.0109E+06    -6.85108E+06    -174.814E-03     349.577E-03    -174.764E-03     145.733E-03    -175.463E-03     349.415E-03    -174.732E-03     142.420E-03
            1208     3.78002E-03     157.997E-03    -96.9142E+06    -174.556E+06    -62.7968E+06    -5.85454E+06    -175.569E-03     349.314E-03    -173.745E-03     182.513E-03    -176.575E-03     349.517E-03    -173.665E-03     178.243E-03
            1209     4.54140E-03     158.141E-03    -95.8163E+06    -161.801E+06    -49.6915E+06    -3.77975E+06    -178.148E-03     350.988E-03    -172.840E-03     219.102E-03    -179.652E-03     351.704E-03    -172.715E-03     213.666E-03
            1210     5.30285E-03     158.317E-03    -94.7366E+06    -144.704E+06    -36.6712E+06    -1.07130E+06    -183.122E-03     355.316E-03    -172.194E-03     254.976E-03    -185.319E-03     356.757E-03    -172.030E-03     248.024E-03
            1211     6.06320E-03     158.528E-03    -91.7570E+06    -125.471E+06    -22.6302E+06     1.27130E+06    -190.836E-03     362.792E-03    -171.957E-03     289.273E-03    -193.972E-03     365.216E-03    -171.755E-03     280.302E-03
            1212     6.82037E-03     158.775E-03    -85.4939E+06    -103.482E+06    -7.69732E+06     2.79295E+06    -201.500E-03     373.752E-03    -172.252E-03     321.267E-03    -205.903E-03     377.506E-03    -172.016E-03     309.558E-03
            1213     7.57222E-03     159.061E-03    -77.5124E+06    -79.1326E+06     6.69577E+06     3.84633E+06    -215.216E-03     388.411E-03    -173.195E-03     350.011E-03    -221.303E-03     393.927E-03    -172.935E-03     334.628E-03
            1214     8.31650E-03     159.385E-03    -67.8607E+06    -47.7727E+06     22.3400E+06     3.55012E+06    -231.764E-03     406.657E-03    -174.893E-03     374.496E-03    -240.006E-03     414.435E-03    -174.613E-03     354.320E-03
            1215     9.05056E-03     159.750E-03    -57.0691E+06    -12.3982E+06     38.7381E+06     3.01406E+06    -250.739E-03     428.164E-03    -177.426E-03     393.749E-03    -261.595E-03     438.678E-03    -177.131E-03     367.570E-03
            1216     9.77212E-03     160.153E-03    -46.5768E+06     28.6523E+06     55.7598E+06     3.72616E+06    -271.434E-03     452.281E-03    -180.847E-03     405.769E-03    -285.189E-03     465.831E-03    -180.542E-03     372.529E-03
            1217     10.4785E-03     160.588E-03    -36.2785E+06     76.0297E+06     74.1864E+06     3.59417E+06    -293.027E-03     478.221E-03    -185.193E-03     407.190E-03    -309.455E-03     494.598E-03    -184.880E-03     366.429E-03
            1218     11.1678E-03     161.045E-03    -26.7247E+06     99.2080E+06     83.6229E+06     1.79337E+06    -314.261E-03     504.714E-03    -190.453E-03     394.494E-03    -332.311E-03     522.804E-03    -190.140E-03     346.872E-03
            1219     11.8384E-03     161.503E-03    -21.0360E+06     98.4981E+06     82.7541E+06     11.3252E+03    -332.692E-03     529.191E-03    -196.500E-03     369.806E-03    -350.980E-03     547.536E-03    -196.198E-03     316.955E-03
            1220     12.4938E-03     161.952E-03    -18.0467E+06     97.7021E+06     87.8353E+06    -5.06422E+06    -345.759E-03     548.871E-03    -203.112E-03     333.976E-03    -362.872E-03     566.030E-03    -202.789E-03     277.961E-03
            1221     13.1403E-03     162.350E-03    -15.8814E+06     75.4872E+06     85.3101E+06    -12.9092E+06    -355.152E-03     565.116E-03    -209.964E-03     299.376E-03    -371.163E-03     581.105E-03    -209.624E-03     239.370E-03
            1222     13.7719E-03     162.726E-03    -9.10942E+06     65.4284E+06     87.0332E+06    -13.6496E+06    -359.325E-03     576.114E-03    -216.789E-03     219.728E-03    -369.695E-03     586.440E-03    -216.435E-03     170.467E-03
            1223     768.930E-06     159.022E-03    -118.863E+06    -207.146E+06    -117.753E+06    -1.70969E+06    -156.935E-03     313.134E-03    -156.198E-03     43.1266E-03    -157.107E-03     312.450E-03    -156.314E-03     42.5990E-03
            1224     1.53849E-03     159.058E-03    -117.900E+06    -198.169E+06    -112.957E+06    -2.86465E+06    -156.562E-03     312.743E-03    -156.181E-03     79.5664E-03    -156.808E-03     312.156E-03    -156.287E-03     78.6113E-03
            1225     2.30893E-03     159.118E-03    -118.488E+06    -191.880E+06    -104.694E+06    -2.90316E+06    -157.105E-03     312.879E-03    -155.774E-03     118.107E-03    -157.479E-03     312.421E-03    -155.847E-03     116.672E-03
            1226     3.08046E-03     159.205E-03    -119.105E+06    -183.667E+06    -93.5830E+06    -1.56824E+06    -158.822E-03     314.215E-03    -155.393E-03     157.025E-03    -159.393E-03     313.955E-03    -155.422E-03     155.031E-03
            1227     3.85270E-03     159.321E-03    -117.984E+06    -173.544E+06    -79.8292E+06     181.938E+03    -162.400E-03     317.563E-03    -155.163E-03     195.746E-03    -163.257E-03     317.595E-03    -155.139E-03     193.023E-03
            1228     4.62387E-03     159.470E-03    -114.795E+06    -161.701E+06    -63.6372E+06     1.43369E+06    -168.483E-03     323.709E-03    -155.226E-03     233.805E-03    -169.757E-03     324.172E-03    -155.143E-03     230.056E-03
            1229     5.39321E-03     159.655E-03    -108.313E+06    -143.799E+06    -46.6783E+06     1.80280E+06    -177.448E-03     333.154E-03    -155.705E-03     270.503E-03    -179.334E-03     334.273E-03    -155.573E-03     265.274E-03
            1230     6.15848E-03     159.878E-03    -99.1129E+06    -123.143E+06    -30.3189E+06     953.118E+03    -189.498E-03     346.218E-03    -156.720E-03     304.977E-03    -192.260E-03     348.279E-03    -156.550E-03     297.639E-03
            1231     6.91785E-03     160.142E-03    -89.0673E+06    -101.949E+06    -15.6406E+06    -127.214E+03    -204.774E-03     363.155E-03    -158.381E-03     336.648E-03    -208.763E-03     366.518E-03    -158.182E-03     326.373E-03
            1232     7.66907E-03     160.449E-03    -77.6592E+06    -77.0872E+06    -716.491E+03    -1.46088E+06    -223.152E-03     383.943E-03    -160.791E-03     364.543E-03    -228.819E-03     389.075E-03    -160.570E-03     350.222E-03
            1233     8.40934E-03     160.801E-03    -65.7527E+06    -43.8232E+06     15.7506E+06    -2.63784E+06    -244.209E-03     408.239E-03    -164.030E-03     387.774E-03    -252.073E-03     415.686E-03    -163.793E-03     368.070E-03
            1234     9.13643E-03     161.197E-03    -54.8452E+06    -12.7956E+06     31.3388E+06    -2.98549E+06    -267.252E-03     435.405E-03    -168.153E-03     405.539E-03    -277.792E-03     445.637E-03    -167.899E-03     379.036E-03
            1235     9.84844E-03     161.635E-03    -44.4822E+06     27.5138E+06     49.3499E+06    -2.29162E+06    -291.388E-03     464.564E-03    -173.176E-03     416.270E-03    -304.933E-03     477.932E-03    -172.905E-03     381.686E-03
            1236     10.5436E-03     162.111E-03    -35.1243E+06     78.7217E+06     68.7303E+06    -1.57871E+06    -315.442E-03     494.522E-03    -179.080E-03     417.281E-03    -331.838E-03     510.901E-03    -178.799E-03     374.024E-03
            1237     11.2200E-03     162.611E-03    -27.1198E+06     99.7233E+06     78.9778E+06    -2.02775E+06    -337.047E-03     522.838E-03    -185.791E-03     405.416E-03    -355.281E-03     541.127E-03    -185.501E-03     354.411E-03
            1238     11.8786E-03     163.113E-03    -17.8172E+06     98.8580E+06     84.3654E+06    -1.77716E+06    -354.053E-03     547.172E-03    -193.119E-03     380.935E-03    -372.676E-03     565.861E-03    -192.815E-03     324.356E-03
            1239     12.5246E-03     163.590E-03    -7.99904E+06     110.331E+06     100.192E+06    -829.770E+03    -365.884E-03     566.728E-03    -200.844E-03     342.438E-03    -383.343E-03     584.280E-03    -200.492E-03     282.517E-03
            1240     13.1563E-03     164.023E-03     112.561E+03     91.7677E+06     101.863E+06    -3.24756E+06    -373.211E-03     581.859E-03    -208.648E-03     304.246E-03    -389.358E-03     598.051E-03    -208.272E-03     240.912E-03
            1241     13.7813E-03     164.430E-03     2.28828E+06     58.5509E+06     93.3295E+06    -4.43125E+06    -373.277E-03     589.494E-03    -216.217E-03     220.925E-03    -383.591E-03     599.759E-03    -215.838E-03     169.855E-03
            1242     786.998E-06     160.290E-03    -143.795E+06    -204.931E+06    -142.190E+06     1.79272E+06    -134.751E-03     267.870E-03    -133.119E-03     46.0959E-03    -135.003E-03     267.253E-03    -133.325E-03     45.9090E-03
            1243     1.57419E-03     160.327E-03    -146.780E+06    -195.801E+06    -139.788E+06     1.10834E+06    -135.627E-03     269.459E-03    -133.832E-03     84.8219E-03    -135.939E-03     268.920E-03    -134.034E-03     84.4367E-03
            1244     2.36115E-03     160.389E-03    -147.088E+06    -192.356E+06    -129.279E+06     2.65133E+06    -138.688E-03     272.894E-03    -134.205E-03     125.546E-03    -139.080E-03     272.422E-03    -134.360E-03     124.924E-03
            1245     3.14653E-03     160.480E-03    -143.979E+06    -181.479E+06    -113.955E+06     2.10817E+06    -143.762E-03     278.633E-03    -134.871E-03     166.204E-03    -144.285E-03     278.306E-03    -134.969E-03     165.191E-03
            1246     3.92959E-03     160.603E-03    -136.865E+06    -173.243E+06    -96.2147E+06     448.913E+03    -151.275E-03     287.182E-03    -135.907E-03     206.170E-03    -151.993E-03     287.063E-03    -135.938E-03     204.539E-03
            1247     4.70964E-03     160.763E-03    -126.274E+06    -159.643E+06    -76.5079E+06    -700.702E+03    -161.604E-03     298.988E-03    -137.384E-03     244.873E-03    -162.650E-03     299.234E-03    -137.352E-03     242.297E-03
            1248     5.48425E-03     160.963E-03    -114.673E+06    -139.718E+06    -57.7499E+06    -3.28122E+06    -174.978E-03     314.357E-03    -139.379E-03     281.745E-03    -176.561E-03     315.204E-03    -139.299E-03     277.712E-03
            1249     6.25214E-03     161.205E-03    -102.932E+06    -119.196E+06    -41.4064E+06    -5.76934E+06    -191.643E-03     333.631E-03    -141.988E-03     315.930E-03    -194.046E-03     335.373E-03    -141.872E-03     309.738E-03
            1250     7.01102E-03     161.493E-03    -90.4722E+06    -96.9537E+06    -25.6337E+06    -8.58842E+06    -211.523E-03     356.833E-03    -145.310E-03     346.619E-03    -215.114E-03     359.847E-03    -145.166E-03     337.320E-03
            1251     7.75847E-03     161.829E-03    -77.8962E+06    -73.3487E+06    -9.69185E+06    -11.9694E+06    -234.194E-03     383.614E-03    -149.420E-03     373.093E-03    -239.413E-03     388.344E-03    -149.249E-03     359.480E-03
            1252     8.49269E-03     162.213E-03    -65.7176E+06    -44.5177E+06     6.66846E+06    -13.2621E+06    -259.112E-03     413.471E-03    -154.359E-03     394.717E-03    -266.469E-03     420.442E-03    -154.166E-03     375.337E-03
            1253     9.21153E-03     162.647E-03    -53.0538E+06    -15.5591E+06     23.4201E+06    -12.9665E+06    -285.446E-03     445.602E-03    -160.156E-03     410.619E-03    -295.420E-03     455.292E-03    -159.939E-03     383.881E-03
            1254     9.91311E-03     163.126E-03    -40.4539E+06     21.4593E+06     42.2932E+06    -10.2617E+06    -311.893E-03     478.681E-03    -166.788E-03     420.072E-03    -324.832E-03     491.459E-03    -166.549E-03     384.544E-03
            1255     10.5962E-03     163.647E-03    -28.6237E+06     74.0566E+06     63.0162E+06    -4.63899E+06    -336.449E-03     510.611E-03    -174.162E-03     421.057E-03    -352.289E-03     526.459E-03    -173.913E-03     376.126E-03
            1256     11.2616E-03     164.193E-03    -17.7612E+06     102.502E+06     79.5881E+06    -2.54954E+06    -356.450E-03     538.608E-03    -182.158E-03     408.801E-03    -374.322E-03     556.576E-03    -181.883E-03     355.366E-03
            1257     11.9128E-03     164.735E-03    -10.5972E+06     99.0779E+06     89.7848E+06    -2.77510E+06    -372.085E-03     562.685E-03    -190.599E-03     383.317E-03    -390.615E-03     581.293E-03    -190.279E-03     323.386E-03
            1258     12.5459E-03     165.257E-03    -7.06766E+06     101.322E+06     105.031E+06    -3.58416E+06    -382.490E-03     581.769E-03    -199.279E-03     344.984E-03    -400.025E-03     599.354E-03    -198.890E-03     281.508E-03
            1259     13.1664E-03     165.721E-03    -4.29582E+06     91.1796E+06     109.417E+06    -592.469E+03    -385.660E-03     593.479E-03    -207.819E-03     307.548E-03    -401.940E-03     609.761E-03    -207.398E-03     241.666E-03
            1260     13.7839E-03     166.137E-03    -2.98352E+06     64.3356E+06     101.453E+06     5.13367E+06    -382.119E-03     597.992E-03    -215.874E-03     224.386E-03    -392.570E-03     608.374E-03    -215.455E-03     171.954E-03
            1261     806.239E-06     161.500E-03    -182.421E+06    -210.170E+06    -181.856E+06     3.86681E+06    -112.901E-03     223.388E-03    -110.487E-03     47.5036E-03    -113.266E-03     222.850E-03    -110.827E-03     47.5165E-03
            1262     1.61081E-03     161.540E-03    -180.909E+06    -196.638E+06    -172.211E+06     4.55111E+06    -115.983E-03     228.018E-03    -112.035E-03     87.4207E-03    -116.380E-03     227.543E-03    -112.349E-03     87.3936E-03
            1263     2.41256E-03     161.610E-03    -175.122E+06    -191.020E+06    -155.100E+06     1.63554E+06    -122.122E-03     235.615E-03    -113.493E-03     129.331E-03    -122.547E-03     235.166E-03    -113.737E-03     129.142E-03
            1264     3.21075E-03     161.711E-03    -164.684E+06    -175.588E+06    -135.390E+06    -2.42306E+06    -131.006E-03     246.460E-03    -115.454E-03     170.904E-03    -131.497E-03     246.120E-03    -115.638E-03     170.407E-03
            1265     4.00364E-03     161.848E-03    -152.406E+06    -166.786E+06    -114.400E+06    -8.21911E+06    -142.868E-03     260.853E-03    -117.984E-03     211.582E-03    -143.488E-03     260.664E-03    -118.094E-03     210.534E-03
            1266     4.78925E-03     162.025E-03    -138.371E+06    -154.547E+06    -95.2850E+06    -13.8986E+06    -157.636E-03     278.716E-03    -121.080E-03     250.444E-03    -158.513E-03     278.830E-03    -121.131E-03     248.496E-03
            1267     5.56732E-03     162.246E-03    -122.699E+06    -134.436E+06    -75.6900E+06    -16.8270E+06    -175.519E-03     300.295E-03    -124.777E-03     286.885E-03    -176.855E-03     300.947E-03    -124.782E-03     283.560E-03
            1268     6.33534E-03     162.514E-03    -106.443E+06    -114.027E+06    -55.7224E+06    -20.4129E+06    -196.648E-03     325.800E-03    -129.151E-03     319.997E-03    -198.722E-03     327.267E-03    -129.110E-03     314.533E-03
            1269     7.09109E-03     162.832E-03    -90.2712E+06    -93.4728E+06    -36.2487E+06    -23.3893E+06    -220.673E-03     354.937E-03    -134.264E-03     348.961E-03    -223.829E-03     357.566E-03    -134.179E-03     340.378E-03
            1270     7.83308E-03     163.201E-03    -75.0904E+06    -71.0069E+06    -17.0391E+06    -24.4881E+06    -247.065E-03     387.220E-03    -140.155E-03     373.059E-03    -251.708E-03     391.419E-03    -140.029E-03     360.134E-03
            1271     8.55930E-03     163.624E-03    -61.0505E+06    -45.7031E+06     1.32724E+06    -24.9145E+06    -275.050E-03     421.888E-03    -146.838E-03     391.632E-03    -281.622E-03     428.106E-03    -146.677E-03     372.870E-03
            1272     9.26803E-03     164.100E-03    -48.6627E+06    -20.1928E+06     17.6050E+06    -24.0420E+06    -303.390E-03     457.685E-03    -154.295E-03     404.260E-03    -312.318E-03     466.348E-03    -154.107E-03     378.033E-03
            1273     9.95829E-03     164.624E-03    -38.1676E+06     6.48322E+06     33.4116E+06    -20.4869E+06    -330.334E-03     492.794E-03    -162.460E-03     410.817E-03    -341.958E-03     504.239E-03    -162.247E-03     375.630E-03
            1274     10.6308E-03     165.191E-03    -30.6029E+06     54.4305E+06     54.5285E+06    -14.3604E+06    -353.163E-03     524.344E-03    -171.181E-03     409.467E-03    -367.539E-03     538.674E-03    -170.943E-03     364.645E-03
            1275     11.2871E-03     165.782E-03    -29.0229E+06     93.0379E+06     74.1356E+06    -8.44239E+06    -370.712E-03     550.996E-03    -180.284E-03     396.881E-03    -387.277E-03     567.600E-03    -180.006E-03     343.015E-03
            1276     11.9246E-03     166.367E-03    -32.0537E+06     102.585E+06     85.2551E+06    -9.94974E+06    -383.044E-03     572.601E-03    -189.556E-03     376.062E-03    -400.928E-03     590.510E-03    -189.232E-03     314.432E-03
            1277     12.5506E-03     166.931E-03    -30.9225E+06     95.4628E+06     100.156E+06    -15.3796E+06    -388.935E-03     587.708E-03    -198.773E-03     343.572E-03    -406.327E-03     605.056E-03    -198.366E-03     278.386E-03
            1278     13.1723E-03     167.422E-03    -24.2360E+06     69.9551E+06     103.487E+06    -12.3802E+06    -389.139E-03     596.725E-03    -207.587E-03     306.619E-03    -405.170E-03     612.630E-03    -207.136E-03     240.437E-03
            1279     13.7894E-03     167.861E-03    -13.2813E+06     48.0988E+06     103.521E+06    -8.99551E+06    -384.022E-03     599.809E-03    -215.787E-03     225.500E-03    -394.344E-03     609.960E-03    -215.319E-03     172.972E-03
            1280     821.999E-06     162.659E-03    -255.905E+06    -207.602E+06    -254.925E+06    -6.71010E+06    -95.4183E-03     188.001E-03    -92.5823E-03     45.8540E-03    -96.0336E-03     187.694E-03    -93.1848E-03     45.7846E-03
            1281     1.64108E-03     162.707E-03    -240.640E+06    -192.562E+06    -234.871E+06    -9.60556E+06    -100.334E-03     195.036E-03    -94.7025E-03     84.2530E-03    -100.922E-03     194.754E-03    -95.2487E-03     84.1480E-03
            1282     2.45563E-03     162.787E-03    -220.398E+06    -178.280E+06    -203.734E+06    -16.9473E+06    -109.028E-03     206.080E-03    -97.0520E-03     125.571E-03    -109.591E-03     205.809E-03    -97.4926E-03     125.309E-03
            1283     3.26354E-03     162.904E-03    -196.673E+06    -165.691E+06    -170.268E+06    -25.0521E+06    -121.126E-03     221.271E-03    -100.145E-03     167.057E-03    -121.680E-03     221.027E-03    -100.470E-03     166.521E-03
            1284     4.06324E-03     163.061E-03    -171.701E+06    -155.269E+06    -141.614E+06    -31.0625E+06    -136.642E-03     240.594E-03    -103.953E-03     207.756E-03    -137.238E-03     240.442E-03    -104.187E-03     206.772E-03
            1285     4.85367E-03     163.261E-03    -148.402E+06    -145.514E+06    -115.601E+06    -36.7308E+06    -155.629E-03     264.129E-03    -108.501E-03     246.286E-03    -156.392E-03     264.192E-03    -108.653E-03     244.519E-03
            1286     5.63226E-03     163.508E-03    -126.272E+06    -131.406E+06    -89.5055E+06    -39.8418E+06    -177.891E-03     291.703E-03    -113.813E-03     281.525E-03    -179.010E-03     292.182E-03    -113.887E-03     278.498E-03
            1287     6.39764E-03     163.808E-03    -106.534E+06    -109.860E+06    -65.3146E+06    -40.7829E+06    -202.964E-03     322.846E-03    -119.883E-03     312.376E-03    -204.701E-03     324.025E-03    -119.896E-03     307.379E-03
            1288     7.14849E-03     164.160E-03    -90.5520E+06    -93.5046E+06    -44.2512E+06    -41.5019E+06    -230.475E-03     357.210E-03    -126.735E-03     337.768E-03    -233.119E-03     359.353E-03    -126.689E-03     329.852E-03
            1289     7.88267E-03     164.569E-03    -77.6985E+06    -72.7689E+06    -25.0371E+06    -41.3639E+06    -259.671E-03     394.039E-03    -134.368E-03     357.041E-03    -263.547E-03     397.481E-03    -134.275E-03     345.047E-03
            1290     8.59843E-03     165.032E-03    -68.2745E+06    -50.6192E+06    -8.30955E+06    -41.2170E+06    -289.329E-03     432.088E-03    -142.758E-03     370.037E-03    -294.766E-03     437.156E-03    -142.627E-03     352.593E-03
            1291     9.29522E-03     165.552E-03    -62.2958E+06    -29.4960E+06     6.96467E+06    -41.2324E+06    -317.760E-03     469.592E-03    -151.832E-03     377.036E-03    -325.093E-03     476.608E-03    -151.665E-03     352.619E-03
            1292     9.97310E-03     166.121E-03    -58.7070E+06    -12.6894E+06     22.3455E+06    -40.9696E+06    -342.799E-03     504.243E-03    -161.444E-03     378.616E-03    -352.282E-03     513.434E-03    -161.229E-03     345.940E-03
            1293     10.6328E-03     166.731E-03    -54.2411E+06     15.7703E+06     40.7082E+06    -34.1562E+06    -361.996E-03     533.331E-03    -171.335E-03     374.580E-03    -373.700E-03     544.804E-03    -171.075E-03     333.165E-03
            1294     11.2774E-03     167.360E-03    -45.3838E+06     59.3064E+06     62.2985E+06      -20.81E+06    -374.514E-03     555.708E-03    -181.195E-03     366.116E-03    -388.255E-03     569.338E-03    -180.903E-03     316.362E-03
            1295     11.9127E-03     167.993E-03    -29.2195E+06     100.334E+06     87.7977E+06    -10.4115E+06    -380.191E-03     570.942E-03    -190.750E-03     354.370E-03    -395.718E-03     586.483E-03    -190.414E-03     296.889E-03
            1296     12.5427E-03     168.587E-03    -14.6045E+06     107.873E+06     113.561E+06    -2.04359E+06    -381.065E-03     580.895E-03    -199.830E-03     333.484E-03    -397.186E-03     597.033E-03    -199.397E-03     271.156E-03
            1297     13.1633E-03     169.119E-03    -5.49796E+06     79.4753E+06     125.850E+06    -4.30036E+06    -379.898E-03     588.195E-03    -208.297E-03     306.297E-03    -395.677E-03     603.884E-03    -207.775E-03     241.359E-03
            1298     13.7820E-03     169.566E-03    -69.1377E+03     39.8010E+06     133.178E+06    -7.99245E+06    -375.940E-03     592.081E-03    -216.141E-03     230.808E-03    -386.366E-03     602.269E-03    -215.532E-03     179.151E-03
            1299     829.294E-06     163.786E-03    -270.942E+06    -179.370E+06    -266.254E+06    -17.6042E+06    -87.4789E-03     172.196E-03    -84.7173E-03     38.7685E-03    -88.1900E-03     172.078E-03    -85.3956E-03     38.5231E-03
            1300     1.65576E-03     163.841E-03    -257.964E+06    -168.426E+06    -251.105E+06    -31.4453E+06    -92.5213E-03     179.450E-03    -86.9287E-03     71.8166E-03    -93.2095E-03     179.350E-03    -87.5659E-03     71.3699E-03
            1301     2.47709E-03     163.935E-03    -238.624E+06    -153.315E+06    -223.065E+06    -42.7886E+06    -101.874E-03     191.397E-03    -89.5228E-03     108.337E-03    -102.541E-03     191.319E-03    -90.0698E-03     107.678E-03
            1302     3.29109E-03     164.069E-03    -216.609E+06    -143.485E+06    -190.579E+06     -53.774E+06    -115.073E-03     208.154E-03    -93.0809E-03     145.933E-03    -115.730E-03     208.088E-03    -93.5117E-03     144.980E-03
            1303     4.09542E-03     164.248E-03    -193.367E+06    -138.730E+06    -164.950E+06    -63.7033E+06    -132.218E-03     229.772E-03    -97.5539E-03     183.335E-03    -132.894E-03     229.753E-03    -97.8971E-03     181.932E-03
            1304     4.88743E-03     164.475E-03    -170.931E+06    -134.121E+06    -143.474E+06    -69.9324E+06    -153.440E-03     256.410E-03    -102.970E-03     219.166E-03    -154.215E-03     256.529E-03    -103.245E-03     217.097E-03
            1305     5.66454E-03     164.755E-03    -151.932E+06    -126.846E+06    -120.285E+06    -74.7148E+06    -178.351E-03     287.729E-03    -109.377E-03     251.538E-03    -179.378E-03     288.130E-03    -109.575E-03     248.391E-03
            1306     6.42553E-03     165.088E-03    -134.384E+06    -114.231E+06    -96.7573E+06    -76.4019E+06    -206.189E-03     322.941E-03    -116.752E-03     278.608E-03    -207.651E-03     323.820E-03    -116.875E-03     273.800E-03
            1307     7.16790E-03     165.479E-03    -117.764E+06    -101.441E+06    -74.0973E+06    -76.0299E+06    -236.089E-03     361.153E-03    -125.064E-03     298.994E-03    -238.179E-03     362.702E-03    -125.117E-03     291.737E-03
            1308     7.89041E-03     165.927E-03    -102.771E+06    -88.4351E+06    -51.4252E+06     -73.804E+06    -266.758E-03     401.025E-03    -134.267E-03     311.886E-03    -269.673E-03     403.434E-03    -134.246E-03     301.229E-03
            1309     8.59261E-03     166.435E-03    -88.8971E+06    -70.3843E+06    -25.6786E+06    -67.3044E+06    -296.207E-03     440.465E-03    -144.258E-03     317.383E-03    -300.151E-03     443.941E-03    -144.155E-03     302.257E-03
            1310     9.27431E-03     166.995E-03    -76.5034E+06    -47.4761E+06     2.09825E+06    -58.1873E+06    -322.184E-03     477.016E-03    -154.832E-03     317.217E-03    -327.344E-03     481.750E-03    -154.642E-03     296.579E-03
            1311     9.93687E-03     167.605E-03    -64.9818E+06    -25.9664E+06     27.8291E+06    -47.6983E+06    -342.399E-03     508.063E-03    -165.664E-03     313.969E-03    -348.897E-03     514.175E-03    -165.393E-03     287.113E-03
            1312     10.5854E-03     168.249E-03    -51.9777E+06    -8.65200E+06     46.2936E+06    -38.8669E+06    -355.143E-03     531.471E-03    -176.328E-03     309.703E-03    -363.038E-03     539.031E-03    -176.008E-03     276.348E-03
            1313     11.2253E-03     168.915E-03    -35.3516E+06     21.5787E+06     64.7232E+06    -31.8173E+06    -359.263E-03     545.653E-03    -186.390E-03     306.147E-03    -368.640E-03     554.806E-03    -186.047E-03     266.455E-03
            1314     11.8625E-03     169.570E-03    -19.5300E+06     62.5615E+06     88.7324E+06    -24.0074E+06    -356.484E-03     551.996E-03    -195.512E-03     304.383E-03    -367.553E-03     562.976E-03    -195.131E-03     258.487E-03
            1315     12.4990E-03     170.201E-03    -6.44962E+06     73.3064E+06     117.393E+06    -12.3860E+06    -350.688E-03     554.270E-03    -203.582E-03     301.593E-03    -363.447E-03     566.945E-03    -203.092E-03     249.843E-03
            1316     13.1413E-03     170.767E-03     5.40660E+06     75.6791E+06     142.751E+06     4.19878E+06    -347.751E-03     558.417E-03    -210.666E-03     296.424E-03    -362.212E-03     572.771E-03    -210.070E-03     238.869E-03
            1317     13.7808E-03     171.257E-03     5.40629E+06     57.7814E+06     164.012E+06     13.6896E+06    -350.089E-03     567.275E-03    -217.186E-03     236.628E-03    -360.575E-03     577.525E-03    -216.457E-03     188.736E-03
            1318     824.443E-06     164.908E-03    -206.152E+06    -132.894E+06    -203.354E+06    -20.7130E+06    -93.0918E-03     184.651E-03    -91.5589E-03     25.5801E-03    -93.6516E-03     184.575E-03    -92.0841E-03     25.1946E-03
            1319     1.64697E-03     164.970E-03    -201.110E+06    -124.989E+06    -189.336E+06    -36.4287E+06    -97.7277E-03     191.146E-03    -93.4181E-03     47.4050E-03    -98.3079E-03     191.093E-03    -93.8919E-03     46.7050E-03
            1320     2.46470E-03     165.074E-03    -193.933E+06    -118.102E+06    -173.508E+06    -50.3745E+06    -105.721E-03     201.815E-03    -96.0940E-03     71.0764E-03    -106.324E-03     201.788E-03    -96.5091E-03     70.0264E-03
            1321     3.27504E-03     165.223E-03    -184.130E+06    -108.819E+06    -157.097E+06    -61.7405E+06    -116.856E-03     216.629E-03    -99.7725E-03     95.8198E-03    -117.496E-03     216.661E-03    -100.133E-03     94.3535E-03
            1322     4.07510E-03     165.421E-03    -174.443E+06    -106.659E+06    -142.257E+06    -73.2028E+06    -131.578E-03     236.061E-03    -104.483E-03     121.432E-03    -132.277E-03     236.155E-03    -104.787E-03     119.407E-03
            1323     4.86216E-03     165.673E-03    -164.472E+06    -109.113E+06    -132.201E+06    -83.7765E+06    -150.023E-03     260.283E-03    -110.261E-03     146.682E-03    -150.809E-03     260.465E-03    -110.525E-03     143.938E-03
            1324     5.63414E-03     165.982E-03    -152.154E+06    -107.384E+06    -119.702E+06    -90.9808E+06    -172.049E-03     289.215E-03    -117.166E-03     169.504E-03    -172.975E-03     289.554E-03    -117.388E-03     165.831E-03
            1325     6.38666E-03     166.351E-03    -138.317E+06    -103.941E+06    -103.280E+06    -95.9320E+06    -197.228E-03     322.461E-03    -125.234E-03     187.945E-03    -198.363E-03     323.030E-03    -125.399E-03     182.989E-03
            1326     7.11839E-03     166.779E-03    -123.642E+06    -99.0899E+06    -85.7798E+06    -97.9228E+06    -224.359E-03     358.786E-03    -134.427E-03     200.398E-03    -225.775E-03     359.657E-03    -134.533E-03     193.721E-03
            1327     7.82756E-03     167.269E-03    -109.182E+06    -95.8496E+06    -66.5926E+06    -96.0527E+06    -251.605E-03     396.252E-03    -144.647E-03     205.981E-03    -253.371E-03     397.483E-03    -144.683E-03     197.059E-03
            1328     8.51306E-03     167.815E-03    -96.1294E+06    -94.0474E+06    -45.5556E+06    -89.4956E+06    -276.417E-03     432.079E-03    -155.662E-03     205.855E-03    -278.611E-03     433.732E-03    -155.614E-03     194.124E-03
            1329     9.17725E-03     168.414E-03    -84.3888E+06    -81.6929E+06    -20.6663E+06    -79.3567E+06    -296.322E-03     463.393E-03    -167.071E-03     203.344E-03    -299.019E-03     465.565E-03    -166.933E-03     188.448E-03
            1330     9.82567E-03     169.053E-03    -72.5998E+06    -67.1692E+06     5.55258E+06    -68.3707E+06    -309.670E-03     488.041E-03    -178.371E-03     201.706E-03    -312.937E-03     490.804E-03    -178.141E-03     183.408E-03
            1331     10.4640E-03     169.723E-03    -61.0569E+06    -41.3142E+06     31.5788E+06    -62.5371E+06    -315.097E-03     504.088E-03    -188.991E-03     203.051E-03    -319.044E-03     507.594E-03    -188.685E-03     181.192E-03
            1332     11.1003E-03     170.401E-03    -49.1766E+06    -18.0106E+06     59.3326E+06    -62.7751E+06    -312.044E-03     510.452E-03    -198.408E-03     208.619E-03    -316.814E-03     514.833E-03    -198.014E-03     183.206E-03
            1333     11.7436E-03     171.070E-03    -37.9435E+06     814.357E+03     89.9860E+06    -54.3414E+06    -302.615E-03     508.810E-03    -206.195E-03     220.722E-03    -308.523E-03     514.354E-03    -205.691E-03     191.844E-03
            1334     12.4024E-03     171.717E-03    -27.9873E+06     22.2247E+06     121.082E+06    -41.3159E+06    -289.369E-03     501.482E-03    -212.113E-03     237.949E-03    -296.880E-03     508.662E-03    -211.499E-03     205.372E-03
            1335     13.0735E-03     172.310E-03    -27.8701E+06     8.48266E+06     116.973E+06    -21.7034E+06    -283.021E-03     499.278E-03    -216.257E-03     266.332E-03    -293.220E-03     509.116E-03    -215.644E-03     227.446E-03
            1336     13.7456E-03     172.859E-03    -17.9638E+06     34.2732E+06     135.574E+06     3.59779E+06    -292.487E-03     512.123E-03    -219.636E-03     252.309E-03    -301.911E-03     521.246E-03    -218.981E-03     214.754E-03
            1337     806.174E-06     166.063E-03    -142.414E+06    -84.1910E+06    -135.293E+06    -15.9389E+06    -118.513E-03     235.688E-03    -117.176E-03     4.43532E-03    -118.974E-03     235.607E-03    -117.524E-03     3.97405E-03
            1338     1.60869E-03     166.129E-03    -140.757E+06    -80.0763E+06    -126.159E+06    -29.9051E+06    -122.633E-03     242.569E-03    -119.937E-03     3.15466E-03    -123.114E-03     242.482E-03    -120.247E-03     2.13905E-03
            1339     2.40513E-03     166.241E-03    -133.390E+06    -75.8428E+06    -111.940E+06    -43.7436E+06    -127.176E-03     250.545E-03    -123.369E-03     1.81797E-03    -127.649E-03     250.444E-03    -123.625E-03     158.683E-06
            1340     3.19376E-03     166.399E-03    -123.874E+06    -73.4351E+06    -100.099E+06    -54.0516E+06    -132.524E-03     260.060E-03    -127.536E-03     2.32713E-03    -132.976E-03     259.945E-03    -127.751E-03    -9.14279E-06
            1341     3.97273E-03     166.609E-03    -114.499E+06    -70.2402E+06    -86.4742E+06    -60.5777E+06    -139.366E-03     271.971E-03    -132.605E-03     4.78211E-03    -139.811E-03     271.854E-03    -132.769E-03     1.74234E-03
            1342     4.73907E-03     166.874E-03    -105.529E+06    -70.4020E+06    -72.0576E+06    -67.7872E+06    -147.877E-03     286.592E-03    -138.715E-03     8.38210E-03    -148.324E-03     286.471E-03    -138.821E-03     4.52825E-03
            1343     5.48905E-03     167.200E-03    -97.4968E+06    -73.7268E+06    -61.6266E+06    -74.2528E+06    -158.149E-03     304.081E-03    -145.933E-03     12.2946E-03    -158.602E-03     303.958E-03    -145.992E-03     7.54930E-03
            1344     6.22159E-03     167.588E-03    -91.0031E+06    -72.5583E+06    -52.3402E+06    -78.5368E+06    -170.065E-03     324.387E-03    -154.322E-03     14.8000E-03    -170.545E-03     324.295E-03    -154.347E-03     9.06843E-03
            1345     6.93265E-03     168.041E-03    -86.0365E+06    -70.7333E+06    -42.9014E+06    -81.6623E+06    -182.604E-03     346.476E-03    -163.873E-03     14.7133E-03    -183.116E-03     346.425E-03    -163.860E-03     7.86665E-03
            1346     7.62068E-03     168.555E-03    -83.8678E+06    -72.8106E+06    -35.4657E+06    -81.8212E+06    -194.020E-03     368.385E-03    -174.365E-03     13.4269E-03    -194.577E-03     368.374E-03    -174.315E-03     5.42727E-03
            1347     8.28762E-03     169.128E-03    -82.2056E+06    -79.4743E+06    -28.7962E+06    -81.7912E+06    -202.808E-03     388.183E-03    -185.375E-03     13.4811E-03    -203.430E-03     388.226E-03    -185.284E-03     4.33838E-03
            1348     8.93819E-03     169.747E-03    -78.6498E+06    -85.4829E+06    -17.9700E+06    -79.3241E+06    -208.054E-03     404.401E-03    -196.347E-03     17.2940E-03    -208.775E-03     404.534E-03    -196.199E-03     7.16471E-03
            1349     9.57824E-03     170.406E-03    -71.5695E+06    -80.9601E+06     4.05137E+06    -77.0465E+06    -209.445E-03     416.116E-03    -206.671E-03     27.2663E-03    -210.345E-03     416.442E-03    -206.429E-03     16.2937E-03
            1350     10.2159E-03     171.088E-03    -60.9494E+06    -62.2274E+06     33.5254E+06    -71.8171E+06    -206.319E-03     421.968E-03    -215.649E-03     44.6797E-03    -207.492E-03     422.630E-03    -215.302E-03     33.0841E-03
            1351     10.8619E-03     171.776E-03    -48.5047E+06    -25.3384E+06     74.8533E+06    -66.6361E+06    -199.379E-03     422.060E-03    -222.681E-03     69.1161E-03    -200.959E-03     423.227E-03    -222.200E-03     56.9143E-03
            1352     11.5250E-03     172.450E-03    -37.4497E+06    -21.6408E+06     106.402E+06    -57.0475E+06    -189.610E-03     416.931E-03    -227.321E-03     99.7122E-03    -191.662E-03     418.565E-03    -226.703E-03     86.9758E-03
            1353     12.2101E-03     173.095E-03    -35.5212E+06    -10.0061E+06     127.792E+06    -38.7744E+06    -177.539E-03     406.914E-03    -229.375E-03     134.012E-03    -180.294E-03     409.245E-03    -228.670E-03     120.762E-03
            1354     12.9326E-03     173.697E-03    -28.6552E+06    -23.6494E+06     129.085E+06    -22.9147E+06    -168.971E-03     398.086E-03    -229.115E-03     181.359E-03    -173.518E-03     402.164E-03    -228.394E-03     164.996E-03
            1355     13.6851E-03     174.296E-03    -18.3683E+06    -6.98123E+06     107.791E+06    -18.0159E+06    -160.881E-03     387.560E-03    -226.679E-03     233.083E-03    -166.050E-03     392.460E-03    -226.103E-03     215.447E-03
            1356     766.839E-06     167.305E-03    -75.2407E+06    -43.3567E+06    -71.1220E+06    -12.2158E+06    -176.847E-03     358.316E-03    -181.469E-03    -51.3776E-03    -177.397E-03     357.871E-03    -181.652E-03    -52.3804E-03
            1357     1.52461E-03     167.382E-03    -70.5715E+06    -38.4948E+06    -60.9851E+06    -22.9991E+06    -175.228E-03     357.831E-03    -182.603E-03    -89.6571E-03    -175.634E-03     357.364E-03    -182.750E-03    -91.4560E-03
            1358     2.27557E-03     167.496E-03    -65.6511E+06    -35.9453E+06    -48.1983E+06    -32.1527E+06    -172.080E-03     357.709E-03    -185.629E-03    -128.093E-03    -172.335E-03     357.110E-03    -185.723E-03    -130.783E-03
            1359     3.01947E-03     167.655E-03    -62.2495E+06    -38.9160E+06    -37.7901E+06    -38.9798E+06    -166.989E-03     356.836E-03    -189.847E-03    -164.391E-03    -167.071E-03     356.028E-03    -189.889E-03    -167.890E-03
            1360     3.75315E-03     167.864E-03    -59.0256E+06    -41.2899E+06    -27.5270E+06    -43.2553E+06    -159.315E-03     354.461E-03    -195.146E-03    -197.577E-03    -159.202E-03     353.427E-03    -195.138E-03    -201.776E-03
            1361     4.47430E-03     168.127E-03    -56.0636E+06    -40.5647E+06    -15.3516E+06    -45.7803E+06    -149.070E-03     350.560E-03    -201.490E-03    -226.199E-03    -148.772E-03     349.313E-03    -201.426E-03    -230.981E-03
            1362     5.18177E-03     168.448E-03    -54.2544E+06    -41.4225E+06    -4.49719E+06    -47.7020E+06    -136.640E-03     345.519E-03    -208.879E-03    -249.145E-03    -136.156E-03     344.061E-03    -208.763E-03    -254.436E-03
            1363     5.87064E-03     168.830E-03    -52.8999E+06    -39.8810E+06     5.13266E+06    -49.2826E+06    -122.221E-03     339.469E-03    -217.248E-03    -264.376E-03    -121.572E-03     337.863E-03    -217.088E-03    -270.086E-03
            1364     6.53977E-03     169.274E-03    -52.3653E+06    -36.3422E+06     14.3769E+06    -48.4489E+06    -106.480E-03     332.843E-03    -226.362E-03    -269.363E-03    -105.723E-03     331.189E-03    -226.162E-03    -275.374E-03
            1365     7.19095E-03     169.777E-03    -50.0296E+06    -35.2840E+06     23.6116E+06    -45.8329E+06    -90.3246E-03     326.126E-03    -235.801E-03    -262.487E-03    -89.5287E-03     324.515E-03    -235.560E-03    -268.661E-03
            1366     7.82873E-03     170.333E-03    -45.4620E+06    -33.8731E+06     36.1100E+06    -42.4727E+06    -74.6954E-03     319.712E-03    -245.017E-03    -243.329E-03    -73.9706E-03     318.265E-03    -244.721E-03    -249.471E-03
            1367     8.45895E-03     170.937E-03    -38.4079E+06    -37.2594E+06     52.9915E+06    -39.0029E+06    -60.6513E-03     314.065E-03    -253.414E-03    -213.088E-03    -60.0927E-03     312.864E-03    -253.039E-03    -219.031E-03
            1368     9.09013E-03     171.577E-03    -30.6342E+06    -36.8512E+06     75.7819E+06    -34.8614E+06    -48.2755E-03     308.602E-03    -260.327E-03    -172.599E-03    -47.9852E-03     307.749E-03    -259.850E-03    -178.116E-03
            1369     9.73258E-03     172.247E-03    -20.5450E+06    -30.1285E+06     100.117E+06    -34.5264E+06    -37.0683E-03     302.095E-03    -265.027E-03    -123.902E-03    -37.0858E-03     301.645E-03    -264.453E-03    -128.810E-03
            1370     10.4004E-03     172.925E-03    -18.1813E+06    -11.1738E+06     122.815E+06    -29.6468E+06    -27.4504E-03     294.408E-03    -266.958E-03    -71.1097E-03    -27.8025E-03     294.393E-03    -266.301E-03    -75.3211E-03
            1371     11.0987E-03     173.607E-03    -17.0248E+06     6.44086E+06     145.372E+06    -30.0897E+06    -18.7830E-03     284.667E-03    -265.884E-03    -20.0665E-03    -19.4054E-03     284.985E-03    -265.142E-03    -23.6747E-03
            1372     11.8422E-03     174.258E-03    -22.7436E+06    -20.4669E+06     132.325E+06    -10.7806E+06    -13.2899E-03     275.327E-03    -262.037E-03     17.1272E-03    -14.0326E-03     275.687E-03    -261.313E-03     14.2267E-03
            1373     12.6109E-03     174.877E-03    -1.70109E+06    -19.1790E+06     128.448E+06      16.805E+03    -2.70797E-03     258.393E-03    -255.685E-03     59.6171E-03    -3.67700E-03     259.128E-03    -255.012E-03     56.6483E-03
            1374     13.4062E-03     175.453E-03     9.04677E+06     4.63191E+06     95.8099E+06    -18.9329E+06     29.9715E-03     215.949E-03    -245.920E-03     106.816E-03     29.0817E-03     216.718E-03    -245.461E-03     104.409E-03
            1375     13.6042E-03     87.2216E-03    -5.07894E+06     76.2750E+06     81.9093E+06    -1.39365E+06    -225.912E-03     455.066E-03    -229.153E-03     126.417E-03    -233.444E-03     462.612E-03    -228.847E-03     97.0583E-03
            1376     12.8843E-03     86.9973E-03    -9.98924E+06     74.8350E+06     82.1193E+06    -1.56851E+06    -225.955E-03     455.140E-03    -229.185E-03     187.541E-03    -237.904E-03     467.081E-03    -228.869E-03     150.613E-03
            1377     12.1695E-03     86.7573E-03    -15.0617E+06     68.4249E+06     80.2197E+06    -161.375E+03    -227.243E-03     456.467E-03    -229.224E-03     213.388E-03    -241.211E-03     470.392E-03    -228.900E-03     173.972E-03
            1378     11.4529E-03     86.4621E-03    -20.8104E+06     60.7459E+06     78.1243E+06     215.341E+03    -229.403E-03     458.659E-03    -229.256E-03     243.001E-03    -245.765E-03     474.936E-03    -228.923E-03     200.214E-03
            1379     10.7378E-03     86.1331E-03    -28.0530E+06     55.3123E+06     73.5105E+06    -441.221E+03    -231.761E-03     461.015E-03    -229.255E-03     261.918E-03    -249.147E-03     478.285E-03    -228.927E-03     217.469E-03
            1380     10.0217E-03     85.7808E-03    -36.0933E+06     50.2931E+06     62.6531E+06    -1.52834E+06    -233.425E-03     462.645E-03    -229.220E-03     270.450E-03    -250.563E-03     479.652E-03    -228.927E-03     225.966E-03
            1381     9.30584E-03     85.4251E-03    -42.6530E+06     42.4085E+06     52.1617E+06    -1.30934E+06    -234.341E-03     463.545E-03    -229.204E-03     266.524E-03    -249.953E-03     479.005E-03    -228.943E-03     223.839E-03
            1382     8.58976E-03     85.0816E-03    -48.4388E+06     34.9587E+06     43.9941E+06     503.701E+03    -234.554E-03     463.770E-03    -229.216E-03     253.754E-03    -247.957E-03     476.997E-03    -228.976E-03     214.185E-03
            1383     7.87354E-03     84.7584E-03    -55.2273E+06     11.2886E+06     32.2913E+06     1.62481E+06    -234.612E-03     463.856E-03    -229.244E-03     236.595E-03    -245.660E-03     474.654E-03    -229.019E-03     200.759E-03
            1384     7.15759E-03     84.4571E-03    -63.5564E+06    -36.4586E+06     14.4320E+06     1.79423E+06    -234.592E-03     463.860E-03    -229.268E-03     217.465E-03    -243.412E-03     472.283E-03    -229.051E-03     185.584E-03
            1385     6.44163E-03     84.1806E-03    -71.6837E+06    -90.1827E+06    -4.21274E+06     1.67036E+06    -234.250E-03     463.532E-03    -229.282E-03     197.283E-03    -241.102E-03     469.822E-03    -229.069E-03     169.378E-03
            1386     5.72592E-03     83.9301E-03    -79.1879E+06    -129.735E+06    -20.7735E+06     1.44380E+06    -233.664E-03     462.941E-03    -229.278E-03     176.711E-03    -238.861E-03     467.457E-03    -229.079E-03     152.665E-03
            1387     5.01023E-03     83.7067E-03    -86.3801E+06    -159.594E+06    -36.3831E+06     1.22329E+06    -232.905E-03     462.170E-03    -229.264E-03     155.843E-03    -236.742E-03     465.238E-03    -229.089E-03     135.469E-03
            1388     4.29434E-03     83.5109E-03    -93.3825E+06    -201.010E+06    -50.8687E+06     1.24007E+06    -232.138E-03     461.415E-03    -229.277E-03     134.516E-03    -234.849E-03     463.228E-03    -229.104E-03     117.595E-03
            1389     3.57872E-03     83.3441E-03    -100.372E+06    -231.117E+06    -65.3726E+06     1.12091E+06    -231.365E-03     460.639E-03    -229.274E-03     112.845E-03    -233.192E-03     461.479E-03    -229.120E-03     99.1398E-03
            1390     2.86294E-03     83.2068E-03    -106.520E+06    -243.488E+06    -83.0207E+06     643.320E+03    -230.611E-03     459.844E-03    -229.233E-03     90.8345E-03    -231.768E-03     459.999E-03    -229.141E-03     80.1293E-03
            1391     2.14696E-03     83.0988E-03    -110.785E+06    -259.109E+06    -101.771E+06     604.254E+03    -229.997E-03     459.196E-03    -229.199E-03     68.5247E-03    -230.640E-03     458.821E-03    -229.172E-03     60.6421E-03
            1392     1.43113E-03     83.0210E-03    -113.130E+06    -286.890E+06    -111.623E+06     768.870E+03    -229.626E-03     458.850E-03    -229.224E-03     46.2829E-03    -229.896E-03     458.024E-03    -229.202E-03     41.0342E-03
            1393     715.525E-06     82.9735E-03    -114.042E+06    -306.223E+06    -113.316E+06     589.025E+03    -229.631E-03     458.663E-03    -229.032E-03     25.3660E-03    -229.684E-03     457.554E-03    -228.989E-03     22.5042E-03
            1394     13.6000E-03     85.7204E-03    -3.08537E+06     78.0987E+06     83.9126E+06     197.872E+03    -226.160E-03     455.351E-03    -229.191E-03     126.355E-03    -233.655E-03     462.870E-03    -228.880E-03     97.0200E-03
            1395     12.8870E-03     85.5018E-03    -10.1431E+06     74.3818E+06     81.6723E+06    -934.602E+03    -225.909E-03     455.117E-03    -229.208E-03     185.948E-03    -237.824E-03     467.023E-03    -228.893E-03     148.995E-03
            1396     12.1688E-03     85.2577E-03    -16.3159E+06     67.1171E+06     78.3317E+06    -1.37728E+06    -227.302E-03     456.536E-03    -229.234E-03     212.428E-03    -241.280E-03     470.467E-03    -228.916E-03     172.870E-03
            1397     11.4540E-03     84.9624E-03    -21.6693E+06     60.2372E+06     77.1096E+06    -100.461E+03    -229.685E-03     458.938E-03    -229.253E-03     242.609E-03    -246.022E-03     475.189E-03    -228.923E-03     199.809E-03
            1398     10.7380E-03     84.6335E-03    -27.3857E+06     55.4870E+06     73.8879E+06     380.898E+03    -231.620E-03     460.870E-03    -229.250E-03     261.929E-03    -249.004E-03     478.140E-03    -228.922E-03     217.519E-03
            1399     10.0223E-03     84.2829E-03    -33.7077E+06     52.1731E+06     64.4058E+06     582.280E+03    -233.223E-03     462.454E-03    -229.231E-03     270.711E-03    -250.372E-03     479.482E-03    -228.936E-03     226.267E-03
            1400     9.30574E-03     83.9265E-03    -42.1288E+06     43.4151E+06     51.4117E+06    -406.095E+03    -234.151E-03     463.374E-03    -229.223E-03     266.437E-03    -249.764E-03     478.843E-03    -228.968E-03     223.768E-03
            1401     8.58928E-03     83.5836E-03    -51.2042E+06     32.4249E+06     40.4579E+06    -1.70649E+06    -234.603E-03     463.837E-03    -229.234E-03     253.443E-03    -248.010E-03     477.061E-03    -229.005E-03     213.805E-03
            1402     7.87323E-03     83.2589E-03    -59.3525E+06     7.81802E+06     29.0311E+06    -1.09309E+06    -234.858E-03     464.107E-03    -229.249E-03     236.273E-03    -245.916E-03     474.899E-03    -229.029E-03     200.339E-03
            1403     7.15761E-03     82.9582E-03    -66.1582E+06    -37.6853E+06     12.7706E+06     218.501E+03    -234.679E-03     463.934E-03    -229.255E-03     217.209E-03    -243.509E-03     472.358E-03    -229.040E-03     185.279E-03
            1404     6.44204E-03     82.6819E-03    -72.8451E+06    -90.0710E+06    -5.12293E+06     739.689E+03    -234.165E-03     463.430E-03    -229.266E-03     197.485E-03    -241.025E-03     469.727E-03    -229.055E-03     169.578E-03
            1405     5.72615E-03     82.4319E-03    -79.5070E+06    -129.372E+06    -21.5888E+06     717.528E+03    -233.517E-03     462.795E-03    -229.278E-03     177.199E-03    -238.720E-03     467.319E-03    -229.083E-03     153.167E-03
            1406     5.01008E-03     82.2084E-03    -85.8640E+06    -159.409E+06    -37.2926E+06     488.655E+03    -232.789E-03     462.079E-03    -229.290E-03     156.291E-03    -236.625E-03     465.153E-03    -229.121E-03     135.922E-03
            1407     4.29417E-03     82.0129E-03    -91.5926E+06    -200.775E+06    -52.4945E+06     182.054E+03    -232.042E-03     461.369E-03    -229.327E-03     134.771E-03    -234.743E-03     463.184E-03    -229.165E-03     117.848E-03
            1408     3.57802E-03     81.8460E-03    -95.8963E+06    -229.703E+06    -66.7746E+06    -570.722E+03    -231.331E-03     460.683E-03    -229.351E-03     112.921E-03    -233.135E-03     461.524E-03    -229.213E-03     99.2026E-03
            1409     2.86225E-03     81.7082E-03    -99.2117E+06    -244.349E+06    -78.5110E+06    -601.510E+03    -230.709E-03     460.070E-03    -229.361E-03     90.8526E-03    -231.836E-03     460.205E-03    -229.255E-03     80.1104E-03
            1410     2.14687E-03     81.6006E-03    -102.837E+06    -261.755E+06    -90.0871E+06     1.53824E+06    -230.176E-03     459.538E-03    -229.362E-03     68.4710E-03    -230.794E-03     459.123E-03    -229.284E-03     60.5800E-03
            1411     1.43122E-03     81.5229E-03    -106.609E+06    -284.017E+06    -100.919E+06     2.96893E+06    -229.755E-03     459.120E-03    -229.365E-03     46.1229E-03    -230.011E-03     458.282E-03    -229.303E-03     40.9089E-03
            1412     715.569E-06     81.4749E-03    -109.805E+06    -301.428E+06    -108.214E+06     1.56678E+06    -229.577E-03     458.871E-03    -229.293E-03     25.0113E-03    -229.623E-03     457.771E-03    -229.238E-03     22.1735E-03
            1413     13.6029E-03     84.2186E-03    -3.95919E+06     77.4401E+06     83.4435E+06     223.322E+03    -226.103E-03     455.307E-03    -229.205E-03     125.153E-03    -233.614E-03     462.837E-03    -228.894E-03     95.7877E-03
            1414     12.8852E-03     84.0033E-03     -7.6443E+06     76.3924E+06     84.3144E+06    -207.559E+03    -226.182E-03     455.402E-03    -229.219E-03     186.502E-03    -238.183E-03     467.402E-03    -228.898E-03     149.319E-03
            1415     12.1705E-03     83.7599E-03    -14.5595E+06     68.0146E+06     80.1263E+06     511.433E+03    -227.855E-03     457.076E-03    -229.221E-03     213.157E-03    -241.846E-03     471.024E-03    -228.898E-03     173.563E-03
            1416     11.4535E-03     83.4623E-03    -21.4984E+06     61.0106E+06     77.6213E+06     421.740E+03    -229.348E-03     458.581E-03    -229.233E-03     242.350E-03    -245.632E-03     474.780E-03    -228.902E-03     199.728E-03
            1417     10.7375E-03     83.1352E-03    -28.4281E+06     55.2655E+06     73.3895E+06    -855.284E+03    -231.203E-03     460.456E-03    -229.253E-03     261.811E-03    -248.566E-03     477.701E-03    -228.925E-03     217.489E-03
            1418     10.0211E-03     82.7829E-03    -35.4193E+06     50.2530E+06     63.2980E+06    -637.787E+03    -233.139E-03     462.390E-03    -229.251E-03     270.597E-03    -250.288E-03     479.408E-03    -228.956E-03     226.147E-03
            1419     9.30535E-03     82.4283E-03    -41.4551E+06     44.3247E+06     52.7891E+06     796.883E+03    -234.330E-03     463.572E-03    -229.243E-03     266.167E-03    -249.940E-03     479.040E-03    -228.983E-03     223.480E-03
            1420     8.58950E-03     82.0845E-03    -48.3916E+06     35.3636E+06     42.5934E+06     1.03744E+06    -234.862E-03     464.094E-03    -229.232E-03     253.191E-03    -248.257E-03     477.319E-03    -229.000E-03     213.549E-03
            1421     7.87390E-03     81.7602E-03    -56.3638E+06     7.87591E+06     29.6965E+06    -170.766E+03    -234.791E-03     464.024E-03    -229.233E-03     236.124E-03    -245.827E-03     474.802E-03    -229.014E-03     200.224E-03
            1422     7.15794E-03     81.4594E-03    -64.3167E+06    -39.5368E+06     12.6327E+06    -618.413E+03    -234.360E-03     463.620E-03    -229.260E-03     217.469E-03    -243.177E-03     472.032E-03    -229.046E-03     185.581E-03
            1423     6.44161E-03     81.1838E-03    -71.5193E+06    -90.5853E+06    -4.99734E+06    -335.423E+03    -233.967E-03     463.274E-03    -229.308E-03     198.056E-03    -240.826E-03     469.573E-03    -229.098E-03     170.166E-03
            1424     5.72537E-03     80.9335E-03    -77.8133E+06    -129.548E+06    -21.5335E+06    -422.304E+03    -233.492E-03     462.838E-03    -229.346E-03     177.619E-03    -238.690E-03     467.362E-03    -229.153E-03     153.582E-03
            1425     5.00948E-03     80.7101E-03    -83.6119E+06    -158.914E+06    -37.2782E+06    -714.805E+03    -232.837E-03     462.207E-03    -229.371E-03     156.439E-03    -236.662E-03     465.279E-03    -229.205E-03     136.062E-03
            1426     4.29355E-03     80.5146E-03    -89.1107E+06    -200.055E+06    -51.8837E+06    -1.49859E+06    -232.164E-03     461.577E-03    -229.413E-03     134.796E-03    -234.854E-03     463.391E-03    -229.253E-03     117.838E-03
            1427     3.57807E-03     80.3477E-03    -94.9592E+06    -229.857E+06    -66.9921E+06    -1.70671E+06    -231.465E-03     460.895E-03    -229.429E-03     112.833E-03    -233.263E-03     461.734E-03    -229.293E-03     99.0885E-03
            1428     2.86229E-03     80.2099E-03    -101.656E+06    -246.912E+06    -81.4817E+06    -1.17383E+06    -230.755E-03     460.185E-03    -229.430E-03     90.6607E-03    -231.884E-03     460.313E-03    -229.332E-03     79.9151E-03
            1429     2.14639E-03     80.1017E-03    -107.184E+06    -265.408E+06    -91.7041E+06    -527.847E+03    -230.199E-03     459.651E-03    -229.451E-03     68.3938E-03    -230.830E-03     459.225E-03    -229.370E-03     60.4752E-03
            1430     1.43104E-03     80.0241E-03    -110.121E+06    -283.055E+06    -100.186E+06     465.830E+03    -229.830E-03     459.295E-03    -229.465E-03     46.2561E-03    -230.106E-03     458.466E-03    -229.396E-03     41.0083E-03
            1431     715.609E-06     79.9765E-03    -111.893E+06    -296.879E+06    -108.860E+06     1.07679E+06    -229.686E-03     459.036E-03    -229.349E-03     25.1344E-03    -229.748E-03     457.963E-03    -229.301E-03     22.2892E-03
            1432     13.6011E-03     82.7243E-03    -5.45019E+06     75.8949E+06     82.3378E+06    -243.861E+03    -226.037E-03     455.263E-03    -229.226E-03     126.416E-03    -233.614E-03     462.852E-03    -228.916E-03     96.9515E-03
            1433     12.8849E-03     82.5029E-03    -10.7725E+06     73.7208E+06     81.7704E+06     510.673E+03    -226.666E-03     455.891E-03    -229.225E-03     186.335E-03    -238.699E-03     467.911E-03    -228.907E-03     149.017E-03
            1434     12.1694E-03     82.2579E-03    -14.5061E+06     69.5583E+06     81.2253E+06     822.020E+03    -227.819E-03     457.038E-03    -229.219E-03     212.492E-03    -241.766E-03     470.945E-03    -228.893E-03     172.999E-03
            1435     11.4547E-03     81.9657E-03    -20.1958E+06     63.7439E+06     80.0174E+06     216.202E+03    -229.225E-03     458.463E-03    -229.238E-03     242.558E-03    -245.512E-03     474.673E-03    -228.901E-03     199.973E-03
            1436     10.7379E-03     81.6366E-03    -26.7598E+06     56.1662E+06     74.9917E+06     367.867E+03    -231.287E-03     460.548E-03    -229.261E-03     261.999E-03    -248.637E-03     477.785E-03    -228.928E-03     217.710E-03
            1437     10.0219E-03     81.2853E-03    -33.9463E+06     50.1199E+06     63.9714E+06     356.680E+03    -233.269E-03     462.518E-03    -229.249E-03     270.145E-03    -250.383E-03     479.504E-03    -228.953E-03     225.718E-03
            1438     9.30544E-03     80.9290E-03    -41.6774E+06     43.3122E+06     51.7634E+06    -316.032E+03    -234.399E-03     463.623E-03    -229.224E-03     265.750E-03    -249.984E-03     479.064E-03    -228.968E-03     223.053E-03
            1439     8.58983E-03     80.5853E-03    -48.5801E+06     34.8572E+06     42.6043E+06    -213.580E+03    -234.636E-03     463.858E-03    -229.222E-03     253.268E-03    -248.018E-03     477.068E-03    -228.989E-03     213.672E-03
            1440     7.87372E-03     80.2613E-03    -55.3285E+06     9.14480E+06     31.2668E+06     234.398E+03    -234.372E-03     463.634E-03    -229.262E-03     236.699E-03    -245.408E-03     474.415E-03    -229.039E-03     200.893E-03
            1441     7.15717E-03     79.9618E-03    -62.7326E+06    -38.8222E+06     13.5135E+06    -399.739E+03    -234.202E-03     463.529E-03    -229.326E-03     218.086E-03    -243.018E-03     471.945E-03    -229.112E-03     186.244E-03
            1442     6.44080E-03     79.6853E-03    -70.0323E+06    -90.9755E+06    -4.54991E+06    -950.188E+03    -234.043E-03     463.435E-03    -229.392E-03     198.205E-03    -240.893E-03     469.726E-03    -229.182E-03     170.310E-03
            1443     5.72502E-03     79.4349E-03    -76.9890E+06    -129.602E+06    -20.9442E+06    -1.08113E+06    -233.576E-03     463.009E-03    -229.433E-03     177.462E-03    -238.768E-03     467.528E-03    -229.238E-03     153.405E-03
            1444     5.00908E-03     79.2115E-03    -84.2010E+06    -158.501E+06    -36.8487E+06    -1.24471E+06    -232.923E-03     462.379E-03    -229.456E-03     156.260E-03    -236.748E-03     465.449E-03    -229.288E-03     135.875E-03
            1445     4.29338E-03     79.0159E-03    -92.0780E+06    -200.313E+06    -51.6182E+06    -1.04714E+06    -232.269E-03     461.765E-03    -229.496E-03     134.683E-03    -234.971E-03     463.578E-03    -229.330E-03     117.735E-03
            1446     3.57755E-03     78.8488E-03    -100.742E+06    -232.141E+06    -67.1043E+06    -9.76484E+03    -231.579E-03     461.085E-03    -229.506E-03     112.803E-03    -233.403E-03     461.922E-03    -229.359E-03     99.0701E-03
            1447     2.86210E-03     78.7112E-03    -108.400E+06    -246.206E+06    -85.5356E+06     459.220E+03    -230.840E-03     460.309E-03    -229.469E-03     90.6346E-03    -231.997E-03     460.455E-03    -229.382E-03     79.9238E-03
            1448     2.14666E-03     78.6034E-03    -113.646E+06    -263.503E+06    -103.965E+06    -1.79600E+06    -230.208E-03     459.652E-03    -229.444E-03     68.3642E-03    -230.854E-03     459.260E-03    -229.417E-03     60.4488E-03
            1449     1.43075E-03     78.5253E-03    -116.491E+06    -287.132E+06    -113.782E+06    -3.30474E+06    -229.846E-03     459.317E-03    -229.471E-03     46.1594E-03    -230.128E-03     458.496E-03    -229.454E-03     40.8560E-03
            1450     715.248E-06     78.4775E-03    -117.380E+06    -299.409E+06    -116.024E+06    -1.62141E+06    -229.829E-03     459.127E-03    -229.298E-03     24.8604E-03    -229.904E-03     458.059E-03    -229.274E-03     21.9751E-03
            1451     13.5992E-03     81.2179E-03    -5.12116E+06     75.7632E+06     82.5184E+06    -48.3968E+03    -226.028E-03     455.292E-03    -229.264E-03     127.559E-03    -233.616E-03     462.892E-03    -228.954E-03     98.0742E-03
            1452     12.8871E-03     81.0037E-03    -9.88252E+06     74.1829E+06     82.7062E+06     748.779E+03    -226.941E-03     456.202E-03    -229.262E-03     186.793E-03    -238.990E-03     468.240E-03    -228.941E-03     149.458E-03
            1453     12.1704E-03     80.7606E-03    -14.6641E+06     69.6058E+06     80.9422E+06     360.681E+03    -227.757E-03     457.010E-03    -229.252E-03     213.432E-03    -241.736E-03     470.948E-03    -228.927E-03     173.964E-03
            1454     11.4527E-03     80.4656E-03    -20.4116E+06     62.7594E+06     79.3542E+06    -356.839E+03    -229.547E-03     458.814E-03    -229.267E-03     242.769E-03    -245.883E-03     475.070E-03    -228.931E-03     200.006E-03
            1455     10.7374E-03     80.1379E-03    -26.8293E+06     55.3965E+06     74.8623E+06     156.598E+03    -231.668E-03     460.934E-03    -229.266E-03     261.855E-03    -249.049E-03     478.199E-03    -228.933E-03     217.430E-03
            1456     10.0215E-03     79.7854E-03    -33.3444E+06     50.2448E+06     64.8288E+06     718.323E+03    -233.332E-03     462.573E-03    -229.241E-03     270.338E-03    -250.448E-03     479.561E-03    -228.941E-03     225.917E-03
            1457     9.30633E-03     79.4306E-03    -39.6435E+06     44.7871E+06     54.2085E+06     915.304E+03    -234.149E-03     463.384E-03    -229.234E-03     266.490E-03    -249.731E-03     478.826E-03    -228.971E-03     223.895E-03
            1458     8.58972E-03     79.0870E-03    -47.5006E+06     36.0290E+06     43.8446E+06    -46.8346E+03    -234.251E-03     463.519E-03    -229.267E-03     253.994E-03    -247.632E-03     476.731E-03    -229.032E-03     214.503E-03
            1459     7.87267E-03     78.7641E-03    -55.6000E+06     8.67776E+06     31.1228E+06    -1.17066E+06    -234.280E-03     463.619E-03    -229.338E-03     236.954E-03    -245.308E-03     474.390E-03    -229.115E-03     201.176E-03
            1460     7.15619E-03     78.4627E-03    -62.9181E+06    -39.1099E+06     13.5178E+06    -826.730E+03    -234.390E-03     463.797E-03    -229.407E-03     217.900E-03    -243.195E-03     472.201E-03    -229.192E-03     186.048E-03
            1461     6.44061E-03     78.1866E-03    -70.4239E+06    -90.4443E+06    -4.60906E+06    -530.381E+03    -234.195E-03     463.654E-03    -229.459E-03     197.897E-03    -241.042E-03     469.944E-03    -229.249E-03     169.987E-03
            1462     5.72455E-03     77.9362E-03    -78.5998E+06    -129.370E+06    -21.3237E+06    -753.932E+03    -233.666E-03     463.156E-03    -229.489E-03     177.245E-03    -238.864E-03     467.677E-03    -229.294E-03     153.180E-03
            1463     5.00880E-03     77.7126E-03    -86.6613E+06    -159.280E+06    -37.4634E+06    -146.988E+03    -232.999E-03     462.504E-03    -229.505E-03     156.012E-03    -236.830E-03     465.571E-03    -229.336E-03     135.636E-03
            1464     4.29301E-03     77.5170E-03    -94.2749E+06    -201.610E+06    -53.3495E+06     650.329E+03    -232.318E-03     461.850E-03    -229.533E-03     134.413E-03    -235.023E-03     463.660E-03    -229.370E-03     117.486E-03
            1465     3.57757E-03     77.3499E-03    -100.287E+06    -232.826E+06    -69.2683E+06     476.820E+03    -231.594E-03     461.128E-03    -229.534E-03     112.526E-03    -233.409E-03     461.961E-03    -229.397E-03     98.7994E-03
            1466     2.86189E-03     77.2122E-03    -103.976E+06    -243.758E+06    -84.3683E+06    -240.785E+03    -230.899E-03     460.401E-03    -229.502E-03     90.4476E-03    -232.037E-03     460.549E-03    -229.420E-03     79.7286E-03
            1467     2.14627E-03     77.1045E-03    -106.604E+06    -262.061E+06    -96.8168E+06    -318.227E+03    -230.362E-03     459.844E-03    -229.482E-03     68.2495E-03    -230.986E-03     459.440E-03    -229.432E-03     60.3346E-03
            1468     1.43110E-03     77.0267E-03    -110.401E+06    -289.034E+06    -106.319E+06     41.0811E+03    -229.936E-03     459.407E-03    -229.471E-03     46.1120E-03    -230.197E-03     458.559E-03    -229.424E-03     40.8334E-03
            1469     715.754E-06     76.9784E-03    -114.719E+06    -302.771E+06    -113.367E+06    -628.523E+03    -229.808E-03     459.044E-03    -229.236E-03     24.7645E-03    -229.868E-03     457.952E-03    -229.198E-03     21.8989E-03
            1470     13.6016E-03     79.7202E-03    -3.38222E+06     76.5905E+06     84.3874E+06     848.558E+03    -226.031E-03     455.280E-03    -229.249E-03     127.169E-03    -233.536E-03     462.800E-03    -228.933E-03     97.8628E-03
            1471     12.8820E-03     79.5013E-03    -8.88754E+06     74.8134E+06     83.3887E+06    -293.915E+03    -225.882E-03     455.147E-03    -229.265E-03     184.303E-03    -237.807E-03     467.064E-03    -228.944E-03     147.175E-03
            1472     12.1675E-03     79.2603E-03    -15.0161E+06     68.4119E+06     80.1991E+06    -483.086E+03    -227.643E-03     456.919E-03    -229.276E-03     211.974E-03    -241.608E-03     470.841E-03    -228.952E-03     172.370E-03
            1473     11.4538E-03     78.9659E-03    -20.6873E+06     62.1268E+06     78.9742E+06    -136.840E+03    -229.645E-03     458.929E-03    -229.284E-03     242.230E-03    -245.975E-03     475.177E-03    -228.949E-03     199.420E-03
            1474     10.7381E-03     78.6384E-03    -27.0802E+06     55.1395E+06     74.1473E+06    -212.247E+03    -231.538E-03     460.819E-03    -229.281E-03     261.908E-03    -248.922E-03     478.087E-03    -228.951E-03     217.494E-03
            1475     10.0221E-03     78.2874E-03    -33.6387E+06     49.3525E+06     64.0948E+06    -305.389E+03    -233.028E-03     462.307E-03    -229.279E-03     271.076E-03    -250.149E-03     479.298E-03    -228.981E-03     226.720E-03
            1476     9.30467E-03     77.9319E-03    -40.9168E+06     44.5868E+06     53.6574E+06    -467.322E+03    -233.911E-03     463.219E-03    -229.307E-03     267.132E-03    -249.500E-03     478.664E-03    -229.044E-03     224.592E-03
            1477     8.58807E-03     77.5889E-03    -47.2243E+06     37.0240E+06     44.6032E+06    -453.746E+03    -234.445E-03     463.800E-03    -229.355E-03     254.027E-03    -247.827E-03     477.017E-03    -229.118E-03     214.503E-03
            1478     7.87216E-03     77.2652E-03    -54.6418E+06     9.16217E+06     31.8108E+06    -31.2906E+03    -234.684E-03     464.087E-03    -229.403E-03     236.533E-03    -245.708E-03     474.857E-03    -229.178E-03     200.693E-03
            1479     7.15653E-03     76.9641E-03    -63.7322E+06    -39.5358E+06     12.7747E+06     37.2796E+03    -234.567E-03     464.007E-03    -229.441E-03     217.492E-03    -243.367E-03     472.403E-03    -229.227E-03     185.625E-03
            1480     6.44015E-03     76.6878E-03    -72.0093E+06    -90.2097E+06    -5.95452E+06    -131.648E+03    -234.251E-03     463.726E-03    -229.475E-03     197.532E-03    -241.098E-03     470.014E-03    -229.269E-03     169.620E-03
            1481     5.72455E-03     76.4372E-03    -79.2885E+06    -129.634E+06    -22.4931E+06     139.570E+03    -233.754E-03     463.246E-03    -229.492E-03     176.766E-03    -238.947E-03     467.763E-03    -229.302E-03     152.700E-03
            1482     5.00881E-03     76.2138E-03    -86.1593E+06    -160.304E+06    -38.3083E+06     473.103E+03    -233.056E-03     462.549E-03    -229.492E-03     155.546E-03    -236.879E-03     465.607E-03    -229.327E-03     135.165E-03
            1483     4.29326E-03     76.0180E-03    -92.2014E+06    -201.186E+06    -53.2301E+06     439.832E+03    -232.334E-03     461.841E-03    -229.507E-03     134.022E-03    -235.027E-03     463.647E-03    -229.348E-03     117.082E-03
            1484     3.57754E-03     75.8511E-03    -97.9672E+06    -231.048E+06    -68.4737E+06    -148.118E+03    -231.588E-03     461.087E-03    -229.499E-03     112.153E-03    -233.391E-03     461.921E-03    -229.365E-03     98.4212E-03
            1485     2.86199E-03     75.7135E-03    -104.370E+06    -243.481E+06    -84.9469E+06    -748.405E+03    -230.863E-03     460.321E-03    -229.458E-03     90.1035E-03    -232.000E-03     460.470E-03    -229.379E-03     79.3711E-03
            1486     2.14658E-03     75.6053E-03    -110.004E+06    -264.685E+06    -98.5263E+06    -463.458E+03    -230.275E-03     459.716E-03    -229.442E-03     68.0004E-03    -230.909E-03     459.306E-03    -229.391E-03     60.0804E-03
            1487     1.43097E-03     75.5276E-03    -112.597E+06    -288.757E+06    -106.710E+06     303.018E+03    -229.826E-03     459.282E-03    -229.456E-03     46.0643E-03    -230.097E-03     458.437E-03    -229.408E-03     40.8000E-03
            1488     715.297E-06     75.4801E-03    -113.138E+06    -302.187E+06    -111.720E+06     464.162E+03    -229.786E-03     459.064E-03    -229.278E-03     24.9074E-03    -229.842E-03     457.970E-03    -229.234E-03     22.0595E-03
            1489     13.6022E-03     78.2216E-03    -4.73122E+06     75.9544E+06     84.2159E+06     29.9263E+03    -226.384E-03     455.579E-03    -229.195E-03     126.214E-03    -233.911E-03     463.115E-03    -228.878E-03     96.7607E-03
            1490     12.8889E-03     78.0061E-03    -8.75906E+06     75.5777E+06     83.7913E+06     325.320E+03    -225.568E-03     454.777E-03    -229.209E-03     184.577E-03    -237.452E-03     466.654E-03    -228.887E-03     147.660E-03
            1491     12.1708E-03     77.7620E-03    -14.1648E+06     68.9482E+06     80.7729E+06     472.597E+03    -227.010E-03     456.260E-03    -229.250E-03     212.204E-03    -240.916E-03     470.126E-03    -228.926E-03     172.836E-03
            1492     11.4530E-03     77.4662E-03    -21.0544E+06     62.8930E+06     79.0773E+06    -33.3354E+03    -229.001E-03     458.307E-03    -229.306E-03     243.075E-03    -245.289E-03     474.515E-03    -228.971E-03     200.505E-03
            1493     10.7367E-03     77.1391E-03    -27.6205E+06     55.6735E+06     75.2616E+06    -761.770E+03    -231.159E-03     460.516E-03    -229.357E-03     262.700E-03    -248.525E-03     477.763E-03    -229.021E-03     218.448E-03
            1494     10.0199E-03     76.7885E-03    -34.4834E+06     48.8593E+06     65.3072E+06    -1.25554E+06    -233.076E-03     462.457E-03    -229.381E-03     271.275E-03    -250.207E-03     479.450E-03    -229.075E-03     226.915E-03
            1495     9.30410E-03     76.4339E-03    -40.9678E+06     44.6626E+06     54.1482E+06    -1.43946E+06    -234.319E-03     463.708E-03    -229.390E-03     266.609E-03    -249.910E-03     479.156E-03    -229.124E-03     223.956E-03
            1496     8.58804E-03     76.0898E-03    -49.1430E+06     35.1691E+06     42.3896E+06    -1.11050E+06    -234.839E-03     464.232E-03    -229.393E-03     253.213E-03    -248.215E-03     477.435E-03    -229.160E-03     213.589E-03
            1497     7.87228E-03     75.7656E-03    -57.6830E+06     7.73898E+06     29.2665E+06    -296.647E+03    -234.841E-03     464.248E-03    -229.408E-03     235.909E-03    -245.866E-03     475.011E-03    -229.189E-03     200.025E-03
            1498     7.15607E-03     75.4655E-03    -64.9334E+06    -39.0291E+06     12.0436E+06     99.9257E+03    -234.685E-03     464.112E-03    -229.427E-03     217.066E-03    -243.490E-03     472.513E-03    -229.216E-03     185.165E-03
            1499     6.44065E-03     75.1886E-03    -72.1031E+06    -90.2944E+06    -6.53947E+06     141.198E+03    -234.360E-03     463.800E-03    -229.440E-03     197.124E-03    -241.203E-03     470.085E-03    -229.237E-03     169.197E-03
            1500     5.72487E-03     74.9383E-03    -79.3294E+06    -129.936E+06    -23.4727E+06     108.085E+03    -233.781E-03     463.218E-03    -229.437E-03     176.388E-03    -238.968E-03     467.730E-03    -229.251E-03     152.316E-03
            1501     5.00928E-03     74.7148E-03    -85.9324E+06    -160.222E+06    -38.5477E+06    -177.026E+03    -233.067E-03     462.492E-03    -229.425E-03     155.283E-03    -236.888E-03     465.551E-03    -229.261E-03     134.878E-03
            1502     4.29355E-03     74.5194E-03    -92.6990E+06    -200.739E+06    -53.0044E+06    -299.091E+03    -232.326E-03     461.752E-03    -229.426E-03     133.761E-03    -235.021E-03     463.559E-03    -229.265E-03     116.805E-03
            1503     3.57804E-03     74.3523E-03    -99.5161E+06    -230.779E+06    -68.4451E+06     100.380E+03    -231.525E-03     460.929E-03    -229.404E-03     111.892E-03    -233.335E-03     461.765E-03    -229.267E-03     98.1645E-03
            1504     2.86251E-03     74.2147E-03    -105.021E+06    -243.676E+06    -84.5534E+06     417.313E+03    -230.728E-03     460.088E-03    -229.360E-03     90.0102E-03    -231.869E-03     460.236E-03    -229.278E-03     79.2981E-03
            1505     2.14674E-03     74.1069E-03    -108.844E+06    -264.568E+06    -98.3432E+06    -26.9513E+03    -230.131E-03     459.484E-03    -229.353E-03     67.9938E-03    -230.759E-03     459.071E-03    -229.303E-03     60.0891E-03
            1506     1.43102E-03     74.0293E-03    -112.183E+06    -289.272E+06    -108.052E+06    -692.014E+03    -229.737E-03     459.112E-03    -229.375E-03     45.8444E-03    -230.002E-03     458.266E-03    -229.334E-03     40.5675E-03
            1507     715.533E-06     73.9812E-03    -114.442E+06    -302.603E+06    -113.283E+06    -644.357E+03    -229.687E-03     458.909E-03    -229.222E-03     24.8172E-03    -229.747E-03     457.818E-03    -229.183E-03     21.9323E-03
            1508     13.6024E-03     76.7235E-03    -4.20749E+06     76.6552E+06     83.0209E+06    -237.837E+03    -225.455E-03     454.653E-03    -229.198E-03     127.272E-03    -233.003E-03     462.218E-03    -228.888E-03     97.8846E-03
            1509     12.8835E-03     76.5050E-03    -9.76695E+06     74.9220E+06     82.6700E+06     308.867E+03    -225.697E-03     454.948E-03    -229.251E-03     187.561E-03    -237.645E-03     466.887E-03    -228.932E-03     150.710E-03
            1510     12.1686E-03     76.2646E-03    -14.4819E+06     69.0241E+06     81.3158E+06     1.29181E+06    -227.269E-03     456.577E-03    -229.308E-03     214.454E-03    -241.220E-03     470.486E-03    -228.980E-03     175.158E-03
            1511     11.4525E-03     75.9686E-03    -19.4315E+06     65.5176E+06     80.7343E+06     1.28015E+06    -228.999E-03     458.368E-03    -229.370E-03     243.531E-03    -245.278E-03     474.577E-03    -229.033E-03     201.043E-03
            1512     10.7354E-03     75.6405E-03    -27.4348E+06     57.3969E+06     74.3998E+06    -223.873E+03    -231.144E-03     460.558E-03    -229.414E-03     261.793E-03    -248.486E-03     477.791E-03    -229.086E-03     217.506E-03
            1513     10.0196E-03     75.2895E-03    -35.3602E+06     50.4934E+06     62.1524E+06    -1.60165E+06    -233.353E-03     462.762E-03    -229.408E-03     269.898E-03    -250.467E-03     479.749E-03    -229.120E-03     225.398E-03
            1514     9.30363E-03     74.9337E-03    -43.3108E+06     43.0711E+06     49.8522E+06    -1.92010E+06    -234.632E-03     464.013E-03    -229.381E-03     265.545E-03    -250.216E-03     479.452E-03    -229.131E-03     222.773E-03
            1515     8.58847E-03     74.5902E-03    -50.6853E+06     33.5445E+06     40.1688E+06    -1.15117E+06    -234.923E-03     464.287E-03    -229.365E-03     252.667E-03    -248.297E-03     477.484E-03    -229.139E-03     213.007E-03
            1516     7.87236E-03     74.2672E-03    -57.8224E+06     6.87201E+06     27.9717E+06    -933.257E+03    -234.907E-03     464.272E-03    -229.365E-03     235.539E-03    -245.923E-03     475.027E-03    -229.152E-03     199.636E-03
            1517     7.15690E-03     73.9660E-03    -65.3096E+06    -40.0334E+06     11.1866E+06    -799.088E+03    -234.777E-03     464.146E-03    -229.369E-03     216.638E-03    -243.580E-03     472.542E-03    -229.161E-03     184.691E-03
            1518     6.44103E-03     73.6899E-03    -72.5678E+06    -90.7871E+06    -6.24785E+06    -365.021E+03    -234.371E-03     463.740E-03    -229.369E-03     196.841E-03    -241.217E-03     470.025E-03    -229.163E-03     168.883E-03
            1519     5.72541E-03     73.4394E-03    -79.5450E+06    -129.617E+06    -22.7657E+06    -301.540E+03    -233.749E-03     463.104E-03    -229.355E-03     176.227E-03    -238.937E-03     467.615E-03    -229.165E-03     152.148E-03
            1520     5.00966E-03     73.2162E-03    -86.7210E+06    -159.884E+06    -38.3991E+06    -447.578E+03    -233.010E-03     462.341E-03    -229.332E-03     155.140E-03    -236.832E-03     465.400E-03    -229.166E-03     134.741E-03
            1521     4.29413E-03     73.0205E-03    -93.4265E+06    -201.218E+06    -52.8662E+06    -475.170E+03    -232.232E-03     461.561E-03    -229.329E-03     133.747E-03    -234.930E-03     463.366E-03    -229.166E-03     116.792E-03
            1522     3.57852E-03     72.8539E-03    -99.4481E+06    -231.800E+06    -68.2011E+06    -489.404E+03    -231.396E-03     460.706E-03    -229.310E-03     112.025E-03    -233.206E-03     461.538E-03    -229.171E-03     98.2899E-03
            1523     2.86260E-03     72.7167E-03    -104.634E+06    -244.016E+06    -84.5787E+06    -225.660E+03    -230.617E-03     459.889E-03    -229.272E-03     90.1160E-03    -231.755E-03     460.035E-03    -229.190E-03     79.4092E-03
            1524     2.14685E-03     72.6086E-03    -108.981E+06    -263.060E+06    -97.4857E+06     123.241E+03    -230.031E-03     459.306E-03    -229.275E-03     68.0961E-03    -230.664E-03     458.901E-03    -229.223E-03     60.1941E-03
            1525     1.43142E-03     72.5307E-03    -112.413E+06    -289.106E+06    -105.798E+06    -73.0148E+03    -229.673E-03     458.979E-03    -229.306E-03     46.1025E-03    -229.944E-03     458.132E-03    -229.253E-03     40.8348E-03
            1526     715.757E-06     72.4832E-03    -114.986E+06    -304.586E+06    -112.989E+06    -215.636E+03    -229.528E-03     458.751E-03    -229.223E-03     25.1173E-03    -229.588E-03     457.650E-03    -229.179E-03     22.2525E-03
            1527     13.6000E-03     75.2257E-03    -3.29613E+06     75.8843E+06     83.1660E+06     1.33393E+06    -225.194E-03     454.466E-03    -229.272E-03     127.103E-03    -232.685E-03     461.973E-03    -228.962E-03     97.9301E-03
            1528     12.8847E-03     75.0086E-03    -8.71554E+06     75.2757E+06     82.9017E+06     678.843E+03    -225.607E-03     454.942E-03    -229.335E-03     186.402E-03    -237.510E-03     466.841E-03    -229.017E-03     149.535E-03
            1529     12.1671E-03     74.7636E-03    -15.8094E+06     68.2793E+06     79.6231E+06    -862.562E+03    -227.547E-03     456.923E-03    -229.376E-03     212.960E-03    -241.510E-03     470.841E-03    -229.054E-03     173.424E-03
            1530     11.4515E-03     74.4696E-03    -21.5663E+06     65.5754E+06     79.8957E+06    -281.705E+03    -229.549E-03     458.953E-03    -229.405E-03     242.318E-03    -245.861E-03     475.191E-03    -229.069E-03     199.582E-03
            1531     10.7363E-03     74.1417E-03    -26.7075E+06     59.2829E+06     77.0197E+06     203.820E+03    -231.683E-03     461.096E-03    -229.413E-03     261.078E-03    -249.017E-03     478.323E-03    -229.075E-03     216.687E-03
            1532     10.0204E-03     73.7900E-03    -33.6046E+06     51.6034E+06     64.2196E+06     702.387E+03    -233.585E-03     462.954E-03    -229.369E-03     269.294E-03    -250.667E-03     479.914E-03    -229.074E-03     224.812E-03
            1533     9.30511E-03     73.4345E-03    -41.3128E+06     44.6086E+06     50.2123E+06     864.179E+03    -234.525E-03     463.844E-03    -229.319E-03     265.010E-03    -250.084E-03     479.269E-03    -229.073E-03     222.300E-03
            1534     8.58857E-03     73.0916E-03    -49.4341E+06     34.5357E+06     40.1480E+06    -359.655E+03    -234.854E-03     464.153E-03    -229.299E-03     252.206E-03    -248.218E-03     477.348E-03    -229.077E-03     212.548E-03
            1535     7.87311E-03     72.7674E-03    -57.5014E+06     6.88636E+06     28.4251E+06    -1.00790E+06    -234.893E-03     464.190E-03    -229.297E-03     235.235E-03    -245.909E-03     474.944E-03    -229.082E-03     199.308E-03
            1536     7.15732E-03     72.4672E-03    -65.2539E+06    -40.3982E+06     11.2837E+06    -1.11302E+06    -234.704E-03     463.998E-03    -229.294E-03     216.611E-03    -243.509E-03     472.395E-03    -229.085E-03     184.659E-03
            1537     6.44172E-03     72.1911E-03    -72.6137E+06    -91.9205E+06    -6.17928E+06    -1.13807E+06    -234.328E-03     463.621E-03    -229.293E-03     196.905E-03    -241.177E-03     469.903E-03    -229.085E-03     168.934E-03
            1538     5.72597E-03     71.9408E-03    -79.5265E+06    -130.331E+06    -22.0819E+06    -646.615E+03    -233.702E-03     462.980E-03    -229.277E-03     176.331E-03    -238.890E-03     467.486E-03    -229.084E-03     152.258E-03
            1539     5.01033E-03     71.7178E-03    -86.2028E+06    -159.592E+06    -37.5283E+06    -504.407E+03    -232.904E-03     462.160E-03    -229.255E-03     155.316E-03    -236.724E-03     465.216E-03    -229.087E-03     134.943E-03
            1540     4.29443E-03     71.5223E-03    -92.9361E+06    -201.821E+06    -52.2608E+06    -856.524E+03    -232.074E-03     461.339E-03    -229.265E-03     133.926E-03    -234.771E-03     463.141E-03    -229.099E-03     116.980E-03
            1541     3.57845E-03     71.3560E-03    -99.9390E+06    -232.129E+06    -66.6210E+06    -505.214E+03    -231.289E-03     460.557E-03    -229.268E-03     112.163E-03    -233.103E-03     461.385E-03    -229.119E-03     98.4440E-03
            1542     2.86287E-03     71.2184E-03    -107.238E+06    -244.879E+06    -83.3165E+06     275.554E+03    -230.599E-03     459.833E-03    -229.234E-03     90.2192E-03    -231.750E-03     459.976E-03    -229.140E-03     79.5280E-03
            1543     2.14717E-03     71.1108E-03    -112.885E+06    -262.125E+06    -102.044E+06     17.2860E+03    -229.989E-03     459.186E-03    -229.197E-03     68.1310E-03    -230.636E-03     458.798E-03    -229.163E-03     60.2382E-03
            1544     1.43098E-03     71.0327E-03    -115.240E+06    -288.920E+06    -113.082E+06    -825.254E+03    -229.594E-03     458.807E-03    -229.213E-03     46.0477E-03    -229.868E-03     457.974E-03    -229.192E-03     40.7898E-03
            1545     715.397E-06     70.9845E-03    -115.868E+06    -306.747E+06    -115.067E+06    -604.850E+03    -229.493E-03     458.628E-03    -229.136E-03     24.7407E-03    -229.550E-03     457.520E-03    -229.098E-03     21.8894E-03
            1546     13.6005E-03     73.7283E-03    -4.39999E+06     74.7804E+06     83.6193E+06     50.8297E+03    -226.098E-03     455.450E-03    -229.353E-03     127.314E-03    -233.652E-03     463.012E-03    -229.037E-03     97.9382E-03
            1547     12.8830E-03     73.5086E-03    -8.63738E+06     75.5867E+06     84.5286E+06     120.443E+03    -226.563E-03     455.929E-03    -229.366E-03     186.479E-03    -238.545E-03     467.904E-03    -229.040E-03     149.294E-03
            1548     12.1683E-03     73.2655E-03    -13.9071E+06     69.4025E+06     82.1117E+06     787.802E+03    -227.870E-03     457.235E-03    -229.365E-03     212.084E-03    -241.809E-03     471.133E-03    -229.035E-03     172.492E-03
            1549     11.4523E-03     72.9693E-03    -20.9039E+06     65.4988E+06     79.2498E+06     205.191E+03    -229.693E-03     459.051E-03    -229.358E-03     241.243E-03    -245.966E-03     475.253E-03    -229.027E-03     198.462E-03
            1550     10.7364E-03     72.6422E-03    -27.9298E+06     58.8942E+06     73.8720E+06     305.216E+03    -231.816E-03     461.153E-03    -229.337E-03     260.440E-03    -249.137E-03     478.369E-03    -229.012E-03     216.010E-03
            1551     10.0213E-03     72.2899E-03    -34.6496E+06     50.9667E+06     62.8320E+06     556.523E+03    -233.500E-03     462.791E-03    -229.291E-03     269.070E-03    -250.581E-03     479.747E-03    -229.000E-03     224.604E-03
            1552     9.30494E-03     71.9361E-03    -41.0986E+06     45.1457E+06     52.8160E+06     410.628E+03    -234.463E-03     463.718E-03    -229.254E-03     264.920E-03    -250.028E-03     479.143E-03    -228.996E-03     222.219E-03
            1553     8.58987E-03     71.5919E-03    -47.6376E+06     36.5204E+06     43.3799E+06     788.431E+03    -234.769E-03     464.002E-03    -229.232E-03     252.228E-03    -248.133E-03     477.199E-03    -228.999E-03     212.604E-03
            1554     7.87388E-03     71.2693E-03    -55.3569E+06     8.74338E+06     30.3305E+06     358.906E+03    -234.719E-03     463.949E-03    -229.230E-03     235.463E-03    -245.732E-03     474.708E-03    -229.011E-03     199.588E-03
            1555     7.15783E-03     70.9683E-03    -63.4568E+06    -39.8579E+06     12.8090E+06    -390.831E+03    -234.607E-03     463.847E-03    -229.239E-03     216.857E-03    -243.403E-03     472.238E-03    -229.025E-03     184.951E-03
            1556     6.44196E-03     70.6924E-03    -71.1198E+06    -92.3809E+06    -5.24388E+06    -570.697E+03    -234.241E-03     463.487E-03    -229.245E-03     197.080E-03    -241.077E-03     469.757E-03    -229.035E-03     169.153E-03
            1557     5.72622E-03     70.4424E-03    -78.4218E+06    -130.900E+06    -21.6485E+06    -650.226E+03    -233.584E-03     462.825E-03    -229.241E-03     176.630E-03    -238.766E-03     467.326E-03    -229.045E-03     152.590E-03
            1558     5.01026E-03     70.2194E-03    -85.2893E+06    -160.115E+06    -36.9107E+06    -662.845E+03    -232.808E-03     462.044E-03    -229.236E-03     155.660E-03    -236.627E-03     465.098E-03    -229.064E-03     135.296E-03
            1559     4.29444E-03     70.0244E-03    -92.3654E+06    -202.019E+06    -51.6238E+06    -144.113E+03    -232.070E-03     461.325E-03    -229.255E-03     134.132E-03    -234.765E-03     463.125E-03    -229.086E-03     117.209E-03
            1560     3.57875E-03     69.8579E-03    -99.2688E+06    -232.708E+06    -67.3632E+06     352.663E+03    -231.337E-03     460.585E-03    -229.248E-03     112.263E-03    -233.143E-03     461.408E-03    -229.103E-03     98.5753E-03
            1561     2.86276E-03     69.7204E-03    -104.073E+06    -244.487E+06    -83.1740E+06    -149.439E+03    -230.621E-03     459.827E-03    -229.206E-03     90.2648E-03    -231.758E-03     459.967E-03    -229.116E-03     79.5684E-03
            1562     2.14698E-03     69.6127E-03    -107.032E+06    -262.374E+06    -95.5592E+06    -49.6142E+03    -230.077E-03     459.252E-03    -229.175E-03     68.1132E-03    -230.703E-03     458.843E-03    -229.117E-03     60.2233E-03
            1563     1.43181E-03     69.5349E-03    -110.225E+06    -289.131E+06    -105.164E+06     1.06723E+06    -229.627E-03     458.778E-03    -229.152E-03     46.0346E-03    -229.887E-03     457.926E-03    -229.099E-03     40.7918E-03
            1564     716.031E-06     69.4868E-03    -113.559E+06    -305.558E+06    -112.667E+06     736.269E+03    -229.434E-03     458.400E-03    -228.966E-03     24.8620E-03    -229.486E-03     457.291E-03    -228.921E-03     22.0202E-03
            1565     13.5971E-03     72.2255E-03    -4.42753E+06     74.6545E+06     83.6560E+06    -563.833E+03    -226.255E-03     455.634E-03    -229.379E-03     126.805E-03    -233.800E-03     463.186E-03    -229.062E-03     97.4229E-03
            1566     12.8844E-03     72.0083E-03    -9.80876E+06       74.74E+06     84.0209E+06    -251.553E+03    -227.151E-03     456.518E-03    -229.367E-03     185.974E-03    -239.178E-03     468.532E-03    -229.041E-03     148.546E-03
            1567     12.1688E-03     71.7648E-03    -14.4954E+06     68.6659E+06     82.4688E+06     15.8051E+03    -228.489E-03     457.819E-03    -229.330E-03     212.118E-03    -242.450E-03     471.734E-03    -228.996E-03     172.427E-03
            1568     11.4534E-03     71.4709E-03    -18.8831E+06     65.0298E+06     81.1709E+06     964.246E+03    -229.995E-03     459.291E-03    -229.296E-03     241.338E-03    -246.274E-03     475.498E-03    -228.957E-03     198.554E-03
            1569     10.7382E-03     71.1420E-03    -24.8482E+06     58.6406E+06     75.5553E+06     1.98466E+06    -231.670E-03     460.932E-03    -229.262E-03     260.289E-03    -248.985E-03     478.148E-03    -228.933E-03     215.905E-03
            1570     10.0218E-03     70.7924E-03    -31.4040E+06     52.3609E+06     65.0414E+06     2.08374E+06    -233.308E-03     462.530E-03    -229.222E-03     269.081E-03    -250.386E-03     479.494E-03    -228.927E-03     224.651E-03
            1571     9.30651E-03     70.4361E-03    -39.0017E+06     46.9843E+06     54.1164E+06     1.49971E+06    -234.266E-03     463.460E-03    -229.194E-03     265.222E-03    -249.827E-03     478.893E-03    -228.935E-03     222.573E-03
            1572     8.59006E-03     70.0942E-03    -47.1219E+06     37.0419E+06     43.6789E+06     503.633E+03    -234.570E-03     463.759E-03    -229.189E-03     252.786E-03    -247.930E-03     476.957E-03    -228.956E-03     213.227E-03
            1573     7.87378E-03     69.7701E-03    -54.6122E+06     9.52289E+06     31.6671E+06     324.574E+03    -234.725E-03     463.931E-03    -229.206E-03     236.028E-03    -245.735E-03     474.689E-03    -228.982E-03     200.193E-03
            1574     7.15803E-03     69.4699E-03    -62.0637E+06    -39.0508E+06     14.2585E+06     548.041E+03    -234.593E-03     463.813E-03    -229.220E-03     217.083E-03    -243.380E-03     472.199E-03    -229.002E-03     185.220E-03
            1575     6.44213E-03     69.1938E-03    -69.6390E+06    -91.5699E+06    -3.99913E+06     359.352E+03    -234.103E-03     463.339E-03    -229.236E-03     197.229E-03    -240.928E-03     469.603E-03    -229.022E-03     169.362E-03
            1576     5.72607E-03     68.9443E-03    -77.1727E+06    -130.699E+06    -21.0400E+06     192.410E+03    -233.469E-03     462.716E-03    -229.248E-03     176.741E-03    -238.643E-03     467.213E-03    -229.051E-03     152.738E-03
            1577     5.01014E-03     68.7212E-03    -84.7706E+06    -160.698E+06    -37.3085E+06     249.411E+03    -232.782E-03     462.035E-03    -229.253E-03     155.709E-03    -236.595E-03     465.085E-03    -229.084E-03     135.369E-03
            1578     4.29425E-03     68.5262E-03    -91.6492E+06    -202.108E+06    -52.3860E+06     520.481E+03    -232.118E-03     461.391E-03    -229.273E-03     134.169E-03    -234.807E-03     463.188E-03    -229.109E-03     117.269E-03
            1579     3.57848E-03     68.3596E-03    -97.5180E+06    -232.224E+06    -67.5352E+06     3.81561E+03    -231.425E-03     460.684E-03    -229.259E-03     112.360E-03    -233.224E-03     461.508E-03    -229.119E-03     98.6629E-03
            1580     2.86299E-03     68.2226E-03    -103.314E+06    -243.904E+06    -83.3660E+06    -528.341E+03    -230.704E-03     459.908E-03    -229.203E-03     90.3604E-03    -231.838E-03     460.051E-03    -229.117E-03     79.6559E-03
            1581     2.14731E-03     68.1144E-03    -108.922E+06    -263.871E+06    -97.6558E+06    -155.973E+03    -230.059E-03     459.222E-03    -229.163E-03     68.2108E-03    -230.689E-03     458.812E-03    -229.110E-03     60.3220E-03
            1582     1.43125E-03     68.0369E-03    -112.267E+06    -289.770E+06    -106.077E+06     278.210E+03    -229.579E-03     458.739E-03    -229.159E-03     46.1704E-03    -229.848E-03     457.888E-03    -229.107E-03     40.9215E-03
            1583     715.505E-06     67.9895E-03    -113.136E+06    -302.560E+06    -110.637E+06     1.00107E+06    -229.402E-03     458.445E-03    -229.043E-03     25.0362E-03    -229.459E-03     457.348E-03    -228.994E-03     22.1961E-03
            1584     13.6012E-03     70.7268E-03    -5.42942E+06     75.0821E+06     82.6056E+06     109.110E+03    -226.316E-03     455.626E-03    -229.310E-03     126.437E-03    -233.860E-03     463.178E-03    -228.998E-03     97.0121E-03
            1585     12.8832E-03     70.5065E-03    -10.6416E+06     73.8663E+06      81.484E+06    -1.16876E+06    -226.752E-03     456.044E-03    -229.292E-03     184.611E-03    -238.752E-03     468.032E-03    -228.976E-03     147.128E-03
            1586     12.1686E-03     70.2642E-03    -15.2449E+06     67.7379E+06     79.8090E+06    -1.78986E+06    -228.208E-03     457.470E-03    -229.262E-03     210.969E-03    -242.144E-03     471.360E-03    -228.939E-03     171.258E-03
            1587     11.4540E-03     69.9694E-03    -20.8385E+06     62.4261E+06     79.6014E+06    -1.75379E+06    -229.626E-03     458.874E-03    -229.249E-03     241.269E-03    -245.917E-03     475.082E-03    -228.911E-03     198.484E-03
            1588     10.7381E-03     69.6439E-03    -26.3511E+06     55.6403E+06     77.1062E+06    -938.722E+03    -231.485E-03     460.735E-03    -229.251E-03     261.385E-03    -248.829E-03     477.960E-03    -228.907E-03     217.046E-03
            1589     10.0227E-03     69.2927E-03    -32.1619E+06     50.2248E+06     67.8484E+06     433.412E+03    -233.349E-03     462.581E-03    -229.232E-03     270.462E-03    -250.465E-03     479.564E-03    -228.919E-03     226.063E-03
            1590     9.30600E-03     68.9383E-03    -38.0816E+06     47.4355E+06     56.7114E+06     1.71136E+06    -234.316E-03     463.524E-03    -229.208E-03     266.141E-03    -249.893E-03     478.970E-03    -228.938E-03     223.534E-03
            1591     8.58976E-03     68.5955E-03    -44.9116E+06     39.2358E+06     46.1020E+06     2.09348E+06    -234.709E-03     463.910E-03    -229.201E-03     253.112E-03    -248.064E-03     477.111E-03    -228.962E-03     213.582E-03
            1592     7.87393E-03     68.2716E-03    -53.3509E+06     10.3642E+06     32.9162E+06     1.59956E+06    -234.751E-03     463.963E-03    -229.212E-03     236.063E-03    -245.750E-03     474.714E-03    -228.986E-03     200.265E-03
            1593     7.15793E-03     67.9709E-03    -61.9534E+06    -38.3928E+06     14.2362E+06     1.23321E+06    -234.488E-03     463.716E-03    -229.228E-03     217.158E-03    -243.270E-03     472.101E-03    -229.012E-03     185.336E-03
            1594     6.44189E-03     67.6959E-03    -70.2258E+06    -90.5906E+06    -4.84030E+06     1.29687E+06    -234.089E-03     463.339E-03    -229.250E-03     197.292E-03    -240.917E-03     469.611E-03    -229.041E-03     169.446E-03
            1595     5.72593E-03     67.4459E-03    -78.0552E+06    -130.058E+06    -21.9245E+06     1.16025E+06    -233.517E-03     462.780E-03    -229.262E-03     176.662E-03    -238.692E-03     467.279E-03    -229.070E-03     152.676E-03
            1596     5.01001E-03     67.2232E-03    -85.2831E+06    -159.880E+06    -38.0038E+06     873.107E+03    -232.816E-03     462.079E-03    -229.263E-03     155.528E-03    -236.627E-03     465.130E-03    -229.098E-03     135.208E-03
            1597     4.29420E-03     67.0277E-03    -91.9958E+06    -201.468E+06    -52.9881E+06     301.088E+03    -232.096E-03     461.379E-03    -229.283E-03     134.001E-03    -234.782E-03     463.176E-03    -229.122E-03     117.109E-03
            1598     3.57848E-03     66.8616E-03    -98.7783E+06    -231.670E+06    -68.3304E+06     105.331E+03    -231.390E-03     460.666E-03    -229.276E-03     112.249E-03    -233.193E-03     461.494E-03    -229.139E-03     98.5624E-03
            1599     2.86264E-03     66.7238E-03    -104.746E+06    -244.240E+06    -84.6192E+06     307.516E+03    -230.685E-03     459.914E-03    -229.229E-03     90.3260E-03    -231.823E-03     460.058E-03    -229.146E-03     79.6374E-03
            1600     2.14702E-03     66.6168E-03    -108.319E+06    -264.053E+06    -98.4100E+06     64.4995E+03    -230.056E-03     459.257E-03    -229.201E-03     68.1802E-03    -230.682E-03     458.846E-03    -229.153E-03     60.2920E-03
            1601     1.43144E-03     66.5392E-03    -110.767E+06    -289.665E+06    -107.215E+06    -265.986E+03    -229.614E-03     458.823E-03    -229.210E-03     46.0579E-03    -229.872E-03     457.972E-03    -229.165E-03     40.8147E-03
            1602     715.852E-06     66.4911E-03    -113.303E+06    -302.857E+06    -111.863E+06    -924.098E+03    -229.476E-03     458.570E-03    -229.094E-03     24.8829E-03    -229.531E-03     457.473E-03    -229.050E-03     22.0245E-03
            1603     13.6006E-03     69.2264E-03    -4.21276E+06     77.0679E+06     82.9162E+06     63.2959E+03    -226.705E-03     455.923E-03    -229.218E-03     126.841E-03    -234.243E-03     463.480E-03    -228.909E-03     97.3549E-03
            1604     12.8874E-03     69.0083E-03    -8.34717E+06     75.5875E+06     82.7894E+06    -29.3999E+03    -226.485E-03     455.689E-03    -229.205E-03     185.432E-03    -238.409E-03     467.613E-03    -228.888E-03     148.276E-03
            1605     12.1713E-03     68.7642E-03    -13.9465E+06     68.2630E+06     80.5532E+06    -408.464E+03    -227.574E-03     456.780E-03    -229.206E-03     211.534E-03    -241.483E-03     470.648E-03    -228.882E-03     172.039E-03
            1606     11.4542E-03     68.4722E-03    -20.7703E+06     62.1663E+06     77.8754E+06    -1.50060E+06    -228.953E-03     458.180E-03    -229.227E-03     241.563E-03    -245.216E-03     474.365E-03    -228.898E-03     198.931E-03
            1607     10.7374E-03     68.1445E-03    -28.7563E+06     54.3530E+06     70.9688E+06    -1.71025E+06    -231.127E-03     460.377E-03    -229.250E-03     261.650E-03    -248.453E-03     477.588E-03    -228.932E-03     217.373E-03
            1608     10.0207E-03     67.7933E-03    -36.7875E+06     48.8584E+06     60.8604E+06    -2.66284E+06    -233.240E-03     462.491E-03    -229.251E-03     270.451E-03    -250.356E-03     479.473E-03    -228.964E-03     226.014E-03
            1609     9.30523E-03     67.4390E-03    -43.4968E+06     43.0821E+06     52.3666E+06    -3.40797E+06    -234.523E-03     463.765E-03    -229.242E-03     265.925E-03    -250.112E-03     479.201E-03    -228.979E-03     223.197E-03
            1610     8.58982E-03     67.0960E-03    -49.7782E+06     34.6121E+06     43.1225E+06    -1.63469E+06    -234.924E-03     464.145E-03    -229.221E-03     252.971E-03    -248.293E-03     477.336E-03    -228.984E-03     213.347E-03
            1611     7.87389E-03     66.7730E-03    -56.7483E+06     9.25950E+06     30.2207E+06     952.957E+03    -234.722E-03     463.940E-03    -229.218E-03     235.913E-03    -245.729E-03     474.690E-03    -228.998E-03     200.113E-03
            1612     7.15759E-03     66.4728E-03    -64.7560E+06    -37.8321E+06     12.3862E+06     1.70362E+06    -234.429E-03     463.666E-03    -229.237E-03     216.954E-03    -243.214E-03     472.051E-03    -229.026E-03     185.165E-03
            1613     6.44164E-03     66.1970E-03    -72.5871E+06    -89.8277E+06    -5.92554E+06     1.24215E+06    -234.090E-03     463.353E-03    -229.262E-03     196.991E-03    -240.922E-03     469.624E-03    -229.056E-03     169.149E-03
            1614     5.72589E-03     65.9477E-03    -79.6314E+06    -129.025E+06    -22.3764E+06     811.159E+03    -233.570E-03     462.840E-03    -229.270E-03     176.494E-03    -238.747E-03     467.341E-03    -229.079E-03     152.511E-03
            1615     5.01015E-03     65.7246E-03    -86.2404E+06    -159.074E+06    -37.9476E+06     453.453E+03    -232.858E-03     462.123E-03    -229.265E-03     155.443E-03    -236.673E-03     465.177E-03    -229.099E-03     135.121E-03
            1616     4.29429E-03     65.5299E-03    -93.1031E+06    -200.735E+06    -53.0273E+06     312.884E+03    -232.109E-03     461.387E-03    -229.278E-03     133.929E-03    -234.798E-03     463.187E-03    -229.117E-03     117.045E-03
            1617     3.57845E-03     65.3631E-03    -99.2938E+06    -231.962E+06    -68.8906E+06     214.381E+03    -231.366E-03     460.634E-03    -229.268E-03     112.114E-03    -233.166E-03     461.458E-03    -229.132E-03     98.4468E-03
            1618     2.86280E-03     65.2260E-03    -104.228E+06    -244.176E+06    -85.3810E+06     53.1121E+03    -230.623E-03     459.848E-03    -229.225E-03     90.0274E-03    -231.754E-03     459.990E-03    -229.147E-03     79.3460E-03
            1619     2.14690E-03     65.1183E-03    -108.898E+06    -263.501E+06    -98.2344E+06     88.0280E+03    -230.051E-03     459.259E-03    -229.209E-03     67.8718E-03    -230.678E-03     458.850E-03    -229.160E-03     59.9921E-03
            1620     1.43128E-03     65.0409E-03    -112.351E+06    -288.841E+06    -106.182E+06    -189.714E+03    -229.638E-03     458.848E-03    -229.210E-03     45.8765E-03    -229.907E-03     458.001E-03    -229.159E-03     40.6216E-03
            1621     715.464E-06     64.9934E-03    -114.293E+06    -304.121E+06    -112.681E+06    -250.210E+03    -229.509E-03     458.531E-03    -229.022E-03     24.8023E-03    -229.566E-03     457.430E-03    -228.978E-03     21.9661E-03
            1622     13.6036E-03     67.7295E-03    -4.84691E+06     76.9533E+06     81.9449E+06    -901.487E+03    -226.833E-03     456.015E-03    -229.182E-03     127.028E-03    -234.341E-03     463.541E-03    -228.876E-03     97.5828E-03
            1623     12.8850E-03     67.5068E-03    -8.14454E+06     76.1767E+06     83.5831E+06     1.11754E+06    -226.164E-03     455.351E-03    -229.186E-03     186.128E-03    -238.013E-03     467.198E-03    -228.867E-03     149.347E-03
            1624     12.1691E-03     67.2659E-03    -13.4173E+06     70.0230E+06     82.0558E+06     684.056E+03    -227.061E-03     456.284E-03    -229.223E-03     212.365E-03    -240.947E-03     470.133E-03    -228.895E-03     173.086E-03
            1625     11.4536E-03     66.9729E-03    -19.6676E+06     62.7049E+06     79.8186E+06     292.303E+03    -229.065E-03     458.335E-03    -229.270E-03     242.278E-03    -245.320E-03     474.511E-03    -228.933E-03     199.741E-03
            1626     10.7376E-03     66.6470E-03    -26.5521E+06     55.1208E+06     73.9266E+06     561.447E+03    -231.491E-03     460.779E-03    -229.288E-03     261.717E-03    -248.814E-03     477.989E-03    -228.960E-03     217.424E-03
            1627     10.0217E-03     66.2948E-03    -33.0116E+06     52.4175E+06     64.0428E+06     285.748E+03    -233.409E-03     462.673E-03    -229.264E-03     269.793E-03    -250.491E-03     479.639E-03    -228.972E-03     225.365E-03
            1628     9.30550E-03     65.9396E-03    -41.6563E+06     44.9043E+06     50.9602E+06    -483.955E+03    -234.434E-03     463.663E-03    -229.229E-03     265.261E-03    -249.980E-03     479.073E-03    -228.979E-03     222.592E-03
            1629     8.58949E-03     65.5967E-03    -51.6937E+06     31.9306E+06     38.4147E+06    -1.33101E+06    -234.755E-03     463.964E-03    -229.209E-03     252.489E-03    -248.103E-03     477.131E-03    -228.989E-03     212.895E-03
            1630     7.87355E-03     65.2743E-03    -60.5600E+06     5.54037E+06     26.7480E+06    -1.44446E+06    -234.696E-03     463.914E-03    -229.219E-03     235.561E-03    -245.706E-03     474.652E-03    -229.005E-03     199.720E-03
            1631     7.15789E-03     64.9742E-03    -67.2946E+06    -38.9663E+06     11.0125E+06    -716.708E+03    -234.477E-03     463.715E-03    -229.238E-03     216.820E-03    -243.269E-03     472.097E-03    -229.028E-03     184.987E-03
            1632     6.44194E-03     64.6989E-03    -73.3471E+06    -89.7569E+06    -6.00283E+06    -327.369E+03    -234.132E-03     463.390E-03    -229.258E-03     196.945E-03    -240.960E-03     469.656E-03    -229.052E-03     169.098E-03
            1633     5.72590E-03     64.4492E-03    -80.1847E+06    -129.294E+06    -22.2499E+06    -78.0237E+03    -233.590E-03     462.851E-03    -229.261E-03     176.283E-03    -238.762E-03     467.344E-03    -229.069E-03     152.302E-03
            1634     5.00999E-03     64.2263E-03    -87.3106E+06    -159.221E+06    -37.8796E+06     86.1943E+03    -232.863E-03     462.113E-03    -229.250E-03     155.158E-03    -236.674E-03     465.158E-03    -229.082E-03     134.849E-03
            1635     4.29425E-03     64.0315E-03    -93.9989E+06    -200.588E+06    -52.7837E+06     32.5591E+03    -232.148E-03     461.399E-03    -229.251E-03     133.664E-03    -234.839E-03     463.198E-03    -229.088E-03     116.774E-03
            1636     3.57864E-03     63.8650E-03    -100.844E+06    -231.684E+06    -68.1051E+06     28.0145E+03    -231.385E-03     460.612E-03    -229.227E-03     111.820E-03    -233.193E-03     461.437E-03    -229.086E-03     98.1443E-03
            1637     2.86283E-03     63.7278E-03    -108.006E+06    -244.922E+06    -85.2715E+06     654.930E+03    -230.604E-03     459.770E-03    -229.166E-03     89.7324E-03    -231.750E-03     459.910E-03    -229.080E-03     79.0706E-03
            1638     2.14728E-03     63.6205E-03    -113.290E+06    -261.253E+06    -102.453E+06     476.741E+03    -229.959E-03     459.070E-03    -229.111E-03     67.6436E-03    -230.603E-03     458.682E-03    -229.080E-03     59.7823E-03
            1639     1.43147E-03     63.5430E-03    -116.136E+06    -288.170E+06    -112.721E+06    -1.17721E+06    -229.524E-03     458.629E-03    -229.105E-03     45.7027E-03    -229.803E-03     457.800E-03    -229.083E-03     40.4370E-03
            1640     715.982E-06     63.4955E-03    -117.222E+06    -306.900E+06    -115.980E+06    -1.02426E+06    -229.461E-03     458.372E-03    -228.912E-03     24.7213E-03    -229.523E-03     457.266E-03    -228.877E-03     21.8745E-03
            1641     13.6002E-03     66.2252E-03    -5.50059E+06     76.3097E+06     81.7261E+06    -1.08311E+06    -226.425E-03     455.618E-03    -229.193E-03     126.542E-03    -233.963E-03     463.170E-03    -228.887E-03     97.0250E-03
            1642     12.8874E-03     66.0117E-03    -10.6917E+06     74.4823E+06     81.4988E+06    -1.39325E+06    -225.869E-03     455.077E-03    -229.207E-03     185.688E-03    -237.739E-03     466.937E-03    -228.892E-03     148.832E-03
            1643     12.1697E-03     65.7674E-03    -15.3271E+06     69.2139E+06     79.8680E+06    -373.615E+03    -226.986E-03     456.238E-03    -229.252E-03     212.125E-03    -240.837E-03     470.048E-03    -228.930E-03     172.902E-03
            1644     11.4524E-03     65.4747E-03    -21.5718E+06     62.0800E+06     78.6860E+06     489.569E+03    -229.312E-03     458.610E-03    -229.297E-03     241.819E-03    -245.564E-03     474.777E-03    -228.963E-03     199.200E-03
            1645     10.7367E-03     65.1457E-03    -27.3311E+06     55.7816E+06     76.1556E+06    -257.221E+03    -231.797E-03     461.103E-03    -229.305E-03     261.191E-03    -249.137E-03     478.322E-03    -228.966E-03     216.779E-03
            1646     10.0215E-03     64.7955E-03    -34.6987E+06     51.2593E+06     65.8098E+06    -136.517E+03    -233.549E-03     462.812E-03    -229.263E-03     269.705E-03    -250.633E-03     479.764E-03    -228.958E-03     225.281E-03
            1647     9.30594E-03     64.4408E-03    -41.9199E+06     45.0443E+06     52.7485E+06     1.60265E+06    -234.363E-03     463.585E-03    -229.222E-03     265.387E-03    -249.894E-03     478.975E-03    -228.963E-03     222.828E-03
            1648     8.58986E-03     64.0984E-03    -48.6882E+06     35.0903E+06     41.7391E+06     2.18518E+06    -234.645E-03     463.857E-03    -229.212E-03     252.512E-03    -247.971E-03     477.014E-03    -228.983E-03     213.030E-03
            1649     7.87388E-03     63.7753E-03    -56.1500E+06     7.80488E+06     29.6308E+06     644.406E+03    -234.704E-03     463.929E-03    -229.225E-03     235.507E-03    -245.693E-03     474.660E-03    -229.007E-03     199.709E-03
            1650     7.15765E-03     63.4760E-03    -64.3347E+06    -39.3334E+06     12.3894E+06    -734.363E+03    -234.596E-03     463.832E-03    -229.236E-03     216.695E-03    -243.372E-03     472.204E-03    -229.024E-03     184.848E-03
            1651     6.44167E-03     63.2001E-03    -72.7045E+06    -90.7141E+06    -5.96686E+06    -540.156E+03    -234.296E-03     463.532E-03    -229.236E-03     196.705E-03    -241.114E-03     469.787E-03    -229.029E-03     168.846E-03
            1652     5.72620E-03     62.9507E-03    -80.2837E+06    -129.657E+06    -22.2381E+06    -307.598E+03    -233.699E-03     462.914E-03    -229.215E-03     175.814E-03    -238.864E-03     467.399E-03    -229.022E-03     151.819E-03
            1653     5.01048E-03     62.7283E-03    -87.3956E+06    -159.285E+06    -37.2883E+06    -221.276E+03    -232.899E-03     462.080E-03    -229.181E-03     154.607E-03    -236.704E-03     465.117E-03    -229.010E-03     134.292E-03
            1654     4.29470E-03     62.5331E-03    -94.6636E+06    -201.277E+06    -51.9324E+06    -138.269E+03    -232.105E-03     461.271E-03    -229.166E-03     133.177E-03    -234.794E-03     463.061E-03    -228.997E-03     116.286E-03
            1655     3.57898E-03     62.3670E-03    -101.753E+06    -232.270E+06    -67.3080E+06     463.861E+03    -231.308E-03     460.436E-03    -229.128E-03     111.423E-03    -233.118E-03     461.255E-03    -228.980E-03     97.7510E-03
            1656     2.86336E-03     62.2300E-03    -107.463E+06    -244.853E+06    -84.1654E+06     764.632E+03    -230.499E-03     459.554E-03    -229.055E-03     89.4935E-03    -231.642E-03     459.690E-03    -228.965E-03     78.8413E-03
            1657     2.14742E-03     62.1228E-03    -111.431E+06    -259.192E+06    -99.9073E+06     317.856E+03    -229.839E-03     458.839E-03    -229.000E-03     67.5593E-03    -230.480E-03     458.454E-03    -228.962E-03     59.7001E-03
            1658     1.43164E-03     62.0455E-03    -114.614E+06    -287.198E+06    -110.382E+06     210.108E+03    -229.385E-03     458.388E-03    -229.003E-03     45.6543E-03    -229.661E-03     457.557E-03    -228.972E-03     40.4130E-03
            1659     715.558E-06     61.9980E-03    -117.522E+06    -309.154E+06    -116.699E+06    -306.870E+03    -229.333E-03     458.169E-03    -228.836E-03     24.7757E-03    -229.393E-03     457.054E-03    -228.801E-03     21.9224E-03
            1660     13.6031E-03     64.7287E-03    -3.39612E+06     78.5277E+06     84.4316E+06     336.851E+03    -225.909E-03     455.129E-03    -229.220E-03     126.183E-03    -233.446E-03     462.688E-03    -228.907E-03     96.7241E-03
            1661     12.8837E-03     64.5102E-03    -10.0829E+06     75.7986E+06     82.6831E+06    -654.609E+03    -225.931E-03     455.172E-03    -229.241E-03     185.212E-03    -237.817E-03     467.051E-03    -228.923E-03     148.266E-03
            1662     12.1687E-03     64.2707E-03    -16.9054E+06     66.7428E+06     78.8976E+06    -690.712E+03    -227.660E-03     456.918E-03    -229.259E-03     212.037E-03    -241.537E-03     470.744E-03    -228.936E-03     172.649E-03
            1663     11.4537E-03     63.9743E-03    -22.2082E+06     61.4012E+06     77.5162E+06    -401.574E+03    -229.610E-03     458.875E-03    -229.265E-03     241.466E-03    -245.880E-03     475.059E-03    -228.934E-03     198.700E-03
            1664     10.7382E-03     63.6477E-03    -29.3625E+06     56.9656E+06     71.7995E+06     261.978E+03    -231.457E-03     460.708E-03    -229.250E-03     260.618E-03    -248.773E-03     477.913E-03    -228.931E-03     216.250E-03
            1665     10.0217E-03     63.2960E-03    -37.4939E+06     51.1241E+06     59.2862E+06     129.116E+03    -233.162E-03     462.383E-03    -229.220E-03     269.473E-03    -250.223E-03     479.320E-03    -228.944E-03     225.124E-03
            1666     9.30553E-03     62.9420E-03    -44.4774E+06     42.5610E+06     48.8472E+06    -1.07653E+06    -234.304E-03     463.515E-03    -229.211E-03     265.400E-03    -249.836E-03     478.898E-03    -228.964E-03     222.813E-03
            1667     8.58953E-03     62.5994E-03    -50.8580E+06     33.5382E+06     41.0621E+06    -1.29663E+06    -234.761E-03     463.972E-03    -229.211E-03     252.457E-03    -248.087E-03     477.117E-03    -228.980E-03     212.930E-03
            1668     7.87342E-03     62.2766E-03    -57.3916E+06     8.70335E+06     29.6107E+06    -449.031E+03    -234.835E-03     464.042E-03    -229.207E-03     235.079E-03    -245.813E-03     474.762E-03    -228.989E-03     199.268E-03
            1669     7.15785E-03     61.9770E-03    -64.8700E+06    -38.5742E+06     12.7452E+06     48.5029E+03    -234.780E-03     463.974E-03    -229.194E-03     215.976E-03    -243.547E-03     472.337E-03    -228.980E-03     184.111E-03
            1670     6.44248E-03     61.7014E-03    -72.2967E+06    -91.0138E+06    -4.88952E+06    -195.352E+03    -234.401E-03     463.567E-03    -229.165E-03     195.923E-03    -241.209E-03     469.809E-03    -228.953E-03     168.041E-03
            1671     5.72667E-03     61.4522E-03    -79.3393E+06    -129.665E+06    -20.9550E+06    -278.135E+03    -233.698E-03     462.816E-03    -229.118E-03     175.230E-03    -238.852E-03     467.288E-03    -228.919E-03     151.234E-03
            1672     5.01116E-03     61.2298E-03    -86.6017E+06    -159.532E+06    -36.3084E+06    -182.366E+03    -232.872E-03     461.935E-03    -229.063E-03     154.265E-03    -236.672E-03     464.967E-03    -228.888E-03     133.942E-03
            1673     4.29545E-03     61.0357E-03    -93.6553E+06    -201.744E+06    -51.1442E+06     162.101E+03    -232.002E-03     461.037E-03    -229.034E-03     132.990E-03    -234.684E-03     462.818E-03    -228.862E-03     116.121E-03
            1674     3.57962E-03     60.8691E-03    -100.016E+06    -232.698E+06    -66.5950E+06     81.3605E+03    -231.108E-03     460.106E-03    -228.998E-03     111.353E-03    -232.906E-03     460.916E-03    -228.849E-03     97.7075E-03
            1675     2.86363E-03     60.7328E-03    -106.002E+06    -244.620E+06    -83.0642E+06    -85.2901E+03    -230.314E-03     459.259E-03    -228.945E-03     89.5806E-03    -231.452E-03     459.393E-03    -228.851E-03     78.9222E-03
            1676     2.14775E-03     60.6254E-03    -111.157E+06    -259.111E+06    -98.8481E+06     324.730E+03    -229.720E-03     458.625E-03    -228.905E-03     67.6417E-03    -230.362E-03     458.239E-03    -228.862E-03     59.7831E-03
            1677     1.43181E-03     60.5483E-03    -114.492E+06    -286.747E+06    -109.108E+06     646.229E+03    -229.296E-03     458.204E-03    -228.908E-03     45.6133E-03    -229.573E-03     457.374E-03    -228.872E-03     40.3840E-03
            1678     716.071E-06     60.5010E-03    -116.328E+06    -307.923E+06    -114.241E+06     783.892E+03    -229.226E-03     457.972E-03    -228.746E-03     24.8075E-03    -229.285E-03     456.857E-03    -228.702E-03     21.9698E-03
            1679     13.5994E-03     63.2267E-03    -4.32277E+06     78.3023E+06     84.4044E+06     776.027E+03    -226.065E-03     455.306E-03    -229.241E-03     125.792E-03    -233.567E-03     462.826E-03    -228.926E-03     96.4019E-03
            1680     12.8864E-03     63.0145E-03    -9.59282E+06     77.0312E+06     84.3530E+06     1.40805E+06    -226.302E-03     455.550E-03    -229.249E-03     184.304E-03    -238.163E-03     467.406E-03    -228.925E-03     147.345E-03
            1681     12.1697E-03     62.7691E-03    -15.1379E+06     68.3892E+06     81.0707E+06     441.202E+03    -227.831E-03     457.079E-03    -229.247E-03     212.033E-03    -241.742E-03     470.943E-03    -228.919E-03     172.517E-03
            1682     11.4542E-03     62.4754E-03    -21.1932E+06     60.9666E+06     78.6358E+06    -87.4043E+03    -229.536E-03     458.787E-03    -229.252E-03     242.182E-03    -245.804E-03     474.969E-03    -228.916E-03     199.473E-03
            1683     10.7379E-03     62.1485E-03    -26.9714E+06     54.6788E+06     74.9041E+06     876.333E+03    -231.530E-03     460.788E-03    -229.258E-03     261.506E-03    -248.828E-03     477.967E-03    -228.923E-03     217.253E-03
            1684     10.0220E-03     61.7983E-03    -32.1088E+06     52.4957E+06     65.7123E+06     2.09874E+06    -233.406E-03     462.638E-03    -229.232E-03     269.611E-03    -250.442E-03     479.555E-03    -228.933E-03     225.304E-03
            1685     9.30565E-03     61.4432E-03    -39.2186E+06     46.7893E+06     53.0084E+06     2.12279E+06    -234.492E-03     463.680E-03    -229.188E-03     264.677E-03    -249.982E-03     479.044E-03    -228.934E-03     222.115E-03
            1686     8.58991E-03     61.1003E-03    -48.0456E+06     36.0164E+06     42.0238E+06     506.015E+03    -234.894E-03     464.046E-03    -229.153E-03     251.376E-03    -248.185E-03     477.173E-03    -228.925E-03     211.832E-03
            1687     7.87448E-03     60.7780E-03    -56.9456E+06     8.21457E+06     29.9087E+06    -941.128E+03    -234.972E-03     464.096E-03    -229.123E-03     234.212E-03    -245.926E-03     474.789E-03    -228.903E-03     198.374E-03
            1688     7.15888E-03     60.4777E-03    -64.3774E+06    -39.4149E+06     13.1978E+06    -1.16504E+06    -234.809E-03     463.893E-03    -229.084E-03     215.362E-03    -243.557E-03     472.235E-03    -228.868E-03     183.483E-03
            1689     6.44324E-03     60.2030E-03    -71.2120E+06    -91.6620E+06    -4.23260E+06    -569.142E+03    -234.288E-03     463.330E-03    -229.042E-03     195.511E-03    -241.079E-03     469.555E-03    -228.827E-03     167.648E-03
            1690     5.72781E-03     59.9540E-03    -78.4165E+06    -130.313E+06    -20.5179E+06    -61.8656E+03    -233.523E-03     462.516E-03    -228.993E-03     175.128E-03    -238.664E-03     466.975E-03    -228.793E-03     151.174E-03
            1691     5.01178E-03     59.7322E-03    -85.3916E+06    -159.632E+06    -35.8322E+06     2.93183E+03    -232.682E-03     461.629E-03    -228.947E-03     154.335E-03    -236.474E-03     464.654E-03    -228.770E-03     134.047E-03
            1692     4.29593E-03     59.5377E-03    -92.1178E+06    -201.534E+06    -50.2089E+06     56.6138E+03    -231.836E-03     460.769E-03    -228.932E-03     133.124E-03    -234.511E-03     462.547E-03    -228.758E-03     116.277E-03
            1693     3.57995E-03     59.3725E-03    -99.1765E+06    -232.279E+06    -65.9103E+06     284.458E+03    -230.967E-03     459.877E-03    -228.909E-03     111.519E-03    -232.762E-03     460.686E-03    -228.758E-03     97.9012E-03
            1694     2.86380E-03     59.2356E-03    -105.684E+06    -244.944E+06    -82.9352E+06     213.532E+03    -230.211E-03     459.077E-03    -228.866E-03     89.6845E-03    -231.346E-03     459.208E-03    -228.772E-03     79.0459E-03
            1695     2.14779E-03     59.1284E-03    -110.375E+06    -259.486E+06    -98.4228E+06      162.78E+03    -229.613E-03     458.452E-03    -228.839E-03     67.6850E-03    -230.252E-03     458.063E-03    -228.795E-03     59.8268E-03
            1696     1.43183E-03     59.0512E-03    -113.210E+06    -286.330E+06    -108.485E+06     246.881E+03    -229.217E-03     458.075E-03    -228.858E-03     45.7276E-03    -229.490E-03     457.244E-03    -228.821E-03     40.5019E-03
            1697     715.814E-06     59.0040E-03    -115.345E+06    -307.015E+06    -113.753E+06     148.737E+03    -229.142E-03     457.894E-03    -228.751E-03     25.0262E-03    -229.198E-03     456.781E-03    -228.708E-03     22.1921E-03
            1698     13.6026E-03     61.7287E-03    -4.16799E+06     76.1535E+06     84.2508E+06     612.908E+03    -226.213E-03     455.475E-03    -229.262E-03     125.881E-03    -233.696E-03     462.969E-03    -228.945E-03     96.5506E-03
            1699     12.8846E-03     61.5126E-03    -8.38824E+06     77.0342E+06     84.6883E+06     600.672E+03    -226.575E-03     455.838E-03    -229.262E-03     185.732E-03    -238.497E-03     467.757E-03    -228.938E-03     148.639E-03
            1700     12.1699E-03     61.2709E-03    -13.4996E+06     69.2664E+06     81.2189E+06     798.168E+03    -227.930E-03     457.182E-03    -229.252E-03     212.831E-03    -241.885E-03     471.100E-03    -228.927E-03     173.214E-03
            1701     11.4530E-03     60.9763E-03    -19.2997E+06     61.6583E+06     78.8561E+06     1.57937E+06    -229.512E-03     458.769E-03    -229.257E-03     241.767E-03    -245.726E-03     474.905E-03    -228.924E-03     199.164E-03
            1702     10.7371E-03     60.6491E-03    -26.2051E+06     55.2772E+06     74.0280E+06     883.088E+03    -231.761E-03     461.009E-03    -229.248E-03     260.517E-03    -249.012E-03     478.148E-03    -228.920E-03     216.233E-03
            1703     10.0216E-03     60.2980E-03    -34.0124E+06     50.6534E+06     64.1932E+06     19.8191E+03    -233.770E-03     462.963E-03    -229.193E-03     268.686E-03    -250.792E-03     479.858E-03    -228.896E-03     224.263E-03
            1704     9.30687E-03     59.9441E-03    -40.2837E+06     46.0625E+06     54.8628E+06     604.203E+03    -234.800E-03     463.925E-03    -229.125E-03     264.185E-03    -250.294E-03     479.281E-03    -228.859E-03     221.544E-03
            1705     8.59135E-03     59.6018E-03    -46.0532E+06     38.1861E+06     45.5459E+06     1.57720E+06    -235.065E-03     464.123E-03    -229.058E-03     251.168E-03    -248.350E-03     477.247E-03    -228.818E-03     211.630E-03
            1706     7.87555E-03     59.2790E-03    -52.8615E+06     11.1973E+06     32.9563E+06     1.38010E+06    -235.016E-03     464.019E-03    -229.002E-03     234.157E-03    -245.947E-03     474.706E-03    -228.777E-03     198.378E-03
            1707     7.15999E-03     58.9794E-03    -61.4606E+06    -38.8754E+06     14.7256E+06     603.728E+03    -234.647E-03     463.605E-03    -228.957E-03     215.297E-03    -243.369E-03     471.927E-03    -228.738E-03     183.508E-03
            1708     6.44425E-03     58.7049E-03    -70.2046E+06    -91.8187E+06    -3.91070E+06     256.979E+03    -234.023E-03     462.948E-03    -228.925E-03     195.530E-03    -240.797E-03     469.158E-03    -228.709E-03     167.754E-03
            1709     5.72804E-03     58.4565E-03    -77.8252E+06    -130.173E+06    -20.3685E+06     103.838E+03    -233.296E-03     462.191E-03    -228.895E-03     175.248E-03    -238.428E-03     466.643E-03    -228.695E-03     151.354E-03
            1710     5.01219E-03     58.2347E-03    -84.9128E+06    -159.620E+06    -35.7734E+06     91.1695E+03    -232.464E-03     461.334E-03    -228.870E-03     154.469E-03    -236.250E-03     464.355E-03    -228.694E-03     134.224E-03
            1711     4.29601E-03     58.0408E-03    -92.2419E+06    -201.886E+06    -50.6462E+06     172.548E+03    -231.670E-03     460.546E-03    -228.876E-03     133.167E-03    -234.344E-03     462.323E-03    -228.703E-03     116.339E-03
            1712     3.57992E-03     57.8753E-03    -99.0224E+06    -232.384E+06    -65.5335E+06     502.668E+03    -230.942E-03     459.806E-03    -228.864E-03     111.535E-03    -232.736E-03     460.613E-03    -228.711E-03     97.9237E-03
            1713     2.86409E-03     57.7387E-03    -105.144E+06    -244.274E+06    -82.4212E+06     635.402E+03    -230.204E-03     459.016E-03    -228.812E-03     89.6758E-03    -231.337E-03     459.147E-03    -228.717E-03     79.0576E-03
            1714     2.14799E-03     57.6317E-03    -110.224E+06    -259.190E+06    -98.8807E+06     85.6146E+03    -229.553E-03     458.328E-03    -228.776E-03     67.6255E-03    -230.189E-03     457.940E-03    -228.735E-03     59.7846E-03
            1715     1.43186E-03     57.5545E-03    -113.444E+06    -286.261E+06    -108.663E+06    -70.4928E+03    -229.152E-03     457.950E-03    -228.798E-03     45.6307E-03    -229.425E-03     457.119E-03    -228.762E-03     40.4092E-03
            1716     715.932E-06     57.5070E-03    -115.229E+06    -306.788E+06    -113.505E+06     189.504E+03    -229.004E-03     457.775E-03    -228.772E-03     24.8254E-03    -229.060E-03     456.663E-03    -228.727E-03     22.0012E-03
            1717     13.5990E-03     60.2302E-03    -4.34462E+06     74.3741E+06     82.5863E+06    -59.2677E+03    -225.993E-03     455.281E-03    -229.288E-03     126.849E-03    -233.526E-03     462.823E-03    -228.977E-03     97.4121E-03
            1718     12.8846E-03     60.0125E-03    -9.36894E+06     75.1422E+06     82.4607E+06    -732.319E+03    -226.763E-03     456.050E-03    -229.287E-03     185.551E-03    -238.726E-03     468.008E-03    -228.970E-03     148.222E-03
            1719     12.1685E-03     59.7697E-03    -13.6223E+06     69.3803E+06     80.9798E+06     48.3892E+03    -228.189E-03     457.454E-03    -229.265E-03     211.489E-03    -242.097E-03     471.325E-03    -228.941E-03     171.855E-03
            1720     11.4542E-03     59.4777E-03    -19.4857E+06     62.5569E+06     79.7138E+06     1.67369E+06    -230.114E-03     459.354E-03    -229.240E-03     241.032E-03    -246.313E-03     475.475E-03    -228.904E-03     198.378E-03
            1721     10.7389E-03     59.1496E-03    -26.2814E+06     56.9067E+06     74.4564E+06     1.62610E+06    -232.115E-03     461.302E-03    -229.187E-03     259.945E-03    -249.364E-03     478.444E-03    -228.859E-03     215.586E-03
            1722     10.0235E-03     58.7994E-03    -32.5427E+06     52.5670E+06     63.9986E+06     1.32247E+06    -233.748E-03     462.854E-03    -229.106E-03     268.383E-03    -250.757E-03     479.749E-03    -228.815E-03     223.963E-03
            1723     9.30727E-03     58.4443E-03    -40.4048E+06     46.1479E+06     52.5691E+06    -97.8238E+03    -234.769E-03     463.795E-03    -229.027E-03     264.219E-03    -250.259E-03     479.153E-03    -228.772E-03     221.564E-03
            1724     8.59186E-03     58.1028E-03    -48.1040E+06     36.2024E+06     43.0929E+06    -1.06583E+06    -235.128E-03     464.084E-03    -228.957E-03     251.337E-03    -248.415E-03     477.204E-03    -228.724E-03     211.765E-03
            1725     7.87645E-03     57.7801E-03    -56.0112E+06     9.87128E+06     31.3468E+06     45.4723E+03    -234.923E-03     463.824E-03    -228.901E-03     234.283E-03    -245.861E-03     474.507E-03    -228.677E-03     198.523E-03
            1726     7.16062E-03     57.4813E-03    -63.6205E+06    -38.0334E+06     13.9124E+06     970.497E+03    -234.404E-03     463.268E-03    -228.864E-03     215.384E-03    -243.125E-03     471.588E-03    -228.647E-03     183.675E-03
            1727     6.44449E-03     57.2074E-03    -70.5304E+06    -90.6625E+06    -3.73028E+06     618.272E+03    -233.838E-03     462.688E-03    -228.850E-03     195.690E-03    -240.608E-03     468.896E-03    -228.635E-03     167.976E-03
            1728     5.72866E-03     56.9592E-03    -77.8265E+06    -129.867E+06    -20.2454E+06     401.111E+03    -233.162E-03     461.996E-03    -228.833E-03     175.289E-03    -238.291E-03     466.446E-03    -228.634E-03     151.427E-03
            1729     5.01232E-03     56.7378E-03    -85.4443E+06    -159.777E+06    -36.2024E+06     549.178E+03    -232.367E-03     461.182E-03    -228.815E-03     154.341E-03    -236.149E-03     464.198E-03    -228.640E-03     134.133E-03
            1730     4.29621E-03     56.5439E-03    -92.5249E+06    -201.523E+06    -50.9252E+06     591.201E+03    -231.628E-03     460.449E-03    -228.822E-03     132.971E-03    -234.297E-03     462.222E-03    -228.650E-03     116.174E-03
            1731     3.58023E-03     56.3784E-03    -99.5801E+06    -232.517E+06    -66.5671E+06     261.903E+03    -230.887E-03     459.690E-03    -228.803E-03     111.326E-03    -232.678E-03     460.496E-03    -228.655E-03     97.7248E-03
            1732     2.86403E-03     56.2419E-03    -105.650E+06    -244.122E+06    -82.9014E+06     185.032E+03    -230.129E-03     458.882E-03    -228.753E-03     89.5097E-03    -231.262E-03     459.014E-03    -228.660E-03     78.8951E-03
            1733     2.14807E-03     56.1350E-03    -109.908E+06    -258.079E+06    -98.1948E+06     386.454E+03    -229.526E-03     458.240E-03    -228.714E-03     67.5949E-03    -230.162E-03     457.855E-03    -228.672E-03     59.7657E-03
            1734     1.43212E-03     56.0579E-03    -113.206E+06    -286.036E+06    -108.810E+06     100.462E+03    -229.144E-03     457.852E-03    -228.708E-03     45.6992E-03    -229.416E-03     457.023E-03    -228.674E-03     40.4807E-03
            1735     716.115E-06     56.0103E-03    -115.267E+06    -306.970E+06    -113.821E+06    -227.477E+03    -228.958E-03     457.559E-03    -228.601E-03     24.7751E-03    -229.014E-03     456.446E-03    -228.558E-03     21.9398E-03
            1736     13.6003E-03     58.7291E-03    -4.82611E+06     74.5443E+06     81.3663E+06    -112.670E+03    -225.970E-03     455.240E-03    -229.270E-03     126.384E-03    -233.484E-03     462.766E-03    -228.965E-03     96.9708E-03
            1737     12.8849E-03     58.5110E-03    -8.89782E+06     75.2776E+06     82.8508E+06    -699.227E+03    -226.828E-03     456.099E-03    -229.271E-03     184.806E-03    -238.776E-03     468.043E-03    -228.953E-03     147.421E-03
            1738     12.1701E-03     58.2714E-03    -15.8546E+06     67.4656E+06     79.5308E+06     58.5729E+03    -228.402E-03     457.634E-03    -229.233E-03     210.796E-03    -242.283E-03     471.468E-03    -228.910E-03     171.170E-03
            1739     11.4537E-03     57.9756E-03    -22.5677E+06     62.0702E+06     78.7075E+06    -370.595E+03    -230.174E-03     459.369E-03    -229.195E-03     240.893E-03    -246.387E-03     475.495E-03    -228.859E-03     198.161E-03
            1740     10.7390E-03     57.6497E-03    -26.9992E+06     56.3048E+06     77.3148E+06    -1.57138E+06    -232.155E-03     461.308E-03    -229.153E-03     260.420E-03    -249.428E-03     478.461E-03    -228.809E-03     216.019E-03
            1741     10.0235E-03     57.2997E-03    -32.6650E+06     49.6619E+06     67.9833E+06    -1.00614E+06    -233.995E-03     463.066E-03    -229.072E-03     268.970E-03    -251.013E-03     479.948E-03    -228.757E-03     224.539E-03
            1742     9.30837E-03     56.9459E-03    -38.5023E+06     46.9983E+06     56.4799E+06     1.25281E+06    -234.918E-03     463.888E-03    -228.970E-03     264.206E-03    -250.382E-03     479.218E-03    -228.700E-03     221.619E-03
            1743     8.59265E-03     56.6034E-03    -46.1700E+06     37.9901E+06     44.2855E+06     2.01370E+06    -234.975E-03     463.856E-03    -228.881E-03     251.076E-03    -248.230E-03     476.953E-03    -228.648E-03     211.617E-03
            1744     7.87693E-03     56.2818E-03    -54.9585E+06     10.0269E+06     31.2007E+06     1.03078E+06    -234.639E-03     463.474E-03    -228.836E-03     234.175E-03    -245.559E-03     474.145E-03    -228.614E-03     198.496E-03
            1745     7.16087E-03     55.9838E-03    -63.0686E+06    -37.7880E+06     13.8669E+06     397.648E+03    -234.256E-03     463.072E-03    -228.816E-03     215.453E-03    -242.967E-03     471.385E-03    -228.601E-03     183.783E-03
            1746     6.44485E-03     55.7100E-03    -70.8300E+06    -90.3255E+06    -4.27970E+06     546.955E+03    -233.816E-03     462.622E-03    -228.806E-03     195.664E-03    -240.582E-03     468.828E-03    -228.594E-03     167.965E-03
            1747     5.72857E-03     55.4620E-03    -78.3523E+06    -129.992E+06    -20.7113E+06     720.268E+03    -233.175E-03     461.960E-03    -228.785E-03     175.127E-03    -238.301E-03     466.406E-03    -228.586E-03     151.278E-03
            1748     5.01268E-03     55.2409E-03    -85.4912E+06    -159.298E+06    -36.0119E+06     904.619E+03    -232.397E-03     461.153E-03    -228.756E-03     154.111E-03    -236.171E-03     464.163E-03    -228.581E-03     133.930E-03
            1749     4.29660E-03     55.0470E-03    -92.6439E+06    -201.233E+06    -51.0654E+06     671.885E+03    -231.611E-03     460.359E-03    -228.749E-03     132.811E-03    -234.273E-03     462.127E-03    -228.578E-03     116.041E-03
            1750     3.58050E-03     54.8818E-03    -99.1445E+06    -231.884E+06    -66.5177E+06     273.785E+03    -230.809E-03     459.534E-03    -228.725E-03     111.221E-03    -232.598E-03     460.340E-03    -228.577E-03     97.6306E-03
            1751     2.86449E-03     54.7454E-03    -105.057E+06    -243.685E+06    -82.8569E+06     153.141E+03    -230.039E-03     458.714E-03    -228.675E-03     89.4022E-03    -231.168E-03     458.845E-03    -228.584E-03     78.7981E-03
            1752     2.14821E-03     54.6385E-03    -110.162E+06    -258.009E+06    -98.2861E+06     193.824E+03    -229.444E-03     458.084E-03    -228.639E-03     67.5288E-03    -230.081E-03     457.698E-03    -228.597E-03     59.7057E-03
            1753     1.43206E-03     54.5612E-03    -113.229E+06    -285.276E+06    -108.210E+06     163.005E+03    -229.064E-03     457.701E-03    -228.637E-03     45.6362E-03    -229.338E-03     456.874E-03    -228.600E-03     40.4212E-03
            1754     716.062E-06     54.5140E-03    -115.655E+06    -306.974E+06    -113.753E+06     38.7157E+03    -228.925E-03     457.410E-03    -228.484E-03     24.6908E-03    -228.983E-03     456.298E-03    -228.440E-03     21.8509E-03
            1755     13.6019E-03     57.2326E-03    -4.15000E+06     75.5727E+06     83.3582E+06     389.132E+03    -226.619E-03     455.848E-03    -229.229E-03     127.004E-03    -234.094E-03     463.335E-03    -228.915E-03     97.6784E-03
            1756     12.8850E-03     57.0104E-03    -10.1869E+06     73.8116E+06     82.1632E+06     1.46937E+06    -226.632E-03     455.844E-03    -229.213E-03     184.731E-03    -238.508E-03     467.708E-03    -228.894E-03     147.602E-03
            1757     12.1698E-03     56.7697E-03    -15.5571E+06     68.8251E+06     80.6598E+06     881.392E+03    -228.233E-03     457.420E-03    -229.186E-03     210.625E-03    -242.114E-03     471.256E-03    -228.860E-03     171.009E-03
            1758     11.4558E-03     56.4770E-03    -19.4466E+06     64.1682E+06     80.3345E+06    -1.43240E+06    -230.052E-03     459.204E-03    -229.151E-03     240.935E-03    -246.271E-03     475.348E-03    -228.814E-03     198.139E-03
            1759     10.7391E-03     56.1505E-03    -27.2235E+06     56.7249E+06     73.2446E+06    -1.71326E+06    -232.131E-03     461.216E-03    -229.086E-03     259.829E-03    -249.378E-03     478.356E-03    -228.762E-03     215.394E-03
            1760     10.0238E-03     55.7993E-03    -36.4923E+06     48.8612E+06     60.8225E+06    -2.49939E+06    -234.002E-03     462.987E-03    -228.985E-03     268.072E-03    -250.982E-03     479.834E-03    -228.699E-03     223.624E-03
            1761     9.30865E-03     55.4459E-03    -44.1368E+06     41.5510E+06     50.2290E+06    -3.17649E+06    -234.795E-03     463.685E-03    -228.889E-03     263.784E-03    -250.238E-03     478.972E-03    -228.634E-03     221.194E-03
            1762     8.59338E-03     55.1050E-03    -50.1450E+06     34.0476E+06     42.2099E+06    -1.30420E+06    -234.710E-03     463.535E-03    -228.825E-03     251.026E-03    -247.956E-03     476.602E-03    -228.591E-03     211.612E-03
            1763     7.87707E-03     54.7842E-03    -56.1157E+06     10.1263E+06     31.0094E+06     618.120E+03    -234.433E-03     463.229E-03    -228.795E-03     234.047E-03    -245.340E-03     473.882E-03    -228.574E-03     198.434E-03
            1764     7.16091E-03     54.4860E-03    -63.7161E+06    -36.8278E+06     13.6229E+06     887.065E+03    -234.212E-03     462.992E-03    -228.780E-03     215.200E-03    -242.912E-03     471.296E-03    -228.566E-03     183.564E-03
            1765     6.44492E-03     54.2126E-03    -71.8947E+06    -90.2697E+06    -5.13846E+06     564.530E+03    -233.832E-03     462.595E-03    -228.763E-03     195.381E-03    -240.590E-03     468.792E-03    -228.554E-03     167.701E-03
            1766     5.72916E-03     53.9649E-03    -79.3374E+06    -129.860E+06    -21.4694E+06     457.056E+03    -233.213E-03     461.945E-03    -228.731E-03     174.887E-03    -238.332E-03     466.383E-03    -228.535E-03     151.060E-03
            1767     5.01302E-03     53.7438E-03    -86.3283E+06    -159.302E+06    -36.7051E+06     375.375E+03    -232.412E-03     461.101E-03    -228.689E-03     153.942E-03    -236.183E-03     464.107E-03    -228.516E-03     133.768E-03
            1768     4.29692E-03     53.5505E-03    -92.9497E+06    -200.538E+06    -51.3609E+06     259.414E+03    -231.576E-03     460.247E-03    -228.671E-03     132.671E-03    -234.238E-03     462.015E-03    -228.502E-03     115.910E-03
            1769     3.58078E-03     53.3852E-03    -99.6867E+06    -231.411E+06    -66.6322E+06     129.214E+03    -230.751E-03     459.391E-03    -228.640E-03     111.075E-03    -232.538E-03     460.196E-03    -228.493E-03     97.5078E-03
            1770     2.86451E-03     53.2491E-03    -105.929E+06    -243.534E+06    -83.3820E+06     234.221E+03    -229.995E-03     458.573E-03    -228.578E-03     89.2606E-03    -231.125E-03     458.705E-03    -228.488E-03     78.6709E-03
            1771     2.14848E-03     53.1423E-03    -110.472E+06    -257.641E+06    -99.2125E+06     101.427E+03    -229.378E-03     457.901E-03    -228.523E-03     67.3831E-03    -230.013E-03     457.517E-03    -228.485E-03     59.5756E-03
            1772     1.43235E-03     53.0650E-03    -113.448E+06    -285.237E+06    -108.791E+06    -30.0298E+03    -228.920E-03     457.441E-03    -228.521E-03     45.4432E-03    -229.192E-03     456.613E-03    -228.487E-03     40.2493E-03
            1773     716.179E-06     53.0178E-03    -115.424E+06    -306.752E+06    -113.687E+06     26.6495E+03    -228.802E-03     457.195E-03    -228.393E-03     24.5571E-03    -228.858E-03     456.083E-03    -228.349E-03     21.7242E-03
            1774     13.6014E-03     55.7311E-03    -4.78444E+06     74.4916E+06     83.5230E+06     283.609E+03    -227.272E-03     456.471E-03    -229.199E-03     126.198E-03    -234.730E-03     463.934E-03    -228.882E-03     96.7927E-03
            1775     12.8874E-03     55.5122E-03    -8.02913E+06     74.9570E+06     84.1184E+06     1.78685E+06    -226.747E-03     455.912E-03    -229.164E-03     185.078E-03    -238.565E-03     467.723E-03    -228.841E-03     148.132E-03
            1776     12.1712E-03     55.2702E-03    -12.8422E+06     71.4976E+06     82.6550E+06     439.312E+03    -228.022E-03     457.163E-03    -229.141E-03     211.048E-03    -241.886E-03     470.996E-03    -228.813E-03     171.487E-03
            1777     11.4542E-03     54.9766E-03    -20.0249E+06     63.6334E+06     80.0129E+06    -467.301E+03    -230.306E-03     459.406E-03    -229.100E-03     240.619E-03    -246.512E-03     475.534E-03    -228.763E-03     197.785E-03
            1778     10.7406E-03     54.6499E-03    -26.9184E+06     56.6929E+06     75.3078E+06     607.546E+03    -232.366E-03     461.388E-03    -229.022E-03     259.306E-03    -249.577E-03     478.486E-03    -228.688E-03     214.924E-03
            1779     10.0256E-03     54.3010E-03    -33.5133E+06     52.5791E+06     64.3660E+06     1.13308E+06    -233.731E-03     462.647E-03    -228.915E-03     267.889E-03    -250.667E-03     479.464E-03    -228.621E-03     223.603E-03
            1780     9.30960E-03     53.9472E-03    -41.7244E+06     44.3578E+06     50.6889E+06    -169.834E+03    -234.348E-03     463.179E-03    -228.831E-03     263.824E-03    -249.762E-03     478.456E-03    -228.581E-03     221.372E-03
            1781     8.59320E-03     53.6071E-03    -51.0511E+06     32.2104E+06     39.6117E+06    -2.41744E+06    -234.558E-03     463.343E-03    -228.785E-03     251.003E-03    -247.798E-03     476.401E-03    -228.559E-03     211.595E-03
            1782     7.87741E-03     53.2863E-03    -59.5659E+06     6.09287E+06     27.8819E+06    -2.44592E+06    -234.537E-03     463.294E-03    -228.757E-03     233.876E-03    -245.437E-03     473.923E-03    -228.540E-03     198.230E-03
            1783     7.16149E-03     52.9887E-03    -66.5353E+06    -38.4494E+06     11.7556E+06    -954.895E+03    -234.258E-03     462.988E-03    -228.730E-03     214.893E-03    -242.948E-03     471.271E-03    -228.519E-03     183.265E-03
            1784     6.44541E-03     52.7152E-03    -73.0342E+06    -90.5105E+06    -5.79215E+06    -305.168E+03    -233.821E-03     462.525E-03    -228.704E-03     195.056E-03    -240.566E-03     468.706E-03    -228.496E-03     167.402E-03
            1785     5.72924E-03     52.4677E-03    -79.8776E+06    -129.950E+06    -22.1589E+06    -212.305E+03    -233.179E-03     461.841E-03    -228.662E-03     174.553E-03    -238.287E-03     466.269E-03    -228.469E-03     150.748E-03
            1786     5.01330E-03     52.2471E-03    -86.6016E+06    -158.994E+06    -37.0716E+06    -331.068E+03    -232.386E-03     460.998E-03    -228.611E-03     153.630E-03    -236.150E-03     463.997E-03    -228.440E-03     133.471E-03
            1787     4.29724E-03     52.0539E-03    -93.4624E+06    -200.655E+06    -51.1642E+06    -229.492E+03    -231.588E-03     460.167E-03    -228.580E-03     132.298E-03    -234.246E-03     461.930E-03    -228.409E-03     115.541E-03
            1788     3.58114E-03     51.8891E-03    -100.284E+06    -231.530E+06    -66.8183E+06     53.8041E+03    -230.744E-03     459.266E-03    -228.522E-03     110.655E-03    -232.528E-03     460.065E-03    -228.375E-03     97.1018E-03
            1789     2.86507E-03     51.7530E-03    -106.256E+06    -243.814E+06    -83.6881E+06    -301.356E+03    -229.920E-03     458.354E-03    -228.434E-03     88.9043E-03    -231.047E-03     458.481E-03    -228.344E-03     78.3241E-03
            1790     2.14880E-03     51.6463E-03    -110.740E+06    -257.661E+06    -99.2157E+06    -260.438E+03    -229.215E-03     457.582E-03    -228.368E-03     67.1339E-03    -229.849E-03     457.197E-03    -228.329E-03     59.3335E-03
            1791     1.43255E-03     51.5693E-03    -113.325E+06    -285.250E+06    -109.122E+06    -33.2418E+03    -228.724E-03     457.099E-03    -228.375E-03     45.3973E-03    -228.994E-03     456.271E-03    -228.343E-03     40.2155E-03
            1792     716.200E-06     51.5224E-03    -115.396E+06    -307.018E+06    -113.904E+06    -99.2194E+03    -228.699E-03     456.934E-03    -228.235E-03     24.6613E-03    -228.754E-03     455.821E-03    -228.192E-03     21.8381E-03
            1793     13.6028E-03     54.2306E-03    -3.71794E+06     74.7569E+06     83.5922E+06    -15.1844E+03    -226.996E-03     456.175E-03    -229.179E-03     126.017E-03    -234.445E-03     463.633E-03    -228.864E-03     96.6248E-03
            1794     12.8860E-03     54.0121E-03    -9.35199E+06     73.9809E+06     83.1264E+06    -981.317E+03    -227.078E-03     456.219E-03    -229.142E-03     185.418E-03    -238.925E-03     468.055E-03    -228.820E-03     148.334E-03
            1795     12.1706E-03     53.7710E-03    -14.4249E+06     70.4750E+06     82.0771E+06     43.9940E+03    -228.645E-03     457.736E-03    -229.090E-03     211.064E-03    -242.517E-03     471.569E-03    -228.761E-03     171.385E-03
            1796     11.4572E-03     53.4758E-03    -20.7602E+06     64.2766E+06     79.9935E+06     1.35602E+06    -230.311E-03     459.335E-03    -229.024E-03     239.908E-03    -246.451E-03     475.398E-03    -228.688E-03     197.196E-03
            1797     10.7410E-03     53.1502E-03    -28.0575E+06     56.5438E+06     74.3168E+06     288.017E+03    -231.895E-03     460.850E-03    -228.955E-03     259.314E-03    -249.067E-03     477.908E-03    -228.625E-03     215.080E-03
            1798     10.0252E-03     52.8014E-03    -34.2564E+06     51.7214E+06     65.2071E+06     19.3134E+03    -233.473E-03     462.357E-03    -228.884E-03     268.188E-03    -250.399E-03     479.156E-03    -228.583E-03     223.978E-03
            1799     9.30930E-03     52.4495E-03    -40.4788E+06     45.6981E+06     54.5954E+06     919.444E+03    -234.358E-03     463.176E-03    -228.819E-03     263.759E-03    -249.751E-03     478.430E-03    -228.553E-03     221.370E-03
            1800     8.59353E-03     52.1088E-03    -46.9877E+06     36.2604E+06     43.3365E+06     1.50779E+06    -234.642E-03     463.400E-03    -228.757E-03     250.531E-03    -247.833E-03     476.427E-03    -228.525E-03     211.229E-03
            1801     7.87762E-03     51.7882E-03    -55.2228E+06     7.86673E+06     29.4664E+06     275.478E+03    -234.605E-03     463.315E-03    -228.709E-03     233.346E-03    -245.460E-03     473.916E-03    -228.493E-03     197.771E-03
            1802     7.16173E-03     51.4910E-03    -64.0045E+06    -39.7161E+06     12.4198E+06    -904.642E+03    -234.365E-03     463.034E-03    -228.668E-03     214.501E-03    -243.027E-03     471.291E-03    -228.456E-03     182.888E-03
            1803     6.44586E-03     51.2179E-03    -71.7807E+06    -91.4048E+06    -4.98223E+06    -680.214E+03    -233.880E-03     462.504E-03    -228.624E-03     194.611E-03    -240.606E-03     468.665E-03    -228.412E-03     166.969E-03
            1804     5.73003E-03     50.9709E-03    -78.9433E+06    -130.157E+06    -21.1428E+06    -469.179E+03    -233.151E-03     461.717E-03    -228.565E-03     174.011E-03    -238.244E-03     466.128E-03    -228.368E-03     150.222E-03
            1805     5.01387E-03     50.7504E-03    -85.9601E+06    -158.935E+06    -36.2658E+06    -426.850E+03    -232.356E-03     460.852E-03    -228.496E-03     153.093E-03    -236.107E-03     463.838E-03    -228.322E-03     132.955E-03
            1806     4.29783E-03     50.5575E-03    -92.9441E+06    -201.381E+06    -50.9898E+06    -457.605E+03    -231.567E-03     460.007E-03    -228.439E-03     131.772E-03    -234.213E-03     461.755E-03    -228.268E-03     115.032E-03
            1807     3.58187E-03     50.3930E-03    -99.4680E+06    -231.765E+06    -66.0554E+06    -450.808E+03    -230.683E-03     459.039E-03    -228.356E-03     110.237E-03    -232.459E-03     459.831E-03    -228.206E-03     96.6832E-03
            1808     2.86562E-03     50.2574E-03    -105.463E+06    -243.414E+06    -82.7319E+06    -179.355E+03    -229.768E-03     458.017E-03    -228.249E-03     88.6537E-03    -230.891E-03     458.141E-03    -228.157E-03     78.0892E-03
            1809     2.14931E-03     50.1510E-03    -110.424E+06    -258.128E+06    -99.0608E+06    -196.705E+03    -229.011E-03     457.186E-03    -228.175E-03     66.9067E-03    -229.641E-03     456.796E-03    -228.136E-03     59.1230E-03
            1810     1.43270E-03     50.0744E-03    -113.651E+06    -285.746E+06    -109.022E+06    -127.835E+03    -228.547E-03     456.723E-03    -228.177E-03     45.2132E-03    -228.817E-03     455.892E-03    -228.143E-03     40.0436E-03
            1811     716.343E-06     50.0266E-03    -115.257E+06    -307.079E+06    -114.019E+06     122.189E+03    -228.473E-03     456.519E-03    -228.046E-03     24.5833E-03    -228.527E-03     455.406E-03    -228.004E-03     21.7637E-03
            1812     13.6012E-03     52.7290E-03    -5.55087E+06     74.3661E+06     82.2719E+06     352.676E+03    -227.171E-03     456.319E-03    -229.148E-03     124.904E-03    -234.604E-03     463.758E-03    -228.837E-03     95.5206E-03
            1813     12.8869E-03     52.5135E-03    -9.73705E+06     74.9715E+06     82.9802E+06    -309.220E+03    -227.486E-03     456.574E-03    -229.088E-03     184.214E-03    -239.325E-03     468.404E-03    -228.768E-03     146.996E-03
            1814     12.1729E-03     52.2676E-03    -14.3157E+06     69.9738E+06     81.7785E+06    -680.557E+03    -228.620E-03     457.638E-03    -229.019E-03     210.324E-03    -242.430E-03     471.409E-03    -228.690E-03     170.726E-03
            1815     11.4570E-03     51.9771E-03    -20.1688E+06     64.1183E+06     80.0407E+06     8.14147E+03    -229.768E-03     458.738E-03    -228.970E-03     240.299E-03    -245.866E-03     474.760E-03    -228.634E-03     197.779E-03
            1816     10.7414E-03     51.6517E-03    -26.0906E+06     56.8222E+06     75.0783E+06     722.597E+03    -231.681E-03     460.613E-03    -228.932E-03     259.844E-03    -248.819E-03     477.643E-03    -228.601E-03     215.731E-03
            1817     10.0255E-03     51.3032E-03    -33.2803E+06     52.0561E+06     64.3536E+06     680.174E+03    -233.563E-03     462.424E-03    -228.861E-03     267.798E-03    -250.446E-03     479.187E-03    -228.566E-03     223.619E-03
            1818     9.30982E-03     50.9507E-03    -41.0808E+06     45.4406E+06     52.3637E+06     3.87862E+03    -234.556E-03     463.332E-03    -228.775E-03     263.152E-03    -249.913E-03     478.552E-03    -228.520E-03     220.758E-03
            1819     8.59424E-03     50.6107E-03    -48.9820E+06     35.1468E+06     42.0216E+06    -39.0847E+03    -234.809E-03     463.508E-03    -228.699E-03     250.108E-03    -247.971E-03     476.499E-03    -228.469E-03     210.824E-03
            1820     7.87830E-03     50.2906E-03    -55.9781E+06     9.56846E+06     30.9170E+06     466.681E+03    -234.697E-03     463.335E-03    -228.637E-03     232.770E-03    -245.536E-03     473.918E-03    -228.415E-03     197.219E-03
            1821     7.16244E-03     49.9932E-03    -63.0349E+06    -38.1322E+06     13.9689E+06     175.384E+03    -234.401E-03     462.973E-03    -228.571E-03     213.714E-03    -243.042E-03     471.213E-03    -228.355E-03     182.124E-03
            1822     6.44669E-03     49.7208E-03    -70.7598E+06    -91.6330E+06    -4.04548E+06    -366.339E+03    -233.862E-03     462.367E-03    -228.505E-03     193.886E-03    -240.567E-03     468.507E-03    -228.290E-03     166.265E-03
            1823     5.73070E-03     49.4741E-03    -78.1847E+06    -130.170E+06    -20.3276E+06    -381.799E+03    -233.153E-03     461.576E-03    -228.423E-03     173.503E-03    -238.231E-03     465.973E-03    -228.222E-03     149.734E-03
            1824     5.01481E-03     49.2542E-03    -85.3260E+06    -159.269E+06    -36.1454E+06    -378.802E+03    -232.319E-03     460.645E-03    -228.326E-03     152.637E-03    -236.058E-03     463.621E-03    -228.152E-03     132.514E-03
            1825     4.29875E-03     49.0613E-03    -92.2616E+06    -201.469E+06    -51.0892E+06    -458.423E+03    -231.387E-03     459.641E-03    -228.254E-03     131.376E-03    -234.021E-03     461.380E-03    -228.083E-03     114.671E-03
            1826     3.58251E-03     48.8975E-03    -99.1146E+06    -232.187E+06    -66.2528E+06    -435.699E+03    -230.468E-03     458.638E-03    -228.171E-03     110.020E-03    -232.236E-03     459.422E-03    -228.022E-03     96.4991E-03
            1827     2.86620E-03     48.7622E-03    -105.390E+06    -243.836E+06    -82.7471E+06    -141.431E+03    -229.625E-03     457.685E-03    -228.060E-03     88.4663E-03    -230.744E-03     457.804E-03    -227.967E-03     77.9151E-03
            1828     2.14964E-03     48.6564E-03    -109.987E+06    -258.011E+06    -98.4492E+06     203.393E+03    -228.904E-03     456.866E-03    -227.962E-03     66.6884E-03    -229.531E-03     456.472E-03    -227.921E-03     58.9235E-03
            1829     1.43331E-03     48.5796E-03    -113.108E+06    -285.663E+06    -108.581E+06     139.613E+03    -228.392E-03     456.308E-03    -227.916E-03     45.1051E-03    -228.658E-03     455.474E-03    -227.881E-03     39.9531E-03
            1830     716.711E-06     48.5325E-03    -115.491E+06    -306.944E+06    -113.564E+06    -52.2254E+03    -228.137E-03     455.942E-03    -227.805E-03     24.5287E-03    -228.192E-03     454.828E-03    -227.760E-03     21.7104E-03
            1831     13.6042E-03     51.2323E-03    -4.54138E+06     74.5278E+06     83.0072E+06    -302.267E+03    -227.844E-03     456.940E-03    -229.096E-03     124.128E-03    -235.272E-03     464.376E-03    -228.783E-03     94.6483E-03
            1832     12.8890E-03     51.0089E-03    -7.45788E+06     76.1710E+06     84.4796E+06     46.6296E+03    -227.172E-03     456.200E-03    -229.028E-03     185.079E-03    -239.006E-03     468.033E-03    -228.705E-03     147.962E-03
            1833     12.1733E-03     50.7706E-03    -13.1226E+06     69.8561E+06     81.5164E+06    -13.3898E+03    -227.900E-03     456.889E-03    -228.989E-03     211.318E-03    -241.679E-03     470.634E-03    -228.664E-03     171.938E-03
            1834     11.4568E-03     50.4779E-03     -19.792E+06     62.2788E+06     79.0262E+06    -149.083E+03    -229.737E-03     458.709E-03    -228.972E-03     240.873E-03    -245.809E-03     474.702E-03    -228.638E-03     198.415E-03
            1835     10.7408E-03     50.1526E-03    -26.1042E+06     55.7426E+06     75.4923E+06     707.031E+03    -232.109E-03     461.040E-03    -228.931E-03     259.591E-03    -249.208E-03     478.026E-03    -228.597E-03     215.463E-03
            1836     10.0257E-03     49.8034E-03    -33.0358E+06     52.6826E+06     65.6755E+06     1.24559E+06    -233.902E-03     462.734E-03    -228.832E-03     267.341E-03    -250.754E-03     479.465E-03    -228.532E-03     223.162E-03
            1837     9.31034E-03     49.4523E-03    -39.9969E+06     46.9671E+06     54.1962E+06     1.53252E+06    -234.756E-03     463.475E-03    -228.719E-03     262.481E-03    -250.082E-03     478.668E-03    -228.458E-03     220.112E-03
            1838     8.59447E-03     49.1122E-03    -47.4241E+06     36.9074E+06     44.1912E+06     742.510E+03    -234.964E-03     463.579E-03    -228.615E-03     249.328E-03    -248.101E-03     476.551E-03    -228.379E-03     210.038E-03
            1839     7.87917E-03     48.7923E-03    -55.4485E+06     9.64551E+06     31.8272E+06    -529.589E+03    -234.789E-03     463.311E-03    -228.522E-03     232.055E-03    -245.608E-03     473.875E-03    -228.296E-03     196.478E-03
            1840     7.16371E-03     48.4959E-03    -63.1525E+06    -38.3866E+06     14.1795E+06    -347.020E+03    -234.377E-03     462.808E-03    -228.431E-03     213.145E-03    -242.998E-03     471.027E-03    -228.212E-03     181.575E-03
            1841     6.44778E-03     48.2240E-03    -70.3820E+06    -91.1162E+06    -4.14181E+06     43.3480E+03    -233.805E-03     462.148E-03    -228.343E-03     193.376E-03    -240.490E-03     468.271E-03    -228.130E-03     165.801E-03
            1842     5.73186E-03     47.9778E-03    -77.7077E+06    -130.046E+06    -20.8604E+06    -109.961E+03    -233.080E-03     461.323E-03    -228.242E-03     173.066E-03    -238.138E-03     465.704E-03    -228.045E-03     149.345E-03
            1843     5.01584E-03     47.7577E-03    -84.9296E+06    -159.304E+06    -36.3226E+06    -207.323E+03    -232.131E-03     460.269E-03    -228.137E-03     152.302E-03    -235.857E-03     463.233E-03    -227.965E-03     132.225E-03
            1844     4.29961E-03     47.5663E-03    -92.0766E+06    -201.345E+06    -51.0398E+06     150.319E+03    -231.143E-03     459.212E-03    -228.069E-03     131.165E-03    -233.767E-03     460.943E-03    -227.899E-03     114.516E-03
            1845     3.58310E-03     47.4025E-03    -99.0975E+06    -232.234E+06    -66.8009E+06     184.693E+03    -230.265E-03     458.254E-03    -227.990E-03     109.850E-03    -232.024E-03     459.032E-03    -227.843E-03     96.3855E-03
            1846     2.86660E-03     47.2676E-03    -105.306E+06    -244.527E+06    -83.3395E+06    -113.587E+03    -229.459E-03     457.339E-03    -227.880E-03     88.2871E-03    -230.572E-03     457.451E-03    -227.789E-03     77.7683E-03
            1847     2.15030E-03     47.1619E-03    -109.996E+06    -258.324E+06    -98.3503E+06     8.96076E+03    -228.744E-03     456.523E-03    -227.779E-03     66.6580E-03    -229.370E-03     456.126E-03    -227.737E-03     58.9055E-03
            1848     1.43348E-03     47.0860E-03    -112.670E+06    -285.000E+06    -107.899E+06     230.621E+03    -228.212E-03     455.939E-03    -227.728E-03     45.1846E-03    -228.479E-03     455.108E-03    -227.691E-03     40.0353E-03
            1849     716.776E-06     47.0386E-03    -115.020E+06    -306.516E+06    -113.370E+06     149.049E+03    -227.995E-03     455.560E-03    -227.564E-03     24.4922E-03    -228.049E-03     454.447E-03    -227.520E-03     21.7042E-03
            1850     13.6033E-03     49.7274E-03    -3.84743E+06     74.9646E+06     82.9282E+06    -1.31106E+06    -227.185E-03     456.332E-03    -229.147E-03     127.870E-03    -234.698E-03     463.857E-03    -228.835E-03     98.3453E-03
            1851     12.8882E-03     49.5122E-03    -10.0481E+06     74.3429E+06     82.5300E+06    -1.47167E+06    -227.445E-03     456.549E-03    -229.103E-03     187.604E-03    -239.337E-03     468.429E-03    -228.784E-03     150.488E-03
            1852     12.1712E-03     49.2705E-03    -14.7142E+06     69.0571E+06     80.6822E+06    -363.930E+03    -228.614E-03     457.667E-03    -229.052E-03     212.163E-03    -242.420E-03     471.431E-03    -228.728E-03     172.702E-03
            1853     11.4564E-03     48.9782E-03    -19.5626E+06     61.0530E+06     78.5840E+06     623.833E+03    -230.659E-03     459.647E-03    -228.988E-03     240.516E-03    -246.731E-03     475.639E-03    -228.655E-03     197.884E-03
            1854     10.7418E-03     48.6527E-03    -26.4960E+06     54.8737E+06     73.1720E+06     961.118E+03    -232.567E-03     461.453E-03    -228.886E-03     258.707E-03    -249.654E-03     478.428E-03    -228.561E-03     214.450E-03
            1855     10.0264E-03     48.3043E-03    -33.1067E+06     52.8977E+06     64.9557E+06     875.528E+03    -234.085E-03     462.842E-03    -228.757E-03     266.354E-03    -250.909E-03     479.547E-03    -228.461E-03     222.117E-03
            1856     9.31111E-03     47.9530E-03    -39.7033E+06     47.0815E+06     55.6613E+06     345.371E+03    -234.915E-03     463.537E-03    -228.623E-03     261.546E-03    -250.212E-03     478.699E-03    -228.355E-03     219.132E-03
            1857     8.59636E-03     47.6140E-03    -46.2172E+06     38.1673E+06     45.6322E+06     353.297E+03    -235.025E-03     463.513E-03    -228.488E-03     248.611E-03    -248.137E-03     476.464E-03    -228.248E-03     209.312E-03
            1858     7.88059E-03     47.2946E-03    -53.4920E+06     10.6495E+06     32.3381E+06     804.761E+03    -234.716E-03     463.087E-03    -228.372E-03     231.508E-03    -245.493E-03     473.619E-03    -228.148E-03     196.014E-03
            1859     7.16464E-03     46.9987E-03    -61.9784E+06    -38.4108E+06     14.1078E+06     724.721E+03    -234.301E-03     462.570E-03    -228.269E-03     212.651E-03    -242.888E-03     470.760E-03    -228.053E-03     181.159E-03
            1860     6.44886E-03     46.7274E-03    -70.2218E+06    -90.4969E+06    -4.50850E+06     425.870E+03    -233.744E-03     461.911E-03    -228.167E-03     193.001E-03    -240.407E-03     468.017E-03    -227.957E-03     165.483E-03
            1861     5.73300E-03     46.4816E-03    -77.7142E+06    -129.833E+06    -21.2913E+06     366.782E+03    -232.908E-03     460.966E-03    -228.058E-03     172.754E-03    -237.948E-03     465.330E-03    -227.863E-03     149.104E-03
            1862     5.01670E-03     46.2627E-03    -85.0830E+06    -159.561E+06    -36.8419E+06     476.474E+03    -231.884E-03     459.840E-03    -227.956E-03     151.963E-03    -235.591E-03     462.785E-03    -227.785E-03     131.973E-03
            1863     4.30015E-03     46.0713E-03    -92.2154E+06    -200.964E+06    -51.2944E+06     562.020E+03    -230.973E-03     458.862E-03    -227.889E-03     130.826E-03    -233.587E-03     460.584E-03    -227.720E-03     114.234E-03
            1864     3.58380E-03     45.9082E-03    -99.0556E+06    -231.668E+06    -66.7076E+06     740.319E+03    -230.103E-03     457.908E-03    -227.805E-03     109.510E-03    -231.854E-03     458.678E-03    -227.659E-03     96.1058E-03
            1865     2.86725E-03     45.7734E-03    -105.265E+06    -243.922E+06    -83.6982E+06     549.272E+03    -229.218E-03     456.913E-03    -227.695E-03     87.9825E-03    -230.323E-03     457.021E-03    -227.607E-03     77.5269E-03
            1866     2.15023E-03     45.6683E-03    -110.046E+06    -258.281E+06    -99.3673E+06     29.8645E+03    -228.523E-03     456.128E-03    -227.605E-03     66.3664E-03    -229.144E-03     455.729E-03    -227.568E-03     58.6410E-03
            1867     1.43364E-03     45.5922E-03    -113.170E+06    -285.336E+06    -108.712E+06    -97.8687E+03    -228.048E-03     455.609E-03    -227.561E-03     44.8494E-03    -228.314E-03     454.776E-03    -227.527E-03     39.7043E-03
            1868     716.819E-06     45.5457E-03    -114.052E+06    -305.799E+06    -113.161E+06     157.561E+03    -227.934E-03     455.223E-03    -227.290E-03     24.1725E-03    -227.983E-03     454.111E-03    -227.247E-03     21.4034E-03
            1869     13.5981E-03     48.2253E-03    -5.01031E+06     76.4910E+06     81.9992E+06    -227.445E+03    -226.703E-03     455.939E-03    -229.236E-03     126.808E-03    -234.175E-03     463.427E-03    -228.929E-03     97.3229E-03
            1870     12.8835E-03     48.0085E-03    -11.0086E+06     75.6213E+06     81.4704E+06    -1.34355E+06    -227.908E-03     457.090E-03    -229.182E-03     184.345E-03    -239.732E-03     468.907E-03    -228.868E-03     147.043E-03
            1871     12.1711E-03     47.7690E-03    -17.2771E+06     67.0550E+06     78.3872E+06    -1.76404E+06    -229.548E-03     458.624E-03    -229.076E-03     210.000E-03    -243.333E-03     472.358E-03    -228.756E-03     170.256E-03
            1872     11.4569E-03     47.4764E-03    -23.0678E+06     59.6841E+06     77.2824E+06    -1.68569E+06    -231.160E-03     460.118E-03    -228.958E-03     239.207E-03    -247.224E-03     476.088E-03    -228.625E-03     196.409E-03
            1873     10.7423E-03     47.1522E-03    -27.5800E+06     53.0456E+06     75.4759E+06    -1.88049E+06    -232.882E-03     461.713E-03    -228.831E-03     257.880E-03    -249.953E-03     478.655E-03    -228.490E-03     213.540E-03
            1874     10.0278E-03     46.8049E-03    -32.6102E+06     50.3095E+06     67.2525E+06    -1.12309E+06    -234.288E-03     462.957E-03    -228.669E-03     265.870E-03    -251.085E-03     479.622E-03    -228.359E-03     221.601E-03
            1875     9.31284E-03     46.4540E-03    -38.7000E+06     47.3240E+06     55.7283E+06     61.5674E+03    -234.984E-03     463.482E-03    -228.499E-03     261.358E-03    -250.254E-03     478.622E-03    -228.232E-03     218.956E-03
            1876     8.59705E-03     46.1156E-03    -46.9773E+06     37.2647E+06     43.4973E+06     460.009E+03    -235.024E-03     463.367E-03    -228.343E-03     248.299E-03    -248.107E-03     476.290E-03    -228.112E-03     209.047E-03
            1877     7.88161E-03     45.7972E-03    -55.7869E+06     9.86200E+06     30.3835E+06     868.450E+03    -234.682E-03     462.899E-03    -228.217E-03     231.114E-03    -245.431E-03     473.396E-03    -227.998E-03     195.699E-03
            1878     7.16602E-03     45.5020E-03    -63.5843E+06    -37.0515E+06     13.1085E+06     889.355E+03    -234.205E-03     462.309E-03    -228.104E-03     212.286E-03    -242.767E-03     470.476E-03    -227.893E-03     180.882E-03
            1879     6.45010E-03     45.2311E-03    -71.1401E+06    -90.0103E+06    -5.25710E+06     650.015E+03    -233.613E-03     461.609E-03    -227.997E-03     192.704E-03    -240.254E-03     467.693E-03    -227.789E-03     165.272E-03
            1880     5.73387E-03     44.9862E-03    -78.6725E+06    -130.002E+06    -22.2263E+06     904.619E+03    -232.775E-03     460.655E-03    -227.880E-03     172.269E-03    -237.794E-03     464.998E-03    -227.688E-03     148.701E-03
            1881     5.01755E-03     44.7679E-03    -85.9993E+06    -158.733E+06    -37.9332E+06     973.675E+03    -231.790E-03     459.551E-03    -227.761E-03     151.375E-03    -235.480E-03     462.483E-03    -227.596E-03     131.460E-03
            1882     4.30118E-03     44.5771E-03    -93.1217E+06    -200.662E+06    -52.4495E+06     642.817E+03    -230.869E-03     458.542E-03    -227.673E-03     130.246E-03    -233.470E-03     460.252E-03    -227.509E-03     113.714E-03
            1883     3.58454E-03     44.4141E-03    -99.8014E+06    -231.499E+06     -67.225E+06     651.230E+03    -229.919E-03     457.490E-03    -227.571E-03     108.840E-03    -231.660E-03     458.250E-03    -227.427E-03     95.4867E-03
            1884     2.86768E-03     44.2802E-03    -105.667E+06    -242.981E+06    -83.6863E+06     703.408E+03    -229.001E-03     456.446E-03    -227.445E-03     87.3542E-03    -230.101E-03     456.551E-03    -227.358E-03     76.9461E-03
            1885     2.15112E-03     44.1749E-03    -110.063E+06    -257.357E+06    -99.4699E+06     389.941E+03    -228.284E-03     455.621E-03    -227.337E-03     65.8024E-03    -228.900E-03     455.222E-03    -227.302E-03     58.1185E-03
            1886     1.43406E-03     44.0995E-03    -112.996E+06    -285.219E+06    -109.275E+06    -41.3297E+03    -227.766E-03     455.049E-03    -227.282E-03     44.4046E-03    -228.028E-03     454.214E-03    -227.251E-03     39.2902E-03
            1887     717.191E-06     44.0527E-03    -114.724E+06    -306.187E+06    -113.258E+06    -343.731E+03    -227.682E-03     454.665E-03    -226.983E-03     23.9786E-03    -227.734E-03     453.551E-03    -226.939E-03     21.2031E-03
            1888     13.6037E-03     46.7268E-03    -3.80361E+06     77.1591E+06     84.0155E+06     454.652E+03    -227.786E-03     456.985E-03    -229.199E-03     124.754E-03    -235.224E-03     464.440E-03    -228.885E-03     95.1791E-03
            1889     12.8882E-03     46.5078E-03    -9.23376E+06     76.6064E+06     82.7892E+06     1.24935E+06    -227.825E-03     456.930E-03    -229.105E-03     182.871E-03    -239.591E-03     468.695E-03    -228.789E-03     145.599E-03
            1890     12.1724E-03     46.2661E-03    -15.4899E+06     68.7190E+06     79.2069E+06     180.296E+03    -229.372E-03     458.362E-03    -228.991E-03     208.467E-03    -243.096E-03     472.046E-03    -228.672E-03     168.739E-03
            1891     11.4580E-03     45.9761E-03    -21.4827E+06     61.7765E+06     77.9706E+06    -1.39461E+06    -230.985E-03     459.854E-03    -228.868E-03     238.206E-03    -247.008E-03     475.793E-03    -228.537E-03     195.407E-03
            1892     10.7434E-03     45.6510E-03    -28.8118E+06     54.3614E+06     73.2747E+06    -2.86854E+06    -232.736E-03     461.466E-03    -228.730E-03     257.275E-03    -249.762E-03     478.370E-03    -228.401E-03     212.971E-03
            1893     10.0286E-03     45.3054E-03    -37.0652E+06     47.9035E+06     61.9654E+06    -4.27881E+06    -234.296E-03     462.854E-03    -228.559E-03     265.638E-03    -251.066E-03     479.484E-03    -228.265E-03     221.364E-03
            1894     9.31325E-03     44.9549E-03    -44.6693E+06     41.7650E+06     50.2600E+06    -3.62056E+06    -235.065E-03     463.447E-03    -228.382E-03     261.139E-03    -250.305E-03     478.531E-03    -228.127E-03     218.756E-03
            1895     8.59847E-03     44.6175E-03    -50.7904E+06     33.3887E+06     40.7113E+06    -1.20743E+06    -235.041E-03     463.261E-03    -228.220E-03     247.853E-03    -248.083E-03     476.124E-03    -227.991E-03     208.668E-03
            1896     7.88290E-03     44.2999E-03    -57.5048E+06     9.48107E+06     28.8515E+06     162.426E+03    -234.673E-03     462.752E-03    -228.079E-03     230.753E-03    -245.390E-03     473.214E-03    -227.865E-03     195.406E-03
            1897     7.16698E-03     44.0055E-03    -65.4158E+06    -36.7885E+06     11.3850E+06     194.902E+03    -234.219E-03     462.168E-03    -227.949E-03     211.973E-03    -242.756E-03     470.309E-03    -227.744E-03     180.635E-03
            1898     6.45086E-03     43.7354E-03    -73.1491E+06    -90.6341E+06    -7.02361E+06     539.286E+03    -233.622E-03     461.443E-03    -227.821E-03     192.086E-03    -240.239E-03     467.499E-03    -227.619E-03     164.721E-03
            1899     5.73495E-03     43.4908E-03    -80.2572E+06    -129.939E+06    -23.4213E+06     616.524E+03    -232.758E-03     460.434E-03    -227.676E-03     171.412E-03    -237.756E-03     464.754E-03    -227.489E-03     147.898E-03
            1900     5.01874E-03     43.2737E-03    -86.9334E+06    -158.022E+06    -38.3977E+06     588.926E+03    -231.784E-03     459.305E-03    -227.521E-03     150.530E-03    -235.458E-03     462.220E-03    -227.358E-03     130.663E-03
            1901     4.30224E-03     43.0830E-03    -93.4848E+06    -200.101E+06    -52.4413E+06     515.482E+03    -230.790E-03     458.181E-03    -227.391E-03     129.351E-03    -233.373E-03     459.874E-03    -227.227E-03     112.884E-03
            1902     3.58572E-03     42.9212E-03    -99.8269E+06    -231.563E+06    -67.4172E+06     89.6742E+03    -229.743E-03     456.989E-03    -227.246E-03     107.969E-03    -231.470E-03     457.736E-03    -227.103E-03     94.6548E-03
            1903     2.86902E-03     42.7874E-03    -105.326E+06    -242.875E+06    -83.5037E+06     151.518E+03    -228.744E-03     455.827E-03    -227.083E-03     86.6564E-03    -229.834E-03     455.923E-03    -226.996E-03     76.2791E-03
            1904     2.15173E-03     42.6828E-03    -109.638E+06    -256.627E+06    -98.7047E+06     437.044E+03    -227.897E-03     454.854E-03    -226.957E-03     65.3084E-03    -228.508E-03     454.451E-03    -226.920E-03     57.6722E-03
            1905     1.43467E-03     42.6074E-03    -112.618E+06    -284.411E+06    -108.477E+06     456.795E+03    -227.311E-03     454.232E-03    -226.922E-03     44.1161E-03    -227.570E-03     453.397E-03    -226.888E-03     39.0462E-03
            1906     717.170E-06     42.5615E-03    -115.005E+06    -306.504E+06    -113.719E+06     371.915E+03    -227.238E-03     453.979E-03    -226.741E-03     23.9675E-03    -227.289E-03     452.865E-03    -226.699E-03     21.2148E-03
            1907     13.6016E-03     45.2251E-03    -4.50915E+06     75.3099E+06     83.4830E+06    -270.802E+03    -228.325E-03     457.455E-03    -229.130E-03     125.317E-03    -235.759E-03     464.898E-03    -228.815E-03     95.7382E-03
            1908     12.8877E-03     45.0055E-03    -8.19090E+06     75.3780E+06     84.6129E+06     990.540E+03    -228.232E-03     457.256E-03    -229.023E-03     184.512E-03    -240.009E-03     469.025E-03    -228.698E-03     147.289E-03
            1909     12.1741E-03     44.7660E-03    -12.8151E+06     71.3264E+06     82.6646E+06     1.54448E+06    -229.404E-03     458.304E-03    -228.900E-03     209.034E-03    -243.108E-03     471.976E-03    -228.572E-03     169.416E-03
            1910     11.4594E-03     44.4745E-03    -19.4588E+06     63.5382E+06     79.2620E+06     942.662E+03    -230.937E-03     459.704E-03    -228.767E-03     237.841E-03    -246.909E-03     475.602E-03    -228.434E-03     195.126E-03
            1911     10.7445E-03     44.1522E-03    -27.2110E+06     58.3149E+06     72.9195E+06     867.116E+03    -232.577E-03     461.193E-03    -228.616E-03     256.551E-03    -249.529E-03     478.044E-03    -228.297E-03     212.372E-03
            1912     10.0292E-03     43.8054E-03    -35.5260E+06     52.3659E+06     60.2513E+06     22.9001E+03    -234.166E-03     462.603E-03    -228.437E-03     264.819E-03    -250.846E-03     479.169E-03    -228.161E-03     220.700E-03
            1913     9.31467E-03     43.4563E-03    -44.5309E+06     42.0377E+06     47.0664E+06    -2.01195E+06    -234.981E-03     463.239E-03    -228.258E-03     260.319E-03    -250.146E-03     478.258E-03    -228.019E-03     218.045E-03
            1914     8.59907E-03     43.1192E-03    -53.3651E+06     30.2001E+06     36.3839E+06    -3.53387E+06    -234.990E-03     463.081E-03    -228.091E-03     247.275E-03    -247.978E-03     475.881E-03    -227.876E-03     208.157E-03
            1915     7.88354E-03     42.8028E-03    -60.7153E+06     5.53768E+06     25.0792E+06    -2.92394E+06    -234.788E-03     462.724E-03    -227.936E-03     230.080E-03    -245.464E-03     473.131E-03    -227.730E-03     194.752E-03
            1916     7.16787E-03     42.5090E-03    -67.3180E+06    -39.0014E+06     9.55167E+06    -1.13592E+06    -234.442E-03     462.213E-03    -227.771E-03     210.891E-03    -242.944E-03     470.309E-03    -227.569E-03     179.559E-03
            1917     6.45250E-03     42.2394E-03    -73.7925E+06    -91.1740E+06    -7.19353E+06    -561.053E+03    -233.736E-03     461.330E-03    -227.594E-03     190.722E-03    -240.315E-03     467.345E-03    -227.391E-03     163.384E-03
            1918     5.73645E-03     41.9963E-03    -80.2463E+06    -130.315E+06    -22.7720E+06    -453.807E+03    -232.764E-03     460.163E-03    -227.399E-03     170.092E-03    -237.728E-03     464.446E-03    -227.208E-03     146.621E-03
            1919     5.02027E-03     41.7792E-03    -86.7970E+06    -158.102E+06    -37.6107E+06    -224.540E+03    -231.674E-03     458.869E-03    -227.195E-03     149.287E-03    -235.320E-03     461.754E-03    -227.028E-03     129.473E-03
            1920     4.30401E-03     41.5900E-03    -93.3573E+06    -199.820E+06    -51.8929E+06    -290.083E+03    -230.558E-03     457.579E-03    -227.022E-03     128.313E-03    -233.120E-03     459.251E-03    -226.856E-03     111.906E-03
            1921     3.58728E-03     41.4286E-03    -99.6885E+06    -231.489E+06    -66.9899E+06    -376.651E+03    -229.448E-03     456.291E-03    -226.843E-03     107.242E-03    -231.162E-03     457.024E-03    -226.698E-03     93.9835E-03
            1922     2.87015E-03     41.2960E-03    -105.598E+06    -243.412E+06    -83.9886E+06    -328.711E+03    -228.366E-03     455.018E-03    -226.652E-03     86.1287E-03    -229.448E-03     455.104E-03    -226.566E-03     75.8006E-03
            1923     2.15301E-03     41.1919E-03    -109.847E+06    -257.290E+06    -99.8361E+06     68.9707E+03    -227.455E-03     453.966E-03    -226.512E-03     64.9122E-03    -228.060E-03     453.557E-03    -226.478E-03     57.3150E-03
            1924     1.43515E-03     41.1172E-03    -112.302E+06    -284.073E+06    -108.267E+06     578.587E+03    -226.889E-03     453.358E-03    -226.469E-03     43.7966E-03    -227.145E-03     452.521E-03    -226.435E-03     38.7567E-03
            1925     717.659E-06     41.0707E-03    -113.383E+06    -304.669E+06    -111.804E+06     525.800E+03    -226.700E-03     453.058E-03    -226.358E-03     23.7069E-03    -226.747E-03     451.946E-03    -226.311E-03     20.9860E-03
            1926     13.6038E-03     43.7227E-03    -3.95633E+06     75.8310E+06     83.6444E+06    -235.943E+03    -228.845E-03     457.941E-03    -229.096E-03     124.854E-03    -236.266E-03     465.375E-03    -228.782E-03     95.1646E-03
            1927     12.8892E-03     43.5042E-03    -9.50310E+06     72.6498E+06     83.5873E+06    -900.985E+03    -228.517E-03     457.478E-03    -228.961E-03     183.123E-03    -240.253E-03     469.195E-03    -228.634E-03     145.807E-03
            1928     12.1743E-03     43.2636E-03    -15.2317E+06     69.3829E+06     81.6525E+06    -36.6066E+03    -229.235E-03     458.063E-03    -228.828E-03     208.745E-03    -242.892E-03     471.676E-03    -228.498E-03     169.184E-03
            1929     11.4603E-03     42.9739E-03    -20.3602E+06     64.3262E+06     80.7448E+06     1.19258E+06    -230.909E-03     459.617E-03    -228.707E-03     238.149E-03    -246.816E-03     475.445E-03    -228.367E-03     195.600E-03
            1930     10.7457E-03     42.6522E-03    -25.9940E+06     57.6781E+06     77.0083E+06     1.53021E+06    -232.953E-03     461.515E-03    -228.562E-03     257.002E-03    -249.861E-03     478.313E-03    -228.223E-03     212.896E-03
            1931     10.0312E-03     42.3069E-03    -31.8294E+06     53.7126E+06     66.6130E+06     2.76265E+06    -234.518E-03     462.883E-03    -228.365E-03     264.787E-03    -251.141E-03     479.390E-03    -228.064E-03     220.779E-03
            1932     9.31546E-03     41.9575E-03    -38.5788E+06     47.6372E+06     52.9401E+06     3.64255E+06    -235.113E-03     463.263E-03    -228.150E-03     259.660E-03    -250.198E-03     478.227E-03    -227.899E-03     217.559E-03
            1933     8.60039E-03     41.6219E-03    -46.8314E+06     36.3694E+06     40.8325E+06     2.25235E+06    -235.253E-03     463.196E-03    -227.943E-03     246.000E-03    -248.160E-03     475.947E-03    -227.724E-03     206.991E-03
            1934     7.88495E-03     41.3056E-03    -56.3379E+06     6.54675E+06     27.5622E+06    -203.649E+03    -235.115E-03     462.848E-03    -227.733E-03     228.368E-03    -245.713E-03     473.190E-03    -227.523E-03     193.087E-03
            1935     7.17009E-03     41.0120E-03    -64.7886E+06    -40.4108E+06     10.7395E+06    -1.46236E+06    -234.570E-03     462.076E-03    -227.506E-03     209.154E-03    -242.999E-03     470.101E-03    -227.300E-03     177.875E-03
            1936     6.45444E-03     40.7442E-03    -71.9821E+06    -91.8899E+06    -6.03809E+06    -1.22597E+06    -233.717E-03     460.992E-03    -227.276E-03     189.249E-03    -240.239E-03     466.951E-03    -227.068E-03     161.981E-03
            1937     5.73883E-03     40.5016E-03    -78.9968E+06    -131.050E+06    -21.8017E+06    -829.830E+03    -232.653E-03     459.687E-03    -227.034E-03     168.926E-03    -237.575E-03     463.927E-03    -226.838E-03     145.535E-03
            1938     5.02276E-03     40.2863E-03    -85.9281E+06    -158.176E+06    -36.6795E+06    -801.969E+03    -231.403E-03     458.195E-03    -226.792E-03     148.372E-03    -235.020E-03     461.052E-03    -226.622E-03     128.637E-03
            1939     4.30586E-03     40.0977E-03    -92.7908E+06    -200.128E+06    -50.9099E+06    -619.153E+03    -230.186E-03     456.783E-03    -226.597E-03     127.575E-03    -232.727E-03     458.432E-03    -226.427E-03     111.250E-03
            1940     3.58883E-03     39.9376E-03    -99.7518E+06    -231.870E+06    -65.9244E+06    -331.636E+03    -229.032E-03     455.436E-03    -226.405E-03     106.576E-03    -230.732E-03     456.151E-03    -226.254E-03     93.4053E-03
            1941     2.87156E-03     39.8055E-03    -106.262E+06    -243.823E+06    -82.4026E+06    -137.969E+03    -227.938E-03     454.140E-03    -226.203E-03     85.4922E-03    -229.014E-03     454.213E-03    -226.107E-03     75.2352E-03
            1942     2.15366E-03     39.7025E-03    -111.941E+06    -258.750E+06    -98.6177E+06     367.693E+03    -227.040E-03     453.081E-03    -226.041E-03     64.4223E-03    -227.650E-03     452.660E-03    -225.996E-03     56.8771E-03
            1943     1.43612E-03     39.6278E-03    -116.038E+06    -282.672E+06    -111.502E+06     593.187E+03    -226.426E-03     452.365E-03    -225.939E-03     43.5860E-03    -226.696E-03     451.543E-03    -225.918E-03     38.5787E-03
            1944     718.142E-06     39.5820E-03    -117.329E+06    -303.742E+06    -117.257E+06    -454.218E+03    -226.209E-03     451.950E-03    -225.741E-03     23.6557E-03    -226.268E-03     450.856E-03    -225.717E-03     20.9399E-03
            1945     13.6029E-03     42.2157E-03    -5.79415E+06     75.3703E+06     83.0059E+06    -233.856E+03    -228.871E-03     457.940E-03    -229.069E-03     124.974E-03    -236.312E-03     465.387E-03    -228.755E-03     95.2490E-03
            1946     12.8906E-03     42.0032E-03    -9.46176E+06     73.7081E+06     83.3156E+06    -395.787E+03    -228.502E-03     457.434E-03    -228.932E-03     183.930E-03    -240.235E-03     469.154E-03    -228.609E-03     146.664E-03
            1947     12.1760E-03     41.7636E-03    -14.6516E+06     68.2639E+06     80.7882E+06    -523.279E+03    -229.333E-03     458.137E-03    -228.804E-03     209.953E-03    -242.956E-03     471.717E-03    -228.478E-03     170.486E-03
            1948     11.4599E-03     41.4739E-03    -21.3236E+06     62.4734E+06     78.6291E+06    -122.411E+03    -231.206E-03     459.883E-03    -228.677E-03     238.523E-03    -247.065E-03     475.660E-03    -228.344E-03     195.986E-03
            1949     10.7450E-03     41.1503E-03    -27.3071E+06     56.9517E+06     74.5347E+06     342.973E+03    -233.368E-03     461.873E-03    -228.505E-03     256.407E-03    -250.224E-03     478.618E-03    -228.176E-03     212.265E-03
            1950     10.0307E-03     40.8060E-03    -34.4248E+06     51.2513E+06     64.4411E+06     271.506E+03    -234.941E-03     463.214E-03    -228.272E-03     263.657E-03    -251.525E-03     479.670E-03    -227.975E-03     219.562E-03
            1951     9.31684E-03     40.4590E-03    -40.8580E+06     45.5103E+06     54.1817E+06     852.735E+03    -235.717E-03     463.731E-03    -228.013E-03     258.379E-03    -250.754E-03     478.627E-03    -227.749E-03     216.198E-03
            1952     8.60208E-03     40.1233E-03    -46.4989E+06     37.1586E+06     44.4222E+06     2.54488E+06    -235.829E-03     463.562E-03    -227.733E-03     244.544E-03    -248.672E-03     476.243E-03    -227.497E-03     205.533E-03
            1953     7.88804E-03     39.8079E-03    -53.1093E+06     12.2015E+06     32.0361E+06     3.14158E+06    -235.329E-03     462.775E-03    -227.446E-03     226.913E-03    -245.862E-03     473.069E-03    -227.226E-03     191.736E-03
            1954     7.17264E-03     39.5165E-03    -61.4749E+06    -36.5853E+06     14.0638E+06     1.46478E+06    -234.496E-03     461.663E-03    -227.167E-03     207.935E-03    -242.862E-03     469.640E-03    -226.954E-03     176.808E-03
            1955     6.45725E-03     39.2492E-03    -70.0800E+06    -91.5421E+06    -4.42945E+06     33.6205E+03    -233.529E-03     460.430E-03    -226.901E-03     188.246E-03    -240.001E-03     466.341E-03    -226.689E-03     161.111E-03
            1956     5.74117E-03     39.0084E-03    -77.6937E+06    -130.727E+06    -20.7389E+06    -530.024E+03    -232.379E-03     459.010E-03    -226.630E-03     168.054E-03    -237.264E-03     463.215E-03    -226.432E-03     144.774E-03
            1957     5.02451E-03     38.7939E-03    -84.7966E+06    -158.698E+06    -35.6069E+06    -636.490E+03    -231.127E-03     457.490E-03    -226.362E-03     147.465E-03    -234.712E-03     460.313E-03    -226.187E-03     127.834E-03
            1958     4.30783E-03     38.6070E-03    -91.8581E+06    -200.667E+06    -49.6109E+06    -272.332E+03    -229.865E-03     456.001E-03    -226.135E-03     126.546E-03    -232.380E-03     457.621E-03    -225.959E-03     110.312E-03
            1959     3.59057E-03     38.4476E-03    -98.9835E+06    -232.280E+06    -64.6751E+06     157.746E+03    -228.599E-03     454.513E-03    -225.913E-03     105.586E-03    -230.280E-03     455.205E-03    -225.756E-03     92.5019E-03
            1960     2.87285E-03     38.3167E-03    -105.853E+06    -244.384E+06    -81.6904E+06     676.779E+03    -227.465E-03     453.152E-03    -225.687E-03     84.6472E-03    -228.528E-03     453.209E-03    -225.587E-03     74.4737E-03
            1961     2.15520E-03     38.2141E-03    -111.094E+06    -259.028E+06    -97.7812E+06     884.539E+03    -226.556E-03     452.056E-03    -225.500E-03     63.7910E-03    -227.155E-03     451.625E-03    -225.452E-03     56.3073E-03
            1962     1.43672E-03     38.1404E-03    -114.165E+06    -281.080E+06    -109.035E+06     761.578E+03    -225.873E-03     451.259E-03    -225.385E-03     43.1506E-03    -226.137E-03     450.435E-03    -225.358E-03     38.1779E-03
            1963     718.279E-06     38.0946E-03    -116.525E+06    -302.378E+06    -115.152E+06     894.300E+03    -225.669E-03     450.823E-03    -225.154E-03     23.4480E-03    -225.729E-03     449.731E-03    -225.122E-03     20.7662E-03
            1964     13.6042E-03     40.7150E-03    -3.76407E+06     76.7454E+06     83.4447E+06     184.560E+03    -227.961E-03     457.053E-03    -229.092E-03     126.312E-03    -235.380E-03     464.489E-03    -228.781E-03     96.7293E-03
            1965     12.8877E-03     40.4994E-03    -9.95219E+06     74.2379E+06     81.5563E+06    -539.364E+03    -228.570E-03     457.549E-03    -228.978E-03     184.345E-03    -240.281E-03     469.251E-03    -228.664E-03     147.095E-03
            1966     12.1733E-03     40.2622E-03    -14.8328E+06     67.3395E+06     79.8380E+06    -420.487E+03    -230.449E-03     459.272E-03    -228.823E-03     209.224E-03    -244.044E-03     472.822E-03    -228.500E-03     169.592E-03
            1967     11.4604E-03     39.9715E-03    -19.4850E+06     61.4597E+06     79.1019E+06    -65.5125E+03    -232.150E-03     460.779E-03    -228.629E-03     237.034E-03    -247.956E-03     476.504E-03    -228.294E-03     194.341E-03
            1968     10.7472E-03     39.6500E-03    -26.3139E+06     55.9683E+06     73.4344E+06     865.045E+03    -233.745E-03     462.134E-03    -228.389E-03     254.530E-03    -250.515E-03     478.797E-03    -228.065E-03     210.339E-03
            1969     10.0331E-03     39.3061E-03    -33.2096E+06     52.4543E+06     63.2225E+06     1.39130E+06    -235.316E-03     463.415E-03    -228.100E-03     261.790E-03    -251.801E-03     479.786E-03    -227.811E-03     217.675E-03
            1970     9.31869E-03     38.9590E-03    -41.0276E+06     45.4594E+06     52.2997E+06     519.636E+03    -236.173E-03     463.951E-03    -227.778E-03     256.624E-03    -251.126E-03     478.768E-03    -227.523E-03     214.404E-03
            1971     8.60527E-03     38.6245E-03    -49.4132E+06     34.4820E+06     41.8498E+06    -306.174E+03    -235.973E-03     463.416E-03    -227.443E-03     243.282E-03    -248.746E-03     476.015E-03    -227.212E-03     204.311E-03
            1972     7.89016E-03     38.3109E-03    -56.7764E+06     11.1451E+06     30.9047E+06    -52.3387E+03    -235.247E-03     462.369E-03    -227.122E-03     225.977E-03    -245.733E-03     472.603E-03    -226.902E-03     190.880E-03
            1973     7.17532E-03     38.0208E-03    -62.9447E+06    -34.5446E+06     15.0805E+06     752.729E+03    -234.399E-03     461.213E-03    -226.813E-03     207.046E-03    -242.731E-03     469.154E-03    -226.597E-03     176.015E-03
            1974     6.45955E-03     37.7554E-03    -69.3427E+06    -89.7458E+06    -2.92297E+06     582.463E+03    -233.415E-03     459.925E-03    -226.510E-03     187.236E-03    -239.845E-03     465.799E-03    -226.294E-03     160.216E-03
            1975     5.74348E-03     37.5159E-03    -76.5690E+06    -130.052E+06    -19.4483E+06     200.799E+03    -232.221E-03     458.416E-03    -226.195E-03     166.718E-03    -237.061E-03     462.579E-03    -225.992E-03     143.555E-03
            1976     5.02718E-03     37.3028E-03    -84.0003E+06    -158.658E+06    -34.8611E+06     244.105E+03    -230.839E-03     456.718E-03    -225.880E-03     146.038E-03    -234.384E-03     459.503E-03    -225.702E-03     126.529E-03
            1977     4.31017E-03     37.1170E-03    -91.4115E+06    -201.032E+06    -49.5109E+06     268.175E+03    -229.462E-03     455.074E-03    -225.612E-03     125.360E-03    -231.951E-03     456.668E-03    -225.435E-03     109.224E-03
            1978     3.59274E-03     36.9594E-03    -98.5375E+06    -232.622E+06    -64.7248E+06     587.792E+03    -228.156E-03     453.512E-03    -225.356E-03     104.676E-03    -229.819E-03     454.187E-03    -225.199E-03     91.6705E-03
            1979     2.87481E-03     36.8292E-03    -104.629E+06    -244.336E+06    -81.7856E+06     831.734E+03    -226.954E-03     452.052E-03    -225.098E-03     83.9189E-03    -228.000E-03     452.096E-03    -225.001E-03     73.8192E-03
            1980     2.15618E-03     36.7277E-03    -109.242E+06    -258.729E+06    -98.1065E+06     794.587E+03    -226.020E-03     450.901E-03    -224.881E-03     63.1900E-03    -226.603E-03     450.463E-03    -224.838E-03     55.7571E-03
            1981     1.43784E-03     36.6543E-03    -112.516E+06    -280.342E+06    -108.231E+06     916.657E+03    -225.346E-03     450.066E-03    -224.720E-03     42.5678E-03    -225.600E-03     449.239E-03    -224.691E-03     37.6363E-03
            1982     719.103E-06     36.6093E-03    -114.318E+06    -299.771E+06    -112.035E+06     539.459E+03    -224.977E-03     449.421E-03    -224.444E-03     22.9831E-03    -225.033E-03     448.332E-03    -224.404E-03     20.3232E-03
            1983     13.6010E-03     39.2136E-03    -3.36227E+06     76.8695E+06     83.0225E+06     585.129E+03    -228.697E-03     457.822E-03    -229.126E-03     125.366E-03    -236.084E-03     465.230E-03    -228.817E-03     95.7141E-03
            1984     12.8879E-03     38.9970E-03    -8.99227E+06     76.2085E+06     82.3517E+06     497.922E+03    -229.368E-03     458.335E-03    -228.966E-03     182.136E-03    -241.003E-03     469.969E-03    -228.652E-03     144.785E-03
            1985     12.1755E-03     38.7575E-03    -14.2550E+06     68.7607E+06     79.8423E+06    -623.701E+03    -230.962E-03     459.718E-03    -228.756E-03     206.662E-03    -244.480E-03     473.198E-03    -228.435E-03     166.893E-03
            1986     11.4625E-03     38.4687E-03    -19.9890E+06     60.6128E+06     78.6742E+06    -1.02769E+06    -232.487E-03     461.007E-03    -228.520E-03     235.891E-03    -248.254E-03     476.690E-03    -228.185E-03     193.083E-03
            1987     10.7485E-03     38.1485E-03    -26.6814E+06     52.3381E+06     75.3153E+06    -532.719E+03    -234.396E-03     462.645E-03    -228.250E-03     254.106E-03    -251.104E-03     479.226E-03    -227.910E-03     209.882E-03
            1988     10.0350E-03     37.8052E-03    -32.7814E+06     50.2668E+06     66.9615E+06     787.853E+03    -235.993E-03     463.902E-03    -227.908E-03     261.270E-03    -252.391E-03     480.167E-03    -227.599E-03     217.205E-03
            1989     9.32217E-03     37.4589E-03    -39.0276E+06     47.0048E+06     55.4922E+06     2.28843E+06    -236.383E-03     463.910E-03    -227.527E-03     255.847E-03    -251.247E-03     478.641E-03    -227.261E-03     213.773E-03
            1990     8.60738E-03     37.1269E-03    -45.7493E+06     38.0933E+06     45.0006E+06     1.85294E+06    -235.954E-03     463.106E-03    -227.153E-03     242.361E-03    -248.653E-03     475.648E-03    -226.917E-03     203.533E-03
            1991     7.89305E-03     36.8142E-03    -53.3149E+06     11.8428E+06     33.0665E+06     189.522E+03    -235.231E-03     462.031E-03    -226.799E-03     224.859E-03    -245.642E-03     472.198E-03    -226.574E-03     189.873E-03
            1992     7.17768E-03     36.5260E-03    -61.5152E+06    -35.6972E+06     15.3092E+06    -266.111E+03    -234.414E-03     460.857E-03    -226.442E-03     205.683E-03    -242.680E-03     468.733E-03    -226.225E-03     174.732E-03
            1993     6.46231E-03     36.2619E-03    -69.4481E+06    -89.4438E+06    -3.43120E+06     436.006E+03    -233.401E-03     459.480E-03    -226.078E-03     185.726E-03    -239.782E-03     465.306E-03    -225.865E-03     158.792E-03
            1994     5.74661E-03     36.0240E-03    -76.8748E+06    -129.421E+06    -20.1363E+06     784.568E+03    -232.022E-03     457.728E-03    -225.706E-03     165.326E-03    -236.819E-03     461.851E-03    -225.508E-03     142.286E-03
            1995     5.02997E-03     35.8128E-03    -84.0729E+06    -158.199E+06    -35.1069E+06     894.568E+03    -230.439E-03     455.792E-03    -225.354E-03     144.945E-03    -233.951E-03     458.546E-03    -225.178E-03     125.571E-03
            1996     4.31257E-03     35.6289E-03    -91.3195E+06    -200.877E+06    -49.2928E+06     979.438E+03    -228.971E-03     454.037E-03    -225.066E-03     124.494E-03    -231.435E-03     455.607E-03    -224.888E-03     108.489E-03
            1997     3.59469E-03     35.4721E-03    -98.3960E+06    -232.446E+06    -64.1312E+06     821.985E+03    -227.671E-03     452.462E-03    -224.791E-03     103.956E-03    -229.318E-03     453.120E-03    -224.632E-03     91.0534E-03
            1998     2.87639E-03     35.3437E-03    -105.186E+06    -244.095E+06    -80.2630E+06     825.752E+03    -226.488E-03     450.995E-03    -224.507E-03     83.3100E-03    -227.528E-03     451.028E-03    -224.402E-03     73.2881E-03
            1999     2.15794E-03     35.2428E-03    -111.666E+06    -259.308E+06    -96.4905E+06     1.47402E+06    -225.476E-03     449.729E-03    -224.253E-03     62.6519E-03    -226.066E-03     449.282E-03    -224.197E-03     55.3000E-03
            2000     1.43879E-03     35.1702E-03    -116.067E+06    -277.274E+06    -110.355E+06     1.52218E+06    -224.672E-03     448.715E-03    -224.043E-03     42.2175E-03    -224.941E-03     447.908E-03    -224.025E-03     37.3502E-03
            2001     719.590E-06     35.1261E-03    -118.218E+06    -298.360E+06    -117.900E+06    -269.462E+03    -224.262E-03     448.038E-03    -223.775E-03     22.8578E-03    -224.330E-03     446.969E-03    -223.761E-03     20.2022E-03
            2002     13.6039E-03     37.7108E-03    -4.67486E+06     77.0459E+06     83.4801E+06     24.3671E+03    -230.322E-03     459.422E-03    -229.100E-03     123.364E-03    -237.656E-03     466.771E-03    -228.788E-03     93.6357E-03
            2003     12.8909E-03     37.4916E-03    -7.91505E+06     79.0516E+06     84.7590E+06     504.555E+03    -229.793E-03     458.680E-03    -228.887E-03     182.529E-03    -241.407E-03     470.300E-03    -228.566E-03     145.181E-03
            2004     12.1772E-03     37.2549E-03    -14.2392E+06     69.4776E+06     80.1722E+06     91.5798E+03    -231.027E-03     459.684E-03    -228.658E-03     207.609E-03    -244.545E-03     473.166E-03    -228.337E-03     167.832E-03
            2005     11.4630E-03     36.9665E-03    -22.0130E+06     58.6985E+06     75.7714E+06    -480.407E+03    -233.024E-03     461.416E-03    -228.392E-03     235.868E-03    -248.751E-03     477.054E-03    -228.066E-03     192.991E-03
            2006     10.7500E-03     36.6459E-03    -29.3831E+06     52.8270E+06     70.6660E+06    -541.217E+03    -235.034E-03     463.093E-03    -228.060E-03     252.871E-03    -251.664E-03     479.602E-03    -227.740E-03     208.583E-03
            2007     10.0375E-03     36.3031E-03    -36.9677E+06     49.0089E+06     61.0768E+06    -2.04914E+06    -236.179E-03     463.844E-03    -227.665E-03     259.868E-03    -252.491E-03     480.021E-03    -227.377E-03     215.820E-03
            2008     9.32340E-03     35.9596E-03    -42.9179E+06     43.1569E+06     52.5817E+06    -3.11088E+06    -236.409E-03     463.674E-03    -227.265E-03     254.709E-03    -251.204E-03     478.317E-03    -227.002E-03     212.661E-03
            2009     8.61010E-03     35.6282E-03    -47.9176E+06     35.8617E+06     44.1603E+06    -2.07334E+06    -236.054E-03     462.911E-03    -226.857E-03     241.053E-03    -248.693E-03     475.379E-03    -226.619E-03     202.241E-03
            2010     7.89545E-03     35.3182E-03    -54.3140E+06     11.5446E+06     31.6024E+06    -50.2724E+03    -235.347E-03     461.792E-03    -226.445E-03     223.414E-03    -245.693E-03     471.894E-03    -226.225E-03     188.505E-03
            2011     7.18084E-03     35.0311E-03    -62.3414E+06    -35.5246E+06     14.1788E+06     812.410E+03    -234.452E-03     460.484E-03    -226.032E-03     204.271E-03    -242.657E-03     468.300E-03    -225.819E-03     173.438E-03
            2012     6.46562E-03     34.7691E-03    -70.3516E+06    -89.4494E+06    -4.36018E+06     698.976E+03    -233.182E-03     458.803E-03    -225.622E-03     184.431E-03    -239.510E-03     464.577E-03    -225.412E-03     157.641E-03
            2013     5.74935E-03     34.5333E-03    -77.6358E+06    -129.312E+06    -21.2149E+06     775.122E+03    -231.598E-03     456.819E-03    -225.221E-03     164.301E-03    -236.355E-03     460.903E-03    -225.027E-03     141.415E-03
            2014     5.03237E-03     34.3243E-03    -84.7633E+06    -158.279E+06    -35.9886E+06     985.956E+03    -230.048E-03     454.898E-03    -224.850E-03     144.036E-03    -233.529E-03     457.621E-03    -224.678E-03     124.801E-03
            2015     4.31488E-03     34.1419E-03    -91.7518E+06    -200.249E+06    -49.1983E+06     1.12237E+06    -228.626E-03     453.160E-03    -224.534E-03     123.545E-03    -231.066E-03     454.706E-03    -224.356E-03     107.662E-03
            2016     3.59674E-03     33.9869E-03    -99.0167E+06    -232.019E+06    -63.8092E+06     1.30645E+06    -227.227E-03     451.450E-03    -224.223E-03     102.939E-03    -228.856E-03     452.088E-03    -224.062E-03     90.1585E-03
            2017     2.87814E-03     33.8591E-03    -106.138E+06    -244.138E+06    -80.1759E+06     1.65528E+06    -225.927E-03     449.838E-03    -223.911E-03     82.4633E-03    -226.957E-03     449.857E-03    -223.804E-03     72.5511E-03
            2018     2.15905E-03     33.7597E-03    -112.254E+06    -258.511E+06    -95.6884E+06     1.75487E+06    -224.839E-03     448.490E-03    -223.651E-03     62.0842E-03    -225.426E-03     448.039E-03    -223.592E-03     54.8180E-03
            2019     1.43968E-03     33.6884E-03    -116.404E+06    -274.213E+06    -109.497E+06     1.39555E+06    -223.992E-03     447.452E-03    -223.460E-03     41.8061E-03    -224.265E-03     446.656E-03    -223.441E-03     36.9897E-03
            2020     719.671E-06     33.6446E-03    -118.037E+06    -295.939E+06    -117.560E+06     1.21275E+06    -223.612E-03     446.902E-03    -223.290E-03     22.4698E-03    -223.681E-03     445.844E-03    -223.278E-03     19.8556E-03
            2021     13.6040E-03     36.2053E-03    -3.88875E+06     77.4840E+06     83.2196E+06    -91.6112E+03    -230.601E-03     459.701E-03    -229.100E-03     124.749E-03    -237.962E-03     467.081E-03    -228.791E-03     94.9215E-03
            2022     12.8899E-03     35.9889E-03    -9.55714E+06     76.9731E+06     82.5085E+06    -192.043E+03    -230.473E-03     459.336E-03    -228.863E-03     183.725E-03    -242.102E-03     470.965E-03    -228.548E-03     146.259E-03
            2023     12.1761E-03     35.7508E-03    -15.9198E+06     68.5551E+06     79.2366E+06     918.913E+03    -232.062E-03     460.653E-03    -228.591E-03     207.468E-03    -245.544E-03     474.092E-03    -228.271E-03     167.577E-03
            2024     11.4647E-03     35.4619E-03    -21.2015E+06     60.2698E+06     77.7827E+06     1.45769E+06    -234.133E-03     462.390E-03    -228.257E-03     234.242E-03    -249.756E-03     477.927E-03    -227.925E-03     191.336E-03
            2025     10.7532E-03     35.1422E-03    -26.4085E+06     54.6819E+06     74.1551E+06     620.881E+03    -235.365E-03     463.228E-03    -227.863E-03     251.338E-03    -251.888E-03     479.636E-03    -227.533E-03     207.115E-03
            2026     10.0399E-03     34.8032E-03    -32.0972E+06     53.0838E+06     65.2433E+06     66.3636E+03    -236.226E-03     463.654E-03    -227.427E-03     258.544E-03    -252.450E-03     479.763E-03    -227.132E-03     214.573E-03
            2027     9.32697E-03     34.4600E-03    -39.9273E+06     46.1632E+06     52.1040E+06    -1.50176E+06    -236.495E-03     463.467E-03    -226.973E-03     253.302E-03    -251.204E-03     478.047E-03    -226.721E-03     211.313E-03
            2028     8.61274E-03     34.1307E-03    -49.9070E+06     33.5178E+06     38.6526E+06    -2.82341E+06    -236.122E-03     462.634E-03    -226.512E-03     239.618E-03    -248.675E-03     475.017E-03    -226.295E-03     200.886E-03
            2029     7.89877E-03     33.8221E-03    -58.6359E+06     7.22412E+06     26.8083E+06    -2.44449E+06    -235.371E-03     461.434E-03    -226.064E-03     222.107E-03    -245.642E-03     471.446E-03    -225.855E-03     187.299E-03
            2030     7.18391E-03     33.5369E-03    -65.2892E+06    -37.4056E+06     11.4762E+06    -1.17040E+06    -234.235E-03     459.853E-03    -225.618E-03     203.123E-03    -242.376E-03     467.597E-03    -225.412E-03     172.439E-03
            2031     6.46822E-03     33.2773E-03    -71.5080E+06    -90.2239E+06    -5.68156E+06    -225.974E+03    -232.819E-03     458.008E-03    -225.189E-03     183.306E-03    -239.090E-03     463.721E-03    -224.983E-03     156.689E-03
            2032     5.75185E-03     33.0440E-03    -78.2531E+06    -130.391E+06    -22.1432E+06     624.103E+03    -231.338E-03     456.102E-03    -224.765E-03     163.027E-03    -236.044E-03     460.132E-03    -224.573E-03     140.292E-03
            2033     5.03474E-03     32.8366E-03    -85.2783E+06    -157.605E+06    -37.3762E+06     1.03506E+06    -229.817E-03     454.162E-03    -224.345E-03     142.578E-03    -233.257E-03     456.848E-03    -224.180E-03     123.477E-03
            2034     4.31704E-03     32.6560E-03    -92.1857E+06    -199.917E+06    -50.9408E+06     919.259E+03    -228.319E-03     452.291E-03    -223.973E-03     122.073E-03    -230.727E-03     453.811E-03    -223.804E-03     106.302E-03
            2035     3.59899E-03     32.5027E-03    -98.6177E+06    -232.397E+06    -65.2001E+06     1.28590E+06    -226.789E-03     450.400E-03    -223.611E-03     101.629E-03    -228.392E-03     451.018E-03    -223.457E-03     88.9412E-03
            2036     2.88000E-03     32.3770E-03    -103.909E+06    -243.344E+06    -81.4764E+06     1.57900E+06    -225.313E-03     448.577E-03    -223.264E-03     81.3595E-03    -226.317E-03     448.585E-03    -223.168E-03     71.5307E-03
            2037     2.16036E-03     32.2784E-03    -107.734E+06    -255.783E+06    -96.3638E+06     895.917E+03    -224.140E-03     447.142E-03    -223.002E-03     61.1133E-03    -224.699E-03     446.690E-03    -222.957E-03     53.8948E-03
            2038     1.44034E-03     32.2080E-03    -110.077E+06    -274.081E+06    -105.970E+06     162.943E+03    -223.360E-03     446.205E-03    -222.845E-03     41.1356E-03    -223.603E-03     445.392E-03    -222.818E-03     36.3368E-03
            2039     720.489E-06     32.1649E-03    -110.599E+06    -293.440E+06    -109.419E+06     638.402E+03    -222.979E-03     445.706E-03    -222.727E-03     22.1894E-03    -223.026E-03     444.637E-03    -222.688E-03     19.5881E-03
            2040     13.6000E-03     34.6939E-03    -4.53833E+06     76.0902E+06     81.7121E+06     644.782E+03    -230.599E-03     459.720E-03    -229.121E-03     124.571E-03    -237.966E-03     467.104E-03    -228.816E-03     94.6241E-03
            2041     12.8900E-03     34.4851E-03    -10.7488E+06     75.1128E+06     80.6578E+06     110.848E+03    -232.157E-03     460.979E-03    -228.822E-03     180.740E-03    -243.783E-03     472.599E-03    -228.512E-03     142.726E-03
            2042     12.1789E-03     34.2439E-03    -15.7917E+06     69.2107E+06     79.2489E+06     401.431E+03    -233.283E-03     461.732E-03    -228.448E-03     205.158E-03    -246.657E-03     475.065E-03    -228.129E-03     165.133E-03
            2043     11.4677E-03     33.9560E-03    -20.8544E+06     62.9971E+06     79.0071E+06     299.880E+03    -234.136E-03     462.196E-03    -228.060E-03     232.346E-03    -249.626E-03     477.606E-03    -227.726E-03     189.552E-03
            2044     10.7547E-03     33.6403E-03    -26.3739E+06     55.5851E+06     76.3891E+06    -1.33652E+06    -235.201E-03     462.860E-03    -227.659E-03     250.347E-03    -251.626E-03     479.167E-03    -227.319E-03     206.252E-03
            2045     10.0424E-03     33.3009E-03    -32.8532E+06     51.8414E+06     67.0243E+06    -1.63821E+06    -236.398E-03     463.605E-03    -227.207E-03     258.062E-03    -252.557E-03     479.637E-03    -226.900E-03     214.147E-03
            2046     9.32911E-03     32.9609E-03    -39.6409E+06     46.3494E+06     53.6080E+06     490.124E+03    -236.792E-03     463.502E-03    -226.710E-03     252.641E-03    -251.423E-03     478.002E-03    -226.452E-03     210.774E-03
            2047     8.61586E-03     32.6330E-03    -46.3065E+06     36.9462E+06     41.7739E+06     1.52719E+06    -236.333E-03     462.537E-03    -226.204E-03     238.768E-03    -248.789E-03     474.839E-03    -225.982E-03     200.241E-03
            2048     7.90149E-03     32.3264E-03    -54.3860E+06     8.86735E+06     28.5956E+06     298.103E+03    -235.370E-03     461.080E-03    -225.711E-03     220.963E-03    -245.542E-03     471.008E-03    -225.502E-03     186.360E-03
            2049     7.18657E-03     32.0438E-03    -63.1159E+06    -38.3320E+06     10.7836E+06    -588.614E+03    -234.084E-03     459.308E-03    -225.224E-03     201.582E-03    -242.131E-03     466.964E-03    -225.023E-03     171.089E-03
            2050     6.47073E-03     31.7867E-03    -71.4336E+06    -91.5452E+06    -7.36718E+06    -220.820E+03    -232.729E-03     457.478E-03    -224.749E-03     181.419E-03    -238.921E-03     463.113E-03    -224.549E-03     154.960E-03
            2051     5.75443E-03     31.5549E-03    -78.8404E+06    -131.823E+06    -24.3183E+06     452.064E+03    -231.289E-03     455.546E-03    -224.257E-03     160.874E-03    -235.932E-03     459.511E-03    -224.073E-03     138.266E-03
            2052     5.03764E-03     31.3501E-03    -85.2043E+06    -157.103E+06    -39.1192E+06     733.674E+03    -229.600E-03     453.358E-03    -223.759E-03     140.386E-03    -232.988E-03     456.000E-03    -223.603E-03     121.403E-03
            2053     4.31998E-03     31.1714E-03    -91.2957E+06    -199.358E+06    -51.8638E+06     575.952E+03    -227.835E-03     451.163E-03    -223.328E-03     120.100E-03    -230.202E-03     452.648E-03    -223.166E-03     104.445E-03
            2054     3.60125E-03     31.0203E-03    -97.2944E+06    -232.451E+06    -65.0110E+06     238.773E+03    -226.160E-03     449.095E-03    -222.935E-03     99.9720E-03    -227.733E-03     449.686E-03    -222.782E-03     87.3746E-03
            2055     2.88199E-03     30.8962E-03    -102.697E+06    -242.506E+06    -80.0562E+06     23.9163E+03    -224.669E-03     447.233E-03    -222.565E-03     80.0866E-03    -225.656E-03     447.227E-03    -222.465E-03     70.3166E-03
            2056     2.16213E-03     30.7995E-03    -106.902E+06    -254.748E+06    -95.7807E+06     37.8863E+03    -223.452E-03     445.723E-03    -222.271E-03     60.1989E-03    -224.001E-03     445.266E-03    -222.226E-03     53.0287E-03
            2057     1.44166E-03     30.7298E-03    -109.321E+06    -273.598E+06    -106.847E+06    -85.9160E+03    -222.581E-03     444.684E-03    -222.104E-03     40.5372E-03    -222.815E-03     443.870E-03    -222.083E-03     35.7771E-03
            2058     720.596E-06     30.6870E-03    -110.396E+06    -293.379E+06    -110.475E+06    -512.646E+03    -222.325E-03     444.246E-03    -221.921E-03     21.9607E-03    -222.368E-03     443.177E-03    -221.888E-03     19.3807E-03
            2059     13.6040E-03     33.1886E-03    -4.82166E+06     74.8005E+06     83.2151E+06     1.34139E+06    -231.931E-03     460.974E-03    -229.043E-03     123.289E-03    -239.193E-03     468.242E-03    -228.728E-03     93.4464E-03
            2060     12.8923E-03     32.9733E-03    -8.02454E+06     75.9069E+06     84.4969E+06     1.01247E+06    -232.604E-03     461.299E-03    -228.694E-03     179.913E-03    -244.161E-03     472.852E-03    -228.370E-03     141.829E-03
            2061     12.1826E-03     32.7383E-03    -13.4597E+06     70.1485E+06     81.6939E+06     317.826E+03    -233.561E-03     461.844E-03    -228.283E-03     204.494E-03    -246.888E-03     475.136E-03    -227.957E-03     164.425E-03
            2062     11.4696E-03     32.4526E-03    -19.4889E+06     63.8409E+06     79.5052E+06    -482.321E+03    -233.835E-03     461.714E-03    -227.879E-03     232.344E-03    -249.247E-03     477.053E-03    -227.546E-03     189.699E-03
            2063     10.7575E-03     32.1380E-03    -26.4083E+06     58.5628E+06     74.0146E+06    -380.538E+03    -235.228E-03     462.692E-03    -227.463E-03     250.218E-03    -251.593E-03     478.956E-03    -227.140E-03     206.181E-03
            2064     10.0440E-03     31.8002E-03    -35.1084E+06     52.1386E+06     61.1659E+06    -879.527E+03    -236.632E-03     463.613E-03    -226.981E-03     257.452E-03    -252.703E-03     479.567E-03    -226.699E-03     213.620E-03
            2065     9.33129E-03     31.4605E-03    -42.7296E+06     43.0716E+06     49.7254E+06    -2.06237E+06    -237.043E-03     463.506E-03    -226.463E-03     251.488E-03    -251.573E-03     477.893E-03    -226.215E-03     209.704E-03
            2066     8.61782E-03     31.1352E-03    -49.4431E+06     33.8577E+06     40.0039E+06    -1.25052E+06    -236.589E-03     462.505E-03    -225.917E-03     237.319E-03    -248.957E-03     474.702E-03    -225.694E-03     198.866E-03
            2067     7.90403E-03     30.8308E-03    -56.2672E+06     9.49723E+06     27.1995E+06     774.044E+03    -235.553E-03     460.909E-03    -225.356E-03     218.951E-03    -245.642E-03     470.753E-03    -225.152E-03     184.463E-03
            2068     7.18931E-03     30.5512E-03    -63.9829E+06    -36.3827E+06     10.1219E+06     1.16852E+06    -234.314E-03     459.104E-03    -224.790E-03     199.058E-03    -242.280E-03     466.684E-03    -224.594E-03     168.685E-03
            2069     6.47416E-03     30.2960E-03    -71.3484E+06    -91.1653E+06    -7.64491E+06     411.421E+03    -232.869E-03     457.089E-03    -224.220E-03     178.672E-03    -238.978E-03     462.644E-03    -224.023E-03     152.333E-03
            2070     5.75825E-03     30.0670E-03    -77.8395E+06    -132.194E+06    -24.6701E+06     98.7386E+03    -231.064E-03     454.702E-03    -223.638E-03     158.254E-03    -235.628E-03     458.593E-03    -223.457E-03     135.794E-03
            2071     5.04126E-03     29.8644E-03    -84.0017E+06    -157.589E+06    -39.7324E+06     367.609E+03    -229.089E-03     452.167E-03    -223.078E-03     138.203E-03    -232.418E-03     454.753E-03    -222.927E-03     119.369E-03
            2072     4.32314E-03     29.6890E-03    -90.4548E+06    -198.230E+06    -50.6547E+06     469.723E+03    -227.200E-03     449.815E-03    -222.616E-03     118.304E-03    -229.529E-03     451.267E-03    -222.450E-03     102.787E-03
            2073     3.60422E-03     29.5399E-03    -97.4508E+06    -231.304E+06    -62.0008E+06    -157.167E+03    -225.455E-03     447.659E-03    -222.205E-03     98.4842E-03    -227.007E-03     448.225E-03    -222.038E-03     86.0106E-03
            2074     2.88426E-03     29.4179E-03    -104.882E+06    -242.726E+06    -78.0616E+06    -555.689E+03    -223.913E-03     445.726E-03    -221.812E-03     78.8222E-03    -224.896E-03     445.701E-03    -221.699E-03     69.1507E-03
            2075     2.16367E-03     29.3222E-03    -111.822E+06    -256.479E+06    -94.8810E+06     308.963E+03    -222.669E-03     444.169E-03    -221.500E-03     59.2510E-03    -223.231E-03     443.699E-03    -221.441E-03     52.1708E-03
            2076     1.44270E-03     29.2541E-03    -117.271E+06    -272.048E+06    -109.993E+06     1.36649E+06    -221.796E-03     443.079E-03    -221.283E-03     39.9235E-03    -222.063E-03     442.284E-03    -221.269E-03     35.2449E-03
            2077     721.518E-06     29.2118E-03    -120.888E+06    -291.808E+06    -120.275E+06     1.02624E+06    -221.576E-03     442.499E-03    -220.923E-03     21.7367E-03    -221.658E-03     441.465E-03    -220.926E-03     19.2328E-03
            2078     13.6067E-03     31.6877E-03    -4.73589E+06     74.2698E+06     83.5013E+06    -310.638E+03    -233.314E-03     462.266E-03    -228.952E-03     123.992E-03    -240.509E-03     469.465E-03    -228.635E-03     94.1461E-03
            2079     12.8939E-03     31.4630E-03    -8.74697E+06     74.1902E+06     84.3850E+06     913.069E+03    -232.407E-03     460.994E-03    -228.588E-03     181.793E-03    -243.812E-03     472.388E-03    -228.261E-03     144.265E-03
            2080     12.1820E-03     31.2312E-03    -12.3799E+06     70.7517E+06     84.0014E+06     686.055E+03    -233.031E-03     461.243E-03    -228.212E-03     204.446E-03    -246.289E-03     474.464E-03    -227.877E-03     164.576E-03
            2081     11.4709E-03     30.9491E-03    -18.1928E+06     64.7848E+06     82.3184E+06     529.853E+03    -234.344E-03     462.156E-03    -227.812E-03     232.957E-03    -249.729E-03     477.467E-03    -227.468E-03     190.313E-03
            2082     10.7577E-03     30.6349E-03    -25.0413E+06     58.1670E+06     77.1640E+06     911.846E+03    -236.100E-03     463.455E-03    -227.356E-03     250.098E-03    -252.389E-03     479.639E-03    -227.018E-03     206.077E-03
            2083     10.0463E-03     30.2982E-03    -30.7023E+06     53.7166E+06     66.6816E+06     1.96993E+06    -237.331E-03     464.144E-03    -226.813E-03     256.182E-03    -253.289E-03     479.991E-03    -226.513E-03     212.417E-03
            2084     9.33350E-03     29.9610E-03    -38.1877E+06     46.3101E+06     52.5573E+06     2.47070E+06    -237.541E-03     463.750E-03    -226.209E-03     249.605E-03    -251.944E-03     478.029E-03    -225.958E-03     207.932E-03
            2085     8.62069E-03     29.6370E-03    -48.1912E+06     34.3917E+06     38.1177E+06     1.69447E+06    -236.986E-03     462.556E-03    -225.570E-03     234.691E-03    -249.227E-03     474.638E-03    -225.359E-03     196.334E-03
            2086     7.90720E-03     29.3355E-03    -57.3889E+06     8.71657E+06     25.0992E+06     532.918E+03    -235.892E-03     460.813E-03    -224.921E-03     215.989E-03    -245.868E-03     470.544E-03    -224.725E-03     181.575E-03
            2087     7.19334E-03     29.0581E-03    -64.1339E+06    -35.5080E+06     10.5435E+06     49.9635E+03    -234.511E-03     458.775E-03    -224.264E-03     196.279E-03    -242.382E-03     466.262E-03    -224.067E-03     165.991E-03
            2088     6.47860E-03     28.8060E-03    -70.4442E+06    -90.4444E+06    -5.85494E+06     181.277E+03    -232.736E-03     456.347E-03    -223.611E-03     176.222E-03    -238.762E-03     461.819E-03    -223.407E-03     150.033E-03
            2089     5.76249E-03     28.5805E-03    -77.7204E+06    -132.593E+06    -22.7864E+06     688.460E+03    -230.599E-03     453.569E-03    -222.970E-03     156.179E-03    -235.098E-03     457.387E-03    -222.779E-03     133.915E-03
            2090     5.04487E-03     28.3812E-03    -85.7015E+06    -158.523E+06    -39.3330E+06     1.39325E+06    -228.435E-03     450.804E-03    -222.370E-03     136.356E-03    -231.717E-03     453.334E-03    -222.212E-03     117.728E-03
            2091     4.32631E-03     28.2080E-03    -93.4266E+06    -194.579E+06    -53.1412E+06     700.160E+03    -226.495E-03     448.358E-03    -221.863E-03     116.597E-03    -228.799E-03     449.794E-03    -221.711E-03     101.260E-03
            2092     3.60677E-03     28.0617E-03    -100.474E+06    -229.321E+06    -64.9475E+06    -1.20113E+06    -224.762E-03     446.186E-03    -221.424E-03     97.0213E-03    -226.300E-03     446.741E-03    -221.270E-03     84.6783E-03
            2093     2.88659E-03     27.9414E-03    -106.871E+06    -246.022E+06    -79.9208E+06    -792.268E+03    -223.176E-03     444.189E-03    -221.013E-03     77.5612E-03    -224.143E-03     444.135E-03    -220.901E-03     68.0018E-03
            2094     2.16562E-03     27.8480E-03    -112.352E+06    -258.057E+06    -96.1092E+06     835.480E+03    -221.897E-03     442.568E-03    -220.671E-03     58.2469E-03    -222.446E-03     442.081E-03    -220.615E-03     51.2691E-03
            2095     1.44396E-03     27.7802E-03    -116.203E+06    -271.050E+06    -108.848E+06     1.34269E+06    -221.032E-03     441.449E-03    -220.417E-03     39.2431E-03    -221.292E-03     440.649E-03    -220.399E-03     34.6345E-03
            2096     722.127E-06     27.7388E-03    -117.629E+06    -287.641E+06    -115.850E+06     1.16700E+06    -220.648E-03     440.713E-03    -220.065E-03     21.3983E-03    -220.724E-03     439.687E-03    -220.056E-03     18.9261E-03
            2097     13.6038E-03     30.1736E-03    -4.91582E+06     74.7005E+06     82.3329E+06    -974.407E+03    -233.655E-03     462.606E-03    -228.951E-03     123.407E-03    -240.834E-03     469.794E-03    -228.641E-03     93.4304E-03
            2098     12.8950E-03     29.9583E-03    -10.6993E+06     74.2050E+06     81.3551E+06     109.126E+03    -232.696E-03     461.263E-03    -228.567E-03     181.956E-03    -244.019E-03     472.575E-03    -228.252E-03     144.587E-03
            2099     12.1824E-03     29.7252E-03    -16.0846E+06     69.7168E+06     80.0408E+06     -637.88E+03    -233.265E-03     461.444E-03    -228.179E-03     203.962E-03    -246.435E-03     474.572E-03    -227.857E-03     164.153E-03
            2100     11.4696E-03     29.4435E-03    -21.1448E+06     63.8360E+06     79.3340E+06    -1.30871E+06    -235.168E-03     462.909E-03    -227.741E-03     231.103E-03    -250.468E-03     478.131E-03    -227.406E-03     188.278E-03
            2101     10.7596E-03     29.1293E-03    -27.2666E+06     56.7369E+06     75.4702E+06    -987.644E+03    -236.871E-03     464.089E-03    -227.219E-03     247.967E-03    -253.045E-03     480.149E-03    -226.884E-03     203.878E-03
            2102     10.0478E-03     28.7957E-03    -35.0212E+06     49.9377E+06     64.4017E+06    -657.755E+03    -238.026E-03     464.626E-03    -226.599E-03     254.185E-03    -253.890E-03     480.356E-03    -226.299E-03     210.361E-03
            2103     9.33644E-03     28.4598E-03    -41.8125E+06     43.1978E+06     51.4871E+06     1.44138E+06    -238.309E-03     464.217E-03    -225.907E-03     247.483E-03    -252.614E-03     478.377E-03    -225.652E-03     205.794E-03
            2104     8.62445E-03     28.1388E-03    -46.8757E+06     35.6372E+06     40.8809E+06     3.47174E+06    -237.532E-03     462.705E-03    -225.173E-03     232.207E-03    -249.651E-03     474.666E-03    -224.952E-03     193.944E-03
            2105     7.91178E-03     27.8400E-03    -53.0957E+06     13.2361E+06     29.4627E+06     3.21313E+06    -236.130E-03     460.560E-03    -224.429E-03     213.641E-03    -245.986E-03     470.188E-03    -224.224E-03     179.392E-03
            2106     7.19784E-03     27.5657E-03    -61.9005E+06    -32.7706E+06     12.9732E+06     1.55825E+06    -234.361E-03     458.057E-03    -223.696E-03     194.096E-03    -242.124E-03     465.446E-03    -223.494E-03     164.034E-03
            2107     6.48254E-03     27.3173E-03    -71.1856E+06    -91.1462E+06    -5.27564E+06     1.36183E+06    -232.296E-03     455.291E-03    -222.994E-03     174.128E-03    -238.236E-03     460.670E-03    -222.785E-03     148.187E-03
            2108     5.76600E-03     27.0955E-03    -79.7016E+06    -133.095E+06    -22.4833E+06     2.22631E+06    -230.147E-03     452.460E-03    -222.313E-03     154.102E-03    -234.585E-03     456.208E-03    -222.117E-03     132.063E-03
            2109     5.04851E-03     26.8995E-03    -87.0327E+06    -158.077E+06    -38.9549E+06     2.44177E+06    -227.975E-03     449.635E-03    -221.660E-03     134.245E-03    -231.207E-03     452.110E-03    -221.500E-03     115.821E-03
            2110     4.32958E-03     26.7295E-03    -93.4518E+06    -188.583E+06    -54.8923E+06     928.420E+03    -225.911E-03     446.991E-03    -221.079E-03     114.559E-03    -228.174E-03     448.411E-03    -220.945E-03     99.4154E-03
            2111     3.60978E-03     26.5852E-03    -99.6752E+06    -226.645E+06    -68.1750E+06    -1.48636E+06    -224.078E-03     444.668E-03    -220.590E-03     95.0835E-03    -225.575E-03     445.205E-03    -220.458E-03     82.9026E-03
            2112     2.88893E-03     26.4676E-03    -105.790E+06    -250.931E+06    -81.0500E+06    -1.60850E+06    -222.463E-03     442.616E-03    -220.153E-03     75.8775E-03    -223.393E-03     442.515E-03    -220.041E-03     66.4326E-03
            2113     2.16731E-03     26.3754E-03    -110.562E+06    -259.590E+06    -95.8503E+06    -291.618E+03    -221.140E-03     440.896E-03    -219.756E-03     56.9362E-03    -221.666E-03     440.385E-03    -219.698E-03     50.0391E-03
            2114     1.44539E-03     26.3092E-03    -113.630E+06    -270.518E+06    -109.053E+06     65.2301E+03    -220.127E-03     439.572E-03    -219.445E-03     38.2936E-03    -220.368E-03     438.766E-03    -219.434E-03     33.7315E-03
            2115     722.780E-06     26.2686E-03    -115.132E+06    -285.279E+06    -115.210E+06     150.215E+03    -219.556E-03     438.741E-03    -219.186E-03     20.7656E-03    -219.621E-03     437.721E-03    -219.181E-03     18.3055E-03
            2116     13.6060E-03     28.6645E-03    -3.76177E+06     75.5994E+06     83.8700E+06     524.153E+03    -233.972E-03     462.975E-03    -229.003E-03     121.958E-03    -241.094E-03     470.109E-03    -228.688E-03     92.0534E-03
            2117     12.8925E-03     28.4502E-03    -8.12723E+06     75.8281E+06     82.5090E+06     282.392E+03    -233.452E-03     462.033E-03    -228.581E-03     180.509E-03    -244.715E-03     473.297E-03    -228.267E-03     142.959E-03
            2118     12.1822E-03     28.2176E-03    -13.5074E+06     70.2760E+06     79.6150E+06    -186.770E+03    -234.580E-03     462.699E-03    -228.119E-03     202.533E-03    -247.682E-03     475.771E-03    -227.803E-03     162.478E-03
            2119     11.4735E-03     27.9366E-03    -21.2144E+06     63.1708E+06     76.2704E+06    -296.358E+03    -236.044E-03     463.635E-03    -227.591E-03     229.340E-03    -251.261E-03     478.780E-03    -227.271E-03     186.364E-03
            2120     10.7617E-03     27.6250E-03    -29.6773E+06     56.8095E+06     70.4088E+06     68.1191E+03    -237.470E-03     464.459E-03    -226.988E-03     245.922E-03    -253.540E-03     480.421E-03    -226.676E-03     201.775E-03
            2121     10.0508E-03     27.2921E-03    -37.4049E+06     49.7382E+06     59.0555E+06     41.9154E+03    -238.574E-03     464.868E-03    -226.294E-03     251.985E-03    -254.317E-03     480.484E-03    -226.017E-03     208.144E-03
            2122     9.33975E-03     26.9580E-03    -44.7730E+06     40.8010E+06     47.6753E+06    -1.31138E+06    -238.718E-03     464.254E-03    -225.536E-03     245.245E-03    -252.895E-03     478.279E-03    -225.292E-03     203.573E-03
            2123     8.62829E-03     26.6401E-03    -51.6485E+06     31.0072E+06     37.9824E+06    -1.74880E+06    -237.757E-03     462.495E-03    -224.737E-03     230.118E-03    -249.756E-03     474.310E-03    -224.517E-03     191.923E-03
            2124     7.91548E-03     26.3446E-03    -58.3888E+06     11.4759E+06     26.9716E+06     272.743E+03    -236.160E-03     460.084E-03    -223.924E-03     211.491E-03    -245.903E-03     469.582E-03    -223.721E-03     177.416E-03
            2125     7.20162E-03     26.0743E-03    -65.3155E+06    -31.2254E+06     12.0522E+06     2.12093E+06    -234.178E-03     457.306E-03    -223.128E-03     191.487E-03    -241.831E-03     464.582E-03    -222.928E-03     161.681E-03
            2126     6.48636E-03     25.8302E-03    -72.5112E+06    -90.9837E+06    -5.43014E+06     2.31545E+06    -232.045E-03     454.411E-03    -222.366E-03     171.142E-03    -237.878E-03     459.679E-03    -222.156E-03     145.455E-03
            2127     5.76993E-03     25.6116E-03    -78.9816E+06    -132.945E+06    -22.4335E+06     2.12401E+06    -229.844E-03     451.454E-03    -221.610E-03     150.935E-03    -234.177E-03     455.100E-03    -221.415E-03     129.136E-03
            2128     5.05205E-03     25.4192E-03    -84.6536E+06    -156.345E+06    -38.3101E+06     1.64054E+06    -227.604E-03     448.477E-03    -220.873E-03     131.063E-03    -230.744E-03     450.872E-03    -220.715E-03     112.854E-03
            2129     4.33322E-03     25.2523E-03    -90.2534E+06    -184.133E+06    -52.3688E+06     695.329E+03    -225.395E-03     445.605E-03    -220.210E-03     111.574E-03    -227.587E-03     446.975E-03    -220.074E-03     96.6411E-03
            2130     3.61297E-03     25.1113E-03    -96.3883E+06    -224.070E+06    -65.1633E+06    -283.555E+03    -223.377E-03     443.023E-03    -219.646E-03     92.3937E-03    -224.818E-03     443.515E-03    -219.507E-03     80.4284E-03
            2131     2.89184E-03     24.9958E-03    -102.987E+06    -252.616E+06    -78.7781E+06    -872.143E+03    -221.635E-03     440.777E-03    -219.141E-03     73.6144E-03    -222.521E-03     440.628E-03    -219.020E-03     64.3480E-03
            2132     2.16994E-03     24.9058E-03    -109.369E+06    -261.463E+06    -93.4719E+06    -564.347E+03    -220.147E-03     438.838E-03    -218.691E-03     55.2396E-03    -220.650E-03     438.296E-03    -218.621E-03     48.4687E-03
            2133     1.44700E-03     24.8411E-03    -114.622E+06    -271.633E+06    -106.783E+06     600.613E+03    -219.031E-03     437.381E-03    -218.350E-03     37.1546E-03    -219.270E-03     436.559E-03    -218.324E-03     32.6914E-03
            2134     723.656E-06     24.8018E-03    -118.028E+06    -282.957E+06    -116.387E+06     1.49218E+06    -218.300E-03     436.472E-03    -218.172E-03     20.1352E-03    -218.379E-03     435.466E-03    -218.173E-03     17.7522E-03
            2135     13.6024E-03     27.1551E-03    -3.36113E+06     76.5006E+06     83.1898E+06    -231.158E+03    -235.201E-03     464.247E-03    -229.046E-03     120.408E-03    -242.274E-03     471.338E-03    -228.736E-03     90.3596E-03
            2136     12.8945E-03     26.9397E-03    -7.51982E+06     75.7176E+06     83.8992E+06    -101.508E+03    -234.798E-03     463.358E-03    -228.561E-03     178.893E-03    -245.996E-03     474.556E-03    -228.240E-03     141.148E-03
            2137     12.1851E-03     26.7086E-03    -13.8832E+06     68.0134E+06     80.4168E+06     1.15769E+06    -235.512E-03     463.540E-03    -228.028E-03     201.532E-03    -248.511E-03     476.498E-03    -227.705E-03     161.476E-03
            2138     11.4734E-03     26.4283E-03    -20.6149E+06     64.3327E+06     78.5768E+06     2.39899E+06    -236.878E-03     464.318E-03    -227.439E-03     228.304E-03    -251.989E-03     479.356E-03    -227.110E-03     185.356E-03
            2139     10.7646E-03     26.1189E-03    -26.2807E+06     57.4527E+06     74.2187E+06     2.20259E+06    -238.304E-03     465.074E-03    -226.771E-03     244.808E-03    -254.274E-03     480.941E-03    -226.445E-03     200.618E-03
            2140     10.0545E-03     25.7883E-03    -31.6973E+06     50.5256E+06     64.0264E+06     2.49177E+06    -239.312E-03     465.315E-03    -226.003E-03     250.820E-03    -254.921E-03     480.805E-03    -225.710E-03     207.018E-03
            2141     9.34379E-03     25.4568E-03    -38.7713E+06     45.3864E+06     52.2619E+06     3.03860E+06    -239.163E-03     464.326E-03    -225.163E-03     243.374E-03    -253.161E-03     478.196E-03    -224.911E-03     201.896E-03
            2142     8.63191E-03     25.1416E-03    -47.7374E+06     33.5261E+06     38.3054E+06     1.98913E+06    -238.063E-03     462.337E-03    -224.273E-03     227.340E-03    -249.856E-03     473.968E-03    -224.061E-03     189.410E-03
            2143     7.91959E-03     24.8499E-03    -56.8795E+06     9.43760E+06     24.8735E+06     607.991E+03    -236.345E-03     459.717E-03    -223.372E-03     207.781E-03    -245.873E-03     469.005E-03    -223.179E-03     173.979E-03
            2144     7.20587E-03     24.5837E-03    -64.1303E+06    -32.8519E+06     11.1759E+06     649.034E+03    -234.281E-03     456.764E-03    -222.483E-03     187.262E-03    -241.735E-03     463.841E-03    -222.286E-03     157.725E-03
            2145     6.49108E-03     24.3434E-03    -70.0296E+06    -90.1419E+06    -3.83239E+06     1.10547E+06    -232.092E-03     453.702E-03    -221.610E-03     166.638E-03    -237.745E-03     458.798E-03    -221.397E-03     141.231E-03
            2146     5.77478E-03     24.1293E-03    -76.0895E+06    -132.598E+06    -20.1867E+06     1.17400E+06    -229.704E-03     450.431E-03    -220.728E-03     146.285E-03    -233.877E-03     453.923E-03    -220.526E-03     124.787E-03
            2147     5.05717E-03     23.9405E-03    -82.4748E+06    -154.640E+06    -36.1060E+06     971.944E+03    -227.167E-03     447.029E-03    -219.862E-03     126.425E-03    -230.178E-03     449.303E-03    -219.699E-03     108.530E-03
            2148     4.33790E-03     23.7775E-03    -88.8493E+06    -182.101E+06    -50.6289E+06     402.175E+03    -224.694E-03     443.773E-03    -219.079E-03     107.182E-03    -226.788E-03     445.053E-03    -218.940E-03     92.5493E-03
            2149     3.61740E-03     23.6398E-03    -94.8957E+06    -222.894E+06    -63.2490E+06     162.783E+03    -222.437E-03     440.851E-03    -218.414E-03     88.5680E-03    -223.806E-03     441.275E-03    -218.269E-03     76.8894E-03
            2150     2.89557E-03     23.5271E-03    -101.061E+06    -252.625E+06    -76.5395E+06     370.992E+03    -220.449E-03     438.285E-03    -217.836E-03     70.5152E-03    -221.282E-03     438.084E-03    -217.706E-03     61.5166E-03
            2151     2.17247E-03     23.4395E-03    -107.258E+06    -262.464E+06    -91.2930E+06     715.260E+03    -218.821E-03     436.165E-03    -217.343E-03     52.8673E-03    -219.289E-03     435.584E-03    -217.264E-03     46.3101E-03
            2152     1.44875E-03     23.3766E-03    -112.125E+06    -272.265E+06    -103.979E+06     1.08851E+06    -217.694E-03     434.664E-03    -216.970E-03     35.4877E-03    -217.911E-03     433.818E-03    -216.932E-03     31.1737E-03
            2153     724.563E-06     23.3380E-03    -114.509E+06    -279.414E+06    -112.052E+06     968.243E+03    -216.798E-03     433.655E-03    -216.856E-03     18.9680E-03    -216.867E-03     432.651E-03    -216.845E-03     16.6576E-03
            2154     13.6040E-03     25.6370E-03    -5.80112E+06     75.8996E+06     80.9801E+06    -732.736E+03    -235.934E-03     465.009E-03    -229.075E-03     119.913E-03    -243.020E-03     472.108E-03    -228.771E-03     89.6643E-03
            2155     12.8950E-03     25.4296E-03    -11.7353E+06     72.9908E+06     80.2131E+06    -996.709E+03    -235.870E-03     464.405E-03    -228.535E-03     178.473E-03    -247.072E-03     475.592E-03    -228.222E-03     140.471E-03
            2156     12.1844E-03     25.1982E-03    -16.2940E+06     66.5783E+06     78.6314E+06     381.855E+03    -236.490E-03     464.437E-03    -227.947E-03     201.555E-03    -249.402E-03     477.300E-03    -227.627E-03     161.498E-03
            2157     11.4770E-03     24.9194E-03    -19.6349E+06     64.9021E+06     80.4151E+06     575.581E+03    -237.609E-03     464.924E-03    -227.315E-03     227.685E-03    -252.611E-03     479.853E-03    -226.979E-03     184.713E-03
            2158     10.7664E-03     24.6122E-03    -24.5384E+06     56.3953E+06     77.2922E+06     732.406E+03    -239.181E-03     465.776E-03    -226.595E-03     244.470E-03    -255.046E-03     481.530E-03    -226.255E-03     200.226E-03
            2159     10.0567E-03     24.2824E-03    -31.5672E+06     48.2269E+06     66.5964E+06     1.95541E+06    -240.501E-03     466.243E-03    -225.742E-03     249.427E-03    -255.945E-03     481.554E-03    -225.433E-03     205.627E-03
            2160     9.34669E-03     23.9548E-03    -38.2050E+06     44.5589E+06     54.5448E+06     3.52778E+06    -240.361E-03     465.136E-03    -224.774E-03     240.343E-03    -254.129E-03     478.767E-03    -224.511E-03     198.963E-03
            2161     8.63649E-03     23.6426E-03    -44.1434E+06     36.0849E+06     41.8970E+06     4.89198E+06    -239.021E-03     462.757E-03    -223.735E-03     222.930E-03    -250.528E-03     474.113E-03    -223.514E-03     185.263E-03
            2162     7.92482E-03     23.3554E-03    -50.8299E+06     14.6989E+06     28.6732E+06     4.40313E+06    -237.067E-03     459.734E-03    -222.666E-03     202.273E-03    -246.288E-03     468.743E-03    -222.471E-03     168.837E-03
            2163     7.21202E-03     23.0936E-03    -58.5323E+06    -30.0166E+06     12.8973E+06     2.22879E+06    -234.839E-03     456.430E-03    -221.591E-03     180.946E-03    -241.986E-03     463.225E-03    -221.398E-03     151.816E-03
            2164     6.49753E-03     22.8580E-03    -66.2735E+06    -89.6434E+06    -2.01449E+06     1.23645E+06    -232.325E-03     452.854E-03    -220.529E-03     159.713E-03    -237.696E-03     457.678E-03    -220.313E-03     134.760E-03
            2165     5.78179E-03     22.6482E-03    -73.4274E+06    -131.719E+06    -16.7566E+06     1.18264E+06    -229.502E-03     448.962E-03    -219.460E-03     139.195E-03    -233.440E-03     452.220E-03    -219.246E-03     118.180E-03
            2166     5.06410E-03     22.4645E-03    -79.9456E+06    -153.683E+06    -33.8070E+06     1.17559E+06    -226.542E-03     444.946E-03    -218.404E-03     119.621E-03    -229.358E-03     447.030E-03    -218.234E-03     102.232E-03
            2167     4.34469E-03     22.3057E-03    -86.1354E+06    -180.390E+06    -49.7841E+06     1.15800E+06    -223.698E-03     441.143E-03    -217.445E-03     100.824E-03    -225.636E-03     442.280E-03    -217.308E-03     86.6900E-03
            2168     3.62342E-03     22.1721E-03    -92.5928E+06    -222.149E+06    -62.1652E+06     919.134E+03    -221.117E-03     437.751E-03    -216.633E-03     82.8058E-03    -222.373E-03     438.069E-03    -216.488E-03     71.5698E-03
            2169     2.90058E-03     22.0629E-03    -98.9897E+06    -252.838E+06    -74.5385E+06     985.309E+03    -218.868E-03     434.795E-03    -215.927E-03     65.4430E-03    -219.623E-03     434.517E-03    -215.790E-03     56.8178E-03
            2170     2.17662E-03     21.9778E-03    -104.457E+06    -261.744E+06    -88.0764E+06     820.414E+03    -217.013E-03     432.330E-03    -215.317E-03     48.6573E-03    -217.429E-03     431.702E-03    -215.227E-03     42.3962E-03
            2171     1.45167E-03     21.9164E-03    -108.777E+06    -271.132E+06    -100.357E+06     361.693E+03    -215.641E-03     430.498E-03    -214.857E-03     32.5122E-03    -215.828E-03     429.627E-03    -214.808E-03     28.3898E-03
            2172     726.097E-06     21.8792E-03    -112.057E+06    -277.892E+06    -109.878E+06     34.7964E+03    -214.606E-03     429.337E-03    -214.731E-03     17.2481E-03    -214.661E-03     428.327E-03    -214.715E-03     15.0419E-03
            2173     13.6018E-03     24.1212E-03    -5.66419E+06     75.6291E+06     81.0163E+06     767.877E+03    -235.799E-03     464.893E-03    -229.094E-03     119.330E-03    -242.782E-03     471.889E-03    -228.790E-03     89.3675E-03
            2174     12.8932E-03     23.9167E-03    -9.83351E+06     74.7190E+06     80.6698E+06     137.088E+03    -236.344E-03     464.887E-03    -228.544E-03     177.553E-03    -247.447E-03     475.988E-03    -228.235E-03     139.576E-03
            2175     12.1867E-03     23.6849E-03    -14.3847E+06     68.2003E+06     78.5066E+06    -947.275E+03    -237.418E-03     465.331E-03    -227.913E-03     200.824E-03    -250.251E-03     478.127E-03    -227.598E-03     160.638E-03
            2176     11.4760E-03     23.4105E-03    -20.3188E+06     62.0106E+06     77.3501E+06    -849.554E+03    -238.712E-03     465.922E-03    -227.211E-03     227.202E-03    -253.622E-03     480.757E-03    -226.885E-03     184.064E-03
            2177     10.7676E-03     23.1028E-03    -28.0730E+06     54.1186E+06     72.0608E+06     529.082E+03    -240.922E-03     467.299E-03    -226.377E-03     242.300E-03    -256.603E-03     482.864E-03    -226.054E-03     197.870E-03
            2178     10.0595E-03     22.7756E-03    -35.5994E+06     47.4144E+06     60.6890E+06     591.739E+03    -242.293E-03     467.651E-03    -225.358E-03     245.053E-03    -257.436E-03     482.660E-03    -225.071E-03     201.156E-03
            2179     9.35169E-03     22.4500E-03    -41.6952E+06     41.1935E+06     50.2807E+06    -138.690E+03    -242.118E-03     466.317E-03    -224.199E-03     234.403E-03    -255.510E-03     479.561E-03    -223.947E-03     193.049E-03
            2180     8.64270E-03     22.1434E-03    -48.0246E+06     32.2125E+06      40.203E+06     598.297E+03    -240.660E-03     463.594E-03    -222.935E-03     215.562E-03    -251.743E-03     474.505E-03    -222.711E-03     178.105E-03
            2181     7.93261E-03     21.8604E-03    -53.8822E+06     15.9224E+06     29.2906E+06     1.77453E+06    -238.420E-03     460.018E-03    -221.598E-03     193.628E-03    -247.205E-03     468.584E-03    -221.397E-03     160.605E-03
            2182     7.22110E-03     21.6040E-03    -60.3896E+06    -26.9713E+06     13.4800E+06     2.42134E+06    -235.765E-03     455.989E-03    -220.224E-03     171.277E-03    -242.491E-03     462.367E-03    -220.030E-03     142.734E-03
            2183     6.50821E-03     21.3739E-03    -67.4826E+06    -86.0081E+06    -3.33104E+06     1.38845E+06    -232.643E-03     451.494E-03    -218.850E-03     149.526E-03    -237.627E-03     455.943E-03    -218.644E-03     125.284E-03
            2184     5.79274E-03     21.1704E-03    -73.6802E+06    -130.197E+06    -17.7084E+06    -421.291E+03    -229.164E-03     446.657E-03    -217.494E-03     128.939E-03    -232.764E-03     449.586E-03    -217.286E-03     108.672E-03
            2185     5.07499E-03     20.9921E-03    -79.1907E+06    -156.161E+06    -34.2540E+06     206.650E+03    -225.604E-03     441.774E-03    -216.171E-03     109.594E-03    -228.139E-03     443.574E-03    -216.001E-03     92.9514E-03
            2186     4.35497E-03     20.8387E-03    -84.8075E+06    -179.432E+06    -50.4677E+06     1.76131E+06    -222.198E-03     437.151E-03    -214.952E-03     91.4475E-03    -223.923E-03     438.083E-03    -214.822E-03     78.0414E-03
            2187     3.63292E-03     20.7098E-03    -90.6755E+06    -220.003E+06    -60.9068E+06     1.78062E+06    -219.208E-03     433.119E-03    -213.910E-03     74.4437E-03    -220.312E-03     433.296E-03    -213.764E-03     63.8499E-03
            2188     2.90917E-03     20.6046E-03    -96.6930E+06    -251.143E+06    -70.5850E+06     831.799E+03    -216.564E-03     429.553E-03    -212.989E-03     58.3853E-03    -217.221E-03     429.180E-03    -212.838E-03     50.2765E-03
            2189     2.18364E-03     20.5228E-03    -102.600E+06    -260.436E+06    -84.6959E+06     215.089E+03    -214.268E-03     426.441E-03    -212.172E-03     43.2146E-03    -214.627E-03     425.756E-03    -212.070E-03     37.3625E-03
            2190     1.45660E-03     20.4642E-03    -107.768E+06    -270.368E+06    -98.8684E+06    -64.5161E+03    -212.499E-03     424.051E-03    -211.553E-03     28.6529E-03    -212.658E-03     423.154E-03    -211.499E-03     24.8211E-03
            2191     728.367E-06     20.4285E-03    -111.211E+06    -277.896E+06    -108.528E+06    -22.7284E+03    -211.229E-03     422.582E-03    -211.353E-03     15.1528E-03    -211.273E-03     421.560E-03    -211.331E-03     13.1169E-03
            2192     13.6038E-03     22.6149E-03    -2.94128E+06     76.9858E+06     82.5272E+06     1.37967E+06    -236.906E-03     466.047E-03    -229.141E-03     119.686E-03    -243.822E-03     472.986E-03    -228.835E-03     89.8153E-03
            2193     12.8943E-03     22.3975E-03    -7.90915E+06     76.4746E+06     82.2855E+06     1.13703E+06    -236.638E-03     465.199E-03    -228.561E-03     177.590E-03    -247.711E-03     476.277E-03    -228.249E-03     139.554E-03
            2194     12.1848E-03     22.1750E-03    -14.7333E+06     67.9701E+06     77.7794E+06    -164.099E+03    -238.293E-03     466.181E-03    -227.888E-03     199.829E-03    -251.083E-03     478.935E-03    -227.576E-03     159.352E-03
            2195     11.4778E-03     21.8972E-03    -20.9069E+06     60.1510E+06     75.5795E+06     728.445E+03    -241.228E-03     468.297E-03    -227.068E-03     225.302E-03    -255.967E-03     482.956E-03    -226.747E-03     181.817E-03
            2196     10.7716E-03     21.5913E-03    -26.5343E+06     52.6748E+06     72.3774E+06     1.37319E+06    -243.981E-03     470.012E-03    -226.031E-03     238.021E-03    -259.333E-03     485.246E-03    -225.707E-03     193.260E-03
            2197     10.0660E-03     21.2662E-03    -32.1766E+06     49.1731E+06     63.6432E+06     1.44931E+06    -245.288E-03     470.033E-03    -224.745E-03     238.536E-03    -259.937E-03     484.558E-03    -224.451E-03     194.555E-03
            2198     9.35965E-03     20.9448E-03    -39.7896E+06     43.0487E+06     51.9531E+06     975.970E+03    -244.935E-03     468.197E-03    -223.263E-03     225.386E-03    -257.691E-03     480.815E-03    -223.008E-03     184.279E-03
            2199     8.65336E-03     20.6420E-03    -47.4521E+06     31.9315E+06     40.2969E+06    -112.421E+03    -243.197E-03     464.824E-03    -221.628E-03     204.277E-03    -253.589E-03     475.045E-03    -221.404E-03     167.310E-03
            2200     7.94589E-03     20.3659E-03    -54.7102E+06     13.7309E+06     28.8404E+06    -386.870E+03    -240.403E-03     460.287E-03    -219.885E-03     180.935E-03    -248.520E-03     468.176E-03    -219.681E-03     148.611E-03
            2201     7.23642E-03     20.1155E-03    -61.4524E+06    -27.6961E+06     13.1399E+06     656.373E+03    -236.855E-03     454.944E-03    -218.089E-03     157.771E-03    -242.976E-03     460.712E-03    -217.894E-03     130.123E-03
            2202     6.52417E-03     19.8931E-03    -67.3254E+06    -79.7278E+06    -3.88978E+06     142.857E+03    -232.816E-03     449.109E-03    -216.293E-03     135.768E-03    -237.284E-03     453.067E-03    -216.099E-03     112.533E-03
            2203     5.80947E-03     19.6967E-03    -73.7194E+06    -127.792E+06    -18.9544E+06    -1.52249E+06    -228.496E-03     443.043E-03    -214.546E-03     115.561E-03    -231.675E-03     445.561E-03    -214.349E-03     96.3151E-03
            2204     5.09191E-03     19.5258E-03    -80.5205E+06    -160.583E+06    -34.4728E+06    -914.400E+03    -224.103E-03     436.975E-03    -212.872E-03     97.1694E-03    -226.316E-03     438.433E-03    -212.695E-03     81.4928E-03
            2205     4.37117E-03     19.3793E-03    -86.7383E+06    -181.241E+06    -50.7011E+06     1.23192E+06    -219.952E-03     431.266E-03    -211.314E-03     80.3622E-03    -221.449E-03     431.959E-03    -211.179E-03     67.8436E-03
            2206     3.64760E-03     19.2558E-03    -92.3427E+06    -215.559E+06    -63.6296E+06     1.28997E+06    -216.265E-03     426.216E-03    -209.951E-03     64.9565E-03    -217.219E-03     426.261E-03    -209.823E-03     55.1401E-03
            2207     2.92156E-03     19.1557E-03    -97.6372E+06    -247.979E+06    -73.5944E+06    -811.602E+03    -213.014E-03     421.792E-03    -208.778E-03     50.6298E-03    -213.575E-03     421.338E-03    -208.645E-03     43.1396E-03
            2208     2.19323E-03     19.0785E-03    -102.315E+06    -261.973E+06    -85.8498E+06    -1.06758E+06    -210.254E-03     418.030E-03    -207.777E-03     37.3344E-03    -210.552E-03     417.283E-03    -207.678E-03     31.9446E-03
            2209     1.46332E-03     19.0229E-03    -106.191E+06    -270.222E+06    -98.6552E+06    -56.6815E+03    -208.171E-03     415.173E-03    -207.002E-03     24.6661E-03    -208.298E-03     414.247E-03    -206.949E-03     21.1661E-03
            2210     732.222E-06     18.9899E-03    -109.093E+06    -277.577E+06    -107.437E+06    -38.9818E+03    -206.658E-03     413.330E-03    -206.672E-03     13.1060E-03    -206.686E-03     412.297E-03    -206.649E-03     11.2429E-03
            2211     13.6000E-03     21.0919E-03    -4.89209E+06     74.6126E+06     81.4204E+06     55.9449E+03    -237.772E-03     467.011E-03    -229.239E-03     119.402E-03    -244.720E-03     473.970E-03    -228.933E-03     89.3207E-03
            2212     12.8935E-03     20.8881E-03    -8.84568E+06     75.4135E+06     81.5120E+06     83.3732E+03    -238.168E-03     466.764E-03    -228.596E-03     178.184E-03    -249.285E-03     477.881E-03    -228.285E-03     139.714E-03
            2213     12.1859E-03     20.6580E-03    -13.1746E+06     68.7874E+06     78.5659E+06     1.30962E+06    -241.218E-03     469.012E-03    -227.793E-03     198.515E-03    -253.883E-03     481.646E-03    -227.481E-03     157.574E-03
            2214     11.4804E-03     20.3811E-03    -19.2841E+06     60.5260E+06     76.2422E+06     1.77081E+06    -245.132E-03     471.877E-03    -226.745E-03     221.480E-03    -259.534E-03     486.205E-03    -226.424E-03     177.498E-03
            2215     10.7771E-03     20.0740E-03    -25.3803E+06     53.7803E+06     73.4106E+06     1.16949E+06    -248.255E-03     473.648E-03    -225.393E-03     231.360E-03    -263.040E-03     488.321E-03    -225.067E-03     186.272E-03
            2216     10.0749E-03     19.7532E-03    -32.3304E+06     49.1288E+06     64.8380E+06     871.224E+03    -249.938E-03     473.642E-03    -223.704E-03     228.362E-03    -263.794E-03     487.371E-03    -223.404E-03     184.379E-03
            2217     9.37362E-03     19.4356E-03    -38.0046E+06     43.8059E+06     55.3362E+06     1.01705E+06    -249.234E-03     470.971E-03    -221.737E-03     211.996E-03    -261.056E-03     482.655E-03    -221.469E-03     171.331E-03
            2218     8.67093E-03     19.1405E-03    -43.7856E+06     34.1767E+06     43.7958E+06     1.16594E+06    -246.510E-03     466.075E-03    -219.565E-03     188.861E-03    -255.963E-03     475.369E-03    -219.333E-03     152.727E-03
            2219     7.96628E-03     18.8708E-03    -50.9654E+06     14.9995E+06     29.8529E+06     931.300E+03    -242.580E-03     459.853E-03    -217.272E-03     164.465E-03    -249.838E-03     466.898E-03    -217.071E-03     133.233E-03
            2220     7.25892E-03     18.6305E-03    -57.8739E+06    -26.3694E+06     13.6881E+06     190.428E+03    -237.773E-03     452.723E-03    -214.949E-03     141.035E-03    -243.159E-03     457.772E-03    -214.759E-03     114.608E-03
            2221     6.54829E-03     18.4168E-03    -64.5422E+06    -75.8856E+06    -2.59897E+06    -97.9513E+03    -232.452E-03     445.115E-03    -212.663E-03     119.633E-03    -236.331E-03     448.505E-03    -212.472E-03     97.6843E-03
            2222     5.83370E-03     18.2302E-03    -71.7214E+06    -125.202E+06    -16.6010E+06     180.469E+03    -227.014E-03     437.491E-03    -210.477E-03     100.554E-03    -229.743E-03     439.570E-03    -210.275E-03     82.5809E-03
            2223     5.11486E-03     18.0682E-03    -79.5018E+06    -161.959E+06    -31.8271E+06     328.523E+03    -221.688E-03     430.094E-03    -208.405E-03     83.6359E-03    -223.568E-03     431.209E-03    -208.214E-03     69.1267E-03
            2224     4.39246E-03     17.9297E-03    -86.3008E+06    -183.417E+06    -49.6821E+06     944.661E+03    -216.649E-03     423.126E-03    -206.477E-03     68.5914E-03    -217.911E-03     423.574E-03    -206.335E-03     57.0875E-03
            2225     3.66659E-03     17.8139E-03    -91.5206E+06    -210.261E+06    -66.5926E+06     803.729E+03    -212.084E-03     416.866E-03    -204.781E-03     55.0600E-03    -212.884E-03     416.786E-03    -204.677E-03     46.1049E-03
            2226     2.93741E-03     17.7200E-03    -96.4332E+06    -243.959E+06    -78.9498E+06    -1.14450E+06    -208.174E-03     411.545E-03    -203.371E-03     42.6829E-03    -208.632E-03     411.022E-03    -203.273E-03     35.8882E-03
            2227     2.20576E-03     17.6479E-03    -101.448E+06    -265.702E+06    -89.3484E+06    -1.65981E+06    -204.997E-03     407.229E-03    -202.232E-03     31.3478E-03    -205.229E-03     406.414E-03    -202.146E-03     26.4628E-03
            2228     1.47162E-03     17.5966E-03    -105.149E+06    -271.529E+06    -98.8705E+06    -393.624E+03    -202.614E-03     403.987E-03    -201.373E-03     20.7121E-03    -202.711E-03     403.030E-03    -201.321E-03     17.5475E-03
            2229     736.075E-06     17.5653E-03    -107.181E+06    -276.925E+06    -105.676E+06     78.6234E+03    -201.054E-03     402.004E-03    -200.950E-03     10.9138E-03    -201.069E-03     400.960E-03    -200.921E-03     9.23388E-03
            2230     13.6000E-03     19.5800E-03    -4.94993E+06     74.3124E+06     79.6528E+06    -862.367E+03    -238.201E-03     467.500E-03    -229.299E-03     118.528E-03    -245.121E-03     474.435E-03    -229.001E-03     88.1746E-03
            2231     12.8914E-03     19.3662E-03    -9.42227E+06     73.7564E+06     79.6722E+06    -734.318E+03    -241.173E-03     469.735E-03    -228.561E-03     176.659E-03    -252.168E-03     480.727E-03    -228.256E-03     137.709E-03
            2232     12.1887E-03     19.1388E-03    -14.0899E+06     67.8721E+06     78.0845E+06     1.39280E+06    -246.176E-03     473.703E-03    -227.527E-03     196.437E-03    -258.582E-03     486.074E-03    -227.215E-03     154.867E-03
            2233     11.4878E-03     18.8582E-03    -19.2661E+06     61.8702E+06     77.7166E+06     1.33615E+06    -251.162E-03     477.279E-03    -226.117E-03     215.845E-03    -265.038E-03     491.081E-03    -225.790E-03     171.192E-03
            2234     10.7888E-03     18.5542E-03    -24.9324E+06     53.8649E+06     74.6784E+06     1.09786E+06    -254.912E-03     479.183E-03    -224.271E-03     220.797E-03    -268.802E-03     492.960E-03    -223.939E-03     175.412E-03
            2235     10.0921E-03     18.2335E-03    -30.4018E+06     50.7248E+06     66.3167E+06     675.237E+03    -256.124E-03     478.104E-03    -221.979E-03     213.151E-03    -268.847E-03     490.708E-03    -221.677E-03     169.372E-03
            2236     9.39550E-03     17.9242E-03    -37.0262E+06     44.0876E+06     54.3186E+06    -108.636E+03    -254.134E-03     473.488E-03    -219.354E-03     194.115E-03    -264.794E-03     484.018E-03    -219.093E-03     154.136E-03
            2237     8.69725E-03     17.6373E-03    -43.9894E+06     32.9361E+06     41.9776E+06     239.915E+03    -249.934E-03     466.465E-03    -216.531E-03     169.962E-03    -258.313E-03     474.686E-03    -216.305E-03     134.947E-03
            2238     7.99582E-03     17.3793E-03    -50.5273E+06     17.1676E+06     30.4574E+06     638.693E+03    -244.343E-03     457.964E-03    -213.621E-03     145.305E-03    -250.673E-03     464.090E-03    -213.420E-03     115.490E-03
            2239     7.29018E-03     17.1494E-03    -57.4918E+06    -22.6093E+06     14.3352E+06     333.252E+03    -237.943E-03     448.664E-03    -210.721E-03     122.389E-03    -242.576E-03     452.973E-03    -210.533E-03     97.5002E-03
            2240     6.57963E-03     16.9488E-03    -65.0504E+06    -75.1275E+06    -3.72118E+06     803.033E+03    -231.224E-03     439.134E-03    -207.910E-03     102.115E-03    -234.516E-03     441.942E-03    -207.726E-03     81.6985E-03
            2241     5.86396E-03     16.7731E-03    -72.2244E+06    -122.239E+06    -18.6969E+06     1.08775E+06    -224.544E-03     429.794E-03    -205.251E-03     84.4214E-03    -226.831E-03     431.447E-03    -205.062E-03     67.8981E-03
            2242     5.14405E-03     16.6222E-03    -78.0983E+06    -159.938E+06    -32.6673E+06     364.079E+03    -218.112E-03     420.888E-03    -202.775E-03     69.1659E-03    -219.664E-03     421.688E-03    -202.593E-03     55.9523E-03
            2243     4.41915E-03     16.4938E-03    -83.1490E+06    -184.947E+06    -49.7502E+06     732.932E+03    -212.083E-03     412.596E-03    -200.512E-03     56.1536E-03    -213.103E-03     412.807E-03    -200.372E-03     45.7695E-03
            2244     3.68978E-03     16.3869E-03    -88.2169E+06    -207.359E+06    -67.1904E+06     1.70285E+06    -206.708E-03     405.247E-03    -198.540E-03     44.7145E-03    -207.347E-03     405.030E-03    -198.447E-03     36.7140E-03
            2245     2.95660E-03     16.3007E-03    -93.2053E+06    -239.746E+06    -79.3230E+06     1.62453E+06    -202.216E-03     399.147E-03    -196.932E-03     34.4266E-03    -202.573E-03     398.550E-03    -196.846E-03     28.4220E-03
            2246     2.22004E-03     16.2344E-03    -98.3266E+06    -266.161E+06    -88.4469E+06     835.867E+03    -198.672E-03     394.338E-03    -195.666E-03     25.0477E-03    -198.840E-03     393.465E-03    -195.579E-03     20.7485E-03
            2247     1.48151E-03     16.1875E-03    -102.856E+06    -272.246E+06    -97.4332E+06     204.217E+03    -196.051E-03     390.769E-03    -194.719E-03     16.4035E-03    -196.115E-03     389.780E-03    -194.662E-03     13.6048E-03
            2248     741.169E-06     16.1589E-03    -105.452E+06    -276.389E+06    -104.081E+06    -252.528E+03    -194.398E-03     388.605E-03    -194.208E-03     8.57598E-03    -194.401E-03     387.552E-03    -194.175E-03     7.08793E-03
            2249     13.5982E-03     18.0556E-03    -4.07785E+06     75.2990E+06     80.2396E+06    -177.363E+03    -240.604E-03     469.923E-03    -229.319E-03     121.849E-03    -247.596E-03     476.935E-03    -229.021E-03     90.9005E-03
            2250     12.8961E-03     17.8488E-03    -10.2854E+06     73.0942E+06     78.5986E+06     856.122E+03    -246.563E-03     474.931E-03    -228.368E-03     176.893E-03    -257.454E-03     485.817E-03    -228.066E-03     137.072E-03
            2251     12.1937E-03     17.6079E-03    -15.4388E+06     66.1813E+06     76.5259E+06     409.868E+03    -253.723E-03     480.667E-03    -226.944E-03     192.484E-03    -265.741E-03     492.643E-03    -226.635E-03     149.802E-03
            2252     11.4984E-03     17.3284E-03    -20.3237E+06     62.4030E+06     77.2310E+06    -508.113E+03    -260.004E-03     484.968E-03    -224.965E-03     205.447E-03    -273.092E-03     497.983E-03    -224.640E-03     159.785E-03
            2253     10.8076E-03     17.0217E-03    -25.4901E+06     54.2058E+06     75.5771E+06    -1.50376E+06    -263.294E-03     485.716E-03    -222.422E-03     205.242E-03    -276.020E-03     498.327E-03    -222.086E-03     159.606E-03
            2254     10.1185E-03     16.7099E-03    -30.3394E+06     48.7750E+06      67.511E+06    -1.80214E+06    -262.768E-03     482.158E-03    -219.390E-03     194.462E-03    -274.177E-03     493.440E-03    -219.079E-03     151.210E-03
            2255     9.42747E-03     16.4100E-03    -36.0018E+06     43.2798E+06     55.4063E+06    -191.246E+03    -259.004E-03     475.030E-03    -216.026E-03     173.852E-03    -268.393E-03     484.288E-03    -215.760E-03     134.994E-03
            2256     8.73299E-03     16.1361E-03    -42.6960E+06     32.8009E+06     42.2342E+06     590.211E+03    -252.982E-03     465.470E-03    -212.488E-03     148.972E-03    -260.230E-03     472.565E-03    -212.263E-03     115.469E-03
            2257     8.03383E-03     15.8913E-03    -49.7131E+06     18.3986E+06     29.9569E+06     593.271E+03    -245.437E-03     454.351E-03    -208.914E-03     124.402E-03    -250.821E-03     459.541E-03    -208.719E-03     96.3249E-03
            2258     7.32897E-03     15.6770E-03    -56.6643E+06    -19.8310E+06     13.3298E+06     1.39240E+06    -237.287E-03     442.702E-03    -205.415E-03     102.173E-03    -241.160E-03     446.268E-03    -205.238E-03     79.1089E-03
            2259     6.61824E-03     15.4902E-03    -63.6677E+06    -73.5352E+06    -5.63912E+06     2.42421E+06    -229.114E-03     431.182E-03    -202.068E-03     83.0475E-03    -231.818E-03     433.417E-03    -201.898E-03     64.3724E-03
            2260     5.90186E-03     15.3290E-03    -70.0340E+06    -116.440E+06    -21.4330E+06     1.60680E+06    -220.985E-03     419.917E-03    -198.931E-03     67.0775E-03    -222.837E-03     421.170E-03    -198.768E-03     52.1331E-03
            2261     5.17874E-03     15.1910E-03    -76.0691E+06    -156.854E+06    -35.2772E+06     132.168E+03    -213.270E-03     409.350E-03    -196.080E-03     54.0006E-03    -214.507E-03     409.862E-03    -195.919E-03     42.1767E-03
            2262     4.45019E-03     15.0746E-03    -82.3092E+06    -187.592E+06    -51.1413E+06     1.02383E+06    -206.323E-03     399.858E-03    -193.535E-03     43.1874E-03    -207.126E-03     399.849E-03    -193.399E-03     33.9802E-03
            2263     3.71652E-03     14.9779E-03    -87.4676E+06    -206.862E+06    -68.6168E+06     2.89287E+06    -200.258E-03     391.582E-03    -191.324E-03     33.9143E-03    -200.756E-03     391.232E-03    -191.241E-03     26.8971E-03
            2264     2.97849E-03     14.9001E-03    -91.1683E+06    -236.680E+06    -79.5740E+06     3.76196E+06    -195.278E-03     384.817E-03    -189.539E-03     25.8251E-03    -195.548E-03     384.150E-03    -189.461E-03     20.6124E-03
            2265     2.23725E-03     14.8405E-03    -94.3536E+06    -262.326E+06    -84.2724E+06     3.21564E+06    -191.393E-03     379.554E-03    -188.161E-03     18.6223E-03    -191.508E-03     378.643E-03    -188.065E-03     14.9148E-03
            2266     1.49293E-03     14.7982E-03    -98.2614E+06    -269.649E+06    -92.1541E+06     1.76853E+06    -188.576E-03     375.701E-03    -187.125E-03     12.1319E-03    -188.609E-03     374.690E-03    -187.052E-03     9.72261E-03
            2267     746.984E-06     14.7726E-03    -101.603E+06    -274.927E+06    -100.399E+06     913.141E+03    -186.807E-03     373.310E-03    -186.503E-03     6.31979E-03    -186.793E-03     372.246E-03    -186.459E-03     5.05339E-03
            2268     13.5982E-03     16.5342E-03    -3.58728E+06     74.5103E+06     82.7719E+06     323.424E+03    -246.040E-03     475.264E-03    -229.224E-03     123.213E-03    -252.997E-03     482.232E-03    -228.913E-03     91.4686E-03
            2269     12.8968E-03     16.3123E-03    -7.00876E+06     75.4833E+06     83.2821E+06     1.84247E+06    -255.498E-03     483.368E-03    -227.870E-03     173.994E-03    -266.153E-03     494.024E-03    -227.553E-03     132.734E-03
            2270     12.2070E-03     16.0702E-03    -12.0811E+06     66.9458E+06     79.1998E+06     1.09117E+06    -264.812E-03     490.615E-03    -225.803E-03     183.275E-03    -276.233E-03     502.002E-03    -225.486E-03     139.015E-03
            2271     11.5215E-03     15.7834E-03    -17.7043E+06     62.3144E+06     77.6418E+06    -1.04531E+06    -270.051E-03     493.094E-03    -223.043E-03     190.335E-03    -282.106E-03     505.084E-03    -222.719E-03     143.831E-03
            2272     10.8388E-03     15.4848E-03    -24.1302E+06     57.8789E+06     74.1508E+06    -1.63222E+06    -271.310E-03     491.005E-03    -219.695E-03     186.956E-03    -282.783E-03     502.387E-03    -219.374E-03     141.396E-03
            2273     10.1542E-03     15.1816E-03    -31.8293E+06     47.9430E+06     61.2486E+06    -2.55108E+06    -269.065E-03     484.935E-03    -215.870E-03     174.208E-03    -279.141E-03     494.896E-03    -215.587E-03     131.818E-03
            2274     9.46788E-03     14.8952E-03    -38.0130E+06     39.2842E+06     50.7011E+06    -3.03717E+06    -263.597E-03     475.346E-03    -211.749E-03     152.108E-03    -271.723E-03     483.336E-03    -211.498E-03     114.644E-03
            2275     8.77712E-03     14.6370E-03    -43.0602E+06     30.1895E+06     41.0630E+06    -1.32659E+06    -255.546E-03     463.030E-03    -207.484E-03     126.337E-03    -261.700E-03     469.026E-03    -207.260E-03     94.5440E-03
            2276     8.08010E-03     14.4104E-03    -48.7100E+06     18.2015E+06     28.1218E+06     807.529E+03    -245.903E-03     449.121E-03    -203.218E-03     101.761E-03    -250.388E-03     453.422E-03    -203.033E-03     75.5526E-03
            2277     7.37584E-03     14.2139E-03    -55.4376E+06    -18.5865E+06     10.2332E+06     2.50375E+06    -235.816E-03     434.922E-03    -199.105E-03     80.6810E-03    -238.983E-03     437.801E-03    -198.947E-03     59.4994E-03
            2278     6.66434E-03     14.0444E-03    -61.7071E+06    -69.9491E+06    -9.29127E+06     3.37819E+06    -225.857E-03     421.094E-03    -195.237E-03     63.4468E-03    -228.030E-03     422.829E-03    -195.092E-03     46.5477E-03
            2279     5.94491E-03     13.9000E-03    -67.6144E+06    -110.051E+06    -24.1842E+06     2.89798E+06    -216.276E-03     407.955E-03    -191.679E-03     49.6623E-03    -217.747E-03     408.867E-03    -191.543E-03     36.3099E-03
            2280     5.21867E-03     13.7776E-03    -74.4280E+06    -153.932E+06    -36.3980E+06     2.89456E+06    -207.486E-03     395.988E-03    -188.502E-03     38.7454E-03    -208.455E-03     396.252E-03    -188.353E-03     28.3140E-03
            2281     4.48565E-03     13.6744E-03    -81.6767E+06    -188.552E+06    -50.0147E+06     3.77337E+06    -199.644E-03     385.347E-03    -185.702E-03     30.0414E-03    -200.266E-03     385.152E-03    -185.561E-03     22.0071E-03
            2282     3.74700E-03     13.5892E-03    -88.3662E+06    -207.037E+06    -66.1876E+06     5.05715E+06    -192.885E-03     376.178E-03    -183.293E-03     23.0763E-03    -193.277E-03     375.709E-03    -183.195E-03     17.0134E-03
            2283     3.00345E-03     13.5207E-03    -94.1260E+06    -232.508E+06    -81.8693E+06     5.56194E+06    -187.389E-03     368.729E-03    -181.340E-03     17.4247E-03    -187.607E-03     368.020E-03    -181.276E-03     12.9641E-03
            2284     2.25575E-03     13.4681E-03    -97.9170E+06    -255.419E+06    -92.1441E+06     3.32216E+06    -183.198E-03     363.051E-03    -179.853E-03     12.6126E-03    -183.293E-03     362.153E-03    -179.802E-03     9.44452E-03
            2285     1.50553E-03     13.4310E-03    -98.9956E+06    -266.657E+06    -95.9645E+06     1.09433E+06    -180.271E-03     359.082E-03    -178.811E-03     8.30010E-03    -180.290E-03     358.075E-03    -178.761E-03     6.24358E-03
            2286     753.249E-06     13.4084E-03    -99.3491E+06    -272.489E+06    -97.9590E+06     1.20778E+06    -178.570E-03     356.724E-03    -178.153E-03     4.33322E-03    -178.547E-03     355.660E-03    -178.104E-03     3.26352E-03
            2287     13.6038E-03     15.0036E-03    -4.14757E+06     74.9184E+06     82.5505E+06     401.574E+03    -256.831E-03     485.600E-03    -228.769E-03     123.140E-03    -263.811E-03     492.592E-03    -228.459E-03     89.5197E-03
            2288     12.9135E-03     14.7672E-03    -9.11481E+06     73.3786E+06     82.2993E+06    -1.97906E+06    -267.370E-03     494.125E-03    -226.755E-03     168.133E-03    -277.770E-03     504.515E-03    -226.436E-03     124.737E-03
            2289     12.2306E-03     14.5109E-03    -12.6798E+06     66.5351E+06     79.8779E+06    -2.52147E+06    -275.287E-03     499.238E-03    -223.950E-03     173.178E-03    -286.090E-03     510.001E-03    -223.629E-03     127.622E-03
            2290     11.5538E-03     14.2321E-03    -15.6163E+06     63.5560E+06     80.6672E+06    -1.25861E+06    -279.361E-03     499.805E-03    -220.444E-03     178.557E-03    -290.545E-03     510.928E-03    -220.110E-03     131.587E-03
            2291     10.8759E-03     13.9399E-03    -20.4053E+06     57.7140E+06     78.1752E+06    -636.181E+03    -279.840E-03     496.156E-03    -216.317E-03     172.045E-03    -290.261E-03     506.488E-03    -215.980E-03     126.673E-03
            2292     10.1986E-03     13.6507E-03    -25.7140E+06     50.4097E+06     67.0486E+06     519.965E+03    -276.130E-03     487.795E-03    -211.664E-03     155.051E-03    -285.046E-03     496.611E-03    -211.365E-03     113.529E-03
            2293     9.51702E-03     13.3807E-03    -33.2144E+06     41.8800E+06     51.8689E+06     658.424E+03    -268.225E-03     474.926E-03    -206.701E-03     130.311E-03    -275.249E-03     481.839E-03    -206.454E-03     94.2408E-03
            2294     8.82948E-03     13.1421E-03    -41.8860E+06     28.7492E+06     36.2651E+06     55.6618E+03    -257.528E-03     459.193E-03    -201.665E-03     103.870E-03    -262.749E-03     464.271E-03    -201.465E-03     73.7261E-03
            2295     8.13395E-03     12.9375E-03    -49.8367E+06     15.6309E+06     22.9126E+06     945.225E+03    -245.574E-03     442.322E-03    -196.748E-03     80.4409E-03    -249.338E-03     445.905E-03    -196.584E-03     55.9387E-03
            2296     7.42946E-03     12.7626E-03    -56.7644E+06    -17.2780E+06     6.16963E+06     2.82984E+06    -233.464E-03     425.547E-03    -192.082E-03     61.2739E-03    -236.102E-03     427.908E-03    -191.944E-03     41.7452E-03
            2297     6.71546E-03     12.6142E-03    -62.8181E+06    -66.2188E+06    -14.4528E+06     3.73141E+06    -221.754E-03     409.508E-03    -187.754E-03     45.9701E-03    -223.543E-03     410.884E-03    -187.639E-03     30.5995E-03
            2298     5.99286E-03     12.4888E-03    -68.5681E+06    -106.933E+06    -31.3280E+06     4.68968E+06    -210.899E-03     394.723E-03    -183.824E-03     34.1388E-03    -212.093E-03     395.386E-03    -183.726E-03     22.1568E-03
            2299     5.26208E-03     12.3831E-03    -74.9690E+06    -151.548E+06    -40.2048E+06     6.46150E+06    -201.144E-03     381.510E-03    -180.366E-03     25.2485E-03    -201.925E-03     381.602E-03    -180.238E-03     16.0028E-03
            2300     4.52431E-03     12.2952E-03    -82.3601E+06    -186.831E+06    -47.9932E+06     7.65304E+06    -192.453E-03     369.811E-03    -177.358E-03     18.6703E-03    -192.958E-03     369.498E-03    -177.208E-03     11.6327E-03
            2301     3.77979E-03     12.2225E-03    -90.0816E+06    -205.571E+06    -62.1164E+06     8.34850E+06    -185.002E-03     359.789E-03    -174.787E-03     13.8398E-03    -185.330E-03     359.244E-03    -174.669E-03     8.58911E-03
            2302     3.02990E-03     12.1643E-03    -96.2199E+06    -225.896E+06    -78.8996E+06     7.90509E+06    -179.028E-03     351.738E-03    -172.710E-03     10.1940E-03    -179.222E-03     351.013E-03    -172.638E-03     6.36848E-03
            2303     2.27595E-03     12.1192E-03    -101.106E+06    -245.775E+06    -94.2307E+06     5.36379E+06    -174.557E-03     345.695E-03    -171.138E-03     7.29463E-03    -174.652E-03     344.826E-03    -171.106E-03     4.60735E-03
            2304     1.51871E-03     12.0870E-03    -105.714E+06    -262.371E+06    -103.895E+06     2.31879E+06    -171.524E-03     341.585E-03    -170.061E-03     4.74734E-03    -171.559E-03     340.609E-03    -170.047E-03     3.01282E-03
            2305     759.746E-06     12.0675E-03    -108.229E+06    -270.526E+06    -107.433E+06     335.425E+03    -169.786E-03     339.219E-03    -169.433E-03     2.56449E-03    -169.792E-03     338.188E-03    -169.421E-03     1.64349E-03
            2306     13.6143E-03     13.4457E-03    -5.50043E+06     76.8197E+06     82.4714E+06     289.470E+03    -269.818E-03     497.797E-03    -227.979E-03     126.793E-03    -277.102E-03     505.094E-03    -227.670E-03     90.5969E-03
            2307     12.9371E-03     13.2032E-03    -9.28094E+06     75.7358E+06     81.4341E+06    -4.61601E+06    -278.740E-03     504.002E-03    -225.263E-03     171.644E-03    -289.392E-03     514.655E-03    -224.952E-03     125.618E-03
            2308     12.2615E-03     12.9494E-03    -14.5561E+06     65.8080E+06     77.0396E+06    -5.71074E+06    -285.650E-03     507.423E-03    -221.773E-03     173.968E-03    -296.343E-03     518.076E-03    -221.462E-03     126.857E-03
            2309     11.5866E-03     12.6699E-03    -20.2619E+06     59.3531E+06     75.9965E+06    -4.98116E+06    -289.992E-03     507.511E-03    -217.519E-03     172.382E-03    -300.722E-03     518.164E-03    -217.196E-03     124.324E-03
            2310     10.9176E-03     12.3856E-03    -25.0822E+06     54.5207E+06     74.7005E+06    -3.97701E+06    -289.635E-03     502.177E-03    -212.541E-03     158.807E-03    -299.355E-03     511.792E-03    -212.211E-03     112.950E-03
            2311     10.2468E-03     12.1126E-03    -30.6511E+06     46.2470E+06     64.6849E+06    -2.92201E+06    -283.433E-03     490.449E-03    -207.016E-03     137.656E-03    -291.554E-03     498.447E-03    -206.715E-03     96.3994E-03
            2312     9.57122E-03     11.8651E-03    -35.0493E+06     39.0997E+06     51.7013E+06     67.1351E+03    -272.317E-03     473.574E-03    -201.256E-03     111.750E-03    -278.593E-03     479.725E-03    -201.004E-03     76.6161E-03
            2313     8.88619E-03     11.6531E-03    -39.9016E+06     28.9640E+06     36.0826E+06     3.34727E+06    -258.551E-03     454.101E-03    -195.549E-03     86.3769E-03    -263.160E-03     458.575E-03    -195.353E-03     57.5572E-03
            2314     8.19038E-03     11.4740E-03    -47.0526E+06     15.4831E+06     20.7306E+06     4.85043E+06    -244.327E-03     434.423E-03    -190.096E-03     64.9678E-03    -247.636E-03     437.567E-03    -189.947E-03     41.8246E-03
            2315     7.48394E-03     11.3244E-03    -55.4844E+06    -15.2886E+06     4.05626E+06     6.03591E+06    -230.517E-03     415.525E-03    -185.009E-03     47.7401E-03    -232.846E-03     417.598E-03    -184.886E-03     29.4332E-03
            2316     6.76749E-03     11.1995E-03    -64.1529E+06    -62.3217E+06    -15.7520E+06     7.38670E+06    -217.515E-03     397.854E-03    -180.339E-03     34.4139E-03    -219.113E-03     399.053E-03    -180.234E-03     20.1174E-03
            2317     6.04116E-03     11.0955E-03    -72.6166E+06    -105.491E+06    -35.7169E+06     8.57608E+06    -205.570E-03     381.686E-03    -176.116E-03     24.4803E-03    -206.649E-03     382.238E-03    -176.036E-03     13.4296E-03
            2318     5.30594E-03     11.0085E-03    -79.5570E+06    -147.243E+06    -49.0959E+06     9.17231E+06    -194.879E-03     367.284E-03    -172.405E-03     17.2464E-03    -195.591E-03     367.334E-03    -172.322E-03     8.77925E-03
            2319     4.56253E-03     10.9367E-03    -84.5267E+06    -182.955E+06    -53.0105E+06     8.45997E+06    -185.578E-03     354.809E-03    -169.231E-03     12.0397E-03    -186.040E-03     354.473E-03    -169.108E-03     5.60666E-03
            2320     3.81243E-03     10.8781E-03    -88.5400E+06    -203.198E+06    -58.6811E+06     8.39103E+06    -177.674E-03     344.210E-03    -166.536E-03     8.34200E-03    -177.970E-03     343.638E-03    -166.406E-03     3.55239E-03
            2321     3.05650E-03     10.8304E-03    -93.3660E+06    -219.531E+06    -70.8343E+06     8.72074E+06    -171.268E-03     335.593E-03    -164.325E-03     5.71024E-03    -171.449E-03     334.865E-03    -164.225E-03     2.25503E-03
            2322     2.29599E-03     10.7935E-03    -98.8004E+06    -237.775E+06    -83.8060E+06     8.36005E+06    -166.424E-03     329.051E-03    -162.627E-03     3.79788E-03    -166.523E-03     328.194E-03    -162.558E-03     1.42326E-03
            2323     1.53249E-03     10.7667E-03    -103.923E+06    -252.817E+06    -97.0656E+06     6.60382E+06    -163.068E-03     324.483E-03    -161.416E-03     2.31654E-03    -163.113E-03     323.538E-03    -161.384E-03     824.655E-06
            2324     766.847E-06     10.7502E-03    -108.116E+06    -264.387E+06    -107.491E+06     3.11768E+06    -161.220E-03     321.776E-03    -160.556E-03     1.16747E-03    -161.233E-03     320.774E-03    -160.553E-03     384.668E-06
            2325     13.6309E-03     11.8777E-03    -2.52034E+06     81.5219E+06     86.1471E+06    -231.773E+03    -282.128E-03     509.361E-03    -227.232E-03     137.112E-03    -289.902E-03     517.164E-03    -226.916E-03     98.2379E-03
            2326     12.9515E-03     11.6270E-03    -6.73688E+06     79.7537E+06     83.0539E+06    -1.04906E+06    -290.349E-03     514.205E-03    -223.856E-03     177.153E-03    -301.321E-03     525.195E-03    -223.547E-03     128.903E-03
            2327     12.2815E-03     11.3683E-03    -12.5198E+06     68.0320E+06     77.5190E+06    -1.93238E+06    -298.878E-03     518.482E-03    -219.604E-03     172.561E-03    -309.572E-03     529.150E-03    -219.297E-03     123.337E-03
            2328     11.6223E-03     11.0904E-03    -19.2683E+06     59.0964E+06     74.0737E+06    -3.23149E+06    -302.220E-03     516.667E-03    -214.448E-03     163.520E-03    -312.703E-03     527.083E-03    -214.135E-03     113.651E-03
            2329     10.9618E-03     10.8201E-03    -26.5977E+06     53.1316E+06     68.2690E+06    -4.05059E+06    -298.321E-03     506.891E-03    -208.570E-03     145.607E-03    -307.612E-03     516.087E-03    -208.267E-03     98.8715E-03
            2330     10.2976E-03     10.5687E-03    -32.9548E+06     44.7414E+06     55.2967E+06    -4.01263E+06    -288.089E-03     490.381E-03    -202.293E-03     123.422E-03    -295.716E-03     497.902E-03    -202.033E-03     82.2789E-03
            2331     9.62388E-03     10.3507E-03    -40.0575E+06     31.9671E+06     39.9433E+06    -3.50723E+06    -273.557E-03     469.543E-03    -195.986E-03     99.4193E-03    -279.426E-03     475.278E-03    -195.774E-03     64.9826E-03
            2332     8.93858E-03     10.1696E-03    -45.6316E+06     20.6533E+06     27.5807E+06    -164.473E+03    -257.639E-03     447.552E-03    -189.913E-03     77.4262E-03    -261.994E-03     451.748E-03    -189.739E-03     49.4635E-03
            2333     8.24147E-03     10.0203E-03    -50.6821E+06     9.88088E+06     16.3084E+06     6.35624E+06    -241.902E-03     426.102E-03    -184.200E-03     58.9806E-03    -245.081E-03     429.097E-03    -184.059E-03     36.6833E-03
            2334     7.53268E-03     9.89847E-03    -58.3758E+06    -14.8914E+06     2.71167E+06     12.0824E+06    -226.966E-03     405.891E-03    -178.924E-03     44.2753E-03    -229.260E-03     407.923E-03    -178.805E-03     26.7265E-03
            2335     6.81250E-03     9.79930E-03    -68.0672E+06    -56.5924E+06    -13.2374E+06     13.6532E+06    -213.236E-03     387.363E-03    -174.127E-03     33.1301E-03    -214.868E-03     388.595E-03    -174.012E-03     19.4313E-03
            2336     6.08221E-03     9.71803E-03    -76.3086E+06    -100.575E+06    -30.5546E+06     12.5475E+06    -200.812E-03     370.616E-03    -169.804E-03     24.7684E-03    -201.949E-03     371.217E-03    -169.700E-03     14.1421E-03
            2337     5.34248E-03     9.65167E-03    -82.0138E+06    -139.499E+06    -48.9807E+06     10.2280E+06    -189.781E-03     355.737E-03    -165.956E-03     18.4515E-03    -190.550E-03     355.863E-03    -165.879E-03     10.2567E-03
            2338     4.59474E-03     9.59683E-03    -85.9480E+06    -175.022E+06    -61.1015E+06     6.64132E+06    -180.238E-03     342.861E-03    -162.622E-03     13.6120E-03    -180.736E-03     342.610E-03    -162.550E-03     7.32758E-03
            2339     3.83998E-03     9.55233E-03    -89.2261E+06    -202.107E+06    -63.2491E+06     4.82207E+06    -172.169E-03     331.974E-03    -159.805E-03     9.84981E-03    -172.487E-03     331.442E-03    -159.699E-03     5.10951E-03
            2340     3.07935E-03     9.51660E-03    -92.1723E+06    -217.615E+06    -67.7828E+06     6.33539E+06    -165.466E-03     322.898E-03    -157.432E-03     6.85593E-03    -165.663E-03     322.191E-03    -157.322E-03     3.41914E-03
            2341     2.31400E-03     9.48838E-03    -95.2076E+06    -231.560E+06    -79.2202E+06     7.14708E+06    -160.110E-03     315.618E-03    -155.507E-03     4.48611E-03    -160.216E-03     314.791E-03    -155.430E-03     2.12352E-03
            2342     1.54473E-03     9.46799E-03    -97.3564E+06    -243.358E+06    -89.3767E+06     6.26684E+06    -156.196E-03     310.282E-03    -154.086E-03     2.71158E-03    -156.236E-03     309.369E-03    -154.039E-03     1.23246E-03
            2343     772.936E-06     9.45504E-03    -98.5276E+06    -252.340E+06    -95.6303E+06     4.74832E+06    -154.090E-03     306.945E-03    -152.855E-03     1.34970E-03    -154.090E-03     305.975E-03    -152.825E-03     593.431E-06
            2344     13.6304E-03     10.2837E-03    -4.28503E+06     80.4572E+06     82.7270E+06    -2.95234E+06    -295.105E-03     521.827E-03    -226.722E-03     145.817E-03    -303.448E-03     530.199E-03    -226.419E-03     103.781E-03
            2345     12.9699E-03     10.0361E-03    -8.72520E+06     80.8113E+06     82.4985E+06     858.142E+03    -306.201E-03     528.784E-03    -222.583E-03     181.862E-03    -317.777E-03     540.376E-03    -222.275E-03     130.189E-03
            2346     12.3150E-03     9.76526E-03    -12.3240E+06     71.6135E+06     79.1280E+06     360.106E+03    -313.085E-03     530.519E-03    -217.434E-03     171.568E-03    -324.148E-03     541.566E-03    -217.124E-03     119.392E-03
            2347     11.6614E-03     9.49697E-03    -17.9890E+06     61.6350E+06     74.9422E+06    -558.782E+03    -311.791E-03     523.239E-03    -211.448E-03     158.933E-03    -322.368E-03     533.761E-03    -211.137E-03     107.368E-03
            2348     11.0065E-03     9.24587E-03    -22.9168E+06     54.5667E+06     69.1218E+06    -447.022E+03    -303.148E-03     508.098E-03    -204.950E-03     140.212E-03    -312.320E-03     517.192E-03    -204.650E-03     93.2079E-03
            2349     10.3428E-03     9.02500E-03    -30.3610E+06     44.8796E+06     53.6873E+06     280.329E+03    -288.559E-03     486.854E-03    -198.295E-03     118.616E-03    -295.991E-03     494.195E-03    -198.048E-03     78.2176E-03
            2350     9.66693E-03     8.84218E-03    -38.5264E+06     31.1705E+06     35.8359E+06     1.97432E+06    -271.198E-03     463.035E-03    -191.837E-03     97.3794E-03    -276.942E-03     468.661E-03    -191.647E-03     64.0202E-03
            2351     8.97822E-03     8.69353E-03    -48.8336E+06     14.3540E+06     18.4916E+06     4.19794E+06    -253.779E-03     439.550E-03    -185.771E-03     79.0597E-03    -258.132E-03     443.737E-03    -185.629E-03     52.0526E-03
            2352     8.27709E-03     8.57611E-03    -59.3810E+06    -821.043E+03     6.99594E+06     7.99099E+06    -237.293E-03     417.483E-03    -180.189E-03     64.4307E-03    -240.583E-03     420.546E-03    -180.067E-03     42.8388E-03
            2353     7.56369E-03     8.48351E-03    -66.4839E+06    -18.2502E+06    -282.843E+03     12.3870E+06    -222.245E-03     397.352E-03    -175.107E-03     52.9807E-03    -224.717E-03     399.531E-03    -174.986E-03     35.8816E-03
            2354     6.83956E-03     8.41042E-03    -70.3220E+06    -50.2674E+06    -9.30195E+06     13.6859E+06    -208.768E-03     379.277E-03    -170.509E-03     43.9250E-03    -210.591E-03     380.704E-03    -170.381E-03     30.4355E-03
            2355     6.10538E-03     8.35259E-03    -74.0324E+06    -92.8689E+06    -21.6247E+06     11.7923E+06    -196.806E-03     363.180E-03    -166.373E-03     36.7588E-03    -198.114E-03     363.962E-03    -166.240E-03     26.1456E-03
            2356     5.36264E-03     8.30621E-03    -78.3712E+06    -132.047E+06    -37.6491E+06     9.58271E+06    -186.291E-03     348.955E-03    -162.664E-03     30.8441E-03    -187.204E-03     349.233E-03    -162.547E-03     22.5440E-03
            2357     4.61203E-03     8.26918E-03    -83.6119E+06    -165.996E+06    -56.4364E+06     7.16593E+06    -177.149E-03     336.517E-03    -159.368E-03     25.7202E-03    -177.762E-03     336.410E-03    -159.288E-03     19.2954E-03
            2358     3.85465E-03     8.23918E-03    -88.5301E+06    -196.679E+06    -68.3491E+06     3.02626E+06    -169.309E-03     325.832E-03    -156.523E-03     21.0975E-03    -169.701E-03     325.411E-03    -156.451E-03     16.1746E-03
            2359     3.09176E-03     8.21535E-03    -91.2277E+06    -219.032E+06    -71.8558E+06     635.274E+03    -162.663E-03     316.788E-03    -154.124E-03     16.7883E-03    -162.899E-03     316.131E-03    -154.034E-03     13.1237E-03
            2360     2.32380E-03     8.19752E-03     -92.398E+06    -229.960E+06    -77.8802E+06     2.37094E+06    -157.182E-03     309.319E-03    -152.137E-03     12.6217E-03    -157.307E-03     308.526E-03    -152.059E-03     10.0731E-03
            2361     1.55184E-03     8.18452E-03    -93.8338E+06    -237.557E+06    -86.9328E+06     3.29615E+06    -153.006E-03     303.616E-03    -150.610E-03     8.59373E-03    -153.054E-03     302.739E-03    -150.564E-03     6.99146E-03
            2362     776.966E-06     8.17643E-03    -95.0784E+06    -242.613E+06    -92.0457E+06     1.91461E+06    -150.526E-03     299.906E-03    -149.381E-03     4.77598E-03    -150.531E-03     298.981E-03    -149.351E-03     3.93677E-03
            2363     13.6385E-03     8.67792E-03    -4.08584E+06     83.0601E+06     83.4719E+06    -1.09668E+06    -310.026E-03     536.492E-03    -226.467E-03     157.926E-03    -319.160E-03     545.661E-03    -226.164E-03     112.495E-03
            2364     12.9829E-03     8.40355E-03    -10.8241E+06     79.0896E+06     78.7014E+06    -2.45746E+06    -320.787E-03     542.348E-03    -221.560E-03     192.971E-03    -333.544E-03     555.118E-03    -221.266E-03     136.713E-03
            2365     12.3372E-03     8.14316E-03    -15.2093E+06     68.4511E+06     73.0427E+06    -3.11601E+06    -323.588E-03     539.280E-03    -215.692E-03     179.986E-03    -335.634E-03     551.309E-03    -215.404E-03     124.309E-03
            2366     11.6901E-03     7.89119E-03    -17.9427E+06     60.5088E+06     72.7237E+06    -416.492E+03    -316.781E-03     526.003E-03    -209.222E-03     164.072E-03    -327.715E-03     536.888E-03    -208.920E-03     111.723E-03
            2367     11.0351E-03     7.66811E-03    -24.1674E+06     52.8689E+06     67.3173E+06     1.94672E+06    -302.694E-03     505.228E-03    -202.534E-03     143.197E-03    -311.845E-03     514.299E-03    -202.239E-03     97.2691E-03
            2368     10.3687E-03     7.48535E-03    -31.1040E+06     41.3013E+06     54.2275E+06     5.27364E+06    -284.277E-03     480.265E-03    -195.988E-03     122.890E-03    -291.589E-03     487.470E-03    -195.732E-03     84.4096E-03
            2369     9.68864E-03     7.33976E-03    -39.6700E+06     27.4892E+06     38.5677E+06     9.72364E+06    -264.969E-03     454.827E-03    -189.859E-03     105.421E-03    -270.680E-03     460.396E-03    -189.648E-03     74.0014E-03
            2370     8.99457E-03     7.22740E-03    -48.4968E+06     12.9949E+06     22.6738E+06     13.5084E+06    -246.640E-03     430.903E-03    -184.263E-03     91.2814E-03    -251.068E-03     435.149E-03    -184.098E-03     65.9088E-03
            2371     8.28680E-03     7.14215E-03    -56.4941E+06    -146.721E+03     10.7628E+06     13.2566E+06    -230.258E-03     409.496E-03    -179.238E-03     80.3240E-03    -233.695E-03     412.709E-03    -179.102E-03     59.8592E-03
            2372     7.56802E-03     7.07724E-03    -62.7754E+06    -15.3116E+06     3.66865E+06     9.35209E+06    -215.969E-03     390.733E-03    -174.763E-03     71.7758E-03    -218.636E-03     393.120E-03    -174.632E-03     55.2488E-03
            2373     6.83915E-03     7.02901E-03    -66.1037E+06    -45.8754E+06    -4.77453E+06     5.89032E+06    -203.636E-03     374.419E-03    -170.784E-03     64.9834E-03    -205.663E-03     376.069E-03    -170.645E-03     51.6805E-03
            2374     6.10179E-03     6.99264E-03    -67.8310E+06    -91.3830E+06    -14.6575E+06     5.91862E+06    -193.084E-03     360.340E-03    -167.256E-03     59.2312E-03    -194.573E-03     361.311E-03    -167.099E-03     48.6128E-03
            2375     5.35659E-03     6.96532E-03    -71.5248E+06    -129.938E+06    -25.5991E+06     7.77306E+06    -183.985E-03     348.104E-03    -164.119E-03     53.7801E-03    -185.054E-03     348.535E-03    -163.955E-03     45.4122E-03
            2376     4.60487E-03     6.94431E-03    -76.3625E+06    -159.337E+06    -39.8108E+06     7.20025E+06    -176.146E-03     337.481E-03    -161.335E-03     48.2417E-03    -176.890E-03     337.505E-03    -161.192E-03     41.7247E-03
            2377     3.84745E-03     6.92842E-03    -81.3001E+06    -187.181E+06    -57.0190E+06     3.47620E+06    -169.418E-03     328.325E-03    -158.907E-03     42.2443E-03    -169.901E-03     328.021E-03    -158.803E-03     37.2349E-03
            2378     3.08448E-03     6.91668E-03    -87.0131E+06    -217.028E+06     -69.242E+06    -1.19806E+06    -163.771E-03     320.663E-03    -156.892E-03     35.5239E-03    -164.057E-03     320.069E-03    -156.797E-03     31.7579E-03
            2379     2.31741E-03     6.90819E-03    -91.6534E+06    -234.285E+06    -75.6242E+06    -2.40528E+06    -159.251E-03     314.532E-03    -155.281E-03     27.9563E-03    -159.408E-03     313.748E-03    -155.186E-03     25.2830E-03
            2380     1.54695E-03     6.90281E-03    -93.7797E+06    -236.211E+06    -83.4817E+06    -868.648E+03    -155.884E-03     309.929E-03    -154.045E-03     19.6106E-03    -155.959E-03     309.069E-03    -153.984E-03     17.9113E-03
            2381     773.949E-06     6.89953E-03    -95.0059E+06    -240.750E+06    -91.2722E+06    -562.139E+03    -153.753E-03     306.979E-03    -153.226E-03     10.9649E-03    -153.770E-03     306.065E-03    -153.196E-03     10.0723E-03
            2382     13.6351E-03     7.03764E-03    -2.95649E+06     85.8812E+06     83.6870E+06     499.826E+03    -321.795E-03     548.336E-03    -226.541E-03     171.848E-03    -331.877E-03     558.468E-03    -226.243E-03     123.487E-03
            2383     12.9918E-03     6.75763E-03    -6.38624E+06     81.0399E+06     76.1684E+06    -1.48273E+06    -329.331E-03     550.476E-03    -221.145E-03     207.596E-03    -343.263E-03     564.452E-03    -220.872E-03     148.368E-03
            2384     12.3479E-03     6.50437E-03    -12.1015E+06     63.3900E+06     66.5033E+06    -2.31847E+06    -328.127E-03     543.073E-03    -214.947E-03     187.827E-03    -340.586E-03     555.529E-03    -214.689E-03     131.394E-03
            2385     11.7009E-03     6.27807E-03    -17.7008E+06     53.2054E+06     66.3570E+06     2.19990E+06    -315.830E-03     524.236E-03    -208.406E-03     166.886E-03    -326.448E-03     534.802E-03    -208.126E-03     116.434E-03
            2386     11.0430E-03     6.09543E-03    -25.4788E+06     49.2135E+06     62.1370E+06     6.52294E+06    -295.859E-03     497.848E-03    -201.990E-03     146.026E-03    -304.417E-03     506.327E-03    -201.713E-03     103.652E-03
            2387     10.3695E-03     5.95407E-03    -34.2070E+06     35.3151E+06     49.6820E+06     10.4263E+06    -274.247E-03     470.304E-03    -196.057E-03     130.074E-03    -281.056E-03     476.988E-03    -195.810E-03     95.3601E-03
            2388     9.68065E-03     5.84802E-03    -41.1435E+06     22.8490E+06     38.1656E+06     13.6900E+06    -253.948E-03     444.721E-03    -190.773E-03     117.896E-03    -259.345E-03     449.957E-03    -190.556E-03     89.7005E-03
            2389     8.97770E-03     5.77144E-03    -45.7603E+06     14.6608E+06     30.9973E+06     13.7112E+06    -235.992E-03     422.164E-03    -186.172E-03     109.115E-03    -240.273E-03     426.257E-03    -185.972E-03     86.2492E-03
            2390     8.26351E-03     5.71563E-03    -48.5805E+06     8.06965E+06     26.5100E+06     11.1503E+06    -220.788E-03     403.001E-03    -182.212E-03     102.777E-03    -224.186E-03     406.188E-03    -182.021E-03     84.1946E-03
            2391     7.53866E-03     5.67698E-03    -52.2782E+06    -4.97946E+06     19.9931E+06     6.82814E+06    -208.171E-03     386.992E-03    -178.822E-03     97.6684E-03    -210.855E-03     389.424E-03    -178.639E-03     82.5381E-03
            2392     6.80504E-03     5.65021E-03    -59.3623E+06    -43.6480E+06     6.70922E+06     2.63491E+06    -198.023E-03     373.955E-03    -175.932E-03     93.0137E-03    -200.100E-03     375.653E-03    -175.749E-03     80.7207E-03
            2393     6.06416E-03     5.63202E-03    -67.6244E+06    -96.3129E+06    -7.01053E+06     1.75244E+06    -189.918E-03     363.396E-03    -173.478E-03     87.8873E-03    -191.481E-03     364.401E-03    -173.275E-03     77.9809E-03
            2394     5.31773E-03     5.61992E-03    -72.6364E+06    -130.014E+06    -15.6309E+06     1.60014E+06    -183.289E-03     354.665E-03    -171.375E-03     81.8502E-03    -184.444E-03     355.146E-03    -171.160E-03     73.9531E-03
            2395     4.56630E-03     5.61199E-03    -75.0612E+06    -157.398E+06    -25.9682E+06     507.595E+03    -177.892E-03     347.469E-03    -169.577E-03     74.5375E-03    -178.709E-03     347.533E-03    -169.370E-03     68.3157E-03
            2396     3.81066E-03     5.60718E-03    -77.5613E+06    -183.053E+06    -39.0383E+06    -93.4509E+03    -173.578E-03     341.645E-03    -168.067E-03     65.5997E-03    -174.119E-03     341.367E-03    -167.884E-03     60.7955E-03
            2397     3.05217E-03     5.60441E-03    -81.1400E+06    -213.103E+06    -52.8034E+06    -2.13486E+06    -170.232E-03     337.079E-03    -166.847E-03     54.9958E-03    -170.551E-03     336.496E-03    -166.684E-03     51.3695E-03
            2398     2.29103E-03     5.60313E-03    -86.2009E+06    -237.574E+06    -65.9459E+06    -4.75959E+06    -167.722E-03     333.618E-03    -165.896E-03     42.9182E-03    -167.884E-03     332.807E-03    -165.757E-03     40.2913E-03
            2399     1.52819E-03     5.60237E-03    -91.7340E+06    -241.564E+06    -79.1118E+06    -4.68525E+06    -165.960E-03     331.137E-03    -165.176E-03     29.6891E-03    -166.037E-03     330.242E-03    -165.089E-03     27.9702E-03
            2400     764.566E-06     5.60232E-03    -95.8122E+06    -246.217E+06    -91.1308E+06    -2.49595E+06    -164.774E-03     329.606E-03    -164.832E-03     16.3163E-03    -164.796E-03     328.661E-03    -164.792E-03     15.4068E-03
            2401     13.6313E-03     5.38422E-03     153.353E+03     85.3901E+06     74.9807E+06    -1.62443E+06    -328.235E-03     555.655E-03    -227.420E-03     206.607E-03    -339.833E-03     567.332E-03    -227.169E-03     155.727E-03
            2402     12.9836E-03     5.09672E-03    -5.99425E+06     77.0125E+06     65.8772E+06    -1.07356E+06    -339.604E-03     561.380E-03    -221.776E-03     225.930E-03    -354.145E-03     575.982E-03    -221.550E-03     165.782E-03
            2403     12.3422E-03     4.85633E-03    -9.10636E+06     59.5053E+06     60.9385E+06     5.06335E+06    -330.371E-03     545.777E-03    -215.406E-03     184.775E-03    -341.545E-03     556.967E-03    -215.174E-03     132.491E-03
            2404     11.6927E-03     4.66895E-03    -16.7556E+06     46.9567E+06     59.7749E+06     8.27506E+06    -307.114E-03     516.272E-03    -209.158E-03     158.526E-03    -315.969E-03     525.080E-03    -208.903E-03     114.572E-03
            2405     11.0253E-03     4.53631E-03    -24.5006E+06     43.3893E+06     57.6840E+06     12.8373E+06    -281.585E-03     485.154E-03    -203.569E-03     143.256E-03    -288.587E-03     492.074E-03    -203.308E-03     107.630E-03
            2406     10.3405E-03     4.43841E-03    -31.3221E+06     35.9240E+06     53.2445E+06     14.3373E+06    -258.290E-03     457.114E-03    -198.824E-03     134.651E-03    -263.873E-03     462.577E-03    -198.565E-03     105.965E-03
            2407     9.64047E-03     4.37122E-03    -36.3991E+06     27.0743E+06     47.3196E+06     10.6294E+06    -238.465E-03     433.385E-03    -194.920E-03     129.563E-03    -242.920E-03     437.686E-03    -194.670E-03     106.470E-03
            2408     8.92771E-03     4.32590E-03    -39.7637E+06     20.5869E+06     43.2369E+06      6.6202E+06    -222.692E-03     414.477E-03    -191.785E-03     126.663E-03    -226.262E-03     417.866E-03    -191.541E-03     107.999E-03
            2409     8.20359E-03     4.29621E-03    -43.4354E+06     14.5842E+06     42.8150E+06     3.42412E+06    -210.455E-03     399.771E-03    -189.316E-03     123.848E-03    -213.327E-03     402.426E-03    -189.060E-03     108.691E-03
            2410     7.47155E-03     4.27789E-03    -48.7360E+06    -3.11950E+06     38.6352E+06     2.51075E+06    -201.341E-03     388.722E-03    -187.381E-03     120.086E-03    -203.637E-03     390.727E-03    -187.113E-03     107.744E-03
            2411     6.73373E-03     4.26688E-03    -55.6537E+06    -45.7428E+06     25.2976E+06     3.19922E+06    -194.866E-03     380.725E-03    -185.858E-03     114.873E-03    -196.653E-03     382.079E-03    -185.585E-03     104.811E-03
            2412     5.99206E-03     4.26113E-03    -62.4759E+06    -92.4033E+06     9.40536E+06    -1.57379E+06    -190.267E-03     374.917E-03    -184.650E-03     107.951E-03    -191.620E-03     375.689E-03    -184.378E-03     99.6860E-03
            2413     5.24713E-03     4.25868E-03    -67.3213E+06    -128.851E+06    -4.14627E+06    -8.54516E+06    -186.993E-03     370.684E-03    -183.690E-03     99.2575E-03    -187.992E-03     370.990E-03    -183.427E-03     92.4485E-03
            2414     4.50008E-03     4.25850E-03    -70.1798E+06    -161.865E+06    -17.9548E+06    -10.5059E+06    -184.705E-03     367.635E-03    -182.930E-03     88.6709E-03    -185.405E-03     367.551E-03    -182.683E-03     83.1439E-03
            2415     3.75178E-03     4.25936E-03    -71.9087E+06    -187.145E+06    -32.9261E+06    -9.75742E+06    -183.153E-03     365.478E-03    -182.325E-03     76.4843E-03    -183.608E-03     365.093E-03    -182.114E-03     72.1010E-03
            2416     3.00219E-03     4.26096E-03    -73.7905E+06    -217.503E+06    -46.9922E+06    -8.02311E+06    -182.219E-03     364.093E-03    -181.874E-03     62.9323E-03    -182.470E-03     363.427E-03    -181.687E-03     59.5544E-03
            2417     2.25230E-03     4.26276E-03    -77.3903E+06    -242.035E+06    -59.9661E+06    -5.87148E+06    -181.646E-03     363.178E-03    -181.532E-03     48.3483E-03    -181.750E-03     362.300E-03    -181.368E-03     45.8789E-03
            2418     1.50189E-03     4.26433E-03    -82.5351E+06    -249.467E+06     -73.489E+06    -4.15883E+06    -181.245E-03     362.509E-03    -181.265E-03     33.1089E-03    -181.267E-03     361.542E-03    -181.151E-03     31.4782E-03
            2419     750.867E-06     4.26545E-03    -87.2286E+06    -254.898E+06    -85.0302E+06    -2.40542E+06    -180.893E-03     362.159E-03    -181.266E-03     18.1022E-03    -180.869E-03     361.144E-03    -181.195E-03     17.2283E-03
            2420     13.5853E-03     3.70340E-03    -1.88995E+06     83.2898E+06     71.0659E+06    -1.54908E+06    -351.524E-03     580.805E-03    -229.281E-03     227.381E-03    -362.978E-03     592.326E-03    -229.044E-03     176.462E-03
            2421     12.9566E-03     3.39082E-03    -6.20678E+06     69.2407E+06     61.7372E+06     4.31867E+06    -349.256E-03     572.277E-03    -223.022E-03     196.791E-03    -360.654E-03     583.735E-03    -222.804E-03     143.778E-03
            2422     12.3272E-03     3.20389E-03    -13.2134E+06     54.4170E+06     54.4610E+06     9.39522E+06    -320.369E-03     537.140E-03    -216.771E-03     153.532E-03    -328.067E-03     544.849E-03    -216.559E-03     111.784E-03
            2423     11.6681E-03     3.08584E-03    -18.7572E+06     45.8030E+06     56.0192E+06     11.1783E+06    -288.876E-03     500.347E-03    -211.470E-03     140.707E-03    -294.761E-03     506.186E-03    -211.229E-03     107.797E-03
            2424     10.9851E-03     2.99995E-03    -21.6416E+06     42.4779E+06     60.8821E+06     10.3598E+06    -261.959E-03     469.239E-03    -207.279E-03     134.656E-03    -266.482E-03     473.677E-03    -207.005E-03     109.227E-03
            2425     10.2851E-03     2.94612E-03    -22.8891E+06     41.0409E+06     65.6863E+06     8.35919E+06    -240.272E-03     444.388E-03    -204.116E-03     131.576E-03    -243.809E-03     447.814E-03    -203.814E-03     111.774E-03
            2426     9.56981E-03     2.91161E-03    -26.3124E+06     35.1037E+06     63.3834E+06     6.22377E+06    -224.119E-03     425.932E-03    -201.813E-03     129.483E-03    -226.924E-03     428.595E-03    -201.508E-03     113.858E-03
            2427     8.84453E-03     2.88976E-03    -32.7992E+06     27.2893E+06     56.0832E+06     2.74564E+06    -212.813E-03     413.007E-03    -200.194E-03     126.461E-03    -215.071E-03     415.090E-03    -199.905E-03     113.875E-03
            2428     8.11401E-03     2.87730E-03    -40.4429E+06     17.7154E+06     47.8275E+06     40.5462E+03    -205.304E-03     404.406E-03    -199.101E-03     121.965E-03    -207.144E-03     406.029E-03    -198.829E-03     111.637E-03
            2429     7.37959E-03     2.87055E-03    -47.2287E+06    -6.36147E+06     34.9389E+06    -1.91845E+06    -200.671E-03     399.054E-03    -198.383E-03     115.827E-03    -202.149E-03     400.239E-03    -198.130E-03     107.238E-03
            2430     6.64311E-03     2.86746E-03    -49.4473E+06    -44.8999E+06     19.2598E+06    -6.65697E+06    -197.973E-03     395.901E-03    -197.927E-03     108.162E-03    -199.110E-03     396.641E-03    -197.694E-03     100.909E-03
            2431     5.90522E-03     2.86700E-03    -48.3067E+06    -86.2124E+06     6.89624E+06    -12.0693E+06    -196.540E-03     394.212E-03    -197.672E-03     99.2442E-03    -197.373E-03     394.539E-03    -197.442E-03     93.0623E-03
            2432     5.16704E-03     2.86810E-03    -50.1138E+06    -131.657E+06    -7.50508E+06    -14.5909E+06    -195.966E-03     393.508E-03    -197.542E-03     89.2403E-03    -196.542E-03     393.450E-03    -197.316E-03     83.9967E-03
            2433     4.42884E-03     2.87014E-03    -55.5208E+06    -168.892E+06    -24.4896E+06    -15.2568E+06    -195.888E-03     393.362E-03    -197.474E-03     78.2923E-03    -196.267E-03     393.003E-03    -197.271E-03     73.9013E-03
            2434     3.69029E-03     2.87280E-03    -61.6218E+06    -198.995E+06    -40.4890E+06    -13.3908E+06    -196.075E-03     393.532E-03    -197.457E-03     66.5577E-03    -196.300E-03     392.934E-03    -197.282E-03     62.9825E-03
            2435     2.95204E-03     2.87506E-03     -67.731E+06    -230.846E+06    -54.2661E+06    -8.80328E+06    -196.445E-03     393.932E-03    -197.488E-03     54.1415E-03    -196.542E-03     393.110E-03    -197.326E-03     51.3525E-03
            2436     2.21371E-03     2.87740E-03    -73.1820E+06    -250.173E+06    -64.4916E+06    -4.91790E+06    -196.861E-03     394.389E-03    -197.529E-03     41.2048E-03    -196.872E-03     393.422E-03    -197.382E-03     39.1490E-03
            2437     1.47557E-03     2.87928E-03    -77.0562E+06    -256.492E+06    -72.3053E+06    -2.49251E+06    -197.196E-03     394.757E-03    -197.561E-03     28.0269E-03    -197.157E-03     393.725E-03    -197.439E-03     26.6621E-03
            2438     737.787E-06     2.88060E-03    -79.4871E+06    -261.041E+06    -78.6524E+06    -792.624E+03    -197.097E-03     395.054E-03    -197.958E-03     15.4180E-03    -197.024E-03     393.984E-03    -197.857E-03     14.6945E-03
            2439     13.5766E-03     1.92375E-03    -8.06245E+06     80.9734E+06     77.1060E+06    -1.41759E+06    -420.441E-03     653.558E-03    -233.117E-03     249.828E-03    -430.280E-03     663.436E-03    -232.837E-03     198.625E-03
            2440     12.9696E-03     1.70600E-03    -7.29936E+06     68.7499E+06     72.9220E+06     7.86578E+06    -361.348E-03     586.546E-03    -225.198E-03     162.450E-03    -367.011E-03     592.253E-03    -224.923E-03     127.979E-03
            2441     12.3046E-03     1.60016E-03    -11.2440E+06     58.9514E+06     68.0349E+06     9.40903E+06    -307.609E-03     526.761E-03    -219.151E-03     116.615E-03    -310.896E-03     530.037E-03    -218.880E-03     94.2201E-03
            2442     11.6199E-03     1.53046E-03    -13.9899E+06     53.5577E+06     69.9912E+06     5.51245E+06    -271.667E-03     486.575E-03    -214.908E-03     102.037E-03    -274.121E-03     488.982E-03    -214.616E-03     85.4525E-03
            2443     10.9217E-03     1.49403E-03    -14.9534E+06     47.3511E+06     70.2641E+06     1.72506E+06    -246.630E-03     458.622E-03    -211.993E-03     95.7544E-03    -248.443E-03     460.358E-03    -211.689E-03     83.3853E-03
            2444     10.2076E-03     1.47189E-03    -17.6294E+06     40.4864E+06     61.0454E+06     1.48765E+06    -229.644E-03     439.683E-03    -210.038E-03     92.0160E-03    -231.041E-03     440.989E-03    -209.766E-03     82.5195E-03
            2445     9.48707E-03     1.45855E-03    -20.4094E+06     36.2426E+06     50.9708E+06     2.77550E+06    -218.760E-03     427.564E-03    -208.805E-03     87.7326E-03    -219.870E-03     428.585E-03    -208.573E-03     80.2184E-03
            2446     8.76166E-03     1.45081E-03    -24.3156E+06     30.2043E+06     41.2380E+06     3.40725E+06    -211.919E-03     420.012E-03    -208.093E-03     82.5282E-03    -212.823E-03     420.818E-03    -207.896E-03     76.3912E-03
            2447     8.03214E-03     1.44623E-03    -30.0062E+06     21.1527E+06     26.0736E+06     1.53843E+06    -207.906E-03     415.630E-03    -207.724E-03     76.8117E-03    -208.654E-03     416.269E-03    -207.581E-03     71.6373E-03
            2448     7.30147E-03     1.44352E-03    -34.4813E+06     2.01999E+06     5.14990E+06    -5.39156E+06    -205.810E-03     413.396E-03    -207.586E-03     70.9170E-03    -206.407E-03     413.860E-03    -207.513E-03     66.4046E-03
            2449     6.57010E-03     1.44306E-03    -38.1944E+06    -38.8906E+06    -14.0797E+06    -13.4349E+06    -204.970E-03     412.622E-03    -207.652E-03     64.9306E-03    -205.408E-03     412.823E-03    -207.610E-03     60.9270E-03
            2450     5.83867E-03     1.44332E-03    -43.8810E+06    -93.0970E+06    -25.7358E+06    -14.9517E+06    -204.937E-03     412.818E-03    -207.881E-03     58.6925E-03    -205.234E-03     412.699E-03    -207.811E-03     55.1897E-03
            2451     5.10717E-03     1.44463E-03    -50.0031E+06    -140.226E+06    -35.2161E+06    -12.3251E+06    -205.375E-03     413.546E-03    -208.171E-03     52.1130E-03    -205.560E-03     413.152E-03    -208.071E-03     49.1186E-03
            2452     4.37582E-03     1.44612E-03    -56.0899E+06    -177.960E+06    -44.7563E+06    -9.73019E+06    -206.089E-03     414.559E-03    -208.470E-03     45.2800E-03    -206.185E-03     413.948E-03    -208.355E-03     42.7659E-03
            2453     3.64542E-03     1.44790E-03    -63.0709E+06    -212.788E+06    -52.6235E+06    -6.24115E+06    -206.925E-03     415.696E-03    -208.771E-03     38.1803E-03    -206.952E-03     414.890E-03    -208.634E-03     36.1352E-03
            2454     2.91530E-03     1.44959E-03    -69.3692E+06    -241.597E+06    -60.4675E+06    -3.36888E+06    -207.732E-03     416.771E-03    -209.039E-03     30.8816E-03    -207.704E-03     415.807E-03    -208.890E-03     29.2799E-03
            2455     2.18594E-03     1.45083E-03    -73.7573E+06    -256.254E+06    -68.0839E+06    -2.03978E+06    -208.444E-03     417.692E-03    -209.249E-03     23.3365E-03    -208.380E-03     416.647E-03    -209.110E-03     22.1395E-03
            2456     1.45708E-03     1.45204E-03    -76.9380E+06    -261.117E+06    -74.0481E+06    -1.27273E+06    -209.020E-03     418.420E-03    -209.400E-03     15.7862E-03    -208.938E-03     417.345E-03    -209.280E-03     14.9805E-03
            2457     728.410E-06     1.45259E-03    -78.7251E+06    -264.186E+06    -78.1732E+06    -721.318E+03    -209.011E-03     418.881E-03    -209.870E-03     8.50794E-03    -208.915E-03     417.790E-03    -209.764E-03     8.07769E-03


