********************************************************************************
Field Output Report, written Wed May 29 01:30:42 2024

Source 1
---------

   ODB: G:/Abaqus_calc_2019/1740/Vel_5/odb/zeides_2a_40_red_500_cal_0_vel_5_fric_050.odb
   Step: Step-1
   Frame: Increment  14938186: Step Time =    1.783

Loc 1 : Nodal values from source 1

Output sorted by column "Nodal Label".

Field Output reported at nodes for region: DIE_2A_40_D0_36-1.Region_1
   Computation algorithm: EXTRAPOLATE_COMPUTE_AVERAGE
   Averaged at nodes
   Averaging regions: ODB_REGIONS

      Node Label     COORD.COOR1     COORD.COOR2
                          @Loc 1          @Loc 1
-------------------------------------------------
               1     22.9485E-03     123.356E-03


Field Output reported at nodes for region: DIE_2A_40_D0_36-1.Region_2
   Computation algorithm: EXTRAPOLATE_COMPUTE_AVERAGE
   Averaged at nodes
   Averaging regions: ODB_REGIONS

      Node Label     COORD.COOR1     COORD.COOR2
                          @Loc 1          @Loc 1
-------------------------------------------------
               1     22.9485E-03     123.356E-03


Field Output reported at nodes for part: WIRE-1
   Computation algorithm: EXTRAPOLATE_COMPUTE_AVERAGE
   Averaged at nodes
   Averaging regions: ODB_REGIONS

      Node Label     COORD.COOR1     COORD.COOR2           S.S11           S.S22           S.S33           S.S12         PE.PE11         PE.PE22         PE.PE33         PE.PE12         LE.LE11         LE.LE22         LE.LE33         LE.LE12
                          @Loc 1          @Loc 1          @Loc 1          @Loc 1          @Loc 1          @Loc 1          @Loc 1          @Loc 1          @Loc 1          @Loc 1          @Loc 1          @Loc 1          @Loc 1          @Loc 1
-------------------------------------------------------------------------------------------------------------------------------------------------------------------------------------------------------------------------------------------------
               1    -52.0315E-09     60.3986E-03    -42.0547E+06    -157.157E+06    -42.4454E+06    -58.2998E+03    -54.4079E-03     108.803E-03    -54.3953E-03     5.73853E-03    -54.3287E-03     108.141E-03    -54.3187E-03     5.71910E-03
               2     17.0525E-03     62.7538E-03    -5.43680E+06     149.897E+06     99.3887E+06    -517.424E+03    -55.6489E-03     109.952E-03    -54.3027E-03     168.990E-03    -63.9794E-03     118.507E-03    -54.0152E-03     178.581E-03
               3     16.3202E-03     124.417E-03    -16.3605E+06    -13.8039E+06    -28.5135E+06    -22.7068E+06     44.8738E-03     43.9705E-03    -88.8443E-03     1.96178E-03     44.9923E-03     44.1053E-03    -88.9432E-03     1.66875E-03
               4     430.734E-09     120.949E-03     49.6594E+06    -2.79848E+06     50.6232E+06    -2.53585E+06    -56.5582E-03     112.797E-03    -56.2383E-03    -4.35592E-03    -56.3909E-03     112.626E-03    -56.0531E-03    -4.39768E-03
               5     370.656E-09    -4.12170E-15    -22.0122E+06    -133.029E+06    -20.8759E+06     764.652E+03    -48.8864E-03     97.3627E-03    -48.4764E-03     402.354E-06    -48.7709E-03     96.7611E-03    -48.3560E-03     411.560E-06
               6     16.7823E-03    -4.12170E-15     6.29365E+06     113.929E+06     91.5174E+06     8.59091E+06    -170.062E-03     233.795E-03    -63.7332E-03     220.258E-03    -173.090E-03     237.050E-03    -63.4500E-03     213.709E-03
               7     852.421E-06     60.4046E-03    -41.8077E+06    -156.516E+06    -41.4378E+06     17.2444E+03    -54.4129E-03     108.808E-03    -54.3950E-03     9.56222E-03    -54.3360E-03     108.148E-03    -54.3146E-03     9.53070E-03
               8     1.70481E-03     60.4179E-03    -41.0468E+06    -154.694E+06    -38.7767E+06     170.997E+03    -54.4472E-03     108.843E-03    -54.3955E-03     17.5698E-03    -54.3761E-03     108.189E-03    -54.3056E-03     17.5125E-03
               9     2.55733E-03     60.4398E-03    -39.5821E+06    -149.430E+06    -34.4204E+06     287.113E+03    -54.5240E-03     108.922E-03    -54.3984E-03     26.0163E-03    -54.4647E-03     108.292E-03    -54.2965E-03     25.9289E-03
              10     3.40972E-03     60.4703E-03    -37.3831E+06    -144.827E+06    -28.2487E+06     405.218E+03    -54.6234E-03     109.033E-03    -54.4096E-03     34.5362E-03    -54.5767E-03     108.421E-03    -54.2866E-03     34.4143E-03
              11     4.26227E-03     60.5092E-03    -35.0154E+06    -136.964E+06    -21.8844E+06     565.922E+03    -54.7179E-03     109.129E-03    -54.4111E-03     43.0083E-03    -54.6914E-03     108.555E-03    -54.2711E-03     42.8471E-03
              12     5.11485E-03     60.5566E-03    -32.5860E+06    -129.201E+06    -15.7917E+06     312.964E+03    -54.8734E-03     109.281E-03    -54.4073E-03     51.3399E-03    -54.8712E-03     108.750E-03    -54.2517E-03     51.1266E-03
              13     5.96751E-03     60.6121E-03    -29.6844E+06    -118.687E+06    -10.5936E+06    -96.1440E+03    -55.1072E-03     109.505E-03    -54.3979E-03     59.5817E-03    -55.1357E-03     109.038E-03    -54.2357E-03     59.3054E-03
              14     6.81994E-03     60.6761E-03    -27.0884E+06    -113.047E+06    -5.81426E+06    -753.149E+03    -55.3625E-03     109.762E-03    -54.3991E-03     67.6537E-03    -55.4240E-03     109.342E-03    -54.2250E-03     67.3000E-03
              15     7.67247E-03     60.7479E-03    -24.7160E+06    -113.458E+06    -5.48601E+06    -332.389E+03    -55.6221E-03     110.011E-03    -54.3886E-03     75.5850E-03    -55.7136E-03     109.628E-03    -54.2157E-03     75.1550E-03
              16     8.52513E-03     60.8278E-03    -21.3705E+06    -107.429E+06    -5.82231E+06     1.12328E+06    -55.9037E-03     110.268E-03    -54.3640E-03     83.4592E-03    -56.0443E-03     109.968E-03    -54.2063E-03     82.9512E-03
              17     9.37791E-03     60.9152E-03    -18.1474E+06    -96.8440E+06    -2.95453E+06     1.14342E+06    -56.2331E-03     110.585E-03    -54.3516E-03     91.2634E-03    -56.4564E-03     110.408E-03    -54.1997E-03     90.6395E-03
              18     10.2303E-03     61.0109E-03    -17.6972E+06    -83.7701E+06    -6.79872E+06     1.96926E+06    -56.5755E-03     110.887E-03    -54.3111E-03     99.0947E-03    -56.9203E-03     110.891E-03    -54.1980E-03     98.3431E-03
              19     11.0826E-03     61.1142E-03    -19.4149E+06    -64.5804E+06    -15.0782E+06     1.91929E+06    -56.8264E-03     111.069E-03    -54.2422E-03     108.152E-03    -57.3550E-03     111.343E-03    -54.1958E-03     107.239E-03
              20     11.9355E-03     61.2276E-03    -19.0375E+06    -26.8912E+06    -18.1331E+06     281.399E+03    -57.2030E-03     111.366E-03    -54.1630E-03     120.754E-03    -58.0401E-03     112.093E-03    -54.1871E-03     119.617E-03
              21     12.7879E-03     61.3562E-03    -17.9056E+06     27.5759E+06    -13.8948E+06     810.192E+03    -57.9777E-03     112.067E-03    -54.0891E-03     140.804E-03    -59.4116E-03     113.575E-03    -54.1726E-03     139.379E-03
              22     13.6413E-03     61.5093E-03    -18.9680E+06     70.9621E+06     4.07325E+06     435.921E+03    -60.7767E-03     114.867E-03    -54.0905E-03     189.028E-03    -63.7559E-03     118.019E-03    -54.1455E-03     187.119E-03
              23     14.4932E-03     61.7347E-03    -17.4141E+06       101.1E+06     45.2955E+06    -700.519E+03    -69.5068E-03     123.718E-03    -54.2116E-03     290.003E-03    -78.1327E-03     132.510E-03    -54.1065E-03     287.204E-03
              24     15.3482E-03     62.1019E-03    -11.7033E+06     136.258E+06     88.8949E+06     3.84869E+03    -77.7771E-03     132.099E-03    -54.3215E-03     401.068E-03    -100.053E-03     154.558E-03    -54.0576E-03     400.340E-03
              25     16.2073E-03     62.5691E-03    -6.93871E+06     151.534E+06     102.509E+06     47.7476E+03    -67.6429E-03     121.968E-03    -54.3250E-03     307.893E-03    -87.5180E-03     142.059E-03    -54.0222E-03     313.646E-03
              26     17.0518E-03     63.8133E-03    -1.23799E+06     152.790E+06     103.060E+06    -584.600E+03    -52.5525E-03     106.965E-03    -54.4121E-03     167.255E-03    -60.8123E-03     115.464E-03    -54.1166E-03     177.163E-03
              27     17.0546E-03     64.8513E-03    -558.082E+03     150.776E+06     103.341E+06     257.265E+03    -52.2429E-03     106.585E-03    -54.3421E-03     166.045E-03    -60.3313E-03     114.907E-03    -54.0432E-03     176.069E-03
              28     17.0552E-03     65.9201E-03    -4.36095E+06     148.735E+06     100.862E+06     420.653E+03    -56.9382E-03     111.164E-03    -54.2259E-03     165.635E-03    -65.0595E-03     119.506E-03    -53.9309E-03     175.112E-03
              29     17.0505E-03     66.9846E-03    -2.26172E+06     152.626E+06     103.025E+06     500.405E+03    -53.6749E-03     108.032E-03    -54.3570E-03     166.515E-03    -61.9517E-03     116.544E-03    -54.0599E-03     176.344E-03
              30     17.0562E-03     68.0246E-03    -2.15806E+06     151.656E+06     102.460E+06    -726.456E+03    -51.2194E-03     105.644E-03    -54.4249E-03     167.364E-03    -59.4989E-03     114.158E-03    -54.1294E-03     177.572E-03
              31     17.0492E-03     69.0888E-03    -3.22213E+06     150.147E+06     101.546E+06     5.15212E+03    -54.7643E-03     109.111E-03    -54.3469E-03     166.480E-03    -62.9637E-03     117.538E-03    -54.0522E-03     176.218E-03
              32     17.0565E-03     70.1426E-03    -3.38792E+06     150.659E+06     102.133E+06     391.118E+03    -55.9321E-03     110.254E-03    -54.3216E-03     164.445E-03    -64.0394E-03     118.588E-03    -54.0245E-03     173.968E-03
              33     17.0486E-03     71.2018E-03    -2.60445E+06     151.840E+06     102.596E+06     384.070E+03    -55.3042E-03     109.644E-03    -54.3401E-03     165.520E-03    -63.4590E-03     118.032E-03    -54.0435E-03     175.123E-03
              34     17.0571E-03     72.2649E-03    -2.90395E+06     152.632E+06     102.639E+06    -160.465E+03    -53.4167E-03     107.790E-03    -54.3733E-03     168.701E-03    -61.7047E-03     116.312E-03    -54.0772E-03     178.551E-03
              35     17.0493E-03     73.3131E-03    -1.87980E+06     151.728E+06     102.908E+06    -387.415E+03    -52.2056E-03     106.596E-03    -54.3907E-03     166.898E-03    -60.4502E-03     115.075E-03    -54.0935E-03     176.957E-03
              36     17.0571E-03     74.3686E-03    -2.21122E+06     149.562E+06     102.479E+06    -685.411E+03    -53.0337E-03     107.375E-03    -54.3416E-03     165.534E-03    -61.1887E-03     115.756E-03    -54.0428E-03     175.429E-03
              37     17.0511E-03     75.4245E-03    -4.02034E+06     148.266E+06     102.144E+06    -515.071E+03    -55.7924E-03     110.096E-03    -54.3034E-03     166.712E-03    -64.0589E-03     118.579E-03    -54.0018E-03     176.351E-03
              38     17.0534E-03     76.4921E-03    -2.07419E+06     150.121E+06     103.702E+06     766.966E+03    -54.2775E-03     108.620E-03    -54.3426E-03     169.358E-03    -62.7010E-03     117.269E-03    -54.0388E-03     179.220E-03
              39     17.0552E-03     77.5376E-03    -3.55934E+06     149.849E+06     102.433E+06     323.050E+03    -53.7057E-03     108.049E-03    -54.3430E-03     172.741E-03    -62.3101E-03     116.876E-03    -54.0430E-03     182.882E-03
              40     17.0503E-03     78.6069E-03    -2.51337E+06     151.684E+06     103.457E+06     449.713E+03    -54.5609E-03     108.910E-03    -54.3490E-03     173.031E-03    -63.2032E-03     117.782E-03    -54.0480E-03     183.057E-03
              41     17.0565E-03     79.6532E-03    -1.41716E+06     152.704E+06     104.580E+06     246.929E+03    -53.4832E-03     107.869E-03    -54.3862E-03     172.399E-03    -62.0577E-03     116.678E-03    -54.0827E-03     182.495E-03
              42     17.0485E-03     80.7121E-03    -2.12240E+06     155.415E+06     104.626E+06     1.83464E+06    -53.5512E-03     107.945E-03    -54.3936E-03     169.703E-03    -61.9654E-03     116.600E-03    -54.0927E-03     179.740E-03
              43     17.0573E-03     81.7660E-03    -2.93398E+06     158.321E+06     103.952E+06     771.231E+03    -52.5530E-03     106.924E-03    -54.3711E-03     168.908E-03    -60.8791E-03     115.501E-03    -54.0767E-03     178.957E-03
              44     17.0505E-03     82.8168E-03    -3.36490E+06     159.869E+06     104.609E+06     640.040E+03    -54.0118E-03     108.363E-03    -54.3509E-03     166.594E-03    -62.2627E-03     116.866E-03    -54.0548E-03     176.446E-03
              45     17.0540E-03     83.8820E-03    -1.63101E+06     160.885E+06     106.130E+06    -5.62275E+03    -52.8763E-03     107.230E-03    -54.3540E-03     165.166E-03    -61.0402E-03     115.652E-03    -54.0543E-03     174.963E-03
              46     17.0556E-03     84.9209E-03    -3.93160E+06     157.864E+06     103.851E+06    -1.21158E+06    -55.2614E-03     109.535E-03    -54.2737E-03     164.790E-03    -63.4463E-03     117.966E-03    -53.9776E-03     174.457E-03
              47     17.0499E-03     86.0004E-03    -3.30187E+06     160.348E+06     105.921E+06     1.38231E+06    -57.1984E-03     111.457E-03    -54.2582E-03     168.082E-03    -65.5694E-03     120.079E-03    -53.9563E-03     177.570E-03
              48     17.0581E-03     87.0542E-03    -2.34496E+06     161.725E+06     106.244E+06     243.226E+03    -53.2113E-03     107.538E-03    -54.3272E-03     176.053E-03    -61.9585E-03     116.544E-03    -54.0271E-03     186.173E-03
              49     17.0502E-03     88.1093E-03    -1.74544E+06     162.898E+06     105.471E+06     941.425E+03    -52.3102E-03     106.648E-03    -54.3376E-03     175.529E-03    -61.0784E-03     115.683E-03    -54.0439E-03     185.881E-03
              50     17.0581E-03     89.1617E-03    -2.72037E+06     164.571E+06     105.895E+06     627.734E+03    -52.6768E-03     106.996E-03    -54.3195E-03     172.387E-03    -61.2688E-03     115.856E-03    -54.0247E-03     182.582E-03
              51     17.0505E-03     90.2127E-03    -3.00701E+06     165.132E+06     106.516E+06     252.157E+03    -54.3213E-03     108.614E-03    -54.2928E-03     168.340E-03    -62.7033E-03     117.263E-03    -53.9953E-03     178.224E-03
              52     17.0566E-03     91.2742E-03    -2.35706E+06     166.163E+06     106.633E+06     222.527E+03    -53.3687E-03     107.621E-03    -54.2518E-03     167.592E-03    -61.6190E-03     116.143E-03    -53.9562E-03     177.392E-03
              53     17.0564E-03     92.3224E-03    -3.07933E+06     165.202E+06     105.335E+06    -446.409E+03    -54.6550E-03     108.816E-03    -54.1611E-03     169.125E-03    -63.0028E-03     117.434E-03    -53.8695E-03     178.944E-03
              54     17.0544E-03     93.3923E-03    -2.94801E+06     166.948E+06     106.193E+06     619.679E+03    -54.7444E-03     108.886E-03    -54.1416E-03     169.091E-03    -63.1807E-03     117.597E-03    -53.8485E-03     178.900E-03
              55     17.0596E-03     94.4395E-03    -3.66640E+06     165.613E+06     104.908E+06    -386.373E+03    -53.1598E-03     107.305E-03    -54.1454E-03     172.681E-03    -61.7889E-03     116.205E-03    -53.8557E-03     182.840E-03
              56     17.0537E-03     95.5018E-03    -3.28286E+06     165.071E+06     103.413E+06     41.2103E+03    -53.5603E-03     107.648E-03    -54.0880E-03     172.172E-03    -62.1573E-03     116.520E-03    -53.8055E-03     182.255E-03
              57     17.0630E-03     96.5520E-03    -2.43086E+06     163.348E+06     102.562E+06    -1.32636E+06    -51.3110E-03     105.305E-03    -53.9943E-03     171.620E-03    -59.7476E-03     114.016E-03    -53.7149E-03     181.740E-03
              58     17.0604E-03     97.6020E-03    -2.07340E+06     159.067E+06     102.344E+06    -1.08250E+06    -52.9724E-03     106.796E-03    -53.8235E-03     168.961E-03    -61.3054E-03     115.390E-03    -53.5394E-03     178.958E-03
              59     17.0649E-03     98.6625E-03    -1.69247E+06     157.286E+06     100.614E+06    -19.9337E+03    -53.7206E-03     107.349E-03    -53.6286E-03     167.991E-03    -62.0270E-03     115.916E-03    -53.3511E-03     177.833E-03
              60     17.0696E-03     99.7137E-03    -4.48266E+06     152.234E+06     98.1928E+06    -1.72507E+06    -54.6611E-03     108.051E-03    -53.3900E-03     171.943E-03    -63.1246E-03     116.755E-03    -53.1133E-03     181.829E-03
              61     17.0704E-03     100.780E-03    -1.50863E+06     151.473E+06     98.7816E+06     1.45587E+06    -55.2906E-03     108.407E-03    -53.1161E-03     173.314E-03    -63.7748E-03     117.137E-03    -52.8397E-03     183.166E-03
              62     17.0815E-03     101.829E-03    -2.49815E+06     152.381E+06     91.6013E+06     682.446E+03    -53.7930E-03     106.563E-03    -52.7697E-03     174.116E-03    -62.2839E-03     115.320E-03    -52.5291E-03     184.152E-03
              63     17.0818E-03     102.885E-03    -3.08784E+06     149.679E+06     87.2853E+06    -720.308E+03    -55.6226E-03     107.990E-03    -52.3670E-03     171.562E-03    -64.0092E-03     116.644E-03    -52.1431E-03     181.455E-03
              64     17.0924E-03     103.944E-03    -658.753E+03     147.549E+06     84.0973E+06       -112.E+03    -57.8895E-03     109.821E-03    -51.9311E-03     171.428E-03    -66.2382E-03     118.447E-03    -51.7236E-03     181.122E-03
              65     17.0950E-03     105.002E-03    -3.39783E+06     144.352E+06     78.9091E+06    -1.10516E+06    -62.2240E-03     113.736E-03    -51.5124E-03     168.817E-03    -70.6111E-03     122.396E-03    -51.3223E-03     178.132E-03
              66     17.0981E-03     106.072E-03    -2.18438E+06     138.837E+06     73.8281E+06    -2.22951E+06    -65.6152E-03     116.799E-03    -51.1838E-03     167.921E-03    -74.0580E-03     125.513E-03    -51.0128E-03     176.905E-03
              67     17.1040E-03     107.135E-03    -148.705E+03     132.640E+06     67.0035E+06    -1.26219E+06    -71.2645E-03     122.094E-03    -50.8299E-03     170.852E-03    -79.8714E-03     130.978E-03    -50.6870E-03     179.417E-03
              68     17.1017E-03     108.219E-03    -6.47663E+06     128.231E+06     55.5954E+06    -1.63715E+06    -78.1282E-03     128.619E-03    -50.4912E-03     168.402E-03    -86.6980E-03     137.461E-03    -50.3898E-03     176.144E-03
              69     17.1084E-03     109.294E-03     298.760E+03     119.944E+06     46.2993E+06    -3.55643E+06    -83.1517E-03     133.322E-03    -50.1703E-03     171.166E-03    -91.7480E-03     142.212E-03    -50.1132E-03     178.342E-03
              70     17.1078E-03     110.387E-03    -5.26264E+06     104.390E+06     35.1505E+06    -6.77878E+06    -91.9354E-03     141.735E-03    -49.7999E-03     176.858E-03    -100.817E-03     150.870E-03    -49.7678E-03     183.074E-03
              71     17.1115E-03     111.494E-03     2.10926E+06     89.3860E+06     31.9024E+06    -4.76953E+06    -100.961E-03     150.412E-03    -49.4509E-03     183.686E-03    -110.229E-03     159.914E-03    -49.4241E-03     188.886E-03
              72     17.1135E-03     112.594E-03    -7.80776E+06     63.6358E+06     19.6808E+06    -12.1925E+06    -111.582E-03     160.628E-03    -49.0453E-03     190.319E-03    -121.206E-03     170.396E-03    -49.0278E-03     194.083E-03
              73     17.1156E-03     113.730E-03     5.28918E+06     41.2563E+06     24.4122E+06    -5.94887E+06    -123.113E-03     171.787E-03    -48.6738E-03     207.731E-03    -133.700E-03     182.478E-03    -48.6192E-03     209.998E-03
              74     17.1203E-03     114.877E-03     -669.07E+03     23.8543E+06     35.9276E+06    -5.28224E+06    -134.445E-03     182.856E-03    -48.4108E-03     238.905E-03    -147.313E-03     195.714E-03    -48.2648E-03     239.294E-03
              75     17.1178E-03     116.037E-03    -4.87142E+06    -1.80243E+06     25.1735E+06    -11.0629E+06    -144.976E-03     193.098E-03    -48.1222E-03     268.514E-03    -160.005E-03     208.042E-03    -47.9866E-03     266.360E-03
              76     17.1240E-03     117.196E-03     -363.37E+03    -46.2885E+06     30.4434E+06    -18.1570E+06    -151.814E-03     199.758E-03    -47.9436E-03     297.731E-03    -168.702E-03     216.401E-03    -47.7237E-03     293.423E-03
              77     17.1261E-03     118.359E-03     8.09542E+06    -58.5281E+06     64.6657E+06     1.84247E+06    -160.272E-03     208.083E-03    -47.8115E-03     328.696E-03    -179.503E-03     226.965E-03    -47.4150E-03     321.975E-03
              78     17.1290E-03     119.546E-03     3.64833E+06    -13.1613E+06     69.1980E+06     22.8831E+06    -159.867E-03     207.779E-03    -47.9122E-03     366.496E-03    -181.919E-03     229.620E-03    -47.5525E-03     356.734E-03
              79     17.1197E-03     120.708E-03    -19.8998E+06     17.2834E+06     39.8550E+06     3.99702E+06    -132.731E-03     181.613E-03    -48.8812E-03     420.092E-03    -154.388E-03     203.163E-03    -48.6782E-03     411.812E-03
              80     17.1219E-03     121.779E-03    -10.2506E+06    -6.37396E+06     764.154E+03    -21.9888E+06    -56.1069E-03     107.828E-03    -51.7209E-03     431.820E-03    -68.2815E-03     120.006E-03    -51.6929E-03     429.883E-03
              81     17.0659E-03     122.645E-03     8.62605E+06    -6.11009E+06     23.8389E+06     7.20664E+06     24.5556E-03     35.9897E-03    -60.5453E-03     259.066E-03     22.1678E-03     38.2120E-03    -60.4298E-03     260.039E-03
              82     16.6578E-03     123.466E-03      19.884E+06     5.31207E+06     28.4699E+06      20.504E+06     47.2885E-03     30.7821E-03    -78.0706E-03     54.2996E-03     47.3312E-03     30.7219E-03    -77.9648E-03     54.5619E-03
              83     15.4011E-03     124.003E-03    -20.6074E+06    -3.79634E+06    -14.4739E+06     9.45873E+06     40.9424E-03     48.8998E-03    -89.8422E-03     10.1702E-03     40.9090E-03     48.9750E-03    -89.8792E-03     10.2919E-03
              84     14.5753E-03     123.592E-03    -17.5785E+06     36.9297E+06     45.8749E+06    -3.11028E+06     12.8140E-03     78.0274E-03    -90.8414E-03     8.54438E-03     12.5631E-03     78.1298E-03    -90.6401E-03     8.48489E-03
              85     13.7797E-03     123.173E-03    -28.2886E+06    -14.1276E+06     62.8095E+06    -10.9289E+06    -28.6206E-03     117.942E-03    -89.3213E-03    -34.1683E-03    -28.8688E-03     117.759E-03    -88.9457E-03    -34.4259E-03
              86     13.0224E-03     122.799E-03    -26.7492E+06    -5.51512E+06     36.3679E+06    -13.0397E+06    -52.7058E-03     138.241E-03    -85.5353E-03    -82.3264E-03    -52.9181E-03     138.072E-03    -85.3067E-03    -82.7664E-03
              87     12.2804E-03     122.475E-03    -11.6091E+06    -11.7212E+06     26.4270E+06    -19.9787E+06    -63.1871E-03     144.594E-03    -81.4072E-03    -96.9919E-03    -63.2792E-03     144.368E-03    -81.2413E-03    -97.6089E-03
              88     11.5133E-03     122.211E-03    -10.4421E+06    -15.1453E+06     41.6271E+06    -6.07829E+06    -69.6204E-03     147.474E-03    -77.8541E-03    -92.4562E-03    -69.7094E-03     147.232E-03    -77.6088E-03    -92.8903E-03
              89     10.7385E-03     121.983E-03    -2.00477E+06     4.21792E+06     50.0717E+06    -14.2382E+06    -74.1386E-03     148.788E-03    -74.6491E-03    -83.1010E-03    -74.2274E-03     148.642E-03    -74.4020E-03    -83.6000E-03
              90     9.95010E-03     121.794E-03     5.57637E+06    -14.4607E+06     51.2660E+06    -8.15316E+06    -76.2917E-03     148.067E-03    -71.7750E-03    -72.5884E-03    -76.3182E-03     147.839E-03    -71.5057E-03    -72.9586E-03
              91     9.15284E-03     121.632E-03     13.4043E+06     1.61912E+06     60.0620E+06    -8.13721E+06    -76.5359E-03     145.681E-03    -69.1450E-03    -62.4354E-03    -76.5608E-03     145.528E-03    -68.8665E-03    -62.7615E-03
              92     8.34660E-03     121.497E-03     18.4084E+06    -7.91328E+06     58.1213E+06    -3.46457E+06    -75.3540E-03     142.075E-03    -66.7215E-03    -52.6313E-03    -75.3388E-03     141.884E-03    -66.4461E-03    -52.8572E-03
              93     7.53325E-03     121.380E-03     21.1314E+06     3.08376E+06     56.8189E+06    -2.68348E+06    -72.9513E-03     137.447E-03    -64.4958E-03    -43.4568E-03    -72.9380E-03     137.319E-03    -64.2468E-03    -43.6355E-03
              94     6.71262E-03     121.282E-03     23.9020E+06    -1.99550E+06     47.2572E+06    -2.87496E+06    -69.9344E-03     132.429E-03    -62.4947E-03    -35.4814E-03    -69.8867E-03     132.293E-03    -62.2902E-03    -35.6328E-03
              95     5.88591E-03     121.199E-03     29.5242E+06     2.59664E+06     46.3009E+06    -4.88884E+06    -66.7364E-03     127.515E-03    -60.7784E-03    -28.9129E-03    -66.6660E-03     127.401E-03    -60.5935E-03    -29.0672E-03
              96     5.05368E-03     121.131E-03     36.2268E+06    -4.91091E+06     46.1999E+06    -3.56170E+06    -63.8331E-03     123.174E-03    -59.3404E-03    -23.3972E-03    -63.7182E-03     123.016E-03    -59.1548E-03    -23.5146E-03
              97     4.21723E-03     121.074E-03     40.5617E+06     337.346E+03     44.7122E+06    -379.624E+03    -61.2129E-03     119.345E-03    -58.1316E-03    -18.6516E-03    -61.0820E-03     119.211E-03    -57.9673E-03    -18.7117E-03
              98     3.37733E-03     121.028E-03     44.1603E+06     1.67191E+06     44.1531E+06    -1.89973E+06    -58.9744E-03     116.172E-03    -57.1980E-03    -14.5045E-03    -58.8269E-03     116.043E-03    -57.0437E-03    -14.5714E-03
              99     2.53490E-03     120.994E-03     48.3206E+06    -1.59439E+06     52.8834E+06    -2.44291E+06    -57.2939E-03     113.891E-03    -56.5971E-03    -10.9370E-03    -57.1333E-03     113.728E-03    -56.4005E-03    -11.0001E-03
             100     1.68990E-03     120.969E-03     50.6644E+06    -220.028E+03     52.6983E+06    -1.52484E+06    -56.0764E-03     112.370E-03    -56.2940E-03    -8.20979E-03    -55.9057E-03     112.212E-03    -56.1037E-03    -8.25195E-03
             101     843.207E-06     120.953E-03     50.3856E+06    -475.649E+03     49.0088E+06    -2.10945E+06    -56.0841E-03     112.312E-03    -56.2278E-03    -5.76327E-03    -55.9117E-03     112.156E-03    -56.0551E-03    -5.80418E-03
             102    -95.9637E-09     119.885E-03     42.9607E+06    -2.70510E+06     41.9861E+06    -891.376E+03    -49.6463E-03     99.2313E-03    -49.5850E-03    -1.64525E-03    -49.4954E-03     99.0878E-03    -49.4335E-03    -1.66505E-03
             103    -73.6763E-09     118.854E-03     21.9067E+06    -7.53052E+06     21.9907E+06    -1.08660E+06    -38.3788E-03     76.9357E-03    -38.5569E-03     858.222E-06    -38.2923E-03     76.8326E-03    -38.4677E-03     838.215E-06
             104    -34.4495E-09     117.839E-03    -215.928E+03    -16.3089E+06     336.632E+03    -2.57060E+06    -30.9278E-03     61.8645E-03    -30.9367E-03     1.61003E-03    -30.9068E-03     61.7823E-03    -30.9111E-03     1.57267E-03
             105     149.292E-09     116.837E-03    -21.3130E+06    -24.8920E+06    -21.9357E+06    -2.12712E+06    -25.7104E-03     51.4702E-03    -25.7598E-03     2.89279E-03    -25.7492E-03     51.4089E-03    -25.8025E-03     2.86236E-03
             106    -356.448E-09     115.843E-03    -48.1426E+06    -32.7702E+06    -46.8642E+06    -2.30065E+06    -22.5003E-03     45.1810E-03    -22.6807E-03     3.73792E-03    -22.6252E-03     45.1557E-03    -22.7977E-03     3.70676E-03
             107     255.797E-09     114.853E-03    -76.8837E+06    -43.4528E+06    -76.2036E+06    -4.37066E+06    -21.0930E-03     42.2311E-03    -21.1381E-03     4.50795E-03    -21.3035E-03     42.2368E-03    -21.3446E-03     4.45103E-03
             108    -236.460E-09     113.865E-03    -105.779E+06     -56.806E+06    -106.669E+06    -3.21192E+06    -21.0653E-03     42.0652E-03    -20.9999E-03     5.05562E-03    -21.3568E-03     42.0901E-03    -21.2975E-03     5.01442E-03
             109     310.237E-09     112.875E-03    -93.0868E+06    -57.3958E+06    -95.3168E+06     2.83345E+06    -22.2346E-03     44.5428E-03    -22.3081E-03     5.43133E-03    -22.4783E-03     44.5297E-03    -22.5665E-03     5.46869E-03
             110    -551.439E-09     111.882E-03    -56.5732E+06    -36.2100E+06    -57.6994E+06     9.20426E+06    -24.7692E-03     49.4981E-03    -24.7289E-03     5.61840E-03    -24.9158E-03     49.4833E-03    -24.8829E-03     5.73831E-03
             111     837.359E-09     110.882E-03    -39.8127E+06    -11.1342E+06    -35.9853E+06     5.36150E+06    -28.2380E-03     56.1008E-03    -27.8628E-03     6.22317E-03    -28.3688E-03     56.1555E-03    -27.9688E-03     6.29319E-03
             112    -437.634E-09     109.876E-03    -22.1487E+06    -3.22775E+06    -22.4535E+06    -237.710E+03    -31.6887E-03     63.2947E-03    -31.6060E-03     6.74223E-03    -31.7622E-03     63.3436E-03    -31.6815E-03     6.73911E-03
             113     163.684E-09     108.862E-03    -10.9714E+06    -5.48111E+06    -10.2499E+06    -780.851E+03    -35.2582E-03     70.6544E-03    -35.3962E-03     6.84232E-03    -35.2904E-03     70.6582E-03    -35.4236E-03     6.83112E-03
             114    -138.936E-09     107.840E-03    -2.78750E+06    -11.8312E+06    -2.39443E+06    -2.40394E+06    -38.9632E-03     77.7233E-03    -38.7601E-03     6.93095E-03    -38.9566E-03     77.6722E-03    -38.7509E-03     6.89751E-03
             115     451.243E-09     106.811E-03     608.006E+03    -20.0683E+06     143.702E+03    -2.20665E+06    -42.1286E-03     83.9753E-03    -41.8467E-03     6.85728E-03    -42.0967E-03     83.8746E-03    -41.8178E-03     6.82435E-03
             116    -300.593E-09     105.778E-03     681.389E+03    -30.6313E+06     1.34184E+06    -3.43599E+06    -44.7673E-03     89.5249E-03    -44.7575E-03     6.50020E-03    -44.7215E-03     89.3696E-03    -44.7074E-03     6.44915E-03
             117     157.432E-09     104.737E-03     2.02499E+06    -42.0186E+06     821.840E+03    -3.04814E+06    -47.1040E-03     94.3252E-03    -47.2212E-03     6.27166E-03    -47.0341E-03     94.1119E-03    -47.1591E-03     6.22414E-03
             118    -245.740E-09     103.694E-03     404.963E+03    -50.5016E+06     377.388E+03    -1.82378E+06    -49.1617E-03     98.1851E-03    -49.0234E-03     5.99305E-03    -49.0870E-03     97.9324E-03    -48.9489E-03     5.95893E-03
             119     554.456E-09     102.646E-03    -2.15925E+06    -58.5602E+06    -1.53501E+06    -2.62839E+06    -50.7959E-03     101.249E-03    -50.4529E-03     6.00914E-03    -50.7195E-03     100.962E-03    -50.3725E-03     5.96219E-03
             120    -285.618E-09     101.596E-03    -4.61207E+06    -69.5068E+06    -4.52649E+06    -3.58163E+06    -51.8195E-03     103.578E-03    -51.7588E-03     6.11851E-03    -51.7351E-03     103.245E-03    -51.6739E-03     6.05795E-03
             121     104.651E-09     100.542E-03    -5.77456E+06    -81.7218E+06    -6.44832E+06    -2.80389E+06    -52.5803E-03     105.111E-03    -52.5305E-03     5.72489E-03    -52.4813E-03     104.721E-03    -52.4359E-03     5.67336E-03
             122     138.455E-09     99.4902E-03    -13.4436E+06    -91.3044E+06    -13.3693E+06    -2.45674E+06    -53.2101E-03     106.265E-03    -53.0545E-03     5.57715E-03    -53.1255E-03     105.848E-03    -52.9695E-03     5.52909E-03
             123    -129.587E-09     98.4343E-03    -20.9087E+06    -99.6794E+06    -21.4450E+06    -1.93878E+06    -53.6846E-03     107.308E-03    -53.6237E-03     5.56828E-03    -53.6135E-03     106.873E-03    -53.5561E-03     5.52642E-03
             124     204.203E-09     97.3791E-03    -26.0729E+06    -105.891E+06    -26.0827E+06    -1.32732E+06    -53.9401E-03     107.891E-03    -53.9507E-03     5.56156E-03    -53.8790E-03     107.438E-03    -53.8898E-03     5.52771E-03
             125    -311.664E-09     96.3227E-03    -33.3637E+06    -111.786E+06    -33.2816E+06    -1.72264E+06    -54.1111E-03     108.233E-03    -54.1222E-03     5.54926E-03    -54.0675E-03     107.772E-03    -54.0782E-03     5.50991E-03
             126     386.445E-09     95.2668E-03    -36.5815E+06    -121.215E+06    -35.9804E+06    -3.52386E+06    -54.3826E-03     108.655E-03    -54.2723E-03     5.67075E-03    -54.3375E-03     108.155E-03    -54.2234E-03     5.60663E-03
             127    -281.527E-09     94.2092E-03    -41.2949E+06    -133.816E+06    -41.9608E+06    -3.56087E+06    -54.3675E-03     108.742E-03    -54.3743E-03     5.80391E-03    -54.3192E-03     108.195E-03    -54.3302E-03     5.73777E-03
             128     142.185E-09     93.1532E-03    -47.3266E+06    -143.481E+06    -47.5106E+06    -1.56506E+06    -54.3119E-03     108.682E-03    -54.3704E-03     5.85471E-03    -54.2716E-03     108.104E-03    -54.3313E-03     5.81464E-03
             129    -120.609E-09     92.0962E-03    -46.3358E+06    -147.303E+06    -46.7930E+06    -509.136E+03    -54.3818E-03     108.776E-03    -54.3942E-03     5.96083E-03    -54.3320E-03     108.176E-03    -54.3474E-03     5.93527E-03
             130     56.0140E-09     91.0398E-03    -46.8776E+06    -151.113E+06    -46.1659E+06    -1.25643E+06    -54.4724E-03     108.855E-03    -54.3830E-03     5.90215E-03    -54.4208E-03     108.236E-03    -54.3267E-03     5.86699E-03
             131     152.462E-09     89.9831E-03    -47.9849E+06    -156.143E+06    -48.6698E+06    -1.19109E+06    -54.5582E-03     108.889E-03    -54.3306E-03     5.79725E-03    -54.5012E-03     108.250E-03    -54.2779E-03     5.76310E-03
             132     3.82822E-09     88.9267E-03    -48.9741E+06    -157.517E+06    -48.9072E+06     204.002E+03    -54.5602E-03     108.885E-03    -54.3249E-03     5.59972E-03    -54.5057E-03     108.241E-03    -54.2700E-03     5.58397E-03
             133     226.799E-09     87.8699E-03    -48.4046E+06    -157.665E+06    -48.4747E+06    -61.8801E+03    -54.4974E-03     108.853E-03    -54.3556E-03     5.56663E-03    -54.4404E-03     108.206E-03    -54.2992E-03     5.54751E-03
             134    -231.270E-09     86.8136E-03    -48.9553E+06    -158.262E+06    -49.1517E+06    -202.892E+03    -54.4185E-03     108.867E-03    -54.4490E-03     5.60481E-03    -54.3625E-03     108.220E-03    -54.3943E-03     5.58370E-03
             135     166.802E-09     85.7564E-03    -48.7681E+06    -160.351E+06    -48.2678E+06    -811.942E+03    -54.4958E-03     108.857E-03    -54.3612E-03     5.66621E-03    -54.4371E-03     108.197E-03    -54.2993E-03     5.63672E-03
             136     117.435E-09     84.7000E-03    -47.0087E+06    -161.665E+06    -47.4887E+06    -221.560E+03    -54.4648E-03     108.812E-03    -54.3468E-03     5.79200E-03    -54.3966E-03     108.142E-03    -54.2816E-03     5.76978E-03
             137    -221.505E-09     83.6436E-03    -47.1259E+06    -161.681E+06    -46.7276E+06    -72.9719E+03    -54.4086E-03     108.902E-03    -54.4934E-03     5.61853E-03    -54.3420E-03     108.231E-03    -54.4243E-03     5.59870E-03
             138     170.362E-09     82.5867E-03    -46.5996E+06    -162.205E+06    -47.1301E+06    -128.383E+03    -54.4905E-03     108.988E-03    -54.4974E-03     5.64380E-03    -54.4200E-03     108.314E-03    -54.4303E-03     5.62356E-03
             139    -151.962E-09     81.5299E-03    -46.1866E+06    -161.418E+06    -45.9688E+06     434.172E+03    -54.4566E-03     108.928E-03    -54.4717E-03     5.77245E-03    -54.3868E-03     108.256E-03    -54.4005E-03     5.75905E-03
             140     94.3885E-09     80.4732E-03    -45.3721E+06    -160.482E+06    -45.4123E+06     72.0468E+03    -54.4014E-03     108.817E-03    -54.4154E-03     5.85511E-03    -54.3297E-03     108.147E-03    -54.3440E-03     5.83694E-03
             141    -77.3830E-09     79.4167E-03    -44.5169E+06    -160.021E+06    -44.8244E+06     513.245E+03    -54.5242E-03     108.786E-03    -54.2614E-03     5.71520E-03    -54.4497E-03     108.116E-03    -54.1889E-03     5.70340E-03
             142     489.484E-09     78.3605E-03    -43.7649E+06    -158.976E+06    -43.3344E+06    -1.32275E+03    -54.5493E-03     108.837E-03    -54.2878E-03     5.65206E-03    -54.4747E-03     108.170E-03    -54.2105E-03     5.63311E-03
             143    -466.276E-09     77.3036E-03    -43.5424E+06    -158.887E+06    -43.9758E+06    -246.028E+03    -54.3917E-03     108.839E-03    -54.4472E-03     5.60935E-03    -54.3152E-03     108.173E-03    -54.3736E-03     5.58696E-03
             144     328.797E-09     76.2471E-03    -43.5980E+06    -158.703E+06    -43.3661E+06     257.377E+03    -54.4083E-03     108.817E-03    -54.4087E-03     5.55086E-03    -54.3332E-03     108.151E-03    -54.3322E-03     5.53600E-03
             145    -204.127E-09     75.1906E-03    -42.6838E+06    -157.983E+06    -42.6769E+06     152.749E+03    -54.3734E-03     108.819E-03    -54.4452E-03     5.63693E-03    -54.2958E-03     108.154E-03    -54.3676E-03     5.62083E-03
             146    -58.0820E-09     74.1339E-03    -42.7424E+06    -157.925E+06    -42.7005E+06     143.224E+03    -54.3494E-03     108.842E-03    -54.4931E-03     5.68253E-03    -54.2721E-03     108.178E-03    -54.4157E-03     5.66608E-03
             147     60.2373E-09     73.0771E-03    -42.1009E+06    -157.484E+06    -42.3752E+06     69.3337E+03    -54.4870E-03     108.789E-03    -54.3024E-03     5.75206E-03    -54.4077E-03     108.126E-03    -54.2249E-03     5.73382E-03
             148     233.597E-09     72.0207E-03    -41.8156E+06    -156.779E+06    -41.7186E+06     387.015E+03    -54.4236E-03     108.709E-03    -54.2850E-03     5.68417E-03    -54.3448E-03     108.047E-03    -54.2057E-03     5.66990E-03
             149    -305.427E-09     70.9649E-03    -41.4863E+06    -156.318E+06    -41.1408E+06    -194.718E+03    -54.3790E-03     108.876E-03    -54.4970E-03     5.56742E-03    -54.3000E-03     108.215E-03    -54.4159E-03     5.54654E-03
             150     165.032E-09     69.9072E-03    -40.5046E+06    -156.092E+06    -41.0546E+06    -12.7718E+03    -54.4285E-03     108.930E-03    -54.5016E-03     5.55311E-03    -54.3451E-03     108.269E-03    -54.4218E-03     5.53438E-03
             151    -170.000E-09     68.8511E-03    -40.8847E+06    -155.876E+06    -40.4355E+06    -30.9437E+03    -54.4207E-03     108.738E-03    -54.3175E-03     5.58493E-03    -54.3404E-03     108.078E-03    -54.2344E-03     5.56559E-03
             152     341.000E-09     67.7945E-03    -41.3059E+06    -156.324E+06    -41.5430E+06    -263.075E+03    -54.4847E-03     108.710E-03    -54.2253E-03     5.59835E-03    -54.4043E-03     108.050E-03    -54.1465E-03     5.57594E-03
             153    -87.2265E-09     66.7381E-03    -41.6861E+06    -156.690E+06    -41.6372E+06     160.298E+03    -54.5048E-03     108.775E-03    -54.2702E-03     5.60342E-03    -54.4256E-03     108.114E-03    -54.1907E-03     5.58689E-03
             154     219.034E-09     65.6815E-03    -40.7233E+06    -156.059E+06    -40.8823E+06     226.872E+03    -54.4579E-03     108.769E-03    -54.3108E-03     5.58495E-03    -54.3759E-03     108.108E-03    -54.2298E-03     5.56969E-03
             155    -116.641E-09     64.6250E-03    -40.5288E+06    -155.489E+06    -40.3810E+06    -107.856E+03    -54.3892E-03     108.785E-03    -54.3955E-03     5.82416E-03    -54.3078E-03     108.126E-03    -54.3132E-03     5.80390E-03
             156    -11.0089E-09     63.5681E-03    -41.7679E+06    -156.773E+06    -41.8732E+06    -463.627E+03    -54.3732E-03     108.831E-03    -54.4581E-03     6.02126E-03    -54.2940E-03     108.170E-03    -54.3795E-03     5.99555E-03
             157    -24.2875E-09     62.5113E-03    -42.8412E+06    -157.808E+06    -42.9977E+06     299.017E+03    -54.3963E-03     108.761E-03    -54.3649E-03     5.97963E-03    -54.3194E-03     108.098E-03    -54.2890E-03     5.96385E-03
             158     94.4315E-09     61.4555E-03    -42.6898E+06    -157.211E+06    -42.2831E+06    -107.548E+03    -54.4053E-03     108.738E-03    -54.3324E-03     5.84898E-03    -54.3294E-03     108.076E-03    -54.2539E-03     5.82791E-03
             159     11.0255E-09     59.3423E-03    -42.2854E+06    -157.093E+06    -42.1732E+06     341.940E+03    -54.3206E-03     108.712E-03    -54.3910E-03     5.63701E-03    -54.2430E-03     108.050E-03    -54.3128E-03     5.62370E-03
             160    -104.044E-09     58.2858E-03    -42.1268E+06    -156.792E+06    -42.1738E+06    -46.9444E+03    -54.3544E-03     108.593E-03    -54.2387E-03     5.64889E-03    -54.2765E-03     107.933E-03    -54.1611E-03     5.62989E-03
             161     378.619E-09     57.2294E-03    -41.6244E+06    -156.515E+06    -41.4960E+06    -32.1612E+03    -54.3853E-03     108.579E-03    -54.1932E-03     5.68986E-03    -54.3062E-03     107.918E-03    -54.1134E-03     5.67066E-03
             162    -339.799E-09     56.1736E-03    -41.6059E+06    -156.565E+06    -41.4949E+06    -142.343E+03    -54.2111E-03     108.525E-03    -54.3138E-03     5.45372E-03    -54.1319E-03     107.864E-03    -54.2339E-03     5.43379E-03
             163     112.847E-09     55.1170E-03    -41.9818E+06    -156.806E+06    -42.2441E+06     123.564E+03    -54.2232E-03     108.486E-03    -54.2630E-03     5.40702E-03    -54.1443E-03     107.826E-03    -54.1860E-03     5.39085E-03
             164     29.2765E-09     54.0609E-03    -41.3168E+06    -156.188E+06    -41.2909E+06     107.648E+03    -54.2413E-03     108.493E-03    -54.2516E-03     5.71792E-03    -54.1615E-03     107.833E-03    -54.1717E-03     5.70056E-03
             165    -204.249E-09     53.0043E-03    -40.7379E+06    -155.900E+06    -40.8275E+06     166.967E+03    -54.2385E-03     108.447E-03    -54.2084E-03     5.67325E-03    -54.1569E-03     107.787E-03    -54.1274E-03     5.65699E-03
             166     414.232E-09     51.9485E-03    -41.1247E+06    -155.948E+06    -40.9927E+06    -27.1532E+03    -54.2655E-03     108.342E-03    -54.0769E-03     5.60338E-03    -54.1854E-03     107.683E-03    -53.9961E-03     5.58506E-03
             167    -316.175E-09     50.8925E-03    -41.1881E+06    -155.945E+06    -41.1725E+06    -230.617E+03    -54.1834E-03     108.365E-03    -54.1816E-03     5.52407E-03    -54.1034E-03     107.706E-03    -54.1016E-03     5.50271E-03
             168     206.911E-09     49.8365E-03    -41.0776E+06    -156.055E+06    -41.2060E+06    -195.032E+03    -54.2604E-03     108.487E-03    -54.2268E-03     5.42124E-03    -54.1797E-03     107.828E-03    -54.1469E-03     5.40001E-03
             169    -55.6355E-09     48.7798E-03    -41.4645E+06    -156.391E+06    -41.5059E+06    -72.7253E+03    -54.2674E-03     108.377E-03    -54.1092E-03     5.51472E-03    -54.1877E-03     107.716E-03    -54.0298E-03     5.49518E-03
             170     159.226E-09     47.7241E-03     -41.921E+06    -156.701E+06    -41.7297E+06    -175.381E+03    -54.1103E-03     108.174E-03    -54.0639E-03     5.58253E-03    -54.0322E-03     107.513E-03    -53.9845E-03     5.56119E-03
             171    -196.294E-09     46.6681E-03    -41.0881E+06    -156.126E+06    -41.3936E+06      103.72E+03    -54.0898E-03     108.149E-03    -54.0588E-03     5.59745E-03    -54.0087E-03     107.489E-03    -53.9798E-03     5.57961E-03
             172     267.904E-09     45.6122E-03    -41.3764E+06    -155.923E+06    -41.1598E+06    -63.0688E+03    -54.1021E-03     108.093E-03    -53.9911E-03     5.55812E-03    -54.0231E-03     107.435E-03    -53.9108E-03     5.53876E-03
             173    -162.647E-09     44.5566E-03    -41.2740E+06    -156.080E+06    -41.4881E+06    -106.065E+03    -54.0370E-03     107.974E-03    -53.9372E-03     5.51513E-03    -53.9568E-03     107.315E-03    -53.8585E-03     5.49516E-03
             174     210.676E-09     43.5009E-03    -41.8022E+06    -156.211E+06    -41.5130E+06     140.545E+03    -53.9271E-03     107.847E-03    -53.9202E-03     5.48644E-03    -53.8493E-03     107.188E-03    -53.8407E-03     5.46980E-03
             175    -258.243E-09     42.4453E-03    -41.8562E+06    -156.031E+06    -41.9582E+06    -252.934E+03    -53.7700E-03     107.587E-03    -53.8174E-03     5.55877E-03    -53.6921E-03     106.930E-03    -53.7403E-03     5.53729E-03
             176     209.033E-09     41.3902E-03    -41.7238E+06    -156.268E+06    -42.0761E+06     231.063E+03    -53.6413E-03     107.242E-03    -53.6006E-03     5.60518E-03    -53.5621E-03     106.583E-03    -53.5239E-03     5.59025E-03
             177    -109.455E-09     40.3354E-03    -41.4460E+06    -155.880E+06    -41.2107E+06     249.027E+03    -53.4566E-03     106.802E-03    -53.3453E-03     5.42388E-03    -53.3778E-03     106.144E-03    -53.2652E-03     5.40966E-03
             178     188.120E-09     39.2818E-03    -41.0488E+06    -155.394E+06    -41.1813E+06     143.752E+03    -53.2158E-03     106.374E-03    -53.1582E-03     5.24218E-03    -53.1359E-03     105.718E-03    -53.0793E-03     5.22642E-03
             179    -183.152E-09     38.2276E-03    -40.4728E+06    -154.688E+06    -40.2137E+06        -876.922    -53.0489E-03     106.068E-03    -53.0191E-03     5.39681E-03    -52.9685E-03     105.413E-03    -52.9372E-03     5.37874E-03
             180     217.951E-09     37.1738E-03    -39.7454E+06    -154.348E+06    -40.0316E+06     77.7956E+03    -52.8964E-03     105.662E-03    -52.7657E-03     5.49914E-03    -52.8131E-03     105.007E-03    -52.6844E-03     5.48235E-03
             181    -47.1702E-09     36.1211E-03    -40.0240E+06    -153.846E+06    -39.6078E+06    -47.9303E+03    -52.5953E-03     105.097E-03    -52.5022E-03     5.35981E-03    -52.5147E-03     104.445E-03    -52.4191E-03     5.34145E-03
             182     26.0817E-09     35.0689E-03    -40.9070E+06    -154.643E+06    -41.0142E+06    -646.057E+03    -52.2779E-03     104.535E-03    -52.2567E-03     5.12723E-03    -52.1986E-03     103.882E-03    -52.1783E-03     5.10123E-03
             183     17.3739E-09     34.0171E-03    -41.0529E+06    -155.097E+06    -41.5317E+06     306.762E+03    -52.0614E-03     104.021E-03    -51.9597E-03     5.10901E-03    -51.9814E-03     103.367E-03    -51.8829E-03     5.09583E-03
             184     95.1483E-09     32.9657E-03    -41.1731E+06    -154.462E+06    -40.5565E+06     329.753E+03    -51.7936E-03     103.398E-03    -51.6044E-03     5.04866E-03    -51.7165E-03     102.745E-03    -51.5235E-03     5.03637E-03
             185     110.203E-09     31.9154E-03    -40.7935E+06    -153.803E+06    -41.0640E+06    -68.2649E+03    -51.3962E-03     102.619E-03    -51.2232E-03     4.94852E-03    -51.3174E-03     101.970E-03    -51.1464E-03     4.93186E-03
             186    -34.6696E-09     30.8659E-03    -40.3416E+06    -153.185E+06    -40.4545E+06     384.826E+03    -50.8990E-03     101.787E-03    -50.8882E-03     4.86820E-03    -50.8197E-03     101.140E-03    -50.8098E-03     4.85779E-03
             187    -35.0788E-09     29.8169E-03    -40.2431E+06    -152.962E+06    -40.1158E+06     290.170E+03    -50.4032E-03     100.790E-03    -50.3867E-03     4.75262E-03    -50.3242E-03     100.143E-03    -50.3071E-03     4.74141E-03
             188     123.651E-09     28.7696E-03    -39.4573E+06    -151.636E+06    -39.7453E+06     124.646E+03    -49.8365E-03     99.6319E-03    -49.7954E-03     4.66908E-03    -49.7561E-03     98.9899E-03    -49.7170E-03     4.65537E-03
             189    -155.445E-09     27.7234E-03    -38.8926E+06    -150.566E+06    -38.8546E+06     333.728E+03    -49.2018E-03     98.4365E-03    -49.2346E-03     4.45680E-03    -49.1214E-03     97.7977E-03    -49.1542E-03     4.44600E-03
             190     121.785E-09     26.6784E-03    -37.9461E+06    -149.304E+06    -37.8059E+06     36.0957E+03    -48.6243E-03     97.1925E-03    -48.5682E-03     4.28773E-03    -48.5424E-03     96.5571E-03    -48.4857E-03     4.27374E-03
             191     719.692E-12     25.6347E-03    -38.4235E+06    -149.237E+06    -38.7299E+06     47.1182E+03    -47.9399E-03     95.8316E-03    -47.8917E-03     4.17322E-03    -47.8593E-03     95.1986E-03    -47.8132E-03     4.15985E-03
             192    -52.3468E-09     24.5926E-03    -37.6414E+06    -147.921E+06    -37.6307E+06     541.597E+03    -47.1906E-03     94.4463E-03    -47.2557E-03     4.08702E-03    -47.1095E-03     93.8171E-03    -47.1748E-03     4.08092E-03
             193    -15.9297E-09     23.5517E-03    -36.8590E+06    -146.656E+06    -36.7115E+06     256.674E+03    -46.6004E-03     93.1064E-03    -46.5059E-03     4.10074E-03    -46.5185E-03     92.4810E-03    -46.4234E-03     4.09151E-03
             194     240.097E-09     22.5121E-03    -36.9725E+06    -145.983E+06    -37.0161E+06     437.937E+03    -45.9084E-03     91.6439E-03    -45.7354E-03     4.07277E-03    -45.8276E-03     91.0225E-03    -45.6552E-03     4.06638E-03
             195    -175.522E-09     21.4747E-03    -36.8835E+06    -145.253E+06    -36.6976E+06     517.064E+03    -45.0046E-03     90.0442E-03    -45.0396E-03     3.79875E-03    -44.9249E-03     89.4259E-03    -44.9590E-03     3.79409E-03
             196     45.5648E-09     20.4386E-03    -36.2508E+06    -144.115E+06    -36.3794E+06     90.7552E+03    -44.2119E-03     88.4447E-03    -44.2328E-03     3.38289E-03    -44.1311E-03     87.8306E-03    -44.1532E-03     3.37330E-03
             197     41.3158E-09     19.4047E-03    -36.8949E+06    -143.238E+06    -37.1100E+06     553.937E+03    -43.4368E-03     86.8049E-03    -43.3681E-03     3.17091E-03    -43.3594E-03     86.1972E-03    -43.2924E-03     3.16806E-03
             198    -17.2055E-09     18.3713E-03    -35.2669E+06    -140.725E+06    -35.2472E+06     1.00998E+06    -42.5772E-03     85.0347E-03    -42.4575E-03     3.06585E-03    -42.4980E-03     84.4345E-03    -42.3786E-03     3.06982E-03
             199     195.118E-09     17.3410E-03    -33.6329E+06    -138.030E+06    -33.4467E+06     20.4173E+03    -41.5604E-03     82.9734E-03    -41.4129E-03     2.69854E-03    -41.4796E-03     82.3817E-03    -41.3313E-03     2.68981E-03
             200    -119.965E-09     16.3128E-03    -34.9150E+06    -137.503E+06    -35.2716E+06     254.461E+03    -40.4285E-03     80.6315E-03    -40.2030E-03     2.06690E-03    -40.3522E-03     80.0470E-03    -40.1294E-03     2.06193E-03
             201     428.703E-09     15.2870E-03    -33.2771E+06    -134.601E+06    -33.4906E+06     1.41914E+06    -39.2493E-03     78.1330E-03    -38.8837E-03     1.69936E-03    -39.1715E-03     77.5580E-03    -38.8077E-03     1.71074E-03
             202    -108.355E-09     14.2635E-03    -29.0587E+06    -128.418E+06    -29.0956E+06     1.82279E+06    -37.6568E-03     75.1146E-03    -37.4578E-03     1.28164E-03    -37.5733E-03     74.5579E-03    -37.3749E-03     1.29922E-03
             203     131.871E-09     13.2439E-03    -25.8614E+06    -122.911E+06    -25.4042E+06     1.01726E+06    -35.7773E-03     71.4029E-03    -35.6256E-03     682.968E-06    -35.6911E-03     70.8637E-03    -35.5369E-03     690.766E-06
             204     113.943E-09     12.2283E-03    -23.2019E+06    -119.505E+06    -23.4802E+06     978.381E+03    -33.8540E-03     67.5381E-03    -33.6841E-03     533.041E-06    -33.7623E-03     67.0093E-03    -33.5945E-03     540.780E-06
             205    -66.9391E-09     11.2161E-03    -19.8243E+06    -114.248E+06    -19.5734E+06     1.17273E+06    -31.9733E-03     63.8583E-03    -31.8850E-03     489.805E-06    -31.8780E-03     63.3453E-03    -31.7885E-03     500.295E-06
             206     177.158E-09     10.2077E-03    -18.2090E+06    -111.459E+06    -17.8373E+06     586.814E+03    -30.4185E-03     60.6595E-03    -30.2410E-03     688.539E-06    -30.3216E-03     60.1556E-03    -30.1422E-03     691.626E-06
             207     26.6532E-09     9.20217E-03    -18.0340E+06    -110.888E+06    -17.8715E+06     115.420E+03    -29.3145E-03     58.6773E-03    -29.3628E-03     1.03630E-03    -29.2175E-03     58.1761E-03    -29.2652E-03     1.03346E-03
             208    -314.289E-09     8.19798E-03    -19.1070E+06    -111.703E+06    -18.6555E+06    -627.824E+03    -29.2111E-03     58.5423E-03    -29.3312E-03     1.24054E-03    -29.1172E-03     58.0398E-03    -29.2348E-03     1.22832E-03
             209     395.663E-09     7.19267E-03    -21.3412E+06    -115.021E+06    -20.8160E+06    -1.07405E+06    -30.3641E-03     60.5943E-03    -30.2302E-03     1.73769E-03    -30.2734E-03     60.0815E-03    -30.1365E-03     1.71987E-03
             210    -238.334E-09     6.18430E-03    -22.8473E+06    -118.945E+06    -22.8428E+06    -1.16103E+06    -32.3952E-03     64.7722E-03    -32.3770E-03     2.20918E-03    -32.3036E-03     64.2448E-03    -32.2856E-03     2.19049E-03
             211     112.931E-09     5.17050E-03    -23.8882E+06    -122.891E+06    -23.9686E+06    -889.753E+03    -35.3592E-03     70.7698E-03    -35.4106E-03     2.45832E-03    -35.2655E-03     70.2256E-03    -35.3176E-03     2.44328E-03
             212    -77.2334E-09     4.15001E-03    -24.1386E+06    -126.385E+06    -24.0658E+06    -925.447E+03    -38.9360E-03     77.8881E-03    -38.9521E-03     2.50700E-03    -38.8384E-03     77.3269E-03    -38.8541E-03     2.49128E-03
             213     16.3548E-09     3.12167E-03    -23.2507E+06    -129.241E+06    -23.3748E+06    -949.301E+03    -42.5443E-03     85.1629E-03    -42.6187E-03     2.29554E-03    -42.4388E-03     84.5853E-03    -42.5144E-03     2.27971E-03
             214    -84.0641E-09     2.08610E-03    -22.4723E+06    -131.762E+06    -23.0142E+06    -677.958E+03    -45.7160E-03     91.5249E-03    -45.8089E-03     1.77535E-03    -45.6027E-03     90.9333E-03    -45.7004E-03     1.76388E-03
             215    -14.8733E-09     1.04459E-03    -22.1807E+06    -133.349E+06    -22.7145E+06     171.727E+03    -47.9968E-03     95.8385E-03    -47.8417E-03     880.770E-06    -47.8794E-03     95.2383E-03    -47.7298E-03     881.562E-06
             216     856.978E-06    -4.12170E-15    -21.8309E+06    -133.144E+06    -21.3475E+06     230.440E+03    -48.7820E-03     97.3593E-03    -48.5773E-03     773.607E-06    -48.6659E-03     96.7567E-03    -48.4593E-03     775.252E-06
             217     1.71402E-03    -4.12170E-15    -21.0176E+06    -132.857E+06    -21.6919E+06    -754.913E+03    -48.6729E-03     97.3486E-03    -48.6756E-03     1.52113E-03    -48.5537E-03     96.7461E-03    -48.5610E-03     1.50855E-03
             218     2.57101E-03    -4.12170E-15    -19.9952E+06    -132.085E+06    -21.2534E+06    -744.749E+03    -48.6891E-03     97.3639E-03    -48.6748E-03     2.25563E-03    -48.5666E-03     96.7631E-03    -48.5605E-03     2.24176E-03
             219     3.42805E-03    -4.12170E-15    -19.4176E+06    -131.662E+06    -21.2841E+06    -591.809E+03    -48.7725E-03     97.4567E-03    -48.6841E-03     3.03744E-03    -48.6478E-03     96.8573E-03    -48.5715E-03     3.02419E-03
             220     4.28484E-03    -4.12170E-15    -18.7728E+06    -132.073E+06    -23.2324E+06    -1.03228E+06    -48.9383E-03     97.6430E-03    -48.7046E-03     3.81553E-03    -48.8070E-03     97.0435E-03    -48.6021E-03     3.79488E-03
             221     5.14168E-03    -4.12170E-15    -17.1153E+06    -132.449E+06    -26.2110E+06    -2.29444E+06    -49.2107E-03     97.9538E-03    -48.7431E-03     4.60122E-03    -49.0663E-03     97.3544E-03    -48.6572E-03     4.56246E-03
             222     5.99802E-03    -4.12170E-15    -13.7319E+06    -132.794E+06    -32.4745E+06    -4.23250E+06    -49.6731E-03     98.4692E-03    -48.7961E-03     5.51270E-03    -49.5023E-03     97.8724E-03    -48.7460E-03     5.44692E-03
             223     6.85400E-03    -4.12170E-15    -8.76067E+06    -127.945E+06    -45.8486E+06    -6.16865E+06    -50.3872E-03     99.2380E-03    -48.8508E-03     6.52058E-03    -50.1793E-03     98.6777E-03    -48.8818E-03     6.42721E-03
             224     7.70918E-03    -4.12170E-15    -3.35378E+06    -114.344E+06    -57.4837E+06    -6.78474E+06    -51.3887E-03     100.351E-03    -48.9622E-03     7.63386E-03    -51.1568E-03     99.8678E-03    -49.0789E-03     7.52941E-03
             225     8.56340E-03    -4.12170E-15     1.92720E+06    -94.5374E+06    -61.2971E+06    -7.00516E+06    -52.7427E-03     101.923E-03    -49.1804E-03     9.00516E-03    -52.5077E-03     101.537E-03    -49.3526E-03     8.89403E-03
             226     9.41596E-03    -4.12170E-15     6.12837E+06    -66.3175E+06    -58.8582E+06    -5.73626E+06    -54.4940E-03     104.005E-03    -49.5111E-03     10.6248E-03    -54.2829E-03     103.751E-03    -49.7181E-03     10.5238E-03
             227     10.2670E-03    -4.12170E-15     6.87861E+06    -27.7941E+06    -50.8602E+06    -1.58259E+06    -56.7600E-03     106.729E-03    -49.9689E-03     12.7551E-03    -56.6131E-03     106.655E-03    -50.1929E-03     12.7000E-03
             228     11.1150E-03    -4.12170E-15     5.25271E+06     8.90683E+06    -34.1701E+06    -702.292E+03    -59.6162E-03     110.221E-03    -50.6051E-03     15.9126E-03    -59.5558E-03     110.310E-03    -50.7965E-03     15.8589E-03
             229     11.9599E-03    -4.12170E-15     4.31801E+06     34.5146E+06    -7.75872E+06    -800.739E+03    -63.0170E-03     114.464E-03    -51.4473E-03     19.4818E-03    -63.0386E-03     114.646E-03    -51.5424E-03     19.4037E-03
             230     12.8023E-03    -4.12170E-15     3.44961E+06     52.5920E+06     23.8785E+06     2.27426E+06    -67.7200E-03     120.219E-03    -52.4995E-03     23.9620E-03    -67.8211E-03     120.450E-03    -52.4613E-03     23.8910E-03
             231     13.6387E-03    -4.12170E-15     2.94365E+06     64.1910E+06     50.5798E+06     2.28416E+06    -75.7036E-03     129.517E-03    -53.8135E-03     31.6288E-03    -75.8685E-03     129.774E-03    -53.6579E-03     31.5120E-03
             232     14.4652E-03    -4.12170E-15     4.37003E+06     77.3286E+06     70.8980E+06    -994.640E+03    -88.0859E-03     143.625E-03    -55.5393E-03     50.0598E-03    -88.3088E-03     143.929E-03    -55.3033E-03     49.8263E-03
             233     15.2654E-03    -4.12170E-15     1.40234E+06     88.3704E+06     80.2554E+06     1.15673E+06    -108.207E-03     166.140E-03    -57.9330E-03     108.576E-03    -108.666E-03     166.655E-03    -57.6619E-03     107.829E-03
             234     16.0152E-03    -4.12170E-15     1.78321E+06     102.210E+06     85.2479E+06     6.64312E+06    -145.561E-03     207.092E-03    -61.5316E-03     186.906E-03    -147.404E-03     209.064E-03    -61.2561E-03     183.034E-03
             235     16.9160E-03     1.25552E-03     2.26824E+06     121.321E+06     82.6236E+06     6.30204E+06    -174.698E-03     235.611E-03    -60.9134E-03     201.347E-03    -178.576E-03     239.742E-03    -60.6795E-03     193.519E-03
             236     16.9646E-03     2.52052E-03    -3.11016E+06     126.980E+06     76.1108E+06     4.34634E+06    -171.718E-03     228.947E-03    -57.2286E-03     193.298E-03    -177.471E-03     234.935E-03    -57.0277E-03     184.557E-03
             237     16.9870E-03     3.69066E-03    -2.84521E+06     130.391E+06     82.1877E+06     5.19221E+06    -157.620E-03     213.392E-03    -55.7714E-03     193.336E-03    -164.179E-03     220.155E-03    -55.5454E-03     185.935E-03
             238     17.0128E-03     4.84284E-03    -2.91498E+06     135.926E+06     86.0888E+06     3.46799E+06    -150.747E-03     205.481E-03    -54.7338E-03     172.172E-03    -156.869E-03     211.822E-03    -54.4963E-03     166.058E-03
             239     17.0163E-03     6.01146E-03    -3.07307E+06     137.959E+06     89.8772E+06     2.33395E+06    -145.222E-03     199.409E-03    -54.1861E-03     158.641E-03    -151.116E-03     205.523E-03    -53.9323E-03     153.513E-03
             240     17.0281E-03     7.16452E-03    -3.30572E+06     138.834E+06     92.4425E+06     744.413E+03    -133.288E-03     187.361E-03    -54.0733E-03     156.922E-03    -139.420E-03     193.705E-03    -53.8076E-03     153.297E-03
             241     17.0274E-03     8.29266E-03    -2.68817E+06     138.642E+06     93.6036E+06    -380.749E+03    -122.802E-03     176.935E-03    -54.1329E-03     153.520E-03    -129.065E-03     183.410E-03    -53.8620E-03     151.343E-03
             242     17.0293E-03     9.42757E-03    -2.81085E+06     138.965E+06     93.1306E+06     1.49275E+06    -113.057E-03     167.345E-03    -54.2877E-03     153.443E-03    -119.454E-03     173.955E-03    -54.0195E-03     152.731E-03
             243     17.0313E-03     10.5324E-03    -2.96123E+06     140.656E+06     92.3283E+06     1.43818E+06    -104.233E-03     158.647E-03    -54.4141E-03     157.265E-03    -110.963E-03     165.598E-03    -54.1521E-03     157.881E-03
             244     17.0309E-03     11.6513E-03    -1.86674E+06     143.015E+06     93.7675E+06     764.493E+03    -96.6149E-03     151.152E-03    -54.5370E-03     162.966E-03    -103.803E-03     158.571E-03    -54.2729E-03     164.878E-03
             245     17.0342E-03     12.7481E-03    -2.88655E+06     143.106E+06     93.4786E+06     265.626E+03    -88.7261E-03     143.361E-03    -54.6345E-03     173.607E-03    -96.5202E-03     151.382E-03    -54.3704E-03     176.897E-03
             246     17.0353E-03     13.8417E-03    -2.32988E+06     143.360E+06     93.5392E+06     561.136E+03    -84.7367E-03     139.355E-03    -54.6182E-03     175.201E-03    -92.7007E-03     147.548E-03    -54.3550E-03     179.264E-03
             247     17.0375E-03     14.9214E-03    -2.37491E+06     143.307E+06     94.9045E+06    -136.691E+03    -82.7415E-03     137.276E-03    -54.5348E-03     167.788E-03    -90.3817E-03     145.140E-03    -54.2647E-03     172.168E-03
             248     17.0406E-03     16.0031E-03    -2.22531E+06     142.558E+06     96.3318E+06      93.395E+03    -81.9364E-03     136.368E-03    -54.4311E-03     160.270E-03    -89.2281E-03     143.878E-03    -54.1530E-03     164.841E-03
             249     17.0404E-03     17.0932E-03    -1.39011E+06     145.018E+06     96.4367E+06     1.62885E+06    -80.3782E-03     134.738E-03    -54.3600E-03     156.345E-03    -87.5443E-03     142.134E-03    -54.0860E-03     161.253E-03
             250     17.0444E-03     18.1695E-03    -3.19453E+06     146.515E+06     95.5641E+06     244.572E+03    -77.9417E-03     132.275E-03    -54.3337E-03     153.100E-03    -85.0165E-03     139.582E-03    -54.0637E-03     158.409E-03
             251     17.0417E-03     19.2554E-03    -2.20240E+06     146.541E+06     97.7660E+06     38.6226E+03    -76.1649E-03     130.498E-03    -54.3333E-03     151.314E-03    -83.1879E-03     137.750E-03    -54.0538E-03     156.960E-03
             252     17.0465E-03     20.3301E-03     1.32425E+06     146.469E+06     100.571E+06     395.160E+03    -72.6965E-03     127.003E-03    -54.3066E-03     150.494E-03    -79.6080E-03     134.147E-03    -54.0180E-03     156.523E-03
             253     17.0479E-03     21.4054E-03    -1.97917E+06     145.075E+06     98.9652E+06     120.197E+03    -71.8772E-03     126.146E-03    -54.2691E-03     151.422E-03    -78.9208E-03     133.411E-03    -53.9817E-03     157.739E-03
             254     17.0440E-03     22.4904E-03    -1.35803E+06     147.693E+06     99.4759E+06     946.457E+03    -69.4995E-03     123.827E-03    -54.3277E-03     152.443E-03    -76.7065E-03     131.265E-03    -54.0425E-03     159.139E-03
             255     17.0502E-03     23.5501E-03    -2.90499E+06     146.585E+06     97.3629E+06    -978.344E+03    -67.4931E-03     121.823E-03    -54.3294E-03     153.930E-03    -74.7281E-03     129.286E-03    -54.0510E-03     160.919E-03
             256     17.0448E-03     24.6288E-03    -2.95865E+06     144.480E+06     97.9133E+06    -29.0847E+03    -67.6859E-03     121.966E-03    -54.2800E-03     154.570E-03    -74.9048E-03     129.405E-03    -53.9957E-03     161.603E-03
             257     17.0529E-03     25.7028E-03    -1.29015E+06     145.718E+06     99.3068E+06     821.362E+03    -64.2807E-03     118.612E-03    -54.3316E-03     154.988E-03    -71.6366E-03     126.193E-03    -54.0445E-03     162.561E-03
             258     17.0444E-03     26.7578E-03    -3.62760E+06     146.680E+06     97.3939E+06     73.5794E+03    -62.7428E-03     117.075E-03    -54.3322E-03     155.807E-03    -70.2053E-03     124.763E-03    -54.0527E-03     163.721E-03
             259     17.0554E-03     27.8365E-03    -3.25535E+06     145.526E+06     98.1571E+06    -513.026E+03    -62.6137E-03     116.878E-03    -54.2647E-03     161.064E-03    -70.3008E-03     124.786E-03    -53.9802E-03     169.163E-03
             260     17.0475E-03     28.9001E-03    -2.20867E+06     145.378E+06     100.028E+06     494.484E+03    -62.1319E-03     116.394E-03    -54.2617E-03     165.876E-03    -70.1267E-03     124.607E-03    -53.9692E-03     174.265E-03
             261     17.0541E-03     29.9696E-03    -1.21617E+06     149.386E+06     99.9301E+06     1.57094E+06    -58.7310E-03     113.058E-03    -54.3271E-03     165.261E-03    -66.7257E-03     121.289E-03    -54.0423E-03     173.997E-03
             262     17.0495E-03     31.0191E-03    -3.96071E+06     148.788E+06     98.1965E+06    -1.31186E+06    -57.7850E-03     112.123E-03    -54.3384E-03     164.369E-03    -65.7989E-03     120.367E-03    -54.0574E-03     173.379E-03
             263     17.0525E-03     32.0861E-03    -2.02594E+06     146.522E+06     100.632E+06     175.705E+03    -59.9765E-03     114.236E-03    -54.2594E-03     165.942E-03    -68.0128E-03     122.493E-03    -53.9657E-03     174.825E-03
             264     17.0538E-03     33.1524E-03    -1.45907E+06     148.243E+06     101.599E+06     1.42293E+06    -57.7430E-03     111.995E-03    -54.2520E-03     168.504E-03    -65.9018E-03     120.380E-03    -53.9568E-03     177.574E-03
             265     17.0528E-03     34.2105E-03    -2.58873E+06     149.337E+06     100.727E+06    -1.32488E+06    -55.0513E-03     109.392E-03    -54.3402E-03     165.999E-03    -63.2384E-03     117.808E-03    -54.0494E-03     175.415E-03
             266     17.0514E-03     35.2570E-03    -1.37153E+06     148.249E+06     100.820E+06    -44.5556E+03    -57.0161E-03     111.324E-03    -54.3080E-03     163.339E-03    -64.9886E-03     119.526E-03    -54.0169E-03     172.533E-03
             267     17.0539E-03     36.3266E-03    -3.61618E+06     148.870E+06     100.182E+06     1.36903E+06    -58.4343E-03     112.668E-03    -54.2338E-03     163.665E-03    -66.3410E-03     120.800E-03    -53.9435E-03     172.595E-03
             268     17.0529E-03     37.3903E-03    -3.50141E+06     149.387E+06     100.044E+06    -1.07137E+06    -56.4862E-03     110.800E-03    -54.3134E-03     164.915E-03    -64.6622E-03     119.203E-03    -54.0247E-03     174.312E-03
             269     17.0501E-03     38.4408E-03    -2.13689E+06     149.317E+06     100.723E+06     364.892E+03    -55.4453E-03     109.802E-03    -54.3564E-03     166.090E-03    -63.6554E-03     118.242E-03    -54.0662E-03     175.716E-03
             270     17.0559E-03     39.5044E-03    -3.95604E+06     149.549E+06     99.3137E+06     948.503E+03    -55.8741E-03     110.184E-03    -54.3095E-03     169.822E-03    -64.1714E-03     118.710E-03    -54.0240E-03     179.316E-03
             271     17.0497E-03     40.5690E-03      -840.3E+03     151.201E+06     101.323E+06      61.082E+03    -54.3384E-03     108.681E-03    -54.3428E-03     170.877E-03    -62.7661E-03     117.349E-03    -54.0542E-03     180.602E-03
             272     17.0569E-03     41.6107E-03    -1.75766E+06     150.789E+06     101.466E+06    -223.972E+03    -53.9096E-03     108.255E-03    -54.3456E-03     166.649E-03    -62.1407E-03     116.721E-03    -54.0544E-03     176.452E-03
             273     17.0491E-03     42.6745E-03    -4.57744E+06     150.531E+06     99.4733E+06    -234.236E+03    -55.8146E-03     110.113E-03    -54.2979E-03     165.865E-03    -63.9834E-03     118.511E-03    -54.0122E-03     175.390E-03
             274     17.0570E-03     43.7363E-03    -2.80626E+06     150.601E+06     100.747E+06    -340.688E+03    -55.0785E-03     109.395E-03    -54.3165E-03     168.961E-03    -63.3700E-03     117.919E-03    -54.0271E-03     178.603E-03
             275     17.0495E-03     44.7882E-03    -1.97266E+06     149.872E+06     101.776E+06     36.8197E+03    -54.1372E-03     108.504E-03    -54.3665E-03     166.336E-03    -62.3636E-03     116.960E-03    -54.0721E-03     176.153E-03
             276     17.0549E-03     45.8455E-03    -3.40459E+06     150.188E+06     100.065E+06     526.202E+03    -53.3517E-03     107.705E-03    -54.3533E-03     165.855E-03    -61.4950E-03     116.079E-03    -54.0658E-03     175.677E-03
             277     17.0534E-03     46.8985E-03    -3.76709E+06     150.208E+06     99.4787E+06    -264.841E+03    -54.5299E-03     108.822E-03    -54.2923E-03     168.202E-03    -62.7555E-03     117.279E-03    -54.0073E-03     177.886E-03
             278     17.0531E-03     47.9666E-03    -684.652E+03     150.899E+06     102.902E+06    -834.597E+03    -53.8069E-03     108.123E-03    -54.3157E-03     167.657E-03    -62.0900E-03     116.641E-03    -54.0190E-03     177.416E-03
             279     17.0554E-03     49.0067E-03    -2.52427E+06     146.645E+06     101.181E+06    -1.12814E+06    -54.1957E-03     108.491E-03    -54.2953E-03     167.327E-03    -62.4694E-03     116.983E-03    -53.9983E-03     177.218E-03
             280     17.0518E-03     50.0770E-03    -4.37171E+06     146.035E+06     100.290E+06     1.07139E+06    -56.8719E-03     111.145E-03    -54.2735E-03     167.622E-03    -65.1752E-03     119.661E-03    -53.9774E-03     177.230E-03
             281     17.0536E-03     51.1367E-03    -1.34541E+06     150.767E+06     102.511E+06     1.10762E+06    -52.6363E-03     106.996E-03    -54.3602E-03     169.388E-03    -60.9767E-03     115.571E-03    -54.0643E-03     179.317E-03
             282     17.0553E-03     52.1776E-03    -1.38042E+06     150.797E+06     101.044E+06    -168.015E+03    -51.8973E-03     106.230E-03    -54.3328E-03     167.079E-03    -60.0640E-03     114.635E-03    -54.0443E-03     177.103E-03
             283     17.0526E-03     53.2410E-03    -3.69741E+06     149.246E+06     100.392E+06    -1.09888E+06    -55.8642E-03     110.128E-03    -54.2634E-03     162.907E-03    -63.9005E-03     118.390E-03    -53.9725E-03     172.420E-03
             284     17.0538E-03     54.2966E-03    -3.27198E+06     147.474E+06     100.956E+06    -952.357E+03    -56.6670E-03     110.964E-03    -54.2971E-03     162.781E-03    -64.7834E-03     119.300E-03    -54.0014E-03     172.291E-03
             285     17.0506E-03     55.3604E-03    -3.01536E+06     149.227E+06     100.199E+06     2.43881E+06    -54.4068E-03     108.758E-03    -54.3516E-03     168.883E-03    -62.7746E-03     117.355E-03    -54.0626E-03     178.776E-03
             286     17.0562E-03     56.4211E-03    -1.71113E+06     152.227E+06     100.835E+06     673.592E+03    -50.9916E-03     105.364E-03    -54.3723E-03     175.968E-03    -59.6619E-03     114.276E-03    -54.0863E-03     186.266E-03
             287     17.0533E-03     57.4660E-03    -1.02408E+06     151.222E+06     102.441E+06    -1.72649E+06    -52.5211E-03     106.860E-03    -54.3393E-03     170.951E-03    -61.0061E-03     115.582E-03    -54.0449E-03     181.053E-03
             288     17.0532E-03     58.5192E-03    -2.26839E+06     150.645E+06     102.332E+06     535.900E+03    -54.8240E-03     109.128E-03    -54.3039E-03     164.573E-03    -62.9434E-03     117.477E-03    -54.0074E-03     174.234E-03
             289     17.0543E-03     59.5822E-03    -4.97549E+06     151.229E+06     100.328E+06     420.187E+03    -54.8561E-03     109.171E-03    -54.3147E-03     166.671E-03    -63.1225E-03     117.665E-03    -54.0252E-03     176.425E-03
             290     17.0510E-03     60.6383E-03    -2.58666E+06     151.019E+06     101.815E+06    -258.835E+03    -53.9133E-03     108.270E-03    -54.3563E-03     166.484E-03    -62.1921E-03     116.780E-03    -54.0625E-03     176.367E-03
             291     17.0556E-03     61.6896E-03    -1.03490E+06     149.691E+06     101.933E+06     373.268E+03    -53.9584E-03     108.277E-03    -54.3185E-03     167.654E-03    -62.1791E-03     116.730E-03    -54.0244E-03     177.465E-03
             292     852.422E-06     61.4610E-03    -42.3697E+06    -156.734E+06    -41.4850E+06     45.6804E+03    -54.4313E-03     108.791E-03    -54.3596E-03     9.60847E-03    -54.3568E-03     108.131E-03    -54.2784E-03     9.57698E-03
             293     1.70490E-03     61.4745E-03    -41.1716E+06    -154.674E+06    -38.6424E+06     31.1512E+03    -54.4752E-03     108.871E-03    -54.3959E-03     17.5713E-03    -54.4050E-03     108.218E-03    -54.3051E-03     17.5123E-03
             294     2.55722E-03     61.4963E-03    -39.3321E+06    -149.644E+06    -34.1091E+06    -23.3379E+03    -54.5169E-03     108.921E-03    -54.4045E-03     26.0631E-03    -54.4565E-03     108.289E-03    -54.3011E-03     25.9718E-03
             295     3.40978E-03     61.5268E-03    -37.1438E+06    -145.164E+06    -27.8880E+06     202.578E+03    -54.5928E-03     109.003E-03    -54.4100E-03     34.5718E-03    -54.5449E-03     108.389E-03    -54.2851E-03     34.4473E-03
             296     4.26230E-03     61.5656E-03    -34.4614E+06    -137.607E+06    -21.1907E+06     645.674E+03    -54.7180E-03     109.128E-03    -54.4096E-03     42.9796E-03    -54.6890E-03     108.549E-03    -54.2661E-03     42.8191E-03
             297     5.11492E-03     61.6129E-03    -31.8197E+06    -128.750E+06    -14.7227E+06     792.651E+03    -54.9159E-03     109.326E-03    -54.4098E-03     51.2958E-03    -54.9122E-03     108.795E-03    -54.2506E-03     51.0879E-03
             298     5.96732E-03     61.6687E-03    -29.6604E+06    -118.077E+06    -9.84460E+06     210.260E+03    -55.1317E-03     109.537E-03    -54.4048E-03     59.5779E-03    -55.1622E-03     109.071E-03    -54.2398E-03     59.3051E-03
             299     6.81993E-03     61.7326E-03    -27.6344E+06    -112.320E+06    -5.72550E+06    -89.5463E+03    -55.3641E-03     109.769E-03    -54.4049E-03     67.6736E-03    -55.4296E-03     109.354E-03    -54.2306E-03     67.3283E-03
             300     7.67258E-03     61.8044E-03    -25.7691E+06    -114.079E+06    -5.27283E+06    -382.255E+03    -55.6516E-03     110.051E-03    -54.3994E-03     75.5000E-03    -55.7483E-03     109.666E-03    -54.2230E-03     75.0679E-03
             301     8.52514E-03     61.8841E-03     -23.475E+06    -107.661E+06    -8.12257E+06    -1.31324E+06    -55.9337E-03     110.300E-03    -54.3665E-03     83.3555E-03    -56.0813E-03     110.006E-03    -54.2170E-03     82.8149E-03
             302     9.37742E-03     61.9719E-03    -21.2152E+06    -98.5973E+06    -7.16244E+06    -126.776E+03    -56.2495E-03     110.600E-03    -54.3501E-03     91.3503E-03    -56.4796E-03     110.425E-03    -54.2122E-03     90.7101E-03
             303     10.2299E-03     62.0675E-03    -19.6952E+06    -86.8321E+06    -9.55357E+06     2.77135E+06    -56.5566E-03     110.873E-03    -54.3160E-03     99.2394E-03    -56.9026E-03     110.868E-03    -54.2093E-03     98.4996E-03
             304     11.0827E-03     62.1708E-03    -17.7622E+06    -61.0720E+06    -15.3855E+06     2.24000E+06    -56.8065E-03     111.048E-03    -54.2416E-03     108.164E-03    -57.3304E-03     111.337E-03    -54.2043E-03     107.257E-03
             305     11.9352E-03     62.2841E-03    -17.7831E+06    -25.8025E+06    -18.9403E+06    -16.3659E+03    -57.2371E-03     111.401E-03    -54.1634E-03     120.804E-03    -58.0700E-03     112.134E-03    -54.1949E-03     119.662E-03
             306     12.7884E-03     62.4126E-03    -18.4282E+06     24.8345E+06    -18.5882E+06     513.336E+03    -57.9304E-03     112.008E-03    -54.0781E-03     140.294E-03    -59.3525E-03     113.507E-03    -54.1803E-03     138.866E-03
             307     13.6409E-03     62.5656E-03    -16.6976E+06     72.7793E+06     3.29267E+06     2.16767E+06    -61.0495E-03     115.146E-03    -54.0968E-03     188.472E-03    -64.0249E-03     118.311E-03    -54.1616E-03     186.569E-03
             308     14.4941E-03     62.7925E-03    -14.6491E+06     102.221E+06     50.5857E+06     1.15287E+06    -69.4310E-03     123.690E-03    -54.2587E-03     289.220E-03    -78.0284E-03     132.451E-03    -54.1327E-03     286.460E-03
             309     15.3479E-03     63.1540E-03    -11.7916E+06     133.975E+06     91.7905E+06    -101.068E+03    -78.6051E-03     133.008E-03    -54.4026E-03     398.598E-03    -100.872E-03     155.442E-03    -54.1209E-03     397.666E-03
             310     16.1940E-03     63.6236E-03    -5.52845E+06     152.094E+06     104.329E+06    -176.335E+03    -67.3420E-03     121.774E-03    -54.4316E-03     305.377E-03    -87.2093E-03     141.859E-03    -54.1225E-03     311.049E-03
             311     852.512E-06     62.5177E-03    -42.2048E+06    -156.753E+06    -41.4885E+06    -12.6433E+03    -54.4186E-03     108.797E-03    -54.3783E-03     9.64247E-03    -54.3432E-03     108.136E-03    -54.2972E-03     9.61017E-03
             312     1.70477E-03     62.5310E-03    -40.9319E+06    -154.402E+06    -38.3488E+06    -297.980E+03    -54.4503E-03     108.844E-03    -54.3937E-03     17.5499E-03    -54.3797E-03     108.191E-03    -54.3022E-03     17.4866E-03
             313     2.55737E-03     62.5529E-03    -39.3910E+06    -149.897E+06    -33.7210E+06    -102.899E+03    -54.4981E-03     108.895E-03    -54.3971E-03     26.0543E-03    -54.4381E-03     108.261E-03    -54.2912E-03     25.9618E-03
             314     3.40982E-03     62.5832E-03    -37.3116E+06    -145.548E+06    -27.3905E+06     186.872E+03    -54.6073E-03     109.012E-03    -54.4052E-03     34.5202E-03    -54.5605E-03     108.396E-03    -54.2770E-03     34.3951E-03
             315     4.26236E-03     62.6221E-03    -34.5363E+06    -138.016E+06    -21.2618E+06     206.163E+03    -54.7619E-03     109.171E-03    -54.4094E-03     42.9455E-03    -54.7326E-03     108.591E-03    -54.2655E-03     42.7788E-03
             316     5.11476E-03     62.6695E-03    -31.2631E+06    -129.367E+06    -15.0031E+06     678.064E+03    -54.9368E-03     109.350E-03    -54.4134E-03     51.3208E-03    -54.9291E-03     108.816E-03    -54.2555E-03     51.1113E-03
             317     5.96739E-03     62.7252E-03    -28.4767E+06    -117.514E+06    -9.16124E+06     1.13654E+06    -55.1310E-03     109.542E-03    -54.4108E-03     59.5874E-03    -55.1574E-03     109.076E-03    -54.2449E-03     59.3265E-03
             318     6.81997E-03     62.7890E-03    -26.3630E+06    -112.235E+06    -5.05224E+06     869.523E+03    -55.3966E-03     109.809E-03    -54.4120E-03     67.6438E-03    -55.4570E-03     109.392E-03    -54.2363E-03     67.3103E-03
             319     7.67234E-03     62.8611E-03    -24.3176E+06    -113.047E+06    -4.55947E+06     294.928E+03    -55.6793E-03     110.087E-03    -54.4072E-03     75.5187E-03    -55.7713E-03     109.704E-03    -54.2309E-03     75.0952E-03
             320     8.52472E-03     62.9406E-03    -23.6028E+06    -105.897E+06    -8.02434E+06    -941.424E+03    -55.9111E-03     110.283E-03    -54.3716E-03     83.5219E-03    -56.0618E-03     109.997E-03    -54.2239E-03     82.9873E-03
             321     9.37764E-03     63.0283E-03    -23.7827E+06    -102.624E+06    -11.4642E+06    -69.3629E+03    -56.2063E-03     110.547E-03    -54.3407E-03     91.6436E-03    -56.4366E-03     110.362E-03    -54.2147E-03     91.0066E-03
             322     10.2303E-03     63.1241E-03    -22.8386E+06    -88.4527E+06    -16.0498E+06     1.38561E+06    -56.5401E-03     110.829E-03    -54.2892E-03     99.4507E-03    -56.8890E-03     110.830E-03    -54.2081E-03     98.6958E-03
             323     11.0826E-03     63.2273E-03    -22.2294E+06    -58.6708E+06    -19.4063E+06     665.195E+03    -56.8534E-03     111.078E-03    -54.2249E-03     108.210E-03    -57.3977E-03     111.392E-03    -54.2046E-03     107.282E-03
             324     11.9354E-03     63.3406E-03    -21.7969E+06    -24.7794E+06    -20.3625E+06     53.2270E+03    -57.3517E-03     111.519E-03    -54.1678E-03     120.885E-03    -58.2049E-03     112.266E-03    -54.2021E-03     119.741E-03
             325     12.7872E-03     63.4694E-03    -21.1467E+06     23.9867E+06    -20.0463E+06    -592.926E+03    -58.0832E-03     112.176E-03    -54.0924E-03     140.293E-03    -59.5166E-03     113.677E-03    -54.1968E-03     138.847E-03
             326     13.6403E-03     63.6215E-03    -19.0177E+06     69.7388E+06    -1.99724E+06    -372.953E+03    -60.8872E-03     114.980E-03    -54.0924E-03     188.829E-03    -63.8539E-03     118.132E-03    -54.1760E-03     186.906E-03
             327     14.4930E-03     63.8492E-03    -15.2501E+06     103.318E+06     42.6944E+06     1.50327E+06    -69.8815E-03     124.118E-03    -54.2366E-03     289.911E-03    -78.5464E-03     132.972E-03    -54.1509E-03     287.110E-03
             328     15.3446E-03     64.2094E-03    -10.9069E+06     137.143E+06     88.2617E+06     1.27084E+06    -79.0752E-03     133.468E-03    -54.3931E-03     403.748E-03    -101.675E-03     156.260E-03    -54.1349E-03     402.843E-03
             329     16.1979E-03     64.6903E-03    -4.39674E+06     151.902E+06     104.619E+06     81.6526E+03    -66.9626E-03     121.357E-03    -54.3945E-03     309.676E-03    -86.9957E-03     141.611E-03    -54.0853E-03     315.475E-03
             330     852.289E-06     63.5742E-03    -41.4074E+06    -156.139E+06    -40.9002E+06    -426.571E+03    -54.3720E-03     108.795E-03    -54.4233E-03     9.66163E-03    -54.2945E-03     108.136E-03    -54.3413E-03     9.62396E-03
             331     1.70496E-03     63.5875E-03    -40.4623E+06    -154.384E+06    -37.9338E+06    -282.848E+03    -54.4204E-03     108.807E-03    -54.3869E-03     17.5455E-03    -54.3481E-03     108.153E-03    -54.2940E-03     17.4821E-03
             332     2.55732E-03     63.6093E-03    -38.8714E+06    -150.107E+06    -33.2554E+06    -130.533E+03    -54.5239E-03     108.914E-03    -54.3904E-03     26.0203E-03    -54.4618E-03     108.278E-03    -54.2827E-03     25.9270E-03
             333     3.40983E-03     63.6397E-03    -36.6008E+06    -146.111E+06    -27.2641E+06     213.033E+03    -54.6426E-03     109.049E-03    -54.4064E-03     34.4777E-03    -54.5916E-03     108.428E-03    -54.2778E-03     34.3527E-03
             334     4.26223E-03     63.6786E-03    -34.3013E+06    -137.659E+06    -21.5182E+06     199.866E+03    -54.7670E-03     109.179E-03    -54.4119E-03     42.9583E-03    -54.7367E-03     108.601E-03    -54.2701E-03     42.7916E-03
             335     5.11485E-03     63.7260E-03    -31.8083E+06    -130.166E+06    -16.3346E+06    -5.18423E+03    -54.9359E-03     109.349E-03    -54.4127E-03     51.3323E-03    -54.9278E-03     108.813E-03    -54.2595E-03     51.1140E-03
             336     5.96733E-03     63.7816E-03    -28.5882E+06    -118.529E+06    -11.2043E+06     824.053E+03    -55.1500E-03     109.557E-03    -54.4065E-03     59.6205E-03    -55.1725E-03     109.089E-03    -54.2492E-03     59.3556E-03
             337     6.81977E-03     63.8458E-03    -25.3196E+06    -111.699E+06    -5.01082E+06     1.11423E+06    -55.3806E-03     109.794E-03    -54.4132E-03     67.7238E-03    -55.4365E-03     109.378E-03    -54.2396E-03     67.3941E-03
             338     7.67243E-03     63.9175E-03    -22.6785E+06    -112.205E+06    -2.89978E+06     382.100E+03    -55.6262E-03     110.036E-03    -54.4102E-03     75.6067E-03    -55.7134E-03     109.653E-03    -54.2292E-03     75.1856E-03
             339     8.52528E-03     63.9972E-03    -20.9149E+06    -105.588E+06    -4.06478E+06     899.988E+03    -55.9278E-03     110.310E-03    -54.3827E-03     83.4871E-03    -56.0714E-03     110.017E-03    -54.2196E-03     82.9757E-03
             340     9.37760E-03     64.0847E-03    -20.0053E+06    -104.245E+06    -5.17559E+06     1.40730E+06    -56.2543E-03     110.622E-03    -54.3675E-03     91.4524E-03    -56.4731E-03     110.415E-03    -54.2133E-03     90.8322E-03
             341     10.2301E-03     64.1806E-03     -19.401E+06    -88.5262E+06    -12.0918E+06     1.18714E+06    -56.5420E-03     110.847E-03    -54.3046E-03     99.3437E-03    -56.8793E-03     110.836E-03    -54.2086E-03     98.5858E-03
             342     11.0829E-03     64.2839E-03    -18.7650E+06    -58.1536E+06    -13.9484E+06     1.35951E+06    -56.8907E-03     111.139E-03    -54.2478E-03     108.206E-03    -57.4274E-03     111.443E-03    -54.2060E-03     107.285E-03
             343     11.9350E-03     64.3973E-03    -19.2247E+06    -23.8605E+06    -14.9469E+06     841.354E+03    -57.2758E-03     111.465E-03    -54.1891E-03     121.014E-03    -58.1250E-03     112.204E-03    -54.2013E-03     119.882E-03
             344     12.7882E-03     64.5261E-03    -19.4459E+06     25.6255E+06    -15.7752E+06    -579.044E+03    -57.9309E-03     112.030E-03    -54.0987E-03     140.882E-03    -59.3641E-03     113.531E-03    -54.1866E-03     139.443E-03
             345     13.6405E-03     64.6784E-03    -19.3387E+06     68.4618E+06    -581.783E+03    -1.57168E+06    -60.8876E-03     114.974E-03    -54.0862E-03     189.001E-03    -63.8671E-03     118.129E-03    -54.1603E-03     187.059E-03
             346     14.4949E-03     64.9041E-03    -17.2799E+06     101.191E+06     39.7111E+06    -695.544E+03    -69.5304E-03     123.724E-03    -54.1938E-03     291.633E-03    -78.2053E-03     132.582E-03    -54.1169E-03     288.846E-03
             347     15.3474E-03     65.2721E-03    -10.9881E+06     138.442E+06     88.2339E+06     565.107E+03    -77.0025E-03     131.282E-03    -54.2798E-03     404.185E-03    -99.3607E-03     153.837E-03    -54.0234E-03     403.588E-03
             348     16.2077E-03     65.7386E-03    -5.77979E+06     152.772E+06     104.466E+06     598.512E+03    -67.6254E-03     121.879E-03    -54.2534E-03     307.898E-03    -87.4354E-03     141.908E-03    -53.9442E-03     313.696E-03
             349     852.535E-06     64.6307E-03    -40.5856E+06    -155.493E+06    -40.1464E+06    -237.274E+03    -54.3923E-03     108.779E-03    -54.3869E-03     9.55229E-03    -54.3126E-03     108.121E-03    -54.3033E-03     9.51733E-03
             350     1.70485E-03     64.6440E-03    -40.1102E+06    -154.426E+06    -38.0948E+06    -279.462E+03    -54.4436E-03     108.826E-03    -54.3821E-03     17.5241E-03    -54.3692E-03     108.171E-03    -54.2905E-03     17.4605E-03
             351     2.55738E-03     64.6659E-03    -38.7738E+06    -150.157E+06    -33.7454E+06    -160.075E+03    -54.5320E-03     108.923E-03    -54.3912E-03     26.0080E-03    -54.4686E-03     108.287E-03    -54.2860E-03     25.9143E-03
             352     3.40974E-03     64.6963E-03    -36.6712E+06    -146.441E+06    -28.1086E+06    -147.725E+03    -54.6347E-03     109.040E-03    -54.4051E-03     34.5027E-03    -54.5824E-03     108.419E-03    -54.2802E-03     34.3732E-03
             353     4.26232E-03     64.7351E-03    -34.0333E+06    -137.862E+06    -22.1260E+06     249.027E+03    -54.7686E-03     109.178E-03    -54.4094E-03     42.9873E-03    -54.7357E-03     108.599E-03    -54.2708E-03     42.8213E-03
             354     5.11477E-03     64.7825E-03    -31.6222E+06    -129.764E+06    -15.5775E+06     205.711E+03    -54.9512E-03     109.368E-03    -54.4172E-03     51.3555E-03    -54.9438E-03     108.833E-03    -54.2611E-03     51.1400E-03
             355     5.96727E-03     64.8382E-03    -28.9905E+06    -119.573E+06    -10.9943E+06    -209.500E+03    -55.1289E-03     109.540E-03    -54.4107E-03     59.6758E-03    -55.1522E-03     109.067E-03    -54.2503E-03     59.3980E-03
             356     6.81998E-03     64.9022E-03    -25.7525E+06    -111.906E+06    -4.90389E+06     286.054E+03    -55.3513E-03     109.764E-03    -54.4125E-03     67.7532E-03    -55.4091E-03     109.347E-03    -54.2375E-03     67.4133E-03
             357     7.67254E-03     64.9740E-03    -23.1406E+06    -111.758E+06    -1.03954E+06     642.300E+03    -55.6743E-03     110.093E-03    -54.4192E-03     75.4611E-03    -55.7674E-03     109.711E-03    -54.2288E-03     75.0416E-03
             358     8.52485E-03     65.0536E-03    -21.3850E+06    -107.693E+06    -2.88608E+06     1.40051E+06    -55.9868E-03     110.385E-03    -54.3984E-03     83.3095E-03    -56.1320E-03     110.081E-03    -54.2257E-03     82.8023E-03
             359     9.37745E-03     65.1415E-03    -19.9418E+06    -103.726E+06    -3.46660E+06     1.92556E+06    -56.2555E-03     110.640E-03    -54.3845E-03     91.3318E-03    -56.4774E-03     110.433E-03    -54.2225E-03     90.7173E-03
             360     10.2301E-03     65.2369E-03    -18.4399E+06    -87.4414E+06    -11.8648E+06     616.318E+03    -56.5253E-03     110.836E-03    -54.3107E-03     99.4069E-03    -56.8594E-03     110.829E-03    -54.2165E-03     98.6422E-03
             361     11.0825E-03     65.3407E-03    -16.9737E+06    -59.8659E+06    -15.3966E+06     708.225E+03    -56.7814E-03     111.023E-03    -54.2419E-03     108.376E-03    -57.3037E-03     111.317E-03    -54.2075E-03     107.449E-03
             362     11.9354E-03     65.4540E-03    -15.9743E+06    -23.3102E+06    -14.1544E+06     1.91631E+06    -57.0826E-03     111.260E-03    -54.1770E-03     120.897E-03    -57.9148E-03     111.993E-03    -54.1909E-03     119.784E-03
             363     12.7881E-03     65.5820E-03    -17.0405E+06     27.5750E+06    -15.0765E+06     1.27940E+06    -57.7150E-03     111.787E-03    -54.0723E-03     140.647E-03    -59.1350E-03     113.288E-03    -54.1630E-03     139.239E-03
             364     13.6419E-03     65.7351E-03    -18.2024E+06     70.1630E+06     1.22078E+06     303.148E+03    -60.9426E-03     115.007E-03    -54.0640E-03     188.881E-03    -63.9248E-03     118.170E-03    -54.1333E-03     186.958E-03
             365     14.4927E-03     65.9608E-03    -16.2748E+06     101.215E+06     45.2532E+06    -611.220E+03    -69.1273E-03     123.322E-03    -54.1946E-03     289.734E-03    -77.7424E-03     132.107E-03    -54.0915E-03     286.972E-03
             366     15.3509E-03     66.3232E-03    -11.8679E+06     134.668E+06     90.7571E+06    -976.179E+03    -78.0428E-03     132.375E-03    -54.3317E-03     398.272E-03    -100.129E-03     154.634E-03    -54.0560E-03     397.309E-03
             367     16.1998E-03     66.7940E-03    -5.66609E+06     152.062E+06     104.448E+06    -65.4868E+03    -67.6176E-03     121.982E-03    -54.3646E-03     304.300E-03    -87.2995E-03     141.881E-03    -54.0546E-03     309.887E-03
             368     852.355E-06     65.6871E-03    -40.5419E+06    -155.467E+06    -39.9160E+06     179.005E+03    -54.4417E-03     108.791E-03    -54.3490E-03     9.45042E-03    -54.3622E-03     108.132E-03    -54.2643E-03     9.42119E-03
             369     1.70490E-03     65.7006E-03    -39.9053E+06    -154.052E+06    -37.5270E+06    -100.212E+03    -54.4500E-03     108.840E-03    -54.3898E-03     17.5483E-03    -54.3760E-03     108.186E-03    -54.2962E-03     17.4872E-03
             370     2.55725E-03     65.7224E-03    -38.5292E+06    -150.286E+06    -33.4236E+06    -171.904E+03    -54.5086E-03     108.903E-03    -54.3941E-03     26.0340E-03    -54.4442E-03     108.265E-03    -54.2875E-03     25.9404E-03
             371     3.40987E-03     65.7528E-03    -36.5995E+06    -146.180E+06    -27.0760E+06    -200.738E+03    -54.6284E-03     109.035E-03    -54.4067E-03     34.5226E-03    -54.5776E-03     108.414E-03    -54.2770E-03     34.3924E-03
             372     4.26227E-03     65.7916E-03    -34.0015E+06    -138.445E+06    -20.8012E+06    -269.067E+03    -54.7872E-03     109.203E-03    -54.4155E-03     42.9896E-03    -54.7553E-03     108.619E-03    -54.2695E-03     42.8166E-03
             373     5.11481E-03     65.8391E-03    -30.7749E+06    -129.874E+06    -14.0113E+06     265.677E+03    -54.9504E-03     109.375E-03    -54.4245E-03     51.3550E-03    -54.9410E-03     108.836E-03    -54.2616E-03     51.1400E-03
             374     5.96736E-03     65.8947E-03     -28.357E+06    -119.050E+06    -8.52131E+06     291.923E+03    -55.1361E-03     109.559E-03    -54.4224E-03     59.5879E-03    -55.1607E-03     109.084E-03    -54.2513E-03     59.3157E-03
             375     6.81988E-03     65.9586E-03    -26.5638E+06    -112.936E+06    -4.75706E+06     237.850E+03    -55.3995E-03     109.820E-03    -54.4207E-03     67.6863E-03    -55.4603E-03     109.400E-03    -54.2422E-03     67.3447E-03
             376     7.67232E-03     66.0308E-03    -24.3683E+06    -112.127E+06    -2.72142E+06     956.535E+03    -55.7140E-03     110.137E-03    -54.4227E-03     75.4894E-03    -55.8105E-03     109.756E-03    -54.2383E-03     75.0735E-03
             377     8.52487E-03     66.1103E-03    -22.1258E+06    -108.884E+06    -3.91506E+06     1.21027E+06    -55.9637E-03     110.369E-03    -54.4057E-03     83.3765E-03    -56.1094E-03     110.061E-03    -54.2353E-03     82.8673E-03
             378     9.37742E-03     66.1979E-03    -19.2974E+06    -103.247E+06    -5.11530E+06     831.020E+03    -56.2066E-03     110.586E-03    -54.3794E-03     91.4772E-03    -56.4232E-03     110.382E-03    -54.2273E-03     90.8503E-03
             379     10.2299E-03     66.2935E-03    -17.7516E+06    -86.2516E+06    -13.1488E+06     434.859E+03    -56.4523E-03     110.752E-03    -54.3000E-03     99.5743E-03    -56.7824E-03     110.751E-03    -54.2149E-03     98.8094E-03
             380     11.0828E-03     66.3971E-03    -18.6613E+06    -61.3899E+06    -19.3286E+06     526.554E+03    -56.6395E-03     110.856E-03    -54.2163E-03     108.531E-03    -57.1604E-03     111.149E-03    -54.1969E-03     107.607E-03
             381     11.9355E-03     66.5101E-03    -19.4201E+06    -24.6494E+06    -19.0972E+06     1.27806E+06    -57.0396E-03     111.182E-03    -54.1424E-03     120.951E-03    -57.8777E-03     111.919E-03    -54.1740E-03     119.834E-03
             382     12.7885E-03     66.6386E-03    -18.8318E+06     28.5317E+06    -16.1592E+06     2.08418E+06    -57.8063E-03     111.861E-03    -54.0547E-03     140.468E-03    -59.2368E-03     113.373E-03    -54.1496E-03     139.066E-03
             383     13.6409E-03     66.7908E-03    -17.8321E+06     71.8467E+06     3.72049E+06     1.78632E+06    -60.7524E-03     114.811E-03    -54.0582E-03     188.856E-03    -63.7122E-03     117.951E-03    -54.1179E-03     186.971E-03
             384     14.4960E-03     67.0185E-03    -15.4445E+06     103.148E+06     48.0964E+06     109.610E+03    -70.4564E-03     124.683E-03    -54.2268E-03     289.125E-03    -79.1697E-03     133.568E-03    -54.1135E-03     286.233E-03
             385     15.3435E-03     67.3772E-03    -11.8410E+06     135.260E+06     90.5862E+06    -772.792E+03    -79.9964E-03     134.434E-03    -54.4380E-03     400.344E-03    -102.416E-03     157.030E-03    -54.1640E-03     399.207E-03
             386     16.1917E-03     67.8559E-03    -6.22177E+06     150.410E+06     103.453E+06    -648.352E+03    -66.7751E-03     121.248E-03    -54.4728E-03     307.536E-03    -86.6675E-03     141.352E-03    -54.1646E-03     313.300E-03
             387     852.494E-06     66.7437E-03    -41.0969E+06    -155.793E+06    -40.2546E+06     187.285E+03    -54.4536E-03     108.781E-03    -54.3270E-03     9.47914E-03    -54.3759E-03     108.121E-03    -54.2427E-03     9.45002E-03
             388     1.70483E-03     66.7571E-03    -39.9374E+06    -153.805E+06    -37.0550E+06     223.543E+03    -54.4293E-03     108.814E-03    -54.3846E-03     17.5606E-03    -54.3564E-03     108.161E-03    -54.2890E-03     17.5039E-03
             389     2.55743E-03     66.7788E-03    -38.5360E+06    -150.235E+06    -32.3664E+06     33.3861E+03    -54.5190E-03     108.911E-03    -54.3922E-03     26.0328E-03    -54.4563E-03     108.272E-03    -54.2804E-03     25.9417E-03
             390     3.40979E-03     66.8093E-03    -36.4398E+06    -146.200E+06    -26.0352E+06     43.3483E+03    -54.6554E-03     109.067E-03    -54.4113E-03     34.5162E-03    -54.6052E-03     108.444E-03    -54.2766E-03     34.3888E-03
             391     4.26229E-03     66.8482E-03    -34.1257E+06    -138.093E+06    -19.7766E+06    -106.028E+03    -54.7916E-03     109.215E-03    -54.4239E-03     42.9585E-03    -54.7623E-03     108.632E-03    -54.2730E-03     42.7873E-03
             392     5.11476E-03     66.8955E-03    -31.5129E+06    -130.592E+06    -14.4074E+06    -251.531E+03    -54.9587E-03     109.388E-03    -54.4292E-03     51.3119E-03    -54.9514E-03     108.847E-03    -54.2662E-03     51.0899E-03
             393     5.96728E-03     66.9513E-03    -28.2230E+06    -119.589E+06    -8.99503E+06     672.385E+03    -55.1742E-03     109.602E-03    -54.4279E-03     59.5716E-03    -55.1967E-03     109.126E-03    -54.2585E-03     59.3040E-03
             394     6.81974E-03     67.0153E-03    -25.7386E+06    -113.381E+06    -4.50131E+06     1.41778E+06    -55.3986E-03     109.828E-03    -54.4298E-03     67.7346E-03    -55.4550E-03     109.404E-03    -54.2505E-03     67.4085E-03
             395     7.67232E-03     67.0873E-03    -23.8882E+06    -112.328E+06    -4.50920E+06     1.02075E+06    -55.6327E-03     110.048E-03    -54.4153E-03     75.6635E-03    -55.7234E-03     109.668E-03    -54.2403E-03     75.2505E-03
             396     8.52486E-03     67.1669E-03    -21.4183E+06    -108.335E+06    -5.56631E+06     316.136E+03    -55.9120E-03     110.301E-03    -54.3894E-03     83.5057E-03    -56.0523E-03     109.997E-03    -54.2291E-03     82.9863E-03
             397     9.37747E-03     67.2543E-03    -20.0971E+06    -103.450E+06     -6.5943E+06     218.053E+03    -56.1702E-03     110.533E-03    -54.3632E-03     91.5852E-03    -56.3882E-03     110.332E-03    -54.2170E-03     90.9514E-03
             398     10.2302E-03     67.3500E-03    -20.1946E+06    -86.8504E+06    -12.2830E+06     1.05283E+06    -56.3680E-03     110.663E-03    -54.2946E-03     99.5825E-03    -56.7106E-03     110.661E-03    -54.2008E-03     98.8269E-03
             399     11.0830E-03     67.4532E-03    -20.2189E+06    -61.4041E+06    -17.5457E+06     1.35170E+06    -56.6577E-03     110.871E-03    -54.2130E-03     108.356E-03    -57.1886E-03     111.163E-03    -54.1824E-03     107.442E-03
             400     11.9359E-03     67.5666E-03    -19.7865E+06    -25.0478E+06    -18.5548E+06     930.461E+03    -57.1101E-03     111.247E-03    -54.1373E-03     120.695E-03    -57.9510E-03     111.983E-03    -54.1651E-03     119.569E-03
             401     12.7884E-03     67.6949E-03    -18.9382E+06     27.5464E+06    -15.2741E+06     1.10353E+06    -57.8464E-03     111.904E-03    -54.0573E-03     140.247E-03    -59.2747E-03     113.407E-03    -54.1462E-03     138.833E-03
             402     13.6417E-03     67.8476E-03    -16.9814E+06     72.6375E+06     4.20651E+06     1.01493E+06    -61.2727E-03     115.348E-03    -54.0757E-03     188.052E-03    -64.2415E-03     118.503E-03    -54.1354E-03     186.121E-03
             403     14.4938E-03     68.0726E-03    -15.4290E+06     103.649E+06     48.3422E+06     842.939E+03    -70.5716E-03     124.827E-03    -54.2554E-03     290.848E-03    -79.3128E-03     133.741E-03    -54.1416E-03     287.972E-03
             404     15.3448E-03     68.4452E-03    -11.4609E+06     136.590E+06     91.8132E+06     226.021E+03    -78.2616E-03     132.662E-03    -54.4005E-03     403.056E-03    -100.696E-03     155.274E-03    -54.1229E-03     402.309E-03
             405     16.2068E-03     68.9055E-03    -5.37168E+06     151.443E+06     104.545E+06    -267.760E+03    -67.1841E-03     121.570E-03    -54.3858E-03     307.315E-03    -87.0353E-03     141.636E-03    -54.0749E-03     313.174E-03
             406     852.378E-06     67.8002E-03    -41.0283E+06    -155.905E+06    -40.7365E+06    -100.035E+03    -54.4510E-03     108.745E-03    -54.2939E-03     9.47494E-03    -54.3721E-03     108.086E-03    -54.2120E-03     9.44187E-03
             407     1.70497E-03     67.8135E-03    -39.9852E+06    -154.095E+06    -37.5288E+06     143.022E+03    -54.4586E-03     108.833E-03    -54.3748E-03     17.5211E-03    -54.3849E-03     108.180E-03    -54.2810E-03     17.4633E-03
             408     2.55731E-03     67.8354E-03    -38.1654E+06    -150.114E+06    -31.9575E+06     282.495E+03    -54.5470E-03     108.946E-03    -54.3986E-03     25.9847E-03    -54.4833E-03     108.306E-03    -54.2853E-03     25.8966E-03
             409     3.40980E-03     67.8659E-03    -35.9544E+06    -146.336E+06    -26.1345E+06     209.825E+03    -54.6603E-03     109.079E-03    -54.4183E-03     34.5001E-03    -54.6075E-03     108.455E-03    -54.2847E-03     34.3747E-03
             410     4.26223E-03     67.9047E-03    -33.6292E+06    -138.252E+06    -20.3598E+06     545.450E+03    -54.7947E-03     109.222E-03    -54.4271E-03     42.9494E-03    -54.7619E-03     108.638E-03    -54.2797E-03     42.7866E-03
             411     5.11474E-03     67.9521E-03    -31.7306E+06    -130.271E+06    -14.3958E+06     521.831E+03    -54.9651E-03     109.400E-03    -54.4352E-03     51.3302E-03    -54.9593E-03     108.861E-03    -54.2722E-03     51.1182E-03
             412     5.96720E-03     68.0078E-03    -29.6040E+06    -120.558E+06    -10.6613E+06     53.2481E+03    -55.1422E-03     109.569E-03    -54.4265E-03     59.6686E-03    -55.1677E-03     109.092E-03    -54.2621E-03     59.3938E-03
             413     6.81980E-03     68.0719E-03    -25.8862E+06    -114.458E+06    -5.87061E+06     738.859E+03    -55.3387E-03     109.761E-03    -54.4219E-03     67.8028E-03    -55.3921E-03     109.333E-03    -54.2477E-03     67.4688E-03
             414     7.67244E-03     68.1436E-03    -22.4961E+06    -111.698E+06    -3.14342E+06     1.13669E+06    -55.5957E-03     110.006E-03    -54.4106E-03     75.6686E-03    -55.6824E-03     109.626E-03    -54.2318E-03     75.2574E-03
             415     8.52518E-03     68.2234E-03    -21.2435E+06    -107.499E+06    -4.31622E+06     466.726E+03    -55.8898E-03     110.273E-03    -54.3836E-03     83.4292E-03    -56.0324E-03     109.971E-03    -54.2185E-03     82.9113E-03
             416     9.37772E-03     68.3108E-03    -20.1344E+06    -104.339E+06    -5.65081E+06     665.678E+03    -56.1702E-03     110.530E-03    -54.3594E-03     91.3178E-03    -56.3891E-03     110.323E-03    -54.2072E-03     90.6876E-03
             417     10.2304E-03     68.4063E-03    -18.4855E+06    -87.8660E+06    -11.0213E+06     1.30008E+06    -56.4503E-03     110.746E-03    -54.2952E-03     99.2537E-03    -56.7854E-03     110.735E-03    -54.1961E-03     98.4981E-03
             418     11.0831E-03     68.5097E-03    -17.3494E+06    -60.8209E+06    -14.8970E+06     1.40709E+06    -56.7856E-03     111.011E-03    -54.2257E-03     108.052E-03    -57.3076E-03     111.299E-03    -54.1869E-03     107.136E-03
             419     11.9353E-03     68.6231E-03    -17.2756E+06    -24.9624E+06    -16.4667E+06     1.24723E+06    -57.1680E-03     111.324E-03    -54.1557E-03     120.377E-03    -58.0004E-03     112.054E-03    -54.1768E-03     119.253E-03
             420     12.7884E-03     68.7512E-03    -17.4408E+06     27.2563E+06    -14.7317E+06     823.412E+03    -58.0102E-03     112.088E-03    -54.0775E-03     139.915E-03    -59.4305E-03     113.585E-03    -54.1653E-03     138.491E-03
             421     13.6410E-03     68.9037E-03    -17.6446E+06     71.9499E+06     3.74337E+06     1.18558E+06    -61.3950E-03     115.494E-03    -54.0989E-03     189.238E-03    -64.3889E-03     118.670E-03    -54.1590E-03     187.303E-03
             422     14.4908E-03     69.1333E-03    -15.2967E+06     104.624E+06     48.5067E+06     1.48337E+06    -69.1184E-03     123.351E-03    -54.2323E-03     291.913E-03    -77.8265E-03     132.235E-03    -54.1193E-03     289.187E-03
             423     15.3513E-03     69.4925E-03    -9.86715E+06     138.049E+06     92.9471E+06     835.382E+03    -77.6276E-03     131.945E-03    -54.3176E-03     402.673E-03    -99.8987E-03     154.402E-03    -54.0388E-03     401.888E-03
             424     16.1959E-03     69.9680E-03    -5.27526E+06     151.486E+06     104.883E+06     415.156E+03    -68.5468E-03     122.870E-03    -54.3230E-03     306.202E-03    -88.2506E-03     142.788E-03    -54.0106E-03     311.772E-03
             425     852.582E-06     68.8566E-03    -40.7290E+06    -155.732E+06    -40.3109E+06    -126.559E+03    -54.4393E-03     108.789E-03    -54.3499E-03     9.43664E-03    -54.3597E-03     108.130E-03    -54.2666E-03     9.40307E-03
             426     1.70482E-03     68.8702E-03    -39.9589E+06    -154.180E+06    -38.2871E+06    -225.093E+03    -54.4811E-03     108.873E-03    -54.3923E-03     17.4888E-03    -54.4060E-03     108.220E-03    -54.3022E-03     17.4260E-03
             427     2.55728E-03     68.8919E-03    -38.3069E+06    -150.439E+06    -33.1772E+06    -16.7208E+03    -54.5417E-03     108.952E-03    -54.4104E-03     25.9955E-03    -54.4764E-03     108.313E-03    -54.3026E-03     25.9036E-03
             428     3.40974E-03     68.9224E-03    -36.1889E+06    -146.585E+06    -26.6415E+06     411.290E+03    -54.6451E-03     109.072E-03    -54.4266E-03     34.5096E-03    -54.5923E-03     108.447E-03    -54.2947E-03     34.3869E-03
             429     4.26223E-03     68.9613E-03    -33.7271E+06    -139.026E+06    -20.5884E+06     661.303E+03    -54.7811E-03     109.213E-03    -54.4321E-03     42.9663E-03    -54.7473E-03     108.626E-03    -54.2846E-03     42.8052E-03
             430     5.11471E-03     69.0087E-03    -30.8060E+06    -130.472E+06    -14.1299E+06     1.22517E+06    -54.9394E-03     109.375E-03    -54.4357E-03     51.3587E-03    -54.9291E-03     108.833E-03    -54.2725E-03     51.1562E-03
             431     5.96729E-03     69.0644E-03    -28.4703E+06    -119.537E+06    -8.91894E+06     855.525E+03    -55.1150E-03     109.543E-03    -54.4281E-03     59.6358E-03    -55.1388E-03     109.067E-03    -54.2580E-03     59.3711E-03
             432     6.81993E-03     69.1282E-03    -26.6456E+06    -115.056E+06    -5.43057E+06    -266.545E+03    -55.3511E-03     109.773E-03    -54.4218E-03     67.7080E-03    -55.4082E-03     109.343E-03    -54.2435E-03     67.3601E-03
             433     7.67249E-03     69.2002E-03    -23.5987E+06    -112.103E+06    -3.05321E+06    -22.5812E+03    -55.6314E-03     110.045E-03    -54.4132E-03     75.5230E-03    -55.7235E-03     109.664E-03    -54.2317E-03     75.0953E-03
             434     8.52493E-03     69.2798E-03    -20.0843E+06    -107.391E+06    -2.44677E+06     650.305E+03    -55.9022E-03     110.297E-03    -54.3944E-03     83.2337E-03    -56.0422E-03     109.991E-03    -54.2218E-03     82.7168E-03
             435     9.37757E-03     69.3673E-03    -18.2157E+06    -105.132E+06    -5.51617E+06     838.783E+03    -56.2158E-03     110.580E-03    -54.3643E-03     91.1344E-03    -56.4244E-03     110.367E-03    -54.2131E-03     90.5051E-03
             436     10.2301E-03     69.4627E-03    -17.6140E+06    -88.0555E+06    -12.8539E+06     813.676E+03    -56.5485E-03     110.845E-03    -54.2960E-03     99.2562E-03    -56.8766E-03     110.835E-03    -54.2071E-03     98.4930E-03
             437     11.0825E-03     69.5664E-03    -17.4517E+06    -61.5995E+06    -16.1145E+06     1.21224E+06    -56.7967E-03     111.031E-03    -54.2348E-03     108.154E-03    -57.3167E-03     111.318E-03    -54.2007E-03     107.235E-03
             438     11.9355E-03     69.6795E-03    -17.7909E+06    -24.8383E+06    -16.6399E+06     1.88673E+06    -57.2509E-03     111.422E-03    -54.1709E-03     120.532E-03    -58.0854E-03     112.153E-03    -54.1923E-03     119.416E-03
             439     12.7879E-03     69.8076E-03    -18.9000E+06     27.8755E+06    -13.6887E+06     1.85114E+06    -58.1187E-03     112.222E-03    -54.1035E-03     140.506E-03    -59.5594E-03     113.734E-03    -54.1849E-03     139.087E-03
             440     13.6397E-03     69.9615E-03    -18.8172E+06     71.6361E+06     5.00464E+06     1.50366E+06    -60.4494E-03     114.550E-03    -54.1004E-03     189.090E-03    -63.4190E-03     117.692E-03    -54.1519E-03     187.215E-03
             441     14.4983E-03     70.1870E-03    -15.1568E+06     105.332E+06     48.5125E+06     1.27739E+06    -68.8655E-03     123.063E-03    -54.1972E-03     290.115E-03    -77.5484E-03     131.925E-03    -54.0854E-03     287.379E-03
             442     15.3457E-03     70.5502E-03    -10.2859E+06     138.200E+06     92.3107E+06     1.03018E+06    -78.5229E-03     132.836E-03    -54.3132E-03     401.781E-03    -100.848E-03     155.348E-03    -54.0371E-03     400.838E-03
             443     16.2067E-03     71.0268E-03    -5.38008E+06     151.600E+06     104.821E+06     675.417E+03    -68.4480E-03     122.795E-03    -54.3466E-03     307.045E-03    -88.2121E-03     142.774E-03    -54.0345E-03     312.569E-03
             444     852.248E-06     69.9134E-03    -40.3825E+06    -155.480E+06    -40.0206E+06    -45.8293E+03    -54.4204E-03     108.889E-03    -54.4688E-03     9.41267E-03    -54.3399E-03     108.230E-03    -54.3849E-03     9.38040E-03
             445     1.70480E-03     69.9266E-03    -39.9795E+06    -153.980E+06     -37.838E+06    -113.119E+03    -54.4483E-03     108.876E-03    -54.4274E-03     17.5019E-03    -54.3742E-03     108.223E-03    -54.3353E-03     17.4408E-03
             446     2.55728E-03     69.9485E-03    -39.0661E+06    -150.945E+06    -33.6583E+06     34.9490E+03    -54.5288E-03     108.951E-03    -54.4227E-03     25.9994E-03    -54.4658E-03     108.312E-03    -54.3155E-03     25.9085E-03
             447     3.40972E-03     69.9789E-03    -37.0195E+06    -147.107E+06    -27.0789E+06     326.168E+03    -54.6320E-03     109.065E-03    -54.4331E-03     34.5089E-03    -54.5819E-03     108.440E-03    -54.3015E-03     34.3853E-03
             448     4.26220E-03     70.0178E-03    -34.1695E+06    -139.194E+06    -20.5368E+06     435.958E+03    -54.7600E-03     109.196E-03    -54.4358E-03     42.9704E-03    -54.7283E-03     108.608E-03    -54.2871E-03     42.8063E-03
             449     5.11477E-03     70.0652E-03    -31.0113E+06    -131.542E+06    -14.4813E+06     593.747E+03    -54.9309E-03     109.366E-03    -54.4355E-03     51.3173E-03    -54.9196E-03     108.820E-03    -54.2722E-03     51.1063E-03
             450     5.96732E-03     70.1208E-03    -27.6409E+06    -119.266E+06    -8.49875E+06     1.31102E+06    -55.1422E-03     109.572E-03    -54.4295E-03     59.5585E-03    -55.1630E-03     109.096E-03    -54.2589E-03     59.2992E-03
             451     6.81978E-03     70.1848E-03    -25.3334E+06    -113.909E+06    -3.72262E+06     1.12021E+06    -55.3918E-03     109.824E-03    -54.4317E-03     67.6282E-03    -55.4467E-03     109.395E-03    -54.2484E-03     67.2973E-03
             452     7.67226E-03     70.2566E-03    -24.4116E+06    -111.963E+06    -4.74756E+06    -129.722E+03    -55.6325E-03     110.045E-03    -54.4126E-03     75.5526E-03    -55.7262E-03     109.668E-03    -54.2386E-03     75.1240E-03
             453     8.52495E-03     70.3364E-03    -23.2512E+06    -107.928E+06    -6.29936E+06    -494.781E+03    -55.9047E-03     110.292E-03    -54.3871E-03     83.3595E-03    -56.0539E-03     109.994E-03    -54.2284E-03     82.8291E-03
             454     9.37748E-03     70.4236E-03    -21.1630E+06    -105.821E+06    -6.91040E+06     71.9181E+03    -56.2386E-03     110.609E-03    -54.3701E-03     91.2867E-03    -56.4587E-03     110.398E-03    -54.2205E-03     90.6483E-03
             455     10.2301E-03     70.5194E-03    -20.1083E+06    -88.7469E+06    -13.1582E+06     1.01207E+06    -56.5263E-03     110.833E-03    -54.3063E-03     99.4137E-03    -56.8653E-03     110.823E-03    -54.2143E-03     98.6542E-03
             456     11.0828E-03     70.6228E-03    -20.3065E+06    -61.9746E+06    -17.2078E+06     1.20188E+06    -56.8196E-03     111.061E-03    -54.2411E-03     108.172E-03    -57.3515E-03     111.350E-03    -54.2078E-03     107.253E-03
             457     11.9353E-03     70.7358E-03    -19.5147E+06    -25.8798E+06    -18.4444E+06     1.26123E+06    -57.3000E-03     111.475E-03    -54.1752E-03     120.683E-03    -58.1403E-03     112.208E-03    -54.2016E-03     119.557E-03
             458     12.7877E-03     70.8650E-03    -18.1777E+06     27.2898E+06    -15.7913E+06     2.37210E+06    -57.8566E-03     111.951E-03    -54.0944E-03     140.454E-03    -59.2856E-03     113.458E-03    -54.1866E-03     139.054E-03
             459     13.6420E-03     71.0168E-03    -17.5060E+06     72.6029E+06     4.80490E+06     2.48421E+06    -60.7007E-03     114.802E-03    -54.1014E-03     187.507E-03    -63.6471E-03     117.930E-03    -54.1573E-03     185.632E-03
             460     14.4914E-03     71.2408E-03    -16.1281E+06     104.736E+06     49.2186E+06     1.12316E+06    -69.8364E-03     124.088E-03    -54.2517E-03     288.796E-03    -78.4966E-03     132.920E-03    -54.1341E-03     285.980E-03
             461     15.3492E-03     71.6090E-03    -11.6753E+06     138.456E+06     92.3358E+06     789.951E+03    -78.5668E-03     132.969E-03    -54.4022E-03     400.284E-03    -100.856E-03     155.440E-03    -54.1244E-03     399.442E-03
             462     16.1936E-03     72.0768E-03    -5.65760E+06     152.854E+06     105.063E+06     517.625E+03    -67.0889E-03     121.500E-03    -54.4108E-03     307.129E-03    -86.8941E-03     141.523E-03    -54.0990E-03     312.934E-03
             463     852.384E-06     70.9698E-03    -41.1094E+06    -155.706E+06    -40.0601E+06     98.4024E+03    -54.4060E-03     108.868E-03    -54.4623E-03     9.46140E-03    -54.3288E-03     108.209E-03    -54.3772E-03     9.43117E-03
             464     1.70481E-03     70.9833E-03    -40.2100E+06    -154.161E+06    -37.2757E+06     454.413E+03    -54.4678E-03     108.895E-03    -54.4272E-03     17.5608E-03    -54.3955E-03     108.241E-03    -54.3318E-03     17.5069E-03
             465     2.55720E-03     71.0050E-03    -38.7784E+06    -151.132E+06    -33.1665E+06     434.644E+03    -54.5394E-03     108.968E-03    -54.4285E-03     26.0065E-03    -54.4755E-03     108.326E-03    -54.3190E-03     25.9206E-03
             466     3.40971E-03     71.0354E-03    -36.9095E+06    -147.386E+06    -27.4036E+06     400.835E+03    -54.6323E-03     109.068E-03    -54.4357E-03     34.4924E-03    -54.5808E-03     108.442E-03    -54.3055E-03     34.3699E-03
             467     4.26222E-03     71.0743E-03    -34.5312E+06    -139.142E+06    -20.9797E+06     277.340E+03    -54.7659E-03     109.204E-03    -54.4377E-03     42.9550E-03    -54.7354E-03     108.617E-03    -54.2908E-03     42.7887E-03
             468     5.11471E-03     71.1217E-03    -31.6919E+06    -131.794E+06    -14.9208E+06     123.212E+03    -54.9500E-03     109.390E-03    -54.4402E-03     51.2908E-03    -54.9411E-03     108.844E-03    -54.2777E-03     51.0734E-03
             469     5.96719E-03     71.1774E-03    -28.6620E+06    -120.672E+06    -10.3053E+06     521.500E+03    -55.1430E-03     109.573E-03    -54.4304E-03     59.5983E-03    -55.1642E-03     109.094E-03    -54.2654E-03     59.3291E-03
             470     6.81979E-03     71.2414E-03    -25.0707E+06    -113.429E+06    -4.06217E+06     1.14010E+06    -55.3724E-03     109.806E-03    -54.4332E-03     67.6958E-03    -55.4261E-03     109.379E-03    -54.2527E-03     67.3660E-03
             471     7.67241E-03     71.3132E-03    -22.0691E+06    -111.219E+06    -1.32066E+06     1.22332E+06    -55.6470E-03     110.075E-03    -54.4282E-03     75.5136E-03    -55.7352E-03     109.694E-03    -54.2416E-03     75.1022E-03
             472     8.52499E-03     71.3928E-03    -20.9881E+06    -107.407E+06    -3.75577E+06     711.041E+03    -55.9464E-03     110.347E-03    -54.4008E-03     83.2749E-03    -56.0888E-03     110.045E-03    -54.2334E-03     82.7592E-03
             473     9.37750E-03     71.4804E-03    -20.9786E+06    -106.485E+06    -5.72083E+06     382.008E+03    -56.2692E-03     110.654E-03    -54.3848E-03     91.1542E-03    -56.4896E-03     110.438E-03    -54.2285E-03     90.5181E-03
             474     10.2300E-03     71.5757E-03    -20.1894E+06    -89.7599E+06    -11.8356E+06     805.299E+03    -56.5698E-03     110.896E-03    -54.3258E-03     99.1831E-03    -56.9097E-03     110.880E-03    -54.2256E-03     98.4192E-03
             475     11.0825E-03     71.6794E-03    -18.1765E+06    -61.0980E+06    -14.9638E+06     550.997E+03    -56.8831E-03     111.146E-03    -54.2632E-03     107.995E-03    -57.4093E-03     111.434E-03    -54.2231E-03     107.065E-03
             476     11.9349E-03     71.7928E-03    -17.0909E+06    -27.5229E+06    -16.6693E+06     563.262E+03    -57.2481E-03     111.446E-03    -54.1981E-03     120.466E-03    -58.0774E-03     112.165E-03    -54.2167E-03     119.330E-03
             477     12.7881E-03     71.9208E-03    -17.3823E+06     24.6527E+06    -17.6601E+06     2.37423E+06    -57.9440E-03     112.048E-03    -54.1043E-03     139.740E-03    -59.3547E-03     113.536E-03    -54.2031E-03     138.339E-03
             478     13.6399E-03     72.0731E-03    -16.8406E+06     72.7224E+06     3.01523E+06     3.42304E+06    -61.2473E-03     115.375E-03    -54.1274E-03     187.387E-03    -64.2051E-03     118.522E-03    -54.1934E-03     185.492E-03
             479     14.4945E-03     72.3001E-03    -14.8638E+06     106.483E+06     51.0845E+06     2.75741E+06    -70.2437E-03     124.557E-03    -54.3128E-03     290.098E-03    -78.9324E-03     133.422E-03    -54.1902E-03     287.288E-03
             480     15.3415E-03     72.6625E-03    -11.5243E+06     140.554E+06     94.2391E+06     1.44842E+06    -78.7435E-03     133.206E-03    -54.4626E-03     402.367E-03    -101.192E-03     155.839E-03    -54.1784E-03     401.531E-03
             481     16.2032E-03     73.1379E-03    -5.64706E+06     153.840E+06     105.307E+06     158.718E+03    -66.6285E-03     121.071E-03    -54.4427E-03     307.427E-03    -86.5665E-03     141.230E-03    -54.1310E-03     313.318E-03
             482     852.533E-06     72.0266E-03    -41.5043E+06    -156.344E+06    -40.8856E+06     367.196E+03    -54.4567E-03     108.793E-03    -54.3364E-03     9.47608E-03    -54.3794E-03     108.133E-03    -54.2539E-03     9.44895E-03
             483     1.70483E-03     72.0398E-03    -40.4548E+06    -154.733E+06    -38.1900E+06     504.828E+03    -54.4998E-03     108.901E-03    -54.4011E-03     17.5221E-03    -54.4266E-03     108.246E-03    -54.3090E-03     17.4688E-03
             484     2.55730E-03     72.0617E-03    -38.8828E+06    -151.192E+06    -33.4573E+06     604.641E+03    -54.5547E-03     108.976E-03    -54.4216E-03     26.0097E-03    -54.4908E-03     108.335E-03    -54.3133E-03     25.9258E-03
             485     3.40969E-03     72.0920E-03    -36.8213E+06    -147.530E+06    -27.7370E+06     509.841E+03    -54.6597E-03     109.095E-03    -54.4351E-03     34.4745E-03    -54.6070E-03     108.468E-03    -54.3065E-03     34.3532E-03
             486     4.26217E-03     72.1309E-03    -34.5016E+06    -139.091E+06    -21.5742E+06     511.537E+03    -54.7804E-03     109.220E-03    -54.4396E-03     42.9577E-03    -54.7489E-03     108.635E-03    -54.2958E-03     42.7947E-03
             487     5.11466E-03     72.1783E-03    -32.2035E+06    -131.598E+06    -14.9521E+06     345.585E+03    -54.9456E-03     109.391E-03    -54.4456E-03     51.3279E-03    -54.9396E-03     108.847E-03    -54.2829E-03     51.1136E-03
             488     5.96722E-03     72.2339E-03    -29.6541E+06    -121.095E+06    -10.5196E+06     81.7185E+03    -55.1384E-03     109.574E-03    -54.4356E-03     59.6073E-03    -55.1636E-03     109.095E-03    -54.2696E-03     59.3323E-03
             489     6.81981E-03     72.2979E-03    -26.8424E+06    -113.939E+06    -5.46772E+06     30.8193E+03    -55.3850E-03     109.819E-03    -54.4343E-03     67.6641E-03    -55.4448E-03     109.395E-03    -54.2575E-03     67.3196E-03
             490     7.67230E-03     72.3698E-03    -23.8387E+06    -112.098E+06    -2.08675E+06     803.061E+03    -55.6968E-03     110.134E-03    -54.4369E-03     75.4211E-03    -55.7916E-03     109.752E-03    -54.2502E-03     75.0030E-03
             491     8.52471E-03     72.4494E-03    -21.5312E+06    -107.441E+06    -2.86754E+06     1.80278E+06    -55.9976E-03     110.418E-03    -54.4199E-03     83.1855E-03    -56.1443E-03     110.115E-03    -54.2472E-03     82.6825E-03
             492     9.37725E-03     72.5369E-03    -20.0194E+06    -105.581E+06    -4.87141E+06     1.38441E+06    -56.3058E-03     110.709E-03    -54.4033E-03     91.0901E-03    -56.5241E-03     110.496E-03    -54.2455E-03     90.4660E-03
             493     10.2297E-03     72.6324E-03    -18.1623E+06    -89.1638E+06    -12.5216E+06    -487.112E+03    -56.5855E-03     110.921E-03    -54.3357E-03     99.2961E-03    -56.9152E-03     110.906E-03    -54.2427E-03     98.5157E-03
             494     11.0821E-03     72.7362E-03    -17.1653E+06    -61.5204E+06    -16.8853E+06    -688.829E+03    -56.8214E-03     111.087E-03    -54.2652E-03     108.352E-03    -57.3387E-03     111.373E-03    -54.2355E-03     107.410E-03
             495     11.9349E-03     72.8491E-03    -17.9633E+06    -29.8001E+06    -18.6063E+06     1.55431E+06    -57.2444E-03     111.445E-03    -54.2002E-03     120.751E-03    -58.0708E-03     112.155E-03    -54.2240E-03     119.630E-03
             496     12.7871E-03     72.9776E-03    -19.2225E+06     23.1482E+06    -17.6359E+06     3.02589E+06    -58.0044E-03     112.119E-03    -54.1151E-03     140.590E-03    -59.4242E-03     113.604E-03    -54.2089E-03     139.198E-03
             497     13.6400E-03     73.1303E-03    -18.8262E+06     72.2093E+06    -128.303E+03     2.79124E+06    -60.9603E-03     115.067E-03    -54.1064E-03     189.350E-03    -63.9401E-03     118.236E-03    -54.1844E-03     187.464E-03
             498     14.4910E-03     73.3555E-03    -15.6567E+06     106.787E+06     42.6804E+06     3.09038E+06    -70.0765E-03     124.313E-03    -54.2363E-03     292.076E-03    -78.8032E-03     133.239E-03    -54.1551E-03     289.275E-03
             499     15.3502E-03     73.7224E-03    -11.0624E+06     143.990E+06     90.5367E+06     2.34761E+06    -78.6610E-03     133.045E-03    -54.3844E-03     403.511E-03    -101.120E-03     155.713E-03    -54.1245E-03     402.693E-03
             500     16.1942E-03     74.1918E-03     -5.4355E+06     155.373E+06     105.682E+06     70.6837E+03    -66.8325E-03     121.219E-03    -54.3862E-03     307.112E-03    -86.7102E-03     141.322E-03    -54.0752E-03     312.937E-03
             501     852.382E-06     73.0831E-03    -41.8152E+06    -156.864E+06    -41.4023E+06     203.831E+03    -54.4618E-03     108.811E-03    -54.3496E-03     9.47395E-03    -54.3844E-03     108.149E-03    -54.2685E-03     9.44495E-03
             502     1.70488E-03     73.0964E-03    -40.8981E+06    -155.146E+06    -38.6167E+06     298.129E+03    -54.4701E-03     108.873E-03    -54.4025E-03     17.4625E-03    -54.3978E-03     108.216E-03    -54.3113E-03     17.4068E-03
             503     2.55725E-03     73.1182E-03    -39.1755E+06    -151.521E+06    -33.7071E+06     405.036E+03    -54.5517E-03     108.968E-03    -54.4163E-03     25.9966E-03    -54.4884E-03     108.326E-03    -54.3084E-03     25.9101E-03
             504     3.40973E-03     73.1486E-03    -36.9328E+06    -147.543E+06    -27.4843E+06     464.235E+03    -54.6727E-03     109.107E-03    -54.4341E-03     34.4928E-03    -54.6210E-03     108.480E-03    -54.3040E-03     34.3708E-03
             505     4.26214E-03     73.1874E-03    -34.4212E+06    -139.566E+06    -21.4662E+06     641.827E+03    -54.7970E-03     109.239E-03    -54.4418E-03     42.9586E-03    -54.7647E-03     108.651E-03    -54.2968E-03     42.7971E-03
             506     5.11471E-03     73.2348E-03    -31.7292E+06    -131.351E+06    -14.7007E+06     779.031E+03    -54.9594E-03     109.409E-03    -54.4491E-03     51.3172E-03    -54.9517E-03     108.865E-03    -54.2861E-03     51.1082E-03
             507     5.96719E-03     73.2905E-03    -29.1946E+06    -120.673E+06    -9.65014E+06     385.956E+03    -55.1816E-03     109.627E-03    -54.4453E-03     59.5540E-03    -55.2066E-03     109.148E-03    -54.2763E-03     59.2820E-03
             508     6.81965E-03     73.3544E-03    -27.0294E+06    -114.239E+06    -5.50642E+06     330.131E+03    -55.4317E-03     109.878E-03    -54.4465E-03     67.6529E-03    -55.4920E-03     109.453E-03    -54.2692E-03     67.3117E-03
             509     7.67213E-03     73.4264E-03    -25.0560E+06    -113.061E+06    -3.87385E+06     514.085E+03    -55.7036E-03     110.148E-03    -54.4446E-03     75.4886E-03    -55.8005E-03     109.766E-03    -54.2637E-03     75.0670E-03
             510     8.52472E-03     73.5060E-03    -22.4492E+06    -108.850E+06    -4.12836E+06     1.08739E+06    -55.9838E-03     110.412E-03    -54.4285E-03     83.3124E-03    -56.1311E-03     110.105E-03    -54.2588E-03     82.8007E-03
             511     9.37711E-03     73.5936E-03    -19.5898E+06    -103.786E+06    -4.06414E+06     695.780E+03    -56.2586E-03     110.670E-03    -54.4111E-03     91.3483E-03    -56.4781E-03     110.463E-03    -54.2525E-03     90.7173E-03
             512     10.2297E-03     73.6890E-03    -18.8569E+06    -87.0830E+06    -12.4552E+06    -805.732E+03    -56.4799E-03     110.813E-03    -54.3334E-03     99.5420E-03    -56.8157E-03     110.809E-03    -54.2421E-03     98.7602E-03
             513     11.0827E-03     73.7925E-03    -20.4956E+06    -64.8428E+06    -18.5491E+06     621.343E+03    -56.7393E-03     110.998E-03    -54.2583E-03     108.522E-03    -57.2650E-03     111.274E-03    -54.2273E-03     107.599E-03
             514     11.9351E-03     73.9059E-03    -21.9221E+06    -30.9428E+06    -19.9630E+06     2.21970E+06    -57.1576E-03     111.345E-03    -54.1871E-03     120.952E-03    -57.9996E-03     112.057E-03    -54.2103E-03     119.843E-03
             515     12.7883E-03     74.0341E-03    -20.2613E+06     22.8940E+06    -18.1383E+06     1.37695E+06    -57.6662E-03     111.754E-03    -54.0881E-03     140.551E-03    -59.0870E-03     113.237E-03    -54.1826E-03     139.148E-03
             516     13.6418E-03     74.1864E-03    -18.1242E+06     71.0149E+06     411.376E+03     2.32591E+06    -60.7496E-03     114.819E-03    -54.0694E-03     188.844E-03    -63.7124E-03     117.968E-03    -54.1441E-03     186.959E-03
             517     14.4976E-03     74.4132E-03    -16.4564E+06     106.447E+06     42.0356E+06     3.05550E+06    -69.9549E-03     124.146E-03    -54.1908E-03     291.335E-03    -78.6396E-03     133.028E-03    -54.1111E-03     288.536E-03
             518     15.3433E-03     74.7789E-03    -11.5343E+06     145.604E+06     90.6697E+06     1.63968E+06    -77.7691E-03     132.089E-03    -54.3202E-03     402.339E-03    -100.027E-03     154.560E-03    -54.0613E-03     401.639E-03
             519     16.2075E-03     75.2497E-03    -6.07102E+06     157.828E+06     106.926E+06     215.296E+03    -67.4989E-03     121.827E-03    -54.3279E-03     306.920E-03    -87.2668E-03     141.823E-03    -54.0133E-03     312.741E-03
             520     852.396E-06     74.1396E-03    -42.2935E+06    -157.132E+06    -41.4316E+06     87.1473E+03    -54.3821E-03     108.834E-03    -54.4517E-03     9.48910E-03    -54.3067E-03     108.171E-03    -54.3697E-03     9.45877E-03
             521     1.70480E-03     74.1529E-03    -41.2066E+06    -155.356E+06    -38.5899E+06     172.317E+03    -54.4588E-03     108.869E-03    -54.4106E-03     17.5032E-03    -54.3878E-03     108.212E-03    -54.3185E-03     17.4457E-03
             522     2.55730E-03     74.1748E-03    -39.6345E+06    -151.804E+06    -34.0299E+06     235.323E+03    -54.5460E-03     108.964E-03    -54.4177E-03     25.9847E-03    -54.4841E-03     108.321E-03    -54.3102E-03     25.8961E-03
             523     3.40973E-03     74.2051E-03    -37.3961E+06    -147.749E+06    -27.7419E+06     326.663E+03    -54.6633E-03     109.097E-03    -54.4337E-03     34.4781E-03    -54.6132E-03     108.470E-03    -54.3039E-03     34.3542E-03
             524     4.26221E-03     74.2440E-03    -34.7148E+06    -140.035E+06    -21.6046E+06     502.430E+03    -54.8196E-03     109.263E-03    -54.4435E-03     42.9220E-03    -54.7879E-03     108.674E-03    -54.2981E-03     42.7583E-03
             525     5.11461E-03     74.2913E-03    -31.7799E+06    -131.589E+06    -15.2976E+06     644.369E+03    -55.0001E-03     109.453E-03    -54.4529E-03     51.3085E-03    -54.9915E-03     108.909E-03    -54.2925E-03     51.0975E-03
             526     5.96709E-03     74.3472E-03    -28.7915E+06    -120.225E+06    -9.21358E+06     622.639E+03    -55.1958E-03     109.651E-03    -54.4557E-03     59.5995E-03    -55.2201E-03     109.173E-03    -54.2856E-03     59.3307E-03
             527     6.81959E-03     74.4110E-03    -26.1444E+06    -115.148E+06    -4.71932E+06     983.618E+03    -55.4201E-03     109.878E-03    -54.4583E-03     67.7185E-03    -55.4757E-03     109.446E-03    -54.2770E-03     67.3862E-03
             528     7.67213E-03     74.4831E-03    -24.0465E+06    -112.692E+06    -3.91922E+06     1.14045E+06    -55.6717E-03     110.118E-03    -54.4460E-03     75.6171E-03    -55.7639E-03     109.736E-03    -54.2673E-03     75.2046E-03
             529     8.52458E-03     74.5626E-03    -22.2455E+06    -108.971E+06    -4.98248E+06     208.629E+03    -55.9388E-03     110.361E-03    -54.4226E-03     83.4319E-03    -56.0835E-03     110.055E-03    -54.2573E-03     82.9098E-03
             530     9.37733E-03     74.6501E-03    -20.8257E+06    -103.258E+06    -4.78217E+06     30.2776E+03    -56.2156E-03     110.619E-03    -54.4031E-03     91.3387E-03    -56.4409E-03     110.417E-03    -54.2471E-03     90.6997E-03
             531     10.2301E-03     74.7454E-03    -21.0093E+06    -87.3972E+06    -9.30903E+06     1.42962E+06    -56.4685E-03     110.815E-03    -54.3470E-03     99.2333E-03    -56.8196E-03     110.809E-03    -54.2363E-03     98.4785E-03
             532     11.0824E-03     74.8490E-03    -21.5721E+06    -66.9563E+06    -15.8488E+06     2.12243E+06    -56.6987E-03     110.970E-03    -54.2713E-03     108.189E-03    -57.2313E-03     111.234E-03    -54.2222E-03     107.283E-03
             533     11.9353E-03     74.9622E-03    -19.9109E+06    -29.9502E+06    -18.5156E+06     1.10087E+06    -57.0462E-03     111.228E-03    -54.1814E-03     120.637E-03    -57.8801E-03     111.938E-03    -54.2017E-03     119.515E-03
             534     12.7879E-03     75.0904E-03    -20.0355E+06     22.7126E+06    -17.8724E+06     917.071E+03    -57.8167E-03     111.902E-03    -54.0853E-03     139.616E-03    -59.2377E-03     113.384E-03    -54.1785E-03     138.196E-03
             535     13.6410E-03     75.2416E-03    -20.6849E+06     68.8631E+06    -4.96784E+06     1.61764E+06    -61.0955E-03     115.161E-03    -54.0657E-03     188.021E-03    -64.0659E-03     118.317E-03    -54.1604E-03     186.104E-03
             536     14.4901E-03     75.4698E-03    -16.9842E+06     106.680E+06     37.6656E+06     1.85952E+06    -69.5089E-03     123.699E-03    -54.1896E-03     290.344E-03    -78.1532E-03     132.552E-03    -54.1314E-03     287.573E-03
             537     15.3515E-03     75.8345E-03    -11.1656E+06     146.566E+06     90.1485E+06     1.05220E+06    -77.7024E-03     132.041E-03    -54.3391E-03     399.690E-03    -99.8464E-03     154.405E-03    -54.0847E-03     398.913E-03
             538     16.1973E-03     76.3014E-03    -5.05319E+06     158.077E+06     107.562E+06     473.737E+03    -67.2518E-03     121.617E-03    -54.3654E-03     306.442E-03    -87.0245E-03     141.621E-03    -54.0494E-03     312.246E-03
             539     852.425E-06     75.1961E-03    -42.3923E+06    -157.357E+06    -41.6822E+06     209.123E+03    -54.4097E-03     108.838E-03    -54.4280E-03     9.46806E-03    -54.3341E-03     108.175E-03    -54.3468E-03     9.43923E-03
             540     1.70488E-03     75.2095E-03    -41.4861E+06    -155.585E+06    -38.7532E+06     192.611E+03    -54.4770E-03     108.893E-03    -54.4162E-03     17.4813E-03    -54.4068E-03     108.236E-03    -54.3242E-03     17.4239E-03
             541     2.55722E-03     75.2313E-03    -39.9198E+06    -151.926E+06    -33.8874E+06     260.526E+03    -54.5476E-03     108.975E-03    -54.4273E-03     25.9545E-03    -54.4871E-03     108.332E-03    -54.3185E-03     25.8662E-03
             542     3.40969E-03     75.2617E-03    -37.6588E+06    -147.859E+06    -27.7685E+06     212.748E+03    -54.6648E-03     109.106E-03    -54.4410E-03     34.4787E-03    -54.6159E-03     108.479E-03    -54.3109E-03     34.3531E-03
             543     4.26213E-03     75.3006E-03    -34.8321E+06    -140.315E+06    -21.4833E+06     176.914E+03    -54.8253E-03     109.276E-03    -54.4510E-03     42.9433E-03    -54.7940E-03     108.686E-03    -54.3045E-03     42.7754E-03
             544     5.11460E-03     75.3480E-03    -31.9938E+06    -132.045E+06    -15.3945E+06     436.839E+03    -54.9980E-03     109.457E-03    -54.4590E-03     51.3408E-03    -54.9896E-03     108.911E-03    -54.2981E-03     51.1273E-03
             545     5.96707E-03     75.4036E-03    -29.4406E+06    -120.372E+06    -9.87048E+06     749.454E+03    -55.1713E-03     109.628E-03    -54.4564E-03     59.6638E-03    -55.1975E-03     109.151E-03    -54.2886E-03     59.3972E-03
             546     6.81964E-03     75.4678E-03    -26.6672E+06    -115.772E+06    -4.92622E+06     857.925E+03    -55.3965E-03     109.855E-03    -54.4585E-03     67.7318E-03    -55.4537E-03     109.421E-03    -54.2766E-03     67.3976E-03
             547     7.67219E-03     75.5395E-03    -23.8214E+06    -113.000E+06    -3.74196E+06     1.21170E+06    -55.6594E-03     110.104E-03    -54.4447E-03     75.5753E-03    -55.7503E-03     109.720E-03    -54.2650E-03     75.1634E-03
             548     8.52489E-03     75.6193E-03    -22.3958E+06    -107.494E+06    -4.41626E+06     1.04220E+06    -55.9424E-03     110.364E-03    -54.4215E-03     83.2954E-03    -56.0911E-03     110.064E-03    -54.2552E-03     82.7832E-03
             549     9.37726E-03     75.7065E-03    -21.6706E+06    -103.679E+06    -5.92057E+06     465.349E+03    -56.2472E-03     110.647E-03    -54.3998E-03     91.1981E-03    -56.4749E-03     110.447E-03    -54.2476E-03     90.5632E-03
             550     10.2296E-03     75.8023E-03    -19.5911E+06    -90.2348E+06    -10.3345E+06     1.69964E+06    -56.4753E-03     110.821E-03    -54.3461E-03     99.1687E-03    -56.8140E-03     110.800E-03    -54.2385E-03     98.4167E-03
             551     11.0824E-03     75.9051E-03    -17.5074E+06    -65.8949E+06    -16.5632E+06     1.99517E+06    -56.6816E-03     110.942E-03    -54.2608E-03     108.205E-03    -57.1939E-03     111.207E-03    -54.2227E-03     107.299E-03
             552     11.9351E-03     76.0187E-03    -19.0305E+06    -29.9141E+06    -21.3618E+06     1.81730E+06    -57.1038E-03     111.270E-03    -54.1664E-03     120.704E-03    -57.9281E-03     111.983E-03    -54.2022E-03     119.593E-03
             553     12.7882E-03     76.1466E-03    -20.9186E+06     22.3096E+06    -21.4118E+06     2.71231E+06    -58.0661E-03     112.144E-03    -54.0779E-03     140.217E-03    -59.4925E-03     113.637E-03    -54.1870E-03     138.814E-03
             554     13.6397E-03     76.2996E-03    -19.9020E+06     69.8392E+06    -5.25175E+06     1.17544E+06    -61.1553E-03     115.230E-03    -54.0751E-03     189.037E-03    -64.1338E-03     118.401E-03    -54.1738E-03     187.119E-03
             555     14.4964E-03     76.5260E-03    -16.7916E+06     106.648E+06     39.6172E+06    -619.007E+03    -69.9474E-03     124.172E-03    -54.2246E-03     290.352E-03    -78.6327E-03     133.061E-03    -54.1568E-03     287.519E-03
             556     15.3429E-03     76.8880E-03    -11.0472E+06     147.285E+06     90.0484E+06     440.487E+03    -78.1520E-03     132.533E-03    -54.3814E-03     400.617E-03    -100.342E-03     154.946E-03    -54.1287E-03     399.829E-03
             557     16.1991E-03     77.3625E-03    -5.59979E+06     157.739E+06     106.664E+06     951.549E+03    -66.8492E-03     121.238E-03    -54.3887E-03     309.466E-03    -86.7206E-03     141.340E-03    -54.0760E-03     315.457E-03
             558     852.394E-06     76.2528E-03    -43.0370E+06    -157.874E+06    -42.1214E+06     246.807E+03    -54.4334E-03     108.846E-03    -54.4124E-03     9.43827E-03    -54.3597E-03     108.182E-03    -54.3317E-03     9.40994E-03
             559     1.70473E-03     76.2661E-03    -41.8121E+06    -155.846E+06    -38.9187E+06     374.542E+03    -54.4838E-03     108.906E-03    -54.4219E-03     17.5080E-03    -54.4147E-03     108.248E-03    -54.3299E-03     17.4530E-03
             560     2.55724E-03     76.2879E-03    -40.0974E+06    -151.970E+06    -33.7992E+06     313.550E+03    -54.5602E-03     108.995E-03    -54.4352E-03     25.9778E-03    -54.5007E-03     108.352E-03    -54.3257E-03     25.8900E-03
             561     3.40968E-03     76.3183E-03    -37.8422E+06    -147.844E+06    -27.5089E+06     253.681E+03    -54.6751E-03     109.126E-03    -54.4511E-03     34.4920E-03    -54.6275E-03     108.499E-03    -54.3194E-03     34.3670E-03
             562     4.26211E-03     76.3573E-03    -35.4317E+06    -140.225E+06    -21.5822E+06     89.7413E+03    -54.8049E-03     109.263E-03    -54.4577E-03     42.9685E-03    -54.7765E-03     108.673E-03    -54.3109E-03     42.7996E-03
             563     5.11460E-03     76.4046E-03    -32.6540E+06    -132.730E+06    -15.8717E+06     261.011E+03    -54.9771E-03     109.438E-03    -54.4608E-03     51.3452E-03    -54.9704E-03     108.890E-03    -54.3003E-03     51.1295E-03
             564     5.96712E-03     76.4603E-03    -29.8450E+06    -121.234E+06    -10.9349E+06     1.03906E+06    -55.1685E-03     109.622E-03    -54.4532E-03     59.6156E-03    -55.1940E-03     109.143E-03    -54.2888E-03     59.3525E-03
             565     6.81965E-03     76.5242E-03    -27.4838E+06    -115.221E+06    -5.71944E+06     905.125E+03    -55.4017E-03     109.857E-03    -54.4557E-03     67.6781E-03    -55.4627E-03     109.428E-03    -54.2773E-03     67.3442E-03
             566     7.67214E-03     76.5962E-03    -24.9242E+06    -113.791E+06    -4.74679E+06     470.479E+03    -55.6586E-03     110.103E-03    -54.4440E-03     75.5188E-03    -55.7525E-03     109.718E-03    -54.2666E-03     75.0970E-03
             567     8.52453E-03     76.6758E-03    -22.1179E+06    -107.937E+06    -5.96067E+06     1.38535E+06    -55.9025E-03     110.316E-03    -54.4133E-03     83.3855E-03    -56.0464E-03     110.015E-03    -54.2545E-03     82.8793E-03
             568     9.37714E-03     76.7633E-03    -21.1684E+06    -103.265E+06    -7.84769E+06     1.86124E+06    -56.1768E-03     110.559E-03    -54.3820E-03     91.4477E-03    -56.3990E-03     110.362E-03    -54.2408E-03     90.8341E-03
             569     10.2300E-03     76.8585E-03    -21.6291E+06    -90.4116E+06    -15.6226E+06     398.946E+03    -56.4591E-03     110.771E-03    -54.3116E-03     99.4266E-03    -56.7996E-03     110.759E-03    -54.2272E-03     98.6602E-03
             570     11.0826E-03     76.9618E-03    -21.8358E+06    -67.0513E+06    -21.0686E+06     893.250E+03    -56.7509E-03     110.989E-03    -54.2378E-03     108.227E-03    -57.2770E-03     111.260E-03    -54.2143E-03     107.306E-03
             571     11.9354E-03     77.0748E-03    -20.6903E+06    -30.9894E+06    -21.6102E+06     2.61025E+06    -57.1839E-03     111.351E-03    -54.1672E-03     120.721E-03    -58.0162E-03     112.063E-03    -54.2004E-03     119.617E-03
             572     12.7877E-03     77.2035E-03    -18.5786E+06     22.5899E+06    -22.4933E+06     1.61556E+06    -57.8845E-03     111.948E-03    -54.0632E-03     140.431E-03    -59.2972E-03     113.440E-03    -54.1815E-03     139.020E-03
             573     13.6418E-03     77.3560E-03    -16.5031E+06     72.5210E+06    -174.013E+03     396.497E+03    -61.2676E-03     115.352E-03    -54.0844E-03     188.696E-03    -64.2447E-03     118.528E-03    -54.1665E-03     186.756E-03
             574     14.4913E-03     77.5815E-03    -14.6438E+06     107.023E+06     51.5171E+06     481.817E+03    -70.1339E-03     124.416E-03    -54.2818E-03     290.531E-03    -78.8254E-03     133.286E-03    -54.1582E-03     287.710E-03
             575     15.3473E-03     77.9498E-03    -11.7103E+06     144.876E+06     95.1413E+06     712.884E+03    -77.6636E-03     132.070E-03    -54.4069E-03     400.108E-03    -99.8097E-03     154.413E-03    -54.1243E-03     399.351E-03
             576     16.2041E-03     78.4108E-03    -5.93663E+06     158.705E+06     106.877E+06     640.337E+03    -66.9273E-03     121.312E-03    -54.3845E-03     308.494E-03    -86.7779E-03     141.395E-03    -54.0716E-03     314.434E-03
             577     852.423E-06     77.3094E-03    -43.2113E+06    -158.209E+06    -42.7032E+06     10.9903E+03    -54.4133E-03     108.844E-03    -54.4310E-03     9.46470E-03    -54.3391E-03     108.180E-03    -54.3524E-03     9.43293E-03
             578     1.70490E-03     77.3227E-03    -42.1337E+06    -156.330E+06    -39.4988E+06     335.427E+03    -54.4833E-03     108.903E-03    -54.4201E-03     17.5090E-03    -54.4143E-03     108.244E-03    -54.3298E-03     17.4536E-03
             579     2.55723E-03     77.3445E-03    -40.4723E+06    -151.998E+06    -34.3607E+06     455.160E+03    -54.5748E-03     109.010E-03    -54.4350E-03     25.9894E-03    -54.5163E-03     108.368E-03    -54.3278E-03     25.9036E-03
             580     3.40960E-03     77.3749E-03    -38.3806E+06    -147.968E+06    -28.0693E+06     403.410E+03    -54.6787E-03     109.132E-03    -54.4537E-03     34.5047E-03    -54.6328E-03     108.506E-03    -54.3238E-03     34.3818E-03
             581     4.26209E-03     77.4137E-03    -35.9099E+06    -140.011E+06    -22.2640E+06     398.618E+03    -54.8059E-03     109.265E-03    -54.4590E-03     42.9597E-03    -54.7793E-03     108.678E-03    -54.3152E-03     42.7947E-03
             582     5.11460E-03     77.4612E-03    -33.3767E+06    -133.002E+06    -16.8279E+06     228.311E+03    -54.9754E-03     109.437E-03    -54.4613E-03     51.3193E-03    -54.9705E-03     108.890E-03    -54.3042E-03     51.1030E-03
             583     5.96704E-03     77.5168E-03    -30.4627E+06    -122.583E+06    -13.0369E+06     590.336E+03    -55.1594E-03     109.608E-03    -54.4483E-03     59.6025E-03    -55.1829E-03     109.126E-03    -54.2915E-03     59.3337E-03
             584     6.81957E-03     77.5809E-03    -27.3941E+06    -114.693E+06    -7.48356E+06     1.02465E+06    -55.3707E-03     109.816E-03    -54.4455E-03     67.7587E-03    -55.4292E-03     109.392E-03    -54.2769E-03     67.4276E-03
             585     7.67211E-03     77.6527E-03    -25.2241E+06    -113.276E+06    -5.08642E+06     441.545E+03    -55.6113E-03     110.048E-03    -54.4367E-03     75.6193E-03    -55.7067E-03     109.666E-03    -54.2613E-03     75.1985E-03
             586     8.52490E-03     77.7323E-03    -23.7691E+06    -110.035E+06    -7.13426E+06     624.381E+03    -55.8627E-03     110.266E-03    -54.4038E-03     83.4246E-03    -56.0099E-03     109.959E-03    -54.2454E-03     82.9096E-03
             587     9.37771E-03     77.8196E-03    -20.9186E+06    -103.000E+06    -5.87978E+06     1.30664E+06    -56.1722E-03     110.554E-03    -54.3813E-03     91.2455E-03    -56.3963E-03     110.355E-03    -54.2310E-03     90.6240E-03
             588     10.2302E-03     77.9151E-03    -18.3912E+06    -89.1961E+06    -8.80009E+06     1.32268E+06    -56.5182E-03     110.852E-03    -54.3338E-03     99.0141E-03    -56.8548E-03     110.832E-03    -54.2218E-03     98.2561E-03
             589     11.0827E-03     78.0183E-03    -17.8835E+06    -68.9266E+06    -15.5779E+06     1.54654E+06    -56.8388E-03     111.103E-03    -54.2639E-03     107.853E-03    -57.3514E-03     111.352E-03    -54.2159E-03     106.936E-03
             590     11.9350E-03     78.1314E-03    -17.7293E+06    -31.4797E+06    -17.9757E+06     1.37332E+06    -57.2363E-03     111.425E-03    -54.1889E-03     120.499E-03    -58.0595E-03     112.126E-03    -54.2075E-03     119.375E-03
             591     12.7882E-03     78.2598E-03    -17.7191E+06     24.6208E+06    -17.8184E+06     360.905E+03    -58.0409E-03     112.139E-03    -54.0980E-03     139.811E-03    -59.4601E-03     113.634E-03    -54.1971E-03     138.375E-03
             592     13.6403E-03     78.4118E-03    -17.3400E+06     72.0703E+06     27.5775E+03     260.940E+03    -61.1680E-03     115.272E-03    -54.1045E-03     188.834E-03    -64.1382E-03     118.437E-03    -54.1837E-03     186.899E-03
             593     14.4940E-03     78.6422E-03    -15.2350E+06     105.239E+06     48.4768E+06     1.71201E+06    -69.5362E-03     123.802E-03    -54.2657E-03     290.327E-03    -78.1535E-03     132.598E-03    -54.1538E-03     287.568E-03
             594     15.3476E-03     78.9992E-03    -10.9673E+06     146.058E+06     95.7694E+06     2.23044E+06    -78.2805E-03     132.686E-03    -54.4052E-03     399.433E-03    -100.406E-03     155.013E-03    -54.1223E-03     398.594E-03
             595     16.1935E-03     79.4732E-03    -4.92526E+06     160.476E+06     108.560E+06     981.266E+03    -67.3586E-03     121.773E-03    -54.4146E-03     308.428E-03    -87.2162E-03     141.868E-03    -54.0974E-03     314.275E-03
             596     852.356E-06     78.3658E-03    -43.5358E+06    -158.550E+06    -42.8099E+06     113.722E+03    -54.5042E-03     108.857E-03    -54.3533E-03     9.47433E-03    -54.4309E-03     108.192E-03    -54.2743E-03     9.44404E-03
             597     1.70475E-03     78.3793E-03    -42.7031E+06    -156.753E+06    -40.2721E+06     293.739E+03    -54.4871E-03     108.911E-03    -54.4242E-03     17.5088E-03    -54.4191E-03     108.252E-03    -54.3363E-03     17.4530E-03
             598     2.55720E-03     78.4011E-03    -41.1536E+06    -152.383E+06    -35.5290E+06     467.857E+03    -54.5612E-03     108.995E-03    -54.4342E-03     25.9926E-03    -54.5039E-03     108.354E-03    -54.3312E-03     25.9072E-03
             599     3.40971E-03     78.4315E-03    -39.0449E+06    -147.983E+06    -29.3343E+06     545.964E+03    -54.6817E-03     109.131E-03    -54.4495E-03     34.5018E-03    -54.6373E-03     108.508E-03    -54.3250E-03     34.3807E-03
             600     4.26208E-03     78.4704E-03    -36.3622E+06    -139.910E+06    -23.2398E+06     269.203E+03    -54.8215E-03     109.279E-03    -54.4576E-03     42.9621E-03    -54.7958E-03     108.695E-03    -54.3182E-03     42.7953E-03
             601     5.11451E-03     78.5177E-03    -33.1282E+06    -132.619E+06    -17.0055E+06    -35.1607E+03    -54.9664E-03     109.429E-03    -54.4627E-03     51.3274E-03    -54.9606E-03     108.884E-03    -54.3074E-03     51.1079E-03
             602     5.96707E-03     78.5735E-03    -29.7937E+06    -123.178E+06    -12.2858E+06    -317.846E+03    -55.1309E-03     109.583E-03    -54.4517E-03     59.6244E-03    -55.1513E-03     109.096E-03    -54.2914E-03     59.3442E-03
             603     6.81970E-03     78.6373E-03    -26.2903E+06    -115.243E+06    -6.83296E+06    -8.69347E+03    -55.3454E-03     109.789E-03    -54.4439E-03     67.7429E-03    -55.3984E-03     109.360E-03    -54.2728E-03     67.3986E-03
             604     7.67239E-03     78.7093E-03    -22.9194E+06    -113.014E+06    -2.31780E+06     686.701E+03    -55.6436E-03     110.087E-03    -54.4432E-03     75.4390E-03    -55.7321E-03     109.699E-03    -54.2577E-03     75.0199E-03
             605     8.52485E-03     78.7886E-03    -20.1727E+06    -110.608E+06    -2.82627E+06     676.568E+03    -55.9704E-03     110.395E-03    -54.4248E-03     83.0725E-03    -56.1058E-03     110.075E-03    -54.2493E-03     82.5545E-03
             606     9.37712E-03     78.8763E-03    -18.8825E+06    -103.459E+06    -5.88651E+06     529.374E+03    -56.2600E-03     110.652E-03    -54.3917E-03     91.0313E-03    -56.4737E-03     110.448E-03    -54.2437E-03     90.3973E-03
             607     10.2296E-03     78.9716E-03    -18.3063E+06    -89.7318E+06    -9.85895E+06     1.02611E+06    -56.5440E-03     110.890E-03    -54.3456E-03     98.9951E-03    -56.8777E-03     110.868E-03    -54.2382E-03     98.2329E-03
             608     11.0822E-03     79.0749E-03    -17.4988E+06    -69.5320E+06    -15.8841E+06     1.34084E+06    -56.8557E-03     111.135E-03    -54.2794E-03     107.792E-03    -57.3645E-03     111.381E-03    -54.2326E-03     106.873E-03
             609     11.9351E-03     79.1878E-03    -17.5162E+06    -30.8896E+06    -18.6934E+06     1.41219E+06    -57.3623E-03     111.567E-03    -54.2049E-03     120.410E-03    -58.1848E-03     112.272E-03    -54.2282E-03     119.284E-03
             610     12.7872E-03     79.3165E-03    -18.2165E+06     25.6242E+06    -16.1858E+06     1.23632E+06    -58.2814E-03     112.418E-03    -54.1363E-03     140.169E-03    -59.7119E-03     113.921E-03    -54.2279E-03     138.736E-03
             611     13.6393E-03     79.4696E-03    -18.8128E+06     71.3069E+06     588.226E+03     804.919E+03    -60.9740E-03     115.118E-03    -54.1443E-03     187.960E-03    -63.9351E-03     118.264E-03    -54.2174E-03     186.042E-03
             612     14.4942E-03     79.6941E-03    -16.6700E+06     103.729E+06     45.9990E+06     988.361E+03    -69.4983E-03     123.788E-03    -54.2893E-03     289.104E-03    -78.0826E-03     132.548E-03    -54.1855E-03     286.314E-03
             613     15.3446E-03     80.0616E-03    -10.8052E+06     145.476E+06     94.0129E+06     1.56453E+06    -78.1628E-03     132.589E-03    -54.4263E-03     399.612E-03    -100.329E-03     154.960E-03    -54.1515E-03     398.777E-03
             614     16.2056E-03     80.5285E-03    -4.69083E+06     161.848E+06     108.563E+06     1.88230E+06    -66.9875E-03     121.418E-03    -54.4301E-03     307.218E-03    -86.8208E-03     141.494E-03    -54.1151E-03     313.086E-03
             615     852.467E-06     79.4226E-03    -44.1582E+06    -159.137E+06    -43.4032E+06     431.497E+03    -54.5050E-03     108.843E-03    -54.3384E-03     9.50501E-03    -54.4332E-03     108.176E-03    -54.2606E-03     9.47905E-03
             616     1.70480E-03     79.4359E-03    -43.3779E+06    -157.276E+06    -40.5634E+06     562.253E+03    -54.5033E-03     108.927E-03    -54.4235E-03     17.5234E-03    -54.4375E-03     108.266E-03    -54.3353E-03     17.4710E-03
             617     2.55725E-03     79.4577E-03    -42.0302E+06    -152.454E+06    -36.4722E+06     468.679E+03    -54.5679E-03     109.003E-03    -54.4355E-03     25.9948E-03    -54.5135E-03     108.364E-03    -54.3358E-03     25.9092E-03
             618     3.40958E-03     79.4881E-03    -39.5742E+06    -147.940E+06    -30.3600E+06     107.783E+03    -54.6781E-03     109.128E-03    -54.4497E-03     34.4865E-03    -54.6349E-03     108.507E-03    -54.3296E-03     34.3598E-03
             619     4.26207E-03     79.5270E-03    -36.7543E+06    -139.626E+06    -23.5681E+06    -8.61175E+03    -54.7994E-03     109.257E-03    -54.4577E-03     42.9666E-03    -54.7756E-03     108.676E-03    -54.3198E-03     42.7965E-03
             620     5.11458E-03     79.5744E-03    -33.9113E+06    -131.814E+06    -16.7194E+06    -649.628E+03    -54.9566E-03     109.420E-03    -54.4634E-03     51.3116E-03    -54.9563E-03     108.880E-03    -54.3066E-03     51.0840E-03
             621     5.96710E-03     79.6299E-03    -30.4944E+06    -122.503E+06    -11.3679E+06    -1.44142E+06    -55.1496E-03     109.607E-03    -54.4573E-03     59.5543E-03    -55.1760E-03     109.123E-03    -54.2923E-03     59.2588E-03
             622     6.81964E-03     79.6939E-03    -27.0735E+06    -116.392E+06    -7.39116E+06    -1.26424E+06    -55.3943E-03     109.844E-03    -54.4498E-03     67.6230E-03    -55.4490E-03     109.411E-03    -54.2787E-03     67.2612E-03
             623     7.67207E-03     79.7657E-03    -24.0296E+06    -113.910E+06    -5.66124E+06    -390.277E+03    -55.6927E-03     110.133E-03    -54.4405E-03     75.4414E-03    -55.7807E-03     109.748E-03    -54.2688E-03     75.0081E-03
             624     8.52447E-03     79.8455E-03    -21.9736E+06    -110.782E+06    -6.03309E+06     296.004E+03    -55.9913E-03     110.416E-03    -54.4250E-03     83.2113E-03    -56.1306E-03     110.102E-03    -54.2627E-03     82.6891E-03
             625     9.37718E-03     79.9326E-03    -20.8102E+06    -103.915E+06    -8.58155E+06     836.613E+03    -56.2863E-03     110.682E-03    -54.3957E-03     91.2281E-03    -56.5050E-03     110.483E-03    -54.2578E-03     90.5988E-03
             626     10.2299E-03     80.0283E-03    -19.7534E+06    -89.7618E+06    -11.7094E+06     590.603E+03    -56.5675E-03     110.921E-03    -54.3530E-03     99.1269E-03    -56.9056E-03     110.904E-03    -54.2528E-03     98.3595E-03
             627     11.0823E-03     80.1314E-03    -18.5088E+06    -69.6707E+06    -16.6269E+06     68.3996E+03    -56.8986E-03     111.192E-03    -54.2932E-03     107.883E-03    -57.4115E-03     111.440E-03    -54.2485E-03     106.947E-03
             628     11.9345E-03     80.2446E-03    -16.9898E+06    -32.0793E+06    -20.1249E+06     802.846E+03    -57.3853E-03     111.600E-03    -54.2147E-03     120.791E-03    -58.2027E-03     112.302E-03    -54.2442E-03     119.656E-03
             629     12.7872E-03     80.3736E-03    -16.9001E+06     24.8225E+06    -17.8095E+06     2.56214E+06    -58.0872E-03     112.221E-03    -54.1338E-03     140.793E-03    -59.5059E-03     113.719E-03    -54.2344E-03     139.387E-03
             630     13.6404E-03     80.5261E-03    -17.9536E+06     72.9529E+06     1.22755E+06     3.13287E+06    -61.2757E-03     115.424E-03    -54.1487E-03     188.746E-03    -64.2612E-03     118.601E-03    -54.2223E-03     186.844E-03
             631     14.4901E-03     80.7516E-03    -17.0156E+06     105.400E+06     47.8989E+06     1.51158E+06    -69.9539E-03     124.272E-03    -54.3183E-03     290.240E-03    -78.6263E-03     133.120E-03    -54.2070E-03     287.433E-03
             632     15.3475E-03     81.1146E-03    -12.8191E+06     143.556E+06     93.0030E+06     437.000E+03    -78.0818E-03     132.533E-03    -54.4509E-03     400.602E-03    -100.313E-03     154.958E-03    -54.1755E-03     399.793E-03
             633     16.1916E-03     81.5839E-03    -6.45026E+06     160.607E+06     106.485E+06     619.127E+03    -66.4317E-03     120.856E-03    -54.4244E-03     307.126E-03    -86.2278E-03     140.891E-03    -54.1155E-03     313.031E-03
             634     852.392E-06     80.4791E-03    -45.0337E+06    -159.908E+06    -44.2601E+06     380.830E+03    -54.4357E-03     108.853E-03    -54.4174E-03     9.54978E-03    -54.3659E-03     108.185E-03    -54.3416E-03     9.52289E-03
             635     1.70483E-03     80.4925E-03    -43.7910E+06    -157.950E+06    -40.9187E+06     675.979E+03    -54.5102E-03     108.941E-03    -54.4303E-03     17.4663E-03    -54.4450E-03     108.278E-03    -54.3424E-03     17.4153E-03
             636     2.55713E-03     80.5143E-03    -41.8543E+06    -151.926E+06    -36.3223E+06     331.573E+03    -54.5759E-03     109.018E-03    -54.4426E-03     25.9803E-03    -54.5216E-03     108.382E-03    -54.3433E-03     25.8929E-03
             637     3.40964E-03     80.5447E-03    -39.6122E+06    -147.406E+06    -29.9807E+06    -321.935E+03    -54.6628E-03     109.119E-03    -54.4561E-03     34.4969E-03    -54.6211E-03     108.500E-03    -54.3348E-03     34.3646E-03
             638     4.26207E-03     80.5836E-03    -36.8002E+06    -139.907E+06     -23.358E+06    -343.133E+03    -54.7908E-03     109.252E-03    -54.4611E-03     42.9483E-03    -54.7671E-03     108.669E-03    -54.3216E-03     42.7738E-03
             639     5.11458E-03     80.6310E-03    -34.0209E+06    -130.414E+06    -17.1421E+06    -525.473E+03    -54.9725E-03     109.434E-03    -54.4616E-03     51.2756E-03    -54.9741E-03     108.902E-03    -54.3089E-03     51.0494E-03
             640     5.96701E-03     80.6865E-03    -31.6558E+06    -120.952E+06    -12.3613E+06    -1.84482E+06    -55.1872E-03     109.645E-03    -54.4581E-03     59.5371E-03    -55.2202E-03     109.172E-03    -54.2986E-03     59.2360E-03
             641     6.81950E-03     80.7505E-03    -28.7337E+06    -116.962E+06    -9.08901E+06    -2.39854E+06    -55.4171E-03     109.872E-03    -54.4546E-03     67.6964E-03    -55.4768E-03     109.441E-03    -54.2888E-03     67.3200E-03
             642     7.67204E-03     80.8224E-03    -25.6716E+06    -115.252E+06    -7.58633E+06    -1.60937E+06    -55.6640E-03     110.108E-03    -54.4441E-03     75.5784E-03    -55.7551E-03     109.721E-03    -54.2777E-03     75.1305E-03
             643     8.52480E-03     80.9020E-03    -22.9275E+06    -111.948E+06    -6.87940E+06    -253.918E+03    -55.9633E-03     110.392E-03    -54.4288E-03     83.2682E-03    -56.1043E-03     110.074E-03    -54.2677E-03     82.7396E-03
             644     9.37714E-03     80.9894E-03    -20.5489E+06    -104.333E+06    -8.26923E+06     367.134E+03    -56.3201E-03     110.722E-03    -54.4020E-03     91.2440E-03    -56.5376E-03     110.520E-03    -54.2623E-03     90.6078E-03
             645     10.2294E-03     81.0849E-03    -18.8692E+06    -88.6751E+06    -11.6929E+06    -92.1239E+03    -56.5818E-03     110.938E-03    -54.3562E-03     99.1885E-03    -56.9172E-03     110.926E-03    -54.2587E-03     98.4122E-03
             646     11.0819E-03     81.1881E-03    -17.9004E+06    -69.3228E+06    -16.3962E+06    -764.327E+03    -56.8575E-03     111.154E-03    -54.2966E-03     108.188E-03    -57.3689E-03     111.403E-03    -54.2521E-03     107.241E-03
             647     11.9348E-03     81.3014E-03    -18.1486E+06    -34.5721E+06    -21.0974E+06    -74.8872E+03    -57.2407E-03     111.451E-03    -54.2107E-03     121.051E-03    -58.0590E-03     112.144E-03    -54.2397E-03     119.909E-03
             648     12.7876E-03     81.4298E-03    -17.8253E+06     21.9164E+06    -18.9344E+06     2.35386E+06    -57.8934E-03     112.011E-03    -54.1175E-03     140.899E-03    -59.3073E-03     113.494E-03    -54.2181E-03     139.499E-03
             649     13.6400E-03     81.5829E-03    -16.8392E+06     72.4731E+06     1.24888E+06     4.53717E+06    -60.9239E-03     115.037E-03    -54.1133E-03     189.203E-03    -63.8936E-03     118.201E-03    -54.1877E-03     187.342E-03
             650     14.4959E-03     81.8098E-03    -15.0808E+06     109.040E+06     49.1023E+06     4.04346E+06    -69.9553E-03     124.223E-03    -54.2678E-03     291.047E-03    -78.6615E-03     133.120E-03    -54.1585E-03     288.275E-03
             651     15.3432E-03     82.1720E-03    -10.7836E+06     145.418E+06     94.5665E+06     1.55434E+06    -78.2695E-03     132.672E-03    -54.4022E-03     401.829E-03    -100.540E-03     155.145E-03    -54.1246E-03     401.038E-03
             652     16.2068E-03     82.6440E-03    -5.72339E+06     160.303E+06     106.999E+06     541.467E+03    -67.0686E-03     121.458E-03    -54.3898E-03     306.727E-03    -86.8216E-03     141.450E-03    -54.0789E-03     312.553E-03
             653     852.372E-06     81.5357E-03    -45.7388E+06    -160.727E+06    -44.9965E+06     376.910E+03    -54.4581E-03     108.920E-03    -54.4615E-03     9.53461E-03    -54.3896E-03     108.249E-03    -54.3871E-03     9.50771E-03
             654     1.70472E-03     81.5492E-03    -44.4911E+06    -158.273E+06    -41.9633E+06     316.775E+03    -54.4915E-03     108.942E-03    -54.4508E-03     17.4938E-03    -54.4278E-03     108.281E-03    -54.3666E-03     17.4384E-03
             655     2.55719E-03     81.5710E-03    -42.6479E+06    -151.371E+06    -36.8912E+06     62.2182E+03    -54.5540E-03     109.003E-03    -54.4495E-03     25.9643E-03    -54.5037E-03     108.371E-03    -54.3526E-03     25.8735E-03
             656     3.40958E-03     81.6013E-03    -40.3164E+06    -146.604E+06    -30.1734E+06    -422.678E+03    -54.6545E-03     109.113E-03    -54.4589E-03     34.4676E-03    -54.6172E-03     108.500E-03    -54.3387E-03     34.3339E-03
             657     4.26206E-03     81.6402E-03    -37.4246E+06    -139.649E+06    -24.3984E+06    -1.01750E+06    -54.8006E-03     109.261E-03    -54.4602E-03     42.9488E-03    -54.7790E-03     108.681E-03    -54.3255E-03     42.7655E-03
             658     5.11450E-03     81.6875E-03    -34.0690E+06    -130.362E+06    -18.7400E+06    -888.429E+03    -54.9781E-03     109.436E-03    -54.4581E-03     51.3226E-03    -54.9777E-03     108.906E-03    -54.3134E-03     51.0920E-03
             659     5.96702E-03     81.7432E-03    -31.3550E+06    -118.711E+06    -12.3439E+06    -1.13381E+06    -55.1797E-03     109.638E-03    -54.4580E-03     59.5966E-03    -55.2144E-03     109.175E-03    -54.3021E-03     59.3052E-03
             660     6.81952E-03     81.8071E-03    -29.3684E+06    -115.889E+06    -8.40489E+06    -2.69698E+06    -55.4089E-03     109.869E-03    -54.4598E-03     67.6974E-03    -55.4744E-03     109.443E-03    -54.2912E-03     67.3169E-03
             661     7.67209E-03     81.8789E-03    -26.7526E+06    -116.553E+06    -8.86603E+06    -2.78731E+06    -55.6626E-03     110.106E-03    -54.4432E-03     75.5710E-03    -55.7555E-03     109.716E-03    -54.2797E-03     75.1077E-03
             662     8.52441E-03     81.9586E-03    -23.6151E+06    -112.991E+06    -9.20536E+06    -2.08073E+06    -55.9561E-03     110.377E-03    -54.4210E-03     83.3842E-03    -56.0956E-03     110.058E-03    -54.2690E-03     82.8325E-03
             663     9.37704E-03     82.0460E-03    -21.0009E+06    -105.536E+06    -10.5751E+06    -998.261E+03    -56.2649E-03     110.655E-03    -54.3904E-03     91.4713E-03    -56.4792E-03     110.451E-03    -54.2598E-03     90.8195E-03
             664     10.2298E-03     82.1417E-03    -20.4484E+06    -88.5594E+06    -13.9208E+06     199.470E+03    -56.5100E-03     110.849E-03    -54.3388E-03     99.3836E-03    -56.8502E-03     110.842E-03    -54.2503E-03     98.6130E-03
             665     11.0824E-03     82.2445E-03    -21.6367E+06    -67.5458E+06    -17.7119E+06    -606.279E+03    -56.7448E-03     111.023E-03    -54.2781E-03     108.360E-03    -57.2751E-03     111.288E-03    -54.2374E-03     107.418E-03
             666     11.9349E-03     82.3580E-03    -21.2369E+06    -36.3916E+06    -23.5952E+06    -1.14667E+06    -57.1483E-03     111.333E-03    -54.1848E-03     121.128E-03    -57.9744E-03     112.023E-03    -54.2192E-03     119.976E-03
             667     12.7876E-03     82.4861E-03    -20.6552E+06     17.1311E+06    -22.7408E+06     1.12441E+06    -57.7715E-03     111.855E-03    -54.0832E-03     140.954E-03    -59.1842E-03     113.321E-03    -54.1918E-03     139.543E-03
             668     13.6412E-03     82.6394E-03    -19.7589E+06     70.6305E+06    -3.53933E+06     3.47406E+06    -60.6984E-03     114.759E-03    -54.0605E-03     189.283E-03    -63.6638E-03     117.915E-03    -54.1519E-03     187.420E-03
             669     14.4921E-03     82.8645E-03    -16.1143E+06     110.607E+06     40.5548E+06     3.25116E+06    -69.4953E-03     123.665E-03    -54.1699E-03     291.176E-03    -78.1891E-03     132.577E-03    -54.1041E-03     288.416E-03
             670     15.3511E-03     83.2317E-03    -12.1417E+06     147.582E+06     88.1802E+06     1.72770E+06    -78.5880E-03     132.910E-03    -54.3219E-03     400.205E-03    -100.798E-03     155.345E-03    -54.0774E-03     399.318E-03
             671     16.1946E-03     83.6939E-03    -6.02888E+06     161.232E+06     106.688E+06     425.250E+03    -67.1688E-03     121.542E-03    -54.3733E-03     304.259E-03    -86.8229E-03     141.438E-03    -54.0649E-03     309.945E-03
             672     852.292E-06     82.5924E-03    -46.1450E+06    -161.134E+06    -45.6614E+06     17.0154E+03    -54.4692E-03     108.952E-03    -54.4832E-03     9.46102E-03    -54.4012E-03     108.282E-03    -54.4110E-03     9.42958E-03
             673     1.70475E-03     82.6057E-03    -45.0100E+06    -158.327E+06    -42.1891E+06     75.0749E+03    -54.4777E-03     108.940E-03    -54.4624E-03     17.5121E-03    -54.4162E-03     108.279E-03    -54.3785E-03     17.4534E-03
             674     2.55711E-03     82.6276E-03    -43.2967E+06    -150.926E+06    -37.8230E+06    -178.029E+03    -54.5449E-03     108.994E-03    -54.4493E-03     25.9798E-03    -54.4970E-03     108.367E-03    -54.3568E-03     25.8859E-03
             675     3.40959E-03     82.6579E-03    -40.8445E+06    -145.630E+06    -31.5349E+06    -755.082E+03    -54.6560E-03     109.110E-03    -54.4539E-03     34.4872E-03    -54.6208E-03     108.504E-03    -54.3412E-03     34.3493E-03
             676     4.26203E-03     82.6968E-03    -37.9802E+06    -138.341E+06    -25.1462E+06    -1.63461E+06    -54.7973E-03     109.255E-03    -54.4577E-03     42.9862E-03    -54.7792E-03     108.684E-03    -54.3278E-03     42.7950E-03
             677     5.11454E-03     82.7442E-03    -34.8751E+06    -130.735E+06    -19.9200E+06    -2.03259E+06    -54.9621E-03     109.417E-03    -54.4546E-03     51.3504E-03    -54.9634E-03     108.888E-03    -54.3141E-03     51.1052E-03
             678     5.96702E-03     82.7998E-03    -31.6558E+06    -118.731E+06    -14.4483E+06    -1.13658E+06    -55.1598E-03     109.606E-03    -54.4458E-03     59.6489E-03    -55.1928E-03     109.147E-03    -54.3000E-03     59.3579E-03
             679     6.81955E-03     82.8638E-03    -29.2924E+06    -112.769E+06    -8.24700E+06    -1.66426E+06    -55.4113E-03     109.864E-03    -54.4529E-03     67.6990E-03    -55.4812E-03     109.454E-03    -54.2881E-03     67.3319E-03
             680     7.67197E-03     82.9354E-03    -27.6789E+06    -116.659E+06    -8.90976E+06    -3.31165E+06    -55.6637E-03     110.106E-03    -54.4425E-03     75.5766E-03    -55.7610E-03     109.717E-03    -54.2777E-03     75.1062E-03
             681     8.52480E-03     83.0152E-03    -26.1167E+06    -113.038E+06    -11.5634E+06    -3.45560E+06    -55.9108E-03     110.320E-03    -54.4095E-03     83.4632E-03    -56.0592E-03     110.008E-03    -54.2656E-03     82.8946E-03
             682     9.37732E-03     83.1025E-03    -23.7380E+06    -106.917E+06    -11.1510E+06    -3.22705E+06    -56.1880E-03     110.574E-03    -54.3859E-03     91.4179E-03    -56.4130E-03     110.367E-03    -54.2522E-03     90.7377E-03
             683     10.2298E-03     83.1982E-03    -19.6274E+06    -90.9381E+06    -13.3252E+06    -1.49922E+06    -56.4530E-03     110.785E-03    -54.3321E-03     99.2554E-03    -56.7863E-03     110.765E-03    -54.2384E-03     98.4630E-03
             684     11.0824E-03     83.3011E-03    -16.4365E+06    -66.3658E+06    -13.5540E+06     247.659E+03    -56.6955E-03     110.970E-03    -54.2746E-03     108.062E-03    -57.2072E-03     111.227E-03    -54.2223E-03     107.130E-03
             685     11.9354E-03     83.4142E-03    -17.7552E+06    -36.5912E+06    -19.9190E+06     302.048E+03    -57.0817E-03     111.262E-03    -54.1804E-03     120.847E-03    -57.8947E-03     111.940E-03    -54.2012E-03     119.713E-03
             686     12.7883E-03     83.5427E-03    -19.3124E+06     14.1658E+06    -23.3927E+06     915.438E+03    -57.7232E-03     111.786E-03    -54.0628E-03     140.403E-03    -59.1204E-03     113.233E-03    -54.1723E-03     138.991E-03
             687     13.6412E-03     83.6947E-03    -17.6517E+06     69.2630E+06    -5.28764E+06     2.17827E+06    -60.6182E-03     114.648E-03    -54.0300E-03     188.791E-03    -63.5616E-03     117.790E-03    -54.1313E-03     186.914E-03
             688     14.4967E-03     83.9227E-03    -15.7293E+06     110.094E+06     39.4415E+06     3.03394E+06    -69.5128E-03     123.658E-03    -54.1453E-03     290.845E-03    -78.1926E-03     132.559E-03    -54.0849E-03     288.081E-03
             689     15.3448E-03     84.2843E-03    -11.4290E+06     150.529E+06     91.1361E+06     3.08170E+06    -78.0968E-03     132.382E-03    -54.2847E-03     403.129E-03    -100.427E-03     154.941E-03    -54.0307E-03     402.408E-03
             690     16.2021E-03     84.7619E-03    -5.89457E+06     164.406E+06     108.155E+06     834.231E+03    -67.7895E-03     122.089E-03    -54.2992E-03     307.371E-03    -87.5789E-03     142.128E-03    -53.9882E-03     313.158E-03
             691     852.364E-06     83.6491E-03    -46.7992E+06    -161.187E+06    -45.8772E+06    -62.4208E+03    -54.4452E-03     108.917E-03    -54.4722E-03     9.44667E-03    -54.3801E-03     108.248E-03    -54.4000E-03     9.41416E-03
             692     1.70472E-03     83.6624E-03    -45.7564E+06    -158.320E+06    -43.3318E+06    -69.3438E+03    -54.4939E-03     108.942E-03    -54.4486E-03     17.5083E-03    -54.4344E-03     108.284E-03    -54.3694E-03     17.4477E-03
             693     2.55719E-03     83.6842E-03    -44.1289E+06    -150.153E+06    -39.5803E+06    -483.410E+03    -54.5420E-03     108.981E-03    -54.4386E-03     25.9839E-03    -54.4969E-03     108.361E-03    -54.3548E-03     25.8861E-03
             694     3.40960E-03     83.7145E-03    -42.0139E+06    -144.203E+06    -33.7392E+06    -1.36571E+06    -54.6532E-03     109.094E-03    -54.4412E-03     34.5002E-03    -54.6226E-03     108.501E-03    -54.3399E-03     34.3546E-03
             695     4.26205E-03     83.7534E-03    -39.3609E+06    -136.909E+06    -27.0664E+06    -2.17662E+06    -54.7885E-03     109.235E-03    -54.4470E-03     42.9906E-03    -54.7767E-03     108.676E-03    -54.3267E-03     42.7923E-03
             696     5.11451E-03     83.8007E-03    -36.3603E+06    -129.790E+06    -20.9333E+06    -2.94433E+06    -54.9554E-03     109.405E-03    -54.4493E-03     51.3425E-03    -54.9641E-03     108.884E-03    -54.3131E-03     51.0853E-03
             697     5.96706E-03     83.8564E-03    -32.6819E+06    -120.153E+06    -16.4727E+06    -2.81903E+06    -55.1477E-03     109.585E-03    -54.4378E-03     59.6476E-03    -55.1809E-03     109.124E-03    -54.2985E-03     59.3349E-03
             698     6.81960E-03     83.9204E-03    -28.9171E+06    -111.755E+06    -9.29204E+06    -1.57331E+06    -55.3891E-03     109.831E-03    -54.4421E-03     67.7185E-03    -55.4570E-03     109.427E-03    -54.2846E-03     67.3530E-03
             699     7.67218E-03     83.9921E-03    -26.5172E+06    -113.932E+06    -5.51431E+06    -2.42973E+06    -55.6792E-03     110.130E-03    -54.4505E-03     75.4450E-03    -55.7800E-03     109.748E-03    -54.2744E-03     74.9846E-03
             700     8.52451E-03     84.0714E-03    -24.4862E+06    -112.892E+06    -10.1774E+06    -3.91899E+06    -55.9084E-03     110.321E-03    -54.4121E-03     83.3230E-03    -56.0511E-03     110.005E-03    -54.2638E-03     82.7475E-03
             701     9.37713E-03     84.1592E-03    -23.1452E+06    -106.484E+06    -13.3421E+06    -4.01472E+06    -56.1352E-03     110.505E-03    -54.3693E-03     91.3875E-03    -56.3544E-03     110.302E-03    -54.2481E-03     90.6984E-03
             702     10.2299E-03     84.2543E-03    -23.1945E+06    -92.7275E+06    -19.9337E+06    -4.38127E+06    -56.4252E-03     110.725E-03    -54.2995E-03     99.3787E-03    -56.7634E-03     110.709E-03    -54.2311E-03     98.5512E-03
             703     11.0826E-03     84.3578E-03    -22.9958E+06    -70.1384E+06    -21.3905E+06    -1.75625E+06    -56.7033E-03     110.947E-03    -54.2435E-03     108.021E-03    -57.2309E-03     111.206E-03    -54.2154E-03     107.064E-03
             704     11.9351E-03     84.4702E-03    -21.9104E+06    -36.5731E+06    -22.3960E+06     1.07665E+06    -57.0547E-03     111.224E-03    -54.1690E-03     120.567E-03    -57.8845E-03     111.911E-03    -54.1962E-03     119.444E-03
             705     12.7880E-03     84.5991E-03    -20.9796E+06     14.7511E+06    -27.8745E+06    -179.094E+03    -57.7170E-03     111.755E-03    -54.0379E-03     140.207E-03    -59.1150E-03     113.212E-03    -54.1682E-03     138.782E-03
             706     13.6410E-03     84.7509E-03    -20.2430E+06     66.5599E+06    -12.5886E+06    -459.493E+03    -60.8966E-03     114.905E-03    -54.0081E-03     188.360E-03    -63.8556E-03     118.065E-03    -54.1382E-03     186.426E-03
             707     14.4928E-03     84.9767E-03    -17.0008E+06     108.516E+06     34.5045E+06     1.74947E+06    -69.2745E-03     123.412E-03    -54.1377E-03     290.203E-03    -77.9371E-03     132.300E-03    -54.0979E-03     287.459E-03
             708     15.3500E-03     85.3447E-03    -10.8802E+06     150.553E+06     89.5406E+06     2.27521E+06    -76.5262E-03     130.785E-03    -54.2585E-03     400.227E-03    -98.6685E-03     153.163E-03    -54.0133E-03     399.653E-03
             709     16.2086E-03     85.8091E-03    -5.36647E+06     165.876E+06     109.359E+06     1.46589E+06    -67.6735E-03     121.943E-03    -54.2699E-03     306.443E-03    -87.4049E-03     141.928E-03    -53.9558E-03     312.231E-03
             710     852.444E-06     84.7057E-03    -46.6360E+06    -161.088E+06    -46.3092E+06    -165.308E+03    -54.4812E-03     108.867E-03    -54.3860E-03     9.51156E-03    -54.4148E-03     108.198E-03    -54.3164E-03     9.47759E-03
             711     1.70478E-03     84.7190E-03    -45.6545E+06    -157.937E+06    -43.7861E+06    -330.585E+03    -54.5104E-03     108.940E-03    -54.4293E-03     17.4727E-03    -54.4503E-03     108.284E-03    -54.3530E-03     17.4088E-03
             712     2.55713E-03     84.7407E-03    -44.2620E+06    -149.065E+06    -40.3857E+06    -857.833E+03    -54.5587E-03     108.987E-03    -54.4287E-03     25.9813E-03    -54.5147E-03     108.374E-03    -54.3503E-03     25.8785E-03
             713     3.40960E-03     84.7711E-03    -42.3556E+06    -142.411E+06    -34.5037E+06    -1.76872E+06    -54.6548E-03     109.090E-03    -54.4352E-03     34.4850E-03    -54.6275E-03     108.507E-03    -54.3398E-03     34.3340E-03
             714     4.26204E-03     84.8099E-03    -39.8686E+06    -135.526E+06    -27.7983E+06    -2.67348E+06    -54.7849E-03     109.228E-03    -54.4426E-03     42.9633E-03    -54.7766E-03     108.677E-03    -54.3273E-03     42.7585E-03
             715     5.11457E-03     84.8573E-03    -37.0815E+06    -128.096E+06    -21.3954E+06    -3.43894E+06    -54.9610E-03     109.408E-03    -54.4471E-03     51.3281E-03    -54.9752E-03     108.898E-03    -54.3145E-03     51.0641E-03
             716     5.96698E-03     84.9129E-03    -34.2954E+06    -119.720E+06    -16.9561E+06    -4.29730E+06    -55.1466E-03     109.586E-03    -54.4398E-03     59.5946E-03    -55.1879E-03     109.130E-03    -54.3013E-03     59.2622E-03
             717     6.81958E-03     84.9768E-03    -30.6745E+06    -113.792E+06    -12.5195E+06    -3.58419E+06    -55.3595E-03     109.792E-03    -54.4329E-03     67.7276E-03    -55.4283E-03     109.385E-03    -54.2860E-03     67.3366E-03
             718     7.67205E-03     85.0488E-03    -26.5439E+06    -111.118E+06    -7.64019E+06    -2.93151E+06    -55.6426E-03     110.076E-03    -54.4334E-03     75.5022E-03    -55.7443E-03     109.711E-03    -54.2720E-03     75.0363E-03
             719     8.52464E-03     85.1281E-03    -23.7328E+06    -110.797E+06    -9.44633E+06    -4.83575E+06    -55.8841E-03     110.290E-03    -54.4064E-03     83.3089E-03    -56.0271E-03     109.983E-03    -54.2585E-03     82.7217E-03
             720     9.37741E-03     85.2153E-03    -21.3229E+06    -107.417E+06    -13.3743E+06    -4.82699E+06    -56.1242E-03     110.485E-03    -54.3610E-03     91.4373E-03    -56.3326E-03     110.275E-03    -54.2412E-03     90.7385E-03
             721     10.2301E-03     85.3110E-03    -20.9105E+06    -93.5331E+06    -16.7008E+06    -2.21511E+06    -56.4202E-03     110.726E-03    -54.3057E-03     99.3309E-03    -56.7504E-03     110.698E-03    -54.2232E-03     98.5315E-03
             722     11.0826E-03     85.4140E-03    -22.5185E+06    -73.2444E+06    -22.1703E+06    -1.16589E+06    -56.7416E-03     110.978E-03    -54.2369E-03     108.019E-03    -57.2615E-03     111.223E-03    -54.2089E-03     107.069E-03
             723     11.9354E-03     85.5269E-03    -22.1432E+06    -37.1511E+06    -25.5384E+06    -1.23697E+06    -57.1359E-03     111.288E-03    -54.1523E-03     120.489E-03    -57.9608E-03     111.977E-03    -54.1941E-03     119.335E-03
             724     12.7883E-03     85.6549E-03    -21.6363E+06     15.5701E+06    -29.3389E+06    -677.199E+03    -57.9278E-03     111.967E-03    -54.0389E-03     139.922E-03    -59.3294E-03     113.432E-03    -54.1768E-03     138.484E-03
             725     13.6415E-03     85.8072E-03    -21.9258E+06     65.3948E+06    -14.6376E+06    -702.364E+03    -61.0426E-03     115.064E-03    -54.0218E-03     188.454E-03    -64.0076E-03     118.226E-03    -54.1580E-03     186.518E-03
             726     14.4939E-03     86.0356E-03    -19.7518E+06     106.795E+06     33.5471E+06    -1.50439E+06    -69.4283E-03     123.601E-03    -54.1723E-03     289.162E-03    -78.0746E-03     132.459E-03    -54.1307E-03     286.375E-03
             727     15.3469E-03     86.3927E-03    -14.2872E+06     148.867E+06     86.7708E+06    -681.392E+03    -77.7567E-03     132.094E-03    -54.3371E-03     397.933E-03    -99.8219E-03     154.385E-03    -54.0984E-03     397.145E-03
             728     16.1926E-03     86.8659E-03    -6.60717E+06     165.389E+06     108.047E+06     316.697E+03    -66.7274E-03     121.093E-03    -54.3652E-03     309.358E-03    -86.5903E-03     141.206E-03    -54.0552E-03     315.286E-03
             729     852.363E-06     85.7624E-03    -48.0851E+06    -160.457E+06    -47.4134E+06    -702.245E+03    -54.4694E-03     108.861E-03    -54.3918E-03     9.43412E-03    -54.4095E-03     108.199E-03    -54.3265E-03     9.39319E-03
             730     1.70479E-03     85.7756E-03    -46.7631E+06    -157.166E+06    -44.9944E+06    -817.629E+03    -54.4887E-03     108.911E-03    -54.4225E-03     17.4504E-03    -54.4335E-03     108.263E-03    -54.3518E-03     17.3801E-03
             731     2.55721E-03     85.7974E-03    -45.1880E+06    -147.769E+06    -41.2794E+06    -1.40076E+06    -54.5659E-03     108.987E-03    -54.4211E-03     25.9755E-03    -54.5271E-03     108.383E-03    -54.3477E-03     25.8656E-03
             732     3.40957E-03     85.8277E-03    -43.1079E+06    -140.664E+06    -35.1937E+06    -2.14854E+06    -54.6604E-03     109.092E-03    -54.4315E-03     34.4793E-03    -54.6384E-03     108.520E-03    -54.3410E-03     34.3232E-03
             733     4.26205E-03     85.8666E-03    -40.4522E+06    -133.540E+06    -28.2508E+06    -3.24800E+06    -54.7969E-03     109.239E-03    -54.4422E-03     42.9585E-03    -54.7937E-03     108.700E-03    -54.3311E-03     42.7461E-03
             734     5.11446E-03     85.9139E-03    -37.3274E+06    -126.634E+06    -22.1180E+06    -4.06013E+06    -54.9589E-03     109.405E-03    -54.4465E-03     51.3118E-03    -54.9753E-03     108.904E-03    -54.3194E-03     51.0398E-03
             735     5.96702E-03     85.9695E-03    -34.3313E+06    -118.002E+06    -16.9503E+06    -4.58356E+06    -55.1334E-03     109.574E-03    -54.4410E-03     59.5783E-03    -55.1774E-03     109.127E-03    -54.3049E-03     59.2423E-03
             736     6.81948E-03     86.0334E-03    -31.4909E+06    -113.969E+06    -13.6024E+06    -5.45292E+06    -55.3254E-03     109.755E-03    -54.4295E-03     67.7604E-03    -55.3964E-03     109.349E-03    -54.2866E-03     67.3459E-03
             737     7.67221E-03     86.1053E-03    -27.7549E+06    -110.429E+06    -11.2916E+06    -5.80123E+06    -55.5521E-03     109.962E-03    -54.4096E-03     75.6121E-03    -55.6550E-03     109.607E-03    -54.2657E-03     75.1114E-03
             738     8.52484E-03     86.1847E-03    -24.1166E+06    -108.065E+06    -9.23151E+06    -5.90559E+06    -55.8549E-03     110.248E-03    -54.3927E-03     83.2262E-03    -56.0041E-03     109.954E-03    -54.2472E-03     82.6251E-03
             739     9.37731E-03     86.2716E-03    -23.0314E+06    -109.526E+06    -13.9127E+06    -5.52633E+06    -56.1603E-03     110.515E-03    -54.3546E-03     91.3499E-03    -56.3735E-03     110.298E-03    -54.2319E-03     90.6411E-03
             740     10.2299E-03     86.3675E-03    -21.3677E+06    -96.7048E+06    -19.2013E+06    -3.08194E+06    -56.4215E-03     110.713E-03    -54.2916E-03     99.4084E-03    -56.7453E-03     110.673E-03    -54.2164E-03     98.5990E-03
             741     11.0828E-03     86.4704E-03    -17.7984E+06    -72.6914E+06    -20.9802E+06    -1.88374E+06    -56.7709E-03     111.000E-03    -54.2287E-03     108.091E-03    -57.2694E-03     111.238E-03    -54.2023E-03     107.132E-03
             742     11.9353E-03     86.5835E-03    -16.5854E+06    -37.9261E+06    -23.6189E+06    -1.55976E+06    -57.3131E-03     111.468E-03    -54.1546E-03     120.388E-03    -58.1125E-03     112.142E-03    -54.1936E-03     119.226E-03
             743     12.7878E-03     86.7111E-03    -17.2875E+06     13.9349E+06    -24.8052E+06     267.603E+03    -58.2394E-03     112.311E-03    -54.0717E-03     140.149E-03    -59.6310E-03     113.763E-03    -54.1908E-03     138.711E-03
             744     13.6393E-03     86.8646E-03    -17.5786E+06     66.7444E+06    -8.15378E+06     567.901E+03    -61.2113E-03     115.286E-03    -54.0751E-03     187.875E-03    -64.1554E-03     118.429E-03    -54.1872E-03     185.951E-03
             745     14.4944E-03     87.0887E-03    -15.7186E+06     107.918E+06     43.2986E+06    -265.197E+03    -69.9420E-03     124.204E-03    -54.2620E-03     288.575E-03    -78.5343E-03     132.998E-03    -54.1792E-03     285.760E-03
             746     15.3440E-03     87.4559E-03    -10.4833E+06     147.507E+06     94.0793E+06    -278.632E+03    -78.0648E-03     132.496E-03    -54.4307E-03     399.061E-03    -100.133E-03     154.777E-03    -54.1590E-03     398.258E-03
             747     16.2058E-03     87.9204E-03    -4.43028E+06     164.958E+06     108.152E+06     470.948E+03    -66.0716E-03     120.473E-03    -54.4015E-03     309.835E-03    -85.9806E-03     140.638E-03    -54.0935E-03     315.903E-03
             748     852.345E-06     86.8188E-03    -48.6410E+06    -158.949E+06    -47.7005E+06    -708.512E+03    -54.4370E-03     108.880E-03    -54.4430E-03     9.44091E-03    -54.3816E-03     108.227E-03    -54.3805E-03     9.40005E-03
             749     1.70477E-03     86.8323E-03    -47.5832E+06    -156.273E+06    -44.9842E+06    -1.19659E+06    -54.4864E-03     108.920E-03    -54.4335E-03     17.4698E-03    -54.4367E-03     108.277E-03    -54.3628E-03     17.3945E-03
             750     2.55713E-03     86.8540E-03    -46.0253E+06    -145.988E+06    -41.5344E+06    -1.84209E+06    -54.5520E-03     108.977E-03    -54.4253E-03     25.9437E-03    -54.5196E-03     108.384E-03    -54.3545E-03     25.8281E-03
             751     3.40962E-03     86.8844E-03    -43.7443E+06    -138.760E+06    -35.9572E+06    -2.98782E+06    -54.6644E-03     109.095E-03    -54.4309E-03     34.4616E-03    -54.6472E-03     108.534E-03    -54.3460E-03     34.2947E-03
             752     4.26198E-03     86.9232E-03    -41.0683E+06    -131.501E+06    -29.5157E+06    -3.74080E+06    -54.7907E-03     109.229E-03    -54.4387E-03     42.9494E-03    -54.7917E-03     108.703E-03    -54.3360E-03     42.7309E-03
             753     5.11449E-03     86.9706E-03    -38.3823E+06    -124.711E+06    -23.1571E+06    -4.78186E+06    -54.9246E-03     109.366E-03    -54.4418E-03     51.3335E-03    -54.9475E-03     108.878E-03    -54.3211E-03     51.0527E-03
             754     5.96695E-03     87.0260E-03    -34.7923E+06    -116.159E+06    -18.1098E+06    -5.91290E+06    -55.0894E-03     109.519E-03    -54.4297E-03     59.6327E-03    -55.1365E-03     109.083E-03    -54.3014E-03     59.2803E-03
             755     6.81964E-03     87.0899E-03    -31.0253E+06    -112.104E+06    -13.9666E+06    -6.61006E+06    -55.2863E-03     109.702E-03    -54.4161E-03     67.7612E-03    -55.3571E-03     109.306E-03    -54.2784E-03     67.3321E-03
             756     7.67217E-03     87.1616E-03    -28.7958E+06    -109.483E+06    -13.6835E+06    -7.21846E+06    -55.5103E-03     109.896E-03    -54.3861E-03     75.6558E-03    -55.6160E-03     109.551E-03    -54.2540E-03     75.1380E-03
             757     8.52488E-03     87.2412E-03    -27.5041E+06    -107.649E+06    -14.0507E+06    -7.02535E+06    -55.8298E-03     110.189E-03    -54.3592E-03     83.3834E-03    -55.9890E-03     109.909E-03    -54.2335E-03     82.7697E-03
             758     9.37750E-03     87.3282E-03    -25.3443E+06    -110.071E+06    -15.4709E+06    -6.19859E+06    -56.1686E-03     110.507E-03    -54.3383E-03     91.3328E-03    -56.3904E-03     110.293E-03    -54.2193E-03     90.6152E-03
             759     10.2303E-03     87.4235E-03    -22.7874E+06    -97.9355E+06    -23.6850E+06    -6.78695E+06    -56.4317E-03     110.694E-03    -54.2624E-03     99.5150E-03    -56.7539E-03     110.656E-03    -54.2058E-03     98.6587E-03
             760     11.0828E-03     87.5271E-03    -20.2310E+06    -73.1308E+06    -25.9527E+06    -6.61930E+06    -56.7942E-03     110.993E-03    -54.1989E-03     108.364E-03    -57.2958E-03     111.238E-03    -54.1933E-03     107.346E-03
             761     11.9354E-03     87.6399E-03    -17.1925E+06    -41.5946E+06    -26.1397E+06    -3.58944E+06    -57.3861E-03     111.528E-03    -54.1417E-03     120.818E-03    -58.1809E-03     112.190E-03    -54.1871E-03     119.630E-03
             762     12.7877E-03     87.7685E-03    -15.7516E+06     10.8745E+06    -26.4922E+06    -1.88290E+03    -58.1607E-03     112.217E-03    -54.0562E-03     140.787E-03    -59.5378E-03     113.653E-03    -54.1816E-03     139.351E-03
             763     13.6416E-03     87.9210E-03    -15.1339E+06     67.8064E+06    -5.46546E+06     1.46711E+06    -61.5323E-03     115.606E-03    -54.0740E-03     189.578E-03    -64.4866E-03     118.763E-03    -54.1777E-03     187.648E-03
             764     14.4900E-03     88.1476E-03    -12.9235E+06     108.550E+06     45.1934E+06     986.122E+03    -70.0650E-03     124.323E-03    -54.2575E-03     290.561E-03    -78.6831E-03     133.149E-03    -54.1702E-03     287.755E-03
             765     15.3479E-03     88.5082E-03    -9.77832E+06     147.470E+06     93.8466E+06     948.341E+03    -77.7873E-03     132.192E-03    -54.4050E-03     399.977E-03    -99.9167E-03     154.538E-03    -54.1354E-03     399.225E-03
             766     16.1928E-03     88.9758E-03    -5.39624E+06     165.261E+06     108.078E+06     906.216E+03    -66.3083E-03     120.684E-03    -54.3753E-03     308.626E-03    -86.1789E-03     140.808E-03    -54.0667E-03     314.644E-03
             767     852.428E-06     87.8756E-03    -47.9418E+06    -157.596E+06    -46.5332E+06    -308.732E+03    -54.4914E-03     108.892E-03    -54.4006E-03     9.43438E-03    -54.4362E-03     108.243E-03    -54.3353E-03     9.39880E-03
             768     1.70470E-03     87.8889E-03    -46.6002E+06    -154.774E+06    -43.0307E+06    -1.17009E+06    -54.5105E-03     108.959E-03    -54.4481E-03     17.4872E-03    -54.4609E-03     108.319E-03    -54.3713E-03     17.4120E-03
             769     2.55716E-03     87.9107E-03    -44.7588E+06    -143.856E+06    -40.5011E+06    -2.24786E+06    -54.5627E-03     109.000E-03    -54.4374E-03     25.9475E-03    -54.5285E-03     108.414E-03    -54.3664E-03     25.8266E-03
             770     3.40950E-03     87.9410E-03    -43.0236E+06    -136.260E+06    -35.7912E+06    -3.41090E+06    -54.6450E-03     109.080E-03    -54.4351E-03     34.4681E-03    -54.6281E-03     108.530E-03    -54.3540E-03     34.2960E-03
             771     4.26198E-03     87.9798E-03    -40.7432E+06    -129.975E+06    -29.7239E+06    -4.29332E+06    -54.7422E-03     109.177E-03    -54.4347E-03     42.9552E-03    -54.7433E-03     108.658E-03    -54.3358E-03     42.7301E-03
             772     5.11450E-03     88.0271E-03    -37.8555E+06    -121.820E+06    -23.7892E+06    -5.23493E+06    -54.8729E-03     109.298E-03    -54.4251E-03     51.3661E-03    -54.8964E-03     108.824E-03    -54.3125E-03     51.0802E-03
             773     5.96713E-03     88.0826E-03    -35.1936E+06    -113.173E+06    -18.9644E+06    -7.21691E+06    -55.0522E-03     109.460E-03    -54.4081E-03     59.6690E-03    -55.1043E-03     109.041E-03    -54.2878E-03     59.3002E-03
             774     6.81967E-03     88.1463E-03    -31.8193E+06    -110.279E+06    -14.7306E+06    -8.68275E+06    -55.2666E-03     109.663E-03    -54.3960E-03     67.7503E-03    -55.3429E-03     109.277E-03    -54.2636E-03     67.2945E-03
             775     7.67243E-03     88.2180E-03    -27.9084E+06    -109.357E+06    -12.6501E+06    -8.00784E+06    -55.5195E-03     109.896E-03    -54.3764E-03     75.6007E-03    -55.6224E-03     109.548E-03    -54.2406E-03     75.0724E-03
             776     8.52512E-03     88.2974E-03    -25.3111E+06    -107.376E+06    -12.5874E+06    -7.07312E+06    -55.8266E-03     110.177E-03    -54.3509E-03     83.3573E-03    -55.9772E-03     109.893E-03    -54.2214E-03     82.7434E-03
             777     9.37771E-03     88.3848E-03    -23.0344E+06    -108.286E+06    -13.0740E+06    -8.35098E+06    -56.1799E-03     110.513E-03    -54.3335E-03     91.2056E-03    -56.3964E-03     110.302E-03    -54.2084E-03     90.4591E-03
             778     10.2301E-03     88.4798E-03    -19.7128E+06    -95.7190E+06    -20.9682E+06    -10.2338E+06    -56.4640E-03     110.724E-03    -54.2604E-03     99.3646E-03    -56.7784E-03     110.690E-03    -54.1979E-03     98.4618E-03
             779     11.0831E-03     88.5834E-03    -17.0804E+06    -75.4706E+06    -25.7565E+06    -9.66562E+06    -56.7448E-03     110.935E-03    -54.1901E-03     108.454E-03    -57.2268E-03     111.163E-03    -54.1847E-03     107.399E-03
             780     11.9356E-03     88.6967E-03    -16.5773E+06    -46.8928E+06    -26.7484E+06    -6.04801E+06    -57.2630E-03     111.393E-03    -54.1297E-03     121.003E-03    -58.0458E-03     112.028E-03    -54.1715E-03     119.785E-03
             781     12.7886E-03     88.8248E-03    -15.8055E+06     6.42071E+06    -26.0524E+06    -1.83259E+06    -57.9979E-03     112.038E-03    -54.0404E-03     140.610E-03    -59.3660E-03     113.449E-03    -54.1570E-03     139.152E-03
             782     13.6405E-03     88.9774E-03    -14.9046E+06     66.0012E+06    -5.99644E+06     1.37710E+06    -60.9005E-03     114.926E-03    -54.0250E-03     189.818E-03    -63.8365E-03     118.060E-03    -54.1291E-03     187.914E-03
             783     14.4977E-03     89.2062E-03    -14.3155E+06     108.648E+06     43.2735E+06     2.36627E+06    -69.4352E-03     123.600E-03    -54.1643E-03     290.948E-03    -78.0469E-03     132.420E-03    -54.0847E-03     288.201E-03
             784     15.3452E-03     89.5655E-03    -11.4142E+06     148.324E+06     94.0137E+06     1.88902E+06    -78.1002E-03     132.410E-03    -54.3102E-03     401.220E-03    -100.371E-03     154.894E-03    -54.0387E-03     400.421E-03
             785     16.2078E-03     90.0370E-03    -6.14276E+06     167.582E+06     109.374E+06     1.06521E+06    -67.5330E-03     121.852E-03    -54.3193E-03     307.963E-03    -87.4377E-03     142.013E-03    -54.0066E-03     313.753E-03
             786     852.309E-06     88.9322E-03    -48.2419E+06    -156.607E+06    -47.4459E+06    -285.730E+03    -54.5188E-03     108.904E-03    -54.3853E-03     9.43064E-03    -54.4652E-03     108.261E-03    -54.3255E-03     9.39551E-03
             787     1.70479E-03     88.9456E-03    -46.7921E+06    -152.608E+06    -44.5071E+06    -1.32824E+06    -54.5063E-03     108.951E-03    -54.4451E-03     17.4861E-03    -54.4586E-03     108.325E-03    -54.3786E-03     17.4093E-03
             788     2.55705E-03     88.9673E-03    -45.3727E+06    -141.340E+06    -41.5382E+06    -2.65945E+06    -54.5475E-03     108.980E-03    -54.4321E-03     25.9769E-03    -54.5185E-03     108.408E-03    -54.3691E-03     25.8509E-03
             789     3.40955E-03     88.9977E-03    -43.2839E+06    -133.701E+06    -36.2216E+06    -3.91054E+06    -54.6007E-03     109.026E-03    -54.4256E-03     34.4945E-03    -54.5881E-03     108.490E-03    -54.3500E-03     34.3162E-03
             790     4.26205E-03     89.0364E-03    -40.4094E+06    -127.477E+06    -30.0880E+06    -5.29777E+06    -54.6989E-03     109.116E-03    -54.4172E-03     42.9677E-03    -54.7014E-03     108.610E-03    -54.3242E-03     42.7298E-03
             791     5.11464E-03     89.0836E-03    -37.1865E+06    -119.646E+06    -24.3536E+06    -6.28493E+06    -54.8484E-03     109.251E-03    -54.4028E-03     51.3492E-03    -54.8708E-03     108.787E-03    -54.2971E-03     51.0499E-03
             792     5.96719E-03     89.1391E-03    -34.3185E+06    -109.250E+06    -18.1339E+06    -7.33003E+06    -55.0346E-03     109.424E-03    -54.3893E-03     59.6255E-03    -55.0891E-03     109.021E-03    -54.2718E-03     59.2553E-03
             793     6.81986E-03     89.2028E-03    -32.1469E+06    -106.878E+06    -13.7605E+06    -9.73914E+06    -55.2675E-03     109.650E-03    -54.3822E-03     67.6725E-03    -55.3518E-03     109.280E-03    -54.2494E-03     67.2026E-03
             794     7.67238E-03     89.2743E-03    -29.1612E+06    -109.853E+06    -14.2855E+06    -10.7321E+06    -55.5409E-03     109.901E-03    -54.3603E-03     75.5796E-03    -55.6472E-03     109.555E-03    -54.2302E-03     75.0154E-03
             795     8.52495E-03     89.3540E-03    -24.8528E+06    -107.690E+06    -14.2135E+06    -9.47261E+06    -55.8260E-03     110.160E-03    -54.3342E-03     83.4265E-03    -55.9713E-03     109.876E-03    -54.2131E-03     82.7820E-03
             796     9.37761E-03     89.4411E-03    -21.8122E+06    -104.332E+06    -13.3949E+06    -9.91657E+06    -56.1461E-03     110.461E-03    -54.3146E-03     91.3723E-03    -56.3615E-03     110.267E-03    -54.1987E-03     90.6069E-03
             797     10.2304E-03     89.5364E-03    -21.5722E+06    -92.7070E+06    -22.3785E+06    -12.2502E+06    -56.4501E-03     110.691E-03    -54.2406E-03     99.5001E-03    -56.7764E-03     110.676E-03    -54.1868E-03     98.5713E-03
             798     11.0827E-03     89.6395E-03    -22.6560E+06    -78.2870E+06    -29.3706E+06    -11.5011E+06    -56.6915E-03     110.864E-03    -54.1721E-03     108.576E-03    -57.1924E-03     111.091E-03    -54.1726E-03     107.497E-03
             799     11.9359E-03     89.7529E-03    -22.2834E+06    -51.4566E+06    -30.4090E+06    -8.24618E+06    -57.0772E-03     111.185E-03    -54.1073E-03     121.230E-03    -57.8749E-03     111.809E-03    -54.1525E-03     119.989E-03
             800     12.7882E-03     89.8815E-03    -21.5718E+06     1.39178E+06    -31.2539E+06    -4.64285E+06    -57.8067E-03     111.806E-03    -53.9996E-03     140.906E-03    -59.1886E-03     113.207E-03    -54.1266E-03     139.419E-03
             801     13.6422E-03     90.0335E-03    -20.7068E+06     61.2686E+06    -17.5752E+06    -597.943E+03    -60.6614E-03     114.603E-03    -53.9417E-03     189.593E-03    -63.6036E-03     117.740E-03    -54.0884E-03     187.674E-03
             802     14.4926E-03     90.2599E-03    -18.0745E+06     108.272E+06     28.8516E+06     1.64028E+06    -69.1052E-03     123.154E-03    -54.0490E-03     289.908E-03    -77.6828E-03     131.968E-03    -54.0355E-03     287.174E-03
             803     15.3531E-03     90.6235E-03    -13.5515E+06     149.308E+06     86.0624E+06     1.15848E+06    -78.0081E-03     132.237E-03    -54.2288E-03     399.118E-03    -100.158E-03     154.619E-03    -53.9953E-03     398.273E-03
             804     16.1959E-03     91.0907E-03    -6.42391E+06     167.697E+06     108.166E+06     267.413E+03    -67.1199E-03     121.397E-03    -54.2771E-03     306.123E-03    -86.8695E-03     141.406E-03    -53.9701E-03     311.810E-03
             805     852.402E-06     89.9890E-03    -47.8136E+06    -154.958E+06    -48.2764E+06    -1.25517E+06    -54.5243E-03     108.909E-03    -54.3849E-03     9.51272E-03    -54.4698E-03     108.275E-03    -54.3322E-03     9.46492E-03
             806     1.70464E-03     90.0022E-03    -46.9531E+06    -150.150E+06    -45.9580E+06    -2.01811E+06    -54.4827E-03     108.917E-03    -54.4348E-03     17.4874E-03    -54.4373E-03     108.306E-03    -54.3788E-03     17.4017E-03
             807     2.55720E-03     90.0241E-03    -45.0938E+06    -138.073E+06    -42.0955E+06    -3.59012E+06    -54.4917E-03     108.904E-03    -54.4122E-03     25.9902E-03    -54.4653E-03     108.349E-03    -54.3571E-03     25.8522E-03
             808     3.40961E-03     90.0542E-03    -42.7006E+06    -130.966E+06    -36.5872E+06    -5.06014E+06    -54.5738E-03     108.973E-03    -54.3993E-03     34.4847E-03    -54.5617E-03     108.451E-03    -54.3304E-03     34.2914E-03
             809     4.26215E-03     90.0929E-03    -40.2652E+06    -124.453E+06    -30.3858E+06    -6.12652E+06    -54.6975E-03     109.090E-03    -54.3928E-03     42.9457E-03    -54.7033E-03     108.600E-03    -54.3059E-03     42.6969E-03
             810     5.11466E-03     90.1400E-03    -37.6763E+06    -117.085E+06    -24.6409E+06    -7.47933E+06    -54.8456E-03     109.229E-03    -54.3837E-03     51.3044E-03    -54.8738E-03     108.780E-03    -54.2825E-03     50.9893E-03
             811     5.96728E-03     90.1955E-03    -34.2990E+06    -106.620E+06    -19.4773E+06    -8.46522E+06    -55.0153E-03     109.381E-03    -54.3655E-03     59.6181E-03    -55.0716E-03     108.993E-03    -54.2585E-03     59.2334E-03
             812     6.81986E-03     90.2593E-03    -30.9191E+06    -102.033E+06    -13.4211E+06    -9.85871E+06    -55.2483E-03     109.610E-03    -54.3613E-03     67.6969E-03    -55.3339E-03     109.262E-03    -54.2356E-03     67.2257E-03
             813     7.67253E-03     90.3308E-03    -28.6315E+06    -107.694E+06    -13.3691E+06    -12.1107E+06    -55.5128E-03     109.859E-03    -54.3462E-03     75.6369E-03    -55.6210E-03     109.522E-03    -54.2153E-03     75.0550E-03
             814     8.52527E-03     90.4103E-03    -26.6667E+06    -108.210E+06    -16.4037E+06    -12.6023E+06    -55.7740E-03     110.083E-03    -54.3093E-03     83.6055E-03    -55.9243E-03     109.802E-03    -54.1957E-03     82.9219E-03
             815     9.37796E-03     90.4975E-03    -23.7243E+06    -101.780E+06    -13.7742E+06    -12.2178E+06    -56.0783E-03     110.369E-03    -54.2906E-03     91.5860E-03    -56.3061E-03     110.191E-03    -54.1775E-03     90.7928E-03
             816     10.2306E-03     90.5928E-03    -21.5271E+06    -90.4817E+06    -17.3733E+06    -11.9827E+06    -56.3838E-03     110.622E-03    -54.2377E-03     99.5816E-03    -56.7208E-03     110.611E-03    -54.1622E-03     98.6566E-03
             817     11.0835E-03     90.6959E-03    -20.9274E+06    -79.8510E+06    -25.2588E+06    -11.1920E+06    -56.6460E-03     110.811E-03    -54.1654E-03     108.636E-03    -57.1428E-03     111.024E-03    -54.1456E-03     107.561E-03
             818     11.9359E-03     90.8090E-03    -21.1999E+06    -53.9939E+06    -31.1600E+06    -9.77504E+06    -56.9056E-03     110.978E-03    -54.0719E-03     121.404E-03    -57.6923E-03     111.588E-03    -54.1187E-03     120.149E-03
             819     12.7898E-03     90.9373E-03    -20.4994E+06    -4.08694E+06    -33.3763E+06    -6.26983E+06    -57.6385E-03     111.589E-03    -53.9506E-03     141.171E-03    -59.0020E-03     112.962E-03    -54.0818E-03     139.673E-03
             820     13.6420E-03     91.0898E-03    -19.6351E+06     56.2609E+06    -21.4862E+06    -1.75646E+06    -60.7831E-03     114.666E-03    -53.8832E-03     189.439E-03    -63.7076E-03     117.783E-03    -54.0437E-03     187.507E-03
             821     14.4980E-03     91.3168E-03    -17.9555E+06     107.905E+06     25.3633E+06     345.445E+03    -69.6068E-03     123.611E-03    -54.0038E-03     290.773E-03    -78.2422E-03     132.492E-03    -54.0074E-03     287.998E-03
             822     15.3434E-03     91.6777E-03    -11.9169E+06     150.375E+06     85.6428E+06     855.384E+03    -77.7527E-03     131.934E-03    -54.1817E-03     402.452E-03    -100.030E-03     154.455E-03    -53.9542E-03     401.751E-03
             823     16.2056E-03     92.1509E-03    -5.51734E+06     167.858E+06     107.595E+06     385.691E+03    -67.1449E-03     121.342E-03    -54.1967E-03     309.048E-03    -87.0094E-03     141.471E-03    -53.8942E-03     314.920E-03
             824     852.330E-06     91.0457E-03    -46.3145E+06    -151.673E+06    -45.7661E+06    -1.96719E+06    -54.4717E-03     108.878E-03    -54.4058E-03     9.55306E-03    -54.4181E-03     108.254E-03    -54.3476E-03     9.49573E-03
             825     1.70479E-03     91.0589E-03    -45.0143E+06    -147.051E+06    -44.7418E+06    -3.33974E+06    -54.4609E-03     108.875E-03    -54.4141E-03     17.4632E-03    -54.4120E-03     108.274E-03    -54.3593E-03     17.3602E-03
             826     2.55715E-03     91.0805E-03    -43.8368E+06    -134.348E+06    -42.7331E+06    -4.69848E+06    -54.4671E-03     108.847E-03    -54.3802E-03     25.9616E-03    -54.4389E-03     108.311E-03    -54.3355E-03     25.8092E-03
             827     3.40975E-03     91.1108E-03    -42.5372E+06    -127.954E+06    -36.9549E+06    -5.84812E+06    -54.5595E-03     108.931E-03    -54.3719E-03     34.4463E-03    -54.5505E-03     108.424E-03    -54.3095E-03     34.2427E-03
             828     4.26220E-03     91.1494E-03    -40.0876E+06    -121.339E+06    -30.2356E+06    -7.09239E+06    -54.6899E-03     109.061E-03    -54.3707E-03     42.9234E-03    -54.6996E-03     108.585E-03    -54.2878E-03     42.6619E-03
             829     5.11477E-03     91.1966E-03    -36.8018E+06    -113.490E+06    -24.1501E+06    -8.58665E+06    -54.8334E-03     109.197E-03    -54.3636E-03     51.3084E-03    -54.8631E-03     108.763E-03    -54.2664E-03     50.9790E-03
             830     5.96732E-03     91.2519E-03    -33.6413E+06    -103.953E+06    -19.3311E+06    -10.1035E+06    -54.9893E-03     109.334E-03    -54.3451E-03     59.6345E-03    -55.0463E-03     108.959E-03    -54.2423E-03     59.2290E-03
             831     6.82008E-03     91.3157E-03    -30.1174E+06    -98.4009E+06    -13.0210E+06    -11.3727E+06    -55.1932E-03     109.531E-03    -54.3377E-03     67.7648E-03    -55.2805E-03     109.200E-03    -54.2165E-03     67.2751E-03
             832     7.67270E-03     91.3872E-03    -26.8462E+06    -104.131E+06    -9.39972E+06    -12.4167E+06    -55.4564E-03     109.792E-03    -54.3353E-03     75.5900E-03    -55.5666E-03     109.464E-03    -54.1923E-03     75.0043E-03
             833     8.52539E-03     91.4664E-03    -24.6586E+06    -106.818E+06    -12.7295E+06    -13.3756E+06    -55.6912E-03     109.987E-03    -54.2953E-03     83.5842E-03    -55.8387E-03     109.704E-03    -54.1683E-03     82.8912E-03
             834     9.37814E-03     91.5539E-03    -23.4260E+06    -100.168E+06    -15.3315E+06    -13.9145E+06    -55.9599E-03     110.205E-03    -54.2454E-03     91.8145E-03    -56.1856E-03     110.037E-03    -54.1428E-03     91.0027E-03
             835     10.2309E-03     91.6491E-03    -21.9225E+06    -90.2812E+06    -18.7521E+06    -13.5302E+06    -56.2579E-03     110.446E-03    -54.1880E-03     99.8939E-03    -56.5945E-03     110.439E-03    -54.1190E-03     98.9528E-03
             836     11.0835E-03     91.7522E-03    -20.3133E+06    -80.1855E+06    -25.8427E+06    -12.4745E+06    -56.5262E-03     110.638E-03    -54.1115E-03     108.884E-03    -57.0183E-03     110.848E-03    -54.0950E-03     107.796E-03
             837     11.9370E-03     91.8649E-03    -18.9254E+06    -55.2156E+06    -32.8557E+06    -11.1406E+06    -56.9165E-03     110.926E-03    -54.0097E-03     121.422E-03    -57.6872E-03     111.529E-03    -54.0665E-03     120.151E-03
             838     12.7895E-03     91.9929E-03    -18.3844E+06    -10.1905E+06    -34.4027E+06    -7.99245E+06    -57.6703E-03     111.573E-03    -53.9026E-03     141.262E-03    -59.0142E-03     112.915E-03    -54.0331E-03     139.742E-03
             839     13.6434E-03     92.1462E-03    -17.8569E+06     50.7009E+06    -26.4586E+06    -2.80780E+06    -60.7543E-03     114.571E-03    -53.8164E-03     189.565E-03    -63.6509E-03     117.661E-03    -53.9963E-03     187.624E-03
             840     14.4939E-03     92.3714E-03    -15.3712E+06     107.279E+06     19.5078E+06     368.140E+03    -69.2911E-03     123.204E-03    -53.9126E-03     291.265E-03    -77.8922E-03     132.074E-03    -53.9483E-03     288.524E-03
             841     15.3554E-03     92.7382E-03    -11.3061E+06     149.303E+06     83.6564E+06    -382.832E+03    -77.4494E-03     131.558E-03    -54.1083E-03     400.152E-03    -99.5340E-03     153.890E-03    -53.8901E-03     399.409E-03
             842     16.2060E-03     93.2017E-03    -5.83166E+06     167.421E+06     107.541E+06    -411.082E+03    -67.2027E-03     121.361E-03    -54.1580E-03     306.209E-03    -86.9325E-03     141.353E-03    -53.8546E-03     312.004E-03
             843     852.435E-06     92.1024E-03    -46.3871E+06    -146.952E+06    -46.1420E+06    -1.96166E+06    -54.3961E-03     108.784E-03    -54.3879E-03     9.59378E-03    -54.3491E-03     108.185E-03    -54.3383E-03     9.53648E-03
             844     1.70477E-03     92.1154E-03    -46.0749E+06    -142.613E+06    -45.1516E+06    -4.28026E+06    -54.4257E-03     108.797E-03    -54.3710E-03     17.4417E-03    -54.3880E-03     108.220E-03    -54.3232E-03     17.3264E-03
             845     2.55732E-03     92.1371E-03    -44.8295E+06    -130.637E+06    -42.7554E+06    -5.72837E+06    -54.4669E-03     108.816E-03    -54.3494E-03     25.9522E-03    -54.4490E-03     108.300E-03    -54.3088E-03     25.7863E-03
             846     3.40971E-03     92.1672E-03    -42.0823E+06    -124.208E+06    -36.1509E+06    -7.31395E+06    -54.5523E-03     108.904E-03    -54.3512E-03     34.4544E-03    -54.5476E-03     108.413E-03    -54.2909E-03     34.2316E-03
             847     4.26229E-03     92.2060E-03    -38.4454E+06    -117.759E+06    -29.3178E+06    -8.87807E+06    -54.6557E-03     109.005E-03    -54.3495E-03     42.9092E-03    -54.6636E-03     108.544E-03    -54.2696E-03     42.6248E-03
             848     5.11487E-03     92.2529E-03    -35.3225E+06    -110.412E+06    -23.3183E+06    -9.75479E+06    -54.7893E-03     109.129E-03    -54.3392E-03     51.3157E-03    -54.8172E-03     108.707E-03    -54.2445E-03     50.9717E-03
             849     5.96752E-03     92.3084E-03    -32.6779E+06    -100.187E+06    -17.9029E+06    -10.8412E+06    -54.9413E-03     109.261E-03    -54.3201E-03     59.6501E-03    -55.0010E-03     108.901E-03    -54.2169E-03     59.2356E-03
             850     6.82013E-03     92.3719E-03    -30.4856E+06    -95.1518E+06    -13.0811E+06    -12.4357E+06    -55.1104E-03     109.414E-03    -54.3034E-03     67.8475E-03    -55.2038E-03     109.099E-03    -54.1866E-03     67.3454E-03
             851     7.67295E-03     92.4436E-03    -27.9249E+06    -101.164E+06    -10.7338E+06    -13.5885E+06    -55.3316E-03     109.620E-03    -54.2881E-03     75.7623E-03    -55.4490E-03     109.310E-03    -54.1546E-03     75.1641E-03
             852     8.52568E-03     92.5226E-03    -25.3394E+06    -104.157E+06    -13.5897E+06    -14.4561E+06    -55.5436E-03     109.784E-03    -54.2404E-03     83.7945E-03    -55.6965E-03     109.517E-03    -54.1206E-03     83.0908E-03
             853     9.37875E-03     92.6098E-03    -23.3203E+06    -98.5787E+06    -17.8803E+06    -14.7692E+06    -55.7912E-03     109.963E-03    -54.1713E-03     92.2074E-03    -56.0136E-03     109.804E-03    -54.0840E-03     91.3902E-03
             854     10.2317E-03     92.7053E-03    -22.4708E+06    -89.5424E+06    -21.1662E+06    -14.6619E+06    -56.0990E-03     110.205E-03    -54.1063E-03     100.212E-03    -56.4345E-03     110.205E-03    -54.0497E-03     99.2614E-03
             855     11.0850E-03     92.8080E-03    -21.3217E+06    -79.3426E+06    -26.7008E+06    -15.1282E+06    -56.4472E-03     110.481E-03    -54.0333E-03     109.061E-03    -56.9431E-03     110.696E-03    -54.0208E-03     107.943E-03
             856     11.9375E-03     92.9210E-03    -19.8571E+06    -57.3614E+06    -35.1039E+06    -14.0232E+06    -56.9962E-03     110.929E-03    -53.9331E-03     121.729E-03    -57.7646E-03     111.525E-03    -53.9966E-03     120.422E-03
             857     12.7907E-03     93.0490E-03    -19.8800E+06    -16.4355E+06    -37.8176E+06    -9.17945E+06    -57.8289E-03     111.667E-03    -53.8380E-03     141.499E-03    -59.1684E-03     112.987E-03    -53.9744E-03     139.961E-03
             858     13.6434E-03     93.2015E-03    -19.7906E+06     45.2524E+06    -30.6693E+06    -4.57198E+06    -60.6717E-03     114.424E-03    -53.7520E-03     189.692E-03    -63.5461E-03     117.477E-03    -53.9422E-03     187.740E-03
             859     14.4995E-03     93.4290E-03    -17.4039E+06     104.632E+06     14.0556E+06    -2.64799E+06    -69.6810E-03     123.533E-03    -53.8524E-03     290.611E-03    -78.2757E-03     132.397E-03    -53.9086E-03     287.773E-03
             860     15.3467E-03     93.7885E-03    -11.8652E+06     149.668E+06     81.2256E+06    -1.29178E+06    -78.4152E-03     132.517E-03    -54.1021E-03     399.557E-03    -100.516E-03     154.871E-03    -53.8958E-03     398.694E-03
             861     16.1972E-03     94.2609E-03    -6.09867E+06     167.053E+06     107.247E+06    -514.647E+03    -66.8341E-03     121.013E-03    -54.1786E-03     308.118E-03    -86.6618E-03     141.101E-03    -53.8757E-03     314.056E-03
             862     852.413E-06     93.1587E-03    -46.3291E+06    -141.010E+06    -46.2105E+06    -2.96547E+06    -54.3457E-03     108.700E-03    -54.3542E-03     9.54422E-03    -54.3071E-03     108.131E-03    -54.3136E-03     9.47345E-03
             863     1.70495E-03     93.1721E-03    -44.0127E+06    -136.746E+06    -42.2239E+06    -5.51461E+06    -54.4092E-03     108.754E-03    -54.3449E-03     17.4020E-03    -54.3740E-03     108.200E-03    -54.2939E-03     17.2705E-03
             864     2.55730E-03     93.1935E-03    -41.3632E+06    -126.404E+06    -39.3194E+06    -7.44121E+06    -54.4526E-03     108.784E-03    -54.3309E-03     25.9184E-03    -54.4285E-03     108.278E-03    -54.2842E-03     25.7303E-03
             865     3.40987E-03     93.2239E-03    -39.3435E+06    -119.681E+06    -35.2775E+06    -8.85933E+06    -54.5203E-03     108.840E-03    -54.3198E-03     34.4761E-03    -54.5097E-03     108.367E-03    -54.2656E-03     34.2338E-03
             866     4.26235E-03     93.2622E-03    -37.5463E+06    -113.906E+06    -29.1921E+06    -10.2051E+06    -54.6072E-03     108.922E-03    -54.3144E-03     42.9449E-03    -54.6164E-03     108.478E-03    -54.2408E-03     42.6440E-03
             867     5.11502E-03     93.3094E-03    -34.5797E+06    -107.456E+06    -23.2781E+06    -11.2594E+06    -54.7048E-03     109.004E-03    -54.2992E-03     51.3757E-03    -54.7332E-03     108.596E-03    -54.2096E-03     51.0133E-03
             868     5.96769E-03     93.3645E-03    -31.3207E+06    -97.3853E+06    -18.0680E+06    -11.6086E+06    -54.8212E-03     109.090E-03    -54.2683E-03     59.7753E-03    -54.8776E-03     108.741E-03    -54.1720E-03     59.3529E-03
             869     6.82057E-03     93.4283E-03    -28.6287E+06    -91.0317E+06    -12.5253E+06    -12.4632E+06    -54.9633E-03     109.204E-03    -54.2404E-03     68.0391E-03    -55.0537E-03     108.906E-03    -54.1295E-03     67.5398E-03
             870     7.67342E-03     93.4994E-03    -26.3910E+06    -97.6812E+06    -10.2043E+06    -14.3570E+06    -55.1494E-03     109.363E-03    -54.2133E-03     76.0052E-03    -55.2641E-03     109.067E-03    -54.0844E-03     75.4011E-03
             871     8.52659E-03     93.5787E-03    -24.5821E+06    -101.770E+06    -12.8188E+06    -15.2167E+06    -55.3968E-03     109.556E-03    -54.1589E-03     83.9779E-03    -55.5498E-03     109.297E-03    -54.0398E-03     83.2677E-03
             872     9.37953E-03     93.6654E-03    -23.5493E+06    -96.7297E+06    -16.9651E+06    -15.6522E+06    -55.6786E-03     109.766E-03    -54.0878E-03     92.3753E-03    -55.9053E-03     109.615E-03    -53.9982E-03     91.5499E-03
             873     10.2327E-03     93.7612E-03    -21.1144E+06    -86.9908E+06    -20.3427E+06    -16.8650E+06    -56.0071E-03     110.024E-03    -54.0168E-03     100.450E-03    -56.3393E-03     110.031E-03    -53.9618E-03     99.4758E-03
             874     11.0853E-03     93.8638E-03    -18.6554E+06    -78.0514E+06    -25.1083E+06    -17.3469E+06    -56.4066E-03     110.355E-03    -53.9480E-03     109.211E-03    -56.8920E-03     110.569E-03    -53.9333E-03     108.068E-03
             875     11.9389E-03     93.9769E-03    -18.6376E+06    -60.6346E+06    -33.6611E+06    -14.9913E+06    -56.9993E-03     110.858E-03    -53.8590E-03     121.980E-03    -57.7582E-03     111.433E-03    -53.9124E-03     120.663E-03
             876     12.7915E-03     94.1050E-03    -18.8514E+06    -23.2252E+06    -37.4396E+06    -10.1571E+06    -57.9307E-03     111.702E-03    -53.7710E-03     141.776E-03    -59.2555E-03     112.986E-03    -53.8972E-03     140.224E-03
             877     13.6446E-03     94.2580E-03    -18.3863E+06     42.2291E+06    -28.9506E+06    -5.90080E+06    -61.2186E-03     114.929E-03    -53.7108E-03     189.346E-03    -64.1027E-03     117.982E-03    -53.8901E-03     187.343E-03
             878     14.4961E-03     94.4820E-03    -17.2966E+06     104.270E+06     20.0799E+06    -4.51051E+06    -70.3051E-03     124.172E-03    -53.8667E-03     291.242E-03    -78.9527E-03     133.070E-03    -53.8924E-03     288.328E-03
             879     15.3510E-03     94.8533E-03    -12.8348E+06     145.983E+06     84.1287E+06    -3.45247E+06    -77.9301E-03     132.037E-03    -54.1067E-03     400.494E-03    -100.077E-03     154.412E-03    -53.8791E-03     399.687E-03
             880     16.2108E-03     95.3138E-03    -6.12181E+06     164.819E+06     105.429E+06    -1.04066E+06    -66.3884E-03     120.520E-03    -54.1313E-03     307.762E-03    -86.2126E-03     140.602E-03    -53.8342E-03     313.756E-03
             881     852.482E-06     94.2155E-03    -40.9875E+06    -132.474E+06    -41.7386E+06    -4.87413E+06    -54.3533E-03     108.709E-03    -54.3557E-03     9.49579E-03    -54.3067E-03     108.168E-03    -54.3129E-03     9.40026E-03
             882     1.70482E-03     94.2285E-03    -40.1965E+06    -129.823E+06    -40.9459E+06    -7.36859E+06    -54.3561E-03     108.679E-03    -54.3234E-03     17.3995E-03    -54.3136E-03     108.152E-03    -54.2816E-03     17.2444E-03
             883     2.55738E-03     94.2502E-03    -39.6846E+06    -121.660E+06    -39.8035E+06    -8.75283E+06    -54.3790E-03     108.667E-03    -54.2875E-03     25.9436E-03    -54.3526E-03     108.183E-03    -54.2526E-03     25.7392E-03
             884     3.40994E-03     94.2801E-03    -38.9146E+06    -115.604E+06    -35.1751E+06    -9.41483E+06    -54.4293E-03     108.699E-03    -54.2693E-03     34.5243E-03    -54.4226E-03     108.245E-03    -54.2211E-03     34.2758E-03
             885     4.26262E-03     94.3188E-03    -36.4984E+06    -108.439E+06    -28.6058E+06    -11.4970E+06    -54.4959E-03     108.748E-03    -54.2526E-03     43.0353E-03    -54.5084E-03     108.329E-03    -54.1854E-03     42.7192E-03
             886     5.11529E-03     94.3655E-03    -33.0648E+06    -104.126E+06    -22.9037E+06    -13.4300E+06    -54.5624E-03     108.789E-03    -54.2266E-03     51.5187E-03    -54.5883E-03     108.394E-03    -54.1422E-03     51.1304E-03
             887     5.96821E-03     94.4208E-03    -29.6779E+06    -95.9650E+06    -18.7610E+06    -13.1569E+06    -54.6316E-03     108.809E-03    -54.1775E-03     59.9890E-03    -54.6802E-03     108.466E-03    -54.0892E-03     59.5499E-03
             888     6.82119E-03     94.4840E-03    -26.7052E+06    -87.3816E+06    -12.7117E+06    -13.2187E+06    -54.7650E-03     108.898E-03    -54.1329E-03     68.2884E-03    -54.8501E-03     108.615E-03    -54.0310E-03     67.7832E-03
             889     7.67436E-03     94.5555E-03    -24.4789E+06    -93.7378E+06    -8.32681E+06    -14.3172E+06    -55.0164E-03     109.123E-03    -54.1066E-03     76.2132E-03    -55.1293E-03     108.840E-03    -53.9768E-03     75.6129E-03
             890     8.52735E-03     94.6341E-03    -22.8633E+06    -99.3713E+06    -11.2496E+06    -15.4676E+06    -55.2993E-03     109.351E-03    -54.0512E-03     84.1761E-03    -55.4487E-03     109.099E-03    -53.9302E-03     83.4659E-03
             891     9.38054E-03     94.7214E-03    -20.4177E+06    -93.1066E+06    -15.2944E+06    -17.0283E+06    -55.5960E-03     109.573E-03    -53.9770E-03     92.6421E-03    -55.8139E-03     109.432E-03    -53.8888E-03     91.8026E-03
             892     10.2336E-03     94.8165E-03    -19.2434E+06    -83.8012E+06    -19.4009E+06    -18.7360E+06    -55.9467E-03     109.853E-03    -53.9059E-03     100.903E-03    -56.2743E-03     109.871E-03    -53.8535E-03     99.9095E-03
             893     11.0871E-03     94.9200E-03    -19.7056E+06    -77.5743E+06    -23.9152E+06    -18.4601E+06    -56.3868E-03     110.237E-03    -53.8500E-03     109.605E-03    -56.8792E-03     110.453E-03    -53.8285E-03     108.451E-03
             894     11.9396E-03     95.0322E-03    -19.2498E+06    -63.7925E+06    -32.2464E+06    -16.3263E+06    -57.0008E-03     110.773E-03    -53.7722E-03     122.372E-03    -57.7602E-03     111.331E-03    -53.8130E-03     121.040E-03
             895     12.7928E-03     95.1616E-03    -18.1221E+06    -28.7710E+06    -37.9515E+06    -12.5810E+06    -58.1113E-03     111.798E-03    -53.6863E-03     142.218E-03    -59.4245E-03     113.054E-03    -53.8081E-03     140.633E-03
             896     13.6458E-03     95.3133E-03    -17.0571E+06     37.4736E+06    -33.0972E+06    -7.57399E+06    -61.7841E-03     115.412E-03    -53.6284E-03     190.657E-03    -64.6742E-03     118.471E-03    -53.8234E-03     188.610E-03
             897     14.4972E-03     95.5431E-03    -14.7921E+06     103.633E+06     16.1010E+06    -4.23672E+06    -70.3801E-03     124.174E-03    -53.7935E-03     292.087E-03    -79.0217E-03     133.084E-03    -53.8419E-03     289.196E-03
             898     15.3511E-03     95.9019E-03    -11.7798E+06     144.967E+06     82.3064E+06    -2.99360E+06    -77.8969E-03     131.947E-03    -54.0497E-03     399.964E-03    -99.9661E-03     154.250E-03    -53.8313E-03     399.171E-03
             899     16.1964E-03     96.3712E-03    -6.57256E+06     161.401E+06     103.172E+06    -2.06911E+06    -65.5295E-03     119.587E-03    -54.0571E-03     307.286E-03    -85.2149E-03     139.522E-03    -53.7657E-03     313.266E-03
             900     852.287E-06     95.2718E-03    -36.9131E+06    -121.978E+06    -36.9770E+06    -5.10352E+06    -54.3212E-03     108.598E-03    -54.2770E-03     9.49180E-03    -54.2764E-03     108.097E-03    -54.2315E-03     9.39424E-03
             901     1.70498E-03     95.2851E-03    -37.5054E+06    -122.023E+06    -37.5771E+06    -7.89198E+06    -54.2717E-03     108.535E-03    -54.2637E-03     17.5123E-03    -54.2320E-03     108.038E-03    -54.2203E-03     17.3509E-03
             902     2.55757E-03     95.3063E-03    -36.8447E+06    -116.759E+06    -35.5570E+06    -9.55787E+06    -54.2877E-03     108.515E-03    -54.2271E-03     26.0064E-03    -54.2603E-03     108.045E-03    -54.1822E-03     25.7922E-03
             903     3.41024E-03     95.3366E-03    -34.4872E+06    -111.132E+06    -31.5531E+06    -10.8331E+06    -54.2861E-03     108.477E-03    -54.1913E-03     34.6055E-03    -54.2688E-03     108.035E-03    -54.1380E-03     34.3400E-03
             904     4.26295E-03     95.3748E-03    -32.5354E+06    -102.480E+06    -27.5334E+06    -12.5154E+06    -54.2897E-03     108.430E-03    -54.1398E-03     43.2212E-03    -54.2923E-03     108.033E-03    -54.0817E-03     42.8943E-03
             905     5.11595E-03     95.4217E-03    -31.5375E+06    -99.9061E+06    -22.1854E+06    -14.0873E+06    -54.3573E-03     108.456E-03    -54.0991E-03     51.7350E-03    -54.3823E-03     108.079E-03    -54.0194E-03     51.3411E-03
             906     5.96895E-03     95.4763E-03    -29.7177E+06    -94.2147E+06    -19.0713E+06    -14.8972E+06    -54.4397E-03     108.479E-03    -54.0390E-03     60.2043E-03    -54.4901E-03     108.144E-03    -53.9546E-03     59.7459E-03
             907     6.82226E-03     95.5398E-03    -26.9352E+06    -85.0216E+06    -14.2091E+06    -14.6476E+06    -54.5830E-03     108.563E-03    -53.9804E-03     68.5676E-03    -54.6696E-03     108.294E-03    -53.8891E-03     68.0483E-03
             908     7.67540E-03     95.6109E-03    -23.9241E+06    -90.3554E+06     -7.5965E+06    -14.9910E+06    -54.8644E-03     108.823E-03    -53.9586E-03     76.5600E-03    -54.9795E-03     108.554E-03    -53.8309E-03     75.9558E-03
             909     8.52864E-03     95.6900E-03    -20.3769E+06    -94.8544E+06    -8.15795E+06    -17.1456E+06    -55.1699E-03     109.079E-03    -53.9096E-03     84.5753E-03    -55.3169E-03     108.841E-03    -53.7833E-03     83.8483E-03
             910     9.38187E-03     95.7764E-03    -17.1576E+06    -88.8635E+06    -12.1355E+06    -19.7045E+06    -55.4909E-03     109.326E-03    -53.8353E-03     93.1707E-03    -55.7022E-03     109.196E-03    -53.7423E-03     92.3017E-03
             911     10.2352E-03     95.8724E-03    -14.8661E+06    -82.9883E+06    -14.3681E+06    -18.9301E+06    -55.8677E-03     109.646E-03    -53.7782E-03     101.515E-03    -56.1808E-03     109.653E-03    -53.7082E-03     100.525E-03
             912     11.0880E-03     95.9752E-03    -14.5656E+06    -77.1942E+06    -17.7632E+06    -17.1463E+06    -56.3314E-03     110.060E-03    -53.7291E-03     110.419E-03    -56.8065E-03     110.261E-03    -53.6848E-03     109.288E-03
             913     11.9414E-03     96.0887E-03    -15.7069E+06    -63.5359E+06    -27.7826E+06    -17.2043E+06    -57.0579E-03     110.709E-03    -53.6506E-03     123.273E-03    -57.8064E-03     111.256E-03    -53.6746E-03     121.934E-03
             914     12.7943E-03     96.2164E-03    -16.0556E+06    -34.4118E+06    -37.7446E+06    -14.6489E+06    -58.4674E-03     112.037E-03    -53.5701E-03     143.736E-03    -59.7686E-03     113.269E-03    -53.6856E-03     142.121E-03
             915     13.6459E-03     96.3718E-03    -17.0027E+06     31.6477E+06    -34.6463E+06    -9.45169E+06    -61.7544E-03     115.271E-03    -53.5170E-03     191.775E-03    -64.6227E-03     118.292E-03    -53.7115E-03     189.724E-03
             916     14.5005E-03     96.5972E-03    -16.4881E+06     100.660E+06     9.47058E+06    -5.48943E+06    -70.1147E-03     123.757E-03    -53.6427E-03     293.305E-03    -78.7402E-03     132.654E-03    -53.7174E-03     290.445E-03
             917     15.3504E-03     96.9641E-03    -10.8319E+06     143.914E+06     75.6805E+06    -2.97247E+06    -77.5703E-03     131.426E-03    -53.8553E-03     403.712E-03    -99.7802E-03     153.888E-03    -53.6698E-03     403.085E-03
             918     16.2137E-03     97.4279E-03    -4.37529E+06     160.623E+06     103.291E+06    -1.41322E+06    -65.9888E-03     119.863E-03    -53.8745E-03     308.472E-03    -85.7651E-03     139.895E-03    -53.5846E-03     314.540E-03
             919     852.759E-06     96.3285E-03    -33.3347E+06    -111.879E+06    -31.9521E+06    -3.85670E+06    -54.1435E-03     108.271E-03    -54.1276E-03     9.45712E-03    -54.1027E-03     107.808E-03    -54.0768E-03     9.37665E-03
             920     1.70522E-03     96.3412E-03    -32.4716E+06    -113.721E+06    -29.4465E+06    -7.42372E+06    -54.1782E-03     108.313E-03    -54.1346E-03     17.5642E-03    -54.1371E-03     107.838E-03    -54.0698E-03     17.4093E-03
             921     2.55783E-03     96.3629E-03    -31.2217E+06    -110.276E+06    -30.0196E+06    -10.3884E+06    -54.1305E-03     108.226E-03    -54.0959E-03     26.1112E-03    -54.0924E-03     107.773E-03    -54.0409E-03     25.8873E-03
             922     3.41062E-03     96.3924E-03    -30.0542E+06    -105.127E+06    -30.1443E+06    -12.9689E+06    -54.0642E-03     108.091E-03    -54.0273E-03     34.7805E-03    -54.0353E-03     107.670E-03    -53.9820E-03     34.4894E-03
             923     4.26379E-03     96.4307E-03    -28.8080E+06    -99.6738E+06    -25.8070E+06    -12.7084E+06    -54.0614E-03     108.027E-03    -53.9658E-03     43.4175E-03    -54.0516E-03     107.636E-03    -53.9085E-03     43.0909E-03
             924     5.11691E-03     96.4771E-03    -27.3966E+06    -93.8465E+06    -17.7633E+06    -13.5360E+06    -54.1384E-03     108.061E-03    -53.9222E-03     51.9278E-03    -54.1574E-03     107.701E-03    -53.8352E-03     51.5444E-03
             925     5.97017E-03     96.5320E-03    -24.9465E+06    -90.5533E+06    -12.5751E+06    -16.0958E+06    -54.2577E-03     108.128E-03    -53.8706E-03     60.3904E-03    -54.2983E-03     107.795E-03    -53.7660E-03     59.9199E-03
             926     6.82339E-03     96.5948E-03    -21.9317E+06    -84.0462E+06    -10.4554E+06    -15.9461E+06    -54.3832E-03     108.182E-03    -53.7988E-03     68.9264E-03    -54.4506E-03     107.904E-03    -53.6974E-03     68.3953E-03
             927     7.67689E-03     96.6664E-03    -19.0843E+06    -86.4230E+06    -5.51698E+06    -16.1558E+06    -54.6044E-03     108.361E-03    -53.7565E-03     77.1535E-03    -54.7025E-03     108.100E-03    -53.6311E-03     76.5418E-03
             928     8.53031E-03     96.7449E-03    -17.0944E+06    -89.3180E+06    -5.28404E+06    -18.4824E+06    -54.9300E-03     108.632E-03    -53.7024E-03     85.3235E-03    -55.0710E-03     108.411E-03    -53.5745E-03     84.5876E-03
             929     9.38373E-03     96.8320E-03    -16.1991E+06    -84.0878E+06    -10.0487E+06    -20.9416E+06    -55.2811E-03     108.905E-03    -53.6234E-03     94.1313E-03    -55.4956E-03     108.792E-03    -53.5282E-03     93.2558E-03
             930     10.2371E-03     96.9273E-03    -15.3977E+06    -84.6714E+06    -14.5959E+06    -20.7548E+06    -55.6786E-03     109.241E-03    -53.5628E-03     102.795E-03    -55.9894E-03     109.239E-03    -53.4906E-03     101.792E-03
             931     11.0908E-03     97.0310E-03    -13.3251E+06    -77.0684E+06    -17.1557E+06    -18.5247E+06    -56.2099E-03     109.721E-03    -53.5110E-03     111.906E-03    -56.6779E-03     109.918E-03    -53.4657E-03     110.769E-03
             932     11.9439E-03     97.1437E-03    -11.5712E+06    -62.1175E+06    -22.4732E+06    -17.1302E+06    -57.1328E-03     110.589E-03    -53.4562E-03     124.915E-03    -57.8722E-03     111.132E-03    -53.4617E-03     123.582E-03
             933     12.7965E-03     97.2735E-03    -12.4089E+06    -38.9036E+06    -36.4721E+06    -14.9675E+06    -58.4672E-03     111.838E-03    -53.3713E-03     145.915E-03    -59.7501E-03     113.045E-03    -53.4792E-03     144.305E-03
             934     13.6498E-03     97.4282E-03    -13.5340E+06     25.1907E+06    -43.0699E+06    -9.15769E+06    -61.7831E-03     115.055E-03    -53.2721E-03     194.240E-03    -64.6283E-03     118.067E-03    -53.5043E-03     192.204E-03
             935     14.5003E-03     97.6544E-03    -13.1080E+06     98.7443E+06     1.22245E+06    -4.94233E+06    -69.7880E-03     123.170E-03    -53.3822E-03     294.602E-03    -78.3806E-03     132.063E-03    -53.5003E-03     291.804E-03
             936     15.3605E-03     98.0178E-03    -11.2475E+06     141.610E+06     71.4364E+06    -4.91592E+06    -76.9249E-03     130.535E-03    -53.6098E-03     402.128E-03    -99.0274E-03     152.893E-03    -53.4416E-03     401.556E-03
             937     16.2083E-03     98.4826E-03    -5.79084E+06     156.824E+06     100.195E+06    -2.60582E+06    -66.1854E-03     119.842E-03    -53.6571E-03     306.286E-03    -85.8644E-03     139.767E-03    -53.3751E-03     312.281E-03
             938     852.718E-06     97.3842E-03    -26.0987E+06    -104.160E+06    -25.3745E+06    -2.66922E+06    -53.9297E-03     107.866E-03    -53.9367E-03     9.46311E-03    -53.8734E-03     107.422E-03    -53.8747E-03     9.39886E-03
             939     1.70556E-03     97.3976E-03    -26.1896E+06    -104.530E+06    -24.1411E+06    -6.46308E+06    -53.9046E-03     107.814E-03    -53.9091E-03     17.6413E-03    -53.8530E-03     107.368E-03    -53.8402E-03     17.5003E-03
             940     2.55848E-03     97.4184E-03    -25.9624E+06    -102.025E+06    -24.1277E+06    -10.5240E+06    -53.8636E-03     107.722E-03    -53.8579E-03     26.2524E-03    -53.8196E-03     107.293E-03    -53.7930E-03     26.0286E-03
             941     3.41168E-03     97.4481E-03    -25.3977E+06    -98.0793E+06    -21.8943E+06    -13.4657E+06    -53.8408E-03     107.643E-03    -53.8021E-03     34.9091E-03    -53.8106E-03     107.238E-03    -53.7325E-03     34.6137E-03
             942     4.26474E-03     97.4858E-03    -23.2574E+06    -98.3910E+06    -18.0120E+06    -14.2366E+06    -53.8475E-03     107.597E-03    -53.7496E-03     43.5584E-03    -53.8228E-03     107.193E-03    -53.6633E-03     43.2146E-03
             943     5.11812E-03     97.5324E-03    -19.9889E+06    -88.0212E+06    -13.3318E+06    -14.3532E+06    -53.8623E-03     107.539E-03    -53.6765E-03     52.2250E-03    -53.8584E-03     107.190E-03    -53.5866E-03     51.8358E-03
             944     5.97152E-03     97.5869E-03    -17.9248E+06    -85.1896E+06    -7.56715E+06    -16.2851E+06    -53.9466E-03     107.565E-03    -53.6181E-03     60.8319E-03    -53.9661E-03     107.240E-03    -53.5064E-03     60.3651E-03
             945     6.82519E-03     97.6498E-03    -16.6996E+06    -83.6405E+06    -8.69373E+06    -16.6289E+06    -54.0311E-03     107.557E-03    -53.5259E-03     69.5547E-03    -54.0740E-03     107.269E-03    -53.4238E-03     69.0230E-03
             946     7.67899E-03     97.7208E-03    -15.7980E+06    -82.3638E+06    -7.04783E+06    -16.3854E+06    -54.1924E-03     107.639E-03    -53.4471E-03     78.1486E-03    -54.2750E-03     107.394E-03    -53.3400E-03     77.5463E-03
             947     8.53287E-03     97.7998E-03    -15.1051E+06    -83.8460E+06    -4.13861E+06    -18.1678E+06    -54.5155E-03     107.904E-03    -53.3881E-03     86.5759E-03    -54.6529E-03     107.702E-03    -53.2653E-03     85.8583E-03
             948     9.38671E-03     97.8864E-03    -15.1770E+06    -79.7348E+06    -7.43546E+06    -19.8208E+06    -54.8934E-03     108.199E-03    -53.3053E-03     95.5292E-03    -55.1095E-03     108.099E-03    -53.2049E-03     94.6832E-03
             949     10.2407E-03     97.9822E-03    -15.4095E+06    -82.6535E+06    -12.5006E+06    -21.4807E+06    -55.3616E-03     108.600E-03    -53.2380E-03     104.471E-03    -55.6750E-03     108.601E-03    -53.1584E-03     103.475E-03
             950     11.0941E-03     98.0855E-03    -14.3376E+06    -77.6135E+06    -19.3020E+06    -21.8857E+06    -56.0492E-03     109.218E-03    -53.1692E-03     114.009E-03    -56.5159E-03     109.415E-03    -53.1323E-03     112.843E-03
             951     11.9475E-03     98.1997E-03    -12.4264E+06    -62.7409E+06    -23.5808E+06    -19.9100E+06    -57.0036E-03     110.126E-03    -53.1228E-03     127.404E-03    -57.7459E-03     110.670E-03    -53.1317E-03     126.050E-03
             952     12.8008E-03     98.3291E-03    -10.2977E+06    -42.0734E+06    -36.6387E+06    -16.6820E+06    -58.3022E-03     111.345E-03    -53.0425E-03     148.300E-03    -59.5697E-03     112.533E-03    -53.1497E-03     146.688E-03
             953     13.6536E-03     98.4843E-03    -8.66670E+06     15.8734E+06    -51.7806E+06    -10.8427E+06    -61.7371E-03     114.642E-03    -52.9049E-03     196.441E-03    -64.5376E-03     117.618E-03    -53.1742E-03     194.404E-03
             954     14.5093E-03     98.7122E-03    -8.33956E+06     95.6783E+06    -8.99402E+06    -4.00656E+06    -70.3788E-03     123.400E-03    -53.0216E-03     295.559E-03    -78.9704E-03     132.328E-03    -53.1933E-03     292.751E-03
             955     15.3562E-03     99.0719E-03    -7.14020E+06     144.682E+06     70.3973E+06    -504.793E+03    -77.6335E-03     130.959E-03    -53.3258E-03     404.018E-03    -99.8505E-03     153.460E-03    -53.1733E-03     403.506E-03
             956     16.2157E-03     99.5402E-03    -5.10867E+06     156.089E+06     100.890E+06    -847.704E+03    -66.7873E-03     120.203E-03    -53.4155E-03     310.341E-03    -86.6372E-03     140.296E-03    -53.1300E-03     316.424E-03
             957     852.971E-06     98.4402E-03    -20.3994E+06    -97.7092E+06    -20.7688E+06    -3.02716E+06    -53.6054E-03     107.213E-03    -53.6073E-03     9.53601E-03    -53.5366E-03     106.785E-03    -53.5399E-03     9.46788E-03
             958     1.70620E-03     98.4526E-03    -18.9401E+06    -95.1584E+06    -17.2119E+06    -6.34095E+06    -53.5409E-03     107.116E-03    -53.5754E-03     17.7643E-03    -53.4766E-03     106.697E-03    -53.4960E-03     17.6268E-03
             959     2.55951E-03     98.4739E-03    -17.4123E+06    -93.8506E+06    -11.9171E+06    -9.82348E+06    -53.5645E-03     107.112E-03    -53.5478E-03     26.3121E-03    -53.5071E-03     106.694E-03    -53.4461E-03     26.0996E-03
             960     3.41262E-03     98.5029E-03    -16.6636E+06    -91.5667E+06    -9.33034E+06    -11.9628E+06    -53.5445E-03     107.049E-03    -53.5045E-03     35.0259E-03    -53.4980E-03     106.645E-03    -53.3942E-03     34.7528E-03
             961     4.26613E-03     98.5409E-03    -16.1428E+06    -92.5440E+06    -10.7140E+06    -15.1448E+06    -53.4904E-03     106.918E-03    -53.4278E-03     43.8815E-03    -53.4486E-03     106.522E-03    -53.3238E-03     43.5306E-03
             962     5.11976E-03     98.5866E-03    -14.8751E+06    -85.5635E+06    -14.2379E+06    -16.2619E+06    -53.4235E-03     106.731E-03    -53.3070E-03     52.8133E-03    -53.3951E-03     106.387E-03    -53.2326E-03     52.4070E-03
             963     5.97381E-03     98.6415E-03    -13.4883E+06    -79.6377E+06    -8.25478E+06    -16.0582E+06    -53.4326E-03     106.656E-03    -53.2231E-03     61.6427E-03    -53.4352E-03     106.352E-03    -53.1294E-03     61.1893E-03
             964     6.82784E-03     98.7036E-03    -12.1100E+06    -82.3781E+06    -3.64865E+06    -16.7737E+06    -53.5200E-03     106.663E-03    -53.1431E-03     70.4065E-03    -53.5469E-03     106.365E-03    -53.0243E-03     69.8841E-03
             965     7.68225E-03     98.7747E-03    -9.96622E+06    -79.2907E+06    -1.77556E+06    -16.6566E+06    -53.6389E-03     106.679E-03    -53.0402E-03     79.3168E-03    -53.7012E-03     106.430E-03    -52.9196E-03     78.7260E-03
             966     8.53664E-03     98.8535E-03    -7.82346E+06    -78.8322E+06     2.38527E+06    -17.7124E+06    -53.9248E-03     106.884E-03    -52.9596E-03     88.0572E-03    -54.0382E-03     106.683E-03    -52.8221E-03     87.3642E-03
             967     9.39107E-03     98.9405E-03    -6.18637E+06    -76.9370E+06    -1.13075E+06    -18.5412E+06    -54.3763E-03     107.233E-03    -52.8569E-03     97.2085E-03    -54.5562E-03     107.121E-03    -52.7420E-03     96.3982E-03
             968     10.2452E-03     99.0359E-03    -6.29773E+06    -77.5609E+06    -6.62170E+06    -19.5178E+06    -54.9491E-03     107.722E-03    -52.7727E-03     106.507E-03    -55.2281E-03     107.722E-03    -52.6842E-03     105.557E-03
             969     11.0997E-03     99.1402E-03    -9.12715E+06    -76.4789E+06    -16.7288E+06    -20.4444E+06    -55.7428E-03     108.438E-03    -52.6951E-03     116.540E-03    -56.1849E-03     108.625E-03    -52.6547E-03     115.415E-03
             970     11.9534E-03     99.2544E-03    -11.7210E+06    -61.4521E+06    -23.5580E+06    -21.2431E+06    -56.8123E-03     109.458E-03    -52.6461E-03     130.018E-03    -57.5495E-03     110.004E-03    -52.6577E-03     128.668E-03
             971     12.8069E-03     99.3847E-03    -11.7767E+06    -44.8851E+06    -36.2283E+06    -21.0742E+06    -58.4087E-03     111.002E-03    -52.5936E-03     150.647E-03    -59.6811E-03     112.179E-03    -52.6926E-03     148.992E-03
             972     13.6601E-03     99.5404E-03    -11.3025E+06     6.13252E+06    -53.2785E+06    -15.3931E+06    -62.2727E-03     114.768E-03    -52.4949E-03     198.506E-03    -65.0887E-03     117.720E-03    -52.7538E-03     196.404E-03
             973     14.5106E-03     99.7681E-03    -11.1851E+06     86.7448E+06    -19.2465E+06    -5.94892E+06    -70.7312E-03     123.335E-03    -52.6036E-03     297.269E-03    -79.2943E-03     132.222E-03    -52.8094E-03     294.463E-03
             974     15.3697E-03     100.133E-03    -7.92799E+06     142.868E+06     59.3730E+06    -84.0396E+03    -77.8362E-03     130.759E-03    -52.9228E-03     403.334E-03    -99.9646E-03     153.194E-03    -52.8216E-03     402.764E-03
             975     16.2233E-03     100.593E-03    -3.18594E+06     156.974E+06     99.3043E+06     1.18794E+06    -67.3207E-03     120.421E-03    -53.1005E-03     309.521E-03    -87.1347E-03     140.493E-03    -52.8270E-03     315.493E-03
             976     853.528E-06     99.4944E-03    -13.2667E+06    -89.6040E+06    -13.7481E+06    -4.26255E+06    -53.1955E-03     106.284E-03    -53.0880E-03     9.56729E-03    -53.1130E-03     105.876E-03    -53.0076E-03     9.48411E-03
             977     1.70699E-03     99.5075E-03    -12.6955E+06    -86.9737E+06    -12.2172E+06    -7.18635E+06    -53.1543E-03     106.271E-03    -53.1171E-03     17.8709E-03    -53.0778E-03     105.876E-03    -53.0336E-03     17.7247E-03
             978     2.56040E-03     99.5282E-03    -11.7817E+06    -86.9058E+06    -8.42062E+06    -9.28817E+06    -53.0956E-03     106.190E-03    -53.0948E-03     26.5700E-03    -53.0249E-03     105.794E-03    -52.9938E-03     26.3683E-03
             979     3.41424E-03     99.5575E-03    -10.3555E+06    -85.6650E+06    -6.40968E+06    -11.2635E+06    -53.0146E-03     106.047E-03    -53.0326E-03     35.4339E-03    -52.9487E-03     105.659E-03    -52.9254E-03     35.1756E-03
             980     4.26816E-03     99.5946E-03    -9.20143E+06    -83.6089E+06    -4.52601E+06    -14.3407E+06    -52.9198E-03     105.865E-03    -52.9456E-03     44.4149E-03    -52.8643E-03     105.493E-03    -52.8336E-03     44.0818E-03
             981     5.12243E-03     99.6405E-03    -8.64807E+06    -82.6585E+06    -5.47489E+06    -16.9233E+06    -52.8254E-03     105.652E-03    -52.8271E-03     53.4638E-03    -52.7815E-03     105.300E-03    -52.7221E-03     53.0577E-03
             982     5.97689E-03     99.6943E-03    -7.27205E+06    -76.7588E+06    -3.04406E+06    -16.7348E+06    -52.7580E-03     105.460E-03    -52.7021E-03     62.5657E-03    -52.7391E-03     105.152E-03    -52.5954E-03     62.1161E-03
             983     6.83169E-03     99.7571E-03    -5.56506E+06    -78.9272E+06     4.16947E+06    -16.7154E+06    -52.8105E-03     105.418E-03    -52.6073E-03     71.5431E-03    -52.8182E-03     105.113E-03    -52.4640E-03     71.0365E-03
             984     7.68644E-03     99.8270E-03    -4.06557E+06    -76.8762E+06     3.84953E+06    -17.6460E+06    -52.8988E-03     105.369E-03    -52.4702E-03     80.7795E-03    -52.9391E-03     105.111E-03    -52.3336E-03     80.1946E-03
             985     8.54172E-03     99.9065E-03    -2.93674E+06    -75.4476E+06     3.23771E+06    -17.6872E+06    -53.1648E-03     105.505E-03    -52.3401E-03     90.0529E-03    -53.2542E-03     105.307E-03    -52.2103E-03     89.3842E-03
             986     9.39681E-03     99.9928E-03    -2.93195E+06    -74.0601E+06     465.049E+03    -18.3430E+06    -53.7208E-03     105.945E-03    -52.2246E-03     99.4609E-03    -53.8848E-03     105.835E-03    -52.1106E-03     98.6783E-03
             987     10.2520E-03     100.089E-03    -3.01280E+06    -75.0151E+06    -3.22530E+06    -18.4225E+06    -54.4118E-03     106.553E-03    -52.1414E-03     108.956E-03    -54.6773E-03     106.551E-03    -52.0444E-03     108.044E-03
             988     11.1065E-03     100.193E-03    -2.45437E+06    -73.7127E+06    -9.13239E+06    -18.2301E+06    -55.3876E-03     107.469E-03    -52.0816E-03     119.297E-03    -55.8058E-03     107.643E-03    -52.0168E-03     118.226E-03
             989     11.9608E-03     100.309E-03    -3.07368E+06    -57.9444E+06    -13.5695E+06    -18.9604E+06    -56.8767E-03     108.937E-03    -52.0605E-03     132.908E-03    -57.5873E-03     109.471E-03    -52.0399E-03     131.607E-03
             990     12.8141E-03     100.440E-03    -6.74708E+06    -44.0270E+06    -25.2321E+06    -19.4580E+06    -58.9356E-03     111.004E-03    -52.0683E-03     153.227E-03    -60.2071E-03     112.168E-03    -52.1208E-03     151.595E-03
             991     13.6665E-03     100.597E-03    -10.4694E+06    -2.06150E+06    -49.6850E+06    -16.4524E+06    -62.9444E-03     114.954E-03    -52.0092E-03     201.130E-03    -65.7512E-03     117.860E-03    -52.2395E-03     199.016E-03
             992     14.5204E-03     100.827E-03    -11.0289E+06     74.8236E+06    -27.8078E+06    -7.89202E+06    -71.6842E-03     123.811E-03    -52.1264E-03     298.557E-03    -80.2026E-03     132.636E-03    -52.3579E-03     295.685E-03
             993     15.3700E-03     101.185E-03    -10.2531E+06     139.347E+06     47.8976E+06    -1.30443E+06    -79.2086E-03     131.713E-03    -52.5043E-03     403.576E-03    -101.401E-03     154.224E-03    -52.4520E-03     402.889E-03
             994     16.2198E-03     101.653E-03    -6.23090E+06     155.922E+06     91.4357E+06     392.986E+03    -67.3167E-03     120.067E-03    -52.7504E-03     310.341E-03    -87.2210E-03     140.238E-03    -52.5103E-03     316.347E-03
             995     853.994E-06     100.549E-03    -6.29734E+06    -80.0912E+06    -6.81432E+06    -4.38873E+06    -52.5807E-03     105.115E-03    -52.5342E-03     9.69750E-03    -52.4871E-03     104.735E-03    -52.4430E-03     9.61442E-03
             996     1.70783E-03     100.561E-03    -7.14565E+06    -79.2941E+06    -7.74200E+06    -7.21824E+06    -52.5145E-03     105.028E-03    -52.5135E-03     18.0995E-03    -52.4277E-03     104.657E-03    -52.4269E-03     17.9561E-03
             997     2.56215E-03     100.582E-03    -6.78982E+06    -79.9848E+06    -7.65112E+06    -9.99645E+06    -52.3938E-03     104.842E-03    -52.4486E-03     26.9862E-03    -52.3088E-03     104.472E-03    -52.3611E-03     26.7808E-03
             998     3.41644E-03     100.610E-03    -5.09907E+06    -79.2451E+06    -3.88036E+06    -12.6897E+06    -52.2816E-03     104.651E-03    -52.3690E-03     35.9567E-03    -52.2017E-03     104.282E-03    -52.2661E-03     35.6874E-03
             999     4.27108E-03     100.648E-03    -3.34553E+06    -77.2953E+06     2.18546E+06    -14.1020E+06    -52.1596E-03     104.440E-03    -52.2800E-03     45.0515E-03    -52.0925E-03     104.080E-03    -52.1521E-03     44.7306E-03
            1000     5.12590E-03     100.693E-03    -2.28632E+06    -76.4654E+06     5.70705E+06    -16.0387E+06    -52.0148E-03     104.177E-03    -52.1618E-03     54.2539E-03    -51.9626E-03     103.828E-03    -52.0191E-03     53.8706E-03
            1001     5.98111E-03     100.746E-03    -1.73528E+06    -75.2928E+06     3.43559E+06    -17.1546E+06    -51.8490E-03     103.843E-03    -51.9938E-03     63.6945E-03    -51.8111E-03     103.521E-03    -51.8650E-03     63.2550E-03
            1002     6.83672E-03     100.808E-03    -700.493E+03     -75.075E+06     4.44334E+06    -16.9534E+06    -51.8055E-03     103.635E-03    -51.8296E-03     73.1661E-03    -51.7904E-03     103.338E-03    -51.6975E-03     72.6777E-03
            1003     7.69270E-03     100.879E-03    -603.581E+03    -74.7614E+06     4.53943E+06    -16.7545E+06    -51.9347E-03     103.600E-03    -51.6655E-03     82.6338E-03    -51.9565E-03     103.341E-03    -51.5335E-03     82.0840E-03
            1004     8.54877E-03     100.957E-03    -1.55846E+06    -72.8172E+06     4.09195E+06    -16.8334E+06    -52.2648E-03     103.780E-03    -51.5152E-03     92.4399E-03    -52.3454E-03     103.585E-03    -51.3869E-03     91.8104E-03
            1005     9.40481E-03     101.045E-03    -2.07791E+06    -71.2051E+06     2.80548E+06    -17.0563E+06    -52.8903E-03     104.282E-03    -51.3922E-03     102.278E-03    -53.0496E-03     104.173E-03    -51.2720E-03     101.543E-03
            1006     10.2602E-03     101.140E-03    -3.36610E+06    -73.3637E+06    -1.45421E+06    -17.4187E+06    -53.7849E-03     105.091E-03    -51.3056E-03     112.200E-03    -54.0490E-03     105.086E-03    -51.2017E-03     111.334E-03
            1007     11.1158E-03     101.246E-03    -4.31984E+06    -69.1697E+06    -8.67589E+06     -19.633E+06    -55.1152E-03     106.367E-03    -51.2519E-03     123.170E-03    -55.5424E-03     106.559E-03    -51.1887E-03     122.112E-03
            1008     11.9701E-03     101.362E-03    -4.21177E+06    -58.3657E+06    -14.7036E+06    -19.0083E+06    -57.0718E-03     108.338E-03    -51.2665E-03     137.246E-03    -57.7823E-03     108.869E-03    -51.2493E-03     135.968E-03
            1009     12.8232E-03     101.496E-03    -5.09406E+06    -42.1063E+06    -23.1630E+06    -16.2536E+06    -59.7407E-03     111.087E-03    -51.3464E-03     157.743E-03    -61.0190E-03     112.265E-03    -51.3938E-03     156.158E-03
            1010     13.6750E-03     101.653E-03    -9.11690E+06    -4.84009E+06    -46.8196E+06    -14.0757E+06    -64.0305E-03     115.412E-03    -51.3820E-03     204.189E-03    -66.8430E-03     118.311E-03    -51.5959E-03     202.093E-03
            1011     14.5265E-03     101.883E-03    -13.3428E+06     63.4139E+06    -38.2552E+06    -8.79308E+06    -73.1463E-03     124.683E-03    -51.5366E-03     302.128E-03    -81.7373E-03     133.563E-03    -51.8005E-03     299.171E-03
            1012     15.3786E-03     102.249E-03    -11.6760E+06     134.492E+06     35.1015E+06    -2.96801E+06    -80.2641E-03     132.225E-03    -51.9611E-03     406.836E-03    -102.621E-03     154.916E-03    -51.9637E-03     406.149E-03
            1013     16.2372E-03     102.709E-03    -5.98577E+06     155.497E+06     86.7560E+06    -833.982E+03    -68.3236E-03     120.627E-03    -52.3038E-03     309.647E-03    -88.2641E-03     140.847E-03    -52.0868E-03     315.661E-03
            1014     854.516E-06     101.601E-03    -4.29244E+06    -70.7673E+06    -4.02704E+06    -4.41131E+06    -51.7317E-03     103.475E-03    -51.7429E-03     9.98903E-03    -51.6456E-03     103.134E-03    -51.6542E-03     9.90788E-03
            1015     1.70945E-03     101.613E-03    -3.56821E+06    -70.8441E+06    -3.76199E+06    -7.42071E+06    -51.5974E-03     103.277E-03    -51.6796E-03     18.3694E-03    -51.5106E-03     102.937E-03    -51.5905E-03     18.2278E-03
            1016     2.56422E-03     101.633E-03    -2.74529E+06    -71.6132E+06    -2.82351E+06    -11.2808E+06    -51.4739E-03     103.062E-03    -51.5880E-03     27.4121E-03    -51.3874E-03     102.719E-03    -51.4943E-03     27.1963E-03
            1017     3.41943E-03     101.662E-03    -2.14473E+06    -72.9676E+06    -151.488E+03    -13.6348E+06    -51.2989E-03     102.784E-03    -51.4847E-03     36.6031E-03    -51.2177E-03     102.436E-03    -51.3765E-03     36.3304E-03
            1018     4.27483E-03     101.698E-03    -1.20322E+06    -72.7916E+06     1.38009E+06    -14.7728E+06    -51.0859E-03     102.432E-03    -51.3461E-03     45.9791E-03    -51.0117E-03     102.091E-03    -51.2319E-03     45.6623E-03
            1019     5.13066E-03     101.743E-03    -170.037E+03    -70.8142E+06     3.58073E+06    -15.5838E+06    -50.8554E-03     102.038E-03    -51.1822E-03     55.5151E-03    -50.7951E-03     101.715E-03    -51.0613E-03     55.1544E-03
            1020     5.98694E-03     101.796E-03     285.915E+03    -71.9162E+06     4.99527E+06    -16.6385E+06    -50.6661E-03     101.666E-03    -50.9994E-03     65.2277E-03    -50.6215E-03     101.352E-03    -50.8706E-03     64.8147E-03
            1021     6.84375E-03     101.858E-03     780.590E+03    -72.0728E+06     4.38903E+06    -17.5140E+06    -50.5781E-03     101.373E-03    -50.7949E-03     75.1043E-03    -50.5545E-03     101.083E-03    -50.6696E-03     74.6336E-03
            1022     7.70073E-03     101.928E-03     1.84910E+06    -74.8962E+06     5.95124E+06    -15.9167E+06    -50.7424E-03     101.354E-03    -50.6115E-03     84.9665E-03    -50.7469E-03     101.082E-03    -50.4758E-03     84.4564E-03
            1023     8.55772E-03     102.006E-03     2.08347E+06    -69.5168E+06     7.87113E+06    -14.8525E+06    -51.1332E-03     101.577E-03    -50.4437E-03     95.3607E-03    -51.1970E-03     101.378E-03    -50.3066E-03     94.7905E-03
            1024     9.41473E-03     102.094E-03     969.268E+03    -69.5708E+06     4.56764E+06    -15.2537E+06    -51.8298E-03     102.127E-03    -50.2973E-03     105.923E-03    -51.9678E-03     102.008E-03    -50.1750E-03     105.251E-03
            1025     10.2718E-03     102.191E-03     329.512E+03    -70.2104E+06     1.02170E+06    -15.5312E+06    -53.0930E-03     103.303E-03    -50.2104E-03     116.534E-03    -53.3359E-03     103.295E-03    -50.1040E-03     115.731E-03
            1026     11.1275E-03     102.297E-03    -1.62179E+06    -63.2666E+06    -3.67585E+06    -17.5081E+06    -54.8913E-03     105.085E-03    -50.1940E-03     128.070E-03    -55.3131E-03     105.287E-03    -50.1183E-03     127.074E-03
            1027     11.9822E-03     102.416E-03    -5.53636E+06    -60.4352E+06    -15.1734E+06    -17.6376E+06    -57.3414E-03     107.593E-03    -50.2520E-03     142.720E-03    -58.0530E-03     108.115E-03    -50.2322E-03     141.487E-03
            1028     12.8356E-03     102.551E-03    -8.59042E+06    -41.7565E+06    -23.3785E+06    -15.8174E+06    -60.4879E-03     110.894E-03    -50.4061E-03     163.618E-03    -61.7927E-03     112.088E-03    -50.4500E-03     162.053E-03
            1029     13.6867E-03     102.712E-03    -9.96134E+06    -7.68742E+06    -41.6611E+06    -12.7017E+06    -65.6391E-03     116.210E-03    -50.5707E-03     209.541E-03    -68.5185E-03     119.148E-03    -50.7534E-03     207.426E-03
            1030     14.5369E-03     102.941E-03    -10.4601E+06     57.9379E+06    -44.0733E+06    -8.25374E+06    -75.1202E-03     125.912E-03    -50.7921E-03     305.974E-03    -83.7920E-03     134.881E-03    -51.0814E-03     302.930E-03
            1031     15.3902E-03     103.308E-03    -8.45356E+06     129.823E+06     26.0678E+06    -4.14401E+06    -81.6189E-03     132.936E-03    -51.3168E-03     406.902E-03    -103.987E-03     155.659E-03    -51.3624E-03     406.107E-03
            1032     16.2350E-03     103.767E-03    -3.46707E+06     152.936E+06     83.0517E+06    -1.01423E+06    -69.9808E-03     121.783E-03    -51.8025E-03     308.263E-03    -89.8772E-03     141.969E-03    -51.6039E-03     314.132E-03
            1033     855.585E-06     102.651E-03    -1.53218E+06    -61.2375E+06    -1.01580E+06    -4.58658E+06    -50.6624E-03     101.180E-03    -50.5174E-03     10.1122E-03    -50.5807E-03     100.879E-03    -50.4315E-03     10.0311E-03
            1034     1.71116E-03     102.663E-03    -730.694E+03    -61.4174E+06    -920.572E+03    -8.31616E+06    -50.4382E-03     100.967E-03    -50.5290E-03     18.8115E-03    -50.3546E-03     100.666E-03    -50.4435E-03     18.6634E-03
            1035     2.56719E-03     102.683E-03    -694.497E+03    -63.1712E+06     382.684E+03    -11.3512E+06    -50.2356E-03     100.662E-03    -50.4262E-03     28.0519E-03    -50.1550E-03     100.353E-03    -50.3317E-03     27.8433E-03
            1036     3.42336E-03     102.711E-03    -531.239E+03    -66.8134E+06     411.225E+03    -13.5984E+06    -49.9580E-03     100.239E-03    -50.2813E-03     37.5022E-03    -49.8772E-03     99.9181E-03    -50.1816E-03     37.2418E-03
            1037     4.28006E-03     102.747E-03    -178.564E+03    -67.1633E+06    -1.56065E+06    -15.6335E+06    -49.6409E-03     99.7251E-03    -50.0841E-03     47.1852E-03    -49.5633E-03     99.4128E-03    -49.9943E-03     46.8734E-03
            1038     5.13728E-03     102.791E-03     333.095E+03    -67.6145E+06    -527.992E+03    -16.2237E+06    -49.3819E-03     99.2582E-03    -49.8763E-03     57.0234E-03    -49.3142E-03     98.9531E-03    -49.7814E-03     56.6746E-03
            1039     5.99490E-03     102.844E-03     972.427E+03    -67.5826E+06     3.71727E+06    -16.3348E+06    -49.2080E-03     98.8808E-03    -49.6728E-03     67.0237E-03    -49.1598E-03     98.5851E-03    -49.5576E-03     66.6383E-03
            1040     6.85270E-03     102.904E-03     624.275E+03    -69.4845E+06     5.20054E+06    -16.6670E+06    -49.0953E-03     98.5510E-03    -49.4557E-03     77.3150E-03    -49.0710E-03     98.2669E-03    -49.3299E-03     76.8836E-03
            1041     7.71112E-03     102.974E-03     251.470E+03    -74.8535E+06     4.02957E+06    -16.5131E+06    -49.1943E-03     98.4296E-03    -49.2353E-03     87.9858E-03    -49.1948E-03     98.1533E-03    -49.1070E-03     87.5041E-03
            1042     8.56967E-03     103.053E-03     996.215E+03    -68.8163E+06     3.61397E+06    -14.6884E+06    -49.6618E-03     98.6882E-03    -49.0264E-03     99.0656E-03    -49.7142E-03     98.4891E-03    -48.9100E-03     98.5394E-03
            1043     9.42831E-03     103.141E-03     776.050E+03    -67.9173E+06     3.51047E+06    -13.1974E+06    -50.6775E-03     99.5607E-03    -48.8832E-03     110.283E-03    -50.8044E-03     99.4389E-03    -48.7683E-03     109.681E-03
            1044     10.2859E-03     103.238E-03    -748.020E+03    -65.9973E+06    -178.528E+03    -14.7590E+06    -52.3708E-03     101.182E-03    -48.8108E-03     121.694E-03    -52.6109E-03     101.185E-03    -48.7149E-03     120.945E-03
            1045     11.1426E-03     103.348E-03    -2.72952E+06    -62.1067E+06    -3.18488E+06    -13.8987E+06    -54.6842E-03     103.538E-03    -48.8536E-03     133.688E-03    -55.1060E-03     103.739E-03    -48.7755E-03     132.775E-03
            1046     11.9977E-03     103.467E-03    -5.13302E+06    -57.1529E+06    -10.8439E+06    -14.3350E+06    -57.6703E-03     106.667E-03    -48.9970E-03     148.945E-03    -58.3907E-03     107.198E-03    -48.9609E-03     147.781E-03
            1047     12.8504E-03     103.607E-03    -6.10002E+06    -42.2263E+06    -20.5425E+06    -15.3646E+06    -61.5266E-03     110.769E-03    -49.2425E-03     170.164E-03    -62.8360E-03     111.967E-03    -49.2752E-03     168.612E-03
            1048     13.7019E-03     103.769E-03    -7.88333E+06    -11.3354E+06    -36.0498E+06    -12.1789E+06    -67.6512E-03     117.210E-03    -49.5589E-03     214.961E-03    -70.5830E-03     120.179E-03    -49.7113E-03     212.797E-03
            1049     14.5512E-03     104.005E-03    -10.4402E+06     55.4077E+06    -44.6265E+06    -9.44789E+06    -77.8108E-03     127.731E-03    -49.9201E-03     309.330E-03    -86.6221E-03     136.831E-03    -50.2084E-03     306.120E-03
            1050     15.3957E-03     104.369E-03    -9.71933E+06     124.219E+06     20.7901E+06    -6.51298E+06    -84.2438E-03     134.849E-03    -50.6051E-03     408.751E-03    -106.912E-03     157.863E-03    -50.6672E-03     407.737E-03
            1051     16.2539E-03     104.830E-03    -5.89556E+06     149.333E+06     79.4724E+06    -2.81844E+06    -73.3409E-03     124.629E-03    -51.2880E-03     307.658E-03    -93.4707E-03     145.038E-03    -51.0987E-03     313.233E-03
            1052     856.888E-06     103.698E-03     570.025E+03    -50.9018E+06     868.013E+03    -4.46727E+06    -49.0835E-03     98.1191E-03    -49.0355E-03     10.2848E-03    -49.0089E-03     97.8637E-03    -48.9582E-03     10.2089E-03
            1053     1.71390E-03     103.711E-03     388.757E+03    -52.3141E+06     830.940E+03    -8.14150E+06    -48.8841E-03     97.8795E-03    -48.9954E-03     19.2811E-03    -48.8104E-03     97.6188E-03    -48.9159E-03     19.1416E-03
            1054     2.57108E-03     103.730E-03    -217.615E+03    -55.5909E+06    -572.233E+03    -10.6755E+06    -48.5946E-03     97.4565E-03    -48.8619E-03     28.7906E-03    -48.5205E-03     97.1856E-03    -48.7838E-03     28.6009E-03
            1055     3.42877E-03     103.758E-03    -647.976E+03    -59.2111E+06    -1.92367E+06    -13.8312E+06    -48.2504E-03     96.9295E-03    -48.6791E-03     38.5073E-03    -48.1763E-03     96.6481E-03    -48.6019E-03     38.2575E-03
            1056     4.28700E-03     103.792E-03     -925.32E+03    -61.4059E+06    -2.92007E+06    -16.0301E+06    -47.9132E-03     96.3742E-03    -48.4610E-03     48.4408E-03    -47.8431E-03     96.0911E-03    -48.3852E-03     48.1413E-03
            1057     5.14559E-03     103.836E-03    -1.21207E+06    -64.4242E+06    -2.86970E+06    -16.8523E+06    -47.5981E-03     95.8241E-03    -48.2260E-03     58.6132E-03    -47.5354E-03     95.5364E-03    -48.1452E-03     58.2785E-03
            1058     6.00466E-03     103.888E-03    -1.57084E+06    -65.1280E+06    -1.58174E+06    -16.3041E+06    -47.3108E-03     95.2872E-03    -47.9765E-03     69.1271E-03    -47.2650E-03     95.0090E-03    -47.8877E-03     68.7704E-03
            1059     6.86440E-03     103.949E-03    -2.52842E+06    -67.9614E+06     38.1251E+03    -14.7845E+06    -47.1908E-03     94.9168E-03    -47.7260E-03     80.0140E-03    -47.1686E-03     94.6439E-03    -47.6236E-03     79.6407E-03
            1060     7.72443E-03     104.017E-03    -4.07881E+06    -70.8703E+06     409.718E+03    -15.7032E+06    -47.3715E-03     94.8554E-03    -47.4840E-03     91.3380E-03    -47.3832E-03     94.5996E-03    -47.3733E-03     90.9061E-03
            1061     8.58483E-03     104.096E-03    -4.42641E+06    -70.3915E+06    -2.89917E+06    -15.9991E+06    -48.0485E-03     95.3070E-03    -47.2584E-03     103.070E-03    -48.1031E-03     95.1040E-03    -47.1644E-03     102.571E-03
            1062     9.44456E-03     104.184E-03    -2.66874E+06    -67.1700E+06    -443.773E+03    -14.0155E+06    -49.4897E-03     96.6241E-03    -47.1344E-03     115.205E-03    -49.6147E-03     96.5023E-03    -47.0354E-03     114.638E-03
            1063     10.3036E-03     104.285E-03    -3.36645E+06    -64.4669E+06    -800.165E+03    -11.6602E+06    -51.6989E-03     98.8184E-03    -47.1194E-03     127.355E-03    -51.9403E-03     98.8211E-03    -47.0251E-03     126.690E-03
            1064     11.1609E-03     104.395E-03    -7.16886E+06    -62.2601E+06    -6.86946E+06    -10.7237E+06    -54.6237E-03     101.849E-03    -47.2255E-03     139.956E-03    -55.0541E-03     102.053E-03    -47.1592E-03     139.120E-03
            1065     12.0158E-03     104.519E-03    -8.96100E+06    -49.5283E+06    -11.5363E+06    -14.0591E+06    -58.3131E-03     105.790E-03    -47.4767E-03     155.407E-03    -59.0654E-03     106.368E-03    -47.4495E-03     154.267E-03
            1066     12.8694E-03     104.660E-03    -10.7615E+06    -43.9401E+06    -23.1519E+06    -15.3099E+06    -63.2233E-03     111.094E-03    -47.8706E-03     176.826E-03    -64.5773E-03     112.321E-03    -47.9071E-03     175.258E-03
            1067     13.7177E-03     104.831E-03    -12.5787E+06    -12.9486E+06    -29.6083E+06    -12.4295E+06    -70.1723E-03     118.583E-03    -48.4105E-03     221.338E-03    -73.2289E-03     121.635E-03    -48.5215E-03     219.086E-03
            1068     14.5633E-03     105.067E-03    -11.8032E+06     54.8327E+06    -32.2727E+06    -11.4298E+06    -81.0024E-03     130.003E-03    -49.0009E-03     312.917E-03    -90.0408E-03     139.288E-03    -49.2246E-03     309.457E-03
            1069     15.4156E-03     105.436E-03    -10.5071E+06     118.763E+06     22.9620E+06    -9.20565E+06    -88.3172E-03     138.218E-03    -49.9003E-03     406.331E-03    -111.089E-03     161.308E-03    -49.9425E-03     404.704E-03
            1070     16.2529E-03     105.892E-03    -6.10417E+06     144.119E+06     77.8307E+06    -4.33063E+06    -77.2492E-03     128.094E-03    -50.8450E-03     303.990E-03    -97.3820E-03     148.492E-03    -50.6559E-03     308.968E-03
            1071     858.447E-06     104.743E-03     1.12150E+06    -40.9871E+06     278.535E+03    -4.42137E+06    -47.0599E-03     94.2129E-03    -47.1530E-03     10.6231E-03    -46.9959E-03     94.0069E-03    -47.0938E-03     10.5518E-03
            1072     1.71712E-03     104.754E-03     159.429E+03    -44.0769E+06    -498.677E+03    -7.35039E+06    -46.8880E-03     93.9165E-03    -47.0285E-03     19.7390E-03    -46.8250E-03     93.6987E-03    -46.9673E-03     19.6169E-03
            1073     2.57616E-03     104.773E-03    -273.680E+03    -47.6989E+06    -2.21981E+06    -10.5697E+06    -46.5664E-03     93.4413E-03    -46.8749E-03     29.4343E-03    -46.5006E-03     93.2113E-03    -46.8164E-03     29.2566E-03
            1074     3.43569E-03     104.800E-03    -1.28371E+06    -51.4396E+06    -3.23692E+06    -13.3852E+06    -46.1963E-03     92.8735E-03    -46.6773E-03     39.4450E-03    -46.1328E-03     92.6319E-03    -46.6170E-03     39.2156E-03
            1075     4.29546E-03     104.835E-03    -2.80688E+06    -56.0252E+06    -4.54802E+06    -15.3288E+06    -45.7998E-03     92.2431E-03    -46.4434E-03     49.7671E-03    -45.7415E-03     91.9888E-03    -46.3808E-03     49.4957E-03
            1076     5.15594E-03     104.877E-03    -4.62399E+06    -60.7853E+06    -6.25219E+06    -16.0627E+06    -45.3515E-03     91.5256E-03    -46.1741E-03     60.4280E-03    -45.3014E-03     91.2610E-03    -46.1106E-03     60.1282E-03
            1077     6.01715E-03     104.928E-03    -6.76422E+06    -64.3027E+06    -7.90275E+06    -15.0766E+06    -44.9991E-03     90.8771E-03    -45.8780E-03     71.4655E-03    -44.9642E-03     90.6124E-03    -45.8145E-03     71.1556E-03
            1078     6.87898E-03     104.988E-03    -8.52907E+06    -67.5431E+06    -7.63862E+06    -13.3765E+06    -44.9913E-03     90.5839E-03    -45.5926E-03     82.9167E-03    -44.9789E-03     90.3231E-03    -45.5205E-03     82.5977E-03
            1079     7.74098E-03     105.057E-03    -10.2599E+06    -65.8627E+06    -6.08233E+06    -13.3607E+06    -45.4503E-03     90.7952E-03    -45.3449E-03     94.7910E-03    -45.4790E-03     90.5709E-03    -45.2649E-03     94.4288E-03
            1080     8.60271E-03     105.135E-03    -12.5380E+06    -68.1867E+06    -8.14980E+06    -15.6506E+06    -46.4802E-03     91.6361E-03    -45.1559E-03     107.222E-03    -46.5572E-03     91.4499E-03    -45.0796E-03     106.769E-03
            1081     9.46422E-03     105.226E-03    -14.2230E+06    -67.9937E+06    -9.02725E+06    -15.7985E+06    -48.3335E-03     93.4062E-03    -45.0727E-03     120.326E-03    -48.4875E-03     93.2943E-03    -44.9986E-03     119.781E-03
            1082     10.3241E-03     105.327E-03    -13.8314E+06    -69.4067E+06    -7.29176E+06    -11.0818E+06    -51.1923E-03     96.3415E-03    -45.1492E-03     133.118E-03    -51.4574E-03     96.3322E-03    -45.0650E-03     132.499E-03
            1083     11.1818E-03     105.442E-03    -12.0912E+06    -57.3876E+06    -5.74219E+06    -10.0022E+06    -54.9751E-03     100.362E-03    -45.3867E-03     146.193E-03    -55.4343E-03     100.591E-03    -45.3147E-03     145.393E-03
            1084     12.0373E-03     105.569E-03    -11.7988E+06    -42.4946E+06    -6.05607E+06    -13.8717E+06    -59.7068E-03     105.522E-03    -45.8147E-03     161.622E-03    -60.5062E-03     106.146E-03    -45.7662E-03     160.480E-03
            1085     12.8877E-03     105.717E-03    -11.6677E+06    -45.4533E+06    -15.9302E+06    -14.6737E+06    -65.5008E-03     111.926E-03    -46.4248E-03     183.244E-03    -66.9140E-03     113.183E-03    -46.4216E-03     181.638E-03
            1086     13.7364E-03     105.892E-03    -8.05405E+06    -12.0323E+06    -16.0727E+06    -15.4256E+06    -73.1831E-03     120.388E-03    -47.2046E-03     226.591E-03    -76.3275E-03     123.508E-03    -47.2558E-03     224.184E-03
            1087     14.5831E-03     106.134E-03    -4.84187E+06     51.7247E+06    -16.9165E+06    -12.2432E+06    -85.4236E-03     133.489E-03    -48.0655E-03     315.876E-03    -94.6470E-03     142.929E-03    -48.2180E-03     312.050E-03
            1088     15.4167E-03     106.505E-03    -3.85872E+06     117.340E+06     32.1661E+06    -5.34225E+06    -92.9518E-03     142.166E-03    -49.2144E-03     408.134E-03    -115.963E-03     165.487E-03    -49.2181E-03     406.023E-03
            1089     16.2625E-03     106.962E-03    -1.61321E+06     140.672E+06     78.9726E+06    -2.22731E+06    -82.0170E-03     132.410E-03    -50.3929E-03     306.057E-03    -102.338E-03     152.996E-03    -50.1997E-03     310.583E-03
            1090     860.620E-06     105.782E-03     744.844E+03    -31.9981E+06     50.4343E+03    -4.38539E+06    -44.7109E-03     89.4374E-03    -44.7266E-03     10.9122E-03    -44.6614E-03     89.2771E-03    -44.6810E-03     10.8447E-03
            1091     1.72131E-03     105.794E-03     347.710E+03    -35.4531E+06    -1.65175E+06    -7.55190E+06    -44.5027E-03     89.1383E-03    -44.6356E-03     20.1370E-03    -44.4491E-03     88.9644E-03    -44.5930E-03     20.0193E-03
            1092     2.58233E-03     105.812E-03    -434.286E+03    -39.9907E+06    -3.11961E+06    -10.6674E+06    -44.1631E-03     88.6450E-03    -44.4819E-03     30.0476E-03    -44.1070E-03     88.4538E-03    -44.4389E-03     29.8792E-03
            1093     3.44370E-03     105.838E-03    -1.81185E+06    -45.6237E+06    -4.78529E+06    -12.1861E+06    -43.7158E-03     87.9863E-03    -44.2705E-03     40.3797E-03    -43.6592E-03     87.7746E-03    -44.2257E-03     40.1808E-03
            1094     4.30593E-03     105.871E-03    -4.71665E+06    -51.6681E+06    -6.68817E+06    -12.6074E+06    -43.1784E-03     87.1853E-03    -44.0069E-03     51.0582E-03    -43.1294E-03     86.9549E-03    -43.9586E-03     50.8421E-03
            1095     5.16875E-03     105.914E-03    -8.90049E+06    -57.5450E+06    -10.2005E+06    -12.7110E+06    -42.7203E-03     86.4190E-03    -43.6987E-03     62.1014E-03    -42.6852E-03     86.1770E-03    -43.6534E-03     61.8699E-03
            1096     6.03230E-03     105.963E-03    -12.7576E+06    -63.5582E+06    -13.2143E+06    -12.3003E+06    -42.5202E-03     85.9052E-03    -43.3850E-03     73.5583E-03    -42.5012E-03     85.6530E-03    -43.3404E-03     73.3134E-03
            1097     6.89611E-03     106.023E-03    -15.7555E+06    -67.0932E+06    -13.5835E+06    -11.2408E+06    -42.7067E-03     85.8117E-03    -43.1049E-03     85.5709E-03    -42.7125E-03     85.5622E-03    -43.0527E-03     85.3133E-03
            1098     7.76007E-03     106.091E-03    -18.1803E+06    -62.6966E+06    -13.1069E+06    -10.9412E+06    -43.4812E-03     86.3592E-03    -42.8780E-03     98.1531E-03    -43.5315E-03     86.1600E-03    -42.8262E-03     97.8595E-03
            1099     8.62368E-03     106.172E-03    -20.5328E+06    -62.6096E+06    -9.80094E+06    -12.7155E+06    -45.0887E-03     87.8638E-03    -42.7751E-03     111.241E-03    -45.1984E-03     87.7065E-03    -42.7036E-03     110.862E-03
            1100     9.48596E-03     106.263E-03    -22.4931E+06    -67.7479E+06    -10.0954E+06    -14.3130E+06    -47.5872E-03     90.3911E-03    -42.8039E-03     124.977E-03    -47.7692E-03     90.2819E-03    -42.7235E-03     124.486E-03
            1101     10.3468E-03     106.369E-03    -21.2235E+06    -72.6718E+06    -11.6011E+06    -14.3626E+06    -51.1211E-03     94.1200E-03    -42.9989E-03     138.539E-03    -51.4030E-03     94.1024E-03    -42.9208E-03     137.908E-03
            1102     11.2047E-03     106.486E-03    -16.4707E+06    -53.1647E+06    -6.06803E+06    -14.3756E+06    -55.8229E-03     99.2269E-03    -43.4040E-03     152.389E-03    -56.3102E-03     99.4849E-03    -43.3333E-03     151.547E-03
            1103     12.0581E-03     106.620E-03    -11.7505E+06    -38.8777E+06    -1.44000E+06    -14.7795E+06    -61.4439E-03     105.490E-03    -44.0466E-03     168.414E-03    -62.2759E-03     106.147E-03    -43.9803E-03     167.247E-03
            1104     12.9087E-03     106.772E-03     -8.6505E+06    -43.7110E+06    -9.49869E+06    -16.8901E+06    -68.3211E-03     113.210E-03    -44.8891E-03     190.737E-03    -69.7908E-03     114.523E-03    -44.8607E-03     189.036E-03
            1105     13.7535E-03     106.955E-03    -8.16999E+06    -9.20105E+06    -10.0970E+06    -18.2248E+06    -77.6231E-03     123.565E-03    -45.9418E-03     233.617E-03    -80.9238E-03     126.834E-03    -45.9671E-03     230.972E-03
            1106     14.5915E-03     107.202E-03    -10.0574E+06     43.9375E+06    -11.9318E+06    -15.3074E+06    -89.6337E-03     136.737E-03    -47.1036E-03     320.604E-03    -99.0666E-03     146.326E-03    -47.2124E-03     316.436E-03
            1107     15.4381E-03     107.583E-03    -7.65800E+06     108.421E+06     31.3379E+06    -7.71372E+06    -96.7835E-03     145.260E-03    -48.4763E-03     408.817E-03    -119.898E-03     168.642E-03    -48.4657E-03     406.083E-03
            1108     16.2753E-03     108.035E-03    -5.33676E+06     138.744E+06     70.3188E+06    -2.23463E+06    -87.7348E-03     137.629E-03    -49.8940E-03     303.831E-03    -108.048E-03     158.213E-03    -49.7359E-03     307.508E-03
            1109     862.908E-06     106.817E-03     120.729E+03    -22.5439E+06    -696.027E+03    -4.44399E+06    -41.9968E-03     83.8811E-03    -41.8843E-03     11.1494E-03    -41.9631E-03     83.7697E-03    -41.8553E-03     11.0846E-03
            1110     1.72601E-03     106.827E-03    -915.328E+03    -27.0831E+06    -2.90773E+06    -7.68843E+06    -41.6900E-03     83.5405E-03    -41.8505E-03     20.4386E-03    -41.6527E-03     83.4115E-03    -41.8244E-03     20.3258E-03
            1111     2.58945E-03     106.845E-03    -3.15181E+06    -33.7373E+06    -6.30413E+06    -9.52732E+06    -41.2945E-03     82.9692E-03    -41.6747E-03     30.6592E-03    -41.2552E-03     82.8165E-03    -41.6527E-03     30.5161E-03
            1112     3.45353E-03     106.870E-03    -6.88317E+06    -42.2305E+06    -10.5830E+06    -9.74280E+06    -40.7903E-03     82.2252E-03    -41.4349E-03     41.2114E-03    -40.7534E-03     82.0439E-03    -41.4166E-03     41.0587E-03
            1113     4.31814E-03     106.903E-03    -11.4937E+06    -50.1341E+06    -14.5203E+06    -8.34250E+06    -40.2740E-03     81.4224E-03    -41.1484E-03     52.0762E-03    -40.2462E-03     81.2172E-03    -41.1316E-03     51.9338E-03
            1114     5.18363E-03     106.944E-03    -16.6284E+06    -55.1541E+06    -17.6497E+06    -7.44719E+06    -39.9469E-03     80.7889E-03    -40.8420E-03     63.4087E-03    -39.9379E-03     80.5755E-03    -40.8261E-03     63.2673E-03
            1115     6.04931E-03     106.994E-03    -22.1928E+06    -62.5029E+06    -18.2915E+06    -7.29370E+06    -39.9730E-03     80.5416E-03    -40.5685E-03     75.3149E-03    -39.9881E-03     80.3084E-03    -40.5372E-03     75.1604E-03
            1116     6.91539E-03     107.052E-03    -26.5915E+06    -65.2080E+06    -17.7229E+06    -7.81230E+06    -40.4807E-03     80.8248E-03    -40.3441E-03     87.8616E-03    -40.5281E-03     80.5972E-03    -40.2996E-03     87.6772E-03
            1117     7.78126E-03     107.122E-03    -28.2943E+06    -59.9005E+06    -15.2389E+06    -9.15986E+06    -41.7134E-03     81.9159E-03    -40.2026E-03     101.082E-03    -41.8041E-03     81.7374E-03    -40.1509E-03     100.842E-03
            1118     8.64623E-03     107.203E-03    -27.7432E+06    -57.8832E+06    -9.03499E+06    -10.9957E+06    -43.9635E-03     84.1809E-03    -40.2174E-03     114.953E-03    -44.1055E-03     84.0449E-03    -40.1384E-03     114.628E-03
            1119     9.50934E-03     107.298E-03    -25.6989E+06    -64.1839E+06    -7.60799E+06    -13.8270E+06    -47.2525E-03     87.6498E-03    -40.3974E-03     129.400E-03    -47.4499E-03     87.5502E-03    -40.3051E-03     128.942E-03
            1120     10.3700E-03     107.406E-03    -22.2513E+06    -68.4201E+06    -8.91453E+06    -18.2908E+06    -51.4967E-03     92.2610E-03    -40.7643E-03     144.087E-03    -51.7882E-03     92.2567E-03    -40.6774E-03     143.427E-03
            1121     11.2274E-03     107.530E-03    -17.4190E+06    -52.3578E+06    -8.21318E+06    -20.1115E+06    -56.7213E-03     98.0550E-03    -41.3338E-03     159.350E-03    -57.2127E-03     98.3230E-03    -41.2736E-03     158.449E-03
            1122     12.0814E-03     107.669E-03    -13.0597E+06    -37.8485E+06    -4.07411E+06    -19.0735E+06    -63.3394E-03     105.512E-03    -42.1727E-03     176.390E-03    -64.1989E-03     106.203E-03    -42.1192E-03     175.152E-03
            1123     12.9298E-03     107.829E-03    -11.8637E+06    -41.6582E+06    -8.53937E+06    -18.2091E+06    -71.6536E-03     114.930E-03    -43.2766E-03     199.218E-03    -73.2246E-03     116.337E-03    -43.2417E-03     197.406E-03
            1124     13.7726E-03     108.021E-03    -13.6688E+06    -6.81051E+06    -9.79055E+06    -17.2100E+06    -81.9609E-03     126.565E-03    -44.6044E-03     242.754E-03    -85.4412E-03     130.003E-03    -44.6237E-03     239.928E-03
            1125     14.6116E-03     108.280E-03    -13.7513E+06     42.8275E+06    -10.5300E+06    -15.7524E+06    -94.5297E-03     140.599E-03    -46.0698E-03     325.072E-03    -104.168E-03     150.373E-03    -46.1646E-03     320.485E-03
            1126     15.4425E-03     108.651E-03    -12.5113E+06     97.4432E+06     26.1510E+06    -12.2598E+06    -102.624E-03     150.370E-03    -47.7465E-03     410.638E-03    -125.965E-03     173.938E-03    -47.7389E-03     406.926E-03
            1127     16.2718E-03     109.120E-03    -6.05440E+06     130.934E+06     58.6363E+06    -6.73461E+06    -93.5239E-03     142.953E-03    -49.4293E-03     307.433E-03    -113.981E-03     163.684E-03    -49.3172E-03     310.154E-03
            1128     865.666E-06     107.845E-03    -3.76709E+06    -13.6919E+06    -3.87756E+06    -3.69720E+06    -38.7920E-03     77.5499E-03    -38.7578E-03     11.2693E-03    -38.7859E-03     77.4927E-03    -38.7519E-03     11.2174E-03
            1129     1.73148E-03     107.855E-03    -6.60205E+06    -20.4982E+06    -8.08747E+06    -5.80777E+06    -38.4537E-03     77.1242E-03    -38.6705E-03     20.6995E-03    -38.4464E-03     77.0433E-03    -38.6717E-03     20.6171E-03
            1130     2.59784E-03     107.872E-03    -11.0098E+06    -30.2106E+06    -13.8086E+06    -6.08649E+06    -38.0442E-03     76.5152E-03    -38.4710E-03     31.0071E-03    -38.0374E-03     76.4012E-03    -38.4803E-03     30.9178E-03
            1131     3.46459E-03     107.897E-03    -17.1597E+06    -41.7561E+06    -20.2955E+06    -4.50334E+06    -37.6132E-03     75.8393E-03    -38.2261E-03     41.6532E-03    -37.6122E-03     75.6872E-03    -38.2422E-03     41.5807E-03
            1132     4.33210E-03     107.928E-03    -23.5945E+06    -50.3601E+06    -24.7547E+06    -2.89316E+06    -37.2948E-03     75.2616E-03    -37.9667E-03     52.7255E-03    -37.3091E-03     75.0843E-03    -37.9833E-03     52.6688E-03
            1133     5.19974E-03     107.969E-03    -28.9716E+06    -54.6371E+06    -24.8998E+06    -1.82899E+06    -37.1825E-03     74.9092E-03    -37.7267E-03     64.3564E-03    -37.2206E-03     74.7220E-03    -37.7300E-03     64.3059E-03
            1134     6.06808E-03     108.018E-03    -32.3424E+06    -60.9159E+06    -20.6629E+06    -2.00833E+06    -37.5284E-03     75.0745E-03    -37.5461E-03     76.6679E-03    -37.5866E-03     74.8610E-03    -37.5142E-03     76.6026E-03
            1135     6.93599E-03     108.077E-03    -32.9264E+06    -60.4020E+06    -15.7959E+06    -5.04520E+06    -38.5394E-03     75.9739E-03    -37.4345E-03     89.6874E-03    -38.6203E-03     75.7689E-03    -37.3782E-03     89.5614E-03
            1136     7.80330E-03     108.148E-03    -31.8415E+06    -56.9602E+06    -12.2989E+06    -7.95584E+06    -40.3468E-03     77.7761E-03    -37.4294E-03     103.571E-03    -40.4546E-03     77.6041E-03    -37.3621E-03     103.371E-03
            1137     8.66919E-03     108.232E-03    -30.9261E+06    -53.5213E+06    -8.61899E+06    -10.0301E+06    -43.0629E-03     80.6424E-03    -37.5794E-03     118.380E-03    -43.2170E-03     80.5215E-03    -37.5001E-03     118.095E-03
            1138     9.53322E-03     108.329E-03    -29.7096E+06    -56.7639E+06    -8.66777E+06    -14.9785E+06    -46.9123E-03     84.8214E-03    -37.9091E-03     134.075E-03    -47.1288E-03     84.7561E-03    -37.8271E-03     133.628E-03
            1139     10.3940E-03     108.443E-03    -27.3965E+06    -59.4787E+06    -9.44440E+06    -21.8587E+06    -51.7790E-03     90.2295E-03    -38.4505E-03     150.193E-03    -52.1021E-03     90.2718E-03    -38.3717E-03     149.508E-03
            1140     11.2516E-03     108.571E-03    -25.0335E+06    -51.6750E+06    -11.3347E+06    -25.0911E+06    -57.7266E-03     96.9343E-03    -39.2077E-03     166.741E-03    -58.2562E-03     97.2251E-03    -39.1531E-03     165.785E-03
            1141     12.1048E-03     108.719E-03    -23.8365E+06    -39.8429E+06    -10.4077E+06    -21.9626E+06    -65.4775E-03     105.725E-03    -40.2479E-03     185.438E-03    -66.4068E-03     106.460E-03    -40.2076E-03     184.141E-03
            1142     12.9511E-03     108.889E-03    -23.0182E+06    -39.5701E+06    -10.9464E+06    -20.7340E+06    -75.0807E-03     116.692E-03    -41.6114E-03     209.466E-03    -76.7990E-03     118.222E-03    -41.5754E-03     207.520E-03
            1143     13.7912E-03     109.089E-03    -20.1021E+06    -6.45554E+06    -12.7329E+06    -20.1045E+06    -86.3070E-03     129.511E-03    -43.2044E-03     251.935E-03    -89.9516E-03     133.101E-03    -43.2295E-03     248.866E-03
            1144     14.6255E-03     109.355E-03    -17.1620E+06     41.4697E+06    -12.3269E+06    -18.0885E+06    -99.8821E-03     144.845E-03    -44.9632E-03     332.009E-03    -109.695E-03     154.782E-03    -45.0601E-03     326.937E-03
            1145     15.4570E-03     109.739E-03    -11.0478E+06     91.8024E+06     27.7766E+06    -16.4514E+06    -108.199E-03     155.143E-03    -46.9436E-03     416.329E-03    -131.716E-03     178.866E-03    -46.9218E-03     411.794E-03
            1146     16.2923E-03     110.204E-03    -5.51517E+06     120.168E+06     52.5504E+06    -10.6509E+06    -100.456E-03     149.357E-03    -48.9012E-03     313.034E-03    -121.127E-03     170.285E-03    -48.8047E-03     314.807E-03
            1147     868.592E-06     108.866E-03    -11.9377E+06    -8.32276E+06    -11.7811E+06    -1.44600E+06    -35.1980E-03     70.5170E-03    -35.3190E-03     11.2416E-03    -35.2289E-03     70.5098E-03    -35.3485E-03     11.2215E-03
            1148     1.73768E-03     108.876E-03    -15.5974E+06    -17.4744E+06    -16.6327E+06    -1.68978E+06    -34.9731E-03     70.1380E-03    -35.1649E-03     20.6391E-03    -35.0024E-03     70.0971E-03    -35.2001E-03     20.6149E-03
            1149     2.60685E-03     108.893E-03    -21.8187E+06    -30.8292E+06    -22.7765E+06     9.17106E+03    -34.6458E-03     69.6409E-03    -34.9951E-03     30.9113E-03    -34.6782E-03     69.5514E-03    -35.0326E-03     30.9080E-03
            1150     3.47673E-03     108.916E-03    -28.2752E+06    -44.0291E+06    -27.6590E+06     2.47492E+06    -34.4062E-03     69.2133E-03    -34.8071E-03     41.7029E-03    -34.4451E-03     69.0748E-03    -34.8406E-03     41.7300E-03
            1151     4.34659E-03     108.948E-03    -33.9579E+06    -50.9045E+06    -28.6509E+06     3.68885E+06    -34.3443E-03     68.9783E-03    -34.6340E-03     52.9567E-03    -34.4011E-03     68.8162E-03    -34.6542E-03     52.9967E-03
            1152     5.21708E-03     108.987E-03    -37.5918E+06    -54.6135E+06    -25.7828E+06     3.28496E+06    -34.6333E-03     69.1404E-03    -34.5071E-03     64.8534E-03    -34.7093E-03     68.9632E-03    -34.5023E-03     64.8826E-03
            1153     6.08705E-03     109.037E-03    -37.6091E+06    -56.9871E+06    -20.3581E+06     135.945E+03    -35.4412E-03     69.8940E-03    -34.4528E-03     77.5168E-03    -35.5267E-03     69.7023E-03    -34.4174E-03     77.4946E-03
            1154     6.95681E-03     109.097E-03    -35.3874E+06    -54.4426E+06    -15.2169E+06    -4.40746E+06    -36.9009E-03     71.3867E-03    -34.4858E-03     91.1075E-03    -36.9970E-03     71.2077E-03    -34.4316E-03     91.0071E-03
            1155     7.82524E-03     109.170E-03    -33.9465E+06    -54.7514E+06    -13.6547E+06    -6.70392E+06    -39.1513E-03     73.7870E-03    -34.6356E-03     105.791E-03    -39.2627E-03     73.6227E-03    -34.5753E-03     105.627E-03
            1156     8.69220E-03     109.256E-03    -32.5527E+06    -47.8049E+06    -10.7499E+06    -9.28577E+06    -42.2288E-03     77.1649E-03    -34.9361E-03     121.691E-03    -42.3860E-03     77.0679E-03    -34.8733E-03     121.438E-03
            1157     9.55684E-03     109.358E-03    -30.3064E+06    -46.7027E+06    -8.06497E+06    -15.4248E+06    -46.3977E-03     81.8211E-03    -35.4234E-03     138.826E-03    -46.6207E-03     81.7941E-03    -35.3521E-03     138.402E-03
            1158     10.4187E-03     109.476E-03    -28.4918E+06    -48.7966E+06    -7.23297E+06    -22.7768E+06    -51.9111E-03     88.0378E-03    -36.1267E-03     156.253E-03    -52.2501E-03     88.1239E-03    -36.0508E-03     155.581E-03
            1159     11.2762E-03     109.612E-03    -27.9643E+06    -50.7746E+06    -11.1665E+06    -25.1154E+06    -58.9072E-03     95.9783E-03    -37.0711E-03     174.338E-03    -59.4587E-03     96.2835E-03    -37.0128E-03     173.388E-03
            1160     12.1278E-03     109.767E-03    -27.7378E+06    -43.5951E+06    -13.9821E+06    -22.0834E+06    -67.4047E-03     105.705E-03    -38.3004E-03     195.358E-03    -68.3709E-03     106.460E-03    -38.2668E-03     194.042E-03
            1161     12.9744E-03     109.948E-03    -25.9287E+06    -33.0373E+06    -10.3565E+06    -22.5494E+06    -78.0105E-03     117.885E-03    -39.8744E-03     221.908E-03    -79.8310E-03     119.528E-03    -39.8407E-03     219.865E-03
            1162     13.8120E-03     110.161E-03    -22.9916E+06    -7.34354E+06    -10.8503E+06    -25.1854E+06    -90.9091E-03     132.634E-03    -41.7248E-03     264.840E-03    -94.7633E-03     136.414E-03    -41.7351E-03     261.467E-03
            1163     14.6431E-03     110.437E-03    -16.2054E+06     39.3154E+06    -6.49874E+06    -24.9602E+06    -104.727E-03     148.483E-03    -43.7556E-03     342.262E-03    -114.669E-03     158.527E-03    -43.8216E-03     336.708E-03
            1164     15.4729E-03     110.824E-03    -8.57871E+06     86.9552E+06     32.6238E+06    -22.5939E+06    -114.822E-03     160.839E-03    -46.0174E-03     422.517E-03    -138.458E-03     184.662E-03    -45.9679E-03     416.697E-03
            1165     16.2918E-03     111.292E-03    -1.96069E+06     103.802E+06     48.6514E+06    -12.6720E+06    -109.475E-03     157.808E-03    -48.3330E-03     318.474E-03    -130.465E-03     179.021E-03    -48.2374E-03     318.707E-03
            1166     872.112E-06     109.880E-03    -24.1895E+06    -8.03207E+06    -25.2007E+06     942.984E+03    -31.5922E-03     63.1793E-03    -31.5872E-03     11.0176E-03    -31.6652E-03     63.2107E-03    -31.6665E-03     11.0300E-03
            1167     1.74390E-03     109.890E-03    -29.2857E+06    -20.4012E+06    -30.0174E+06     3.89663E+06    -31.4095E-03     62.9311E-03    -31.5216E-03     20.2490E-03    -31.4833E-03     62.9145E-03    -31.5997E-03     20.3000E-03
            1168     2.61645E-03     109.905E-03    -35.1347E+06    -35.6472E+06    -32.1649E+06     7.43525E+06    -31.3096E-03     62.7471E-03    -31.4374E-03     30.5115E-03    -31.3871E-03     62.6657E-03    -31.4956E-03     30.6089E-03
            1169     3.48876E-03     109.929E-03    -39.4322E+06    -46.5461E+06    -32.0642E+06     8.62872E+06    -31.3377E-03     62.7007E-03    -31.3630E-03     41.3271E-03    -31.4209E-03     62.5708E-03    -31.3986E-03     41.4401E-03
            1170     4.36162E-03     109.960E-03    -40.1589E+06    -51.3943E+06    -29.6288E+06     7.56901E+06    -31.6486E-03     62.9640E-03    -31.3154E-03     52.7288E-03    -31.7322E-03     62.8078E-03    -31.3308E-03     52.8268E-03
            1171     5.23385E-03     110.000E-03    -38.1939E+06    -53.2869E+06    -24.0964E+06     5.47256E+06    -32.4174E-03     63.7535E-03    -31.3361E-03     64.9015E-03    -32.4978E-03     63.5785E-03    -31.3240E-03     64.9683E-03
            1172     6.10582E-03     110.050E-03    -35.9515E+06    -50.1753E+06    -18.9866E+06     760.110E+03    -33.6481E-03     65.0813E-03    -31.4333E-03     77.9844E-03    -33.7331E-03     64.9153E-03    -31.4033E-03     77.9812E-03
            1173     6.97666E-03     110.112E-03    -35.0212E+06    -50.6490E+06    -16.7090E+06    -3.13715E+06    -35.4427E-03     67.0675E-03    -31.6248E-03     92.2264E-03    -35.5346E-03     66.9035E-03    -31.5841E-03     92.1564E-03
            1174     7.84657E-03     110.187E-03    -33.7992E+06    -51.3592E+06    -14.4437E+06    -5.66664E+06    -37.9584E-03     69.8948E-03    -31.9364E-03     107.739E-03    -38.0648E-03     69.7406E-03    -31.8851E-03     107.606E-03
            1175     8.71448E-03     110.277E-03    -30.0406E+06    -39.6045E+06    -9.68438E+06    -11.0819E+06    -41.3357E-03     73.7177E-03    -32.3820E-03     124.740E-03    -41.4837E-03     73.6465E-03    -32.3294E-03     124.486E-03
            1176     9.58022E-03     110.383E-03    -25.6014E+06    -38.8400E+06    -5.18019E+06    -16.2846E+06    -45.9196E-03     78.9363E-03    -33.0167E-03     143.154E-03    -46.1229E-03     78.9260E-03    -32.9491E-03     142.743E-03
            1177     10.4425E-03     110.507E-03    -25.1067E+06    -39.7645E+06    -3.16272E+06    -19.4672E+06    -52.0001E-03     85.8700E-03    -33.8700E-03     162.284E-03    -52.3306E-03     85.9799E-03    -33.7917E-03     161.680E-03
            1178     11.2998E-03     110.650E-03    -26.0553E+06    -47.3061E+06    -6.30578E+06    -23.2615E+06    -59.6171E-03     94.5957E-03    -34.9786E-03     182.365E-03    -60.1693E-03     94.9066E-03    -34.9037E-03     181.457E-03
            1179     12.1523E-03     110.815E-03    -22.3249E+06    -45.4260E+06    -8.80092E+06    -24.3267E+06    -68.9193E-03     105.289E-03    -36.3693E-03     205.622E-03    -69.8846E-03     106.040E-03    -36.3151E-03     204.271E-03
            1180     12.9972E-03     111.006E-03    -17.3058E+06    -27.8692E+06    -3.91682E+06    -23.4044E+06    -80.4063E-03     118.505E-03    -38.0985E-03     234.764E-03    -82.2579E-03     120.210E-03    -38.0526E-03     232.662E-03
            1181     13.8354E-03     111.235E-03    -13.8684E+06    -905.776E+03    -1.31971E+06     -25.762E+06    -94.3639E-03     134.502E-03    -40.1382E-03     278.291E-03    -98.3371E-03     138.429E-03    -40.1234E-03     274.738E-03
            1182     14.6651E-03     111.522E-03    -12.6308E+06     41.7012E+06     3.43319E+06    -28.8699E+06    -110.269E-03     152.695E-03    -42.4257E-03     351.244E-03    -120.290E-03     162.812E-03    -42.4507E-03     345.119E-03
            1183     15.4900E-03     111.914E-03    -10.5706E+06     80.9453E+06     36.1068E+06    -26.8058E+06    -123.156E-03     168.167E-03    -45.0113E-03     431.612E-03    -147.018E-03     192.177E-03    -44.9328E-03     424.194E-03
            1184     16.3095E-03     112.406E-03    -7.99539E+06     83.4876E+06     41.2602E+06    -18.0183E+06    -119.648E-03     167.361E-03    -47.7129E-03     328.276E-03    -141.052E-03     188.916E-03    -47.6160E-03     326.611E-03
            1185     874.800E-06     110.887E-03    -42.4826E+06    -15.8875E+06    -39.3018E+06     7.07775E+06    -28.0878E-03     56.0196E-03    -27.9318E-03     10.4892E-03    -28.2203E-03     56.0587E-03    -28.0437E-03     10.5817E-03
            1186     1.75044E-03     110.896E-03    -47.4918E+06    -29.2404E+06    -42.2018E+06     11.1351E+06    -28.0298E-03     56.0401E-03    -28.0103E-03     19.6472E-03    -28.1638E-03     56.0232E-03    -28.1100E-03     19.7935E-03
            1187     2.62537E-03     110.912E-03    -50.3501E+06    -42.0742E+06    -40.9432E+06     13.4327E+06    -28.2351E-03     56.2751E-03    -28.0400E-03     29.7493E-03    -28.3661E-03     56.1959E-03    -28.1107E-03     29.9268E-03
            1188     3.50062E-03     110.935E-03    -49.5410E+06    -46.5203E+06    -37.5848E+06     11.3719E+06    -28.5999E-03     56.6966E-03    -28.0967E-03     40.5168E-03    -28.7248E-03     56.5888E-03    -28.1453E-03     40.6685E-03
            1189     4.37523E-03     110.966E-03    -46.1547E+06    -49.8779E+06    -33.0636E+06     6.93585E+06    -29.3279E-03     57.5301E-03    -28.2022E-03     52.1092E-03    -29.4372E-03     57.3939E-03    -28.2283E-03     52.2035E-03
            1190     5.24963E-03     111.008E-03    -41.3895E+06    -51.1077E+06    -27.8937E+06     3.41320E+06    -30.4307E-03     58.8069E-03    -28.3762E-03     64.5301E-03    -30.5226E-03     58.6509E-03    -28.3815E-03     64.5762E-03
            1191     6.12297E-03     111.060E-03    -37.8348E+06    -44.9557E+06    -22.9378E+06     866.863E+03    -31.9305E-03     60.5510E-03    -28.6205E-03     78.0220E-03    -32.0236E-03     60.4163E-03    -28.6151E-03     78.0284E-03
            1192     6.99553E-03     111.123E-03    -35.2219E+06    -47.0708E+06    -19.0621E+06    -2.53015E+06    -34.0301E-03     62.9971E-03    -28.9670E-03     92.8999E-03    -34.1199E-03     62.8498E-03    -28.9430E-03     92.8487E-03
            1193     7.86631E-03     111.201E-03    -30.6423E+06    -44.7777E+06    -12.9254E+06    -7.88974E+06    -36.7948E-03     66.2227E-03    -29.4279E-03     109.236E-03    -36.8901E-03     66.0876E-03    -29.3831E-03     109.090E-03
            1194     8.73554E-03     111.294E-03    -26.1361E+06    -31.2304E+06    -6.27885E+06    -13.2613E+06    -40.4373E-03     70.4458E-03    -30.0086E-03     127.222E-03    -40.5729E-03     70.3960E-03    -29.9568E-03     126.959E-03
            1195     9.60195E-03     111.404E-03    -24.9469E+06    -34.9785E+06    -4.34105E+06    -15.9036E+06    -45.4156E-03     76.1823E-03    -30.7667E-03     147.050E-03    -45.6095E-03     76.1763E-03    -30.7015E-03     146.668E-03
            1196     10.4647E-03     111.535E-03    -23.6647E+06    -34.2042E+06    -1.54973E+06    -17.4304E+06    -51.7630E-03     83.5002E-03    -31.7373E-03     168.073E-03    -52.0806E-03     83.6174E-03    -31.6611E-03     167.526E-03
            1197     11.3234E-03     111.686E-03    -21.2377E+06    -38.5279E+06     34.0063E+03    -22.0658E+06    -59.8235E-03     92.7899E-03    -32.9664E-03     190.257E-03    -60.3607E-03     93.1157E-03    -32.8796E-03     189.395E-03
            1198     12.1754E-03     111.860E-03    -20.2590E+06    -42.9968E+06    -2.19191E+06    -26.8799E+06    -70.0736E-03     104.562E-03    -34.4883E-03     215.784E-03    -71.0477E-03     105.319E-03    -34.4075E-03     214.408E-03
            1199     13.0212E-03     112.065E-03    -17.1445E+06    -25.3860E+06     128.271E+03    -28.2457E+06    -82.5753E-03     118.921E-03    -36.3458E-03     247.073E-03    -84.4785E-03     120.675E-03    -36.2835E-03     244.869E-03
            1200     13.8578E-03     112.306E-03    -12.7234E+06     4.72720E+06     4.55514E+06    -28.9062E+06    -98.1191E-03     136.682E-03    -38.5632E-03     290.855E-03    -102.204E-03     140.729E-03    -38.5288E-03     287.079E-03
            1201     14.6865E-03     112.609E-03    -8.00955E+06     45.8354E+06     15.1405E+06    -28.4101E+06    -116.821E-03     157.966E-03    -41.1451E-03     359.816E-03    -126.842E-03     168.081E-03    -41.1243E-03     353.076E-03
            1202     15.5045E-03     113.013E-03    -2.77910E+06     76.1641E+06     46.3016E+06    -25.8542E+06    -130.732E-03     174.806E-03    -44.0740E-03     436.611E-03    -154.122E-03     198.325E-03    -43.9489E-03     427.856E-03
            1203     16.3176E-03     113.510E-03     2.33476E+06     64.2117E+06     46.5173E+06    -15.0338E+06    -128.880E-03     176.023E-03    -47.1433E-03     339.313E-03    -150.365E-03     197.615E-03    -47.0072E-03     336.023E-03
            1204     878.315E-06     111.886E-03    -55.4923E+06    -33.9606E+06    -52.5196E+06     12.0248E+06    -24.8509E-03     49.6323E-03    -24.7814E-03     9.87350E-03    -25.0030E-03     49.6192E-03    -24.9143E-03     10.0303E-03
            1205     1.75575E-03     111.895E-03    -52.7489E+06    -40.7114E+06    -45.2925E+06     15.7596E+06    -25.1411E-03     50.0453E-03    -24.9042E-03     18.9807E-03    -25.2799E-03     49.9831E-03    -24.9952E-03     19.1875E-03
            1206     2.63351E-03     111.912E-03    -49.5330E+06    -47.0050E+06    -41.3659E+06     15.6696E+06    -25.6343E-03     50.6849E-03    -25.0506E-03     28.9213E-03    -25.7531E-03     50.5804E-03    -25.1175E-03     29.1288E-03
            1207     3.51057E-03     111.935E-03    -47.2368E+06    -44.6409E+06    -37.9745E+06     12.0668E+06    -26.3690E-03     51.6047E-03    -25.2357E-03     39.6276E-03    -26.4840E-03     51.5032E-03    -25.2923E-03     39.7898E-03
            1208     4.38737E-03     111.968E-03    -45.8125E+06    -45.5705E+06    -34.5269E+06     6.59293E+06    -27.3803E-03     52.8673E-03    -25.4870E-03     51.2474E-03    -27.4912E-03     52.7536E-03    -25.5271E-03     51.3395E-03
            1209     5.26305E-03     112.011E-03    -42.9881E+06    -46.2589E+06    -31.1861E+06     217.691E+03    -28.6714E-03     54.4672E-03    -25.7959E-03     63.8092E-03    -28.7721E-03     54.3413E-03    -25.8224E-03     63.8175E-03
            1210     6.13819E-03     112.064E-03    -36.7826E+06    -43.9170E+06    -25.4781E+06    -2.60186E+06    -30.3870E-03     56.5605E-03    -26.1734E-03     77.6102E-03    -30.4702E-03     56.4308E-03    -26.1838E-03     77.5774E-03
            1211     7.01183E-03     112.130E-03    -30.5559E+06    -41.8002E+06    -18.0071E+06    -4.64925E+06    -32.6755E-03     59.3190E-03    -26.6435E-03     92.9331E-03    -32.7470E-03     59.1858E-03    -26.6286E-03     92.8631E-03
            1212     7.88409E-03     112.211E-03    -27.3929E+06    -36.2574E+06    -11.7086E+06    -10.0665E+06    -35.6429E-03     62.8541E-03    -27.2111E-03     109.963E-03    -35.7295E-03     62.7486E-03    -27.1774E-03     109.801E-03
            1213     8.75404E-03     112.307E-03    -27.0416E+06    -27.6599E+06    -6.24060E+06    -12.3427E+06    -39.5501E-03     67.4535E-03    -27.9035E-03     128.983E-03    -39.6850E-03     67.4125E-03    -27.8554E-03     128.750E-03
            1214     9.62144E-03     112.423E-03    -26.1235E+06    -29.4069E+06    -2.80714E+06    -14.9049E+06    -44.7099E-03     73.4728E-03    -28.7628E-03     150.207E-03    -44.9042E-03     73.4784E-03    -28.6964E-03     149.865E-03
            1215     10.4854E-03     112.560E-03    -21.9397E+06    -28.7865E+06     1.10684E+06    -20.1680E+06    -51.2818E-03     81.0997E-03    -29.8179E-03     172.854E-03    -51.5812E-03     81.2164E-03    -29.7388E-03     172.307E-03
            1216     11.3444E-03     112.719E-03    -17.5282E+06    -32.0812E+06     3.35228E+06    -22.6308E+06    -59.8290E-03     90.9518E-03    -31.1228E-03     197.182E-03    -60.3371E-03     91.2752E-03    -31.0341E-03     196.352E-03
            1217     12.1980E-03     112.905E-03    -14.3728E+06    -34.8621E+06     5.24270E+06    -25.9336E+06    -70.8932E-03     103.639E-03    -32.7455E-03     225.033E-03    -71.8447E-03     104.402E-03    -32.6479E-03     223.697E-03
            1218     13.0428E-03     113.121E-03     -11.424E+06    -21.1058E+06      6.7953E+06    -30.8119E+06    -84.8652E-03     119.589E-03    -34.7242E-03     258.375E-03    -86.7702E-03     121.362E-03    -34.6430E-03     256.106E-03
            1219     13.8794E-03     113.379E-03    -7.82617E+06     5.94329E+06     11.4018E+06    -31.2604E+06    -102.922E-03     140.060E-03    -37.1377E-03     303.835E-03    -107.067E-03     144.169E-03    -37.0779E-03     299.803E-03
            1220     14.7024E-03     113.700E-03    -3.98725E+06     47.8989E+06     25.2456E+06    -30.5335E+06    -123.517E-03     163.516E-03    -39.9996E-03     371.311E-03    -133.487E-03     173.574E-03    -39.9371E-03     363.955E-03
            1221     15.5176E-03     114.118E-03     524.154E+03     67.2565E+06     52.2970E+06    -26.0559E+06    -138.191E-03     181.413E-03    -43.2219E-03     444.545E-03    -161.177E-03     204.491E-03    -43.0587E-03     434.408E-03
            1222     16.3274E-03     114.620E-03     1.26925E+06     43.7076E+06     53.4748E+06    -13.1425E+06    -138.485E-03     185.148E-03    -46.6626E-03     358.171E-03    -160.806E-03     207.481E-03    -46.4604E-03     352.984E-03
            1223     880.056E-06     112.879E-03    -86.9593E+06    -50.9139E+06    -87.4300E+06     5.09657E+06    -22.3887E-03     44.7286E-03    -22.3399E-03     9.26076E-03    -22.6227E-03     44.7272E-03    -22.5771E-03     9.32785E-03
            1224     1.76050E-03     112.889E-03    -73.1465E+06    -49.2577E+06    -71.8853E+06     7.49350E+06    -22.8184E-03     45.2919E-03    -22.4735E-03     17.7541E-03    -23.0082E-03     45.2554E-03    -22.6555E-03     17.8537E-03
            1225     2.63997E-03     112.906E-03    -58.0348E+06    -49.9092E+06    -56.6211E+06     7.14085E+06    -23.4964E-03     46.1956E-03    -22.6992E-03     27.4510E-03    -23.6314E-03     46.1113E-03    -22.8258E-03     27.5478E-03
            1226     3.51903E-03     112.931E-03    -45.0209E+06    -44.1812E+06    -43.8582E+06     6.32182E+06    -24.4639E-03     47.4428E-03    -22.9789E-03     38.1826E-03    -24.5598E-03     47.3490E-03    -23.0688E-03     38.2707E-03
            1227     4.39684E-03     112.965E-03    -35.9172E+06    -40.9922E+06    -35.1851E+06     3.53984E+06    -25.6968E-03     49.0168E-03    -23.3200E-03     49.9057E-03    -25.7635E-03     48.9123E-03    -23.3844E-03     49.9591E-03
            1228     5.27428E-03     113.009E-03    -31.6624E+06    -39.5887E+06    -28.3013E+06    -1.16488E+06    -27.2260E-03     50.9572E-03    -23.7312E-03     62.6275E-03    -27.2832E-03     50.8434E-03    -23.7694E-03     62.6197E-03
            1229     6.15026E-03     113.065E-03    -30.7624E+06    -41.8556E+06    -23.0523E+06    -5.46314E+06    -29.1613E-03     53.3797E-03    -24.2184E-03     76.6217E-03    -29.2193E-03     53.2467E-03    -24.2284E-03     76.5551E-03
            1230     7.02519E-03     113.133E-03    -28.6200E+06    -37.9146E+06    -17.5687E+06    -7.70721E+06    -31.5192E-03     56.2943E-03    -24.7751E-03     92.1289E-03    -31.5842E-03     56.1740E-03    -24.7664E-03     92.0253E-03
            1231     7.89834E-03     113.217E-03    -26.1094E+06    -29.3819E+06    -10.2029E+06    -9.81571E+06    -34.5691E-03     59.9938E-03    -25.4246E-03     109.649E-03    -34.6554E-03     59.9127E-03    -25.3952E-03     109.501E-03
            1232     8.76953E-03     113.317E-03    -22.6898E+06    -26.3673E+06    -2.89210E+06    -11.9477E+06    -38.6766E-03     64.8786E-03    -26.2020E-03     129.540E-03    -38.7859E-03     64.8223E-03    -26.1453E-03     129.329E-03
            1233     9.63767E-03     113.438E-03    -17.9445E+06    -20.8493E+06     3.99301E+06    -15.4172E+06    -43.9454E-03     71.0722E-03    -27.1268E-03     151.819E-03    -44.1029E-03     71.0807E-03    -27.0506E-03     151.496E-03
            1234     10.5024E-03     113.581E-03    -15.4806E+06    -21.3475E+06     7.89919E+06    -20.7020E+06    -50.7914E-03     79.0345E-03    -28.2431E-03     176.000E-03    -51.0521E-03     79.1422E-03    -28.1502E-03     175.482E-03
            1235     11.3626E-03     113.749E-03    -12.3254E+06    -28.0989E+06     9.82342E+06    -24.7921E+06    -59.7593E-03     89.3694E-03    -29.6101E-03     202.392E-03    -60.2186E-03     89.6578E-03    -29.5023E-03     201.581E-03
            1236     12.2160E-03     113.945E-03    -5.39788E+06    -26.6498E+06     14.0741E+06    -29.0025E+06    -71.5616E-03     102.858E-03    -31.2959E-03     232.768E-03    -72.4470E-03     103.590E-03    -31.1791E-03     231.438E-03
            1237     13.0622E-03     114.176E-03     1.44651E+06    -16.0788E+06     17.6200E+06    -31.0930E+06    -87.1113E-03     120.488E-03    -33.3763E-03     268.986E-03    -88.9312E-03     122.208E-03    -33.2670E-03     266.717E-03
            1238     13.8960E-03     114.451E-03     4.03842E+06     4.42276E+06     20.2490E+06    -28.0106E+06    -107.061E-03     142.987E-03    -35.9265E-03     318.062E-03    -111.151E-03     147.053E-03    -35.8375E-03     313.924E-03
            1239     14.7192E-03     114.795E-03    -308.977E+03     52.9494E+06     34.4537E+06    -23.4825E+06    -128.767E-03     167.721E-03    -38.9542E-03     384.979E-03    -138.579E-03     177.624E-03    -38.8582E-03     377.327E-03
            1240     15.5326E-03     115.224E-03    -9.25260E+06     65.7872E+06     50.3087E+06    -24.2654E+06    -146.176E-03     188.563E-03    -42.3869E-03     454.005E-03    -168.863E-03     211.311E-03    -42.2174E-03     442.159E-03
            1241     16.3382E-03     115.740E-03    -9.29593E+06     20.4345E+06     39.5551E+06    -18.8133E+06    -149.003E-03     195.162E-03    -46.1588E-03     376.979E-03    -172.252E-03     218.345E-03    -45.9772E-03     369.005E-03
            1242     881.413E-06     113.869E-03    -102.994E+06    -52.2258E+06    -102.401E+06    -4.16468E+06    -21.1677E-03     42.2247E-03    -21.0570E-03     8.49799E-03    -21.4582E-03     42.2618E-03    -21.3439E-03     8.44471E-03
            1243     1.76221E-03     113.879E-03    -94.7192E+06    -48.9478E+06    -92.5237E+06    -6.61526E+06    -21.5100E-03     42.7094E-03    -21.1994E-03     16.1825E-03    -21.7783E-03     42.7360E-03    -21.4537E-03     16.0982E-03
            1244     2.64319E-03     113.897E-03    -82.5138E+06    -48.4336E+06    -80.4044E+06    -8.73291E+06    -22.0976E-03     43.4938E-03    -21.3962E-03     25.1237E-03    -22.3229E-03     43.4874E-03    -21.6084E-03     25.0131E-03
            1245     3.52352E-03     113.923E-03    -68.4048E+06    -44.0735E+06    -70.9242E+06    -9.35061E+06    -22.9572E-03     44.5882E-03    -21.6310E-03     35.2795E-03    -23.1315E-03     44.5688E-03    -21.8225E-03     35.1627E-03
            1246     4.40349E-03     113.959E-03    -54.3861E+06    -37.7526E+06    -61.6770E+06    -9.63234E+06    -24.1836E-03     46.1174E-03    -21.9338E-03     46.6975E-03    -24.3096E-03     46.0951E-03    -22.1086E-03     46.5786E-03
            1247     5.28181E-03     114.005E-03    -41.7085E+06    -36.8889E+06    -45.4430E+06    -9.51971E+06    -25.8560E-03     48.2256E-03    -22.3696E-03     59.5052E-03    -25.9428E-03     48.1652E-03    -22.4828E-03     59.3885E-03
            1248     6.15901E-03     114.063E-03    -31.6469E+06    -38.2706E+06    -29.2312E+06    -9.47990E+06    -27.9869E-03     50.8973E-03    -22.9104E-03     73.8447E-03    -28.0451E-03     50.7922E-03    -22.9552E-03     73.7271E-03
            1249     7.03433E-03     114.133E-03    -24.8451E+06    -34.5250E+06    -17.5198E+06    -11.5859E+06    -30.5894E-03     54.1159E-03    -23.5265E-03     89.7090E-03    -30.6387E-03     54.0053E-03    -23.5280E-03     89.5587E-03
            1250     7.90836E-03     114.220E-03    -18.5769E+06    -27.7228E+06    -5.44603E+06    -11.8504E+06    -33.8152E-03     58.0604E-03    -24.2453E-03     107.586E-03    -33.8684E-03     57.9652E-03    -24.2054E-03     107.420E-03
            1251     8.77997E-03     114.325E-03    -14.5392E+06    -22.1919E+06     3.67243E+06    -12.7083E+06    -37.9137E-03     62.9862E-03    -25.0725E-03     127.954E-03    -37.9874E-03     62.9191E-03    -25.0009E-03     127.749E-03
            1252     9.64899E-03     114.450E-03    -11.9753E+06    -13.3438E+06     10.4798E+06    -16.8145E+06    -43.2643E-03     69.2966E-03    -26.0323E-03     151.053E-03    -43.3923E-03     69.3047E-03    -25.9432E-03     150.739E-03
            1253     10.5145E-03     114.600E-03    -8.03606E+06    -15.2630E+06     15.7154E+06    -20.0081E+06    -50.3149E-03     77.5045E-03    -27.1896E-03     176.535E-03    -50.5236E-03     77.5856E-03    -27.0772E-03     176.067E-03
            1254     11.3748E-03     114.776E-03    -4.23782E+06    -18.3497E+06     20.2776E+06    -26.2200E+06    -59.5993E-03     88.1964E-03    -28.5971E-03     204.880E-03    -59.9915E-03     88.4508E-03    -28.4629E-03     204.109E-03
            1255     12.2296E-03     114.983E-03    -5.02119E+03    -17.9709E+06     23.0521E+06    -34.3808E+06    -72.1077E-03     102.428E-03    -30.3207E-03     238.033E-03    -72.9060E-03     103.098E-03    -30.1794E-03     236.709E-03
            1256     13.0746E-03     115.229E-03     5.66643E+06    -18.2952E+06     23.9800E+06    -35.0054E+06    -88.6532E-03     121.110E-03    -32.4569E-03     277.624E-03    -90.3358E-03     122.681E-03    -32.3187E-03     275.377E-03
            1257     13.9104E-03     115.523E-03     7.67295E+06    -6.01146E+06     23.3086E+06    -24.4206E+06    -109.378E-03     144.432E-03    -35.0540E-03     329.285E-03    -113.238E-03     148.234E-03    -34.9399E-03     325.237E-03
            1258     14.7335E-03     115.886E-03     3.07886E+06     50.9457E+06     41.6218E+06    -9.61245E+06    -132.788E-03     170.950E-03    -38.1614E-03     394.944E-03    -142.003E-03     180.241E-03    -38.0316E-03     387.354E-03
            1259     15.5459E-03     116.333E-03    -288.940E+03     88.5454E+06     66.4729E+06    -7.78212E+06    -154.632E-03     196.404E-03    -41.7712E-03     464.533E-03    -176.395E-03     218.294E-03    -41.5668E-03     451.381E-03
            1260     16.3381E-03     116.871E-03    -359.616E+03     14.5740E+06     50.4980E+06    -15.5433E+06    -158.143E-03     203.959E-03    -45.8159E-03     398.159E-03    -181.843E-03     227.572E-03    -45.5841E-03     387.808E-03
            1261     881.165E-06     114.858E-03    -76.3726E+06    -42.3550E+06    -74.4705E+06    -6.17025E+06    -21.2458E-03     42.4225E-03    -21.1767E-03     7.60061E-03    -21.4581E-03     42.4300E-03    -21.3769E-03     7.52022E-03
            1262     1.76248E-03     114.868E-03    -75.9858E+06    -40.2562E+06    -70.9722E+06    -10.3088E+06    -21.6154E-03     42.9121E-03    -21.2967E-03     14.4248E-03    -21.8342E-03     42.9240E-03    -21.4830E-03     14.2904E-03
            1263     2.64308E-03     114.887E-03    -75.1643E+06    -39.8930E+06    -69.2017E+06    -15.6172E+06    -22.1320E-03     43.6047E-03    -21.4727E-03     22.2570E-03    -22.3499E-03     43.6148E-03    -21.6519E-03     22.0537E-03
            1264     3.52356E-03     114.914E-03    -72.4619E+06    -38.8899E+06    -70.0327E+06    -19.8405E+06    -22.7965E-03     44.4664E-03    -21.6699E-03     31.0941E-03    -23.0012E-03     44.4789E-03    -21.8586E-03     30.8364E-03
            1265     4.40327E-03     114.950E-03    -67.8157E+06    -33.8275E+06    -67.2417E+06    -21.7347E+06    -23.6830E-03     45.5977E-03    -21.9147E-03     41.3227E-03    -23.8758E-03     45.6246E-03    -22.1035E-03     41.0413E-03
            1266     5.28279E-03     114.998E-03    -60.0317E+06    -34.3843E+06    -56.9765E+06    -22.9188E+06    -24.9980E-03     47.2554E-03    -22.2574E-03     53.3033E-03    -25.1656E-03     47.2530E-03    -22.4054E-03     53.0077E-03
            1267     6.16090E-03     115.058E-03    -47.7551E+06    -36.5481E+06    -45.5862E+06    -23.1883E+06    -26.8930E-03     49.5783E-03    -22.6853E-03     67.2896E-03    -27.0123E-03     49.5305E-03    -22.7909E-03     66.9911E-03
            1268     7.03771E-03     115.132E-03    -33.3627E+06    -31.2648E+06    -29.3258E+06    -22.6778E+06    -29.5400E-03     52.7758E-03    -23.2357E-03     83.4488E-03    -29.6196E-03     52.7111E-03    -23.2887E-03     83.1550E-03
            1269     7.91165E-03     115.221E-03    -20.8910E+06    -29.9912E+06    -9.71775E+06    -20.9015E+06    -33.0084E-03     56.9567E-03    -23.9484E-03     101.890E-03    -33.0605E-03     56.8567E-03    -23.9232E-03     101.611E-03
            1270     8.78364E-03     115.330E-03    -10.4175E+06    -21.3389E+06     6.31622E+06    -16.8925E+06    -37.3176E-03     62.1023E-03    -24.7847E-03     122.714E-03    -37.3667E-03     62.0206E-03    -24.7071E-03     122.467E-03
            1271     9.65293E-03     115.460E-03    -5.24757E+06    -7.90756E+06     18.1295E+06    -15.7682E+06    -42.7706E-03     68.5353E-03    -25.7647E-03     146.283E-03    -42.8635E-03     68.5294E-03    -25.6549E-03     146.007E-03
            1272     10.5182E-03     115.616E-03    -4.93358E+06    -8.98878E+06     23.7226E+06    -19.4611E+06    -49.7886E-03     76.7239E-03    -26.9353E-03     172.641E-03    -49.9604E-03     76.7781E-03    -26.7965E-03     172.226E-03
            1273     11.3796E-03     115.799E-03    -3.31632E+06    -4.01361E+06     29.3587E+06    -27.3333E+06    -59.2336E-03     87.5772E-03    -28.3436E-03     202.876E-03    -59.5768E-03     87.8104E-03    -28.1862E-03     202.169E-03
            1274     12.2335E-03     116.018E-03    -3.34969E+06    -8.98598E+06     29.5519E+06    -34.2746E+06    -72.2127E-03     102.288E-03    -30.0756E-03     238.503E-03    -72.9136E-03     102.862E-03    -29.9100E-03     237.298E-03
            1275     13.0801E-03     116.278E-03    -7.67074E+06    -17.4844E+06     24.4533E+06    -38.0711E+06    -89.1784E-03     121.393E-03    -32.2147E-03     280.927E-03    -90.6977E-03     122.755E-03    -32.0560E-03     278.809E-03
            1276     13.9145E-03     116.590E-03    -5.38129E+06    -25.4766E+06     20.5770E+06    -33.0392E+06    -110.413E-03     145.234E-03    -34.8210E-03     334.278E-03    -113.836E-03     148.492E-03    -34.6734E-03     330.379E-03
            1277     14.7388E-03     116.972E-03     7.97670E+06     22.4619E+06     42.8017E+06    -9.66662E+06    -135.127E-03     173.048E-03    -37.9205E-03     402.131E-03    -143.267E-03     181.176E-03    -37.7506E-03     394.797E-03
            1278     15.5477E-03     117.443E-03     15.9373E+06     102.976E+06     82.0190E+06     6.16554E+06    -159.147E-03     200.622E-03    -41.4751E-03     479.249E-03    -178.976E-03     220.641E-03    -41.2374E-03     465.897E-03
            1279     16.3507E-03     118.007E-03     11.8755E+06     31.9586E+06     80.5852E+06     3.93928E+06    -165.239E-03     210.824E-03    -45.5850E-03     423.681E-03    -188.914E-03     234.433E-03    -45.2457E-03     411.773E-03
            1280     880.313E-06     115.848E-03    -48.3081E+06    -31.7041E+06    -46.8527E+06    -4.57530E+06    -22.6942E-03     45.3788E-03    -22.6847E-03     6.31289E-03    -22.8219E-03     45.3587E-03    -22.8029E-03     6.25140E-03
            1281     1.76002E-03     115.859E-03    -47.1333E+06    -29.6986E+06    -43.9166E+06    -8.96763E+06    -23.1596E-03     45.9501E-03    -22.7904E-03     11.9767E-03    -23.2892E-03     45.9339E-03    -22.8986E-03     11.8563E-03
            1282     2.63959E-03     115.878E-03    -45.2897E+06    -27.7996E+06    -37.8178E+06    -14.0172E+06    -23.7778E-03     46.8057E-03    -23.0279E-03     18.4843E-03    -23.9104E-03     46.7880E-03    -23.1110E-03     18.2961E-03
            1283     3.51832E-03     115.905E-03    -44.6173E+06    -29.1738E+06    -34.4856E+06    -19.2477E+06    -24.4667E-03     47.7713E-03    -23.3047E-03     25.7390E-03    -24.5996E-03     47.7417E-03    -23.3701E-03     25.4809E-03
            1284     4.39695E-03     115.943E-03    -44.8119E+06    -27.4301E+06    -34.4323E+06    -22.3449E+06    -25.1590E-03     48.7397E-03    -23.5808E-03     34.1957E-03    -25.2963E-03     48.7199E-03    -23.6482E-03     33.8959E-03
            1285     5.27477E-03     115.991E-03    -45.4762E+06    -26.3629E+06    -34.1210E+06    -25.9192E+06    -26.0109E-03     49.8840E-03    -23.8730E-03     44.2344E-03    -26.1545E-03     49.8708E-03    -23.9395E-03     43.8877E-03
            1286     6.15238E-03     116.052E-03    -45.6091E+06    -30.8865E+06    -35.2216E+06    -30.5088E+06    -27.2365E-03     51.4337E-03    -24.1972E-03     56.3006E-03    -27.3732E-03     51.4004E-03    -24.2624E-03     55.8948E-03
            1287     7.02880E-03     116.128E-03    -43.4317E+06    -28.3543E+06    -31.5988E+06    -32.6414E+06    -29.1000E-03     53.6946E-03    -24.5946E-03     71.2234E-03    -29.2351E-03     53.6661E-03    -24.6485E-03     70.7910E-03
            1288     7.90421E-03     116.221E-03    -36.4159E+06    -29.6093E+06    -19.3157E+06    -32.6492E+06    -32.0779E-03     57.2237E-03    -25.1458E-03     89.1940E-03    -32.1955E-03     57.1629E-03    -25.1466E-03     88.7599E-03
            1289     8.77634E-03     116.333E-03    -23.2146E+06    -24.5778E+06    -5.03453E+06    -31.6729E+06    -36.3446E-03     62.1973E-03    -25.8527E-03     110.393E-03    -36.4307E-03     62.1285E-03    -25.8085E-03     109.962E-03
            1290     9.64488E-03     116.469E-03    -7.94387E+06    -14.4666E+06     12.0947E+06    -22.9057E+06    -41.8938E-03     68.6526E-03    -26.7588E-03     134.721E-03    -41.9618E-03     68.6064E-03    -26.6658E-03     134.377E-03
            1291     10.5103E-03     116.629E-03     143.556E+03    -2.32209E+06     29.6901E+06    -17.0527E+06    -49.0786E-03     76.9776E-03    -27.8989E-03     161.901E-03    -49.1980E-03     77.0036E-03    -27.7473E-03     161.568E-03
            1292     11.3705E-03     116.821E-03    -3.46340E+06     8.42652E+06     36.4983E+06    -20.7183E+06    -58.6108E-03     87.8876E-03    -29.2768E-03     193.242E-03    -58.8893E-03     88.0787E-03    -29.1015E-03     192.714E-03
            1293     12.2253E-03     117.049E-03    -12.2124E+06     2.07253E+06     34.5891E+06    -26.1648E+06    -71.4720E-03     102.454E-03    -30.9820E-03     230.654E-03    -72.0552E-03     102.903E-03    -30.7944E-03     229.726E-03
            1294     13.0701E-03     117.322E-03    -16.1431E+06    -3.53078E+06     33.2958E+06    -34.7868E+06    -88.1948E-03     121.280E-03    -33.0853E-03     275.403E-03    -89.4284E-03     122.350E-03    -32.8903E-03     273.633E-03
            1295     13.9067E-03     117.651E-03    -14.7218E+06    -32.6256E+06     26.8670E+06    -41.3217E+06    -109.031E-03     144.647E-03    -35.6160E-03     331.683E-03    -111.773E-03     147.146E-03    -35.4130E-03     328.216E-03
            1296     14.7302E-03     118.051E-03    -5.12648E+06    -20.4171E+06     38.2365E+06    -37.3984E+06    -134.378E-03     172.965E-03    -38.5869E-03     402.353E-03    -141.150E-03     179.540E-03    -38.3587E-03     395.351E-03
            1297     15.5497E-03     118.541E-03     12.0469E+06     59.7687E+06     56.4936E+06    -4.69429E+06    -158.550E-03     200.420E-03    -41.8697E-03     477.498E-03    -175.040E-03     217.004E-03    -41.6913E-03     464.782E-03
            1298     16.3536E-03     119.131E-03     12.2478E+06     43.1780E+06     63.1649E+06     22.5135E+06    -164.374E-03     210.109E-03    -45.7344E-03     440.214E-03    -187.020E-03     232.781E-03    -45.4989E-03     427.317E-03
            1299     877.377E-06     116.842E-03    -21.1926E+06    -22.8513E+06    -20.8129E+06    -3.78631E+06    -25.9144E-03     51.7297E-03    -25.8153E-03     4.79467E-03    -25.9577E-03     51.6765E-03    -25.8555E-03     4.74079E-03
            1300     1.75479E-03     116.854E-03    -21.1747E+06    -19.6605E+06    -17.4883E+06    -7.95403E+06    -26.4341E-03     52.4328E-03    -25.9986E-03     8.95856E-03    -26.4876E-03     52.3905E-03    -26.0269E-03     8.84634E-03
            1301     2.63137E-03     116.873E-03    -20.4392E+06    -17.6863E+06    -11.7268E+06    -12.0530E+06    -27.1477E-03     53.4454E-03    -26.2977E-03     13.6957E-03    -27.2097E-03     53.4044E-03    -26.3010E-03     13.5252E-03
            1302     3.50747E-03     116.902E-03    -19.4843E+06    -19.2581E+06    -6.51633E+06    -15.4893E+06    -27.9988E-03     54.6626E-03    -26.6638E-03     18.8822E-03    -28.0627E-03     54.6062E-03    -26.6402E-03     18.6612E-03
            1303     4.38244E-03     116.940E-03    -19.0913E+06    -20.3598E+06    -6.72624E+06    -18.4852E+06    -28.8326E-03     55.8738E-03    -27.0412E-03     24.9604E-03    -28.8946E-03     55.8133E-03    -27.0176E-03     24.6947E-03
            1304     5.25715E-03     116.989E-03    -18.8304E+06    -16.5311E+06    -5.51461E+06    -21.6631E+06    -29.5689E-03     56.9960E-03    -27.4271E-03     32.4468E-03    -29.6392E-03     56.9547E-03    -27.4034E-03     32.1349E-03
            1305     6.13094E-03     117.050E-03    -19.6994E+06    -21.3532E+06    -2.46004E+06    -25.5567E+06    -30.3647E-03     58.1993E-03    -27.8346E-03     41.6031E-03    -30.4393E-03     58.1331E-03    -27.7874E-03     41.2368E-03
            1306     7.00462E-03     117.127E-03    -22.3969E+06    -22.2666E+06    -4.07141E+06    -28.8036E+06    -31.3685E-03     59.5921E-03    -28.2235E-03     53.3299E-03    -31.4552E-03     59.5297E-03    -28.1791E-03     52.9203E-03
            1307     7.87725E-03     117.221E-03    -24.5135E+06    -21.4889E+06    -5.88034E+06    -33.9226E+06    -32.9866E-03     61.6297E-03    -28.6431E-03     68.5258E-03    -33.0839E-03     61.5787E-03    -28.6058E-03     68.0515E-03
            1308     8.74884E-03     117.336E-03    -26.0385E+06    -22.1015E+06    -5.58268E+06    -37.8446E+06    -35.8001E-03     64.9618E-03    -29.1616E-03     87.7914E-03    -35.9061E-03     64.9116E-03    -29.1197E-03     87.2682E-03
            1309     9.61824E-03     117.475E-03    -22.8326E+06    -24.4762E+06    -251.617E+03    -36.3394E+06    -40.3905E-03     70.2498E-03    -29.8593E-03     111.426E-03    -40.4900E-03     70.1815E-03    -29.7920E-03     110.917E-03
            1310     10.4828E-03     117.642E-03    -12.8935E+06    -11.6170E+06     15.1641E+06    -25.2014E+06    -47.1810E-03     77.9900E-03    -30.8090E-03     139.167E-03    -47.2919E-03     77.9700E-03    -30.6976E-03     138.775E-03
            1311     11.3423E-03     117.840E-03    -5.94375E+06     10.9880E+06     36.2812E+06    -14.0089E+06    -56.6581E-03     88.7411E-03    -32.0830E-03     171.688E-03    -56.8573E-03     88.8537E-03    -31.9089E-03     171.355E-03
            1312     12.1942E-03     118.076E-03    -4.08609E+06     15.4512E+06     51.0747E+06    -15.0069E+06    -69.4391E-03     103.172E-03    -33.7332E-03     210.212E-03    -69.8203E-03     103.446E-03    -33.4943E-03     209.644E-03
            1313     13.0403E-03     118.361E-03    -3.75196E+06     15.4505E+06     55.3799E+06    -24.2730E+06    -84.9039E-03     120.643E-03    -35.7390E-03     255.017E-03    -85.6953E-03     121.316E-03    -35.4791E-03     253.812E-03
            1314     13.8759E-03     118.702E-03    -7.03337E+06    -18.0217E+06     46.1562E+06    -32.9479E+06    -104.559E-03     142.692E-03    -38.1338E-03     309.945E-03    -106.400E-03     144.312E-03    -37.8667E-03     307.361E-03
            1315     14.7069E-03     119.115E-03    -18.4421E+06    -20.9152E+06     38.1608E+06    -41.6310E+06    -131.453E-03     172.465E-03    -41.0114E-03     376.030E-03    -136.379E-03     177.141E-03    -40.7635E-03     370.136E-03
            1316     15.5139E-03     119.626E-03    -33.6234E+06    -6.81509E+06     9.92313E+06    -35.1511E+06    -151.559E-03     195.722E-03    -44.1637E-03     442.555E-03    -162.991E-03     206.983E-03    -44.0554E-03     432.093E-03
            1317     16.3181E-03     120.213E-03    -30.2611E+06    -1.93221E+06     10.1405E+06    -9.07090E+06    -144.477E-03     191.787E-03    -47.3103E-03     447.041E-03    -163.116E-03     210.292E-03    -47.2129E-03     436.572E-03
            1318     873.332E-06     117.844E-03     337.190E+03    -14.6686E+06     1.53028E+06    -3.94151E+06    -31.1609E-03     62.1854E-03    -31.0245E-03     2.79687E-03    -31.1417E-03     62.1084E-03    -30.9961E-03     2.73790E-03
            1319     1.74582E-03     117.857E-03     1.23666E+06    -11.9831E+06     5.63380E+06    -6.03466E+06    -31.8122E-03     63.0958E-03    -31.2835E-03     5.25906E-03    -31.7994E-03     63.0249E-03    -31.2398E-03     5.16481E-03
            1320     2.61779E-03     117.878E-03     1.39195E+06    -9.55930E+06     10.5694E+06    -8.79807E+06    -32.7134E-03     64.3880E-03    -31.6746E-03     7.80444E-03    -32.7115E-03     64.3227E-03    -31.6099E-03     7.66516E-03
            1321     3.48871E-03     117.907E-03     2.14343E+06    -11.2731E+06     15.0908E+06    -12.1414E+06    -33.7389E-03     65.8955E-03    -32.1566E-03     10.5652E-03    -33.7388E-03     65.8153E-03    -32.0679E-03     10.3721E-03
            1322     4.35874E-03     117.947E-03     3.67191E+06    -12.8012E+06     17.6071E+06    -15.3548E+06    -34.7993E-03     67.4848E-03    -32.6854E-03     13.9426E-03    -34.7953E-03     67.3930E-03    -32.5842E-03     13.6961E-03
            1323     5.22740E-03     117.996E-03     3.25180E+06    -10.9377E+06     18.4712E+06    -16.6341E+06    -35.7448E-03     68.9802E-03    -33.2355E-03     18.3664E-03    -35.7498E-03     68.8996E-03    -33.1320E-03     18.0917E-03
            1324     6.09557E-03     118.058E-03     815.801E+03    -12.3763E+06     20.2313E+06    -18.1972E+06    -36.6013E-03     70.4114E-03    -33.8100E-03     24.0761E-03    -36.6228E-03     70.3277E-03    -33.6921E-03     23.7699E-03
            1325     6.96232E-03     118.134E-03     587.295E+03    -13.5415E+06     19.3537E+06    -23.0974E+06    -37.3608E-03     71.7312E-03    -34.3704E-03     31.7156E-03    -37.3846E-03     71.6469E-03    -34.2548E-03     31.3372E-03
            1326     7.82874E-03     118.228E-03    -435.825E+03    -12.1479E+06     18.0408E+06    -26.2477E+06    -38.0261E-03     72.9464E-03    -34.9202E-03     42.1717E-03    -38.0594E-03     72.8759E-03    -34.8118E-03     41.7486E-03
            1327     8.69471E-03     118.342E-03    -4.91401E+06    -14.7980E+06     16.9888E+06    -28.2216E+06    -39.1093E-03     74.6014E-03    -35.4920E-03     56.0952E-03    -39.1629E-03     74.5288E-03    -35.3785E-03     55.6475E-03
            1328     9.55931E-03     118.483E-03    -12.9184E+06    -20.7423E+06     12.7528E+06    -30.5363E+06    -41.3784E-03     77.5029E-03    -36.1245E-03     74.5723E-03    -41.4597E-03     77.4212E-03    -36.0119E-03     74.0995E-03
            1329     10.4222E-03     118.651E-03    -17.7614E+06    -22.4089E+06     10.9109E+06    -30.8464E+06    -45.5907E-03     82.4985E-03    -36.9079E-03     98.3707E-03    -45.6946E-03     82.4227E-03    -36.7951E-03     97.8965E-03
            1330     11.2808E-03     118.855E-03    -8.83299E+06    -2.77716E+06     32.2398E+06    -22.8333E+06    -52.8440E-03     90.8540E-03    -38.0100E-03     128.528E-03    -52.9778E-03     90.8490E-03    -37.8320E-03     128.140E-03
            1331     12.1330E-03     119.100E-03     4.12084E+06     17.3178E+06     63.5924E+06    -13.2583E+06    -63.7787E-03     103.295E-03    -39.5160E-03     165.792E-03    -63.9779E-03     103.384E-03    -39.2291E-03     165.445E-03
            1332     12.9735E-03     119.393E-03     4.45497E+06     29.0148E+06     73.3787E+06    -11.3475E+06    -77.8671E-03     119.240E-03    -41.3728E-03     207.688E-03    -78.2770E-03     119.553E-03    -41.0544E-03     207.092E-03
            1333     13.8099E-03     119.738E-03    -7.16326E+06     5.24385E+06     57.2654E+06    -14.5117E+06    -98.4070E-03     142.132E-03    -43.7249E-03     256.446E-03    -99.4217E-03     142.969E-03    -43.4358E-03     254.928E-03
            1334     14.6250E-03     120.164E-03    -15.6320E+06    -769.259E+03     50.6528E+06    -20.7496E+06    -125.251E-03     172.081E-03    -46.8292E-03     313.851E-03    -127.994E-03     174.611E-03    -46.5522E-03     310.006E-03
            1335     15.4274E-03     120.686E-03    -18.7516E+06    -10.8074E+06     48.6257E+06    -17.6185E+06    -130.663E-03     180.815E-03    -50.1513E-03     364.630E-03    -136.375E-03     186.271E-03    -49.8653E-03     358.591E-03
            1336     16.2491E-03     121.244E-03    -15.3361E+06    -27.7023E+06       19.48E+06    -16.6377E+06    -89.0810E-03     140.797E-03    -51.7155E-03     408.525E-03    -98.8601E-03     150.393E-03    -51.5557E-03     404.247E-03
            1337     866.393E-06     118.859E-03     21.3200E+06    -7.25729E+06     23.0508E+06    -2.45754E+06    -38.8891E-03     77.5826E-03    -38.6935E-03     933.950E-06    -38.8084E-03     77.4794E-03    -38.5987E-03     890.512E-06
            1338     1.73269E-03     118.873E-03     21.3238E+06    -6.55366E+06     24.1609E+06    -4.95263E+06    -39.8415E-03     78.9115E-03    -39.0699E-03     799.291E-06    -39.7646E-03     78.8095E-03    -38.9705E-03     711.544E-06
            1339     2.59764E-03     118.895E-03     22.4345E+06    -4.72484E+06     28.4978E+06    -5.74599E+06    -40.7763E-03     80.3707E-03    -39.5944E-03     642.929E-06    -40.7032E-03     80.2705E-03    -39.4776E-03     531.627E-06
            1340     3.46138E-03     118.926E-03     22.6696E+06    -3.47206E+06     34.7794E+06    -8.22266E+06    -41.9026E-03     82.0984E-03    -40.1958E-03     946.213E-06    -41.8402E-03     81.9957E-03    -40.0497E-03     787.984E-06
            1341     4.32373E-03     118.967E-03     21.9069E+06    -6.45825E+06     36.8345E+06    -11.2548E+06    -43.2710E-03     84.1437E-03    -40.8726E-03     1.56713E-03    -43.2126E-03     84.0250E-03    -40.7108E-03     1.35266E-03
            1342     5.18476E-03     119.018E-03     20.9283E+06    -8.94229E+06     34.0960E+06    -11.1324E+06    -44.7307E-03     86.3483E-03    -41.6177E-03     2.60785E-03    -44.6716E-03     86.2238E-03    -41.4646E-03     2.37609E-03
            1343     6.04372E-03     119.080E-03     20.8314E+06    -5.13700E+06     34.0045E+06    -12.5911E+06    -46.0499E-03     88.4877E-03    -42.4378E-03     4.43236E-03    -45.9995E-03     88.3841E-03    -42.2905E-03     4.16247E-03
            1344     6.90149E-03     119.157E-03     18.3600E+06    -3.75117E+06     37.6608E+06    -16.5833E+06    -47.1935E-03     90.5282E-03    -43.3346E-03     7.27014E-03    -47.1666E-03     90.4318E-03    -43.1675E-03     6.92893E-03
            1345     7.75745E-03     119.250E-03     13.8917E+06    -8.77477E+06     36.3113E+06    -17.7342E+06    -48.1415E-03     92.4022E-03    -44.2608E-03     11.5254E-03    -48.1323E-03     92.2915E-03    -44.0866E-03     11.1508E-03
            1346     8.61166E-03     119.364E-03     9.82401E+06    -8.10061E+06     35.2997E+06    -17.8455E+06    -48.7784E-03     93.9952E-03    -45.2168E-03     17.9427E-03    -48.7946E-03     93.8979E-03    -45.0428E-03     17.5527E-03
            1347     9.46473E-03     119.500E-03     7.22534E+06    -14.7888E+06     34.1625E+06    -17.9352E+06    -49.3183E-03     95.5400E-03    -46.2217E-03     27.3786E-03    -49.3421E-03     95.4180E-03    -46.0399E-03     26.9782E-03
            1348     10.3156E-03     119.668E-03     5.17429E+06    -15.2683E+06     35.0878E+06    -21.4337E+06    -50.4061E-03     97.7107E-03    -47.3047E-03     41.0694E-03    -50.4468E-03     97.5917E-03    -47.1146E-03     40.6205E-03
            1349     11.1643E-03     119.869E-03     2.35930E+06    -11.6922E+06     39.6944E+06    -25.3827E+06    -52.9993E-03     101.555E-03    -48.5556E-03     60.8925E-03    -53.0712E-03     101.456E-03    -48.3436E-03     60.3980E-03
            1350     12.0079E-03     120.116E-03     2.59445E+06     1.79876E+06     59.5368E+06    -18.0074E+06    -57.9138E-03     108.032E-03    -50.1177E-03     87.6053E-03    -58.0409E-03     107.977E-03    -49.8264E-03     87.2125E-03
            1351     12.8487E-03     120.411E-03     5.03616E+06     22.6386E+06     74.6125E+06    -2.56274E+06    -67.1727E-03     119.219E-03    -52.0468E-03     119.582E-03    -67.3830E-03     119.289E-03    -51.7139E-03     119.322E-03
            1352     13.6703E-03     120.764E-03     9.82760E+06     21.8198E+06     73.2447E+06     5.99226E+06    -85.9202E-03     140.562E-03    -54.6414E-03     160.671E-03    -86.3056E-03     140.825E-03    -54.3210E-03     160.133E-03
            1353     14.4740E-03     121.197E-03     13.4270E+06     16.5306E+06     88.3449E+06     5.90881E+06    -104.888E-03     163.012E-03    -58.1238E-03     210.652E-03    -105.834E-03     163.787E-03    -57.7255E-03     209.159E-03
            1354     15.2587E-03     121.711E-03     28.0628E+06     2.33294E+06     96.4316E+06     6.26510E+06    -91.6619E-03     152.884E-03    -61.2218E-03     250.999E-03    -93.3082E-03     154.352E-03    -60.7837E-03     248.943E-03
            1355     16.0813E-03     122.201E-03     25.5988E+06    -7.29287E+06     57.6993E+06     6.89521E+06    -23.7539E-03     85.2182E-03    -61.4644E-03     262.267E-03    -25.9150E-03     87.2261E-03    -61.2024E-03     261.761E-03
            1356     858.338E-06     119.893E-03     42.2852E+06    -2.25050E+06     41.7810E+06    -1.64634E+06    -49.7804E-03     99.4669E-03    -49.6864E-03    -2.70934E-03    -49.6328E-03     99.3273E-03    -49.5356E-03    -2.74435E-03
            1357     1.71417E-03     119.909E-03     40.8481E+06    -2.00559E+06     43.0281E+06    -3.00939E+06    -50.3451E-03     100.316E-03    -49.9712E-03    -4.90273E-03    -50.2062E-03     100.179E-03    -49.8124E-03    -4.96651E-03
            1358     2.56960E-03     119.932E-03     39.9530E+06    -2.71765E+06     44.0517E+06    -3.72702E+06    -51.3681E-03     101.790E-03    -50.4216E-03    -7.13368E-03    -51.2341E-03     101.648E-03    -50.2553E-03    -7.21869E-03
            1359     3.42422E-03     119.964E-03     38.8180E+06     1.28914E+06     44.2372E+06    -3.75973E+06    -52.7865E-03     103.834E-03    -51.0480E-03    -9.34687E-03    -52.6645E-03     103.713E-03    -50.8850E-03    -9.44604E-03
            1360     4.27697E-03     120.007E-03     35.7629E+06    -1.94467E+06     45.2271E+06    -4.45363E+06    -54.6954E-03     106.584E-03    -51.8890E-03    -11.7865E-03    -54.5858E-03     106.449E-03    -51.7119E-03    -11.9108E-03
            1361     5.12709E-03     120.060E-03     32.6129E+06    -6.52007E+06     42.5431E+06    -6.08806E+06    -56.8947E-03     109.809E-03    -52.9139E-03    -14.5051E-03    -56.7908E-03     109.658E-03    -52.7391E-03    -14.6696E-03
            1362     5.97476E-03     120.125E-03     29.6588E+06     166.975E+03     42.0006E+06    -8.11973E+06    -59.1621E-03     113.277E-03    -54.1148E-03    -17.3863E-03    -59.0827E-03     113.163E-03    -53.9480E-03    -17.5985E-03
            1363     6.81940E-03     120.203E-03     25.6517E+06    -386.693E+03     47.5016E+06    -6.92548E+06    -61.5192E-03     117.051E-03    -55.5317E-03    -20.5961E-03    -61.4683E-03     116.930E-03    -55.3308E-03    -20.8174E-03
            1364     7.66051E-03     120.298E-03     20.9451E+06    -2.58326E+06     51.0248E+06    -7.97757E+06    -63.7292E-03     120.846E-03    -57.1172E-03    -24.1415E-03    -63.7053E-03     120.712E-03    -56.8887E-03    -24.4051E-03
            1365     8.49810E-03     120.410E-03     16.3020E+06    -6.63436E+06     49.9273E+06    -8.38853E+06    -65.3316E-03     124.175E-03    -58.8431E-03    -27.6032E-03    -65.3253E-03     124.024E-03    -58.6075E-03    -27.9029E-03
            1366     9.33152E-03     120.546E-03     13.4392E+06    -5.98109E+06     51.2187E+06    -11.5918E+06    -65.9998E-03     126.712E-03    -60.7122E-03    -30.4027E-03    -66.0135E-03     126.561E-03    -60.4669E-03    -30.7749E-03
            1367     10.1617E-03     120.707E-03     9.64781E+06    -11.8652E+06     49.1455E+06    -12.2193E+06    -65.8132E-03     128.533E-03    -62.7199E-03    -31.6755E-03    -65.8380E-03     128.354E-03    -62.4709E-03    -32.0857E-03
            1368     10.9868E-03     120.905E-03     5.62962E+06    -2.40254E+06     49.1826E+06    -16.5983E+06    -64.7675E-03     129.669E-03    -64.9012E-03    -30.5061E-03    -64.8310E-03     129.534E-03    -64.6600E-03    -30.9989E-03
            1369     11.8083E-03     121.139E-03    -2.90587E+06    -12.6164E+06     48.6757E+06    -13.1728E+06    -62.9666E-03     130.333E-03    -67.3665E-03    -26.2587E-03    -63.0625E-03     130.150E-03    -67.1007E-03    -26.7205E-03
            1370     12.6187E-03     121.426E-03    -2.28956E+06     725.532E+03     48.9648E+06    -9.24972E+06    -62.1964E-03     132.381E-03    -70.1844E-03    -16.5849E-03    -62.3184E-03     132.255E-03    -69.9373E-03    -16.9882E-03
            1371     13.4246E-03     121.771E-03     3.48471E+06     9.69421E+06     62.6398E+06     957.317E+03    -64.7577E-03     138.415E-03    -73.6574E-03     9.02391E-03    -64.9131E-03     138.337E-03    -73.3633E-03     8.74333E-03
            1372     14.2008E-03     122.206E-03     10.2275E+06     10.5385E+06     90.8773E+06     10.6227E+06    -58.8167E-03     136.182E-03    -77.3651E-03     56.4084E-03    -59.0508E-03     136.163E-03    -76.9408E-03     56.1715E-03
            1373     14.9951E-03     122.679E-03     3.09821E+06     15.4608E+06     65.3277E+06    -3.66923E+06    -27.4840E-03     106.966E-03    -79.4822E-03     99.3958E-03    -27.7870E-03     107.107E-03    -79.1825E-03     99.0118E-03
            1374     15.8466E-03     123.135E-03     3.36833E+06    -5.83201E+06     23.9253E+06     6.27256E+06     21.4383E-03     57.5318E-03    -78.9701E-03     84.1013E-03     21.3165E-03     57.5438E-03    -78.8469E-03     84.0629E-03
            1375     16.1965E-03     61.5167E-03    -4.35572E+06     151.287E+06     103.692E+06     573.321E+03    -67.6050E-03     121.955E-03    -54.3501E-03     309.089E-03    -87.4604E-03     142.032E-03    -54.0447E-03     314.764E-03
            1376     15.3450E-03     61.0389E-03    -10.2785E+06     137.185E+06     89.7933E+06     1.31198E+06    -78.4266E-03     132.774E-03    -54.3473E-03     401.846E-03    -100.755E-03     155.292E-03    -54.0824E-03     400.961E-03
            1377     14.4964E-03     60.6816E-03    -15.3309E+06     102.229E+06     42.9894E+06     826.050E+03    -69.5598E-03     123.764E-03    -54.2047E-03     290.019E-03    -78.2138E-03     132.602E-03    -54.1157E-03     287.243E-03
            1378     13.6402E-03     60.4530E-03    -18.8910E+06     69.8161E+06    -782.149E+03    -481.040E+03    -61.0721E-03     115.138E-03    -54.0663E-03     189.664E-03    -64.0597E-03     118.309E-03    -54.1441E-03     187.726E-03
            1379     12.7883E-03     60.2990E-03    -20.3877E+06     26.8201E+06    -16.1309E+06     673.007E+03    -57.9574E-03     112.031E-03    -54.0734E-03     140.179E-03    -59.3944E-03     113.537E-03    -54.1633E-03     138.752E-03
            1380     11.9355E-03     60.1715E-03    -21.1636E+06    -26.3000E+06    -20.2814E+06     1.68088E+06    -57.1608E-03     111.305E-03    -54.1447E-03     120.748E-03    -58.0059E-03     112.041E-03    -54.1773E-03     119.631E-03
            1381     11.0830E-03     60.0576E-03    -20.8692E+06    -64.3365E+06    -20.7365E+06    -441.131E+03    -56.8637E-03     111.069E-03    -54.2053E-03     108.356E-03    -57.3924E-03     111.355E-03    -54.1854E-03     107.412E-03
            1382     10.2304E-03     59.9542E-03    -19.9436E+06    -84.4122E+06    -13.0167E+06    -498.117E+03    -56.5030E-03     110.778E-03    -54.2754E-03     99.2604E-03    -56.8476E-03     110.790E-03    -54.1892E-03     98.4808E-03
            1383     9.37763E-03     59.8589E-03    -20.9190E+06    -98.3521E+06    -5.06848E+06     2.10695E+06    -56.1794E-03     110.523E-03    -54.3436E-03     91.3778E-03    -56.4108E-03     110.346E-03    -54.1960E-03     90.7679E-03
            1384     8.52513E-03     59.7712E-03    -22.7521E+06    -105.344E+06    -4.99751E+06     2.18903E+06    -55.9006E-03     110.266E-03    -54.3652E-03     83.4614E-03    -56.0521E-03     109.977E-03    -54.2044E-03     82.9673E-03
            1385     7.67263E-03     59.6915E-03    -24.4393E+06    -110.834E+06    -4.87181E+06     45.6809E+03    -55.6272E-03     110.012E-03    -54.3846E-03     75.6189E-03    -55.7218E-03     109.640E-03    -54.2128E-03     75.1943E-03
            1386     6.82010E-03     59.6195E-03    -27.0420E+06    -114.299E+06    -6.97069E+06    -823.782E+03    -55.3360E-03     109.730E-03    -54.3936E-03     67.7353E-03    -55.3936E-03     109.306E-03    -54.2235E-03     67.3817E-03
            1387     5.96736E-03     59.5558E-03    -29.8025E+06    -119.387E+06    -11.5626E+06     80.4856E+03    -55.0812E-03     109.478E-03    -54.3972E-03     59.6318E-03    -55.1077E-03     109.009E-03    -54.2387E-03     59.3586E-03
            1388     5.11478E-03     59.5001E-03    -32.4803E+06    -129.202E+06    -15.9692E+06     302.020E+03    -54.9138E-03     109.322E-03    -54.4083E-03     51.3108E-03    -54.9107E-03     108.791E-03    -54.2537E-03     51.0972E-03
            1389     4.26226E-03     59.4527E-03    -35.1412E+06    -137.017E+06    -21.7052E+06     189.665E+03    -54.7704E-03     109.175E-03    -54.4048E-03     42.9320E-03    -54.7449E-03     108.601E-03    -54.2637E-03     42.7653E-03
            1390     3.40985E-03     59.4137E-03    -37.4136E+06    -144.590E+06    -27.8120E+06     356.325E+03    -54.6249E-03     109.020E-03    -54.3953E-03     34.4816E-03    -54.5794E-03     108.409E-03    -54.2705E-03     34.3587E-03
            1391     2.55735E-03     59.3833E-03    -39.2853E+06    -149.174E+06    -33.8536E+06     312.272E+03    -54.5103E-03     108.891E-03    -54.3808E-03     25.9903E-03    -54.4507E-03     108.261E-03    -54.2768E-03     25.9031E-03
            1392     1.70489E-03     59.3615E-03    -40.7742E+06    -154.366E+06    -38.2654E+06     162.790E+03    -54.4435E-03     108.814E-03    -54.3708E-03     17.5041E-03    -54.3722E-03     108.161E-03    -54.2792E-03     17.4466E-03
            1393     852.404E-06     59.3479E-03    -41.8684E+06    -156.449E+06    -41.1738E+06     191.390E+03    -54.3663E-03     108.744E-03    -54.3773E-03     9.46382E-03    -54.2901E-03     108.084E-03    -54.2956E-03     9.43504E-03
            1394     16.2014E-03     60.4579E-03    -5.49763E+06     150.969E+06     104.233E+06    -146.917E+03    -67.6343E-03     122.017E-03    -54.3831E-03     307.080E-03    -87.4608E-03     142.058E-03    -54.0728E-03     312.805E-03
            1395     15.3501E-03     59.9859E-03    -10.7038E+06     134.602E+06     91.9383E+06     110.759E+03    -78.2269E-03     132.607E-03    -54.3805E-03     400.795E-03    -100.484E-03     155.037E-03    -54.1004E-03     399.933E-03
            1396     14.4903E-03     59.6238E-03    -13.5874E+06     101.840E+06     47.5791E+06     1.00573E+06    -69.8527E-03     124.088E-03    -54.2355E-03     289.833E-03    -78.5015E-03     132.912E-03    -54.1256E-03     287.045E-03
            1397     13.6421E-03     59.3951E-03    -15.8882E+06     71.2840E+06     668.120E+03     2.31315E+06    -61.3828E-03     115.439E-03    -54.0559E-03     188.703E-03    -64.3645E-03     118.615E-03    -54.1329E-03     186.780E-03
            1398     12.7888E-03     59.2439E-03    -18.2310E+06     26.4150E+06    -17.5805E+06     1.95514E+06    -57.6883E-03     111.737E-03    -54.0487E-03     140.318E-03    -59.1081E-03     113.237E-03    -54.1484E-03     138.918E-03
            1399     11.9354E-03     59.1147E-03    -16.9273E+06    -24.9934E+06    -18.4447E+06     253.892E+03    -57.1745E-03     111.316E-03    -54.1414E-03     121.331E-03    -58.0053E-03     112.051E-03    -54.1728E-03     120.194E-03
            1400     11.0830E-03     59.0009E-03    -15.5649E+06    -63.2414E+06    -15.7046E+06     197.430E+03    -56.8431E-03     111.063E-03    -54.2195E-03     108.337E-03    -57.3533E-03     111.339E-03    -54.1837E-03     107.403E-03
            1401     10.2303E-03     58.8980E-03    -18.5242E+06    -86.7961E+06    -9.49688E+06     1.50585E+06    -56.4399E-03     110.737E-03    -54.2973E-03     99.3136E-03    -56.7783E-03     110.729E-03    -54.1920E-03     98.5617E-03
            1402     9.37776E-03     58.8022E-03    -21.4256E+06    -99.5564E+06    -4.18742E+06     2.29179E+06    -56.2239E-03     110.579E-03    -54.3547E-03     91.4270E-03    -56.4575E-03     110.395E-03    -54.2002E-03     90.8192E-03
            1403     8.52520E-03     58.7149E-03    -22.4502E+06    -102.719E+06    -5.22619E+06     1.45305E+06    -55.9262E-03     110.287E-03    -54.3609E-03     83.4521E-03    -56.0797E-03     110.011E-03    -54.2055E-03     82.9485E-03
            1404     7.67253E-03     58.6349E-03    -24.0028E+06    -108.957E+06    -6.45393E+06     138.505E+03    -55.6110E-03     109.985E-03    -54.3742E-03     75.6680E-03    -55.7036E-03     109.625E-03    -54.2137E-03     75.2457E-03
            1405     6.81987E-03     58.5633E-03    -26.7219E+06    -115.049E+06    -7.02518E+06     93.2806E+03    -55.3581E-03     109.753E-03    -54.3948E-03     67.6529E-03    -55.4129E-03     109.325E-03    -54.2243E-03     67.3110E-03
            1406     5.96734E-03     58.4992E-03    -29.7122E+06    -119.567E+06    -10.8169E+06    -17.0413E+03    -55.1413E-03     109.537E-03    -54.3954E-03     59.4808E-03    -55.1683E-03     109.065E-03    -54.2330E-03     59.2054E-03
            1407     5.11488E-03     58.4436E-03    -31.9536E+06    -129.099E+06    -14.8116E+06    -195.477E+03    -54.9606E-03     109.358E-03    -54.3970E-03     51.1852E-03    -54.9569E-03     108.825E-03    -54.2375E-03     50.9642E-03
            1408     4.26246E-03     58.3961E-03    -34.1661E+06    -137.172E+06    -19.9942E+06    -106.034E+03    -54.7724E-03     109.160E-03    -54.3878E-03     42.8533E-03    -54.7443E-03     108.582E-03    -54.2394E-03     42.6823E-03
            1409     3.40993E-03     58.3573E-03    -36.5361E+06    -144.711E+06    -26.3609E+06    -29.0704E+03    -54.6032E-03     108.977E-03    -54.3740E-03     34.4401E-03    -54.5552E-03     108.362E-03    -54.2430E-03     34.3121E-03
            1410     2.55738E-03     58.3268E-03    -38.6047E+06    -149.127E+06    -32.5252E+06     211.127E+03    -54.4994E-03     108.855E-03    -54.3552E-03     25.9808E-03    -54.4384E-03     108.222E-03    -54.2456E-03     25.8922E-03
            1411     1.70500E-03     58.3049E-03    -40.4812E+06    -154.107E+06    -37.2535E+06     315.465E+03    -54.4294E-03     108.763E-03    -54.3338E-03     17.4827E-03    -54.3585E-03     108.110E-03    -54.2379E-03     17.4273E-03
            1412     852.594E-06     58.2916E-03    -41.7510E+06    -156.078E+06    -40.7411E+06     138.266E+03    -54.3690E-03     108.648E-03    -54.2788E-03     9.44398E-03    -54.2935E-03     107.989E-03    -54.1957E-03     9.41443E-03
            1413     16.2001E-03     59.3986E-03    -6.66056E+06     150.575E+06     103.376E+06    -566.197E+03    -67.3769E-03     121.722E-03    -54.3447E-03     306.397E-03    -87.1788E-03     141.735E-03    -54.0365E-03     312.210E-03
            1414     15.3431E-03     58.9303E-03    -10.5751E+06     134.086E+06     91.5594E+06    -1.61243E+06    -77.9305E-03     132.277E-03    -54.3467E-03     400.129E-03    -100.156E-03     154.676E-03    -54.0680E-03     399.360E-03
            1415     14.4971E-03     58.5659E-03    -15.3871E+06     99.8672E+06     46.9464E+06    -53.2713E+03    -69.6519E-03     123.867E-03    -54.2148E-03     289.867E-03    -78.2702E-03     132.649E-03    -54.1026E-03     287.059E-03
            1416     13.6414E-03     58.3395E-03    -17.7152E+06     68.9591E+06     112.442E+03     2.40123E+06    -60.7123E-03     114.778E-03    -54.0653E-03     189.299E-03    -63.6813E-03     117.928E-03    -54.1390E-03     187.417E-03
            1417     12.7878E-03     58.1878E-03    -16.7661E+06     29.4491E+06    -16.6095E+06     1.93251E+06    -57.9168E-03     111.989E-03    -54.0717E-03     141.396E-03    -59.3442E-03     113.509E-03    -54.1732E-03     139.989E-03
            1418     11.9356E-03     58.0579E-03    -17.9381E+06    -23.8175E+06    -18.5011E+06     197.289E+03    -57.3662E-03     111.522E-03    -54.1559E-03     121.719E-03    -58.2047E-03     112.266E-03    -54.1879E-03     120.578E-03
            1419     11.0829E-03     57.9445E-03    -20.6559E+06    -65.6449E+06    -18.3901E+06     1.27473E+06    -56.8050E-03     111.033E-03    -54.2278E-03     108.394E-03    -57.3315E-03     111.306E-03    -54.1946E-03     107.476E-03
            1420     10.2302E-03     57.8416E-03    -20.5964E+06    -86.5721E+06    -12.4354E+06     2.11622E+06    -56.5423E-03     110.836E-03    -54.2936E-03     99.4145E-03    -56.8874E-03     110.837E-03    -54.2004E-03     98.6694E-03
            1421     9.37755E-03     57.7456E-03    -19.2745E+06    -98.9892E+06    -5.22444E+06     950.994E+03    -56.3012E-03     110.648E-03    -54.3471E-03     91.4220E-03    -56.5234E-03     110.466E-03    -54.2017E-03     90.7962E-03
            1422     8.52512E-03     57.6582E-03    -19.5392E+06    -102.157E+06    -2.51832E+06     1.05312E+06    -55.9735E-03     110.339E-03    -54.3654E-03     83.2561E-03    -56.1174E-03     110.058E-03    -54.2015E-03     82.7459E-03
            1423     7.67253E-03     57.5786E-03    -22.0365E+06    -108.066E+06    -3.26935E+06     1.44084E+06    -55.6675E-03     110.043E-03    -54.3753E-03     75.3935E-03    -55.7565E-03     109.679E-03    -54.2030E-03     74.9861E-03
            1424     6.82009E-03     57.5065E-03    -25.0422E+06    -114.549E+06    -4.14749E+06     611.219E+03    -55.4067E-03     109.793E-03    -54.3866E-03     67.4284E-03    -55.4581E-03     109.361E-03    -54.2049E-03     67.0919E-03
            1425     5.96763E-03     57.4428E-03    -27.5237E+06    -119.103E+06    -7.81454E+06    -29.5610E+03    -55.1621E-03     109.541E-03    -54.3793E-03     59.3486E-03    -55.1833E-03     109.065E-03    -54.2057E-03     59.0722E-03
            1426     5.11511E-03     57.3870E-03    -30.5957E+06    -129.011E+06    -13.6864E+06    -324.217E+03    -54.9267E-03     109.297E-03    -54.3706E-03     51.1624E-03    -54.9179E-03     108.762E-03    -54.2076E-03     50.9401E-03
            1427     4.26252E-03     57.3398E-03    -33.7307E+06    -137.464E+06    -19.5178E+06    -330.659E+03    -54.7410E-03     109.102E-03    -54.3612E-03     42.8435E-03    -54.7109E-03     108.521E-03    -54.2106E-03     42.6700E-03
            1428     3.41002E-03     57.3008E-03    -36.5693E+06    -144.948E+06    -25.8216E+06    -54.0501E+03    -54.5990E-03     108.944E-03    -54.3451E-03     34.4100E-03    -54.5516E-03     108.327E-03    -54.2110E-03     34.2818E-03
            1429     2.55759E-03     57.2704E-03    -39.0394E+06    -149.295E+06    -32.8527E+06     73.7165E+03    -54.4593E-03     108.779E-03    -54.3194E-03     25.9803E-03    -54.3998E-03     108.146E-03    -54.2106E-03     25.8900E-03
            1430     1.70499E-03     57.2484E-03    -40.4577E+06    -153.837E+06    -37.7725E+06     86.0352E+03    -54.3711E-03     108.675E-03    -54.3044E-03     17.4952E-03    -54.2997E-03     108.024E-03    -54.2115E-03     17.4369E-03
            1431     852.432E-06     57.2353E-03    -41.2543E+06    -155.817E+06    -40.4382E+06    -24.6770E+03    -54.3673E-03     108.614E-03    -54.2463E-03     9.45211E-03    -54.2900E-03     107.955E-03    -54.1627E-03     9.42024E-03
            1432     16.2018E-03     58.3482E-03    -4.34238E+06     152.466E+06     104.749E+06    -94.0664E+03    -67.5796E-03     121.899E-03    -54.3192E-03     305.412E-03    -87.3841E-03     141.925E-03    -54.0103E-03     311.104E-03
            1433     15.3523E-03     57.8739E-03    -11.0814E+06     134.966E+06     85.9927E+06    -569.430E+03    -77.6588E-03     131.955E-03    -54.2963E-03     401.541E-03    -99.9556E-03     154.442E-03    -54.0460E-03     400.772E-03
            1434     14.4927E-03     57.5108E-03    -17.8010E+06     97.5398E+06     38.7518E+06     47.2113E+03    -69.0014E-03     123.203E-03    -54.2015E-03     292.084E-03    -77.6240E-03     131.996E-03    -54.1233E-03     289.350E-03
            1435     13.6396E-03     57.2838E-03    -18.6372E+06     68.3768E+06    -1.32061E+06    -917.648E+03    -60.9155E-03     115.025E-03    -54.1096E-03     190.297E-03    -63.9008E-03     118.191E-03    -54.1884E-03     188.363E-03
            1436     12.7874E-03     57.1301E-03    -15.9970E+06     28.1977E+06    -15.1920E+06    -484.440E+03    -58.3998E-03     112.511E-03    -54.1113E-03     141.024E-03    -59.8284E-03     114.027E-03    -54.2049E-03     139.566E-03
            1437     11.9351E-03     57.0014E-03    -14.9655E+06    -25.3588E+06    -14.0482E+06     3.51146E+06    -57.4856E-03     111.672E-03    -54.1864E-03     120.850E-03    -58.3131E-03     112.397E-03    -54.1982E-03     119.747E-03
            1438     11.0824E-03     56.8882E-03    -16.1534E+06    -64.1680E+06    -13.5235E+06     3.54677E+06    -56.8954E-03     111.140E-03    -54.2444E-03     107.975E-03    -57.4090E-03     111.408E-03    -54.1956E-03     107.084E-03
            1439     10.2301E-03     56.7847E-03    -17.1622E+06    -85.0091E+06    -9.09762E+06     824.817E+03    -56.6714E-03     110.965E-03    -54.2938E-03     99.0120E-03    -57.0075E-03     110.965E-03    -54.1912E-03     98.2457E-03
            1440     9.37788E-03     56.6892E-03    -18.4676E+06    -98.3943E+06    -2.48723E+06     203.007E+03    -56.3208E-03     110.661E-03    -54.3404E-03     90.9960E-03    -56.5443E-03     110.477E-03    -54.1834E-03     90.3579E-03
            1441     8.52528E-03     56.6016E-03    -20.7157E+06    -103.733E+06    -423.139E+03     967.649E+03    -55.9769E-03     110.333E-03    -54.3565E-03     83.0302E-03    -56.1274E-03     110.043E-03    -54.1781E-03     82.5179E-03
            1442     7.67298E-03     56.5220E-03    -22.6419E+06    -107.490E+06    -25.4926E+03     1.72218E+06    -55.6798E-03     110.043E-03    -54.3629E-03     75.2406E-03    -55.7776E-03     109.679E-03    -54.1743E-03     74.8359E-03
            1443     6.82039E-03     56.4502E-03    -24.8434E+06    -112.411E+06    -3.97052E+06     623.506E+03    -55.3633E-03     109.716E-03    -54.3530E-03     67.4877E-03    -55.4169E-03     109.294E-03    -54.1739E-03     67.1523E-03
            1444     5.96778E-03     56.3862E-03    -27.6130E+06    -119.395E+06    -8.92015E+06    -214.391E+03    -55.1117E-03     109.458E-03    -54.3459E-03     59.4181E-03    -55.1312E-03     108.981E-03    -54.1773E-03     59.1402E-03
            1445     5.11519E-03     56.3307E-03    -30.3258E+06    -128.833E+06    -13.7149E+06     156.512E+03    -54.9064E-03     109.249E-03    -54.3428E-03     51.1680E-03    -54.8964E-03     108.714E-03    -54.1806E-03     50.9523E-03
            1446     4.26265E-03     56.2833E-03    -33.3912E+06    -137.551E+06    -20.0548E+06     65.1831E+03    -54.7297E-03     109.059E-03    -54.3291E-03     42.8201E-03    -54.6970E-03     108.477E-03    -54.1816E-03     42.6519E-03
            1447     3.41018E-03     56.2445E-03    -36.3145E+06    -145.160E+06    -26.0309E+06     49.3882E+03    -54.5729E-03     108.886E-03    -54.3130E-03     34.3884E-03    -54.5236E-03     108.268E-03    -54.1800E-03     34.2616E-03
            1448     2.55758E-03     56.2140E-03    -38.5525E+06    -149.132E+06     -32.708E+06     70.0651E+03    -54.4317E-03     108.719E-03    -54.2873E-03     25.9439E-03    -54.3701E-03     108.086E-03    -54.1787E-03     25.8537E-03
            1449     1.70505E-03     56.1923E-03    -40.2579E+06    -153.756E+06    -37.9293E+06    -84.2308E+03    -54.3399E-03     108.611E-03    -54.2708E-03     17.4725E-03    -54.2674E-03     107.960E-03    -54.1792E-03     17.4121E-03
            1450     852.597E-06     56.1787E-03    -41.2808E+06    -155.950E+06    -40.7134E+06    -102.714E+03    -54.2585E-03     108.548E-03    -54.2892E-03     9.34694E-03    -54.1808E-03     107.889E-03    -54.2067E-03     9.31443E-03
            1451     16.2008E-03     57.2852E-03    -5.23207E+06     151.985E+06     103.699E+06    -562.670E+03    -66.5449E-03     120.935E-03    -54.3906E-03     309.309E-03    -86.6012E-03     141.212E-03    -54.0849E-03     315.305E-03
            1452     15.3440E-03     56.8192E-03    -12.5673E+06     134.464E+06     86.7161E+06     1.64111E+06    -78.1673E-03     132.579E-03    -54.4117E-03     403.160E-03    -100.581E-03     155.174E-03    -54.1549E-03     402.458E-03
            1453     14.4928E-03     56.4550E-03    -16.3398E+06     100.073E+06     42.9003E+06     183.897E+03    -70.1518E-03     124.445E-03    -54.2928E-03     292.319E-03    -78.8356E-03     133.301E-03    -54.1998E-03     289.503E-03
            1454     13.6402E-03     56.2264E-03    -17.8033E+06     70.1954E+06     307.158E+03    -2.89010E+06    -61.8304E-03     115.959E-03    -54.1283E-03     189.091E-03    -64.8285E-03     119.142E-03    -54.2027E-03     187.081E-03
            1455     12.7880E-03     56.0730E-03    -19.5061E+06     23.4474E+06    -18.0086E+06    -1.58803E+06    -58.4057E-03     112.493E-03    -54.0874E-03     139.945E-03    -59.8358E-03     113.989E-03    -54.1832E-03     138.473E-03
            1456     11.9356E-03     55.9446E-03    -19.2647E+06    -29.3906E+06    -15.2179E+06     1.67971E+06    -57.3788E-03     111.547E-03    -54.1678E-03     120.121E-03    -58.2179E-03     112.257E-03    -54.1733E-03     118.996E-03
            1457     11.0833E-03     55.8317E-03    -17.1638E+06    -61.1204E+06    -10.9744E+06     2.74689E+06    -56.9316E-03     111.158E-03    -54.2265E-03     107.768E-03    -57.4586E-03     111.439E-03    -54.1678E-03     106.864E-03
            1458     10.2309E-03     55.7278E-03    -17.3343E+06    -82.7357E+06    -5.68351E+06     1.49433E+06    -56.6145E-03     110.892E-03    -54.2772E-03     98.9376E-03    -56.9594E-03     110.898E-03    -54.1605E-03     98.1809E-03
            1459     9.37823E-03     55.6328E-03    -19.5916E+06    -98.8279E+06    -1.48047E+06     890.540E+03    -56.2702E-03     110.588E-03    -54.3182E-03     90.9908E-03    -56.4999E-03     110.402E-03    -54.1539E-03     90.3626E-03
            1460     8.52575E-03     55.5451E-03    -21.3475E+06    -103.927E+06    -3.66051E+06     748.283E+03    -55.9256E-03     110.240E-03    -54.3144E-03     83.2045E-03    -56.0739E-03     109.954E-03    -54.1511E-03     82.6916E-03
            1461     7.67302E-03     55.4656E-03    -22.7881E+06    -107.964E+06    -2.27314E+06     705.243E+03    -55.6228E-03     109.952E-03    -54.3296E-03     75.3839E-03    -55.7169E-03     109.589E-03    -54.1514E-03     74.9679E-03
            1462     6.82047E-03     55.3938E-03    -25.1197E+06    -110.767E+06    -4.30733E+06     1.05451E+06    -55.3416E-03     109.670E-03    -54.3288E-03     67.5268E-03    -55.3984E-03     109.257E-03    -54.1533E-03     67.1975E-03
            1463     5.96784E-03     55.3299E-03    -28.3644E+06    -118.877E+06    -10.3473E+06     246.435E+03    -55.1003E-03     109.418E-03    -54.3176E-03     59.4191E-03    -55.1220E-03     108.947E-03    -54.1559E-03     59.1477E-03
            1464     5.11534E-03     55.2742E-03    -31.3734E+06    -129.420E+06    -14.6210E+06    -20.4567E+03    -54.9033E-03     109.219E-03    -54.3162E-03     51.1361E-03    -54.8964E-03     108.684E-03    -54.1562E-03     50.9181E-03
            1465     4.26283E-03     55.2270E-03    -33.8288E+06    -137.091E+06    -20.5501E+06     255.170E+03    -54.7025E-03     109.003E-03    -54.3000E-03     42.8138E-03    -54.6719E-03     108.425E-03    -54.1549E-03     42.6483E-03
            1466     3.41021E-03     55.1881E-03    -36.1853E+06    -145.239E+06    -26.5113E+06     3.08067E+03    -54.5455E-03     108.829E-03    -54.2840E-03     34.3897E-03    -54.4947E-03     108.211E-03    -54.1534E-03     34.2626E-03
            1467     2.55770E-03     55.1578E-03    -38.3525E+06    -149.063E+06    -32.2299E+06     47.2350E+03    -54.4216E-03     108.681E-03    -54.2598E-03     25.9081E-03    -54.3597E-03     108.048E-03    -54.1492E-03     25.8179E-03
            1468     1.70518E-03     55.1359E-03    -40.1252E+06    -153.759E+06    -37.1540E+06     161.171E+03    -54.3056E-03     108.548E-03    -54.2420E-03     17.4720E-03    -54.2335E-03     107.895E-03    -54.1467E-03     17.4151E-03
            1469     852.519E-06     55.1227E-03    -41.4565E+06    -155.934E+06    -40.7699E+06     145.455E+03    -54.2336E-03     108.483E-03    -54.2490E-03     9.36171E-03    -54.1567E-03     107.824E-03    -54.1666E-03     9.33261E-03
            1470     16.1941E-03     56.2262E-03    -7.08323E+06     151.172E+06     101.159E+06     495.996E+03    -65.4319E-03     119.882E-03    -54.4504E-03     309.724E-03    -85.3049E-03     139.974E-03    -54.1536E-03     315.783E-03
            1471     15.3443E-03     55.7618E-03    -13.3390E+06     133.562E+06     86.8263E+06    -1.13894E+06    -78.6869E-03     133.162E-03    -54.4754E-03     398.593E-03    -100.855E-03     155.505E-03    -54.2156E-03     397.712E-03
            1472     14.4916E-03     55.3960E-03    -14.8586E+06     101.317E+06     45.5421E+06    -1.67318E+06    -70.9841E-03     125.270E-03    -54.2856E-03     289.022E-03    -79.6758E-03     134.136E-03    -54.1833E-03     286.083E-03
            1473     13.6411E-03     55.1689E-03    -18.5244E+06     70.2482E+06     1.14277E+06     343.981E+03    -61.5913E-03     115.669E-03    -54.0773E-03     188.025E-03    -64.5721E-03     118.830E-03    -54.1466E-03     186.072E-03
            1474     12.7889E-03     55.0164E-03    -23.3240E+06     22.3496E+06    -19.7906E+06     779.208E+03    -58.0712E-03     112.112E-03    -54.0407E-03     139.765E-03    -59.5138E-03     113.608E-03    -54.1383E-03     138.334E-03
            1475     11.9360E-03     54.8884E-03    -25.0304E+06    -30.1010E+06    -21.1150E+06    -857.554E+03    -57.1992E-03     111.316E-03    -54.1171E-03     120.542E-03    -58.0555E-03     112.038E-03    -54.1427E-03     119.391E-03
            1476     11.0834E-03     54.7747E-03    -23.6843E+06    -61.4574E+06    -20.1909E+06    -1.52723E+06    -56.8486E-03     111.017E-03    -54.1680E-03     108.270E-03    -57.3935E-03     111.318E-03    -54.1455E-03     107.316E-03
            1477     10.2308E-03     54.6717E-03    -20.8728E+06    -83.1713E+06    -13.2962E+06    -223.906E+03    -56.5586E-03     110.786E-03    -54.2273E-03     99.2466E-03    -56.9085E-03     110.805E-03    -54.1429E-03     98.4715E-03
            1478     9.37823E-03     54.5759E-03    -20.0692E+06    -99.4024E+06    -3.85368E+06     1.16485E+06    -56.2475E-03     110.541E-03    -54.2931E-03     91.1341E-03    -56.4749E-03     110.355E-03    -54.1392E-03     90.5110E-03
            1479     8.52567E-03     54.4890E-03    -21.9716E+06    -102.463E+06    -4.86023E+06     755.852E+03    -55.9191E-03     110.212E-03    -54.2927E-03     83.2091E-03    -56.0709E-03     109.936E-03    -54.1366E-03     82.6964E-03
            1480     7.67310E-03     54.4090E-03    -23.9285E+06    -108.303E+06    -4.79423E+06    -178.740E+03    -55.6180E-03     109.921E-03    -54.3033E-03     75.3732E-03    -55.7136E-03     109.561E-03    -54.1356E-03     74.9461E-03
            1481     6.82057E-03     54.3374E-03    -25.3764E+06    -111.620E+06    -3.71578E+06     538.282E+03    -55.3548E-03     109.669E-03    -54.3145E-03     67.4264E-03    -55.4125E-03     109.251E-03    -54.1344E-03     67.0898E-03
            1482     5.96806E-03     54.2734E-03    -27.5649E+06    -117.382E+06    -8.48048E+06     1.02441E+06    -55.0964E-03     109.397E-03    -54.3009E-03     59.3598E-03    -55.1190E-03     108.930E-03    -54.1331E-03     59.0983E-03
            1483     5.11547E-03     54.2180E-03    -30.6694E+06    -129.364E+06    -14.5384E+06     158.121E+03    -54.8644E-03     109.157E-03    -54.2929E-03     51.1270E-03    -54.8541E-03     108.621E-03    -54.1335E-03     50.9119E-03
            1484     4.26284E-03     54.1706E-03    -33.5088E+06    -137.129E+06    -20.0745E+06    -47.7542E+03    -54.6713E-03     108.953E-03    -54.2821E-03     42.8138E-03    -54.6397E-03     108.374E-03    -54.1351E-03     42.6449E-03
            1485     3.41032E-03     54.1319E-03    -36.0894E+06    -145.007E+06    -26.3058E+06     118.915E+03    -54.5236E-03     108.790E-03    -54.2665E-03     34.4156E-03    -54.4729E-03     108.173E-03    -54.1354E-03     34.2904E-03
            1486     2.55775E-03     54.1014E-03    -38.4127E+06    -149.284E+06    -32.6533E+06     37.7342E+03    -54.3866E-03     108.631E-03    -54.2443E-03     25.9429E-03    -54.3242E-03     107.997E-03    -54.1354E-03     25.8528E-03
            1487     1.70513E-03     54.0799E-03    -40.0548E+06    -153.753E+06    -37.1807E+06     204.862E+03    -54.2820E-03     108.518E-03    -54.2364E-03     17.4957E-03    -54.2095E-03     107.866E-03    -54.1412E-03     17.4394E-03
            1488     852.570E-06     54.0664E-03    -41.0078E+06    -155.530E+06    -40.1348E+06     214.947E+03    -54.2409E-03     108.484E-03    -54.2435E-03     9.51843E-03    -54.1632E-03     107.826E-03    -54.1591E-03     9.48983E-03
            1489     16.2027E-03     55.1793E-03    -3.91914E+06     152.794E+06     103.933E+06     2.25227E+06    -67.6930E-03     122.072E-03    -54.3793E-03     308.151E-03    -87.4319E-03     142.038E-03    -54.0755E-03     313.844E-03
            1490     15.3458E-03     54.7014E-03    -10.0539E+06     138.163E+06     85.1424E+06         419.031    -78.7117E-03     133.036E-03    -54.3246E-03     399.123E-03    -100.873E-03     155.405E-03    -54.0847E-03     398.131E-03
            1491     14.4971E-03     54.3408E-03    -18.3323E+06     99.2677E+06     35.8139E+06    -1.12144E+06    -69.9319E-03     124.069E-03    -54.1373E-03     288.230E-03    -78.5962E-03     132.917E-03    -54.0756E-03     285.377E-03
            1492     13.6421E-03     54.1124E-03    -20.8987E+06     67.6663E+06    -1.11983E+06     1.28310E+06    -60.8179E-03     114.830E-03    -54.0125E-03     188.773E-03    -63.7926E-03     117.974E-03    -54.0859E-03     186.873E-03
            1493     12.7887E-03     53.9601E-03    -18.8917E+06     24.7615E+06    -14.1648E+06     1.56174E+06    -57.8014E-03     111.834E-03    -54.0324E-03     139.980E-03    -59.2300E-03     113.324E-03    -54.1117E-03     138.567E-03
            1494     11.9361E-03     53.8319E-03    -17.0273E+06    -27.9981E+06    -15.9073E+06    -576.762E+03    -57.1712E-03     111.284E-03    -54.1128E-03     120.686E-03    -57.9996E-03     111.999E-03    -54.1270E-03     119.539E-03
            1495     11.0833E-03     53.7184E-03    -16.8711E+06    -61.4569E+06    -16.6712E+06    -2.03068E+06    -56.8313E-03     110.994E-03    -54.1629E-03     108.186E-03    -57.3469E-03     111.280E-03    -54.1327E-03     107.225E-03
            1496     10.2309E-03     53.6149E-03    -17.8075E+06    -85.9428E+06    -11.8877E+06    -1.57058E+06    -56.5718E-03     110.793E-03    -54.2213E-03     99.0180E-03    -56.9044E-03     110.792E-03    -54.1303E-03     98.2241E-03
            1497     9.37838E-03     53.5198E-03    -18.5680E+06    -100.988E+06    -2.19555E+06     397.344E+03    -56.2622E-03     110.549E-03    -54.2865E-03     90.9298E-03    -56.4826E-03     110.351E-03    -54.1241E-03     90.2951E-03
            1498     8.52586E-03     53.4322E-03    -19.5143E+06    -101.307E+06    -83.0446E+03     1.43056E+06    -55.9231E-03     110.217E-03    -54.2934E-03     83.0075E-03    -56.0715E-03     109.936E-03    -54.1186E-03     82.5022E-03
            1499     7.67338E-03     53.3529E-03    -22.4167E+06    -106.942E+06    -1.78586E+06     542.762E+03    -55.6133E-03     109.907E-03    -54.2939E-03     75.2969E-03    -55.7077E-03     109.548E-03    -54.1152E-03     74.8788E-03
            1500     6.82077E-03     53.2808E-03    -25.6991E+06    -112.739E+06    -4.88266E+06    -331.120E+03    -55.3167E-03     109.607E-03    -54.2908E-03     67.4759E-03    -55.3724E-03     109.186E-03    -54.1145E-03     67.1292E-03
            1501     5.96817E-03     53.2172E-03    -27.7887E+06    -117.735E+06    -8.64526E+06     484.286E+03    -55.0512E-03     109.336E-03    -54.2845E-03     59.4102E-03    -55.0740E-03     108.867E-03    -54.1167E-03     59.1425E-03
            1502     5.11553E-03     53.1616E-03    -30.1149E+06    -128.074E+06    -14.0982E+06     780.706E+03    -54.8347E-03     109.114E-03    -54.2797E-03     51.1791E-03    -54.8239E-03     108.583E-03    -54.1208E-03     50.9726E-03
            1503     4.26295E-03     53.1145E-03    -33.2012E+06    -137.347E+06    -20.4584E+06     201.110E+03    -54.6575E-03     108.927E-03    -54.2696E-03     42.8499E-03    -54.6234E-03     108.347E-03    -54.1246E-03     42.6846E-03
            1504     3.41032E-03     53.0755E-03    -35.9198E+06    -144.922E+06    -26.3904E+06     199.743E+03    -54.4942E-03     108.753E-03    -54.2588E-03     34.4216E-03    -54.4427E-03     108.136E-03    -54.1286E-03     34.2976E-03
            1505     2.55769E-03     53.0454E-03    -38.0841E+06    -149.201E+06    -32.7625E+06     216.463E+03    -54.3663E-03     108.609E-03    -54.2428E-03     25.9247E-03    -54.3021E-03     107.975E-03    -54.1351E-03     25.8368E-03
            1506     1.70512E-03     53.0235E-03    -39.6885E+06    -153.651E+06    -37.2888E+06     81.4904E+03    -54.3001E-03     108.534E-03    -54.2340E-03     17.4589E-03    -54.2258E-03     107.882E-03    -54.1401E-03     17.4009E-03
            1507     852.543E-06     53.0103E-03    -40.5275E+06    -155.292E+06    -39.8925E+06     96.5898E+03    -54.2561E-03     108.475E-03    -54.2187E-03     9.46306E-03    -54.1767E-03     107.817E-03    -54.1343E-03     9.43312E-03
            1508     16.2004E-03     54.1244E-03    -4.92098E+06     151.519E+06     104.805E+06     107.837E+03    -68.9428E-03     123.231E-03    -54.2885E-03     306.381E-03    -88.8122E-03     143.317E-03    -53.9770E-03     311.971E-03
            1509     15.3510E-03     53.6448E-03    -8.34606E+06     139.037E+06     92.0922E+06     3.14893E+06    -77.9421E-03     132.197E-03    -54.2550E-03     402.790E-03    -100.334E-03     154.786E-03    -53.9841E-03     402.024E-03
            1510     14.4941E-03     53.2850E-03    -14.0201E+06     101.522E+06     44.1322E+06     4.14599E+06    -69.3582E-03     123.493E-03    -54.1351E-03     291.040E-03    -78.0156E-03     132.333E-03    -54.0413E-03     288.322E-03
            1511     13.6420E-03     53.0565E-03    -18.1223E+06     68.9388E+06    -112.936E+03     549.878E+03    -61.0261E-03     115.030E-03    -54.0042E-03     189.525E-03    -64.0081E-03     118.193E-03    -54.0785E-03     187.599E-03
            1512     12.7892E-03     52.9040E-03    -17.6407E+06     25.0609E+06    -15.0932E+06    -1.46614E+06    -57.7673E-03     111.784E-03    -54.0162E-03     140.531E-03    -59.1852E-03     113.272E-03    -54.1025E-03     139.085E-03
            1513     11.9362E-03     52.7755E-03    -16.9920E+06    -26.9662E+06    -15.6020E+06    -927.082E+03    -57.3039E-03     111.405E-03    -54.1011E-03     120.812E-03    -58.1357E-03     112.126E-03    -54.1154E-03     119.657E-03
            1514     11.0839E-03     52.6619E-03    -17.7074E+06    -60.7670E+06    -16.3518E+06    -1.12057E+06    -56.8534E-03     111.000E-03    -54.1464E-03     108.149E-03    -57.3738E-03     111.289E-03    -54.1143E-03     107.201E-03
            1515     10.2312E-03     52.5586E-03    -18.8864E+06    -87.5816E+06    -12.0663E+06    -848.331E+03    -56.5219E-03     110.728E-03    -54.2057E-03     99.1297E-03    -56.8567E-03     110.719E-03    -54.1116E-03     98.3472E-03
            1516     9.37869E-03     52.4631E-03    -20.2756E+06    -102.236E+06    -3.99872E+06    -542.904E+03    -56.2402E-03     110.505E-03    -54.2649E-03     91.0554E-03    -56.4644E-03     110.306E-03    -54.1072E-03     90.4099E-03
            1517     8.52613E-03     52.3760E-03    -21.0902E+06    -102.010E+06    -2.83623E+06    -16.1964E+03    -55.8879E-03     110.155E-03    -54.2676E-03     83.1704E-03    -56.0386E-03     109.877E-03    -54.1032E-03     82.6483E-03
            1518     7.67343E-03     52.2963E-03    -21.8492E+06    -106.518E+06    -1.97826E+06     1.33176E+06    -55.5689E-03     109.848E-03    -54.2796E-03     75.4125E-03    -55.6605E-03     109.490E-03    -54.1034E-03     75.0060E-03
            1519     6.82083E-03     52.2248E-03    -25.0674E+06    -111.475E+06    -5.27766E+06     1.10628E+06    -55.2759E-03     109.555E-03    -54.2790E-03     67.5635E-03    -55.3296E-03     109.139E-03    -54.1074E-03     67.2366E-03
            1520     5.96812E-03     52.1608E-03    -29.0607E+06    -118.481E+06    -10.7402E+06     32.4221E+03    -55.0300E-03     109.304E-03    -54.2735E-03     59.4778E-03    -55.0549E-03     108.836E-03    -54.1133E-03     59.2051E-03
            1521     5.11552E-03     52.1055E-03    -31.5473E+06    -127.968E+06    -15.0261E+06     392.347E+03    -54.8343E-03     109.108E-03    -54.2742E-03     51.1935E-03    -54.8295E-03     108.581E-03    -54.1180E-03     50.9820E-03
            1522     4.26289E-03     52.0581E-03    -33.7047E+06    -136.720E+06    -21.0001E+06     497.250E+03    -54.6483E-03     108.912E-03    -54.2636E-03     42.8281E-03    -54.6168E-03     108.336E-03    -54.1214E-03     42.6665E-03
            1523     3.41033E-03     52.0195E-03    -36.1079E+06    -145.053E+06    -26.8340E+06     189.649E+03    -54.4881E-03     108.743E-03    -54.2546E-03     34.3864E-03    -54.4366E-03     108.126E-03    -54.1261E-03     34.2623E-03
            1524     2.55774E-03     51.9891E-03    -38.1139E+06    -148.897E+06    -32.5443E+06     177.059E+03    -54.3799E-03     108.618E-03    -54.2380E-03     25.9167E-03    -54.3167E-03     107.985E-03    -54.1296E-03     25.8283E-03
            1525     1.70517E-03     51.9674E-03    -39.6223E+06    -153.473E+06    -36.9644E+06     85.7229E+03    -54.3202E-03     108.537E-03    -54.2165E-03     17.4256E-03    -54.2463E-03     107.885E-03    -54.1214E-03     17.3677E-03
            1526     852.630E-06     51.9540E-03    -40.6871E+06    -155.270E+06    -39.8771E+06     28.7214E+03    -54.2776E-03     108.417E-03    -54.1390E-03     9.39669E-03    -54.1991E-03     107.759E-03    -54.0543E-03     9.36611E-03
            1527     16.2049E-03     53.0615E-03    -6.13161E+06     149.764E+06     103.326E+06    -1.19520E+06    -67.7678E-03     122.050E-03    -54.2825E-03     305.825E-03    -87.6453E-03     142.138E-03    -53.9742E-03     311.581E-03
            1528     15.3476E-03     52.5964E-03    -10.9273E+06     133.132E+06      92.744E+06     672.523E+03    -77.8444E-03     132.147E-03    -54.3028E-03     404.345E-03    -100.312E-03     154.779E-03    -54.0163E-03     403.672E-03
            1529     14.4937E-03     52.2247E-03    -12.2162E+06     102.244E+06     54.4099E+06     2.70738E+06    -69.9218E-03     124.138E-03    -54.2166E-03     291.866E-03    -78.5854E-03     132.964E-03    -54.0751E-03     289.081E-03
            1530     13.6423E-03     52.0010E-03    -12.3420E+06     73.4325E+06     8.53515E+06     1.82188E+06    -61.1518E-03     115.204E-03    -54.0522E-03     188.630E-03    -64.1113E-03     118.356E-03    -54.0981E-03     186.718E-03
            1531     12.7885E-03     51.8477E-03    -15.3051E+06     25.3383E+06    -14.7576E+06     170.489E+03    -58.0888E-03     112.107E-03    -54.0180E-03     140.986E-03    -59.5044E-03     113.601E-03    -54.1064E-03     139.552E-03
            1532     11.9364E-03     51.7185E-03    -17.6662E+06    -26.6305E+06    -16.5564E+06    -354.234E+03    -57.3520E-03     111.442E-03    -54.0897E-03     120.820E-03    -58.1850E-03     112.165E-03    -54.1082E-03     119.673E-03
            1533     11.0838E-03     51.6057E-03    -18.4987E+06    -60.7086E+06    -17.7330E+06    -195.744E+03    -56.8374E-03     110.969E-03    -54.1318E-03     108.229E-03    -57.3595E-03     111.262E-03    -54.1056E-03     107.294E-03
            1534     10.2312E-03     51.5021E-03    -19.0946E+06    -87.6821E+06    -13.7463E+06    -472.532E+03    -56.5037E-03     110.694E-03    -54.1903E-03     99.2977E-03    -56.8363E-03     110.687E-03    -54.1042E-03     98.5221E-03
            1535     9.37853E-03     51.4067E-03    -19.5942E+06    -102.191E+06    -5.44214E+06    -845.863E+03    -56.1914E-03     110.444E-03    -54.2528E-03     91.1821E-03    -56.4094E-03     110.246E-03    -54.1034E-03     90.5349E-03
            1536     8.52596E-03     51.3195E-03    -21.2246E+06    -103.431E+06    -4.21048E+06    -504.652E+03    -55.8722E-03     110.135E-03    -54.2628E-03     83.2181E-03    -56.0194E-03     109.852E-03    -54.1031E-03     82.6903E-03
            1537     7.67341E-03     51.2401E-03    -23.6938E+06    -108.135E+06    -4.02561E+06     680.353E+03    -55.5572E-03     109.833E-03    -54.2758E-03     75.4433E-03    -55.6526E-03     109.472E-03    -54.1048E-03     75.0288E-03
            1538     6.82072E-03     51.1683E-03    -25.2513E+06    -110.332E+06    -4.34840E+06     1.65088E+06    -55.2918E-03     109.575E-03    -54.2830E-03     67.5277E-03    -55.3493E-03     109.164E-03    -54.1081E-03     67.2077E-03
            1539     5.96813E-03     51.1047E-03    -27.5943E+06    -117.200E+06    -9.12479E+06     1.06158E+06    -55.0642E-03     109.339E-03    -54.2745E-03     59.3746E-03    -55.0860E-03     108.873E-03    -54.1102E-03     59.1147E-03
            1540     5.11555E-03     51.0491E-03    -30.9765E+06    -128.353E+06    -14.6581E+06     114.162E+03    -54.8368E-03     109.106E-03    -54.2692E-03     51.0965E-03    -54.8292E-03     108.575E-03    -54.1114E-03     50.8813E-03
            1541     4.26298E-03     51.0020E-03    -33.7423E+06    -136.434E+06    -20.1181E+06     225.950E+03    -54.6346E-03     108.895E-03    -54.2606E-03     42.7453E-03    -54.6050E-03     108.320E-03    -54.1144E-03     42.5803E-03
            1542     3.41033E-03     50.9632E-03    -36.1375E+06    -144.789E+06    -26.4243E+06     176.492E+03    -54.4886E-03     108.737E-03    -54.2482E-03     34.3387E-03    -54.4383E-03     108.121E-03    -54.1180E-03     34.2146E-03
            1543     2.55774E-03     50.9330E-03    -38.2150E+06    -148.856E+06    -32.4588E+06     -30.529E+03    -54.3748E-03     108.603E-03    -54.2280E-03     25.9144E-03    -54.3122E-03     107.970E-03    -54.1191E-03     25.8235E-03
            1544     1.70519E-03     50.9111E-03    -39.7218E+06    -153.376E+06    -36.7266E+06    -11.6637E+03    -54.2938E-03     108.505E-03    -54.2109E-03     17.4614E-03    -54.2209E-03     107.853E-03    -54.1146E-03     17.4024E-03
            1545     852.658E-06     50.8980E-03    -40.7932E+06    -155.199E+06    -39.8582E+06    -150.311E+03    -54.2211E-03     108.412E-03    -54.1909E-03     9.38593E-03    -54.1433E-03     107.755E-03    -54.1060E-03     9.35284E-03
            1546     16.1985E-03     52.0092E-03    -5.64476E+06     149.566E+06     102.665E+06    -490.602E+03    -66.8941E-03     121.277E-03    -54.3833E-03     308.116E-03    -86.8010E-03     141.398E-03    -54.0786E-03     313.897E-03
            1547     15.3459E-03     51.5357E-03    -12.1945E+06     132.072E+06     91.3507E+06    -1.56988E+06    -79.6659E-03     134.050E-03    -54.3838E-03     403.276E-03    -102.140E-03     156.684E-03    -54.1009E-03     402.270E-03
            1548     14.4959E-03     51.1700E-03    -15.9164E+06     100.017E+06     50.2765E+06    -2.75512E+06    -70.3508E-03     124.568E-03    -54.2169E-03     290.827E-03    -79.0510E-03     133.421E-03    -54.0875E-03     287.922E-03
            1549     13.6404E-03     50.9441E-03    -16.0339E+06     71.0476E+06     5.14198E+06    -486.831E+03    -61.0496E-03     115.089E-03    -54.0392E-03     188.339E-03    -64.0085E-03     118.228E-03    -54.0932E-03     186.409E-03
            1550     12.7893E-03     50.7904E-03    -14.5118E+06     26.6515E+06    -13.5677E+06     2.24869E+06    -58.1818E-03     112.195E-03    -54.0133E-03     140.320E-03    -59.5978E-03     113.693E-03    -54.0987E-03     138.907E-03
            1551     11.9365E-03     50.6625E-03    -15.0897E+06    -25.7104E+06    -14.9746E+06     1.34913E+06    -57.2436E-03     111.327E-03    -54.0833E-03     120.619E-03    -58.0658E-03     112.048E-03    -54.0990E-03     119.497E-03
            1552     11.0837E-03     50.5489E-03    -15.7035E+06    -60.4192E+06    -16.1059E+06     425.422E+03    -56.8050E-03     110.936E-03    -54.1308E-03     108.075E-03    -57.3157E-03     111.223E-03    -54.1010E-03     107.148E-03
            1553     10.2313E-03     50.4458E-03    -15.7192E+06    -86.8437E+06    -11.7815E+06    -15.2502E+03    -56.4807E-03     110.672E-03    -54.1917E-03     99.1615E-03    -56.8004E-03     110.662E-03    -54.1019E-03     98.3914E-03
            1554     9.37864E-03     50.3504E-03    -17.4762E+06    -102.560E+06    -4.33735E+06     25.5449E+03    -56.1595E-03     110.416E-03    -54.2564E-03     91.1733E-03    -56.3678E-03     110.211E-03    -54.1041E-03     90.5378E-03
            1555     8.52602E-03     50.2631E-03    -20.5930E+06    -104.651E+06    -2.27540E+06     1.12125E+06    -55.8817E-03     110.157E-03    -54.2755E-03     83.1468E-03    -56.0268E-03     109.864E-03    -54.1053E-03     82.6397E-03
            1556     7.67336E-03     50.1838E-03    -23.8338E+06    -108.097E+06    -2.26624E+06     1.12031E+06    -55.6115E-03     109.894E-03    -54.2829E-03     75.2866E-03    -55.7103E-03     109.531E-03    -54.1030E-03     74.8767E-03
            1557     6.82080E-03     50.1120E-03    -26.5382E+06    -110.245E+06    -5.04706E+06     257.226E+03    -55.3153E-03     109.588E-03    -54.2731E-03     67.4269E-03    -55.3783E-03     109.180E-03    -54.1000E-03     67.0886E-03
            1558     5.96826E-03     50.0482E-03    -28.1111E+06    -116.740E+06    -8.64396E+06     560.028E+03    -55.0505E-03     109.317E-03    -54.2660E-03     59.2946E-03    -55.0762E-03     108.853E-03    -54.0992E-03     59.0282E-03
            1559     5.11566E-03     49.9929E-03    -30.2075E+06    -127.548E+06    -13.5323E+06     653.094E+03    -54.8216E-03     109.083E-03    -54.2617E-03     51.0650E-03    -54.8128E-03     108.554E-03    -54.1006E-03     50.8572E-03
            1560     4.26298E-03     49.9457E-03    -33.2894E+06    -136.667E+06    -19.6015E+06     190.057E+03    -54.6378E-03     108.889E-03    -54.2510E-03     42.7309E-03    -54.6062E-03     108.311E-03    -54.1026E-03     42.5658E-03
            1561     3.41041E-03     49.9071E-03    -36.0703E+06    -144.367E+06    -25.7403E+06     166.468E+03    -54.4915E-03     108.727E-03    -54.2352E-03     34.3004E-03    -54.4423E-03     108.112E-03    -54.1023E-03     34.1763E-03
            1562     2.55782E-03     49.8767E-03    -38.3763E+06    -148.709E+06    -32.5561E+06    -70.8769E+03    -54.3450E-03     108.556E-03    -54.2113E-03     25.8475E-03    -54.2833E-03     107.925E-03    -54.1028E-03     25.7563E-03
            1563     1.70516E-03     49.8551E-03    -39.9579E+06    -153.475E+06    -37.4216E+06    -268.472E+03    -54.2320E-03     108.441E-03    -54.2093E-03     17.4231E-03    -54.1591E-03     107.790E-03    -54.1159E-03     17.3609E-03
            1564     852.474E-06     49.8417E-03    -40.7698E+06    -155.394E+06    -40.2236E+06    -228.243E+03    -54.2247E-03     108.445E-03    -54.2205E-03     9.33681E-03    -54.1460E-03     107.787E-03    -54.1372E-03     9.30249E-03
            1565     16.1948E-03     50.9472E-03    -5.97487E+06     151.169E+06     103.530E+06     543.519E+03    -67.2790E-03     121.657E-03    -54.3782E-03     305.787E-03    -87.0321E-03     141.626E-03    -54.0711E-03     311.427E-03
            1566     15.3475E-03     50.4754E-03    -12.4817E+06     134.625E+06     86.1252E+06    -2.22786E+06    -78.7877E-03     133.106E-03    -54.3179E-03     398.554E-03    -100.956E-03     155.457E-03    -54.0644E-03     397.511E-03
            1567     14.4934E-03     50.1146E-03    -16.4123E+06     98.7188E+06     37.8810E+06    -4.03668E+06    -69.7484E-03     123.879E-03    -54.1310E-03     289.909E-03    -78.3929E-03     132.706E-03    -54.0610E-03     287.036E-03
            1568     13.6433E-03     49.8866E-03    -19.5924E+06     66.9954E+06    -5.11400E+06    -2.59438E+06    -61.1156E-03     115.098E-03    -53.9823E-03     188.758E-03    -64.0888E-03     118.254E-03    -54.0767E-03     186.789E-03
            1569     12.7893E-03     49.7348E-03    -20.1488E+06     24.3918E+06    -18.4713E+06    -95.5320E+03    -57.9694E-03     111.958E-03    -53.9890E-03     140.671E-03    -59.4013E-03     113.459E-03    -54.0875E-03     139.236E-03
            1570     11.9365E-03     49.6056E-03    -18.7925E+06    -24.2191E+06    -17.2963E+06     1.15247E+06    -57.2394E-03     111.310E-03    -54.0705E-03     120.837E-03    -58.0793E-03     112.047E-03    -54.0946E-03     119.712E-03
            1571     11.0841E-03     49.4929E-03    -18.2242E+06    -59.3534E+06    -17.7574E+06    -26.6023E+03    -56.7503E-03     110.872E-03    -54.1220E-03     108.172E-03    -57.2722E-03     111.170E-03    -54.0983E-03     107.241E-03
            1572     10.2312E-03     49.3893E-03    -19.0887E+06    -87.6889E+06    -13.6704E+06     265.337E+03    -56.4613E-03     110.649E-03    -54.1879E-03     99.2597E-03    -56.7939E-03     110.642E-03    -54.1014E-03     98.4939E-03
            1573     9.37858E-03     49.2943E-03    -20.8856E+06    -102.696E+06    -6.15597E+06     1.25309E+06    -56.2002E-03     110.450E-03    -54.2498E-03     91.1152E-03    -56.4225E-03     110.252E-03    -54.1014E-03     90.4955E-03
            1574     8.52590E-03     49.2067E-03    -22.2585E+06    -105.144E+06    -3.39779E+06     943.779E+03    -55.9145E-03     110.180E-03    -54.2652E-03     83.0680E-03    -56.0653E-03     109.888E-03    -54.0975E-03     82.5586E-03
            1575     7.67353E-03     49.1273E-03    -23.1070E+06    -107.417E+06    -580.422E+03     1.05009E+06    -55.6232E-03     109.901E-03    -54.2774E-03     75.1610E-03    -55.7218E-03     109.538E-03    -54.0911E-03     74.7498E-03
            1576     6.82100E-03     49.0557E-03    -25.6394E+06    -109.073E+06    -4.29865E+06     593.901E+03    -55.2919E-03     109.553E-03    -54.2611E-03     67.3881E-03    -55.3530E-03     109.148E-03    -54.0872E-03     67.0547E-03
            1577     5.96828E-03     48.9921E-03    -29.1848E+06    -117.205E+06    -10.5816E+06    -211.571E+03    -55.0210E-03     109.269E-03    -54.2477E-03     59.3172E-03    -55.0483E-03     108.807E-03    -54.0883E-03     59.0420E-03
            1578     5.11562E-03     48.9367E-03    -31.6583E+06    -127.522E+06    -14.6508E+06     73.2826E+03    -54.8219E-03     109.069E-03    -54.2470E-03     51.0189E-03    -54.8186E-03     108.543E-03    -54.0894E-03     50.8039E-03
            1579     4.26306E-03     48.8895E-03    -33.7909E+06    -136.350E+06    -20.3737E+06     346.806E+03    -54.6417E-03     108.874E-03    -54.2325E-03     42.6715E-03    -54.6120E-03     108.300E-03    -54.0877E-03     42.5085E-03
            1580     3.41047E-03     48.8508E-03    -36.3848E+06    -144.233E+06    -26.4511E+06     132.702E+03    -54.4831E-03     108.696E-03    -54.2133E-03     34.2632E-03    -54.4347E-03     108.084E-03    -54.0837E-03     34.1386E-03
            1581     2.55786E-03     48.8207E-03    -38.5177E+06    -148.283E+06    -32.9512E+06    -66.8344E+03    -54.3348E-03     108.521E-03    -54.1866E-03     25.7817E-03    -54.2739E-03     107.893E-03    -54.0805E-03     25.6906E-03
            1582     1.70524E-03     48.7990E-03    -40.1475E+06    -153.728E+06    -37.7763E+06    -211.410E+03    -54.2263E-03     108.403E-03    -54.1769E-03     17.3584E-03    -54.1535E-03     107.752E-03    -54.0847E-03     17.2968E-03
            1583     852.606E-06     48.7856E-03    -41.2028E+06    -155.775E+06    -40.5671E+06    -111.025E+03    -54.2256E-03     108.368E-03    -54.1425E-03     9.37068E-03    -54.1480E-03     107.710E-03    -54.0597E-03     9.33782E-03
            1584     16.2086E-03     49.8915E-03    -4.68461E+06     152.373E+06     105.203E+06     1.06455E+06    -68.2176E-03     122.497E-03    -54.2792E-03     307.229E-03    -88.0436E-03     142.542E-03    -53.9673E-03     312.962E-03
            1585     15.3506E-03     49.4263E-03    -9.30987E+06     140.886E+06     85.7360E+06     134.457E+03    -77.7413E-03     131.967E-03    -54.2255E-03     401.662E-03    -100.015E-03     154.459E-03    -53.9876E-03     400.901E-03
            1586     14.4961E-03     49.0564E-03    -16.3564E+06     99.8858E+06     31.2920E+06    -1.18665E+06    -69.5166E-03     123.592E-03    -54.0757E-03     290.993E-03    -78.1583E-03     132.440E-03    -54.0404E-03     288.183E-03
            1587     13.6411E-03     48.8315E-03    -20.3354E+06     64.6133E+06    -9.94390E+06    -1.23984E+06    -60.8610E-03     114.826E-03    -53.9651E-03     189.505E-03    -63.8202E-03     117.971E-03    -54.0790E-03     187.570E-03
            1588     12.7887E-03     48.6776E-03    -21.2222E+06     23.2704E+06    -18.8327E+06    -1.49396E+06    -58.1088E-03     112.109E-03    -53.9997E-03     140.917E-03    -59.5468E-03     113.608E-03    -54.0968E-03     139.457E-03
            1589     11.9366E-03     48.5494E-03    -19.5496E+06    -24.6443E+06    -17.5109E+06    -1.71502E+06    -57.2511E-03     111.327E-03    -54.0760E-03     120.745E-03    -58.0927E-03     112.063E-03    -54.0995E-03     119.584E-03
            1590     11.0836E-03     48.4364E-03    -18.7541E+06    -60.8268E+06    -15.9865E+06     710.789E+03    -56.7807E-03     110.917E-03    -54.1368E-03     108.130E-03    -57.3061E-03     111.207E-03    -54.1013E-03     107.208E-03
            1591     10.2311E-03     48.3331E-03    -20.8007E+06    -87.7837E+06    -10.7124E+06     1.93662E+06    -56.5327E-03     110.736E-03    -54.2032E-03     99.1121E-03    -56.8781E-03     110.727E-03    -54.0993E-03     98.3662E-03
            1592     9.37869E-03     48.2376E-03    -22.0452E+06    -101.729E+06    -5.68627E+06     523.389E+03    -56.2573E-03     110.500E-03    -54.2429E-03     91.0147E-03    -56.4873E-03     110.307E-03    -54.0918E-03     90.3848E-03
            1593     8.52637E-03     48.1504E-03    -22.2998E+06    -104.642E+06    -4.68749E+06    -455.904E+03    -55.9074E-03     110.152E-03    -54.2445E-03     83.0596E-03    -56.0570E-03     109.864E-03    -54.0839E-03     82.5328E-03
            1594     7.67361E-03     48.0709E-03    -23.5233E+06    -108.376E+06    -3.16958E+06    -282.535E+03    -55.5754E-03     109.830E-03    -54.2549E-03     75.2416E-03    -55.6704E-03     109.466E-03    -54.0795E-03     74.8151E-03
            1595     6.82093E-03     47.9995E-03    -25.2816E+06    -108.994E+06    -3.81944E+06     977.448E+03    -55.3041E-03     109.556E-03    -54.2521E-03     67.3024E-03    -55.3641E-03     109.151E-03    -54.0765E-03     66.9740E-03
            1596     5.96832E-03     47.9358E-03    -28.0480E+06    -115.811E+06    -9.82758E+06     775.798E+03    -55.0532E-03     109.285E-03    -54.2320E-03     59.1785E-03    -55.0779E-03     108.828E-03    -54.0725E-03     58.9158E-03
            1597     5.11580E-03     47.8804E-03    -31.4607E+06    -127.982E+06    -15.2706E+06    -221.737E+03    -54.8308E-03     109.053E-03    -54.2222E-03     50.8860E-03    -54.8249E-03     108.525E-03    -54.0674E-03     50.6671E-03
            1598     4.26317E-03     47.8333E-03    -34.2416E+06    -136.434E+06    -20.8128E+06    -37.4527E+03    -54.6256E-03     108.831E-03    -54.2050E-03     42.5589E-03    -54.5973E-03     108.257E-03    -54.0616E-03     42.3909E-03
            1599     3.41053E-03     47.7947E-03    -36.3839E+06    -143.948E+06    -27.1858E+06     79.3878E+03    -54.4528E-03     108.635E-03    -54.1819E-03     34.1547E-03    -54.4037E-03     108.024E-03    -54.0563E-03     34.0296E-03
            1600     2.55792E-03     47.7645E-03    -38.4590E+06    -148.169E+06    -33.1489E+06    -56.2148E+03    -54.3201E-03     108.476E-03    -54.1555E-03     25.6996E-03    -54.2587E-03     107.848E-03    -54.0506E-03     25.6085E-03
            1601     1.70531E-03     47.7430E-03    -40.1169E+06    -153.875E+06    -37.4459E+06     69.5729E+03    -54.2377E-03     108.369E-03    -54.1315E-03     17.3318E-03    -54.1650E-03     107.716E-03    -54.0374E-03     17.2739E-03
            1602     852.712E-06     47.7295E-03    -41.3505E+06    -155.885E+06    -40.5908E+06    -4.72646E+03    -54.1547E-03     108.244E-03    -54.0891E-03     9.39895E-03    -54.0776E-03     107.585E-03    -54.0060E-03     9.36740E-03
            1603     16.1979E-03     48.8410E-03    -5.18299E+06     151.226E+06     104.176E+06    -1.04208E+06    -67.7015E-03     122.021E-03    -54.3196E-03     308.438E-03    -87.6265E-03     142.163E-03    -54.0105E-03     314.227E-03
            1604     15.3448E-03     48.3607E-03    -10.9314E+06     139.830E+06     87.8305E+06     1.07725E+06    -78.4618E-03     132.755E-03    -54.2937E-03     402.935E-03    -100.874E-03     155.370E-03    -54.0415E-03     402.128E-03
            1605     14.4951E-03     48.0040E-03    -16.3263E+06     102.074E+06     37.9358E+06     2.59606E+06    -69.8521E-03     123.992E-03    -54.1400E-03     291.486E-03    -78.5326E-03     132.867E-03    -54.0747E-03     288.718E-03
            1606     13.6416E-03     47.7743E-03     -19.138E+06     66.9343E+06    -7.25293E+06     196.892E+03    -61.3651E-03     115.351E-03    -53.9859E-03     189.694E-03    -64.3282E-03     118.505E-03    -54.0915E-03     187.757E-03
            1607     12.7895E-03     47.6209E-03    -18.8370E+06     24.4484E+06    -18.2536E+06    -2.58018E+06    -58.0762E-03     112.072E-03    -53.9959E-03     140.299E-03    -59.4977E-03     113.566E-03    -54.0953E-03     138.828E-03
            1608     11.9362E-03     47.4933E-03    -19.3868E+06    -27.4969E+06    -17.6483E+06    -1.86517E+06    -57.2158E-03     111.294E-03    -54.0786E-03     120.553E-03    -58.0509E-03     112.014E-03    -54.0988E-03     119.392E-03
            1609     11.0840E-03     47.3796E-03    -20.9930E+06    -64.4902E+06    -17.7294E+06     1.04466E+06    -56.8787E-03     111.011E-03    -54.1326E-03     108.010E-03    -57.4077E-03     111.288E-03    -54.0973E-03     107.090E-03
            1610     10.2315E-03     47.2768E-03    -20.0100E+06    -85.6146E+06    -10.5736E+06     1.40023E+06    -56.5656E-03     110.755E-03    -54.1893E-03     99.0104E-03    -56.9100E-03     110.755E-03    -54.0890E-03     98.2575E-03
            1611     9.37888E-03     47.1811E-03    -19.5688E+06    -99.9222E+06    -5.49796E+06    -315.496E+03    -56.2413E-03     110.467E-03    -54.2260E-03     91.0806E-03    -56.4612E-03     110.279E-03    -54.0803E-03     90.4417E-03
            1612     8.52615E-03     47.0941E-03    -21.2951E+06    -104.948E+06    -5.04953E+06    -673.469E+03    -55.9239E-03     110.154E-03    -54.2297E-03     82.9868E-03    -56.0670E-03     109.863E-03    -54.0719E-03     82.4579E-03
            1613     7.67358E-03     47.0147E-03    -23.7025E+06    -109.017E+06    -4.45832E+06    -299.565E+03    -55.6223E-03     109.855E-03    -54.2326E-03     75.0725E-03    -55.7151E-03     109.489E-03    -54.0624E-03     74.6455E-03
            1614     6.82112E-03     46.9431E-03    -26.0466E+06    -110.371E+06    -4.43067E+06     27.4912E+03    -55.3336E-03     109.561E-03    -54.2272E-03     67.0795E-03    -55.3945E-03     109.150E-03    -54.0516E-03     66.7383E-03
            1615     5.96861E-03     46.8796E-03    -27.9123E+06    -114.923E+06    -8.46381E+06     793.466E+03    -55.0553E-03     109.261E-03    -54.2053E-03     58.9799E-03    -55.0826E-03     108.805E-03    -54.0405E-03     58.7170E-03
            1616     5.11594E-03     46.8242E-03    -30.4399E+06    -127.099E+06    -14.9045E+06     548.039E+03    -54.8095E-03     108.994E-03    -54.1849E-03     50.7577E-03    -54.8003E-03     108.469E-03    -54.0310E-03     50.5490E-03
            1617     4.26333E-03     46.7772E-03    -33.4813E+06    -136.821E+06    -20.8388E+06    -22.5442E+03    -54.6011E-03     108.766E-03    -54.1654E-03     42.4512E-03    -54.5683E-03     108.190E-03    -54.0226E-03     42.2834E-03
            1618     3.41074E-03     46.7386E-03    -36.2324E+06    -143.780E+06    -27.0814E+06     112.222E+03    -54.4158E-03     108.557E-03    -54.1411E-03     34.0635E-03    -54.3662E-03     107.947E-03    -54.0155E-03     33.9390E-03
            1619     2.55803E-03     46.7086E-03    -38.3749E+06    -148.175E+06    -33.2534E+06     154.425E+03    -54.2768E-03     108.391E-03    -54.1137E-03     25.6515E-03    -54.2148E-03     107.763E-03    -54.0095E-03     25.5634E-03
            1620     1.70538E-03     46.6868E-03    -40.0009E+06    -153.904E+06     -37.492E+06     145.710E+03    -54.1828E-03     108.278E-03    -54.0951E-03     17.2880E-03    -54.1094E-03     107.625E-03    -54.0014E-03     17.2312E-03
            1621     852.711E-06     46.6738E-03    -40.9083E+06    -155.589E+06    -40.3251E+06     128.248E+03    -54.1114E-03     108.183E-03    -54.0714E-03     9.36360E-03    -54.0329E-03     107.524E-03    -53.9881E-03     9.33380E-03
            1622     16.1994E-03     47.7738E-03    -5.38042E+06     150.364E+06     103.463E+06    -1.00077E+06    -66.9797E-03     121.321E-03    -54.3416E-03     305.398E-03    -86.6812E-03     141.238E-03    -54.0345E-03     311.167E-03
            1623     15.3510E-03     47.3134E-03    -11.9671E+06     134.282E+06     90.0929E+06     535.458E+03    -78.0851E-03     132.424E-03    -54.3384E-03     400.074E-03    -100.242E-03     154.754E-03    -54.0653E-03     399.274E-03
            1624     14.4917E-03     46.9431E-03    -14.2958E+06     103.363E+06     48.6961E+06     2.33808E+06    -70.2725E-03     124.467E-03    -54.1947E-03     290.359E-03    -78.9279E-03     133.298E-03    -54.0804E-03     287.539E-03
            1625     13.6426E-03     46.7177E-03    -15.1101E+06     71.8073E+06     365.738E+03     381.824E+03    -61.4027E-03     115.398E-03    -53.9951E-03     188.211E-03    -64.3532E-03     118.548E-03    -54.0754E-03     186.270E-03
            1626     12.7889E-03     46.5649E-03    -17.3202E+06     24.4749E+06    -19.1264E+06    -745.066E+03    -57.8444E-03     111.819E-03    -53.9742E-03     140.391E-03    -59.2517E-03     113.307E-03    -54.0802E-03     138.955E-03
            1627     11.9366E-03     46.4366E-03    -20.0437E+06    -29.5455E+06    -18.7969E+06     548.539E+03    -57.2549E-03     111.323E-03    -54.0681E-03     120.587E-03    -58.0893E-03     112.036E-03    -54.0902E-03     119.455E-03
            1628     11.0839E-03     46.3233E-03    -19.4006E+06    -64.5122E+06    -20.4711E+06    -462.680E+03    -56.9207E-03     111.025E-03    -54.1048E-03     107.991E-03    -57.4371E-03     111.303E-03    -54.0855E-03     107.052E-03
            1629     10.2314E-03     46.2201E-03    -17.4754E+06    -85.5021E+06    -12.8218E+06    -1.11955E+06    -56.5913E-03     110.751E-03    -54.1595E-03     98.9285E-03    -56.9193E-03     110.750E-03    -54.0743E-03     98.1435E-03
            1630     9.37884E-03     46.1250E-03    -17.7600E+06    -99.7039E+06    -3.80062E+06     193.921E+03    -56.2891E-03     110.501E-03    -54.2122E-03     90.8243E-03    -56.5025E-03     110.309E-03    -54.0609E-03     90.1910E-03
            1631     8.52643E-03     46.0375E-03    -20.1861E+06    -105.241E+06    -2.59755E+06     750.945E+03    -55.9912E-03     110.204E-03    -54.2127E-03     82.6364E-03    -56.1319E-03     109.907E-03    -54.0438E-03     82.1243E-03
            1632     7.67411E-03     45.9584E-03    -23.3268E+06    -108.584E+06    -2.27428E+06     436.887E+03    -55.6535E-03     109.858E-03    -54.2042E-03     74.7691E-03    -55.7482E-03     109.491E-03    -54.0243E-03     74.3506E-03
            1633     6.82148E-03     45.8868E-03    -26.2107E+06    -110.265E+06    -5.83252E+06    -338.618E+03    -55.3025E-03     109.479E-03    -54.1765E-03     66.9604E-03    -55.3620E-03     109.071E-03    -54.0078E-03     66.6152E-03
            1634     5.96881E-03     45.8234E-03    -28.7235E+06    -116.304E+06    -10.2203E+06    -101.064E+03    -55.0234E-03     109.177E-03    -54.1535E-03     58.8404E-03    -55.0499E-03     108.718E-03    -53.9944E-03     58.5664E-03
            1635     5.11622E-03     45.7681E-03    -31.0061E+06    -126.276E+06    -14.9366E+06     756.361E+03    -54.7678E-03     108.903E-03    -54.1356E-03     50.5971E-03    -54.7624E-03     108.383E-03    -53.9823E-03     50.3913E-03
            1636     4.26356E-03     45.7212E-03    -33.7898E+06    -136.414E+06    -21.0926E+06     510.299E+03    -54.5384E-03     108.653E-03    -54.1149E-03     42.3293E-03    -54.5073E-03     108.079E-03    -53.9735E-03     42.1690E-03
            1637     3.41083E-03     45.6827E-03    -36.4074E+06    -143.820E+06    -27.3005E+06     183.610E+03    -54.3571E-03     108.451E-03    -54.0934E-03     33.9969E-03    -54.3080E-03     107.841E-03    -53.9685E-03     33.8738E-03
            1638     2.55817E-03     45.6526E-03    -38.3668E+06    -148.115E+06    -33.3201E+06     264.648E+03    -54.2196E-03     108.289E-03    -54.0699E-03     25.6369E-03    -54.1575E-03     107.662E-03    -53.9661E-03     25.5506E-03
            1639     1.70544E-03     45.6310E-03    -39.8663E+06    -153.669E+06    -37.2279E+06     203.414E+03    -54.1290E-03     108.188E-03    -54.0589E-03     17.2377E-03    -54.0557E-03     107.535E-03    -53.9644E-03     17.1817E-03
            1640     852.656E-06     45.6179E-03    -40.9396E+06    -155.309E+06    -40.0373E+06     18.8897E+03    -54.0951E-03     108.117E-03    -54.0215E-03     9.29629E-03    -54.0175E-03     107.459E-03    -53.9371E-03     9.26532E-03
            1641     16.2050E-03     46.7253E-03    -5.94638E+06     150.886E+06     102.869E+06     43.6186E+03    -67.3065E-03     121.637E-03    -54.3300E-03     307.558E-03    -87.0652E-03     141.612E-03    -54.0259E-03     313.319E-03
            1642     15.3430E-03     46.2528E-03    -11.1284E+06     134.383E+06     89.9176E+06    -488.587E+03    -78.8305E-03     133.151E-03    -54.3203E-03     401.976E-03    -101.107E-03     155.604E-03    -54.0494E-03     401.107E-03
            1643     14.4985E-03     45.8874E-03    -14.9562E+06     101.742E+06     46.4295E+06    -1.22007E+06    -70.4396E-03     124.595E-03    -54.1551E-03     290.596E-03    -79.1140E-03     133.442E-03    -54.0488E-03     287.688E-03
            1644     13.6421E-03     45.6618E-03    -16.4830E+06     71.2341E+06     1.14205E+06     851.485E+03    -60.8097E-03     114.794E-03    -53.9839E-03     188.565E-03    -63.7575E-03     117.932E-03    -54.0576E-03     186.664E-03
            1645     12.7896E-03     45.5088E-03    -18.3059E+06     24.4801E+06    -18.1588E+06     2.61869E+06    -57.9820E-03     111.960E-03    -53.9777E-03     140.815E-03    -59.4003E-03     113.453E-03    -54.0775E-03     139.418E-03
            1646     11.9365E-03     45.3800E-03    -18.4870E+06    -27.6882E+06    -18.1398E+06     637.735E+03    -57.3964E-03     111.451E-03    -54.0548E-03     120.676E-03    -58.2273E-03     112.171E-03    -54.0785E-03     119.542E-03
            1647     11.0843E-03     45.2668E-03    -17.9853E+06    -62.5744E+06    -19.7246E+06    -1.47267E+06    -56.9700E-03     111.054E-03    -54.0839E-03     107.760E-03    -57.4829E-03     111.338E-03    -54.0657E-03     106.807E-03
            1648     10.2317E-03     45.1637E-03    -19.4182E+06    -87.6296E+06    -13.5422E+06     -1.0734E+06    -56.6624E-03     110.796E-03    -54.1340E-03     98.6844E-03    -56.9960E-03     110.789E-03    -54.0465E-03     97.8983E-03
            1649     9.37944E-03     45.0684E-03    -21.6352E+06    -101.258E+06    -5.03449E+06     484.473E+03    -56.3456E-03     110.521E-03    -54.1757E-03     90.5712E-03    -56.5742E-03     110.328E-03    -54.0227E-03     89.9407E-03
            1650     8.52700E-03     44.9812E-03    -23.1479E+06    -104.388E+06    -5.72604E+06     730.234E+03    -55.9806E-03     110.134E-03    -54.1538E-03     82.5598E-03    -56.1322E-03     109.850E-03    -53.9975E-03     82.0487E-03
            1651     7.67433E-03     44.9020E-03    -24.2512E+06    -108.339E+06    -3.97650E+06     246.847E+03    -55.6274E-03     109.773E-03    -54.1460E-03     74.6277E-03    -55.7242E-03     109.411E-03    -53.9737E-03     74.2078E-03
            1652     6.82179E-03     44.8308E-03    -26.6013E+06    -109.510E+06    -6.39942E+06     267.673E+03    -55.2751E-03     109.394E-03    -54.1185E-03     66.7765E-03    -55.3365E-03     108.990E-03    -53.9531E-03     66.4398E-03
            1653     5.96919E-03     44.7672E-03    -29.7616E+06    -116.861E+06    -11.6486E+06    -161.503E+03    -54.9680E-03     109.059E-03    -54.0912E-03     58.6859E-03    -54.9965E-03     108.601E-03    -53.9368E-03     58.4121E-03
            1654     5.11656E-03     44.7122E-03    -32.3908E+06    -127.018E+06    -15.4635E+06     81.0875E+03    -54.7047E-03     108.782E-03    -54.0775E-03     50.4765E-03    -54.7042E-03     108.261E-03    -53.9237E-03     50.2628E-03
            1655     4.26379E-03     44.6653E-03    -34.4829E+06    -135.653E+06    -21.1550E+06     483.711E+03    -54.4761E-03     108.531E-03    -54.0551E-03     42.2098E-03    -54.4493E-03     107.962E-03    -53.9142E-03     42.0500E-03
            1656     3.41108E-03     44.6269E-03    -36.8621E+06    -143.783E+06    -27.6775E+06     291.377E+03    -54.2894E-03     108.322E-03    -54.0329E-03     33.8682E-03    -54.2420E-03     107.714E-03    -53.9093E-03     33.7470E-03
            1657     2.55823E-03     44.5968E-03    -38.9423E+06    -147.872E+06    -33.7951E+06     174.296E+03    -54.1471E-03     108.158E-03    -54.0113E-03     25.5260E-03    -54.0874E-03     107.534E-03    -53.9094E-03     25.4389E-03
            1658     1.70549E-03     44.5752E-03    -40.2103E+06    -153.415E+06    -37.6558E+06     2.80978E+03    -54.0707E-03     108.073E-03    -54.0026E-03     17.1874E-03    -53.9987E-03     107.423E-03    -53.9101E-03     17.1291E-03
            1659     852.860E-06     44.5621E-03    -40.9826E+06    -155.302E+06    -40.3542E+06    -82.4318E+03    -54.0408E-03     108.008E-03    -53.9669E-03     9.27902E-03    -53.9630E-03     107.351E-03    -53.8841E-03     9.24682E-03
            1660     16.1941E-03     45.6671E-03    -5.79351E+06     151.252E+06     102.630E+06     341.426E+03    -67.7427E-03     122.120E-03    -54.3773E-03     307.351E-03    -87.6295E-03     142.226E-03    -54.0751E-03     312.938E-03
            1661     15.3516E-03     45.1945E-03    -11.4661E+06     136.665E+06     86.8761E+06    -876.957E+03    -79.3866E-03     133.713E-03    -54.3263E-03     402.220E-03    -101.823E-03     156.341E-03    -54.0734E-03     401.156E-03
            1662     14.4926E-03     44.8311E-03    -17.6722E+06     100.138E+06     38.1405E+06    -1.83471E+06    -70.0594E-03     124.196E-03    -54.1370E-03     290.429E-03    -78.7379E-03     133.057E-03    -54.0659E-03     287.561E-03
            1663     13.6419E-03     44.6052E-03    -20.4495E+06     67.1762E+06    -5.18139E+06    -197.466E+03    -61.1492E-03     115.131E-03    -53.9813E-03     189.148E-03    -64.1224E-03     118.285E-03    -54.0750E-03     187.215E-03
            1664     12.7888E-03     44.4524E-03    -18.2998E+06     24.4703E+06    -18.8065E+06     1.38626E+06    -58.3545E-03     112.325E-03    -53.9702E-03     140.617E-03    -59.7769E-03     113.824E-03    -54.0732E-03     139.191E-03
            1665     11.9370E-03     44.3230E-03    -17.3875E+06    -25.0866E+06    -17.2259E+06     1.31442E+06    -57.5027E-03     111.534E-03    -54.0311E-03     120.298E-03    -58.3331E-03     112.263E-03    -54.0556E-03     119.170E-03
            1666     11.0845E-03     44.2106E-03    -19.8382E+06    -61.0586E+06    -19.5217E+06     337.784E+03    -57.0185E-03     111.071E-03    -54.0530E-03     107.535E-03    -57.5437E-03     111.366E-03    -54.0333E-03     106.602E-03
            1667     10.2322E-03     44.1069E-03    -21.5099E+06    -88.9111E+06    -16.8261E+06    -58.7100E+03    -56.7357E-03     110.816E-03    -54.0808E-03     98.5453E-03    -57.0728E-03     110.810E-03    -54.0048E-03     97.7717E-03
            1668     9.37978E-03     44.0121E-03    -21.9419E+06    -102.000E+06    -7.25055E+06     163.916E+03    -56.3575E-03     110.474E-03    -54.1162E-03     90.3886E-03    -56.5827E-03     110.280E-03    -53.9727E-03     89.7545E-03
            1669     8.52723E-03     43.9248E-03    -22.6298E+06    -103.540E+06    -5.70742E+06    -184.117E+03    -55.9609E-03     110.057E-03    -54.0966E-03     82.3374E-03    -56.1104E-03     109.776E-03    -53.9422E-03     81.8155E-03
            1670     7.67487E-03     43.8459E-03    -24.2647E+06    -108.582E+06    -3.74417E+06    -243.756E+03    -55.5999E-03     109.688E-03    -54.0877E-03     74.4057E-03    -55.6961E-03     109.323E-03    -53.9138E-03     73.9805E-03
            1671     6.82233E-03     43.7745E-03    -26.3687E+06    -109.882E+06    -4.58595E+06     233.202E+03    -55.2418E-03     109.305E-03    -54.0632E-03     66.5713E-03    -55.3037E-03     108.897E-03    -53.8885E-03     66.2350E-03
            1672     5.96962E-03     43.7114E-03    -28.8076E+06    -116.029E+06    -10.4225E+06     377.433E+03    -54.9107E-03     108.937E-03    -54.0266E-03     58.5249E-03    -54.9370E-03     108.480E-03    -53.8687E-03     58.2594E-03
            1673     5.11680E-03     43.6562E-03    -31.7235E+06    -127.524E+06    -15.8459E+06    -142.103E+03    -54.6529E-03     108.658E-03    -54.0048E-03     50.3049E-03    -54.6475E-03     108.133E-03    -53.8531E-03     50.0893E-03
            1674     4.26413E-03     43.6095E-03    -34.5009E+06    -135.967E+06    -21.3566E+06     172.451E+03    -54.4281E-03     108.407E-03    -53.9794E-03     42.0296E-03    -54.4005E-03     107.837E-03    -53.8390E-03     41.8661E-03
            1675     3.41130E-03     43.5712E-03    -36.9665E+06    -143.325E+06    -27.4665E+06     457.950E+03    -54.2296E-03     108.181E-03    -53.9518E-03     33.7143E-03    -54.1836E-03     107.575E-03    -53.8277E-03     33.5956E-03
            1676     2.55856E-03     43.5412E-03    -39.0162E+06    -147.512E+06    -33.8817E+06     67.1060E+03    -54.0684E-03     107.992E-03    -53.9238E-03     25.4140E-03    -54.0095E-03     107.369E-03    -53.8227E-03     25.3259E-03
            1677     1.70568E-03     43.5196E-03    -40.3916E+06    -153.345E+06    -38.1971E+06    -178.636E+03    -53.9690E-03     107.885E-03    -53.9159E-03     17.1198E-03    -53.8972E-03     107.236E-03    -53.8259E-03     17.0595E-03
            1678     852.710E-06     43.5064E-03    -41.3614E+06    -155.496E+06    -40.6710E+06    -66.9418E+03    -53.9282E-03     107.845E-03    -53.9172E-03     9.23514E-03    -53.8516E-03     107.189E-03    -53.8351E-03     9.20329E-03
            1679     16.2047E-03     44.6115E-03    -4.72386E+06     151.206E+06     103.769E+06     459.514E+03    -68.0034E-03     122.383E-03    -54.3797E-03     307.211E-03    -87.8618E-03     142.461E-03    -54.0732E-03     312.815E-03
            1680     15.3430E-03     44.1356E-03    -10.1632E+06     137.578E+06     88.4600E+06     1.31286E+06    -78.8521E-03     133.184E-03    -54.3322E-03     401.107E-03    -101.157E-03     155.685E-03    -54.0747E-03     400.130E-03
            1681     14.4960E-03     43.7748E-03    -15.6928E+06     101.895E+06     40.6109E+06     1.38017E+06    -70.0433E-03     124.195E-03    -54.1516E-03     288.878E-03    -78.6610E-03     133.001E-03    -54.0736E-03     286.070E-03
            1682     13.6415E-03     43.5488E-03    -19.4027E+06     67.7699E+06    -5.18618E+06    -698.994E+03    -61.6061E-03     115.569E-03    -53.9628E-03     187.771E-03    -64.5723E-03     118.722E-03    -54.0588E-03     185.806E-03
            1683     12.7902E-03     43.3946E-03    -19.7416E+06     23.0934E+06    -21.5879E+06    -1.64022E+06    -58.3123E-03     112.236E-03    -53.9232E-03     139.830E-03    -59.7313E-03     113.729E-03    -54.0361E-03     138.365E-03
            1684     11.9375E-03     43.2672E-03    -17.6372E+06    -26.6081E+06    -18.4420E+06     328.717E+03    -57.4623E-03     111.450E-03    -53.9882E-03     120.153E-03    -58.2900E-03     112.175E-03    -54.0163E-03     119.012E-03
            1685     11.0850E-03     43.1534E-03    -15.9501E+06    -60.9129E+06    -13.7004E+06     2.56630E+06    -57.0938E-03     111.126E-03    -54.0320E-03     107.334E-03    -57.6082E-03     111.407E-03    -53.9890E-03     106.428E-03
            1686     10.2327E-03     43.0509E-03    -17.4967E+06    -86.9391E+06    -10.3256E+06     1.99099E+06    -56.7529E-03     110.806E-03    -54.0527E-03     98.2399E-03    -57.0813E-03     110.793E-03    -53.9529E-03     97.4928E-03
            1687     9.38038E-03     42.9554E-03    -20.0008E+06    -101.500E+06    -4.91386E+06     40.3511E+03    -56.3688E-03     110.435E-03    -54.0658E-03     90.1625E-03    -56.5876E-03     110.236E-03    -53.9142E-03     89.5274E-03
            1688     8.52813E-03     42.8688E-03    -21.9498E+06    -103.406E+06    -4.84937E+06    -215.440E+03    -55.9411E-03     109.976E-03    -54.0352E-03     82.1413E-03    -56.0878E-03     109.692E-03    -53.8777E-03     81.6206E-03
            1689     7.67538E-03     42.7896E-03    -24.0650E+06    -108.417E+06    -4.68266E+06    -399.465E+03    -55.5681E-03     109.581E-03    -54.0134E-03     74.3073E-03    -55.6613E-03     109.218E-03    -53.8447E-03     73.8824E-03
            1690     6.82274E-03     42.7187E-03    -26.3882E+06    -111.002E+06    -5.26416E+06    -218.914E+03    -55.2216E-03     109.208E-03    -53.9864E-03     66.3428E-03    -55.2805E-03     108.794E-03    -53.8135E-03     66.0018E-03
            1691     5.97002E-03     42.6554E-03    -28.7475E+06    -115.585E+06    -10.3733E+06     241.582E+03    -54.8925E-03     108.834E-03    -53.9419E-03     58.2513E-03    -54.9189E-03     108.379E-03    -53.7845E-03     57.9845E-03
            1692     5.11741E-03     42.6006E-03    -31.2633E+06    -127.353E+06    -15.4849E+06     310.300E+03    -54.6044E-03     108.516E-03    -53.9118E-03     50.0296E-03    -54.5973E-03     107.991E-03    -53.7592E-03     49.8203E-03
            1693     4.26450E-03     42.5539E-03    -34.1915E+06    -136.361E+06    -20.9352E+06     244.307E+03    -54.3512E-03     108.232E-03    -53.8806E-03     41.8017E-03    -54.3220E-03     107.658E-03    -53.7380E-03     41.6397E-03
            1694     3.41173E-03     42.5156E-03     -36.531E+06    -142.926E+06    -26.8732E+06     134.955E+03    -54.1480E-03     107.994E-03    -53.8463E-03     33.5285E-03    -54.1011E-03     107.388E-03    -53.7204E-03     33.4061E-03
            1695     2.55875E-03     42.4857E-03    -38.3407E+06    -147.267E+06    -32.9387E+06     116.629E+03    -53.9790E-03     107.791E-03    -53.8120E-03     25.2724E-03    -53.9184E-03     107.167E-03    -53.7075E-03     25.1852E-03
            1696     1.70587E-03     42.4642E-03    -40.2270E+06    -153.367E+06    -37.5125E+06     117.104E+03    -53.8586E-03     107.655E-03    -53.7960E-03     17.0201E-03    -53.7869E-03     107.005E-03    -53.7029E-03     16.9638E-03
            1697     853.020E-06     42.4510E-03    -41.5198E+06    -155.484E+06    -40.8164E+06    -55.6465E+03    -53.7879E-03     107.591E-03    -53.8033E-03     9.23323E-03    -53.7119E-03     106.935E-03    -53.7217E-03     9.20181E-03
            1698     16.1955E-03     43.5502E-03    -5.69049E+06     150.318E+06     102.888E+06    -363.160E+03    -68.0108E-03     122.336E-03    -54.3255E-03     306.845E-03    -87.7754E-03     142.316E-03    -54.0208E-03     312.463E-03
            1699     15.3520E-03     43.0824E-03    -10.7363E+06     134.151E+06     89.5346E+06     630.059E+03    -78.4277E-03     132.714E-03    -54.2861E-03     399.586E-03    -100.589E-03     155.053E-03    -54.0174E-03     398.691E-03
            1700     14.4933E-03     42.7173E-03    -13.7582E+06     102.490E+06     46.4625E+06     2.00517E+06    -70.0129E-03     124.136E-03    -54.1231E-03     288.943E-03    -78.6076E-03     132.911E-03    -54.0194E-03     286.131E-03
            1701     13.6441E-03     42.4908E-03    -16.0774E+06     71.9225E+06     966.417E+03     1.93168E+06    -61.2997E-03     115.237E-03    -53.9377E-03     187.891E-03    -64.2588E-03     118.392E-03    -54.0138E-03     185.974E-03
            1702     12.7904E-03     42.3395E-03    -19.7002E+06     24.0441E+06    -21.8165E+06     208.945E+03    -58.1582E-03     112.048E-03    -53.8903E-03     140.617E-03    -59.5801E-03     113.549E-03    -54.0056E-03     139.182E-03
            1703     11.9377E-03     42.2099E-03    -22.7046E+06    -28.4486E+06    -23.4249E+06    -1.06103E+06    -57.6266E-03     111.569E-03    -53.9428E-03     120.713E-03    -58.4706E-03     112.300E-03    -53.9857E-03     119.553E-03
            1704     11.0858E-03     42.0971E-03    -22.7896E+06    -63.5989E+06    -18.0346E+06     223.649E+03    -57.1849E-03     111.166E-03    -53.9816E-03     107.388E-03    -57.7217E-03     111.449E-03    -53.9465E-03     106.454E-03
            1705     10.2333E-03     41.9942E-03    -21.0200E+06    -85.1385E+06    -12.5901E+06     1.61045E+06    -56.7686E-03     110.761E-03    -53.9919E-03     98.2658E-03    -57.1126E-03     110.764E-03    -53.9009E-03     97.5163E-03
            1706     9.38104E-03     41.8992E-03    -21.2649E+06    -99.8342E+06    -7.10809E+06     843.375E+03    -56.3841E-03     110.379E-03    -53.9952E-03     90.0830E-03    -56.6070E-03     110.193E-03    -53.8552E-03     89.4610E-03
            1707     8.52833E-03     41.8127E-03    -23.1905E+06    -103.375E+06    -7.12082E+06    -221.392E+03    -55.9939E-03     109.950E-03    -53.9563E-03     81.9447E-03    -56.1427E-03     109.670E-03    -53.8083E-03     81.4251E-03
            1708     7.67594E-03     41.7337E-03    -24.7136E+06    -107.822E+06    -6.84243E+06    -635.101E+03    -55.6127E-03     109.531E-03    -53.9186E-03     73.9367E-03    -55.7064E-03     109.174E-03    -53.7606E-03     73.5089E-03
            1709     6.82340E-03     41.6627E-03    -26.5747E+06    -112.051E+06    -5.76802E+06    -585.354E+03    -55.2088E-03     109.096E-03    -53.8874E-03     65.9366E-03    -55.2659E-03     108.678E-03    -53.7152E-03     65.5911E-03
            1710     5.97081E-03     41.5997E-03    -29.0665E+06    -115.899E+06    -9.49801E+06     5.59589E+03    -54.8437E-03     108.681E-03    -53.8375E-03     57.9152E-03    -54.8722E-03     108.223E-03    -53.6748E-03     57.6459E-03
            1711     5.11791E-03     41.5450E-03    -31.9061E+06    -127.439E+06    -14.8855E+06     373.325E+03    -54.5330E-03     108.329E-03    -53.7958E-03     49.7503E-03    -54.5295E-03     107.803E-03    -53.6391E-03     49.5428E-03
            1712     4.26514E-03     41.4985E-03    -34.4015E+06    -135.748E+06    -21.0648E+06     170.104E+03    -54.2603E-03     108.010E-03    -53.7497E-03     41.5603E-03    -54.2326E-03     107.439E-03    -53.6083E-03     41.3983E-03
            1713     3.41211E-03     41.4603E-03    -36.8212E+06    -142.939E+06    -27.3037E+06    -217.604E+03    -54.0371E-03     107.743E-03    -53.7062E-03     33.3148E-03    -53.9909E-03     107.138E-03    -53.5820E-03     33.1886E-03
            1714     2.55923E-03     41.4305E-03    -38.9306E+06    -147.630E+06    -33.1562E+06     52.8486E+03    -53.8545E-03     107.520E-03    -53.6653E-03     25.0866E-03    -53.7959E-03     106.895E-03    -53.5605E-03     24.9990E-03
            1715     1.70616E-03     41.4091E-03    -40.3352E+06    -152.950E+06    -37.5670E+06     229.779E+03    -53.7204E-03     107.359E-03    -53.6386E-03     16.9081E-03    -53.6498E-03     106.711E-03    -53.5461E-03     16.8537E-03
            1716     852.989E-06     41.3959E-03    -41.3155E+06    -155.420E+06    -40.6536E+06     123.674E+03    -53.6537E-03     107.268E-03    -53.6145E-03     9.21898E-03    -53.5769E-03     106.612E-03    -53.5325E-03     9.19020E-03
            1717     16.2076E-03     42.4960E-03    -6.69932E+06     150.445E+06     101.976E+06    -76.0268E+03    -68.3749E-03     122.679E-03    -54.3038E-03     307.219E-03    -88.2243E-03     142.743E-03    -54.0024E-03     312.762E-03
            1718     15.3459E-03     42.0259E-03    -11.3736E+06     133.853E+06     88.6279E+06    -564.925E+03    -78.8911E-03     133.149E-03    -54.2583E-03     401.927E-03    -101.252E-03     155.688E-03    -53.9928E-03     400.963E-03
            1719     14.4986E-03     41.6607E-03    -15.5275E+06     100.142E+06     44.5091E+06    -259.486E+03    -69.9416E-03     124.039E-03    -54.0978E-03     290.194E-03    -78.5800E-03     132.849E-03    -53.9980E-03     287.351E-03
            1720     13.6421E-03     41.4355E-03    -16.9676E+06     70.5185E+06     927.021E+03     1.92473E+06    -60.9670E-03     114.907E-03    -53.9398E-03     189.156E-03    -63.9242E-03     118.051E-03    -54.0128E-03     187.261E-03
            1721     12.7896E-03     41.2823E-03    -16.1032E+06     26.4420E+06    -17.4469E+06     2.79555E+06    -58.6399E-03     112.542E-03    -53.9017E-03     140.777E-03    -60.0604E-03     114.049E-03    -54.0040E-03     139.359E-03
            1722     11.9382E-03     41.1530E-03    -16.2544E+06    -27.1541E+06    -17.3206E+06     2.11094E+06    -57.9128E-03     111.846E-03    -53.9335E-03     120.175E-03    -58.7343E-03     112.564E-03    -53.9572E-03     119.050E-03
            1723     11.0857E-03     41.0405E-03    -18.3305E+06    -64.0198E+06    -14.9124E+06     826.087E+03    -57.2801E-03     111.226E-03    -53.9455E-03     106.953E-03    -57.7973E-03     111.494E-03    -53.9007E-03     106.025E-03
            1724     10.2337E-03     40.9376E-03    -19.8579E+06    -85.5604E+06    -13.0985E+06     172.134E+03    -56.8975E-03     110.826E-03    -53.9281E-03     97.7536E-03    -57.2337E-03     110.826E-03    -53.8408E-03     96.9835E-03
            1725     9.38133E-03     40.8431E-03    -19.9295E+06    -99.0016E+06    -5.65919E+06     682.101E+03    -56.4900E-03     110.411E-03    -53.9207E-03     89.4252E-03    -56.7090E-03     110.224E-03    -53.7765E-03     88.7990E-03
            1726     8.52931E-03     40.7562E-03    -21.0776E+06    -102.519E+06    -2.65540E+06     466.303E+03    -56.0588E-03     109.935E-03    -53.8764E-03     81.2659E-03    -56.2043E-03     109.650E-03    -53.7105E-03     80.7534E-03
            1727     7.67695E-03     40.6778E-03    -23.8848E+06    -107.028E+06    -3.80113E+06    -442.930E+03    -55.5892E-03     109.407E-03    -53.8178E-03     73.4115E-03    -55.6836E-03     109.048E-03    -53.6470E-03     72.9865E-03
            1728     6.82436E-03     40.6070E-03    -26.6083E+06    -112.441E+06     -5.7025E+06    -1.00640E+06    -55.1527E-03     108.916E-03    -53.7634E-03     65.6143E-03    -55.2089E-03     108.495E-03    -53.5903E-03     65.2651E-03
            1729     5.97148E-03     40.5443E-03    -28.9106E+06    -117.255E+06    -9.52329E+06    -302.227E+03    -54.7737E-03     108.478E-03    -53.7039E-03     57.5823E-03    -54.7990E-03     108.012E-03    -53.5396E-03     57.3104E-03
            1730     5.11875E-03     40.4896E-03    -31.2445E+06    -127.090E+06    -14.2677E+06     207.272E+03    -54.4430E-03     108.095E-03    -53.6518E-03     49.4294E-03    -54.4372E-03     107.568E-03    -53.4936E-03     49.2208E-03
            1731     4.26573E-03     40.4434E-03    -33.8617E+06    -135.396E+06    -20.6491E+06    -73.3622E+03    -54.1539E-03     107.748E-03    -53.5943E-03     41.2933E-03    -54.1243E-03     107.178E-03    -53.4521E-03     41.1290E-03
            1732     3.41280E-03     40.4053E-03    -36.3429E+06    -142.968E+06    -26.9096E+06    -42.1833E+03    -53.9072E-03     107.448E-03    -53.5410E-03     33.1051E-03    -53.8590E-03     106.841E-03    -53.4156E-03     32.9817E-03
            1733     2.55960E-03     40.3757E-03    -38.5468E+06    -147.938E+06    -33.0418E+06    -42.8265E+03    -53.7028E-03     107.193E-03    -53.4904E-03     24.9169E-03    -53.6420E-03     106.566E-03    -53.3853E-03     24.8286E-03
            1734     1.70645E-03     40.3543E-03    -40.1095E+06    -152.804E+06    -37.6372E+06     58.3071E+03    -53.5679E-03     107.017E-03    -53.4495E-03     16.7908E-03    -53.4962E-03     106.370E-03    -53.3579E-03     16.7345E-03
            1735     853.332E-06     40.3412E-03    -41.0541E+06    -155.231E+06    -40.3565E+06     226.694E+03    -53.4873E-03     106.875E-03    -53.3874E-03     9.08826E-03    -53.4100E-03     106.218E-03    -53.3046E-03     9.06115E-03
            1736     16.1951E-03     41.4423E-03      -4.815E+06     150.839E+06     103.014E+06     336.850E+03    -68.2473E-03     122.603E-03    -54.3555E-03     307.850E-03    -88.1323E-03     142.707E-03    -54.0521E-03     313.424E-03
            1737     15.3493E-03     40.9629E-03    -11.4430E+06     135.102E+06     84.7878E+06     662.222E+03    -79.1610E-03     133.450E-03    -54.2888E-03     401.525E-03    -101.475E-03     155.957E-03    -54.0442E-03     400.525E-03
            1738     14.4937E-03     40.6064E-03    -17.2053E+06     99.2548E+06     37.0363E+06    -10.0024E+03    -70.1141E-03     124.218E-03    -54.1040E-03     289.845E-03    -78.7185E-03     133.006E-03    -54.0378E-03     287.025E-03
            1739     13.6421E-03     40.3787E-03    -19.1304E+06     68.4830E+06    -2.23473E+06    -735.309E+03    -62.0250E-03     115.955E-03    -53.9302E-03     188.776E-03    -64.9995E-03     119.111E-03    -54.0130E-03     186.796E-03
            1740     12.7909E-03     40.2242E-03    -17.0946E+06     25.5429E+06    -15.7793E+06    -73.3475E+03    -58.9051E-03     112.770E-03    -53.8651E-03     139.419E-03    -60.3233E-03     114.264E-03    -53.9562E-03     137.957E-03
            1741     11.9388E-03     40.0966E-03    -14.2710E+06    -27.8359E+06    -14.5562E+06     1.86269E+06    -57.9340E-03     111.813E-03    -53.8787E-03     119.236E-03    -58.7453E-03     112.517E-03    -53.8904E-03     118.107E-03
            1742     11.0870E-03     39.9834E-03    -13.7693E+06    -62.9290E+06    -7.98354E+06     3.30611E+06    -57.4034E-03     111.294E-03    -53.8910E-03     106.181E-03    -57.9084E-03     111.550E-03    -53.8197E-03     105.282E-03
            1743     10.2348E-03     39.8813E-03    -16.0084E+06    -83.6590E+06    -5.17645E+06     2.23782E+06    -56.9737E-03     110.834E-03    -53.8606E-03     96.9409E-03    -57.3037E-03     110.825E-03    -53.7419E-03     96.1956E-03
            1744     9.38300E-03     39.7865E-03    -19.0728E+06    -98.6659E+06    -3.38745E+06     426.872E+03    -56.5145E-03     110.330E-03    -53.8153E-03     88.9430E-03    -56.7318E-03     110.139E-03    -53.6615E-03     88.3143E-03
            1745     8.53057E-03     39.7004E-03    -20.7484E+06    -102.234E+06    -2.75272E+06     272.949E+03    -55.9961E-03     109.745E-03    -53.7489E-03     80.9477E-03    -56.1388E-03     109.459E-03    -53.5843E-03     80.4357E-03
            1746     7.67791E-03     39.6219E-03    -22.3678E+06    -106.256E+06    -3.15155E+06     351.585E+03    -55.5317E-03     109.215E-03    -53.6831E-03     73.0807E-03    -55.6195E-03     108.855E-03    -53.5124E-03     72.6686E-03
            1747     6.82520E-03     39.5516E-03    -25.6483E+06    -111.964E+06    -5.33012E+06    -19.6145E+03    -55.1099E-03     108.727E-03    -53.6168E-03     65.1895E-03    -55.1618E-03     108.305E-03    -53.4439E-03     64.8545E-03
            1748     5.97258E-03     39.4889E-03    -29.0403E+06    -117.828E+06    -10.2611E+06    -741.089E+03    -54.6876E-03     108.229E-03    -53.5417E-03     57.1924E-03    -54.7110E-03     107.761E-03    -53.3800E-03     56.9163E-03
            1749     5.11956E-03     39.4347E-03    -31.2107E+06    -127.404E+06    -14.5110E+06    -679.406E+03    -54.3232E-03     107.804E-03    -53.4805E-03     49.1194E-03    -54.3161E-03     107.276E-03    -53.3230E-03     48.9006E-03
            1750     4.26657E-03     39.3884E-03    -33.1126E+06    -135.395E+06    -19.7500E+06    -285.541E+03    -54.0079E-03     107.426E-03    -53.4186E-03     41.0178E-03    -53.9757E-03     106.853E-03    -53.2730E-03     40.8518E-03
            1751     3.41334E-03     39.3507E-03    -35.3940E+06    -143.332E+06    -25.7929E+06    -61.1376E+03    -53.7452E-03     107.105E-03    -53.3599E-03     32.8918E-03    -53.6932E-03     106.493E-03    -53.2297E-03     32.7692E-03
            1752     2.56017E-03     39.3210E-03    -37.5421E+06    -147.849E+06    -32.0965E+06     216.691E+03    -53.5410E-03     106.841E-03    -53.2996E-03     24.7484E-03    -53.4765E-03     106.211E-03    -53.1913E-03     24.6642E-03
            1753     1.70684E-03     39.2999E-03    -39.4601E+06    -152.911E+06    -36.9898E+06     313.492E+03    -53.3868E-03     106.634E-03    -53.2472E-03     16.6803E-03    -53.3126E-03     105.984E-03    -53.1532E-03     16.6279E-03
            1754     853.432E-06     39.2868E-03    -40.6975E+06    -154.771E+06    -40.0544E+06     285.473E+03    -53.2652E-03     106.455E-03    -53.1897E-03     8.97437E-03    -53.1871E-03     105.800E-03    -53.1065E-03     8.94819E-03
            1755     16.2019E-03     40.3748E-03    -5.15894E+06     149.920E+06     102.182E+06     59.3687E+03    -67.6101E-03     121.968E-03    -54.3575E-03     306.996E-03    -87.3825E-03     141.958E-03    -54.0565E-03     312.692E-03
            1756     15.3475E-03     39.9129E-03    -11.4853E+06     133.203E+06     87.0054E+06     841.582E+03    -78.6330E-03     132.947E-03    -54.3143E-03     399.180E-03    -100.732E-03     155.226E-03    -54.0558E-03     398.303E-03
            1757     14.4938E-03     39.5466E-03    -14.7960E+06     101.531E+06     45.3682E+06     1.19562E+06    -71.0445E-03     125.168E-03    -54.1230E-03     288.718E-03    -79.6457E-03     133.945E-03    -54.0220E-03     285.831E-03
            1758     13.6446E-03     39.3203E-03    -17.4377E+06     70.9205E+06     3.01438E+06    -314.482E+03    -62.4944E-03     116.375E-03    -53.8804E-03     186.646E-03    -65.4621E-03     119.524E-03    -53.9429E-03     184.644E-03
            1759     12.7922E-03     39.1682E-03    -20.6414E+06     23.6753E+06    -18.0870E+06    -779.376E+03    -58.7109E-03     112.480E-03    -53.7696E-03     139.172E-03    -60.1336E-03     113.966E-03    -53.8644E-03     137.712E-03
            1760     11.9400E-03     39.0394E-03    -23.1933E+06    -29.7351E+06    -21.8043E+06     156.112E+03    -57.9438E-03     111.708E-03    -53.7640E-03     119.218E-03    -58.7833E-03     112.423E-03    -53.7963E-03     118.071E-03
            1761     11.0882E-03     38.9269E-03    -22.4371E+06    -63.5641E+06    -16.8065E+06     513.695E+03    -57.4554E-03     111.209E-03    -53.7538E-03     105.935E-03    -57.9866E-03     111.484E-03    -53.7131E-03     105.003E-03
            1762     10.2363E-03     38.8246E-03    -19.5480E+06    -82.4015E+06    -10.1910E+06     1.03543E+06    -56.9404E-03     110.661E-03    -53.7201E-03     96.7805E-03    -57.2798E-03     110.668E-03    -53.6233E-03     96.0246E-03
            1763     9.38377E-03     38.7305E-03    -18.2955E+06    -97.2533E+06    -5.02747E+06     778.512E+03    -56.4748E-03     110.151E-03    -53.6766E-03     88.6605E-03    -56.6858E-03     109.967E-03    -53.5342E-03     88.0402E-03
            1764     8.53143E-03     38.6444E-03    -19.7958E+06    -102.654E+06    -2.86183E+06     232.655E+03    -55.9818E-03     109.591E-03    -53.6090E-03     80.4875E-03    -56.1177E-03     109.300E-03    -53.4458E-03     79.9769E-03
            1765     7.67905E-03     38.5665E-03    -22.2182E+06    -106.383E+06    -2.38054E+06     768.589E+03    -55.5129E-03     109.046E-03    -53.5329E-03     72.5730E-03    -55.6000E-03     108.683E-03    -53.3583E-03     72.1674E-03
            1766     6.82658E-03     38.4961E-03    -24.4118E+06    -110.875E+06    -3.46742E+06     606.584E+03    -55.0296E-03     108.483E-03    -53.4535E-03     64.7154E-03    -55.0788E-03     108.062E-03    -53.2747E-03     64.3900E-03
            1767     5.97355E-03     38.4341E-03    -27.0366E+06    -117.046E+06    -8.40179E+06    -211.220E+03    -54.5750E-03     107.941E-03    -53.3660E-03     56.8032E-03    -54.5917E-03     107.471E-03    -53.1991E-03     56.5356E-03
            1768     5.12061E-03     38.3798E-03    -30.5114E+06    -127.823E+06    -14.3878E+06    -745.652E+03    -54.1780E-03     107.468E-03    -53.2903E-03     48.7813E-03    -54.1665E-03     106.936E-03    -53.1326E-03     48.5633E-03
            1769     4.26737E-03     38.3341E-03    -33.6808E+06    -135.822E+06    -20.5412E+06    -626.011E+03    -53.8256E-03     107.045E-03    -53.2193E-03     40.7429E-03    -53.7941E-03     106.471E-03    -53.0762E-03     40.5742E-03
            1770     3.41411E-03     38.2963E-03    -36.0530E+06    -143.767E+06    -26.6506E+06    -290.221E+03    -53.5530E-03     106.710E-03    -53.1565E-03     32.6852E-03    -53.5022E-03     106.098E-03    -53.0290E-03     32.5610E-03
            1771     2.56063E-03     38.2670E-03    -37.9073E+06    -148.304E+06    -32.3610E+06     189.389E+03    -53.3426E-03     106.438E-03    -53.0957E-03     24.6048E-03    -53.2788E-03     105.807E-03    -52.9875E-03     24.5213E-03
            1772     1.70719E-03     38.2458E-03    -39.2361E+06    -152.543E+06    -36.5976E+06     524.585E+03    -53.1567E-03     106.208E-03    -53.0511E-03     16.5485E-03    -53.0825E-03     105.559E-03    -52.9561E-03     16.4995E-03
            1773     853.618E-06     38.2331E-03    -40.1573E+06    -154.173E+06    -39.3306E+06     188.120E+03    -53.0529E-03     106.079E-03    -53.0260E-03     8.97430E-03    -52.9740E-03     105.425E-03    -52.9408E-03     8.94694E-03
            1774     16.2012E-03     39.3232E-03    -6.31659E+06     149.538E+06     101.203E+06     683.147E+03    -68.0741E-03     122.392E-03    -54.3180E-03     307.266E-03    -87.7115E-03     142.244E-03    -54.0196E-03     312.849E-03
            1775     15.3462E-03     38.8543E-03    -11.0891E+06     134.112E+06     88.1741E+06    -382.888E+03    -79.3112E-03     133.567E-03    -54.2560E-03     399.361E-03    -101.416E-03     155.853E-03    -53.9935E-03     398.355E-03
            1776     14.4983E-03     38.4880E-03    -15.1883E+06     101.402E+06     46.6329E+06    -484.204E+03    -71.3207E-03     125.354E-03    -54.0337E-03     288.098E-03    -79.9652E-03     134.170E-03    -53.9256E-03     285.122E-03
            1777     13.6450E-03     38.2634E-03    -17.8612E+06     70.4770E+06     4.47947E+06     1.41264E+06    -61.8098E-03     115.607E-03    -53.7968E-03     186.824E-03    -64.7524E-03     118.723E-03    -53.8507E-03     184.887E-03
            1778     12.7929E-03     38.1114E-03     -19.278E+06     24.4255E+06    -15.0318E+06     1.78786E+06    -58.9523E-03     112.651E-03    -53.6984E-03     139.207E-03    -60.3781E-03     114.138E-03    -53.7811E-03     137.771E-03
            1779     11.9411E-03     37.9825E-03    -18.1728E+06    -29.0216E+06    -19.5490E+06     45.3279E+03    -58.1249E-03     111.788E-03    -53.6627E-03     118.820E-03    -58.9411E-03     112.493E-03    -53.6920E-03     117.669E-03
            1780     11.0894E-03     37.8701E-03    -16.7688E+06    -63.8569E+06    -15.8187E+06    -687.983E+03    -57.4346E-03     111.067E-03    -53.6327E-03     105.433E-03    -57.9352E-03     111.328E-03    -53.5949E-03     104.489E-03
            1781     10.2371E-03     37.7685E-03    -17.8196E+06    -83.2704E+06    -8.41258E+06    -436.352E+03    -56.9593E-03     110.558E-03    -53.5986E-03     96.1992E-03    -57.2899E-03     110.554E-03    -53.4941E-03     95.4247E-03
            1782     9.38533E-03     37.6742E-03    -19.3539E+06    -97.0675E+06    -3.16642E+06     157.593E+03    -56.4742E-03     110.017E-03    -53.5425E-03     87.9973E-03    -56.6920E-03     109.830E-03    -53.3895E-03     87.3695E-03
            1783     8.53311E-03     37.5889E-03    -20.9114E+06    -102.792E+06    -2.23841E+06     662.579E+03    -55.9556E-03     109.408E-03    -53.4526E-03     79.9233E-03    -56.0965E-03     109.116E-03    -53.2844E-03     79.4197E-03
            1784     7.68059E-03     37.5108E-03    -22.7260E+06    -106.353E+06    -2.26783E+06     370.978E+03    -55.4194E-03     108.778E-03    -53.3589E-03     72.1370E-03    -55.5079E-03     108.415E-03    -53.1831E-03     71.7290E-03
            1785     6.82764E-03     37.4413E-03    -24.6645E+06    -110.196E+06    -4.03656E+06     14.8216E+03    -54.9028E-03     108.167E-03    -53.2645E-03     64.3131E-03    -54.9524E-03     107.750E-03    -53.0892E-03     63.9828E-03
            1786     5.97483E-03     37.3791E-03    -27.0233E+06    -116.771E+06    -8.64214E+06     114.797E+03    -54.4322E-03     107.602E-03    -53.1697E-03     56.4163E-03    -54.4481E-03     107.132E-03    -53.0044E-03     56.1553E-03
            1787     5.12164E-03     37.3256E-03    -29.8372E+06    -127.468E+06    -13.9409E+06     206.902E+03    -54.0067E-03     107.095E-03    -53.0887E-03     48.4437E-03    -53.9924E-03     106.563E-03    -52.9303E-03     48.2403E-03
            1788     4.26830E-03     37.2799E-03    -33.0598E+06    -135.943E+06    -20.6550E+06    -157.399E+03    -53.6478E-03     106.657E-03    -53.0092E-03     40.4701E-03    -53.6124E-03     106.082E-03    -52.8674E-03     40.3093E-03
            1789     3.41477E-03     37.2426E-03    -35.9699E+06    -144.110E+06    -27.2080E+06    -189.710E+03    -53.3575E-03     106.297E-03    -52.9392E-03     32.4427E-03    -53.3048E-03     105.684E-03    -52.8142E-03     32.3213E-03
            1790     2.56124E-03     37.2132E-03    -38.0018E+06    -148.744E+06    -33.0485E+06    -68.2635E+03    -53.1054E-03     105.984E-03    -52.8790E-03     24.4073E-03    -53.0402E-03     105.352E-03    -52.7735E-03     24.3216E-03
            1791     1.70751E-03     37.1924E-03    -39.0213E+06    -152.390E+06    -36.7233E+06     6.44839E+03    -52.9294E-03     105.774E-03    -52.8450E-03     16.3891E-03    -52.8541E-03     105.126E-03    -52.7511E-03     16.3339E-03
            1792     853.675E-06     37.1797E-03     -39.481E+06    -153.688E+06    -39.0195E+06     136.391E+03    -52.8819E-03     105.682E-03    -52.7997E-03     8.94561E-03    -52.8007E-03     105.029E-03    -52.7147E-03     8.91784E-03
            1793     16.2004E-03     38.2703E-03    -3.76141E+06     150.116E+06     103.624E+06     754.336E+03    -69.6491E-03     123.976E-03    -54.3272E-03     306.467E-03    -89.4069E-03     143.953E-03    -54.0213E-03     311.759E-03
            1794     15.3515E-03     37.7938E-03    -9.06004E+06     135.754E+06     89.9240E+06     1.29971E+06    -80.5369E-03     134.724E-03    -54.1872E-03     399.823E-03    -102.747E-03     157.123E-03    -53.9213E-03     398.541E-03
            1795     14.4980E-03     37.4323E-03    -15.5341E+06     100.804E+06     41.8904E+06     915.619E+03    -70.7091E-03     124.629E-03    -53.9201E-03     287.868E-03    -79.2962E-03     133.398E-03    -53.8343E-03     284.977E-03
            1796     13.6454E-03     37.2069E-03    -18.1232E+06     68.3574E+06     1.21667E+06     453.516E+03    -61.9978E-03     115.697E-03    -53.6991E-03     186.874E-03    -64.9409E-03     118.815E-03    -53.7658E-03     184.917E-03
            1797     12.7941E-03     37.0532E-03    -15.9380E+06     26.0859E+06    -11.5546E+06     127.882E+03    -59.1888E-03     112.791E-03    -53.6021E-03     138.188E-03    -60.6023E-03     114.274E-03    -53.6746E-03     136.722E-03
            1798     11.9431E-03     36.9259E-03    -14.9036E+06    -28.0416E+06    -16.0131E+06    -149.004E+03    -58.0988E-03     111.648E-03    -53.5491E-03     117.982E-03    -58.9007E-03     112.344E-03    -53.5669E-03     116.831E-03
            1799     11.0908E-03     36.8138E-03    -16.4621E+06    -64.2375E+06    -14.5923E+06     217.516E+03    -57.4126E-03     110.916E-03    -53.5037E-03     105.095E-03    -57.9102E-03     111.170E-03    -53.4596E-03     104.165E-03
            1800     10.2393E-03     36.7120E-03    -17.4712E+06    -82.9313E+06    -6.91073E+06     184.962E+03    -56.9716E-03     110.429E-03    -53.4574E-03     95.7886E-03    -57.3008E-03     110.422E-03    -53.3464E-03     95.0246E-03
            1801     9.38687E-03     36.6187E-03    -18.8070E+06    -98.0341E+06    -1.81711E+06     186.505E+03    -56.4564E-03     109.844E-03    -53.3874E-03     87.6297E-03    -56.6701E-03     109.648E-03    -53.2270E-03     87.0053E-03
            1802     8.53445E-03     36.5332E-03    -20.3244E+06    -102.585E+06    -3.04800E+06     391.564E+03    -55.8822E-03     109.154E-03    -53.2721E-03     79.5464E-03    -56.0173E-03     108.862E-03    -53.1091E-03     79.0435E-03
            1803     7.68182E-03     36.4561E-03    -22.0247E+06    -105.942E+06    -2.86215E+06     200.541E+03    -55.3150E-03     108.483E-03    -53.1681E-03     71.6791E-03    -55.3982E-03     108.120E-03    -52.9968E-03     71.2725E-03
            1804     6.82918E-03     36.3864E-03    -24.6771E+06    -110.058E+06    -4.72796E+06     147.416E+03    -54.7617E-03     107.827E-03    -53.0651E-03     63.8748E-03    -54.8093E-03     107.410E-03    -52.8934E-03     63.5496E-03
            1805     5.97599E-03     36.3251E-03    -27.7088E+06    -116.964E+06    -9.75959E+06     218.392E+03    -54.2641E-03     107.226E-03    -52.9618E-03     56.0246E-03    -54.2806E-03     106.757E-03    -52.8008E-03     55.7681E-03
            1806     5.12268E-03     36.2715E-03    -30.3941E+06    -127.359E+06    -14.7793E+06     324.517E+03    -53.8425E-03     106.716E-03    -52.8732E-03     48.0774E-03    -53.8293E-03     106.185E-03    -52.7184E-03     47.8779E-03
            1807     4.26921E-03     36.2264E-03    -32.7534E+06    -135.535E+06    -20.4017E+06     392.586E+03    -53.4737E-03     106.261E-03    -52.7870E-03     40.1208E-03    -53.4374E-03     105.686E-03    -52.6450E-03     39.9687E-03
            1808     3.41563E-03     36.1890E-03    -35.3151E+06    -144.214E+06    -26.4629E+06     256.441E+03    -53.1481E-03     105.859E-03    -52.7112E-03     32.1423E-03    -53.0927E-03     105.243E-03    -52.5832E-03     32.0280E-03
            1809     2.56181E-03     36.1602E-03    -37.5884E+06    -148.471E+06    -32.7229E+06     21.5135E+03    -52.8776E-03     105.522E-03    -52.6439E-03     24.1605E-03    -52.8112E-03     104.889E-03    -52.5378E-03     24.0770E-03
            1810     1.70787E-03     36.1393E-03    -39.1455E+06    -152.583E+06    -37.2205E+06    -196.074E+03    -52.7168E-03     105.314E-03    -52.5970E-03     16.2338E-03    -52.6410E-03     104.665E-03    -52.5051E-03     16.1767E-03
            1811     854.072E-06     36.1266E-03    -39.9168E+06    -153.746E+06    -39.2679E+06    -163.359E+03    -52.6302E-03     105.169E-03    -52.5392E-03     8.83432E-03    -52.5508E-03     104.517E-03    -52.4548E-03     8.80293E-03
            1812     16.1996E-03     37.2041E-03    -6.99047E+06     149.139E+06     102.033E+06    -1.14219E+06    -69.8326E-03     124.101E-03    -54.2682E-03     304.392E-03    -89.4868E-03     143.964E-03    -53.9642E-03     309.622E-03
            1813     15.3501E-03     36.7363E-03    -11.8187E+06     132.926E+06     91.3450E+06    -173.072E+03    -79.9394E-03     134.076E-03    -54.1369E-03     398.231E-03    -101.996E-03     156.298E-03    -53.8557E-03     397.047E-03
            1814     14.4988E-03     36.3757E-03    -13.4799E+06     101.546E+06     49.8343E+06     1.23418E+06    -71.0327E-03     124.919E-03    -53.8866E-03     287.742E-03    -79.5791E-03     133.634E-03    -53.7651E-03     284.868E-03
            1815     13.6482E-03     36.1491E-03    -14.7983E+06     70.4907E+06     3.52962E+06     113.282E+03    -62.5952E-03     116.195E-03    -53.6000E-03     186.680E-03    -65.5470E-03     119.334E-03    -53.6631E-03     184.687E-03
            1816     12.7968E-03     35.9964E-03    -17.2474E+06     25.3736E+06    -16.7267E+06    -535.101E+03    -59.0511E-03     112.506E-03    -53.4545E-03     138.068E-03    -60.4517E-03     113.984E-03    -53.5499E-03     136.606E-03
            1817     11.9441E-03     35.8695E-03    -19.1326E+06    -28.2063E+06    -18.6871E+06     716.038E+03    -57.9961E-03     111.413E-03    -53.4167E-03     117.965E-03    -58.8098E-03     112.113E-03    -53.4415E-03     116.833E-03
            1818     11.0926E-03     35.7574E-03    -18.7529E+06    -62.8388E+06    -19.4747E+06    -400.084E+03    -57.4609E-03     110.808E-03    -53.3468E-03     105.069E-03    -57.9609E-03     111.075E-03    -53.3258E-03     104.137E-03
            1819     10.2402E-03     35.6561E-03    -17.3592E+06    -83.9724E+06    -12.0530E+06    -871.398E+03    -56.9988E-03     110.284E-03    -53.2850E-03     95.6333E-03    -57.3150E-03     110.275E-03    -53.1983E-03     94.8611E-03
            1820     9.38839E-03     35.5628E-03    -17.7453E+06    -99.1138E+06    -2.24732E+06     901.814E+03    -56.4811E-03     109.702E-03    -53.2210E-03     87.1461E-03    -56.6851E-03     109.498E-03    -53.0628E-03     86.5340E-03
            1821     8.53610E-03     35.4782E-03    -20.2394E+06    -101.421E+06    -3.69233E+06     894.476E+03    -55.8348E-03     108.921E-03    -53.0858E-03     78.9895E-03    -55.9680E-03     108.633E-03    -52.9278E-03     78.4967E-03
            1822     7.68354E-03     35.4010E-03    -22.8428E+06    -105.864E+06    -4.13471E+06     264.145E+03    -55.2014E-03     108.169E-03    -52.9680E-03     71.1710E-03    -55.2853E-03     107.808E-03    -52.8020E-03     70.7693E-03
            1823     6.83043E-03     35.3323E-03    -25.1485E+06    -110.125E+06    -5.19579E+06     391.022E+03    -54.6309E-03     107.488E-03    -52.8573E-03     63.3946E-03    -54.6788E-03     107.071E-03    -52.6871E-03     63.0761E-03
            1824     5.97726E-03     35.2710E-03    -27.5899E+06    -116.936E+06    -9.71795E+06     447.496E+03    -54.1319E-03     106.874E-03    -52.7424E-03     55.4963E-03    -54.1470E-03     106.405E-03    -52.5814E-03     55.2452E-03
            1825     5.12389E-03     35.2181E-03    -30.2247E+06    -127.236E+06    -14.5554E+06     348.946E+03    -53.6707E-03     106.312E-03    -52.6410E-03     47.5736E-03    -53.6566E-03     105.781E-03    -52.4855E-03     47.3764E-03
            1826     4.27028E-03     35.1729E-03    -32.9422E+06    -135.513E+06    -20.0194E+06     332.137E+03    -53.2496E-03     105.797E-03    -52.5473E-03     39.7187E-03    -53.2144E-03     105.222E-03    -52.4032E-03     39.5678E-03
            1827     3.41644E-03     35.1363E-03    -35.3419E+06    -143.946E+06    -25.6428E+06     429.591E+03    -52.9111E-03     105.379E-03    -52.4682E-03     31.8368E-03    -52.8571E-03     104.763E-03    -52.3365E-03     31.7263E-03
            1828     2.56246E-03     35.1074E-03    -37.5717E+06    -148.119E+06     -31.818E+06     345.102E+03    -52.6564E-03     105.049E-03    -52.3926E-03     23.9450E-03    -52.5916E-03     104.417E-03    -52.2825E-03     23.8668E-03
            1829     1.70847E-03     35.0868E-03    -39.4259E+06    -152.318E+06    -36.8475E+06     108.337E+03    -52.4732E-03     104.803E-03    -52.3299E-03     16.1206E-03    -52.3997E-03     104.156E-03    -52.2361E-03     16.0682E-03
            1830     854.183E-06     35.0741E-03    -40.5308E+06    -154.111E+06    -40.0133E+06    -348.993E+03    -52.3344E-03     104.613E-03    -52.2784E-03     8.69573E-03    -52.2565E-03     103.961E-03    -52.1962E-03     8.66232E-03
            1831     16.2067E-03     36.1497E-03    -5.81459E+06     149.659E+06     102.365E+06     339.177E+03    -69.7302E-03     123.921E-03    -54.1911E-03     304.454E-03    -89.2974E-03     143.702E-03    -53.8878E-03     309.689E-03
            1832     15.3521E-03     35.6805E-03    -11.4194E+06     133.853E+06     85.6795E+06    -1.67290E+06    -79.4946E-03     133.544E-03    -54.0492E-03     399.198E-03    -101.644E-03     155.879E-03    -53.7983E-03     398.152E-03
            1833     14.5000E-03     35.3172E-03    -16.0241E+06     99.5888E+06     41.8058E+06    -2.28487E+06    -71.7284E-03     125.516E-03    -53.7877E-03     287.861E-03    -80.3066E-03     134.270E-03    -53.6999E-03     284.863E-03
            1834     13.6489E-03     35.0909E-03    -17.3506E+06     69.8701E+06     1.38542E+06    -138.521E+03    -62.5447E-03     116.050E-03    -53.5054E-03     186.558E-03    -65.4847E-03     119.173E-03    -53.5746E-03     184.569E-03
            1835     12.7969E-03     34.9402E-03    -18.1823E+06     24.7170E+06    -17.2594E+06     1.56886E+06    -59.0971E-03     112.457E-03    -53.3600E-03     138.164E-03    -60.4964E-03     113.930E-03    -53.4558E-03     136.733E-03
            1836     11.9457E-03     34.8125E-03    -17.9445E+06    -27.4937E+06    -19.2403E+06     499.291E+03    -58.2062E-03     111.507E-03    -53.3012E-03     117.774E-03    -59.0122E-03     112.208E-03    -53.3316E-03     116.638E-03
            1837     11.0937E-03     34.7015E-03    -16.9945E+06    -60.2598E+06    -19.4131E+06    -1.09129E+06    -57.5912E-03     110.800E-03    -53.2086E-03     104.605E-03    -58.0828E-03     111.073E-03    -53.1936E-03     103.665E-03
            1838     10.2422E-03     34.5999E-03    -17.8433E+06    -86.2668E+06    -13.5850E+06    -1.01660E+06    -57.0873E-03     110.215E-03    -53.1272E-03     95.0652E-03    -57.3976E-03     110.195E-03    -53.0442E-03     94.2930E-03
            1839     9.38999E-03     34.5073E-03    -19.0479E+06    -101.020E+06    -3.51923E+06     680.131E+03    -56.4747E-03     109.520E-03    -53.0450E-03     86.4882E-03    -56.6778E-03     109.307E-03    -52.8885E-03     85.8765E-03
            1840     8.53771E-03     34.4230E-03    -20.0930E+06    -100.208E+06    -2.83258E+06     1.50539E+06    -55.7851E-03     108.681E-03    -52.8962E-03     78.3359E-03    -55.9185E-03     108.396E-03    -52.7360E-03     77.8544E-03
            1841     7.68488E-03     34.3469E-03    -22.1220E+06    -105.093E+06    -3.66705E+06     777.746E+03    -55.1311E-03     107.890E-03    -52.7588E-03     70.5074E-03    -55.2114E-03     107.529E-03    -52.5927E-03     70.1154E-03
            1842     6.83202E-03     34.2781E-03    -24.7111E+06    -110.415E+06    -4.61213E+06     428.986E+03    -54.5366E-03     107.169E-03    -52.6320E-03     62.7187E-03    -54.5815E-03     106.747E-03    -52.4591E-03     62.4033E-03
            1843     5.97881E-03     34.2176E-03    -27.4142E+06    -116.693E+06    -8.86154E+06     546.836E+03    -53.9676E-03     106.469E-03    -52.5013E-03     54.8806E-03    -53.9825E-03     105.998E-03    -52.3366E-03     54.6334E-03
            1844     5.12525E-03     34.1649E-03    -30.2665E+06    -127.069E+06    -14.1221E+06     538.338E+03    -53.4476E-03     105.835E-03    -52.3872E-03     47.0812E-03    -53.4338E-03     105.303E-03    -52.2297E-03     46.8893E-03
            1845     4.27139E-03     34.1204E-03    -33.1733E+06    -135.495E+06    -20.3589E+06     592.834E+03    -53.0101E-03     105.293E-03    -52.2830E-03     39.2889E-03    -52.9750E-03     104.718E-03    -52.1402E-03     39.1438E-03
            1846     3.41733E-03     34.0837E-03    -36.0893E+06    -143.702E+06    -26.4541E+06     531.941E+03    -52.6637E-03     104.858E-03    -52.1945E-03     31.4617E-03    -52.6124E-03     104.245E-03    -52.0661E-03     31.3543E-03
            1847     2.56318E-03     34.0553E-03    -38.3093E+06    -147.714E+06    -32.5530E+06     344.409E+03    -52.3861E-03     104.499E-03    -52.1128E-03     23.6604E-03    -52.3243E-03     103.871E-03    -52.0058E-03     23.5835E-03
            1848     1.70878E-03     34.0348E-03    -39.6601E+06    -151.913E+06    -37.1313E+06     117.379E+03    -52.1783E-03     104.232E-03    -52.0536E-03     15.9243E-03    -52.1061E-03     103.587E-03    -51.9615E-03     15.8730E-03
            1849     854.515E-06     34.0224E-03    -40.6301E+06    -154.147E+06    -40.1253E+06     157.363E+03    -52.0757E-03     104.071E-03    -51.9952E-03     8.59519E-03    -51.9980E-03     103.419E-03    -51.9134E-03     8.56894E-03
            1850     16.2019E-03     35.0935E-03    -3.32079E+06     150.907E+06     104.602E+06     458.230E+03    -70.4615E-03     124.715E-03    -54.2534E-03     304.854E-03    -90.1986E-03     144.673E-03    -53.9444E-03     309.991E-03
            1851     15.3501E-03     34.6205E-03    -9.43824E+06     136.470E+06     88.5830E+06     701.111E+03    -81.1556E-03     135.208E-03    -54.0523E-03     399.590E-03    -103.436E-03     157.682E-03    -53.7936E-03     398.297E-03
            1852     14.5015E-03     34.2581E-03    -16.1599E+06     99.8129E+06     39.9156E+06    -388.879E+03    -71.8139E-03     125.537E-03    -53.7233E-03     287.292E-03    -80.3618E-03     134.266E-03    -53.6450E-03     284.297E-03
            1853     13.6498E-03     34.0350E-03    -20.0306E+06     67.1406E+06    -3.34658E+06    -595.151E+03    -62.5778E-03     116.003E-03    -53.4251E-03     186.141E-03    -65.4992E-03     119.101E-03    -53.5102E-03     184.154E-03
            1854     12.7984E-03     33.8823E-03    -19.8582E+06     24.3479E+06    -19.2259E+06     209.565E+03    -59.4504E-03     112.719E-03    -53.2690E-03     137.729E-03    -60.8543E-03     114.195E-03    -53.3716E-03     136.269E-03
            1855     11.9469E-03     33.7563E-03    -18.5136E+06    -25.3720E+06    -19.3943E+06    -396.915E+03    -58.5080E-03     111.690E-03    -53.1815E-03     117.022E-03    -59.3170E-03     112.399E-03    -53.2148E-03     115.869E-03
            1856     11.0956E-03     33.6448E-03    -18.8013E+06    -59.7493E+06    -19.6167E+06    -965.397E+03    -57.7590E-03     110.821E-03    -53.0622E-03     103.984E-03    -58.2575E-03     111.098E-03    -53.0464E-03     103.045E-03
            1857     10.2437E-03     33.5442E-03    -18.9454E+06    -87.4118E+06    -14.1751E+06    -553.727E+03    -57.1493E-03     110.105E-03    -52.9554E-03     94.4037E-03    -57.4594E-03     110.078E-03    -52.8721E-03     93.6402E-03
            1858     9.39183E-03     33.4519E-03    -19.3109E+06    -102.472E+06    -4.54086E+06    -242.472E+03    -56.4555E-03     109.305E-03    -52.8498E-03     85.7465E-03    -56.6534E-03     109.084E-03    -52.6959E-03     85.1266E-03
            1859     8.53942E-03     33.3683E-03    -19.9802E+06    -100.852E+06    -1.43037E+06     663.813E+03    -55.7479E-03     108.440E-03    -52.6917E-03     77.5166E-03    -55.8795E-03     108.146E-03    -52.5236E-03     77.0274E-03
            1860     7.68691E-03     33.2925E-03    -21.6150E+06    -104.272E+06    -1.11987E+06     1.48730E+06    -55.0690E-03     107.604E-03    -52.5354E-03     69.6775E-03    -55.1500E-03     107.242E-03    -52.3584E-03     69.2974E-03
            1861     6.83385E-03     33.2246E-03    -24.6517E+06    -109.861E+06    -4.90215E+06     1.01940E+06    -54.3757E-03     106.753E-03    -52.3768E-03     62.0479E-03    -54.4192E-03     106.333E-03    -52.2063E-03     61.7441E-03
            1862     5.98036E-03     33.1644E-03    -27.7507E+06    -116.731E+06    -10.0487E+06     765.395E+03    -53.7605E-03     105.991E-03    -52.2306E-03     54.2999E-03    -53.7740E-03     105.521E-03    -52.0714E-03     54.0594E-03
            1863     5.12659E-03     33.1124E-03    -30.6913E+06    -126.828E+06    -14.9813E+06     910.931E+03    -53.2437E-03     105.349E-03    -52.1051E-03     46.4955E-03    -53.2303E-03     104.820E-03    -51.9516E-03     46.3113E-03
            1864     4.27259E-03     33.0681E-03    -33.5465E+06    -135.396E+06    -21.0640E+06     897.689E+03    -52.7894E-03     104.775E-03    -51.9856E-03     38.7280E-03    -52.7549E-03     104.202E-03    -51.8460E-03     38.5889E-03
            1865     3.41844E-03     33.0320E-03    -35.9040E+06    -143.075E+06    -27.0663E+06     734.441E+03    -52.3943E-03     104.276E-03    -51.8815E-03     30.9906E-03    -52.3418E-03     103.666E-03    -51.7574E-03     30.8874E-03
            1866     2.56396E-03     33.0037E-03    -37.9144E+06    -147.269E+06    -32.9604E+06     306.633E+03    -52.0712E-03     103.866E-03    -51.7944E-03     23.3035E-03    -52.0073E-03     103.240E-03    -51.6907E-03     23.2273E-03
            1867     1.70946E-03     32.9835E-03    -39.5306E+06    -151.768E+06    -37.2957E+06     194.594E+03    -51.8572E-03     103.595E-03    -51.7381E-03     15.6641E-03    -51.7842E-03     102.951E-03    -51.6472E-03     15.6147E-03
            1868     854.616E-06     32.9711E-03    -40.6803E+06    -153.841E+06    -39.8178E+06     293.032E+03    -51.7839E-03     103.444E-03    -51.6601E-03     8.45142E-03    -51.7073E-03     102.793E-03    -51.5772E-03     8.42750E-03
            1869     16.1973E-03     34.0247E-03    -7.49980E+06     149.977E+06     101.624E+06    -1.11389E+06    -70.0190E-03     124.299E-03    -54.2803E-03     303.578E-03    -89.6113E-03     144.103E-03    -53.9787E-03     308.625E-03
            1870     15.3542E-03     33.5621E-03    -13.6949E+06     134.989E+06     88.3474E+06    -784.461E+03    -81.8131E-03     135.877E-03    -54.0642E-03     396.566E-03    -103.817E-03     158.056E-03    -53.7984E-03     395.073E-03
            1871     14.5011E-03     33.2007E-03    -16.8398E+06     99.7922E+06     43.6192E+06     366.656E+03    -72.1518E-03     125.854E-03    -53.7018E-03     286.360E-03    -80.6745E-03     134.544E-03    -53.6040E-03     283.371E-03
            1872     13.6502E-03     32.9766E-03    -19.4024E+06     67.4878E+06    -2.89781E+06     695.830E+03    -63.0372E-03     116.388E-03    -53.3511E-03     185.125E-03    -65.9486E-03     119.479E-03    -53.4354E-03     183.139E-03
            1873     12.7995E-03     32.8254E-03    -20.7429E+06     25.6984E+06    -20.4180E+06    -895.122E+03    -59.7074E-03     112.861E-03    -53.1540E-03     136.905E-03    -61.1060E-03     114.337E-03    -53.2632E-03     135.431E-03
            1874     11.9486E-03     32.6987E-03    -20.5702E+06    -24.8338E+06    -20.4325E+06    -1.61942E+06    -58.6530E-03     111.697E-03    -53.0444E-03     116.377E-03    -59.4658E-03     112.408E-03    -53.0808E-03     115.209E-03
            1875     11.0973E-03     32.5889E-03    -19.5820E+06    -60.6071E+06    -20.5041E+06    -1.06599E+06    -57.9418E-03     110.842E-03    -52.8999E-03     103.287E-03    -58.4380E-03     111.113E-03    -52.8861E-03     102.348E-03
            1876     10.2458E-03     32.4881E-03    -19.9539E+06    -87.8646E+06    -14.6153E+06    -420.414E+03    -57.2067E-03     109.975E-03    -52.7687E-03     93.6532E-03    -57.5166E-03     109.945E-03    -52.6854E-03     92.8952E-03
            1877     9.39384E-03     32.3970E-03    -21.5615E+06    -102.522E+06    -6.41642E+06    -388.541E+03    -56.4703E-03     109.103E-03    -52.6332E-03     84.9645E-03    -56.6732E-03     108.885E-03    -52.4854E-03     84.3471E-03
            1878     8.54158E-03     32.3137E-03    -23.3847E+06    -101.962E+06    -6.35034E+06    -546.044E+03    -55.7063E-03     108.146E-03    -52.4394E-03     76.7895E-03    -55.8433E-03     107.856E-03    -52.2894E-03     76.2896E-03
            1879     7.68879E-03     32.2387E-03    -24.5186E+06    -105.440E+06    -4.87362E+06     559.168E+03    -54.9448E-03     107.212E-03    -52.2677E-03     68.9418E-03    -55.0308E-03     106.851E-03    -52.1036E-03     68.5548E-03
            1880     6.83559E-03     32.1714E-03    -26.1397E+06    -108.959E+06    -6.51344E+06     1.55475E+06    -54.2334E-03     106.329E-03    -52.0954E-03     61.2394E-03    -54.2816E-03     105.916E-03    -51.9321E-03     60.9465E-03
            1881     5.98203E-03     32.1119E-03    -28.7588E+06    -116.300E+06    -11.6134E+06     1.02810E+06    -53.6042E-03     105.531E-03    -51.9272E-03     53.4689E-03    -53.6200E-03     105.066E-03    -51.7749E-03     53.2347E-03
            1882     5.12824E-03     32.0603E-03    -31.1145E+06    -126.841E+06    -15.5436E+06     847.235E+03    -53.0389E-03     104.822E-03    -51.7830E-03     45.6913E-03    -53.0260E-03     104.293E-03    -51.6317E-03     45.5084E-03
            1883     4.27412E-03     32.0166E-03    -33.3471E+06    -134.978E+06    -20.7923E+06     906.472E+03    -52.5132E-03     104.160E-03    -51.6470E-03     38.0631E-03    -52.4781E-03     103.588E-03    -51.5069E-03     37.9262E-03
            1884     3.41960E-03     31.9808E-03    -35.6653E+06    -142.493E+06    -26.8662E+06      667.88E+03    -52.0728E-03     103.603E-03    -51.5297E-03     30.4739E-03    -52.0199E-03     102.995E-03    -51.4057E-03     30.3716E-03
            1885     2.56493E-03     31.9529E-03    -37.6694E+06    -146.778E+06    -32.6653E+06     557.554E+03    -51.7293E-03     103.164E-03    -51.4344E-03     22.9206E-03    -51.6651E-03     102.539E-03    -51.3303E-03     22.8490E-03
            1886     1.70994E-03     31.9328E-03    -39.3361E+06    -151.652E+06    -36.6802E+06     454.317E+03    -51.5063E-03     102.877E-03    -51.3712E-03     15.4251E-03    -51.4333E-03     102.233E-03    -51.2777E-03     15.3798E-03
            1887     855.149E-06     31.9206E-03    -40.4329E+06    -153.205E+06    -39.6802E+06     198.679E+03    -51.4098E-03     102.693E-03    -51.2836E-03     8.32464E-03    -51.3331E-03     102.045E-03    -51.2012E-03     8.30019E-03
            1888     16.2057E-03     32.9687E-03    -4.14694E+06     150.622E+06     103.187E+06     1.53875E+06    -70.3124E-03     124.498E-03    -54.1858E-03     304.268E-03    -89.5717E-03     143.978E-03    -53.8823E-03     309.292E-03
            1889     15.3489E-03     32.4992E-03    -11.2287E+06     136.414E+06     83.5793E+06     953.016E+03    -80.6742E-03     134.636E-03    -53.9615E-03     394.839E-03    -102.309E-03     156.473E-03    -53.7251E-03     393.497E-03
            1890     14.5025E-03     32.1418E-03    -17.7409E+06     99.6880E+06     36.6912E+06    -30.0676E+03    -72.3917E-03     125.999E-03    -53.6069E-03     284.732E-03    -80.8602E-03     134.651E-03    -53.5422E-03     281.716E-03
            1891     13.6526E-03     31.9187E-03    -19.1555E+06     68.3584E+06    -2.08828E+06    -392.634E+03    -63.4533E-03     116.711E-03    -53.2574E-03     184.191E-03    -66.3562E-03     119.794E-03    -53.3392E-03     182.174E-03
            1892     12.8017E-03     31.7679E-03    -17.6287E+06     27.1591E+06    -16.6959E+06    -665.419E+03    -59.8909E-03     112.930E-03    -53.0396E-03     136.181E-03    -61.2739E-03     114.396E-03    -53.1369E-03     134.709E-03
            1893     11.9502E-03     31.6424E-03    -17.9329E+06    -24.9468E+06    -19.3721E+06    -773.001E+03    -58.8161E-03     111.712E-03    -52.8962E-03     115.744E-03    -59.6111E-03     112.411E-03    -52.9309E-03     114.589E-03
            1894     11.0992E-03     31.5318E-03    -19.5552E+06    -61.3249E+06    -21.3403E+06    -527.835E+03    -58.0842E-03     110.805E-03    -52.7209E-03     102.336E-03    -58.5731E-03     111.069E-03    -52.7103E-03     101.405E-03
            1895     10.2478E-03     31.4330E-03    -19.8406E+06    -88.0230E+06    -15.5659E+06    -513.088E+03    -57.3088E-03     109.868E-03    -52.5596E-03     92.6639E-03    -57.6125E-03     109.834E-03    -52.4810E-03     91.9071E-03
            1896     9.39586E-03     31.3416E-03    -19.6109E+06    -102.441E+06    -6.89290E+06    -427.612E+03    -56.4969E-03     108.893E-03    -52.3957E-03     84.0213E-03    -56.6857E-03     108.668E-03    -52.2532E-03     83.4081E-03
            1897     8.54365E-03     31.2597E-03    -20.7403E+06    -102.406E+06    -5.95557E+06     3.75333E+03    -55.6913E-03     107.871E-03    -52.1792E-03     75.7095E-03    -55.8121E-03     107.571E-03    -52.0305E-03     75.2207E-03
            1898     7.69084E-03     31.1851E-03    -23.3712E+06    -106.828E+06    -5.18378E+06     402.543E+03    -54.8988E-03     106.877E-03    -51.9785E-03     67.7915E-03    -54.9745E-03     106.506E-03    -51.8156E-03     67.4055E-03
            1899     6.83776E-03     31.1187E-03    -25.6583E+06    -109.295E+06    -5.26357E+06     1.08238E+06    -54.1376E-03     105.919E-03    -51.7818E-03     60.0774E-03    -54.1831E-03     105.501E-03    -51.6124E-03     59.7807E-03
            1900     5.98424E-03     31.0597E-03    -27.7494E+06    -115.128E+06    -9.83264E+06     1.30753E+06    -53.4079E-03     104.992E-03    -51.5839E-03     52.4496E-03    -53.4218E-03     104.527E-03    -51.4259E-03     52.2217E-03
            1901     5.13021E-03     31.0088E-03    -30.5751E+06    -126.692E+06    -15.2055E+06     748.064E+03    -52.7426E-03     104.157E-03    -51.4141E-03     44.8706E-03    -52.7268E-03     103.627E-03    -51.2621E-03     44.6895E-03
            1902     4.27571E-03     30.9657E-03    -33.2273E+06    -134.791E+06    -20.7096E+06     764.149E+03    -52.1781E-03     103.442E-03    -51.2634E-03     37.3851E-03    -52.1422E-03     102.869E-03    -51.1233E-03     37.2490E-03
            1903     3.42099E-03     30.9304E-03    -35.6247E+06    -142.006E+06    -26.7401E+06     843.878E+03    -51.7221E-03     102.855E-03    -51.1327E-03     29.9031E-03    -51.6695E-03     102.249E-03    -51.0088E-03     29.8052E-03
            1904     2.56592E-03     30.9028E-03    -37.7992E+06    -146.369E+06    -32.5588E+06     678.190E+03    -51.3596E-03     102.382E-03    -51.0223E-03     22.4584E-03    -51.2966E-03     101.759E-03    -50.9180E-03     22.3899E-03
            1905     1.71081E-03     30.8830E-03    -39.2888E+06    -151.083E+06    -36.8027E+06     463.214E+03    -51.0915E-03     102.037E-03    -50.9460E-03     15.1233E-03    -51.0188E-03     101.396E-03    -50.8540E-03     15.0791E-03
            1906     855.308E-06     30.8708E-03    -40.1154E+06    -152.738E+06    -39.5059E+06     279.226E+03    -50.9379E-03     101.840E-03    -50.9017E-03     8.18428E-03    -50.8605E-03     101.193E-03    -50.8196E-03     8.16151E-03
            1907     16.2037E-03     31.9100E-03    -4.00550E+06     149.481E+06     103.903E+06     716.068E+03    -71.8630E-03     126.030E-03    -54.1671E-03     305.129E-03    -91.2428E-03     145.625E-03    -53.8586E-03     310.015E-03
            1908     15.3578E-03     31.4449E-03    -8.23492E+06     136.697E+06     89.5379E+06     2.86489E+06    -81.4104E-03     135.330E-03    -53.9197E-03     396.986E-03    -103.205E-03     157.321E-03    -53.6583E-03     395.592E-03
            1909     14.5031E-03     31.0820E-03    -12.1326E+06     103.471E+06     44.8324E+06     2.75945E+06    -72.6548E-03     126.201E-03    -53.5460E-03     284.148E-03    -81.0747E-03     134.815E-03    -53.4543E-03     281.140E-03
            1910     13.6531E-03     30.8600E-03    -14.4893E+06     70.1763E+06    -1.79841E+06    -419.217E+03    -63.5703E-03     116.712E-03    -53.1421E-03     183.228E-03    -66.4308E-03     119.776E-03    -53.2318E-03     181.210E-03
            1911     12.8027E-03     30.7107E-03    -16.1402E+06     25.0001E+06    -20.7120E+06    -109.001E+03    -60.2656E-03     113.152E-03    -52.8859E-03     135.357E-03    -61.6283E-03     114.606E-03    -53.0023E-03     133.882E-03
            1912     11.9525E-03     30.5850E-03    -17.3714E+06    -24.1224E+06    -19.9858E+06     1.31317E+06    -59.1157E-03     111.835E-03    -52.7197E-03     114.756E-03    -59.9026E-03     112.533E-03    -52.7595E-03     113.626E-03
            1913     11.1015E-03     30.4759E-03    -17.1158E+06    -60.2654E+06    -21.3950E+06    -15.3633E+03    -58.2382E-03     110.748E-03    -52.5098E-03     101.179E-03    -58.7105E-03     111.008E-03    -52.5046E-03     100.257E-03
            1914     10.2501E-03     30.3770E-03    -16.8171E+06    -88.4910E+06    -15.5080E+06    -421.266E+03    -57.4499E-03     109.767E-03    -52.3169E-03     91.2887E-03    -57.7335E-03     109.722E-03    -52.2417E-03     90.5345E-03
            1915     9.39857E-03     30.2873E-03    -18.6078E+06    -102.637E+06    -6.16992E+06     130.237E+03    -56.5520E-03     108.675E-03    -52.1233E-03     82.6024E-03    -56.7327E-03     108.443E-03    -51.9783E-03     81.9991E-03
            1916     8.54619E-03     30.2054E-03    -21.0850E+06    -103.196E+06    -4.09077E+06     644.025E+03    -55.6648E-03     107.545E-03    -51.8806E-03     74.3111E-03    -55.7858E-03     107.237E-03    -51.7209E-03     73.8340E-03
            1917     7.69371E-03     30.1322E-03    -23.0727E+06    -106.694E+06    -3.10841E+06     922.024E+03    -54.8073E-03     106.452E-03    -51.6448E-03     66.4730E-03    -54.8824E-03     106.076E-03    -51.4722E-03     66.0969E-03
            1918     6.84044E-03     30.0662E-03    -25.4101E+06    -109.602E+06    -5.60726E+06     558.523E+03    -53.9225E-03     105.331E-03    -51.4080E-03     58.9977E-03    -53.9639E-03     104.909E-03    -51.2403E-03     58.6987E-03
            1919     5.98662E-03     30.0083E-03    -27.6664E+06    -115.195E+06    -10.1663E+06     969.391E+03    -53.1159E-03     104.305E-03    -51.1892E-03     51.5077E-03    -53.1273E-03     103.839E-03    -51.0329E-03     51.2799E-03
            1920     5.13225E-03     29.9581E-03    -30.0693E+06    -125.889E+06    -14.9082E+06     1.32732E+06    -52.4241E-03     103.426E-03    -51.0022E-03     44.0075E-03    -52.4064E-03     102.898E-03    -50.8506E-03     43.8377E-03
            1921     4.27757E-03     29.9156E-03    -33.0404E+06    -134.708E+06    -21.2707E+06     1.03052E+06    -51.8365E-03     102.665E-03    -50.8289E-03     36.5945E-03    -51.7983E-03     102.093E-03    -50.6920E-03     36.4647E-03
            1922     3.42248E-03     29.8807E-03    -35.5755E+06    -141.589E+06    -27.2773E+06     1.03016E+06    -51.3411E-03     102.018E-03    -50.6774E-03     29.2291E-03    -51.2876E-03     101.415E-03    -50.5569E-03     29.1359E-03
            1923     2.56721E-03     29.8536E-03    -37.5082E+06    -145.766E+06    -33.1014E+06     867.328E+03    -50.9311E-03     101.479E-03    -50.5483E-03     21.9449E-03    -50.8665E-03     100.860E-03    -50.4481E-03     21.8804E-03
            1924     1.71154E-03     29.8341E-03    -38.9150E+06    -150.334E+06    -37.1040E+06     533.975E+03    -50.6299E-03     101.089E-03    -50.4592E-03     14.7750E-03    -50.5559E-03     100.451E-03    -50.3703E-03     14.7328E-03
            1925     855.883E-06     29.8222E-03    -39.8126E+06    -152.257E+06    -39.2954E+06     393.874E+03    -50.4542E-03     100.860E-03    -50.4054E-03     7.99014E-03    -50.3763E-03     100.215E-03    -50.3234E-03     7.96945E-03
            1926     16.2026E-03     30.8502E-03    -7.15248E+06     148.221E+06     101.111E+06    -1.06879E+06    -72.1707E-03     126.412E-03    -54.2416E-03     304.555E-03    -91.7330E-03     146.182E-03    -53.9406E-03     309.277E-03
            1927     15.3491E-03     30.3784E-03    -11.2636E+06     132.476E+06     92.1932E+06    -967.769E+03    -83.3914E-03     137.345E-03    -53.9535E-03     395.813E-03    -105.345E-03     159.461E-03    -53.6683E-03     394.106E-03
            1928     14.5061E-03     30.0238E-03    -11.8391E+06     102.865E+06     51.9994E+06     111.532E+03    -73.3455E-03     126.845E-03    -53.4997E-03     282.332E-03    -81.7116E-03     135.384E-03    -53.3717E-03     279.239E-03
            1929     13.6552E-03     29.8020E-03    -13.7665E+06     70.9298E+06     1.34882E+06     2.69320E+06    -63.8780E-03     116.905E-03    -53.0270E-03     182.126E-03    -66.7128E-03     119.939E-03    -53.1032E-03     180.144E-03
            1930     12.8053E-03     29.6524E-03    -17.4184E+06     25.3261E+06    -21.0280E+06     2.60610E+06    -60.6199E-03     113.341E-03    -52.7207E-03     133.953E-03    -61.9762E-03     114.786E-03    -52.8373E-03     132.507E-03
            1931     11.9548E-03     29.5281E-03    -17.4781E+06    -22.5873E+06    -20.0656E+06     296.262E+03    -59.4029E-03     111.914E-03    -52.5113E-03     113.370E-03    -60.1841E-03     112.611E-03    -52.5535E-03     112.225E-03
            1932     11.1042E-03     29.4194E-03    -16.7914E+06    -60.1546E+06    -19.5205E+06     441.861E+03    -58.4474E-03     110.719E-03    -52.2719E-03     99.8269E-03    -58.9146E-03     110.970E-03    -52.2579E-03     98.9123E-03
            1933     10.2532E-03     29.3217E-03    -19.1013E+06    -88.7014E+06    -14.0344E+06     1.38546E+06    -57.5627E-03     109.604E-03    -52.0410E-03     89.8165E-03    -57.8543E-03     109.553E-03    -51.9549E-03     89.0887E-03
            1934     9.40156E-03     29.2326E-03    -21.3643E+06    -102.247E+06    -7.12619E+06     1.02888E+06    -56.5680E-03     108.364E-03    -51.7961E-03     81.1399E-03    -56.7571E-03     108.135E-03    -51.6525E-03     80.5528E-03
            1935     8.54960E-03     29.1521E-03    -22.5270E+06    -103.126E+06    -6.80358E+06     299.908E+03    -55.5414E-03     107.051E-03    -51.5100E-03     73.1033E-03    -55.6618E-03     106.745E-03    -51.3618E-03     72.6287E-03
            1936     7.69659E-03     29.0794E-03    -23.7262E+06    -106.904E+06    -5.13059E+06     296.205E+03    -54.5877E-03     105.839E-03    -51.2513E-03     65.3557E-03    -54.6596E-03     105.462E-03    -51.0875E-03     64.9787E-03
            1937     6.84318E-03     29.0149E-03    -25.8087E+06    -109.549E+06    -6.97366E+06     875.538E+03    -53.6713E-03     104.665E-03    -50.9937E-03     57.8482E-03    -53.7106E-03     104.244E-03    -50.8323E-03     57.5588E-03
            1938     5.98907E-03     28.9575E-03    -28.6614E+06    -115.492E+06    -12.4397E+06     903.165E+03    -52.8334E-03     103.580E-03    -50.7467E-03     50.4076E-03    -52.8444E-03     103.115E-03    -50.5999E-03     50.1837E-03
            1939     5.13466E-03     28.9082E-03    -31.0255E+06    -125.871E+06    -16.1398E+06     1.18374E+06    -52.1137E-03     102.650E-03    -50.5365E-03     42.9753E-03    -52.0979E-03     102.124E-03    -50.3897E-03     42.8071E-03
            1940     4.27965E-03     28.8663E-03    -33.1227E+06    -134.042E+06    -21.3447E+06     1.41611E+06    -51.4635E-03     101.802E-03    -50.3384E-03     35.6852E-03    -51.4258E-03     101.233E-03    -50.2027E-03     35.5632E-03
            1941     3.42433E-03     28.8321E-03    -35.3309E+06    -141.173E+06    -27.5654E+06     1.10265E+06    -50.8938E-03     101.056E-03    -50.1625E-03     28.4785E-03    -50.8388E-03     100.455E-03    -50.0444E-03     28.3885E-03
            1942     2.56850E-03     28.8054E-03    -36.9880E+06    -145.046E+06    -32.9146E+06     987.004E+03    -50.4360E-03     100.455E-03    -50.0189E-03     21.3742E-03    -50.3699E-03     99.8380E-03    -49.9195E-03     21.3132E-03
            1943     1.71254E-03     28.7863E-03    -38.3687E+06    -149.657E+06    -36.3223E+06     908.595E+03    -50.1219E-03     100.038E-03    -49.9162E-03     14.3810E-03    -50.0472E-03     99.4012E-03    -49.8252E-03     14.3449E-03
            1944     856.282E-06     28.7745E-03    -39.3153E+06    -151.208E+06    -38.7430E+06     461.904E+03    -49.9158E-03     99.7492E-03    -49.8333E-03     7.80098E-03    -49.8377E-03     99.1078E-03    -49.7508E-03     7.78151E-03
            1945     16.1972E-03     29.7833E-03    -5.07981E+06     149.900E+06     101.413E+06     16.1297E+03    -72.7591E-03     126.952E-03    -54.1928E-03     301.803E-03    -92.0000E-03     146.413E-03    -53.8958E-03     306.219E-03
            1946     15.3580E-03     29.3177E-03    -11.9938E+06     133.186E+06     86.3920E+06    -3.02486E+06    -83.0170E-03     136.851E-03    -53.8342E-03     390.419E-03    -104.513E-03     158.527E-03    -53.5780E-03     388.570E-03
            1947     14.5054E-03     28.9634E-03    -18.3053E+06     97.7915E+06     42.8246E+06    -2.26957E+06    -73.2094E-03     126.564E-03    -53.3547E-03     279.714E-03    -81.4342E-03     134.947E-03    -53.2558E-03     276.623E-03
            1948     13.6573E-03     28.7432E-03    -21.3787E+06     67.1247E+06    -396.422E+03     1.52795E+06    -64.5123E-03     117.394E-03    -52.8812E-03     181.122E-03    -67.3604E-03     120.405E-03    -52.9495E-03     179.106E-03
            1949     12.8076E-03     28.5944E-03    -19.3040E+06     28.9387E+06    -18.2466E+06     2.01583E+06    -61.0020E-03     113.530E-03    -52.5279E-03     132.641E-03    -62.3621E-03     114.977E-03    -52.6331E-03     131.186E-03
            1950     11.9579E-03     28.4708E-03    -19.1220E+06    -21.0505E+06    -21.2444E+06     722.939E+03    -59.6218E-03     111.881E-03    -52.2589E-03     111.959E-03    -60.4013E-03     112.579E-03    -52.3068E-03     110.823E-03
            1951     11.1075E-03     28.3632E-03    -21.3053E+06    -62.0965E+06    -21.3093E+06     1.37333E+06    -58.6068E-03     110.592E-03    -51.9856E-03     98.4263E-03    -59.0838E-03     110.835E-03    -51.9712E-03     97.5278E-03
            1952     10.2565E-03     28.2663E-03    -20.9701E+06    -87.6886E+06    -14.8948E+06     1.71048E+06    -57.5901E-03     109.303E-03    -51.7131E-03     88.4429E-03    -57.8845E-03     109.255E-03    -51.6301E-03     87.7265E-03
            1953     9.40518E-03     28.1785E-03    -20.6104E+06    -101.202E+06    -8.46868E+06     784.574E+03    -56.5104E-03     107.939E-03    -51.4284E-03     79.8090E-03    -56.6900E-03     107.711E-03    -51.2942E-03     79.2264E-03
            1954     8.55267E-03     28.0992E-03    -21.7584E+06    -102.398E+06    -8.87123E+06     222.722E+03    -55.4226E-03     106.530E-03    -51.1075E-03     71.7788E-03    -55.5330E-03     106.225E-03    -50.9718E-03     71.3105E-03
            1955     7.69979E-03     28.0275E-03    -23.6008E+06    -107.442E+06    -7.76464E+06     122.626E+03    -54.4140E-03     105.231E-03    -50.8169E-03     63.9815E-03    -54.4775E-03     104.852E-03    -50.6657E-03     63.6085E-03
            1956     6.84622E-03     27.9638E-03    -25.6842E+06    -110.598E+06    -6.78766E+06     983.711E+03    -53.4584E-03     103.998E-03    -50.5401E-03     56.3865E-03    -53.4937E-03     103.570E-03    -50.3765E-03     56.1027E-03
            1957     5.99214E-03     27.9076E-03    -27.9866E+06    -114.605E+06    -11.7389E+06     1.47947E+06    -52.5453E-03     102.802E-03    -50.2571E-03     49.0670E-03    -52.5537E-03     102.339E-03    -50.1090E-03     48.8544E-03
            1958     5.13729E-03     27.8590E-03    -30.6356E+06    -125.992E+06    -16.8101E+06     1.02497E+06    -51.7299E-03     101.741E-03    -50.0115E-03     41.8389E-03    -51.7099E-03     101.214E-03    -49.8684E-03     41.6724E-03
            1959     4.28206E-03     27.8180E-03    -32.8570E+06    -133.700E+06    -21.0110E+06     1.06342E+06    -51.0040E-03     100.798E-03    -49.7940E-03     34.7329E-03    -50.9653E-03     100.229E-03    -49.6575E-03     34.6097E-03
            1960     3.42621E-03     27.7845E-03    -34.7191E+06    -140.509E+06    -26.3098E+06     1.11013E+06    -50.3838E-03     99.9869E-03    -49.6032E-03     27.7212E-03    -50.3281E-03     99.3855E-03    -49.4806E-03     27.6341E-03
            1961     2.57007E-03     27.7584E-03    -36.5702E+06    -144.685E+06    -31.6176E+06     1.02126E+06    -49.8957E-03     99.3402E-03    -49.4445E-03     20.8174E-03    -49.8296E-03     98.7224E-03    -49.3398E-03     20.7589E-03
            1962     1.71353E-03     27.7396E-03    -37.8396E+06    -148.670E+06    -35.4833E+06     881.721E+03    -49.5459E-03     98.8719E-03    -49.3260E-03     14.0084E-03    -49.4711E-03     98.2378E-03    -49.2329E-03     13.9734E-03
            1963     856.892E-06     27.7282E-03    -38.5365E+06    -150.088E+06    -37.9492E+06     505.027E+03    -49.3015E-03     98.5562E-03    -49.2546E-03     7.54539E-03    -49.2222E-03     97.9181E-03    -49.1709E-03     7.52707E-03
            1964     16.2116E-03     28.7249E-03    -3.83163E+06     150.935E+06     103.343E+06     847.507E+03    -74.2003E-03     128.300E-03    -54.0992E-03     303.586E-03    -93.3016E-03     147.623E-03    -53.7958E-03     307.886E-03
            1965     15.3558E-03     28.2568E-03    -10.3363E+06     137.554E+06     83.6110E+06     1.33174E+06    -83.0270E-03     136.725E-03    -53.6978E-03     392.498E-03    -104.405E-03     158.312E-03    -53.4642E-03     390.717E-03
            1966     14.5094E-03     27.9049E-03    -18.9343E+06     98.1729E+06     35.5174E+06     804.682E+03    -74.0306E-03     127.222E-03    -53.1914E-03     279.688E-03    -82.2660E-03     135.636E-03    -53.1288E-03     276.582E-03
            1967     13.6595E-03     27.6831E-03    -21.7357E+06     66.3172E+06    -3.65006E+06    -1.03314E+06    -65.2399E-03     117.920E-03    -52.6805E-03     179.289E-03    -68.0626E-03     120.912E-03    -52.7634E-03     177.212E-03
            1968     12.8111E-03     27.5363E-03    -21.1777E+06     27.9780E+06    -20.6701E+06    -224.074E+03    -61.2733E-03     113.553E-03    -52.2796E-03     130.806E-03    -62.6205E-03     114.984E-03    -52.3928E-03     129.323E-03
            1969     11.9611E-03     27.4136E-03    -21.3894E+06    -21.0906E+06    -23.4380E+06     2.46068E+06    -59.8038E-03     111.774E-03    -51.9705E-03     110.615E-03    -60.5818E-03     112.469E-03    -52.0261E-03     109.505E-03
            1970     11.1110E-03     27.3070E-03    -20.6822E+06    -60.7671E+06    -23.2485E+06     1.43429E+06    -58.7140E-03     110.368E-03    -51.6540E-03     96.9540E-03    -59.1784E-03     110.611E-03    -51.6521E-03     96.0623E-03
            1971     10.2603E-03     27.2114E-03    -20.0048E+06    -87.5877E+06    -17.7762E+06     185.974E+03    -57.6036E-03     108.945E-03    -51.3414E-03     86.9152E-03    -57.8823E-03     108.893E-03    -51.2743E-03     86.1862E-03
            1972     9.40846E-03     27.1248E-03    -20.6066E+06    -100.991E+06    -8.66250E+06     954.049E+03    -56.4865E-03     107.520E-03    -51.0336E-03     78.1184E-03    -56.6611E-03     107.288E-03    -50.9005E-03     77.5434E-03
            1973     8.55648E-03     27.0466E-03    -22.5249E+06    -101.518E+06    -7.34239E+06     798.150E+03    -55.3503E-03     106.030E-03    -50.6795E-03     69.9877E-03    -55.4642E-03     105.725E-03    -50.5363E-03     69.5314E-03
            1974     7.70350E-03     26.9762E-03    -24.2795E+06    -107.004E+06    -7.77490E+06    -58.0246E+03    -54.2388E-03     104.578E-03    -50.3397E-03     62.3436E-03    -54.3033E-03     104.199E-03    -50.1882E-03     61.9735E-03
            1975     6.84988E-03     26.9136E-03    -25.4522E+06    -112.087E+06    -6.85233E+06    -7.85654E+03    -53.1727E-03     103.200E-03    -50.0271E-03     54.9250E-03    -53.2022E-03     102.761E-03    -49.8620E-03     54.6339E-03
            1976     5.99540E-03     26.8585E-03    -26.8013E+06    -114.913E+06    -9.85257E+06     1.26857E+06    -52.1728E-03     101.892E-03    -49.7193E-03     47.7550E-03    -52.1759E-03     101.421E-03    -49.5631E-03     47.5446E-03
            1977     5.14037E-03     26.8109E-03    -28.9870E+06    -124.868E+06    -15.0990E+06     1.59790E+06    -51.2649E-03     100.710E-03    -49.4448E-03     40.7026E-03    -51.2395E-03     100.182E-03    -49.2972E-03     40.5482E-03
            1978     4.28454E-03     26.7708E-03    -31.6829E+06    -133.514E+06    -20.5412E+06     962.716E+03    -50.4750E-03     99.6801E-03    -49.2052E-03     33.7782E-03    -50.4304E-03     99.1087E-03    -49.0683E-03     33.6577E-03
            1979     3.42833E-03     26.7380E-03    -34.0534E+06    -140.257E+06    -25.4487E+06     1.02814E+06    -49.8317E-03     98.8335E-03    -49.0018E-03     26.9377E-03    -49.7737E-03     98.2305E-03    -48.8763E-03     26.8526E-03
            1980     2.57160E-03     26.7125E-03    -35.9108E+06    -144.066E+06    -30.9375E+06     1.03579E+06    -49.3121E-03     98.1392E-03    -48.8271E-03     20.2120E-03    -49.2443E-03     97.5222E-03    -48.7208E-03     20.1559E-03
            1981     1.71463E-03     26.6942E-03    -37.2789E+06    -147.759E+06    -35.2159E+06     698.483E+03    -48.9228E-03     97.6205E-03    -48.6976E-03     13.5846E-03    -48.8468E-03     96.9897E-03    -48.6054E-03     13.5487E-03
            1982     857.324E-06     26.6831E-03    -37.9329E+06    -149.089E+06    -37.2732E+06     299.854E+03    -48.6914E-03     97.2982E-03    -48.6068E-03     7.29608E-03    -48.6114E-03     96.6632E-03    -48.5220E-03     7.27597E-03
            1983     16.1987E-03     27.6575E-03    -6.00898E+06     149.073E+06     101.415E+06     500.313E+03    -74.4623E-03     128.562E-03    -54.0999E-03     301.634E-03    -93.4418E-03     147.755E-03    -53.8003E-03     305.815E-03
            1984     15.3568E-03     27.1949E-03    -11.2165E+06     135.859E+06     88.1371E+06     2.26110E+06    -84.1600E-03     137.846E-03    -53.6861E-03     391.744E-03    -105.588E-03     159.461E-03    -53.4261E-03     389.865E-03
            1985     14.5086E-03     26.8414E-03    -13.9630E+06     101.531E+06     44.3209E+06     2.23697E+06    -75.5371E-03     128.628E-03    -53.0905E-03     276.840E-03    -83.7567E-03     137.030E-03    -52.9958E-03     273.602E-03
            1986     13.6637E-03     26.6234E-03    -16.8326E+06     69.0931E+06    -1.46284E+06     1.30664E+06    -65.7081E-03     118.169E-03    -52.4610E-03     176.966E-03    -68.4834E-03     121.134E-03    -52.5441E-03     174.903E-03
            1987     12.8143E-03     26.4783E-03    -19.6777E+06     26.1764E+06    -20.4767E+06     657.864E+03    -61.5738E-03     113.587E-03    -52.0129E-03     129.383E-03    -62.8984E-03     114.994E-03    -52.1247E-03     127.908E-03
            1988     11.9649E-03     26.3565E-03    -17.7788E+06    -21.8689E+06    -20.7345E+06     333.306E+03    -60.0764E-03     111.743E-03    -51.6668E-03     109.019E-03    -60.8288E-03     112.415E-03    -51.7130E-03     107.882E-03
            1989     11.1150E-03     26.2510E-03    -15.7974E+06    -59.9405E+06    -18.0024E+06     1.77440E+06    -58.7977E-03     110.114E-03    -51.3159E-03     95.1703E-03    -59.2376E-03     110.337E-03    -51.2961E-03     94.2882E-03
            1990     10.2641E-03     26.1570E-03    -17.9145E+06    -86.7972E+06    -12.4629E+06     2.30890E+06    -57.6758E-03     108.641E-03    -50.9651E-03     85.0426E-03    -57.9466E-03     108.576E-03    -50.8756E-03     84.3451E-03
            1991     9.41307E-03     26.0713E-03    -20.5443E+06    -100.891E+06    -6.65896E+06     1.32333E+06    -56.4692E-03     107.068E-03    -50.5988E-03     76.2458E-03    -56.6410E-03     106.828E-03    -50.4560E-03     75.6812E-03
            1992     8.56073E-03     25.9948E-03    -21.5953E+06    -100.503E+06    -5.51172E+06     838.462E+03    -55.1886E-03     105.388E-03    -50.1990E-03     68.2759E-03    -55.2977E-03     105.079E-03    -50.0495E-03     67.8268E-03
            1993     7.70768E-03     25.9255E-03    -23.0459E+06    -105.513E+06    -6.70272E+06    -188.064E+03    -53.9675E-03     103.786E-03    -49.8183E-03     60.8219E-03    -54.0260E-03     103.407E-03    -49.6654E-03     60.4577E-03
            1994     6.85368E-03     25.8644E-03    -25.2746E+06    -113.272E+06    -7.97873E+06    -622.431E+03    -52.8026E-03     102.273E-03    -49.4700E-03     53.5532E-03    -52.8251E-03     101.826E-03    -49.3090E-03     53.2614E-03
            1995     5.99895E-03     25.8103E-03    -27.3762E+06    -116.477E+06    -10.7670E+06     382.354E+03    -51.7255E-03     100.865E-03    -49.1397E-03     46.5237E-03    -51.7259E-03     100.386E-03    -48.9850E-03     46.3082E-03
            1996     5.14340E-03     25.7641E-03    -29.0516E+06    -124.319E+06    -14.3777E+06     1.35430E+06    -50.7737E-03     99.6204E-03    -48.8467E-03     39.5728E-03    -50.7491E-03     99.0930E-03    -48.6962E-03     39.4205E-03
            1997     4.28727E-03     25.7248E-03    -31.0698E+06    -132.696E+06    -20.0765E+06     1.40479E+06    -49.9364E-03     98.5194E-03    -48.5830E-03     32.7862E-03    -49.8898E-03     97.9496E-03    -48.4459E-03     32.6757E-03
            1998     3.43050E-03     25.6929E-03    -33.3603E+06    -140.116E+06    -25.8174E+06     1.10716E+06    -49.2447E-03     97.6033E-03    -48.3586E-03     26.1261E-03    -49.1824E-03     97.0000E-03    -48.2362E-03     26.0452E-03
            1999     2.57336E-03     25.6680E-03    -35.2379E+06    -143.389E+06    -30.5531E+06     1.09620E+06    -48.6921E-03     96.8648E-03    -48.1727E-03     19.5659E-03    -48.6222E-03     96.2493E-03    -48.0664E-03     19.5129E-03
            2000     1.71577E-03     25.6502E-03    -36.6953E+06    -146.707E+06    -34.1823E+06     788.525E+03    -48.2736E-03     96.3079E-03    -48.0343E-03     13.1207E-03    -48.1975E-03     95.6798E-03    -47.9392E-03     13.0876E-03
            2001     857.988E-06     25.6393E-03    -37.8379E+06    -148.362E+06    -37.1762E+06     254.851E+03    -48.0187E-03     95.9529E-03    -47.9342E-03     7.06871E-03    -47.9395E-03     95.3212E-03    -47.8501E-03     7.04885E-03
            2002     16.2105E-03     26.6040E-03    -6.71182E+06     148.095E+06     99.9646E+06     421.008E+03    -76.1992E-03     130.312E-03    -54.1129E-03     298.385E-03    -95.1905E-03     149.515E-03    -53.8181E-03     302.104E-03
            2003     15.3569E-03     26.1294E-03    -11.8448E+06     134.068E+06     88.7420E+06     591.611E+03    -86.1353E-03     139.722E-03    -53.5862E-03     389.348E-03    -107.564E-03     161.326E-03    -53.3198E-03     387.053E-03
            2004     14.5152E-03     25.7785E-03    -15.5001E+06     100.861E+06     48.4035E+06     1.23779E+06    -75.7212E-03     128.637E-03    -52.9160E-03     273.422E-03    -83.7836E-03     136.862E-03    -52.7977E-03     270.158E-03
            2005     13.6658E-03     25.5644E-03    -17.2354E+06     69.3090E+06     2.89457E+06     2.44505E+06    -65.8969E-03     118.140E-03    -52.2431E-03     174.623E-03    -68.6289E-03     121.048E-03    -52.3041E-03     172.585E-03
            2006     12.8179E-03     25.4193E-03    -16.8949E+06     29.2723E+06    -16.7396E+06     1.17654E+06    -62.0411E-03     113.776E-03    -51.7350E-03     127.674E-03    -63.3455E-03     115.173E-03    -51.8367E-03     126.201E-03
            2007     11.9693E-03     25.2995E-03    -18.1547E+06    -22.6363E+06    -20.0324E+06    -163.346E+03    -60.3236E-03     111.655E-03    -51.3313E-03     107.236E-03    -61.0657E-03     112.310E-03    -51.3724E-03     106.096E-03
            2008     11.1193E-03     25.1956E-03    -19.8194E+06    -62.8751E+06    -20.1044E+06     1.70636E+06    -58.9315E-03     109.859E-03    -50.9272E-03     93.6336E-03    -59.3749E-03     110.067E-03    -50.9078E-03     92.7576E-03
            2009     10.2690E-03     25.1023E-03    -18.7414E+06    -84.7288E+06    -12.6299E+06     2.70948E+06    -57.6980E-03     108.227E-03    -50.5291E-03     83.4626E-03    -57.9675E-03     108.166E-03    -50.4422E-03     82.7796E-03
            2010     9.41743E-03     25.0187E-03    -18.1257E+06    -99.4097E+06    -5.96586E+06     1.40044E+06    -56.3705E-03     106.492E-03    -50.1219E-03     74.6471E-03    -56.5271E-03     106.249E-03    -49.9813E-03     74.0931E-03
            2011     8.56518E-03     24.9434E-03    -19.1658E+06    -99.9907E+06    -5.60117E+06     487.599E+03    -54.9716E-03     104.655E-03    -49.6835E-03     66.7243E-03    -55.0641E-03     104.341E-03    -49.5387E-03     66.2802E-03
            2012     7.71180E-03     24.8759E-03    -20.8946E+06    -104.730E+06    -6.23484E+06     573.563E+03    -53.6483E-03     102.923E-03    -49.2744E-03     59.3120E-03    -53.6940E-03     102.541E-03    -49.1235E-03     58.9664E-03
            2013     6.85765E-03     24.8159E-03    -23.8376E+06    -113.324E+06    -7.65437E+06     557.917E+03    -52.4232E-03     101.322E-03    -48.8993E-03     52.1314E-03    -52.4361E-03     100.871E-03    -48.7387E-03     51.8624E-03
            2014     6.00249E-03     24.7635E-03    -26.9220E+06    -117.214E+06    -11.9395E+06     295.058E+03    -51.2895E-03     99.8260E-03    -48.5365E-03     45.2050E-03    -51.2828E-03     99.3422E-03    -48.3872E-03     44.9949E-03
            2015     5.14664E-03     24.7181E-03    -29.3150E+06    -125.137E+06    -16.1123E+06     846.973E+03    -50.2751E-03     98.4911E-03    -48.2161E-03     38.3610E-03    -50.2466E-03     97.9611E-03    -48.0727E-03     38.2074E-03
            2016     4.29005E-03     24.6801E-03    -31.4861E+06    -132.056E+06    -20.5933E+06     1.53133E+06    -49.3815E-03     97.3145E-03    -47.9330E-03     31.7388E-03    -49.3362E-03     96.7483E-03    -47.7988E-03     31.6342E-03
            2017     3.43284E-03     24.6489E-03    -33.7151E+06    -139.384E+06    -25.6805E+06     1.38911E+06    -48.6275E-03     96.3199E-03    -47.6924E-03     25.2874E-03    -48.5677E-03     95.7200E-03    -47.5698E-03     25.2136E-03
            2018     2.57507E-03     24.6248E-03    -35.5422E+06    -142.731E+06    -30.6688E+06     951.741E+03    -48.0301E-03     95.5230E-03    -47.4929E-03     18.9338E-03    -47.9622E-03     94.9111E-03    -47.3877E-03     18.8814E-03
            2019     1.71698E-03     24.6075E-03    -36.6219E+06    -145.819E+06    -34.5007E+06     699.881E+03    -47.5975E-03     94.9423E-03    -47.3448E-03     12.6846E-03    -47.5217E-03     94.3189E-03    -47.2527E-03     12.6519E-03
            2020     858.552E-06     24.5970E-03    -37.3694E+06    -147.474E+06    -36.8149E+06     578.032E+03    -47.3025E-03     94.5723E-03    -47.2698E-03     6.85450E-03    -47.2227E-03     93.9438E-03    -47.1859E-03     6.83986E-03
            2021     16.1958E-03     25.5257E-03    -4.02194E+06     147.861E+06     101.724E+06     726.881E+03    -77.9452E-03     131.997E-03    -54.0523E-03     295.188E-03    -96.6035E-03     150.871E-03    -53.7522E-03     298.554E-03
            2022     15.3645E-03     25.0651E-03    -9.53705E+06     134.149E+06     89.1090E+06     1.83320E+06    -87.0090E-03     140.431E-03    -53.4224E-03     386.245E-03    -108.060E-03     161.666E-03    -53.1576E-03     383.801E-03
            2023     14.5151E-03     24.7167E-03    -15.2835E+06     101.020E+06     47.9792E+06     2.34499E+06    -75.9185E-03     128.617E-03    -52.6984E-03     271.908E-03    -83.8527E-03     136.716E-03    -52.5828E-03     268.667E-03
            2024     13.6700E-03     24.5037E-03    -17.8960E+06     69.9149E+06     3.60349E+06     571.884E+03    -66.3913E-03     118.380E-03    -51.9891E-03     172.433E-03    -69.0802E-03     121.244E-03    -52.0465E-03     170.365E-03
            2025     12.8224E-03     24.3607E-03    -18.4077E+06     29.4373E+06    -17.2545E+06     1.26770E+06    -62.3018E-03     113.727E-03    -51.4256E-03     125.861E-03    -63.5911E-03     115.106E-03    -51.5279E-03     124.395E-03
            2026     11.9731E-03     24.2426E-03    -19.9867E+06    -22.0677E+06    -21.3017E+06     2.90688E+06    -60.5259E-03     111.498E-03    -50.9723E-03     105.517E-03    -61.2631E-03     112.148E-03    -51.0178E-03     104.422E-03
            2027     11.1239E-03     24.1399E-03    -20.0389E+06     -62.178E+06    -23.4447E+06     805.284E+03    -59.0692E-03     109.578E-03    -50.5089E-03     92.0072E-03    -59.4993E-03     109.784E-03    -50.5069E-03     91.1282E-03
            2028     10.2732E-03     24.0486E-03    -18.2462E+06    -85.2822E+06    -16.6593E+06    -229.787E+03    -57.6366E-03     107.703E-03    -50.0669E-03     81.9739E-03    -57.8882E-03     107.636E-03    -50.0001E-03     81.2648E-03
            2029     9.42204E-03     23.9662E-03    -17.4258E+06    -98.7135E+06    -5.92002E+06     1.02925E+06    -56.2362E-03     105.878E-03    -49.6419E-03     73.0456E-03    -56.3837E-03     105.631E-03    -49.5031E-03     72.4972E-03
            2030     8.56961E-03     23.8930E-03    -18.8776E+06    -99.4875E+06    -5.38649E+06     1.07189E+06    -54.7789E-03     103.947E-03    -49.1682E-03     65.0447E-03    -54.8660E-03     103.630E-03    -49.0235E-03     64.6170E-03
            2031     7.71614E-03     23.8269E-03    -21.0343E+06    -105.165E+06    -7.34414E+06     1.20928E+06    -53.3610E-03     102.079E-03    -48.7185E-03     57.6961E-03    -53.4014E-03     101.693E-03    -48.5722E-03     57.3670E-03
            2032     6.86157E-03     23.7687E-03    -22.8494E+06    -112.644E+06    -7.42807E+06     1.48282E+06    -52.0661E-03     100.379E-03    -48.3129E-03     50.5664E-03    -52.0726E-03     99.9261E-03    -48.1536E-03     50.3166E-03
            2033     6.00625E-03     23.7174E-03    -25.1934E+06    -116.890E+06    -10.8871E+06     1.25023E+06    -50.8518E-03     98.7742E-03    -47.9224E-03     43.7290E-03    -50.8364E-03     98.2860E-03    -47.7708E-03     43.5373E-03
            2034     5.15000E-03     23.6736E-03    -28.0990E+06    -125.758E+06    -16.0651E+06     1.33373E+06    -49.7525E-03     97.3252E-03    -47.5727E-03     37.0920E-03    -49.7158E-03     96.7889E-03    -47.4299E-03     36.9501E-03
            2035     4.29289E-03     23.6365E-03    -30.6376E+06    -131.958E+06    -20.3319E+06     1.71790E+06    -48.8031E-03     96.0717E-03    -47.2686E-03     30.6571E-03    -48.7531E-03     95.5034E-03    -47.1345E-03     30.5593E-03
            2036     3.43520E-03     23.6065E-03    -32.7758E+06    -138.142E+06    -24.5486E+06     1.56245E+06    -47.9977E-03     95.0102E-03    -47.0126E-03     24.3796E-03    -47.9360E-03     94.4130E-03    -46.8875E-03     24.3115E-03
            2037     2.57689E-03     23.5830E-03    -34.7026E+06    -141.947E+06    -30.4601E+06     1.02751E+06    -47.3474E-03     94.1464E-03    -46.7990E-03     18.2655E-03    -47.2764E-03     93.5366E-03    -46.6952E-03     18.2167E-03
            2038     1.71815E-03     23.5663E-03    -36.1705E+06    -145.147E+06    -34.8644E+06     804.726E+03    -46.8863E-03     93.5377E-03    -46.6514E-03     12.2272E-03    -46.8085E-03     92.9174E-03    -46.5628E-03     12.1976E-03
            2039     859.142E-06     23.5562E-03    -36.7671E+06    -146.399E+06    -36.3039E+06     497.779E+03    -46.6505E-03     93.2023E-03    -46.5518E-03     6.66637E-03    -46.5699E-03     92.5775E-03    -46.4677E-03     6.65162E-03
            2040     16.2165E-03     24.4633E-03    -4.84293E+06     147.501E+06     102.039E+06     246.243E+03    -79.5012E-03     133.472E-03    -53.9711E-03     295.308E-03    -97.8996E-03     152.081E-03    -53.6677E-03     298.380E-03
            2041     15.3617E-03     24.0007E-03    -9.44896E+06     132.985E+06     92.4388E+06     1.14978E+06    -87.6746E-03     140.971E-03    -53.2960E-03     384.505E-03    -108.478E-03     161.944E-03    -53.0130E-03     381.950E-03
            2042     14.5202E-03     23.6528E-03    -12.6226E+06     101.000E+06     53.0715E+06     1.95805E+06    -76.7417E-03     129.250E-03    -52.5082E-03     268.352E-03    -84.5682E-03     137.236E-03    -52.3710E-03     265.034E-03
            2043     13.6738E-03     23.4431E-03    -15.3556E+06     70.9280E+06     4.67392E+06     2.49637E+06    -66.5285E-03     118.245E-03    -51.7169E-03     170.131E-03    -69.1518E-03     121.052E-03    -51.7741E-03     168.096E-03
            2044     12.8257E-03     23.3024E-03    -18.3263E+06     27.6815E+06    -19.5632E+06     3.10236E+06    -62.6137E-03     113.716E-03    -51.1026E-03     124.167E-03    -63.8774E-03     115.070E-03    -51.2140E-03     122.726E-03
            2045     11.9780E-03     23.1852E-03    -17.8566E+06    -20.5932E+06    -21.3095E+06     2.89203E+06    -60.7447E-03     111.351E-03    -50.6062E-03     103.726E-03    -61.4587E-03     111.990E-03    -50.6570E-03     102.638E-03
            2046     11.1284E-03     23.0850E-03    -16.9273E+06    -57.8976E+06    -22.0413E+06     1.05050E+06    -59.1129E-03     109.214E-03    -50.1011E-03     90.2188E-03    -59.5245E-03     109.424E-03    -50.1028E-03     89.3527E-03
            2047     10.2781E-03     22.9951E-03    -17.6203E+06     -85.793E+06    -19.0079E+06    -1.01585E+06    -57.6136E-03     107.225E-03    -49.6110E-03     80.2361E-03    -57.8495E-03     107.149E-03    -49.5561E-03     79.5268E-03
            2048     9.42644E-03     22.9147E-03    -17.7284E+06    -100.878E+06    -8.88753E+06    -166.632E+03    -56.1057E-03     105.254E-03    -49.1480E-03     71.2626E-03    -56.2403E-03     104.993E-03    -49.0205E-03     70.7091E-03
            2049     8.57402E-03     22.8429E-03    -18.4355E+06    -99.8602E+06    -4.09985E+06     2.12649E+06    -54.5824E-03     103.237E-03    -48.6542E-03     63.1651E-03    -54.6635E-03     102.910E-03    -48.5031E-03     62.7597E-03
            2050     7.72040E-03     22.7791E-03    -20.9410E+06    -104.521E+06    -6.50630E+06     2.28851E+06    -53.1118E-03     101.274E-03    -48.1619E-03     55.9175E-03    -53.1501E-03     100.886E-03    -48.0125E-03     55.6099E-03
            2051     6.86583E-03     22.7221E-03    -23.5615E+06    -112.094E+06    -8.64710E+06     1.57475E+06    -51.6928E-03     99.4032E-03    -47.7105E-03     48.9576E-03    -51.6989E-03     98.9529E-03    -47.5570E-03     48.7166E-03
            2052     6.01007E-03     22.6727E-03    -25.8642E+06    -117.020E+06    -11.4994E+06     1.95893E+06    -50.3720E-03     97.6663E-03    -47.2943E-03     42.2552E-03    -50.3567E-03     97.1772E-03    -47.1446E-03     42.0796E-03
            2053     5.15331E-03     22.6300E-03    -28.7674E+06    -125.672E+06    -15.9424E+06     2.62037E+06    -49.2180E-03     96.1410E-03    -46.9229E-03     35.7899E-03    -49.1834E-03     95.6043E-03    -46.7787E-03     35.6705E-03
            2054     4.29587E-03     22.5944E-03    -31.7505E+06    -130.809E+06    -22.3813E+06     2.13075E+06    -48.2084E-03     94.7933E-03    -46.5849E-03     29.5305E-03    -48.1616E-03     94.2344E-03    -46.4611E-03     29.4429E-03
            2055     3.43756E-03     22.5652E-03    -33.5455E+06    -137.023E+06    -26.9674E+06     1.19977E+06    -47.3568E-03     93.6653E-03    -46.3085E-03     23.4433E-03    -47.2965E-03     93.0776E-03    -46.1960E-03     23.3742E-03
            2056     2.57872E-03     22.5428E-03    -34.6734E+06    -141.518E+06    -30.0159E+06     1.09314E+06    -46.6720E-03     92.7666E-03    -46.0945E-03     17.5249E-03    -46.6018E-03     92.1579E-03    -45.9891E-03     17.4796E-03
            2057     1.71935E-03     22.5265E-03    -35.6600E+06    -144.032E+06    -33.3960E+06     886.561E+03    -46.1821E-03     92.1216E-03    -45.9395E-03     11.7061E-03    -46.1054E-03     91.5038E-03    -45.8459E-03     11.6793E-03
            2058     859.705E-06     22.5168E-03    -36.5402E+06    -145.446E+06    -36.0245E+06     472.830E+03    -45.9510E-03     91.7577E-03    -45.8067E-03     6.44558E-03    -45.8710E-03     91.1369E-03    -45.7230E-03     6.43141E-03
            2059     16.1986E-03     23.3936E-03    -6.02434E+06     146.772E+06     100.392E+06    -803.878E+03    -81.2966E-03     135.272E-03    -53.9750E-03     294.665E-03    -99.6156E-03     153.799E-03    -53.6771E-03     297.301E-03
            2060     15.3660E-03     22.9277E-03    -11.3116E+06     130.727E+06     90.4905E+06    -1.15246E+06    -89.6783E-03     142.865E-03    -53.1871E-03     381.342E-03    -110.300E-03     163.649E-03    -52.9078E-03     378.328E-03
            2061     14.5240E-03     22.5911E-03    -14.7441E+06     98.2168E+06     52.5590E+06    -206.011E+03    -77.2114E-03     129.517E-03    -52.3053E-03     264.800E-03    -84.9085E-03     137.358E-03    -52.1636E-03     261.430E-03
            2062     13.6768E-03     22.3828E-03    -15.8327E+06     68.9889E+06     5.97575E+06     3.47448E+06    -67.0782E-03     118.535E-03    -51.4569E-03     168.129E-03    -69.6444E-03     121.273E-03    -51.5040E-03     166.107E-03
            2063     12.8305E-03     22.2430E-03    -15.7111E+06     29.3266E+06    -19.2443E+06     4.61103E+06    -62.8702E-03     113.646E-03    -50.7763E-03     121.948E-03    -64.0947E-03     114.975E-03    -50.8922E-03     120.534E-03
            2064     11.9820E-03     22.1288E-03    -16.3424E+06    -18.5976E+06    -22.2478E+06     2.61502E+06    -60.8530E-03     111.085E-03    -50.2320E-03     101.802E-03    -61.5435E-03     111.716E-03    -50.2925E-03     100.721E-03
            2065     11.1328E-03     22.0298E-03    -16.3878E+06    -55.2805E+06    -21.4639E+06     1.39811E+06    -59.1731E-03     108.867E-03    -49.6942E-03     88.2945E-03    -59.5746E-03     109.077E-03    -49.6976E-03     87.4431E-03
            2066     10.2825E-03     21.9423E-03    -16.6442E+06    -84.3746E+06    -18.1543E+06     714.335E+03    -57.6021E-03     106.766E-03    -49.1644E-03     78.2881E-03    -57.8271E-03     106.686E-03    -49.1087E-03     77.6113E-03
            2067     9.43130E-03     21.8635E-03    -19.1969E+06    -102.828E+06    -12.0214E+06     525.470E+03    -55.9673E-03     104.617E-03    -48.6501E-03     69.3643E-03    -56.0944E-03     104.346E-03    -48.5332E-03     68.8310E-03
            2068     8.57859E-03     21.7939E-03    -21.1531E+06    -101.810E+06    -7.68248E+06     1.72729E+06    -54.3577E-03     102.477E-03    -48.1191E-03     61.3855E-03    -54.4385E-03     102.143E-03    -47.9792E-03     60.9860E-03
            2069     7.72488E-03     21.7315E-03    -22.2331E+06    -103.657E+06    -6.52907E+06     3.05205E+06    -52.8297E-03     100.432E-03    -47.6019E-03     54.1168E-03    -52.8714E-03     100.045E-03    -47.4520E-03     53.8282E-03
            2070     6.86987E-03     21.6769E-03    -24.7526E+06    -110.668E+06    -9.84620E+06     2.61584E+06    -51.3206E-03     98.4288E-03    -47.1082E-03     47.2464E-03    -51.3298E-03     97.9858E-03    -46.9610E-03     47.0273E-03
            2071     6.01375E-03     21.6288E-03    -27.5800E+06    -117.724E+06    -13.6660E+06     2.26729E+06    -49.9377E-03     96.5950E-03    -46.6573E-03     40.6482E-03    -49.9245E-03     96.1056E-03    -46.5150E-03     40.4838E-03
            2072     5.15676E-03     21.5879E-03    -29.3306E+06    -125.419E+06    -16.6750E+06     2.85920E+06    -48.7015E-03     94.9604E-03    -46.2589E-03     34.2981E-03    -48.6673E-03     94.4252E-03    -46.1179E-03     34.1877E-03
            2073     4.29869E-03     21.5533E-03    -30.7442E+06    -128.701E+06    -21.6288E+06     2.44242E+06    -47.6163E-03     93.5138E-03    -45.8976E-03     28.2273E-03    -47.5675E-03     92.9618E-03    -45.7745E-03     28.1486E-03
            2074     3.43999E-03     21.5256E-03    -32.8478E+06    -135.749E+06    -26.0448E+06     1.38158E+06    -46.7177E-03     92.3197E-03    -45.6019E-03     22.3471E-03    -46.6564E-03     91.7354E-03    -45.4877E-03     22.2842E-03
            2075     2.58056E-03     21.5037E-03    -34.7641E+06    -141.026E+06    -29.8519E+06     647.705E+03    -45.9953E-03     91.3611E-03    -45.3659E-03     16.6831E-03    -45.9261E-03     90.7545E-03    -45.2603E-03     16.6347E-03
            2076     1.72071E-03     21.4884E-03    -35.7607E+06    -143.292E+06    -33.2114E+06     404.117E+03    -45.4824E-03     90.6678E-03    -45.1854E-03     11.1770E-03    -45.4074E-03     90.0535E-03    -45.0918E-03     11.1457E-03
            2077     860.497E-06     21.4788E-03    -36.4844E+06    -144.627E+06    -35.6092E+06     474.588E+03    -45.1429E-03     90.2178E-03    -45.0749E-03     6.13232E-03    -45.0643E-03     89.6003E-03    -44.9903E-03     6.11924E-03
            2078     16.2099E-03     22.3155E-03    -5.04822E+06     147.858E+06     100.626E+06     39.2718E+03    -82.3284E-03     136.248E-03    -53.9200E-03     290.287E-03    -100.273E-03     154.409E-03    -53.6240E-03     292.675E-03
            2079     15.3687E-03     21.8615E-03    -11.9611E+06     131.162E+06     86.3008E+06    -1.44936E+06    -89.9255E-03     142.963E-03    -53.0380E-03     375.918E-03    -110.012E-03     163.223E-03    -52.7793E-03     372.778E-03
            2080     14.5236E-03     21.5251E-03    -17.7387E+06     95.8562E+06     44.5103E+06    -1.16373E+06    -77.9555E-03     130.030E-03    -52.0749E-03     260.437E-03    -85.4312E-03     137.655E-03    -51.9656E-03     257.017E-03
            2081     13.6819E-03     21.3210E-03    -20.1369E+06     64.5714E+06    -579.244E+03     526.307E+03    -67.6817E-03     118.845E-03    -51.1637E-03     164.539E-03    -70.1873E-03     121.511E-03    -51.2310E-03     162.473E-03
            2082     12.8344E-03     21.1852E-03    -18.8254E+06     28.9487E+06    -22.5824E+06     2.91825E+06    -62.9788E-03     113.416E-03    -50.4372E-03     119.974E-03    -64.1813E-03     114.720E-03    -50.5648E-03     118.558E-03
            2083     11.9865E-03     21.0714E-03    -17.2897E+06    -15.1433E+06    -24.7199E+06     3.35023E+06    -60.9106E-03     110.763E-03    -49.8522E-03     99.8749E-03    -61.5871E-03     111.396E-03    -49.9288E-03     98.8202E-03
            2084     11.1375E-03     20.9757E-03    -17.5842E+06    -54.3907E+06    -23.5785E+06     1.87998E+06    -59.2159E-03     108.498E-03    -49.2820E-03     86.3978E-03    -59.6082E-03     108.703E-03    -49.2955E-03     85.5654E-03
            2085     10.2873E-03     20.8892E-03    -19.0983E+06    -84.5486E+06    -19.8061E+06     2.69704E+06    -57.5668E-03     106.284E-03    -48.7177E-03     76.3642E-03    -57.7911E-03     106.198E-03    -48.6664E-03     75.7258E-03
            2086     9.43568E-03     20.8134E-03    -20.7218E+06    -101.445E+06    -13.6707E+06     2.69130E+06    -55.8757E-03     104.034E-03    -48.1586E-03     67.3615E-03    -56.0016E-03     103.766E-03    -48.0498E-03     66.8686E-03
            2087     8.58299E-03     20.7452E-03    -22.2413E+06    -102.533E+06    -10.9231E+06     1.25442E+06    -54.1898E-03     101.770E-03    -47.5804E-03     59.3940E-03    -54.2639E-03     101.433E-03    -47.4540E-03     58.9998E-03
            2088     7.72904E-03     20.6852E-03    -23.1594E+06    -105.128E+06    -8.06651E+06     2.19852E+06    -52.5649E-03     99.5970E-03    -47.0320E-03     52.0376E-03    -52.6020E-03     99.2021E-03    -46.8863E-03     51.7479E-03
            2089     6.87395E-03     20.6322E-03    -24.3851E+06    -109.478E+06    -8.08605E+06     3.61595E+06    -51.0106E-03     97.5180E-03    -46.5073E-03     45.1332E-03    -51.0188E-03     97.0744E-03    -46.3537E-03     44.9347E-03
            2090     6.01772E-03     20.5862E-03    -26.7878E+06    -116.557E+06    -12.4218E+06     2.89653E+06    -49.5345E-03     95.5455E-03    -46.0110E-03     38.7007E-03    -49.5182E-03     95.0565E-03    -45.8653E-03     38.5513E-03
            2091     5.16026E-03     20.5468E-03    -29.0317E+06    -125.330E+06    -16.5015E+06     2.10438E+06    -48.1892E-03     93.7613E-03    -45.5721E-03     32.5639E-03    -48.1522E-03     93.2241E-03    -45.4308E-03     32.4498E-03
            2092     4.30188E-03     20.5139E-03    -30.7761E+06    -127.387E+06    -21.3929E+06     2.29038E+06    -47.0105E-03     92.1895E-03    -45.1790E-03     26.7534E-03    -46.9630E-03     91.6425E-03    -45.0566E-03     26.6780E-03
            2093     3.44254E-03     20.4870E-03    -32.2607E+06    -133.912E+06    -25.5093E+06     1.64386E+06    -46.0553E-03     90.9128E-03    -44.8576E-03     21.1112E-03    -45.9937E-03     90.3354E-03    -44.7442E-03     21.0558E-03
            2094     2.58258E-03     20.4665E-03    -33.7534E+06    -140.214E+06    -30.1111E+06     786.915E+03    -45.2875E-03     89.8835E-03    -44.5960E-03     15.7241E-03    -45.2137E-03     89.2794E-03    -44.4943E-03     15.6805E-03
            2095     1.72198E-03     20.4515E-03    -35.4459E+06    -142.937E+06    -34.2483E+06     523.936E+03    -44.7257E-03     89.1215E-03    -44.3958E-03     10.5633E-03    -44.6480E-03     88.5098E-03    -44.3084E-03     10.5355E-03
            2096     861.098E-06     20.4427E-03    -36.2601E+06    -143.901E+06    -35.8374E+06     247.949E+03    -44.3591E-03     88.6334E-03    -44.2742E-03     5.70183E-03    -44.2802E-03     88.0195E-03    -44.1922E-03     5.68679E-03
            2097     16.2094E-03     21.2461E-03    -4.37492E+06     148.497E+06     101.387E+06     825.413E+03    -83.7044E-03     137.537E-03    -53.8326E-03     290.354E-03    -101.353E-03     155.403E-03    -53.5346E-03     292.467E-03
            2098     15.3672E-03     20.7899E-03    -10.5495E+06     133.752E+06     84.1793E+06     1.55445E+06    -90.8918E-03     143.765E-03    -52.8728E-03     373.334E-03    -110.562E-03     163.629E-03    -52.6306E-03     370.075E-03
            2099     14.5314E-03     20.4587E-03    -16.5908E+06     96.9262E+06     39.3800E+06     980.220E+03    -78.6225E-03     130.448E-03    -51.8250E-03     254.986E-03    -85.8302E-03     137.827E-03    -51.7446E-03     251.560E-03
            2100     13.6846E-03     20.2610E-03    -20.1906E+06     63.5994E+06    -4.94905E+06     258.706E+03    -67.7021E-03     118.566E-03    -50.8641E-03     161.170E-03    -70.1229E-03     121.156E-03    -50.9518E-03     159.127E-03
            2101     12.8387E-03     20.1255E-03    -20.2186E+06     27.0927E+06    -25.3367E+06     166.289E+03    -63.1788E-03     113.290E-03    -50.1113E-03     117.870E-03    -64.3529E-03     114.562E-03    -50.2480E-03     116.431E-03
            2102     11.9908E-03     20.0159E-03    -17.4503E+06    -15.3353E+06    -26.2971E+06     1.63198E+06    -61.0482E-03     110.535E-03    -49.4868E-03     97.9735E-03    -61.7028E-03     111.150E-03    -49.5708E-03     96.9106E-03
            2103     11.1416E-03     19.9204E-03    -17.0543E+06    -55.1953E+06    -21.2171E+06     4.65931E+06    -59.3238E-03     108.217E-03    -48.8930E-03     84.2014E-03    -59.7017E-03     108.400E-03    -48.8943E-03     83.4160E-03
            2104     10.2915E-03     19.8377E-03    -19.1299E+06    -83.3031E+06    -16.6613E+06     4.72690E+06    -57.6314E-03     105.914E-03    -48.2824E-03     73.8332E-03    -57.8507E-03     105.818E-03    -48.2171E-03     73.2321E-03
            2105     9.44026E-03     19.7628E-03    -19.8533E+06    -98.9576E+06    -12.0820E+06     2.68367E+06    -55.8764E-03     103.537E-03    -47.6603E-03     64.7464E-03    -55.9947E-03     103.268E-03    -47.5484E-03     64.2643E-03
            2106     8.58777E-03     19.6978E-03    -20.3750E+06    -101.716E+06    -8.82451E+06     1.83331E+06    -54.0764E-03     101.110E-03    -47.0332E-03     56.6973E-03    -54.1384E-03     100.764E-03    -46.9003E-03     56.3206E-03
            2107     7.73371E-03     19.6393E-03    -22.0855E+06    -106.497E+06    -8.58989E+06     1.67394E+06    -52.3332E-03     98.7596E-03    -46.4264E-03     49.4878E-03    -52.3567E-03     98.3516E-03    -46.2830E-03     49.2015E-03
            2108     6.87848E-03     19.5887E-03    -23.3289E+06    -110.585E+06    -7.17775E+06     2.94015E+06    -50.6604E-03     96.5233E-03    -45.8629E-03     42.6997E-03    -50.6589E-03     96.0673E-03    -45.7046E-03     42.5016E-03
            2109     6.02181E-03     19.5445E-03    -25.0146E+06    -114.351E+06    -10.1080E+06     3.76263E+06    -49.0740E-03     94.4006E-03    -45.3266E-03     36.4871E-03    -49.0526E-03     93.9137E-03    -45.1750E-03     36.3571E-03
            2110     5.16406E-03     19.5071E-03    -28.4351E+06    -124.555E+06    -15.7110E+06     3.12240E+06    -47.6507E-03     92.4967E-03    -44.8460E-03     30.6074E-03    -47.6110E-03     91.9594E-03    -44.7027E-03     30.5134E-03
            2111     4.30508E-03     19.4756E-03    -31.4044E+06    -126.128E+06    -23.2803E+06     2.23634E+06    -46.3864E-03     90.7921E-03    -44.4057E-03     25.0909E-03    -46.3399E-03     90.2538E-03    -44.2937E-03     25.0204E-03
            2112     3.44526E-03     19.4502E-03    -32.7778E+06    -132.338E+06    -28.5021E+06     1.37133E+06    -45.3482E-03     89.3973E-03    -44.0491E-03     19.7550E-03    -45.2863E-03     88.8319E-03    -43.9522E-03     19.7005E-03
            2113     2.58465E-03     19.4305E-03    -33.9423E+06    -139.865E+06    -30.8600E+06     1.29500E+06    -44.5327E-03     88.3083E-03    -43.7756E-03     14.6375E-03    -44.4588E-03     87.7069E-03    -43.6779E-03     14.6036E-03
            2114     1.72349E-03     19.4167E-03    -35.0750E+06    -141.776E+06    -33.9368E+06     1.29947E+06    -43.9019E-03     87.4657E-03    -43.5638E-03     9.80987E-03    -43.8243E-03     86.8587E-03    -43.4771E-03     9.79423E-03
            2115     861.856E-06     19.4078E-03    -36.2105E+06    -142.861E+06     -36.246E+06     792.947E+03    -43.5359E-03     86.9590E-03    -43.4231E-03     5.31497E-03    -43.4576E-03     86.3508E-03    -43.3446E-03     5.30816E-03
            2116     16.2070E-03     20.1723E-03    -4.18603E+06     146.280E+06     99.8569E+06     107.078E+03    -85.8471E-03     139.647E-03    -53.8002E-03     287.462E-03    -103.170E-03     157.185E-03    -53.5070E-03     289.025E-03
            2117     15.3745E-03     19.7157E-03    -11.0221E+06     131.850E+06     82.3235E+06     1.99746E+06    -92.2776E-03     144.992E-03    -52.7148E-03     367.817E-03    -111.487E-03     164.393E-03    -52.4784E-03     364.210E-03
            2118     14.5307E-03     19.3935E-03    -14.9918E+06     99.1439E+06     42.7228E+06     3.38183E+06    -78.3777E-03     129.987E-03    -51.6092E-03     249.930E-03    -85.3353E-03     137.120E-03    -51.5176E-03     246.582E-03
            2119     13.6892E-03     19.1986E-03    -17.6310E+06     66.0794E+06    -831.912E+03     1.20207E+06    -67.9597E-03     118.572E-03    -50.6127E-03     157.772E-03    -70.3060E-03     121.093E-03    -50.6871E-03     155.752E-03
            2120     12.8426E-03     19.0679E-03    -18.3015E+06     27.4429E+06    -24.3618E+06    -40.1537E+03    -63.4981E-03     113.298E-03    -49.7999E-03     115.323E-03    -64.6331E-03     114.536E-03    -49.9350E-03     113.888E-03
            2121     11.9948E-03     18.9587E-03    -20.0045E+06    -19.0559E+06    -27.3798E+06     1.74972E+06    -61.3874E-03     110.511E-03    -49.1233E-03     95.4923E-03    -62.0275E-03     111.092E-03    -49.2036E-03     94.4381E-03
            2122     11.1466E-03     18.8668E-03    -19.9240E+06    -57.5844E+06    -21.7922E+06     4.43331E+06    -59.6176E-03     108.087E-03    -48.4691E-03     81.3928E-03    -59.9895E-03     108.247E-03    -48.4656E-03     80.6134E-03
            2123     10.2968E-03     18.7851E-03    -17.8409E+06    -80.0191E+06    -14.5480E+06     4.74063E+06    -57.7989E-03     105.592E-03    -47.7934E-03     70.7849E-03    -58.0062E-03     105.494E-03    -47.7242E-03     70.1953E-03
            2124     9.44569E-03     18.7136E-03    -18.1729E+06    -96.7433E+06    -10.9496E+06     3.12844E+06    -55.8816E-03     102.987E-03    -47.1058E-03     61.6731E-03    -55.9855E-03     102.715E-03    -46.9939E-03     61.2098E-03
            2125     8.59290E-03     18.6502E-03    -20.2357E+06    -101.408E+06    -9.60206E+06     2.51751E+06    -53.9466E-03     100.363E-03    -46.4163E-03     53.7071E-03    -53.9987E-03     100.011E-03    -46.2880E-03     53.3527E-03
            2126     7.73894E-03     18.5947E-03    -22.1309E+06    -105.757E+06    -10.5845E+06     2.38006E+06    -52.0535E-03     97.8033E-03    -45.7497E-03     46.5877E-03    -52.0690E-03     97.3955E-03    -45.6172E-03     46.3234E-03
            2127     6.88326E-03     18.5460E-03    -24.2648E+06    -112.001E+06    -10.7017E+06     2.29650E+06    -50.2274E-03     95.3641E-03    -45.1367E-03     40.0051E-03    -50.2186E-03     94.9027E-03    -44.9926E-03     39.8106E-03
            2128     6.02636E-03     18.5043E-03    -26.0031E+06    -114.622E+06    -11.6444E+06     3.76599E+06    -48.5577E-03     93.1250E-03    -44.5673E-03     33.9486E-03    -48.5353E-03     92.6373E-03    -44.4216E-03     33.8281E-03
            2129     5.16801E-03     18.4685E-03    -27.6352E+06    -122.345E+06    -14.9226E+06     4.15432E+06    -47.0551E-03     91.1072E-03    -44.0521E-03     28.3066E-03    -47.0136E-03     90.5765E-03    -43.9092E-03     28.2333E-03
            2130     4.30870E-03     18.4390E-03    -29.5687E+06    -124.204E+06    -22.0857E+06     2.75083E+06    -45.7062E-03     89.2822E-03    -43.5760E-03     23.1045E-03    -45.6536E-03     88.7477E-03    -43.4635E-03     23.0464E-03
            2131     3.44822E-03     18.4148E-03    -31.7408E+06    -131.456E+06    -28.8159E+06     2.23401E+06    -44.5742E-03     87.7593E-03    -43.1851E-03     18.1633E-03    -44.5072E-03     87.1965E-03    -43.0926E-03     18.1244E-03
            2132     2.58694E-03     18.3965E-03    -33.6797E+06    -139.069E+06    -31.6987E+06     2.04843E+06    -43.6833E-03     86.5752E-03    -42.8919E-03     13.4525E-03    -43.6076E-03     85.9781E-03    -42.7999E-03     13.4318E-03
            2133     1.72502E-03     18.3832E-03    -34.8619E+06    -140.422E+06    -33.6576E+06     1.65354E+06    -43.0183E-03     85.6952E-03    -42.6769E-03     9.02004E-03    -42.9418E-03     85.0940E-03    -42.5910E-03     9.01123E-03
            2134     862.551E-06     18.3754E-03    -35.2494E+06    -140.793E+06    -34.9371E+06     1.29250E+06    -42.6595E-03     85.1838E-03    -42.5243E-03     4.97447E-03    -42.5812E-03     84.5826E-03    -42.4437E-03     4.97549E-03
            2135     16.2111E-03     19.0881E-03    -4.75466E+06     146.352E+06     99.7299E+06     737.271E+03    -88.2013E-03     141.970E-03    -53.7682E-03     285.592E-03    -105.234E-03     159.216E-03    -53.4748E-03     286.793E-03
            2136     15.3742E-03     18.6451E-03    -10.2226E+06     129.507E+06     86.6664E+06     1.93046E+06    -93.1908E-03     145.784E-03    -52.5935E-03     362.117E-03    -111.842E-03     164.609E-03    -52.3331E-03     358.325E-03
            2137     14.5370E-03     18.3266E-03    -13.3360E+06     99.0766E+06     49.8845E+06     2.47899E+06    -78.6612E-03     130.082E-03    -51.4208E-03     243.993E-03    -85.3384E-03     136.919E-03    -51.2957E-03     240.644E-03
            2138     13.6919E-03     18.1374E-03    -15.3553E+06     68.1113E+06     3.22272E+06     2.54820E+06    -68.1632E-03     118.513E-03    -50.3499E-03     153.536E-03    -70.4145E-03     120.943E-03    -50.4103E-03     151.551E-03
            2139     12.8466E-03     18.0086E-03    -18.7263E+06     27.3573E+06    -26.5205E+06     3.25800E+06    -64.0044E-03     113.461E-03    -49.4565E-03     112.200E-03    -65.0989E-03     114.663E-03    -49.6016E-03     110.815E-03
            2140     12.0001E-03     17.9026E-03    -20.2674E+06    -19.7371E+06    -29.5000E+06     3.60067E+06    -61.9233E-03     110.634E-03    -48.7103E-03     92.5804E-03    -62.5358E-03     111.190E-03    -48.7998E-03     91.5582E-03
            2141     11.1516E-03     17.8122E-03    -19.5693E+06    -57.9284E+06    -24.6246E+06     2.59133E+06    -60.0206E-03     107.996E-03    -47.9756E-03     78.3031E-03    -60.3658E-03     108.138E-03    -47.9864E-03     77.5133E-03
            2142     10.3024E-03     17.7336E-03    -18.5794E+06    -79.9402E+06    -18.7115E+06     2.92686E+06    -58.0115E-03     105.232E-03    -47.2201E-03     67.5076E-03    -58.1998E-03     105.125E-03    -47.1708E-03     66.9115E-03
            2143     9.45131E-03     17.6644E-03    -18.3263E+06    -95.3742E+06    -12.5298E+06     4.12778E+06    -55.9408E-03     102.412E-03    -46.4709E-03     58.2044E-03    -56.0323E-03     102.136E-03    -46.3687E-03     57.7707E-03
            2144     8.59892E-03     17.6040E-03    -19.4303E+06    -100.302E+06    -10.0536E+06     3.55389E+06    -53.8329E-03     99.5498E-03    -45.7169E-03     50.1373E-03    -53.8721E-03     99.1933E-03    -45.5936E-03     49.8120E-03
            2145     7.74457E-03     17.5507E-03    -20.9844E+06    -105.029E+06    -10.1378E+06     2.98339E+06    -51.7450E-03     96.7369E-03    -44.9919E-03     43.0206E-03    -51.7492E-03     96.3233E-03    -44.8599E-03     42.7780E-03
            2146     6.88881E-03     17.5049E-03    -22.6971E+06    -111.891E+06    -10.9029E+06     3.08853E+06    -49.7721E-03     94.0925E-03    -44.3204E-03     36.6342E-03    -49.7504E-03     93.6247E-03    -44.1797E-03     36.4619E-03
            2147     6.03136E-03     17.4650E-03    -24.6044E+06    -115.675E+06    -12.6440E+06     3.29805E+06    -47.9572E-03     91.6581E-03    -43.7009E-03     30.8922E-03    -47.9214E-03     91.1611E-03    -43.5607E-03     30.7755E-03
            2148     5.17276E-03     17.4317E-03    -25.7906E+06    -120.469E+06    -14.4873E+06     3.47399E+06    -46.3206E-03     89.4700E-03    -43.1494E-03     25.6267E-03    -46.2709E-03     88.9431E-03    -43.0098E-03     25.5525E-03
            2149     4.31261E-03     17.4037E-03    -27.4879E+06    -123.201E+06    -19.7063E+06     3.72208E+06    -44.8729E-03     87.5285E-03    -42.6556E-03     20.8635E-03    -44.8134E-03     86.9912E-03    -42.5357E-03     20.8242E-03
            2150     3.45151E-03     17.3815E-03    -30.0168E+06    -130.426E+06    -26.1415E+06     4.16536E+06    -43.6794E-03     85.9261E-03    -42.2466E-03     16.3836E-03    -43.6084E-03     85.3612E-03    -42.1447E-03     16.3745E-03
            2151     2.58941E-03     17.3640E-03    -32.2138E+06    -136.701E+06    -31.2516E+06     3.43825E+06    -42.7405E-03     84.6687E-03    -41.9283E-03     12.1191E-03    -42.6611E-03     84.0803E-03    -41.8396E-03     12.1200E-03
            2152     1.72658E-03     17.3520E-03    -33.4885E+06    -138.501E+06    -33.5231E+06     2.14291E+06    -42.0886E-03     83.7852E-03    -41.6966E-03     8.08893E-03    -42.0079E-03     83.1912E-03    -41.6149E-03     8.08875E-03
            2153     863.464E-06     17.3442E-03    -33.7625E+06    -138.271E+06    -33.4709E+06     825.231E+03    -41.7011E-03     83.2093E-03    -41.5081E-03     4.42991E-03    -41.6211E-03     82.6163E-03    -41.4261E-03     4.42574E-03
            2154     16.2088E-03     18.0105E-03    -5.67622E+06     145.139E+06     98.1193E+06     447.157E+03    -89.6575E-03     143.385E-03    -53.7272E-03     282.857E-03    -106.165E-03     160.103E-03    -53.4388E-03     283.744E-03
            2155     15.3766E-03     17.5652E-03    -9.96806E+06     128.691E+06     86.9774E+06     518.077E+03    -93.8228E-03     146.295E-03    -52.4720E-03     354.597E-03    -111.696E-03     164.338E-03    -52.2092E-03     350.647E-03
            2156     14.5388E-03     17.2612E-03    -13.4339E+06     97.1583E+06     46.9783E+06     1.07668E+06    -79.1985E-03     130.404E-03    -51.2058E-03     238.196E-03    -85.5801E-03     136.947E-03    -51.0924E-03     234.831E-03
            2157     13.6968E-03     17.0751E-03    -16.2902E+06     66.0821E+06     1.16205E+06     4.54919E+06    -69.0024E-03     119.065E-03    -50.0624E-03     150.141E-03    -71.1631E-03     121.399E-03    -50.1288E-03     148.184E-03
            2158     12.8516E-03     16.9497E-03    -18.0812E+06     28.5906E+06    -25.4874E+06     6.53061E+06    -64.8074E-03     113.901E-03    -49.0938E-03     109.177E-03    -65.8600E-03     115.065E-03    -49.2365E-03     107.839E-03
            2159     12.0050E-03     16.8455E-03    -18.2331E+06    -16.8252E+06    -30.8132E+06     4.29681E+06    -62.7190E-03     110.958E-03    -48.2395E-03     89.2514E-03    -63.2942E-03     111.499E-03    -48.3428E-03     88.2462E-03
            2160     11.1580E-03     16.7579E-03    -17.8219E+06    -56.3872E+06    -24.6299E+06     2.57288E+06    -60.5905E-03     108.007E-03    -47.4167E-03     74.3127E-03    -60.9052E-03     108.130E-03    -47.4323E-03     73.5368E-03
            2161     10.3088E-03     16.6822E-03    -18.0035E+06    -81.4924E+06    -18.9261E+06     2.84200E+06    -58.3643E-03     104.935E-03    -46.5709E-03     63.1102E-03    -58.5285E-03     104.801E-03    -46.5212E-03     62.5294E-03
            2162     9.45829E-03     16.6158E-03    -18.1907E+06    -95.3426E+06    -12.0779E+06     3.66973E+06    -56.0793E-03     101.809E-03    -45.7301E-03     53.6525E-03    -56.1567E-03     101.519E-03    -45.6259E-03     53.2295E-03
            2163     8.60580E-03     16.5584E-03    -18.2408E+06    -98.7816E+06    -7.98279E+06     3.70246E+06    -53.6960E-03     98.5902E-03    -44.8942E-03     45.5367E-03    -53.7240E-03     98.2261E-03    -44.7644E-03     45.2292E-03
            2164     7.75160E-03     16.5082E-03    -19.3667E+06    -104.924E+06    -9.63130E+06     3.71115E+06    -51.3609E-03     95.4495E-03    -44.0885E-03     38.6764E-03    -51.3505E-03     95.0259E-03    -43.9565E-03     38.4578E-03
            2165     6.89544E-03     16.4649E-03    -21.6362E+06    -111.655E+06    -11.3283E+06     4.32831E+06    -49.1651E-03     92.5173E-03    -43.3522E-03     32.6714E-03    -49.1325E-03     92.0445E-03    -43.2156E-03     32.5280E-03
            2166     6.03764E-03     16.4278E-03    -24.1054E+06    -114.293E+06    -16.0474E+06     3.94337E+06    -47.1488E-03     89.8210E-03    -42.6722E-03     27.4547E-03    -47.1039E-03     89.3314E-03    -42.5517E-03     27.3576E-03
            2167     5.17802E-03     16.3965E-03    -26.5045E+06    -120.062E+06    -19.0832E+06     3.50897E+06    -45.3787E-03     87.4672E-03    -42.0885E-03     22.6760E-03    -45.3242E-03     86.9477E-03    -41.9714E-03     22.6114E-03
            2168     4.31721E-03     16.3707E-03    -28.6161E+06    -123.479E+06    -21.4147E+06     4.59981E+06    -43.8581E-03     85.4502E-03    -41.5921E-03     18.3698E-03    -43.7999E-03     84.9141E-03    -41.4786E-03     18.3488E-03
            2169     3.45509E-03     16.3498E-03    -30.3328E+06    -128.797E+06    -25.6338E+06     5.25502E+06    -42.6372E-03     83.8135E-03    -41.1763E-03     14.3783E-03    -42.5700E-03     83.2556E-03    -41.0737E-03     14.3886E-03
            2170     2.59216E-03     16.3340E-03    -31.8874E+06    -133.713E+06    -29.0460E+06     4.82843E+06    -41.7165E-03     82.5596E-03    -40.8430E-03     10.5686E-03    -41.6426E-03     81.9819E-03    -40.7482E-03     10.5912E-03
            2171     1.72859E-03     16.3225E-03    -33.5733E+06    -134.633E+06    -32.9183E+06     3.27569E+06    -41.0272E-03     81.5972E-03    -40.5700E-03     7.01043E-03    -40.9533E-03     81.0215E-03    -40.4907E-03     7.02736E-03
            2172     864.509E-06     16.3156E-03    -34.6579E+06    -135.715E+06    -35.1631E+06     1.14624E+06    -40.5802E-03     80.9051E-03    -40.3249E-03     3.69108E-03    -40.5058E-03     80.3286E-03    -40.2537E-03     3.69237E-03
            2173     16.2115E-03     16.9205E-03    -4.81813E+06     145.435E+06     97.5749E+06     803.221E+03    -91.2109E-03     144.908E-03    -53.6969E-03     280.643E-03    -107.218E-03     161.132E-03    -53.4129E-03     281.213E-03
            2174     15.3802E-03     16.4942E-03    -11.9224E+06     129.582E+06     80.4729E+06    -225.301E+03    -94.2869E-03     146.618E-03    -52.3315E-03     347.464E-03    -111.389E-03     163.906E-03    -52.0997E-03     343.383E-03
            2175     14.5406E-03     16.1907E-03    -18.3536E+06     94.1059E+06     40.2733E+06     1.37785E+06    -79.8320E-03     130.831E-03    -50.9992E-03     231.846E-03    -85.9230E-03     137.075E-03    -50.9077E-03     228.469E-03
            2176     13.6998E-03     16.0126E-03    -21.9137E+06     61.2930E+06    -206.431E+03     4.34169E+06    -70.3106E-03     120.098E-03    -49.7873E-03     145.513E-03    -72.3916E-03     122.320E-03    -49.8455E-03     143.535E-03
            2177     12.8562E-03     15.8893E-03    -21.5388E+06     29.8309E+06    -25.4756E+06     5.81859E+06    -66.3037E-03     114.989E-03    -48.6858E-03     105.409E-03    -67.3321E-03     116.122E-03    -48.8252E-03     104.045E-03
            2178     12.0119E-03     15.7880E-03    -20.8509E+06    -12.9035E+06    -32.9015E+06     5.17680E+06    -63.8884E-03     111.567E-03    -47.6787E-03     84.5834E-03    -64.4449E-03     112.100E-03    -47.7942E-03     83.5927E-03
            2179     11.1651E-03     15.7035E-03    -22.0401E+06    -54.7866E+06    -28.0054E+06     3.79891E+06    -61.4035E-03     108.126E-03    -46.7223E-03     69.1081E-03    -61.7100E-03     108.241E-03    -46.7509E-03     68.3609E-03
            2180     10.3173E-03     15.6310E-03    -22.5773E+06    -80.5630E+06    -24.4055E+06     2.49707E+06    -58.8505E-03     104.592E-03    -45.7413E-03     57.6785E-03    -59.0107E-03     104.457E-03    -45.7137E-03     57.1100E-03
            2181     9.46697E-03     15.5679E-03    -20.9803E+06    -95.2271E+06    -19.9665E+06     1.41302E+06    -56.1743E-03     100.947E-03    -44.7728E-03     48.2177E-03    -56.2388E-03     100.657E-03    -44.7041E-03     47.7851E-03
            2182     8.61473E-03     15.5138E-03    -19.4873E+06    -99.9584E+06    -12.9212E+06     2.59780E+06    -53.4227E-03     97.2775E-03    -43.8548E-03     40.1871E-03    -53.4367E-03     96.9052E-03    -43.7462E-03     39.8841E-03
            2183     7.76006E-03     15.4670E-03    -20.2061E+06    -105.435E+06    -13.2868E+06     4.82431E+06    -50.7702E-03     93.7471E-03    -42.9769E-03     33.7020E-03    -50.7499E-03     93.3195E-03    -42.8612E-03     33.5149E-03
            2184     6.90337E-03     15.4268E-03    -21.8745E+06    -110.964E+06    -14.2451E+06     5.40493E+06    -48.3224E-03     90.5061E-03    -42.1837E-03     28.1868E-03    -48.2821E-03     90.0357E-03    -42.0623E-03     28.0724E-03
            2185     6.04458E-03     15.3925E-03    -23.7592E+06    -112.844E+06    -17.1738E+06     5.46942E+06    -46.1346E-03     87.6037E-03    -41.4690E-03     23.4437E-03    -46.0848E-03     87.1187E-03    -41.3568E-03     23.3787E-03
            2186     5.18430E-03     15.3636E-03    -26.3701E+06    -119.084E+06    -20.8676E+06     5.50217E+06    -44.2590E-03     85.1124E-03    -40.8534E-03     19.1905E-03    -44.2001E-03     84.5977E-03    -40.7468E-03     19.1617E-03
            2187     4.32240E-03     15.3398E-03    -29.0407E+06    -123.339E+06    -22.8437E+06     5.36238E+06    -42.6980E-03     83.0342E-03    -40.3362E-03     15.4001E-03    -42.6385E-03     82.4999E-03    -40.2295E-03     15.3964E-03
            2188     3.45941E-03     15.3207E-03    -31.1175E+06    -127.275E+06    -25.5541E+06     5.81450E+06    -41.4287E-03     81.3316E-03    -39.9029E-03     11.9447E-03    -41.3669E-03     80.7814E-03    -39.8010E-03     11.9675E-03
            2189     2.59546E-03     15.3059E-03    -32.7954E+06    -130.190E+06    -29.1488E+06     5.29095E+06    -40.4406E-03     79.9892E-03    -39.5485E-03     8.76451E-03    -40.3757E-03     79.4300E-03    -39.4579E-03     8.79698E-03
            2190     1.73083E-03     15.2956E-03    -33.2429E+06    -130.063E+06    -32.2706E+06     3.57031E+06    -39.6999E-03     78.9766E-03    -39.2766E-03     5.81903E-03    -39.6317E-03     78.4221E-03    -39.2012E-03     5.84253E-03
            2191     865.531E-06     15.2893E-03    -33.1578E+06    -132.277E+06    -33.3737E+06     2.04533E+06    -39.3151E-03     78.3395E-03    -39.0244E-03     3.05555E-03    -39.2407E-03     77.7754E-03    -38.9514E-03     3.07022E-03
            2192     16.2106E-03     15.8370E-03    -4.59075E+06     145.703E+06     97.8264E+06     1.49510E+06    -92.5076E-03     146.236E-03    -53.7280E-03     279.263E-03    -108.037E-03     161.982E-03    -53.4435E-03     279.489E-03
            2193     15.3777E-03     15.4124E-03    -11.0607E+06     130.148E+06     81.5111E+06     3.54123E+06    -95.6875E-03     147.957E-03    -52.2695E-03     339.842E-03    -112.027E-03     164.484E-03    -52.0347E-03     335.537E-03
            2194     14.5454E-03     15.1233E-03    -18.3380E+06     93.0444E+06     44.1311E+06     4.56875E+06    -81.6854E-03     132.503E-03    -50.8173E-03     224.545E-03    -87.4800E-03     138.435E-03    -50.7050E-03     221.105E-03
            2195     13.7041E-03     14.9475E-03    -22.0744E+06     60.6417E+06     2.83259E+06     4.79984E+06    -72.3681E-03     121.805E-03    -49.4367E-03     139.359E-03    -74.3363E-03     123.902E-03    -49.4785E-03     137.344E-03
            2196     12.8633E-03     14.8272E-03    -22.4792E+06     30.5306E+06    -25.9106E+06     4.24164E+06    -68.1678E-03     116.309E-03    -48.1415E-03     99.1026E-03    -69.1423E-03     117.388E-03    -48.2827E-03     97.6982E-03
            2197     12.0198E-03     14.7298E-03    -20.6548E+06    -12.0493E+06    -34.1762E+06     4.72733E+06    -65.2448E-03     112.201E-03    -46.9564E-03     78.1422E-03    -65.7609E-03     112.701E-03    -47.0799E-03     77.1470E-03
            2198     11.1751E-03     14.6486E-03    -18.7006E+06    -52.7495E+06    -27.8734E+06     5.38306E+06    -62.3165E-03     108.159E-03    -45.8421E-03     62.5352E-03    -62.5805E-03     108.250E-03    -45.8779E-03     61.8213E-03
            2199     10.3275E-03     14.5802E-03    -18.5209E+06    -76.4854E+06    -22.5876E+06     3.04982E+06    -59.2654E-03     103.988E-03    -44.7224E-03     51.0621E-03    -59.3922E-03     103.843E-03    -44.6976E-03     50.5194E-03
            2200     9.47781E-03     14.5209E-03    -19.4435E+06    -94.5674E+06    -23.7630E+06     907.946E+03    -56.1141E-03     99.7261E-03    -43.6120E-03     41.8446E-03    -56.1500E-03     99.4266E-03    -43.5655E-03     41.4276E-03
            2201     8.62528E-03     14.4709E-03    -20.6767E+06    -103.331E+06    -18.7762E+06     2.40399E+06    -52.9923E-03     95.5837E-03    -42.5914E-03     34.1480E-03    -52.9871E-03     95.1930E-03    -42.5054E-03     33.8637E-03
            2202     7.77032E-03     14.4278E-03    -21.0586E+06    -106.642E+06    -15.0688E+06     4.84265E+06    -50.0251E-03     91.6705E-03    -41.6454E-03     27.9566E-03    -49.9965E-03     91.2324E-03    -41.5355E-03     27.7878E-03
            2203     6.91285E-03     14.3911E-03    -21.3285E+06    -109.828E+06    -14.1947E+06     5.73921E+06    -47.3052E-03     88.0940E-03    -40.7888E-03     22.9452E-03    -47.2583E-03     87.6227E-03    -40.6696E-03     22.8505E-03
            2204     6.05341E-03     14.3596E-03    -22.3881E+06    -112.858E+06    -14.5802E+06     6.38257E+06    -44.9482E-03     84.9836E-03    -40.0354E-03     18.7560E-03    -44.8914E-03     84.4890E-03    -39.9122E-03     18.7153E-03
            2205     5.19191E-03     14.3334E-03    -23.6106E+06    -117.255E+06    -17.2554E+06     6.94148E+06    -42.9563E-03     82.3345E-03    -39.3783E-03     15.1229E-03    -42.8890E-03     81.8172E-03    -39.2603E-03     15.1225E-03
            2206     4.32901E-03     14.3116E-03    -25.3476E+06    -122.045E+06    -19.8366E+06     6.81191E+06    -41.3067E-03     80.1300E-03    -38.8233E-03     12.0022E-03    -41.2335E-03     79.5910E-03    -38.7088E-03     12.0248E-03
            2207     3.46484E-03     14.2943E-03    -27.5435E+06    -125.428E+06    -22.6164E+06     6.65155E+06    -39.9403E-03     78.3058E-03    -38.3655E-03     9.24129E-03    -39.8666E-03     77.7545E-03    -38.2568E-03     9.28057E-03
            2208     2.59954E-03     14.2809E-03    -28.7072E+06    -125.392E+06    -26.8303E+06     5.15271E+06    -38.8574E-03     76.8580E-03    -38.0006E-03     6.80146E-03    -38.7819E-03     76.3131E-03    -37.9113E-03     6.83626E-03
            2209     1.73332E-03     14.2715E-03    -28.8201E+06    -126.529E+06    -28.8893E+06     3.16291E+06    -38.1323E-03     75.8846E-03    -37.7523E-03     4.45165E-03    -38.0518E-03     75.3362E-03    -37.6715E-03     4.47251E-03
            2210     866.770E-06     14.2659E-03    -28.8786E+06    -128.069E+06    -28.6284E+06     2.18913E+06    -37.7599E-03     75.3201E-03    -37.5601E-03     2.28318E-03    -37.6771E-03     74.7638E-03    -37.4757E-03     2.30113E-03
            2211     16.2074E-03     14.7453E-03    -5.76148E+06     142.524E+06     95.6368E+06     940.506E+03    -93.9575E-03     147.749E-03    -53.7914E-03     277.835E-03    -108.972E-03     162.971E-03    -53.5115E-03     277.695E-03
            2212     15.3821E-03     14.3335E-03    -10.3250E+06     125.928E+06     84.0547E+06     4.40570E+06    -98.0393E-03     150.261E-03    -52.2218E-03     330.690E-03    -113.462E-03     165.852E-03    -51.9692E-03     326.003E-03
            2213     14.5458E-03     14.0496E-03    -13.2987E+06     94.1347E+06     52.4707E+06     7.19419E+06    -84.9393E-03     135.511E-03    -50.5721E-03     215.661E-03    -90.4189E-03     141.127E-03    -50.4270E-03     212.057E-03
            2214     13.7124E-03     13.8801E-03    -16.4004E+06     63.1526E+06     7.42619E+06     6.64723E+06    -75.3520E-03     124.276E-03    -48.9239E-03     130.939E-03    -77.1805E-03     126.250E-03    -48.9546E-03     128.871E-03
            2215     12.8728E-03     13.7645E-03    -17.6068E+06     32.3716E+06    -26.0719E+06     5.10999E+06    -70.0117E-03     117.401E-03    -47.3889E-03     92.0027E-03    -70.8994E-03     118.417E-03    -47.5407E-03     90.6010E-03
            2216     12.0316E-03     13.6705E-03    -17.3466E+06    -11.9611E+06    -35.6468E+06     4.37655E+06    -66.5832E-03     112.601E-03    -46.0183E-03     70.9351E-03    -67.0397E-03     113.058E-03    -46.1540E-03     69.9413E-03
            2217     11.1873E-03     13.5943E-03    -15.2858E+06    -51.3521E+06    -31.1913E+06     3.99112E+06    -63.1203E-03     107.844E-03    -44.7236E-03     55.4193E-03    -63.3345E-03     107.913E-03    -44.7829E-03     54.7057E-03
            2218     10.3409E-03     13.5298E-03    -13.5377E+06    -74.1336E+06    -19.9710E+06     4.51307E+06    -59.5157E-03     102.997E-03    -43.4809E-03     43.8709E-03    -59.6027E-03     102.831E-03    -43.4536E-03     43.3696E-03
            2219     9.49092E-03     13.4758E-03    -15.6166E+06    -93.1563E+06    -18.9496E+06     4.83124E+06    -55.8919E-03     98.1488E-03    -42.2569E-03     34.8366E-03    -55.9018E-03     97.8280E-03    -42.1939E-03     34.4931E-03
            2220     8.63822E-03     13.4296E-03    -18.3156E+06    -104.140E+06    -18.1597E+06     3.90380E+06    -52.4326E-03     93.5430E-03    -41.1104E-03     27.5759E-03    -52.4041E-03     93.1329E-03    -41.0237E-03     27.3319E-03
            2221     7.78276E-03     13.3909E-03    -19.3919E+06    -108.154E+06    -13.5998E+06     4.39222E+06    -49.1573E-03     89.2319E-03    -40.0747E-03     21.8236E-03    -49.1125E-03     88.7741E-03    -39.9577E-03     21.6668E-03
            2222     6.92460E-03     13.3579E-03    -20.2370E+06    -109.475E+06    -13.2434E+06     5.78182E+06    -46.1594E-03     85.2920E-03    -39.1325E-03     17.4526E-03    -46.1038E-03     84.8143E-03    -39.0107E-03     17.3734E-03
            2223     6.06386E-03     13.3298E-03    -21.1971E+06    -112.822E+06    -14.3253E+06     6.55886E+06    -43.5611E-03     81.8727E-03    -38.3116E-03     13.9536E-03    -43.4954E-03     81.3727E-03    -38.1889E-03     13.9275E-03
            2224     5.20134E-03     13.3062E-03    -22.4425E+06    -116.136E+06    -16.4136E+06     7.29462E+06    -41.3811E-03     78.9895E-03    -37.6084E-03     11.0808E-03    -41.3087E-03     78.4727E-03    -37.4896E-03     11.0947E-03
            2225     4.33698E-03     13.2868E-03    -23.6249E+06    -120.045E+06    -19.1782E+06     7.60127E+06    -39.5759E-03     76.5978E-03    -37.0218E-03     8.71997E-03    -39.4967E-03     76.0639E-03    -36.9094E-03     8.76021E-03
            2226     3.47114E-03     13.2712E-03    -23.8644E+06    -122.027E+06    -21.3076E+06     6.48344E+06    -38.1334E-03     74.6857E-03    -36.5523E-03     6.67906E-03    -38.0475E-03     74.1434E-03    -36.4473E-03     6.72162E-03
            2227     2.60423E-03     13.2594E-03    -23.9995E+06    -121.367E+06    -21.7439E+06     5.12038E+06    -37.0643E-03     73.2637E-03    -36.1994E-03     4.89273E-03    -36.9782E-03     72.7243E-03    -36.0973E-03     4.93070E-03
            2228     1.73663E-03     13.2509E-03    -25.1490E+06    -122.843E+06    -24.7295E+06     3.94185E+06    -36.3482E-03     72.2829E-03    -35.9347E-03     3.14659E-03    -36.2606E-03     71.7414E-03    -35.8438E-03     3.17978E-03
            2229     868.519E-06     13.2458E-03    -25.9534E+06    -123.570E+06    -26.2880E+06     2.04859E+06    -35.9249E-03     71.6480E-03    -35.7230E-03     1.46117E-03    -35.8374E-03     71.1064E-03    -35.6377E-03     1.47845E-03
            2230     16.2079E-03     13.6488E-03    -4.46944E+06     140.248E+06     94.5487E+06     1.38125E+06    -96.0333E-03     149.854E-03    -53.8204E-03     276.912E-03    -110.557E-03     164.585E-03    -53.5446E-03     276.311E-03
            2231     15.3795E-03     13.2520E-03    -8.54756E+06     121.503E+06     84.2372E+06     3.20567E+06    -101.732E-03     153.806E-03    -52.0748E-03     321.281E-03    -116.276E-03     168.508E-03    -51.8174E-03     316.048E-03
            2232     14.5551E-03     12.9692E-03    -11.5345E+06     92.4863E+06     57.5778E+06     5.77116E+06    -88.9476E-03     139.112E-03    -50.1648E-03     204.646E-03    -94.1063E-03     144.393E-03    -49.9943E-03     200.768E-03
            2233     13.7218E-03     12.8117E-03    -13.4867E+06     64.7393E+06     14.8369E+06     7.57968E+06    -77.9328E-03     126.182E-03    -48.2490E-03     120.843E-03    -79.6245E-03     128.013E-03    -48.2491E-03     118.747E-03
            2234     12.8851E-03     12.6996E-03    -14.9193E+06     34.4205E+06    -25.0912E+06     7.48461E+06    -71.9334E-03     118.392E-03    -46.4585E-03     84.3903E-03    -72.7473E-03     119.349E-03    -46.6122E-03     83.0133E-03
            2235     12.0450E-03     12.6116E-03    -14.8968E+06    -8.38318E+06    -36.6241E+06     5.54473E+06    -67.7794E-03     112.662E-03    -44.8822E-03     63.4459E-03    -68.1854E-03     113.092E-03    -45.0316E-03     62.4811E-03
            2236     11.2022E-03     12.5397E-03    -14.6376E+06    -50.2017E+06    -34.1297E+06     3.84161E+06    -63.7153E-03     107.130E-03    -43.4144E-03     48.0454E-03    -63.8942E-03     107.178E-03    -43.4910E-03     47.3528E-03
            2237     10.3557E-03     12.4810E-03    -15.6116E+06    -76.7754E+06    -22.1643E+06     6.05288E+06    -59.5751E-03     101.612E-03    -42.0371E-03     36.6822E-03    -59.6447E-03     101.419E-03    -42.0139E-03     36.2257E-03
            2238     9.50614E-03     12.4319E-03    -16.2861E+06    -90.2993E+06    -16.2729E+06     7.35977E+06    -55.5248E-03     96.2235E-03    -40.6987E-03     28.0458E-03    -55.5320E-03     95.9000E-03    -40.6255E-03     27.7579E-03
            2239     8.65317E-03     12.3909E-03    -16.5860E+06    -101.620E+06    -18.3627E+06     5.37779E+06    -51.6720E-03     91.0967E-03    -39.4247E-03     21.4096E-03    -51.6286E-03     90.6873E-03    -39.3451E-03     21.2055E-03
            2240     7.79689E-03     12.3566E-03    -17.7376E+06    -109.637E+06    -15.2178E+06     5.25722E+06    -48.0994E-03     86.3949E-03    -38.2955E-03     16.3044E-03    -48.0356E-03     85.9233E-03    -38.1869E-03     16.1759E-03
            2241     6.93773E-03     12.3278E-03    -19.3587E+06    -109.522E+06    -14.4595E+06     6.53173E+06    -44.8430E-03     82.1193E-03    -37.2764E-03     12.6293E-03    -44.7772E-03     81.6380E-03    -37.1618E-03     12.5731E-03
            2242     6.07606E-03     12.3033E-03    -20.9051E+06    -112.028E+06    -16.0786E+06     6.97664E+06    -41.9684E-03     78.3604E-03    -36.3920E-03     9.94016E-03    -41.8976E-03     77.8642E-03    -36.2796E-03     9.92981E-03
            2243     5.21180E-03     12.2828E-03    -21.5720E+06    -115.235E+06    -17.3273E+06     7.11956E+06    -39.5689E-03     75.2238E-03    -35.6548E-03     7.86977E-03    -39.4908E-03     74.7101E-03    -35.5431E-03     7.88956E-03
            2244     4.34575E-03     12.2658E-03    -21.3983E+06    -117.782E+06    -17.7391E+06     7.01900E+06    -37.6587E-03     72.7168E-03    -35.0580E-03     6.15444E-03    -37.5730E-03     72.1881E-03    -34.9449E-03     6.19306E-03
            2245     3.47823E-03     12.2523E-03    -21.7891E+06    -118.274E+06    -18.8939E+06     6.19130E+06    -36.1911E-03     70.7720E-03    -34.5809E-03     4.69384E-03    -36.1034E-03     70.2416E-03    -34.4723E-03     4.73666E-03
            2246     2.60962E-03     12.2417E-03    -22.8429E+06    -118.536E+06    -20.1503E+06     5.15846E+06    -35.1041E-03     69.3207E-03    -34.2166E-03     3.43638E-03    -35.0184E-03     68.7912E-03    -34.1123E-03     3.47751E-03
            2247     1.74021E-03     12.2342E-03    -23.1577E+06    -118.472E+06    -21.6009E+06     4.05217E+06    -34.3323E-03     68.2910E-03    -33.9587E-03     2.26933E-03    -34.2456E-03     67.7639E-03    -33.8614E-03     2.30564E-03
            2248     870.237E-06     12.2298E-03    -23.0413E+06    -118.782E+06    -22.7760E+06     2.17553E+06    -33.9364E-03     67.7073E-03    -33.7709E-03     1.11568E-03    -33.8464E-03     67.1804E-03    -33.6791E-03     1.13549E-03
            2249     16.2067E-03     12.5627E-03    -4.31675E+06     138.785E+06     93.8356E+06     1.05682E+06    -100.188E-03     153.908E-03    -53.7200E-03     273.262E-03    -114.208E-03     168.133E-03    -53.4458E-03     271.775E-03
            2250     15.3868E-03     12.1567E-03    -8.74827E+06     118.799E+06     80.8146E+06     2.12316E+06    -105.649E-03     157.356E-03    -51.7070E-03     310.893E-03    -119.474E-03     171.338E-03    -51.4625E-03     305.020E-03
            2251     14.5631E-03     11.8897E-03    -13.5724E+06     88.7673E+06     53.0364E+06     3.22997E+06    -91.8477E-03     141.368E-03    -49.5198E-03     191.529E-03    -96.6151E-03     146.250E-03    -49.3637E-03     187.475E-03
            2252     13.7340E-03     11.7384E-03    -15.3935E+06     62.3844E+06     16.0201E+06     6.60221E+06    -80.1887E-03     127.573E-03    -47.3839E-03     110.437E-03    -81.7519E-03     129.258E-03    -47.3720E-03     108.312E-03
            2253     12.8995E-03     11.6353E-03    -15.1913E+06     37.0514E+06    -21.4517E+06     8.78184E+06    -73.6573E-03     119.037E-03    -45.3797E-03     75.6935E-03    -74.4117E-03     119.932E-03    -45.5187E-03     74.3401E-03
            2254     12.0609E-03     11.5515E-03    -15.5354E+06    -3.74552E+06    -36.8605E+06     7.66790E+06    -68.5946E-03     112.191E-03    -43.5963E-03     55.6911E-03    -68.9686E-03     112.604E-03    -43.7526E-03     54.7776E-03
            2255     11.2186E-03     11.4867E-03    -17.2876E+06    -49.4322E+06    -38.1972E+06     7.42720E+06    -63.8848E-03     105.854E-03    -41.9688E-03     40.8036E-03    -64.0448E-03     105.888E-03    -42.0630E-03     40.1859E-03
            2256     10.3725E-03     11.4334E-03    -18.2772E+06    -77.6370E+06    -29.2644E+06     7.33692E+06    -59.3005E-03     99.7551E-03    -40.4546E-03     30.2436E-03    -59.3542E-03     99.5539E-03    -40.4619E-03     29.8309E-03
            2257     9.52249E-03     11.3903E-03    -17.5745E+06    -88.3320E+06    -20.2919E+06     6.83008E+06    -54.8304E-03     93.8524E-03    -39.0220E-03     22.2778E-03    -54.8296E-03     93.5351E-03    -38.9699E-03     22.0064E-03
            2258     8.66865E-03     11.3547E-03    -17.8052E+06    -99.2002E+06    -19.6013E+06     6.82937E+06    -50.6227E-03     88.3010E-03    -37.6783E-03     16.4623E-03    -50.5801E-03     87.9003E-03    -37.6066E-03     16.2961E-03
            2259     7.81152E-03     11.3254E-03    -18.9740E+06    -109.543E+06    -17.2757E+06     6.46343E+06    -46.7746E-03     83.2590E-03    -36.4844E-03     12.1789E-03    -46.7100E-03     82.7885E-03    -36.3844E-03     12.0807E-03
            2260     6.95118E-03     11.3010E-03    -19.5655E+06    -109.680E+06    -14.7686E+06     6.83009E+06    -43.2961E-03     78.7223E-03    -35.4261E-03     9.31963E-03    -43.2284E-03     78.2386E-03    -35.3126E-03     9.27817E-03
            2261     6.08777E-03     11.2806E-03    -19.9523E+06    -110.581E+06    -14.5405E+06     7.27604E+06    -40.2786E-03     74.7929E-03    -34.5143E-03     7.37284E-03    -40.2061E-03     74.2991E-03    -34.3977E-03     7.37411E-03
            2262     5.22213E-03     11.2633E-03    -20.7375E+06    -113.434E+06    -15.1655E+06     6.65468E+06    -37.7598E-03     71.5186E-03    -33.7587E-03     5.94333E-03    -37.6827E-03     71.0090E-03    -33.6400E-03     5.96261E-03
            2263     4.35439E-03     11.2488E-03    -21.3929E+06    -115.718E+06    -15.5358E+06     6.00665E+06    -35.7816E-03     68.9328E-03    -33.1513E-03     4.76866E-03    -35.7016E-03     68.4111E-03    -33.0301E-03     4.79807E-03
            2264     3.48520E-03     11.2372E-03    -21.3556E+06    -115.530E+06    -16.9176E+06     5.52506E+06    -34.2786E-03     66.9448E-03    -32.6662E-03     3.74241E-03    -34.1953E-03     66.4245E-03    -32.5524E-03     3.77927E-03
            2265     2.61488E-03     11.2281E-03    -20.9337E+06    -115.105E+06    -18.2157E+06     4.40278E+06    -33.1437E-03     65.4499E-03    -32.3061E-03     2.85078E-03    -33.0562E-03     64.9320E-03    -32.2000E-03     2.88399E-03
            2266     1.74362E-03     11.2217E-03    -20.5595E+06    -114.955E+06    -19.2963E+06     2.89176E+06    -32.3844E-03     64.4588E-03    -32.0745E-03     1.95413E-03    -32.2930E-03     63.9422E-03    -31.9744E-03     1.97657E-03
            2267     871.784E-06     11.2178E-03    -20.1379E+06    -114.462E+06    -19.4503E+06     1.70550E+06    -32.0378E-03     63.9767E-03    -31.9389E-03     998.758E-06    -31.9443E-03     63.4624E-03    -31.8410E-03     1.01300E-03
            2268     16.2143E-03     11.4672E-03    -5.02710E+06     137.502E+06     92.7444E+06     705.462E+03    -106.800E-03     160.240E-03    -53.4405E-03     267.065E-03    -120.271E-03     173.914E-03    -53.1689E-03     264.301E-03
            2269     15.3961E-03     11.0636E-03    -9.90178E+06     117.413E+06     79.2158E+06     1.43516E+06    -109.503E-03     160.612E-03    -51.1086E-03     301.941E-03    -122.719E-03     173.981E-03    -50.8684E-03     295.442E-03
            2270     14.5760E-03     10.8058E-03    -14.4782E+06     86.3402E+06     49.2820E+06     2.89572E+06    -93.9617E-03     142.619E-03    -48.6574E-03     176.821E-03    -98.2602E-03     147.032E-03    -48.5152E-03     172.730E-03
            2271     13.7485E-03     10.6651E-03    -17.7657E+06     58.4415E+06     11.9946E+06     5.13219E+06    -81.6770E-03     127.989E-03    -46.3119E-03     98.6659E-03    -83.0919E-03     129.515E-03    -46.3109E-03     96.5394E-03
            2272     12.9156E-03     10.5687E-03    -18.2083E+06     36.6701E+06    -19.7242E+06     8.55266E+06    -74.4335E-03     118.594E-03    -44.1602E-03     66.5314E-03    -75.1336E-03     119.418E-03    -44.2856E-03     65.2085E-03
            2273     12.0779E-03     10.4932E-03    -19.3281E+06    -1.21178E+06    -30.7126E+06     10.9224E+06    -68.6353E-03     110.898E-03    -42.2628E-03     48.2696E-03    -69.0010E-03     111.281E-03    -42.3866E-03     47.4363E-03
            2274     11.2354E-03     10.4346E-03    -20.0028E+06    -46.4576E+06    -34.7471E+06     9.93206E+06    -63.3747E-03     103.897E-03    -40.5225E-03     34.5624E-03    -63.5338E-03     103.922E-03    -40.5999E-03     34.0130E-03
            2275     10.3888E-03     10.3880E-03    -19.3608E+06    -74.8747E+06    -29.6908E+06     7.74306E+06    -58.4070E-03     97.3250E-03    -38.9179E-03     25.0328E-03    -58.4552E-03     97.1254E-03    -38.9297E-03     24.6557E-03
            2276     9.53788E-03     10.3512E-03    -19.8125E+06    -87.5993E+06    -18.9039E+06     7.00755E+06    -53.5988E-03     91.0528E-03    -37.4540E-03     18.0338E-03    -53.6042E-03     90.7323E-03    -37.3928E-03     17.7879E-03
            2277     8.68317E-03     10.3215E-03    -20.1185E+06    -97.9706E+06    -16.0398E+06     7.02896E+06    -49.1474E-03     85.2448E-03    -36.0975E-03     13.2599E-03    -49.1191E-03     84.8442E-03    -36.0064E-03     13.1134E-03
            2278     7.82460E-03     10.2974E-03    -19.9117E+06    -107.605E+06    -13.9724E+06     6.56408E+06    -45.1379E-03     80.0332E-03    -34.8952E-03     9.99930E-03    -45.0836E-03     79.5669E-03    -34.7802E-03     9.91491E-03
            2279     6.96264E-03     10.2779E-03    -20.0232E+06    -109.376E+06    -11.5132E+06     5.86058E+06    -41.6363E-03     75.4824E-03    -33.8461E-03     7.95091E-03    -41.5751E-03     74.9954E-03    -33.7161E-03     7.90538E-03
            2280     6.09801E-03     10.2612E-03    -19.8953E+06    -109.736E+06    -9.72696E+06     6.20508E+06    -38.6502E-03     71.6002E-03    -32.9500E-03     6.59500E-03    -38.5853E-03     71.1034E-03    -32.8106E-03     6.58776E-03
            2281     5.23080E-03     10.2474E-03    -20.2020E+06    -111.119E+06    -10.7800E+06     6.24640E+06    -36.1729E-03     68.3684E-03    -32.1954E-03     5.63784E-03    -36.1028E-03     67.8633E-03    -32.0589E-03     5.65530E-03
            2282     4.36166E-03     10.2355E-03    -20.8209E+06    -113.163E+06    -13.5134E+06     4.89038E+06    -34.1810E-03     65.7623E-03    -31.5813E-03     4.83498E-03    -34.1049E-03     65.2497E-03    -31.4546E-03     4.85247E-03
            2283     3.49096E-03     10.2259E-03    -20.5839E+06    -113.177E+06    -15.7483E+06     3.36781E+06    -32.6542E-03     63.7590E-03    -31.1048E-03     3.98899E-03    -32.5722E-03     63.2478E-03    -30.9896E-03     3.99977E-03
            2284     2.61901E-03     10.2183E-03    -19.5960E+06    -112.530E+06    -16.3664E+06     2.49604E+06    -31.5738E-03     62.3345E-03    -30.7607E-03     3.09311E-03    -31.4860E-03     61.8250E-03    -30.6509E-03     3.10280E-03
            2285     1.74634E-03     10.2128E-03    -18.7019E+06    -112.298E+06    -17.5785E+06     1.74117E+06    -30.8779E-03     61.3993E-03    -30.5214E-03     2.12338E-03    -30.7836E-03     60.8909E-03    -30.4193E-03     2.13154E-03
            2286     873.401E-06     10.2092E-03    -18.2711E+06    -111.816E+06    -17.9598E+06     904.379E+03    -30.5165E-03     60.8503E-03    -30.3338E-03     1.16146E-03    -30.4196E-03     60.3444E-03    -30.2349E-03     1.16560E-03
            2287     16.2206E-03     10.3720E-03    -5.47062E+06     137.176E+06     92.2718E+06     1.05779E+06    -114.757E-03     167.864E-03    -53.1078E-03     262.069E-03    -127.615E-03     180.923E-03    -52.8374E-03     257.891E-03
            2288     15.4076E-03     9.96252E-03    -10.3050E+06     116.957E+06     79.2460E+06     1.79393E+06    -114.922E-03     165.309E-03    -50.3868E-03     291.671E-03    -127.374E-03     177.912E-03    -50.1452E-03     284.421E-03
            2289     14.5925E-03     9.72171E-03    -14.9706E+06     84.6004E+06     50.6121E+06     3.60568E+06    -95.7479E-03     143.405E-03    -47.6567E-03     162.601E-03    -99.5642E-03     147.324E-03    -47.5046E-03     158.569E-03
            2290     13.7663E-03     9.59117E-03    -18.6076E+06     56.5932E+06     13.1631E+06     5.13790E+06    -82.1154E-03     127.259E-03    -45.1432E-03     88.4159E-03    -83.3824E-03     128.624E-03    -45.1324E-03     86.3746E-03
            2291     12.9332E-03     9.50396E-03    -20.5644E+06     31.8553E+06    -19.0888E+06     8.92702E+06    -74.0310E-03     116.930E-03    -42.8991E-03     58.9859E-03    -74.6656E-03     117.661E-03    -43.0109E-03     57.7451E-03
            2292     12.0945E-03     9.43599E-03    -21.1855E+06    -694.554E+03    -24.4252E+06     12.7399E+06    -67.7848E-03     108.751E-03    -40.9664E-03     42.2709E-03    -68.1328E-03     109.093E-03    -41.0568E-03     41.5196E-03
            2293     11.2514E-03     9.38495E-03    -21.9928E+06    -39.7570E+06    -24.4361E+06     11.1483E+06    -62.0310E-03     101.245E-03    -39.2143E-03     29.8656E-03    -62.2043E-03     101.271E-03    -39.2469E-03     29.3794E-03
            2294     10.4034E-03     9.34526E-03    -22.4665E+06    -71.2668E+06    -24.6077E+06     7.45149E+06    -56.6517E-03     94.2552E-03    -37.6035E-03     21.6439E-03    -56.7169E-03     94.0597E-03    -37.5906E-03     21.3002E-03
            2295     9.55105E-03     9.31499E-03    -21.0072E+06    -86.6271E+06    -15.1160E+06     6.03724E+06    -51.6697E-03     87.8500E-03    -36.1803E-03     16.0043E-03    -51.6828E-03     87.5253E-03    -36.0998E-03     15.7728E-03
            2296     8.69440E-03     9.29132E-03    -20.0862E+06    -96.9757E+06    -10.9020E+06     5.88515E+06    -47.2026E-03     82.0983E-03    -34.8957E-03     12.4013E-03    -47.1810E-03     81.6931E-03    -34.7805E-03     12.2581E-03
            2297     7.83404E-03     9.27280E-03    -20.0417E+06    -105.615E+06    -9.33555E+06     5.36914E+06    -43.3402E-03     77.1050E-03    -33.7649E-03     10.1189E-03    -43.2956E-03     76.6417E-03    -33.6293E-03     10.0308E-03
            2298     6.97068E-03     9.25746E-03    -20.2357E+06    -108.254E+06    -7.03659E+06     4.68273E+06    -40.0456E-03     72.8333E-03    -32.7877E-03     8.68109E-03    -39.9938E-03     72.3459E-03    -32.6365E-03     8.62734E-03
            2299     6.10446E-03     9.24498E-03    -20.8859E+06    -109.181E+06    -7.12237E+06     4.26628E+06    -37.2608E-03     69.2069E-03    -31.9460E-03     7.77501E-03    -37.2059E-03     68.7110E-03    -31.7930E-03     7.74683E-03
            2300     5.23613E-03     9.23406E-03    -20.4570E+06    -109.367E+06    -8.14712E+06     3.83305E+06    -34.9843E-03     66.2211E-03    -31.2368E-03     7.05966E-03    -34.9222E-03     65.7219E-03    -31.0893E-03     7.04845E-03
            2301     4.36599E-03     9.22496E-03    -19.5072E+06    -110.390E+06    -10.4997E+06     2.92363E+06    -33.1505E-03     63.8021E-03    -30.6516E-03     6.23131E-03    -33.0765E-03     63.2974E-03    -30.5157E-03     6.22485E-03
            2302     3.49426E-03     9.21721E-03    -19.2990E+06    -110.999E+06    -13.5169E+06     1.46205E+06    -31.7260E-03     61.9109E-03    -30.1849E-03     5.21548E-03    -31.6442E-03     61.4057E-03    -30.0636E-03     5.20253E-03
            2303     2.62163E-03     9.21100E-03    -19.2133E+06    -111.442E+06    -15.4142E+06     433.278E+03    -30.7030E-03     60.5326E-03    -29.8297E-03     4.04926E-03    -30.6163E-03     60.0268E-03    -29.7173E-03     4.03279E-03
            2304     1.74829E-03     9.20634E-03    -18.7559E+06    -111.078E+06    -16.4565E+06     141.778E+03    -29.9792E-03     59.5467E-03    -29.5674E-03     2.78675E-03    -29.8886E-03     59.0429E-03    -29.4615E-03     2.77457E-03
            2305     874.208E-06     9.20349E-03    -18.2422E+06    -110.820E+06    -17.3256E+06     136.389E+03    -29.4950E-03     58.9056E-03    -29.4106E-03     1.59657E-03    -29.4004E-03     58.4039E-03    -29.3101E-03     1.59102E-03
            2306     16.2211E-03     9.24931E-03    -4.39631E+06     136.794E+06     93.6270E+06     1.79700E+06    -122.694E-03     175.449E-03    -52.7551E-03     253.566E-03    -134.763E-03     187.718E-03    -52.4790E-03     248.166E-03
            2307     15.4231E-03     8.86155E-03    -8.92948E+06     116.431E+06     80.6713E+06     3.37984E+06    -119.471E-03     169.106E-03    -49.6352E-03     277.189E-03    -130.915E-03     180.702E-03    -49.3877E-03     269.477E-03
            2308     14.6073E-03     8.63422E-03    -14.5888E+06     82.7938E+06     52.1481E+06     5.05839E+06    -96.8238E-03     143.480E-03    -46.6564E-03     149.089E-03    -100.151E-03     146.902E-03    -46.4946E-03     145.233E-03
            2309     13.7822E-03     8.51895E-03    -19.8235E+06     54.1640E+06     16.0853E+06     7.26714E+06    -81.7589E-03     125.802E-03    -44.0430E-03     79.3531E-03    -82.8814E-03     127.002E-03    -44.0123E-03     77.4767E-03
            2310     12.9482E-03     8.44069E-03    -23.2586E+06     28.2979E+06    -18.9838E+06     10.2082E+06    -72.8640E-03     114.620E-03    -41.7559E-03     53.1798E-03    -73.4384E-03     115.269E-03    -41.8581E-03     52.0656E-03
            2311     12.1090E-03     8.38130E-03    -23.7642E+06    -1.39443E+06    -29.9400E+06     12.3114E+06    -65.9526E-03     105.766E-03    -39.8131E-03     38.1082E-03    -66.2702E-03     106.082E-03    -39.9263E-03     37.4337E-03
            2312     11.2639E-03     8.33792E-03    -23.6143E+06    -33.6545E+06    -23.3718E+06     12.4756E+06    -59.6302E-03     97.7884E-03    -38.1582E-03     27.2688E-03    -59.8037E-03     97.8273E-03    -38.1920E-03     26.8635E-03
            2313     10.4138E-03     8.30613E-03    -24.5890E+06    -63.8397E+06    -20.8083E+06     7.56913E+06    -53.9943E-03     90.6776E-03    -36.6833E-03     20.8189E-03    -54.0780E-03     90.5083E-03    -36.6591E-03     20.5230E-03
            2314     9.55885E-03     8.28207E-03    -25.0550E+06    -85.7802E+06    -16.7587E+06     3.44715E+06    -49.1202E-03     84.5186E-03    -35.3983E-03     16.5897E-03    -49.1488E-03     84.2028E-03    -35.3214E-03     16.3565E-03
            2315     8.70001E-03     8.26454E-03    -23.5439E+06    -96.0586E+06    -10.4405E+06     3.13265E+06    -45.0082E-03     79.2922E-03    -34.2840E-03     13.9963E-03    -45.0050E-03     78.8951E-03    -34.1627E-03     13.8372E-03
            2316     7.83799E-03     8.25046E-03    -21.4300E+06    -104.095E+06    -6.71288E+06     2.38990E+06    -41.5841E-03     74.8961E-03    -33.3120E-03     12.4134E-03    -41.5528E-03     74.4390E-03    -33.1636E-03     12.2983E-03
            2317     6.97309E-03     8.23962E-03    -19.9761E+06    -107.899E+06    -3.93061E+06     2.30279E+06    -38.7319E-03     71.2036E-03    -32.4716E-03     11.3951E-03    -38.6846E-03     70.7139E-03    -32.3059E-03     11.3169E-03
            2318     6.10601E-03     8.23029E-03    -19.2007E+06    -107.603E+06    -3.73068E+06     1.88980E+06    -36.3968E-03     68.1342E-03    -31.7374E-03     10.5466E-03    -36.3413E-03     67.6396E-03    -31.5722E-03     10.4908E-03
            2319     5.23695E-03     8.22247E-03    -19.2667E+06    -108.317E+06    -4.53594E+06     733.081E+03    -34.4602E-03     65.5713E-03    -31.1111E-03     9.67070E-03    -34.3994E-03     65.0708E-03    -30.9488E-03     9.62084E-03
            2320     4.36635E-03     8.21538E-03    -19.3664E+06    -108.894E+06    -6.99486E+06     69.4305E+03    -32.8999E-03     63.4754E-03    -30.5755E-03     8.54417E-03    -32.8328E-03     62.9733E-03    -30.4245E-03     8.50150E-03
            2321     3.49476E-03     8.20963E-03    -19.1702E+06    -109.731E+06    -10.4278E+06    -555.159E+03    -31.6447E-03     61.7691E-03    -30.1244E-03     7.18699E-03    -31.5688E-03     61.2658E-03    -29.9896E-03     7.14844E-03
            2322     2.62199E-03     8.20464E-03    -19.2532E+06    -110.887E+06    -14.2051E+06    -1.26093E+06    -30.6308E-03     60.3931E-03    -29.7623E-03     5.65944E-03    -30.5470E-03     59.8885E-03    -29.6446E-03     5.62158E-03
            2323     1.74840E-03     8.20116E-03    -19.3841E+06    -111.710E+06    -17.0368E+06    -1.50147E+06    -29.8978E-03     59.3950E-03    -29.4971E-03     3.94629E-03    -29.8086E-03     58.8898E-03    -29.3922E-03     3.91327E-03
            2324     874.438E-06     8.19886E-03    -19.2429E+06    -111.696E+06    -18.1431E+06    -1.00272E+06    -29.4094E-03     58.7705E-03    -29.3610E-03     2.14923E-03    -29.3173E-03     58.2670E-03    -29.2619E-03     2.12923E-03
            2325     16.2370E-03     8.13245E-03    -5.58671E+06     134.876E+06     93.2335E+06     1.23265E+06    -130.238E-03     182.630E-03    -52.3927E-03     246.980E-03    -141.453E-03     194.036E-03    -52.1140E-03     240.550E-03
            2326     15.4314E-03     7.74956E-03    -9.63406E+06     113.804E+06     81.5426E+06     4.02737E+06    -122.585E-03     171.526E-03    -48.9404E-03     260.510E-03    -132.859E-03     181.938E-03    -48.6837E-03     252.652E-03
            2327     14.6222E-03     7.54907E-03    -13.7569E+06     79.2561E+06     52.9975E+06     7.38908E+06    -96.8405E-03     142.621E-03    -45.7809E-03     133.530E-03    -99.6673E-03     145.531E-03    -45.6108E-03     129.967E-03
            2328     13.7953E-03     7.44669E-03    -19.7677E+06     51.0343E+06     18.8035E+06     11.4783E+06    -80.4724E-03     123.607E-03    -43.1345E-03     70.5051E-03    -81.4400E-03     124.633E-03    -43.0858E-03     68.8688E-03
            2329     12.9609E-03     7.38058E-03    -25.1806E+06     28.3265E+06    -14.4945E+06     13.4990E+06    -70.5841E-03     111.488E-03    -40.9042E-03     48.3130E-03    -71.1124E-03     112.071E-03    -40.9812E-03     47.3703E-03
            2330     12.1188E-03     7.32925E-03    -28.5720E+06     185.328E+03    -29.9193E+06     12.8854E+06    -62.7757E-03     101.846E-03    -39.0705E-03     35.9016E-03    -63.0894E-03     102.147E-03    -39.1789E-03     35.3350E-03
            2331     11.2709E-03     7.29558E-03    -27.7924E+06    -28.7139E+06    -23.4738E+06     9.98334E+06    -56.1337E-03     93.7405E-03    -37.6068E-03     27.1834E-03    -56.3201E-03     93.7951E-03    -37.6422E-03     26.8195E-03
            2332     10.4173E-03     7.26998E-03    -25.0492E+06    -56.5030E+06    -12.5331E+06     6.56280E+06    -50.7117E-03     87.1118E-03    -36.4001E-03     22.4188E-03    -50.8138E-03     86.9613E-03    -36.3445E-03     22.1591E-03
            2333     9.55977E-03     7.25306E-03    -24.3545E+06    -81.6249E+06    -8.13504E+06     1.96363E+06    -46.3383E-03     81.7034E-03    -35.3652E-03     19.3138E-03    -46.3794E-03     81.3924E-03    -35.2522E-03     19.0926E-03
            2334     8.69875E-03     7.23957E-03    -23.4720E+06    -95.4731E+06    -6.97521E+06    -1.53769E+06    -42.8650E-03     77.3337E-03    -34.4687E-03     17.7148E-03    -42.8669E-03     76.9340E-03    -34.3312E-03     17.5147E-03
            2335     7.83504E-03     7.23034E-03    -21.9154E+06    -104.019E+06    -2.80010E+06    -1.39179E+06    -40.1528E-03     73.8683E-03    -33.7155E-03     16.4748E-03    -40.1303E-03     73.4071E-03    -33.5469E-03     16.3214E-03
            2336     6.96912E-03     7.22236E-03    -21.0584E+06    -107.730E+06    -648.782E+03    -1.56654E+06    -37.9797E-03     71.0333E-03    -33.0536E-03     15.5066E-03    -37.9435E-03     70.5419E-03    -32.8701E-03     15.3838E-03
            2337     6.10158E-03     7.21605E-03    -20.1170E+06    -106.982E+06     142.642E+03    -1.85442E+06    -36.2285E-03     68.6920E-03    -32.4635E-03     14.4366E-03    -36.1848E-03     68.1968E-03    -32.2785E-03     14.3349E-03
            2338     5.23274E-03     7.21033E-03    -19.5572E+06    -107.512E+06    -1.06693E+06    -2.24051E+06    -34.7534E-03     66.6902E-03    -31.9368E-03     13.1392E-03    -34.7008E-03     66.1895E-03    -31.7579E-03     13.0520E-03
            2339     4.36268E-03     7.20544E-03    -19.5748E+06    -108.654E+06    -5.08435E+06    -3.06682E+06    -33.4735E-03     64.9390E-03    -31.4655E-03     11.6062E-03    -33.4109E-03     64.4359E-03    -31.3050E-03     11.5239E-03
            2340     3.49144E-03     7.20100E-03    -19.6810E+06    -109.978E+06    -9.18847E+06    -3.31125E+06    -32.4012E-03     63.4641E-03    -31.0628E-03     9.73044E-03    -32.3295E-03     62.9586E-03    -30.9208E-03     9.65710E-03
            2341     2.61945E-03     7.19773E-03    -19.8721E+06    -111.677E+06    -13.5506E+06    -3.02944E+06    -31.5075E-03     62.2411E-03    -30.7336E-03     7.59173E-03    -31.4268E-03     61.7325E-03    -30.6106E-03     7.53169E-03
            2342     1.74669E-03     7.19496E-03    -20.1874E+06    -113.378E+06    -17.6365E+06    -2.56207E+06    -30.8363E-03     61.3273E-03    -30.4910E-03     5.27331E-03    -30.7480E-03     60.8158E-03    -30.3855E-03     5.22717E-03
            2343     873.400E-06     7.19342E-03    -20.8432E+06    -114.526E+06    -20.0636E+06    -1.71690E+06    -30.4668E-03     60.7788E-03    -30.3120E-03     2.89933E-03    -30.3759E-03     60.2662E-03    -30.2160E-03     2.87042E-03
            2344     16.2306E-03     6.98960E-03    -6.34842E+06     132.757E+06     91.3882E+06     1.50876E+06    -137.802E-03     189.922E-03    -52.1196E-03     237.187E-03    -147.912E-03     200.219E-03    -51.8460E-03     229.916E-03
            2345     15.4459E-03     6.63846E-03    -11.4846E+06     108.386E+06     78.9454E+06     3.72333E+06    -124.236E-03     172.588E-03    -48.3519E-03     238.029E-03    -133.079E-03     181.554E-03    -48.0977E-03     230.306E-03
            2346     14.6315E-03     6.46238E-03    -16.1450E+06     73.9535E+06     54.5765E+06     8.94351E+06    -94.8767E-03     140.001E-03    -45.1238E-03     116.955E-03    -97.2124E-03     142.388E-03    -44.9348E-03     113.812E-03
            2347     13.8051E-03     6.37782E-03    -21.4228E+06     47.9840E+06     24.7554E+06     14.8042E+06    -77.3192E-03     119.903E-03    -42.5836E-03     63.4054E-03    -78.1556E-03     120.764E-03    -42.4983E-03     62.0557E-03
            2348     12.9670E-03     6.32293E-03    -26.8053E+06     27.3695E+06    -3.63973E+06     18.5439E+06    -66.6653E-03     107.229E-03    -40.5641E-03     46.5542E-03    -67.1603E-03     107.738E-03    -40.5831E-03     45.8363E-03
            2349     12.1216E-03     6.28276E-03    -31.1758E+06     9.46474E+06    -14.8030E+06     15.1506E+06    -58.5272E-03     97.5244E-03    -38.9972E-03     36.7629E-03    -58.8618E-03     97.8260E-03    -39.0397E-03     36.3380E-03
            2350     11.2694E-03     6.25652E-03    -31.6959E+06    -20.0104E+06    -15.4670E+06     5.15489E+06    -52.0832E-03     89.8868E-03    -37.8036E-03     30.2143E-03    -52.2997E-03     89.9654E-03    -37.8059E-03     29.8648E-03
            2351     10.4128E-03     6.23812E-03    -27.1047E+06    -53.9093E+06    -8.91130E+06    -337.684E+03    -47.3524E-03     84.2500E-03    -36.8976E-03     26.8688E-03    -47.4674E-03     84.1039E-03    -36.8247E-03     26.5696E-03
            2352     9.55248E-03     6.22546E-03    -21.7746E+06    -76.6901E+06     887.870E+03    -2.11811E+06    -43.8025E-03     79.9880E-03    -36.1855E-03     24.4670E-03    -43.8484E-03     79.6822E-03    -36.0383E-03     24.2235E-03
            2353     8.68942E-03     6.21691E-03    -20.9218E+06    -95.1319E+06     1.14042E+06    -3.87918E+06    -41.2361E-03     76.8081E-03    -35.5720E-03     23.2057E-03    -41.2368E-03     76.3938E-03    -35.3980E-03     22.9930E-03
            2354     7.82450E-03     6.20969E-03    -21.7975E+06    -104.303E+06     2.07105E+06    -4.92297E+06    -39.4384E-03     74.4873E-03    -35.0489E-03     21.8732E-03    -39.4219E-03     74.0173E-03    -34.8557E-03     21.6843E-03
            2355     6.95854E-03     6.20482E-03    -21.2238E+06    -107.435E+06     3.75133E+06    -5.86105E+06    -38.0416E-03     72.6225E-03    -34.5809E-03     20.4121E-03    -38.0133E-03     72.1266E-03    -34.3756E-03     20.2390E-03
            2356     6.09127E-03     6.19997E-03    -20.5212E+06    -107.785E+06     2.50424E+06    -6.34768E+06    -36.8507E-03     70.9923E-03    -34.1416E-03     18.9103E-03    -36.8115E-03     70.4902E-03    -33.9430E-03     18.7540E-03
            2357     5.22318E-03     6.19626E-03    -19.9314E+06    -107.911E+06    -60.8487E+03    -6.35818E+06    -35.8556E-03     69.5896E-03    -33.7340E-03     16.9929E-03    -35.8059E-03     69.0860E-03    -33.5490E-03     16.8545E-03
            2358     4.35418E-03     6.19279E-03    -19.8066E+06    -109.557E+06    -4.53380E+06    -6.25926E+06    -34.9132E-03     68.2719E-03    -33.3587E-03     14.8212E-03    -34.8514E-03     67.7636E-03    -33.1938E-03     14.6991E-03
            2359     3.48446E-03     6.18994E-03    -20.3127E+06    -111.888E+06    -9.62129E+06    -5.84233E+06    -34.0701E-03     67.1016E-03    -33.0315E-03     12.3140E-03    -33.9982E-03     66.5879E-03    -32.8879E-03     12.2092E-03
            2360     2.61401E-03     6.18753E-03    -20.9945E+06    -114.294E+06    -14.3510E+06    -4.80260E+06    -33.3865E-03     66.1472E-03    -32.7607E-03     9.49802E-03    -33.3065E-03     65.6281E-03    -32.6362E-03     9.41594E-03
            2361     1.74305E-03     6.18595E-03    -21.8392E+06    -116.360E+06    -18.2830E+06    -3.30955E+06    -32.8395E-03     65.3951E-03    -32.5556E-03     6.56758E-03    -32.7543E-03     64.8718E-03    -32.4467E-03     6.51248E-03
            2362     871.651E-06     6.18470E-03    -22.6043E+06    -118.297E+06    -21.7234E+06    -1.81865E+06    -32.5006E-03     64.9238E-03    -32.4232E-03     3.64450E-03    -32.4107E-03     64.3971E-03    -32.3275E-03     3.61473E-03
            2363     16.2469E-03     5.84327E-03    -5.26904E+06     130.869E+06     89.1091E+06     3.25945E+06    -144.272E-03     196.327E-03    -52.0557E-03     226.527E-03    -153.129E-03     205.378E-03    -51.7923E-03     218.761E-03
            2364     15.4501E-03     5.52439E-03    -12.0801E+06     102.764E+06     75.2486E+06     5.89136E+06    -123.619E-03     171.703E-03    -48.0836E-03     216.986E-03    -130.936E-03     179.133E-03    -47.8389E-03     209.853E-03
            2365     14.6395E-03     5.37882E-03    -19.3137E+06     67.6320E+06     52.1529E+06     11.3842E+06    -91.3267E-03     136.248E-03    -44.9217E-03     104.118E-03    -93.1780E-03     138.126E-03    -44.7310E-03     101.508E-03
            2366     13.8061E-03     5.31412E-03    -24.9900E+06     43.2717E+06     30.1901E+06     17.8593E+06    -72.4249E-03     115.074E-03    -42.6490E-03     61.0544E-03    -73.1511E-03     115.780E-03    -42.5245E-03     60.0314E-03
            2367     12.9633E-03     5.26993E-03    -28.3238E+06     28.4144E+06     14.4337E+06     19.4384E+06    -61.7987E-03     102.798E-03    -40.9993E-03     48.6093E-03    -62.2762E-03     103.235E-03    -40.9272E-03     48.0778E-03
            2368     12.1134E-03     5.24016E-03    -26.8488E+06     23.8868E+06     9.66409E+06     12.6358E+06    -53.9901E-03     93.7785E-03    -39.7883E-03     40.6039E-03    -54.3308E-03     94.0817E-03    -39.7357E-03     40.2588E-03
            2369     11.2577E-03     5.22135E-03    -24.1992E+06    -6.85626E+06     3.75838E+06     464.799E+03    -48.3091E-03     87.2387E-03    -38.9296E-03     36.0783E-03    -48.5220E-03     87.3312E-03    -38.8658E-03     35.7383E-03
            2370     10.3979E-03     5.20806E-03    -22.4058E+06    -52.4950E+06     227.542E+03    -7.63045E+06    -44.6156E-03     82.9607E-03    -38.3450E-03     33.5834E-03    -44.7154E-03     82.7944E-03    -38.2353E-03     33.2353E-03
            2371     9.53557E-03     5.19934E-03    -21.5728E+06    -78.6846E+06     8.12900E+06    -7.02521E+06    -42.2205E-03     80.1702E-03    -37.9498E-03     31.3145E-03    -42.2697E-03     79.8401E-03    -37.7637E-03     31.0349E-03
            2372     8.67173E-03     5.19314E-03    -21.3019E+06    -93.7517E+06     12.0301E+06    -6.32271E+06    -40.7426E-03     78.3581E-03    -37.6155E-03     29.5334E-03    -40.7613E-03     77.9335E-03    -37.3885E-03     29.3054E-03
            2373     7.80693E-03     5.18793E-03    -20.4309E+06    -103.291E+06     6.97821E+06    -9.13551E+06    -39.7893E-03     77.0684E-03    -37.2791E-03     27.6046E-03    -39.7734E-03     76.5928E-03    -37.0648E-03     27.3722E-03
            2374     6.94138E-03     5.18401E-03    -19.5738E+06    -108.508E+06     4.45478E+06    -10.1969E+06    -39.0893E-03     76.0623E-03    -36.9730E-03     25.2269E-03    -39.0515E-03     75.5565E-03    -36.7650E-03     25.0046E-03
            2375     6.07544E-03     5.18104E-03    -19.2034E+06    -108.639E+06     1.92051E+06    -10.4912E+06    -38.4133E-03     75.0885E-03    -36.6752E-03     22.9232E-03    -38.3649E-03     74.5802E-03    -36.4802E-03     22.7180E-03
            2376     5.20877E-03     5.17797E-03    -18.9768E+06    -110.541E+06    -2.89957E+06    -10.2637E+06    -37.7911E-03     74.1764E-03    -36.3853E-03     20.2411E-03    -37.7284E-03     73.6618E-03    -36.2120E-03     20.0556E-03
            2377     4.34184E-03     5.17597E-03    -19.2642E+06    -112.337E+06    -6.46841E+06    -8.77749E+06    -37.1969E-03     73.3178E-03    -36.1209E-03     17.3026E-03    -37.1254E-03     72.7972E-03    -35.9624E-03     17.1499E-03
            2378     3.47417E-03     5.17398E-03    -20.3683E+06    -115.068E+06    -11.2824E+06    -7.44917E+06    -36.6057E-03     72.4874E-03    -35.8817E-03     14.2436E-03    -36.5271E-03     71.9600E-03    -35.7418E-03     14.1195E-03
            2379     2.60612E-03     5.17258E-03    -21.6421E+06    -118.414E+06    -16.8698E+06    -5.83713E+06    -36.1144E-03     71.7936E-03    -35.6792E-03     10.9063E-03    -36.0281E-03     71.2582E-03    -35.5605E-03     10.8119E-03
            2380     1.73763E-03     5.17153E-03    -22.8361E+06    -120.658E+06    -20.3366E+06    -3.69803E+06    -35.7424E-03     71.2690E-03    -35.5266E-03     7.48653E-03    -35.6531E-03     70.7284E-03    -35.4202E-03     7.42698E-03
            2381     868.897E-06     5.17090E-03    -23.6431E+06    -122.257E+06    -22.8928E+06    -1.73264E+06    -35.4715E-03     70.9075E-03    -35.4360E-03     4.12499E-03    -35.3795E-03     70.3640E-03    -35.3390E-03     4.09661E-03
            2382     16.2305E-03     4.68442E-03    -7.32607E+06     127.219E+06     82.5959E+06     5.31603E+06    -148.361E-03     200.861E-03    -52.4999E-03     220.276E-03    -156.068E-03     208.760E-03    -52.2608E-03     212.332E-03
            2383     15.4467E-03     4.40543E-03    -15.2081E+06     96.7536E+06     67.6293E+06     9.17215E+06    -122.446E-03     170.885E-03    -48.4386E-03     190.972E-03    -128.081E-03     176.626E-03    -48.2187E-03     184.589E-03
            2384     14.6290E-03     4.30022E-03    -21.0448E+06     60.5366E+06     48.3239E+06     15.1952E+06    -85.5804E-03     131.045E-03    -45.4646E-03     89.9332E-03    -86.9281E-03     132.399E-03    -45.2802E-03     87.9669E-03
            2385     13.7934E-03     4.25451E-03    -24.0950E+06     41.6260E+06     39.5988E+06     18.2085E+06    -66.5973E-03     110.209E-03    -43.6120E-03     62.2506E-03    -67.2161E-03     110.778E-03    -43.4395E-03     61.5114E-03
            2386     12.9470E-03     4.22086E-03    -22.5303E+06     37.2569E+06     35.6297E+06     12.4191E+06    -56.8604E-03     99.2639E-03    -42.4035E-03     54.1289E-03    -57.3008E-03     99.6548E-03    -42.2467E-03     53.6683E-03
            2387     12.0932E-03     4.20102E-03    -18.1569E+06     35.3809E+06     27.4268E+06     4.26287E+06    -50.0819E-03     91.6442E-03    -41.5623E-03     47.9974E-03    -50.3923E-03     91.9371E-03    -41.4502E-03     47.6465E-03
            2388     11.2343E-03     4.18748E-03    -16.9256E+06     3.37898E+06     18.0689E+06    -2.66424E+06    -45.9154E-03     86.9644E-03    -41.0490E-03     44.3524E-03    -46.1129E-03     87.0617E-03    -40.9390E-03     44.0336E-03
            2389     10.3729E-03     4.17848E-03    -20.2970E+06    -50.4589E+06     9.29163E+06    -8.32818E+06    -43.6432E-03     84.3994E-03    -40.7562E-03     41.2659E-03    -43.7391E-03     84.2170E-03    -40.6071E-03     40.9496E-03
            2390     9.51000E-03     4.17142E-03    -21.9458E+06    -81.8790E+06     9.79205E+06    -11.2032E+06    -42.4811E-03     83.0515E-03    -40.5704E-03     38.0470E-03    -42.5238E-03     82.6968E-03    -40.3709E-03     37.7409E-03
            2391     8.64676E-03     4.16647E-03    -19.5349E+06    -92.7013E+06     15.0132E+06    -12.5615E+06    -41.8839E-03     82.2980E-03    -40.4141E-03     34.8805E-03    -41.8952E-03     81.8668E-03    -40.1763E-03     34.5910E-03
            2392     7.78315E-03     4.16215E-03    -17.7221E+06    -103.365E+06     8.63042E+06    -13.4707E+06    -41.4974E-03     81.7127E-03    -40.2153E-03     31.7019E-03    -41.4671E-03     81.2268E-03    -39.9965E-03     31.4274E-03
            2393     6.91945E-03     4.15899E-03    -17.1732E+06    -110.268E+06     1.69139E+06    -14.0196E+06    -41.2051E-03     81.2177E-03    -40.0125E-03     28.2969E-03    -41.1465E-03     80.7010E-03    -39.8193E-03     28.0356E-03
            2394     6.05551E-03     4.15650E-03    -16.8134E+06    -111.006E+06    -1.15717E+06    -13.5985E+06    -40.8772E-03     80.6971E-03    -39.8200E-03     25.0649E-03    -40.8075E-03     80.1763E-03    -39.6404E-03     24.8267E-03
            2395     5.19138E-03     4.15455E-03    -17.3527E+06    -114.584E+06    -7.36982E+06    -12.2301E+06    -40.4916E-03     80.1128E-03    -39.6213E-03     21.7993E-03    -40.4075E-03     79.5809E-03    -39.4668E-03     21.5936E-03
            2396     4.32670E-03     4.15290E-03    -18.2310E+06    -117.160E+06    -11.2672E+06    -10.0894E+06    -40.1225E-03     79.5674E-03    -39.4449E-03     18.3553E-03    -40.0314E-03     79.0274E-03    -39.3049E-03     18.1889E-03
            2397     3.46195E-03     4.15192E-03    -19.4890E+06    -119.454E+06    -14.3943E+06    -7.50143E+06    -39.7586E-03     79.0477E-03    -39.2890E-03     14.8860E-03    -39.6645E-03     78.5011E-03    -39.1595E-03     14.7630E-03
            2398     2.59671E-03     4.15097E-03    -21.4047E+06    -123.117E+06    -19.7130E+06    -5.27801E+06    -39.4378E-03     78.5871E-03    -39.1493E-03     11.3181E-03    -39.3393E-03     78.0317E-03    -39.0383E-03     11.2319E-03
            2399     1.73131E-03     4.15047E-03    -22.8752E+06    -125.140E+06    -22.3783E+06    -3.20655E+06    -39.2004E-03     78.2452E-03    -39.0448E-03     7.67342E-03    -39.1019E-03     77.6851E-03    -38.9421E-03     7.62056E-03
            2400     865.725E-06     4.15004E-03    -23.7651E+06    -125.940E+06    -23.3832E+06    -1.55889E+06    -39.0164E-03     77.9934E-03    -38.9770E-03     4.18380E-03    -38.9190E-03     77.4323E-03    -38.8769E-03     4.15762E-03
            2401     16.2166E-03     3.50369E-03    -4.68485E+06     121.183E+06     78.0819E+06     8.38497E+06    -150.548E-03     204.024E-03    -53.4757E-03     204.526E-03    -156.770E-03     210.441E-03    -53.2542E-03     196.871E-03
            2402     15.4324E-03     3.28710E-03    -11.1402E+06     90.0408E+06     63.9899E+06     14.7279E+06    -115.510E-03     165.016E-03    -49.5057E-03     151.485E-03    -119.054E-03     168.672E-03    -49.3001E-03     146.596E-03
            2403     14.6123E-03     3.23144E-03    -17.1675E+06     58.4271E+06     51.6930E+06     17.1647E+06    -76.0507E-03     123.049E-03    -46.9985E-03     80.8525E-03    -76.9474E-03     123.949E-03    -46.7999E-03     79.5871E-03
            2404     13.7666E-03     3.19763E-03    -16.1811E+06     49.0883E+06     51.0269E+06     11.0890E+06    -60.6250E-03     106.324E-03    -45.6994E-03     70.6705E-03    -61.1368E-03     106.807E-03    -45.4920E-03     70.0859E-03
            2405     12.9150E-03     3.17577E-03    -12.5244E+06     47.2156E+06     43.9737E+06     2.87164E+06    -53.6374E-03     98.5235E-03    -44.8862E-03     63.1438E-03    -53.9983E-03     98.8807E-03    -44.7166E-03     62.7061E-03
            2406     12.0578E-03     3.16198E-03    -12.3032E+06     39.7098E+06     25.5825E+06    -632.191E+03    -49.0376E-03     93.3534E-03    -44.3158E-03     56.4437E-03    -49.2895E-03     93.6281E-03    -44.2276E-03     56.1230E-03
            2407     11.1987E-03     3.15241E-03    -15.4222E+06     5.72744E+06     11.0211E+06    -1.87671E+06    -46.7295E-03     90.7216E-03    -43.9922E-03     50.7143E-03    -46.8916E-03     90.8166E-03    -43.9230E-03     50.4662E-03
            2408     10.3384E-03     3.14490E-03    -18.4317E+06    -45.4885E+06     1.49198E+06    -6.72994E+06    -45.6203E-03     89.4331E-03    -43.8128E-03     45.4492E-03    -45.6885E-03     89.2691E-03    -43.7127E-03     45.1948E-03
            2409     9.47808E-03     3.13902E-03    -19.3746E+06    -78.5668E+06    -3.44944E+06    -14.8303E+06    -45.0847E-03     88.7547E-03    -43.6700E-03     40.5399E-03    -45.0899E-03     88.4212E-03    -43.5452E-03     40.2180E-03
            2410     8.61739E-03     3.13419E-03    -18.4803E+06    -94.6019E+06    -2.11932E+06    -18.3611E+06    -44.7378E-03     88.2855E-03    -43.5477E-03     35.8794E-03    -44.7089E-03     87.8603E-03    -43.3944E-03     35.5387E-03
            2411     7.75668E-03     3.13060E-03    -16.2151E+06    -105.776E+06    -3.49061E+06    -17.7889E+06    -44.4351E-03     87.8466E-03    -43.4115E-03     31.6140E-03    -44.3710E-03     87.3586E-03    -43.2520E-03     31.3016E-03
            2412     6.89559E-03     3.12770E-03    -14.2660E+06    -113.071E+06    -6.91459E+06    -17.0221E+06    -44.1547E-03     87.4218E-03    -43.2671E-03     27.6585E-03    -44.0614E-03     86.8956E-03    -43.1170E-03     27.3725E-03
            2413     6.03438E-03     3.12574E-03    -14.0237E+06    -116.313E+06    -9.11125E+06    -14.7492E+06    -43.8802E-03     87.0124E-03    -43.1322E-03     23.9753E-03    -43.7749E-03     86.4700E-03    -42.9887E-03     23.7322E-03
            2414     5.17282E-03     3.12427E-03    -15.2239E+06    -119.566E+06    -12.8178E+06    -11.6390E+06    -43.5873E-03     86.5886E-03    -43.0013E-03     20.5368E-03    -43.4759E-03     86.0350E-03    -42.8699E-03     20.3456E-03
            2415     4.31122E-03     3.12323E-03    -17.3323E+06    -122.579E+06    -16.1596E+06    -9.12777E+06    -43.3093E-03     86.1966E-03    -42.8873E-03     17.1385E-03    -43.1978E-03     85.6344E-03    -42.7652E-03     16.9891E-03
            2416     3.44918E-03     3.12251E-03    -19.4626E+06    -124.992E+06    -18.3293E+06    -6.21390E+06    -43.0863E-03     85.8786E-03    -42.7923E-03     13.7557E-03    -42.9778E-03     85.3095E-03    -42.6745E-03     13.6518E-03
            2417     2.58715E-03     3.12215E-03    -21.1183E+06    -127.169E+06    -20.7938E+06    -3.56667E+06    -42.8990E-03     85.6063E-03    -42.7072E-03     10.4058E-03    -42.7914E-03     85.0315E-03    -42.5962E-03     10.3429E-03
            2418     1.72487E-03     3.12177E-03    -22.4840E+06    -128.523E+06    -22.4532E+06    -2.20203E+06    -42.7360E-03     85.3760E-03    -42.6401E-03     7.03587E-03    -42.6303E-03     84.7985E-03    -42.5334E-03     6.99661E-03
            2419     862.491E-06     3.12175E-03    -23.1580E+06    -128.978E+06    -22.9014E+06    -1.34366E+06    -42.6036E-03     85.2202E-03    -42.6166E-03     3.82072E-03    -42.4992E-03     84.6424E-03    -42.5105E-03     3.79754E-03
            2420     16.1990E-03     2.31153E-03    -2.02704E+06     111.614E+06     74.9473E+06     9.72560E+06    -145.532E-03     200.613E-03    -55.0815E-03     179.088E-03    -149.803E-03     205.080E-03    -54.8657E-03     172.577E-03
            2421     15.4075E-03     2.18872E-03    -4.22738E+06     81.0906E+06     67.7035E+06     16.9758E+06    -97.0480E-03     148.798E-03    -51.7498E-03     128.043E-03    -98.8121E-03     150.656E-03    -51.5228E-03     125.401E-03
            2422     14.5658E-03     2.17031E-03    -5.57867E+06     65.8382E+06     64.1938E+06     13.0529E+06    -69.3774E-03     119.370E-03    -49.9927E-03     90.3539E-03    -69.9772E-03     119.998E-03    -49.7591E-03     89.5778E-03
            2423     13.7173E-03     2.14240E-03    -4.00836E+06     60.9946E+06     56.2336E+06     3.49360E+06    -61.1511E-03     110.131E-03    -48.9795E-03     80.3888E-03    -61.5284E-03     110.545E-03    -48.7810E-03     79.9169E-03
            2424     12.8662E-03     2.12831E-03    -5.73474E+06     50.5462E+06     34.9110E+06    -744.449E+03    -56.3373E-03     104.544E-03    -48.2065E-03     65.4321E-03    -56.5869E-03     104.849E-03    -48.0969E-03     65.0964E-03
            2425     12.0130E-03     2.11790E-03    -8.18922E+06     37.6794E+06     12.5692E+06     230.147E+03    -53.1716E-03     100.787E-03    -47.6154E-03     54.8726E-03    -53.3416E-03     101.023E-03    -47.5954E-03     54.6515E-03
            2426     11.1584E-03     2.11027E-03    -9.35127E+06     6.53203E+06    -4.98838E+06    -321.954E+03    -51.2967E-03     98.4908E-03    -47.1941E-03     46.6048E-03    -51.3804E-03     98.5774E-03    -47.2149E-03     46.4386E-03
            2427     10.3032E-03     2.10416E-03    -9.39393E+06    -37.6400E+06    -17.1339E+06    -6.46387E+06    -50.1532E-03     97.0417E-03    -46.8885E-03     40.0296E-03    -50.1433E-03     96.9133E-03    -46.9059E-03     39.8241E-03
            2428     9.44675E-03     2.09903E-03    -10.1009E+06    -72.5761E+06    -26.6810E+06    -13.8488E+06    -49.2523E-03     95.8825E-03    -46.6303E-03     34.4596E-03    -49.1740E-03     95.5871E-03    -46.6438E-03     34.1861E-03
            2429     8.58990E-03     2.09507E-03    -11.3898E+06    -95.7766E+06    -30.1987E+06    -18.5971E+06    -48.4601E-03     94.8861E-03    -46.4260E-03     29.7309E-03    -48.3448E-03     94.4771E-03    -46.4216E-03     29.4156E-03
            2430     7.73224E-03     2.09211E-03    -11.5687E+06    -109.657E+06    -29.0203E+06    -19.4719E+06    -47.7952E-03     94.0620E-03    -46.2668E-03     25.7070E-03    -47.6592E-03     93.5792E-03    -46.2361E-03     25.3954E-03
            2431     6.87418E-03     2.08990E-03    -11.4246E+06    -118.674E+06    -23.9274E+06    -16.9659E+06    -47.2378E-03     93.3914E-03    -46.1536E-03     22.1527E-03    -47.0933E-03     92.8538E-03    -46.0846E-03     21.8851E-03
            2432     6.01556E-03     2.08839E-03    -12.5640E+06    -123.543E+06    -20.2553E+06    -12.8482E+06    -46.7997E-03     92.8589E-03    -46.0592E-03     18.9466E-03    -46.6577E-03     92.2918E-03    -45.9631E-03     18.7414E-03
            2433     5.15677E-03     2.08740E-03    -14.6882E+06    -125.368E+06    -19.3201E+06    -8.82585E+06    -46.4626E-03     92.4360E-03    -45.9734E-03     16.0492E-03    -46.3288E-03     91.8605E-03    -45.8669E-03     15.9040E-03
            2434     4.29749E-03     2.08675E-03    -17.2434E+06    -127.289E+06    -19.4767E+06    -5.83790E+06    -46.1971E-03     92.1026E-03    -45.9055E-03     13.3094E-03    -46.0723E-03     91.5205E-03    -45.7933E-03     13.2096E-03
            2435     3.43824E-03     2.08636E-03    -19.6965E+06    -129.490E+06    -21.1927E+06    -3.85324E+06    -46.0249E-03     91.8733E-03    -45.8484E-03     10.6554E-03    -45.9061E-03     91.2858E-03    -45.7381E-03     10.5869E-03
            2436     2.57874E-03     2.08610E-03    -21.1046E+06    -130.220E+06    -21.2520E+06    -2.39099E+06    -45.9060E-03     91.7149E-03    -45.8089E-03     8.03201E-03    -45.7926E-03     91.1254E-03    -45.6957E-03     7.98748E-03
            2437     1.71922E-03     2.08608E-03    -21.6745E+06    -130.502E+06    -21.3221E+06    -1.49690E+06    -45.8123E-03     91.5934E-03    -45.7811E-03     5.42503E-03    -45.7010E-03     91.0031E-03    -45.6671E-03     5.39667E-03
            2438     859.582E-06     2.08604E-03    -22.2105E+06    -131.321E+06    -22.4188E+06    -983.485E+03    -45.7451E-03     91.5343E-03    -45.7891E-03     2.95005E-03    -45.6328E-03     90.9429E-03    -45.6786E-03     2.93255E-03
            2439     16.1707E-03     1.16706E-03    -751.881E+03     103.801E+06     78.6008E+06     8.19110E+06    -142.571E-03     201.391E-03    -58.8202E-03     175.416E-03    -145.079E-03     204.059E-03    -58.5767E-03     170.643E-03
            2440     15.3290E-03     1.11575E-03    -1.15564E+06     81.9283E+06     74.7580E+06     8.09485E+06    -96.4851E-03     152.093E-03    -55.6075E-03     116.870E-03    -97.2718E-03     152.941E-03    -55.3508E-03     115.746E-03
            2441     14.4938E-03     1.09422E-03     2.70632E+06     74.5973E+06     71.7246E+06     3.75833E+06    -78.3104E-03     132.048E-03    -53.7374E-03     74.8645E-03    -78.6701E-03     132.470E-03    -53.4908E-03     74.4254E-03
            2442     13.6604E-03     1.07821E-03     2.67312E+06     65.4378E+06     54.1234E+06     1.74500E+06    -70.0604E-03     122.422E-03    -52.3615E-03     56.8438E-03    -70.2918E-03     122.736E-03    -52.1897E-03     56.5816E-03
            2443     12.8197E-03     1.06875E-03    -174.469E+03     51.4151E+06     25.6264E+06     1.04037E+06    -63.7617E-03     115.015E-03    -51.2528E-03     43.1402E-03    -63.9072E-03     115.266E-03    -51.1990E-03     42.9788E-03
            2444     11.9754E-03     1.06329E-03    -1.27749E+06     34.9555E+06    -1.53895E+06     174.707E+03    -59.8522E-03     110.226E-03    -50.3739E-03     34.5880E-03    -59.9268E-03     110.424E-03    -50.4305E-03     34.4662E-03
            2445     11.1272E-03     1.05877E-03     209.690E+03     8.51601E+06    -23.4328E+06    -404.232E+03    -56.9954E-03     106.675E-03    -49.6800E-03     28.4061E-03    -56.9847E-03     106.763E-03    -49.8098E-03     28.3133E-03
            2446     10.2765E-03     1.05476E-03     1.14315E+06    -30.7514E+06    -39.4461E+06    -3.99082E+06    -54.8038E-03     103.954E-03    -49.1499E-03     23.5814E-03    -54.7038E-03     103.862E-03    -49.3042E-03     23.4640E-03
            2447     9.42437E-03     1.05178E-03     598.035E+03    -68.0907E+06    -49.6406E+06    -8.85251E+06    -53.0061E-03     101.752E-03    -48.7456E-03     19.8250E-03    -52.8374E-03     101.487E-03    -48.8960E-03     19.6597E-03
            2448     8.57034E-03     1.04948E-03    -1.28004E+06    -94.9076E+06    -53.0898E+06    -11.9394E+06    -51.5497E-03     99.9982E-03    -48.4485E-03     16.8586E-03    -51.3449E-03     99.6056E-03    -48.5745E-03     16.6643E-03
            2449     7.71533E-03     1.04773E-03    -5.08481E+06    -113.104E+06    -50.4085E+06    -12.7510E+06    -50.4163E-03     98.6637E-03    -48.2474E-03     14.4151E-03    -50.2070E-03     98.1808E-03    -48.3281E-03     14.2182E-03
            2450     6.85930E-03     1.04652E-03    -9.48657E+06    -125.128E+06    -39.7900E+06    -10.9269E+06    -49.5428E-03     97.6838E-03    -48.1411E-03     12.3241E-03    -49.3528E-03     97.1311E-03    -48.1448E-03     12.1568E-03
            2451     6.00269E-03     1.04571E-03    -13.1995E+06    -130.077E+06    -29.2234E+06    -7.63084E+06    -48.9077E-03     96.9833E-03    -48.0756E-03     10.4877E-03    -48.7439E-03     96.3954E-03    -48.0140E-03     10.3679E-03
            2452     5.14551E-03     1.04517E-03    -16.1271E+06    -130.420E+06    -24.4929E+06    -4.61193E+06    -48.4839E-03     96.4981E-03    -48.0142E-03     8.82722E-03    -48.3407E-03     95.9055E-03    -47.9242E-03     8.75050E-03
            2453     4.28826E-03     1.04490E-03    -18.2000E+06    -130.758E+06    -22.0731E+06    -2.44840E+06    -48.2137E-03     96.1843E-03    -47.9706E-03     7.28982E-03    -48.0836E-03     95.5892E-03    -47.8650E-03     7.24453E-03
            2454     3.43064E-03     1.04469E-03    -19.5617E+06    -131.325E+06    -21.5642E+06    -1.48878E+06    -48.0479E-03     95.9877E-03    -47.9398E-03     5.83005E-03    -47.9243E-03     95.3908E-03    -47.8289E-03     5.80029E-03
            2455     2.57304E-03     1.04460E-03    -20.4993E+06    -131.811E+06    -21.5438E+06    -1.41429E+06    -47.9562E-03     95.8800E-03    -47.9239E-03     4.37475E-03    -47.8365E-03     95.2819E-03    -47.8107E-03     4.34863E-03
            2456     1.71534E-03     1.04459E-03    -21.1294E+06    -132.031E+06    -21.2032E+06    -1.03703E+06    -47.9219E-03     95.8428E-03    -47.9209E-03     2.93875E-03    -47.8054E-03     95.2439E-03    -47.8048E-03     2.92007E-03
            2457     857.697E-06     1.04463E-03    -21.7620E+06    -132.745E+06    -21.9188E+06    -231.993E+03    -47.9569E-03     95.8382E-03    -47.8814E-03     1.55639E-03    -47.8404E-03     95.2384E-03    -47.7669E-03     1.55072E-03


