********************************************************************************
Field Output Report, written Wed May 29 01:10:30 2024

Source 1
---------

   ODB: G:/Abaqus_calc_2019/1740/Vel_5/odb/zeides_2a_40_red_1000_cal_30_vel_5_fric_025.odb
   Step: Step-1
   Frame: Increment  19294726: Step Time =    2.165

Loc 1 : Nodal values from source 1

Output sorted by column "Nodal Label".

Field Output reported at nodes for region: DIE_2A_40_D0_36-1.Region_1
   Computation algorithm: EXTRAPOLATE_COMPUTE_AVERAGE
   Averaged at nodes
   Averaging regions: ODB_REGIONS

      Node Label     COORD.COOR1     COORD.COOR2
                          @Loc 1          @Loc 1
-------------------------------------------------
               1     21.7407E-03     131.548E-03


Field Output reported at nodes for region: DIE_2A_40_D0_36-1.Region_2
   Computation algorithm: EXTRAPOLATE_COMPUTE_AVERAGE
   Averaged at nodes
   Averaging regions: ODB_REGIONS

      Node Label     COORD.COOR1     COORD.COOR2
                          @Loc 1          @Loc 1
-------------------------------------------------
               1     21.7407E-03     131.548E-03


Field Output reported at nodes for part: WIRE-1
   Computation algorithm: EXTRAPOLATE_COMPUTE_AVERAGE
   Averaged at nodes
   Averaging regions: ODB_REGIONS

      Node Label     COORD.COOR1     COORD.COOR2           S.S11           S.S22           S.S33           S.S12         PE.PE11         PE.PE22         PE.PE33         PE.PE12         LE.LE11         LE.LE22         LE.LE33         LE.LE12
                          @Loc 1          @Loc 1          @Loc 1          @Loc 1          @Loc 1          @Loc 1          @Loc 1          @Loc 1          @Loc 1          @Loc 1          @Loc 1          @Loc 1          @Loc 1          @Loc 1
-------------------------------------------------------------------------------------------------------------------------------------------------------------------------------------------------------------------------------------------------
               1    -471.872E-09     67.2622E-03    -82.3063E+06    -231.193E+06    -81.9462E+06     258.498E+03    -111.047E-03     222.360E-03    -111.313E-03     9.08191E-03    -111.008E-03     221.448E-03    -111.268E-03     8.87781E-03
               2     16.1139E-03     70.2228E-03    -2.86955E+06     122.487E+06     94.1137E+06    -321.125E+03    -108.018E-03     219.061E-03    -111.044E-03     104.606E-03    -113.102E-03     224.297E-03    -110.746E-03     101.452E-03
               3     15.0621E-03     139.979E-03    -5.19161E+06    -27.1895E+06     673.340E+03    -19.5989E+06     86.4976E-03     76.9331E-03    -163.431E-03    -40.9746E-06     86.7185E-03     77.0118E-03    -163.380E-03    -293.986E-06
               4    -1.33302E-06     134.245E-03     35.5919E+06    -8.75883E+06     35.8329E+06    -3.01642E+06    -106.317E-03     213.632E-03    -107.315E-03    -13.4405E-03    -106.250E-03     213.410E-03    -107.175E-03    -13.5723E-03
               5     1.06329E-06    -7.35523E-15    -46.7403E+06    -197.921E+06    -46.8551E+06     733.751E+03    -113.738E-03     226.972E-03    -113.234E-03     795.243E-06    -113.611E-03     226.120E-03    -113.113E-03     793.059E-06
               6     15.6345E-03    -7.35523E-15    -10.2989E+06     93.1581E+06     82.9471E+06     6.75552E+06    -267.105E-03     397.565E-03    -130.460E-03     304.091E-03    -273.501E-03     403.954E-03    -130.165E-03     285.984E-03
               7     805.368E-06     67.2724E-03    -81.5037E+06    -229.693E+06    -79.6536E+06     71.5307E+03    -111.208E-03     222.472E-03    -111.263E-03     15.4354E-03    -111.179E-03     221.570E-03    -111.210E-03     15.0978E-03
               8     1.61068E-03     67.2969E-03    -79.2276E+06    -225.881E+06    -73.7553E+06     89.1789E+03    -111.453E-03     222.687E-03    -111.235E-03     28.5487E-03    -111.454E-03     221.820E-03    -111.161E-03     27.9221E-03
               9     2.41593E-03     67.3366E-03    -75.3721E+06    -219.004E+06    -64.0721E+06     321.728E+03    -111.641E-03     222.913E-03    -111.272E-03     42.0780E-03    -111.694E-03     222.107E-03    -111.166E-03     41.1265E-03
              10     3.22119E-03     67.3912E-03    -70.6139E+06    -207.666E+06    -52.0106E+06     116.642E+03    -111.886E-03     223.182E-03    -111.296E-03     55.6436E-03    -112.022E-03     222.481E-03    -111.153E-03     54.3304E-03
              11     4.02666E-03     67.4609E-03    -65.7038E+06    -193.210E+06    -41.0825E+06     14.9254E+03    -112.208E-03     223.509E-03    -111.301E-03     69.0382E-03    -112.457E-03     222.957E-03    -111.131E-03     67.3263E-03
              12     4.83210E-03     67.5452E-03    -61.0031E+06    -178.592E+06    -31.7083E+06     134.672E+03    -112.600E-03     223.895E-03    -111.295E-03     82.1441E-03    -112.995E-03     223.532E-03    -111.106E-03     79.9908E-03
              13     5.63773E-03     67.6438E-03    -56.5015E+06    -169.184E+06    -22.9115E+06     68.7764E+03    -113.066E-03     224.362E-03    -111.296E-03     95.0246E-03    -113.645E-03     224.206E-03    -111.083E-03     92.3691E-03
              14     6.44319E-03     67.7567E-03    -52.0120E+06    -148.906E+06    -15.9918E+06     154.680E+03    -113.547E-03     224.821E-03    -111.274E-03     107.777E-03    -114.379E-03     224.985E-03    -111.062E-03     104.562E-03
              15     7.24873E-03     67.8834E-03    -47.8953E+06    -133.761E+06    -10.0490E+06     370.052E+03    -114.040E-03     225.296E-03    -111.256E-03     120.319E-03    -115.190E-03     225.830E-03    -111.043E-03     116.468E-03
              16     8.05413E-03     68.0237E-03    -44.0393E+06    -121.959E+06    -6.06251E+06     250.575E+03    -114.487E-03     225.721E-03    -111.234E-03     132.821E-03    -116.044E-03     226.706E-03    -111.024E-03     128.243E-03
              17     8.85999E-03     68.1773E-03    -40.2694E+06    -94.5092E+06    -4.48939E+06     199.318E+03    -114.832E-03     226.004E-03    -111.172E-03     145.547E-03    -116.938E-03     227.645E-03    -110.999E-03     140.152E-03
              18     9.66552E-03     68.3451E-03    -37.2798E+06    -62.2904E+06    -1.45901E+06     332.165E+03    -115.156E-03     226.264E-03    -111.108E-03     158.380E-03    -117.992E-03     228.751E-03    -110.971E-03     152.060E-03
              19     10.4715E-03     68.5270E-03    -34.5758E+06    -15.1445E+06     4.81529E+06    -68.3223E+03    -115.454E-03     226.497E-03    -111.043E-03     172.120E-03    -119.323E-03     230.176E-03    -110.947E-03     164.701E-03
              20     11.2766E-03     68.7240E-03    -31.4885E+06     40.7979E+06     11.9962E+06    -575.819E+03    -115.824E-03     226.795E-03    -110.971E-03     191.443E-03    -121.252E-03     232.221E-03    -110.924E-03     182.703E-03
              21     12.0832E-03     68.9480E-03    -27.3538E+06     78.5767E+06     32.4296E+06    -719.876E+03    -116.649E-03     227.629E-03    -110.981E-03     221.580E-03    -124.651E-03     235.720E-03    -110.893E-03     211.188E-03
              22     12.8890E-03     69.2120E-03    -22.8554E+06     95.4530E+06     64.6000E+06    -240.749E+03    -118.215E-03     229.288E-03    -111.074E-03     260.402E-03    -130.197E-03     241.341E-03    -110.856E-03     248.270E-03
              23     13.6948E-03     69.5253E-03    -17.4654E+06     109.224E+06     88.3703E+06     391.578E+03    -118.249E-03     229.389E-03    -111.139E-03     282.262E-03    -134.005E-03     245.214E-03    -110.831E-03     269.944E-03
              24     14.5008E-03     69.8430E-03    -10.5653E+06     121.916E+06     99.0400E+06     345.586E+03    -114.141E-03     225.283E-03    -111.142E-03     260.126E-03    -130.607E-03     241.858E-03    -110.809E-03     250.646E-03
              25     15.3065E-03     70.1073E-03    -5.03199E+06     125.228E+06     97.3752E+06    -74.0929E+03    -109.495E-03     220.578E-03    -111.083E-03     170.724E-03    -119.914E-03     231.142E-03    -110.770E-03     165.519E-03
              26     16.1125E-03     71.4078E-03    -3.57753E+06     122.010E+06     93.8367E+06     81.1970E+03    -108.401E-03     219.456E-03    -111.055E-03     103.289E-03    -113.440E-03     224.644E-03    -110.758E-03     100.133E-03
              27     16.1131E-03     72.5870E-03    -2.10239E+06     122.825E+06     94.3979E+06     112.905E+03    -107.879E-03     218.943E-03    -111.064E-03     100.333E-03    -112.816E-03     224.035E-03    -110.767E-03     97.1912E-03
              28     16.1135E-03     73.7665E-03    -2.54315E+06     122.513E+06     94.3166E+06    -150.237E+03    -108.703E-03     219.738E-03    -111.034E-03     98.1664E-03    -113.550E-03     224.737E-03    -110.737E-03     94.9739E-03
              29     16.1126E-03     74.9566E-03    -2.38429E+06     123.085E+06     95.0716E+06     172.144E+03    -108.774E-03     219.819E-03    -111.045E-03     98.8740E-03    -113.657E-03     224.855E-03    -110.745E-03     95.6781E-03
              30     16.1133E-03     76.1378E-03    -2.51087E+06     123.298E+06     95.0020E+06     15.7459E+03    -108.106E-03     219.171E-03    -111.065E-03     101.767E-03    -113.100E-03     224.318E-03    -110.765E-03     98.5785E-03
              31     16.1127E-03     77.3229E-03    -2.36419E+06     123.378E+06     94.8979E+06     168.270E+03    -108.950E-03     219.999E-03    -111.049E-03     103.138E-03    -113.990E-03     225.194E-03    -110.750E-03     99.9041E-03
              32     16.1129E-03     78.5090E-03    -2.11110E+06     124.030E+06     95.4176E+06    -5.20789E+03    -108.843E-03     219.890E-03    -111.046E-03     103.861E-03    -113.899E-03     225.101E-03    -110.746E-03     100.644E-03
              33     16.1136E-03     79.6900E-03    -2.51616E+06     123.354E+06     95.0056E+06    -65.6449E+03    -108.236E-03     219.287E-03    -111.051E-03     103.108E-03    -113.276E-03     224.480E-03    -110.751E-03     99.9677E-03
              34     16.1126E-03     80.8739E-03    -1.96925E+06     123.626E+06     95.3007E+06    -90.1453E+03    -107.552E-03     218.603E-03    -111.051E-03     102.155E-03    -112.562E-03     223.768E-03    -110.750E-03     99.0542E-03
              35     16.1149E-03     82.0538E-03    -2.90550E+06     123.188E+06     95.1110E+06     281.374E+03    -107.540E-03     218.578E-03    -111.038E-03     102.757E-03    -112.557E-03     223.746E-03    -110.737E-03     99.6687E-03
              36     16.1122E-03     83.2404E-03    -2.07320E+06     123.670E+06     95.8539E+06    -289.166E+03    -108.788E-03     219.812E-03    -111.024E-03     102.474E-03    -113.824E-03     225.001E-03    -110.721E-03     99.2467E-03
              37     16.1143E-03     84.4199E-03    -2.23534E+06     123.352E+06     95.7272E+06    -342.056E+03    -109.135E-03     220.151E-03    -111.016E-03     100.779E-03    -114.069E-03     225.237E-03    -110.713E-03     97.5626E-03
              38     16.1127E-03     85.6068E-03    -2.57959E+06     122.438E+06     95.1504E+06     97.4966E+03    -107.749E-03     218.804E-03    -111.055E-03     98.0991E-03    -112.586E-03     223.790E-03    -110.753E-03     95.0692E-03
              39     16.1135E-03     86.7848E-03    -2.81935E+06     121.675E+06     95.1629E+06    -242.016E+03    -107.333E-03     218.415E-03    -111.083E-03     98.2923E-03    -112.192E-03     223.421E-03    -110.779E-03     95.2577E-03
              40     16.1125E-03     87.9672E-03    -3.13901E+06     121.480E+06     95.4728E+06     345.250E+03    -108.907E-03     219.949E-03    -111.042E-03     99.6741E-03    -113.791E-03     224.976E-03    -110.736E-03     96.5162E-03
              41     16.1139E-03     89.1599E-03    -2.40740E+06     121.358E+06     95.6512E+06    -524.522E+03    -108.134E-03     219.179E-03    -111.046E-03     100.849E-03    -113.069E-03     224.260E-03    -110.740E-03     97.6577E-03
              42     16.1131E-03     90.3334E-03    -2.20730E+06     119.924E+06     95.3800E+06    -434.004E+03    -108.315E-03     219.360E-03    -111.045E-03     100.403E-03    -113.240E-03     224.426E-03    -110.738E-03     97.2261E-03
              43     16.1131E-03     91.5203E-03    -2.01610E+06     120.413E+06     96.3992E+06     202.020E+03    -109.848E-03     220.876E-03    -111.027E-03     98.5640E-03    -114.714E-03     225.882E-03    -110.717E-03     95.2892E-03
              44     16.1128E-03     92.7097E-03    -2.98302E+06     121.097E+06     96.3452E+06     308.631E+03    -108.445E-03     219.516E-03    -111.072E-03     102.174E-03    -113.425E-03     224.637E-03    -110.761E-03     99.0090E-03
              45     16.1131E-03     93.8908E-03    -1.98107E+06     122.725E+06     97.0357E+06     736.642E+03    -107.037E-03     218.134E-03    -111.097E-03     102.914E-03    -112.067E-03     223.312E-03    -110.787E-03     99.8996E-03
              46     16.1133E-03     95.0678E-03    -2.79832E+06     122.135E+06     96.7743E+06    -535.388E+03    -107.860E-03     218.908E-03    -111.047E-03     102.146E-03    -112.868E-03     224.058E-03    -110.737E-03     98.9957E-03
              47     16.1143E-03     96.2575E-03    -2.27632E+06     120.926E+06     97.0520E+06     23.1662E+03    -108.967E-03     219.974E-03    -111.006E-03     103.371E-03    -114.005E-03     225.151E-03    -110.693E-03     100.122E-03
              48     16.1131E-03     97.4413E-03    -1.93536E+06     122.883E+06     97.8743E+06     623.638E+03    -108.366E-03     219.391E-03    -111.025E-03     102.683E-03    -113.404E-03     224.574E-03    -110.711E-03     99.4972E-03
              49     16.1143E-03     98.6182E-03    -2.62979E+06     124.490E+06     97.8665E+06     419.702E+03    -108.555E-03     219.574E-03    -111.019E-03     102.218E-03    -113.568E-03     224.736E-03    -110.706E-03     99.0547E-03
              50     16.1131E-03     99.8101E-03    -2.47845E+06     125.804E+06     98.6501E+06     365.357E+03    -108.451E-03     219.468E-03    -111.017E-03     103.580E-03    -113.507E-03     224.676E-03    -110.703E-03     100.400E-03
              51     16.1148E-03     100.990E-03    -2.71267E+06     126.307E+06     99.0987E+06     22.9435E+03    -107.221E-03     218.262E-03    -111.042E-03     103.753E-03    -112.298E-03     223.491E-03    -110.725E-03     100.667E-03
              52     16.1132E-03     102.168E-03    -1.52138E+06     128.109E+06     99.9230E+06     1.32078E+06    -107.828E-03     218.844E-03    -111.016E-03     101.030E-03    -112.801E-03     223.977E-03    -110.700E-03     97.9376E-03
              53     16.1152E-03     103.353E-03    -3.42567E+06     130.621E+06     99.7146E+06     670.165E+03    -108.921E-03     219.891E-03    -110.970E-03     100.073E-03    -113.852E-03     224.984E-03    -110.656E-03     96.8369E-03
              54     16.1138E-03     104.538E-03    -3.27275E+06     132.141E+06     100.187E+06    -35.3002E+03    -108.525E-03     219.499E-03    -110.973E-03     99.8506E-03    -113.474E-03     224.614E-03    -110.659E-03     96.6554E-03
              55     16.1150E-03     105.720E-03    -2.17750E+06     132.450E+06     100.340E+06     104.883E+03    -107.294E-03     218.231E-03    -110.937E-03     103.509E-03    -112.327E-03     223.436E-03    -110.624E-03     100.354E-03
              56     16.1184E-03     106.904E-03    -2.25804E+06     132.181E+06     100.983E+06     920.057E+03    -107.043E-03     217.891E-03    -110.847E-03     103.138E-03    -112.053E-03     223.069E-03    -110.531E-03     100.017E-03
              57     16.1167E-03     108.082E-03    -1.76224E+06     135.201E+06     103.477E+06     938.894E+03    -108.573E-03     219.306E-03    -110.734E-03     102.623E-03    -113.600E-03     224.508E-03    -110.410E-03     99.3725E-03
              58     16.1218E-03     109.268E-03    -4.23662E+06     136.678E+06     103.117E+06     605.046E+03    -108.863E-03     219.439E-03    -110.576E-03     104.382E-03    -113.882E-03     224.630E-03    -110.253E-03     101.067E-03
              59     16.1229E-03     110.457E-03    -2.03478E+06     136.877E+06     103.498E+06     799.476E+03    -106.838E-03     217.252E-03    -110.414E-03     105.831E-03    -111.936E-03     222.528E-03    -110.092E-03     102.675E-03
              60     16.1290E-03     111.625E-03    -1.67018E+06     138.940E+06     105.791E+06     771.587E+03    -106.670E-03     216.794E-03    -110.123E-03     105.841E-03    -111.764E-03     222.068E-03    -109.793E-03     102.648E-03
              61     16.1347E-03     112.814E-03    -3.46776E+06     141.651E+06     109.054E+06     2.31963E+06    -107.987E-03     217.685E-03    -109.698E-03     108.123E-03    -113.105E-03     222.978E-03    -109.353E-03     104.853E-03
              62     16.1429E-03     113.998E-03    -4.12025E+06     142.877E+06     110.907E+06     732.590E+03    -109.559E-03     218.733E-03    -109.174E-03     113.434E-03    -114.889E-03     224.233E-03    -108.820E-03     109.902E-03
              63     16.1519E-03     115.177E-03    -2.48230E+06     139.718E+06     107.833E+06    -246.826E+03    -113.036E-03     221.545E-03    -108.509E-03     110.682E-03    -118.261E-03     226.945E-03    -108.169E-03     106.848E-03
              64     16.1610E-03     116.367E-03    -3.00194E+06     136.631E+06     104.132E+06    -68.2339E+03    -117.929E-03     225.717E-03    -107.788E-03     111.200E-03    -123.206E-03     231.167E-03    -107.461E-03     106.996E-03
              65     16.1706E-03     117.567E-03    -1.39774E+06     136.542E+06     106.875E+06     1.74353E+06    -123.887E-03     230.938E-03    -107.051E-03     117.844E-03    -129.444E-03     236.666E-03    -106.712E-03     113.108E-03
              66     16.1803E-03     118.771E-03    -4.68181E+06     137.485E+06     108.980E+06     1.40860E+06    -132.728E-03     239.022E-03    -106.295E-03     121.995E-03    -138.548E-03     244.999E-03    -105.942E-03     116.434E-03
              67     16.1859E-03     119.986E-03    -3.40675E+06     137.050E+06     110.008E+06     39.5201E+03    -144.812E-03     250.381E-03    -105.569E-03     124.418E-03    -150.839E-03     256.565E-03    -105.212E-03     117.555E-03
              68     16.1922E-03     121.221E-03    -4.87606E+06     129.738E+06     105.918E+06    -2.71618E+06    -158.432E-03     263.343E-03    -104.910E-03     130.487E-03    -164.743E-03     269.793E-03    -104.562E-03     122.091E-03
              69     16.1945E-03     122.473E-03       523.8E+03     123.652E+06     105.718E+06    -308.440E+03    -172.418E-03     276.753E-03    -104.336E-03     139.606E-03    -179.137E-03     283.611E-03    -103.987E-03     129.459E-03
              70     16.1992E-03     123.742E-03    -4.73676E+06     121.729E+06     107.192E+06    -358.291E+03    -187.732E-03     291.535E-03    -103.804E-03     149.032E-03    -194.934E-03     298.847E-03    -103.437E-03     136.722E-03
              71     16.1998E-03     125.027E-03    -1.63243E+06     119.366E+06     109.473E+06    -164.520E+03    -204.286E-03     307.606E-03    -103.320E-03     154.491E-03    -211.781E-03     315.206E-03    -102.943E-03     139.849E-03
              72     16.2010E-03     126.337E-03    -4.97325E+06     113.019E+06     108.397E+06    -2.64502E+06    -223.273E-03     326.159E-03    -102.886E-03     165.728E-03    -231.255E-03     334.220E-03    -102.501E-03     148.269E-03
              73     16.1994E-03     127.677E-03    -1.28444E+06     100.170E+06     102.486E+06    -4.10028E+06    -243.096E-03     345.502E-03    -102.407E-03     181.303E-03    -251.545E-03     354.018E-03    -102.038E-03     160.965E-03
              74     16.2043E-03     129.040E-03    -3.85635E+06     76.1330E+06     94.7447E+06    -6.10943E+06    -260.228E-03     362.244E-03    -102.016E-03     192.433E-03    -269.146E-03     371.154E-03    -101.647E-03     169.416E-03
              75     16.1981E-03     130.416E-03     2.72605E+06     71.5772E+06     105.488E+06    -1.04714E+06    -266.848E-03     368.743E-03    -101.895E-03     195.706E-03    -276.609E-03     378.463E-03    -101.475E-03     169.404E-03
              76     16.2063E-03     131.779E-03    -7.71832E+06     53.1646E+06     111.141E+06    -7.53045E+06    -277.144E-03     378.803E-03    -101.658E-03     222.083E-03    -288.281E-03     389.806E-03    -101.169E-03     192.224E-03
              77     16.2047E-03     133.221E-03    -1.92454E+06     19.2694E+06     125.929E+06    -5.02203E+06    -302.032E-03     403.265E-03    -101.233E-03     271.916E-03    -314.532E-03     415.530E-03    -100.629E-03     238.430E-03
              78     16.2103E-03     134.707E-03     4.08630E+06     33.1468E+06     167.134E+06     9.24881E+06    -292.336E-03     394.019E-03    -101.683E-03     317.319E-03    -307.588E-03     408.957E-03    -100.901E-03     282.105E-03
              79     16.2050E-03     136.043E-03    -11.1672E+06     38.6899E+06     130.992E+06    -5.36913E+06    -237.341E-03     340.224E-03    -102.883E-03     391.055E-03    -255.714E-03     358.334E-03    -102.268E-03     360.426E-03
              80     16.2204E-03     137.343E-03    -2.40142E+06    -9.95977E+06     43.4199E+06    -25.8466E+06    -119.557E-03     226.345E-03    -106.788E-03     417.298E-03    -131.648E-03     238.394E-03    -106.553E-03     403.640E-03
              81     16.1084E-03     138.245E-03    -5.97275E+06    -2.97169E+06     59.6032E+06     11.7041E+06     20.3077E-03     100.208E-03    -120.516E-03     250.578E-03     17.5783E-03     102.602E-03    -120.205E-03     250.418E-03
              82     15.5756E-03     139.052E-03     7.09222E+06     7.21270E+06     58.6084E+06     22.8836E+06     80.5385E-03     66.6315E-03    -147.170E-03     53.6236E-03     80.4605E-03     66.5579E-03    -146.898E-03     53.9195E-03
              83     14.1922E-03     139.395E-03    -21.6921E+06     2.84089E+06     23.9698E+06     7.04200E+06     83.5536E-03     81.7741E-03    -165.328E-03     16.1231E-03     83.4645E-03     81.8461E-03    -165.181E-03     16.2142E-03
              84     13.4017E-03     138.840E-03    -20.3644E+06     34.6361E+06     73.1315E+06    -18.9134E+06     53.1434E-03     114.279E-03    -167.422E-03     3.06715E-03     52.8564E-03     114.360E-03    -167.078E-03     2.75558E-03
              85     12.6481E-03     138.239E-03    -18.6777E+06    -28.1666E+06     85.2520E+06    -18.9297E+06     18.0817E-03     147.771E-03    -165.852E-03    -60.7194E-03     17.8896E-03     147.461E-03    -165.358E-03    -61.2332E-03
              86     11.9624E-03     137.677E-03    -15.6847E+06    -13.9553E+06     90.1090E+06    -10.7545E+06     2.27993E-03     159.373E-03    -161.653E-03    -111.383E-03     2.07335E-03     158.980E-03    -161.159E-03    -112.006E-03
              87     11.2616E-03     137.164E-03    -7.19063E+06    -7.09436E+06     92.5828E+06    -22.1405E+06    -16.1518E-03     172.805E-03    -156.653E-03    -149.830E-03    -16.2244E-03     172.330E-03    -156.169E-03    -150.844E-03
              88     10.5666E-03     136.702E-03     522.237E+03    -20.4035E+06     98.4193E+06    -12.5467E+06    -36.1819E-03     187.431E-03    -151.249E-03    -184.025E-03    -36.1263E-03     186.742E-03    -150.728E-03    -185.154E-03
              89     9.87376E-03     136.289E-03     15.7249E+06    -11.2818E+06     105.900E+06    -13.1478E+06    -55.7936E-03     201.359E-03    -145.565E-03    -202.541E-03    -55.6461E-03     200.634E-03    -145.042E-03    -203.790E-03
              90     9.16848E-03     135.930E-03     19.5165E+06    -17.0396E+06     101.499E+06     372.353E+03    -74.0509E-03     213.945E-03    -139.894E-03    -209.031E-03    -73.8666E-03     213.190E-03    -139.390E-03    -210.160E-03
              91     8.46122E-03     135.616E-03      24.836E+06    -992.537E+03     98.5142E+06    -918.596E+03    -89.0733E-03     223.486E-03    -134.413E-03    -200.925E-03    -88.9151E-03     222.848E-03    -133.955E-03    -202.052E-03
              92     7.73906E-03     135.347E-03     26.2495E+06    -6.01445E+06     89.1951E+06     570.089E+03    -100.085E-03     229.415E-03    -129.330E-03    -182.785E-03    -99.9384E-03     228.841E-03    -128.913E-03    -183.815E-03
              93     7.00550E-03     135.114E-03     30.1861E+06    -488.847E+03     85.7752E+06    -2.33181E+06    -107.171E-03     231.898E-03    -124.728E-03    -161.147E-03    -107.049E-03     231.424E-03    -124.342E-03    -162.111E-03
              94     6.25946E-03     134.918E-03     32.0784E+06    -2.73368E+06     78.8469E+06    -435.245E+03    -111.008E-03     231.616E-03    -120.607E-03    -138.242E-03    -110.901E-03     231.206E-03    -120.256E-03    -139.050E-03
              95     5.50209E-03     134.752E-03     33.5576E+06     1.73174E+06     73.9114E+06    -1.42291E+06    -112.315E-03     229.296E-03    -116.980E-03    -115.934E-03    -112.230E-03     228.971E-03    -116.662E-03    -116.618E-03
              96     4.73455E-03     134.614E-03     34.5640E+06       21.35E+03     66.5296E+06    -2.24348E+06    -111.804E-03     225.655E-03    -113.851E-03    -95.3757E-03    -111.723E-03     225.375E-03    -113.568E-03    -95.9426E-03
              97     3.95780E-03     134.501E-03     36.9579E+06     1.21767E+06     62.1726E+06    -3.99481E+06    -110.269E-03     221.519E-03    -111.250E-03    -76.9758E-03    -110.187E-03     221.280E-03    -110.994E-03    -77.4562E-03
              98     3.17366E-03     134.411E-03     39.5749E+06    -1.67249E+06     58.4913E+06    -3.58779E+06    -108.316E-03     217.526E-03    -109.210E-03    -60.5330E-03    -108.223E-03     217.297E-03    -108.972E-03    -60.9141E-03
              99     2.38357E-03     134.340E-03     41.0064E+06     494.106E+03     50.9555E+06    -3.60986E+06    -106.166E-03     213.993E-03    -107.828E-03    -46.2244E-03    -106.064E-03     213.800E-03    -107.633E-03    -46.5251E-03
             100     1.58796E-03     134.291E-03     41.5794E+06    -736.494E+03     45.5127E+06    -4.84628E+06    -105.419E-03     212.631E-03    -107.212E-03    -34.4316E-03    -105.313E-03     212.446E-03    -107.043E-03    -34.6780E-03
             101     791.287E-06     134.263E-03     38.5275E+06    -4.13261E+06     40.9543E+06    -4.23865E+06    -106.048E-03     213.253E-03    -107.205E-03    -21.3074E-03    -105.965E-03     213.053E-03    -107.050E-03    -21.4830E-03
             102     860.492E-09     133.074E-03     21.8816E+06    -9.47261E+06     21.9852E+06    -2.98527E+06    -90.7317E-03     182.012E-03    -91.2804E-03    -7.24113E-03    -90.6831E-03     181.857E-03    -91.1885E-03    -7.34632E-03
             103    -869.775E-09     131.975E-03    -7.49052E+06    -20.4680E+06    -8.78173E+06    -3.70204E+06    -65.7800E-03     131.797E-03    -66.0174E-03    -382.627E-06    -65.7864E-03     131.707E-03    -66.0207E-03    -459.200E-06
             104     596.536E-09     130.911E-03    -44.6575E+06    -36.4861E+06    -44.4366E+06    -2.98776E+06    -50.3344E-03     100.302E-03    -49.9673E-03     3.25723E-03    -50.4458E-03     100.244E-03    -50.0719E-03     3.20416E-03
             105     381.707E-09     129.878E-03    -86.1338E+06    -54.4636E+06    -83.6057E+06    -5.85179E+06    -40.3009E-03     80.2306E-03    -39.9297E-03     6.93802E-03    -40.5323E-03     80.2048E-03    -40.1438E-03     6.85486E-03
             106    -697.776E-09     128.858E-03    -123.520E+06    -78.7225E+06    -124.562E+06    -7.21549E+06    -34.9006E-03     70.3868E-03    -35.4862E-03     8.38308E-03    -35.2228E-03     70.3545E-03    -35.8157E-03     8.28939E-03
             107    -45.5392E-09     127.844E-03    -162.633E+06    -97.5066E+06    -161.786E+06    -3.98357E+06    -34.4593E-03     69.4130E-03    -34.9537E-03     10.2362E-03    -34.8956E-03     69.3974E-03    -35.3855E-03     10.1885E-03
             108    -109.443E-09     126.826E-03    -159.907E+06    -103.909E+06    -160.719E+06     1.01576E+06    -38.4552E-03     76.9070E-03    -38.4518E-03     12.1046E-03    -38.8713E-03     76.8525E-03    -38.8728E-03     12.1243E-03
             109     203.802E-09     125.797E-03    -110.625E+06    -92.7747E+06    -111.148E+06     6.34198E+06    -45.7653E-03     91.1944E-03    -45.4291E-03     12.8599E-03    -46.0245E-03     91.0508E-03    -45.6899E-03     12.9483E-03
             110     220.241E-09     124.750E-03    -75.5213E+06    -77.5672E+06    -72.5056E+06     1.82682E+06    -54.9094E-03     109.201E-03    -54.2918E-03     13.0116E-03    -55.0724E-03     109.026E-03    -54.4324E-03     13.0340E-03
             111     394.704E-09     123.682E-03    -59.3181E+06    -80.9292E+06    -58.6775E+06    -4.92321E+06    -64.2265E-03     127.715E-03    -63.4884E-03     12.8641E-03    -64.3237E-03     127.480E-03    -63.5784E-03     12.7849E-03
             112     197.404E-09     122.595E-03    -52.3562E+06    -97.5485E+06    -53.4331E+06    -3.55529E+06    -72.8166E-03     145.042E-03    -72.2254E-03     12.8451E-03    -72.8626E-03     144.708E-03    -72.2753E-03     12.7672E-03
             113     138.967E-09     121.490E-03    -57.6186E+06    -111.189E+06    -56.3730E+06    -3.37984E+06    -80.7342E-03     161.124E-03    -80.3894E-03     12.6018E-03    -80.7825E-03     160.734E-03    -80.4264E-03     12.5077E-03
             114     60.0866E-09     120.367E-03    -58.6517E+06    -125.869E+06    -59.7657E+06    -4.34501E+06    -87.9481E-03     175.361E-03    -87.4132E-03     11.6918E-03    -87.9750E-03     174.906E-03    -87.4445E-03     11.5602E-03
             115     561.330E-09     119.230E-03    -60.1216E+06    -140.279E+06    -62.4399E+06    -2.62953E+06    -93.9165E-03     187.224E-03    -93.3070E-03     11.2790E-03    -93.9260E-03     186.703E-03    -93.3287E-03     11.1432E-03
             116    -254.756E-09     118.081E-03    -64.6539E+06    -152.422E+06    -65.2292E+06    -3.17702E+06    -98.5250E-03     196.896E-03    -98.3713E-03     10.9559E-03    -98.5355E-03     196.326E-03    -98.3827E-03     10.7901E-03
             117     146.426E-09     116.921E-03    -69.0767E+06    -164.939E+06    -69.5979E+06    -2.78366E+06    -102.386E-03     204.479E-03    -102.094E-03     10.6801E-03    -102.394E-03     203.860E-03    -102.102E-03     10.4978E-03
             118     382.503E-09     115.755E-03    -74.9019E+06    -174.688E+06    -75.2324E+06    -1.62348E+06    -105.454E-03     210.261E-03    -104.807E-03     10.7514E-03    -105.469E-03     209.610E-03    -104.821E-03     10.5605E-03
             119     84.3785E-09     114.582E-03    -76.6352E+06    -182.890E+06    -76.6278E+06    -1.48690E+06    -107.405E-03     214.402E-03    -106.997E-03     10.3914E-03    -107.415E-03     213.715E-03    -107.004E-03     10.1886E-03
             120     61.7795E-09     113.406E-03    -78.3591E+06    -193.477E+06    -77.7855E+06    -3.16695E+06    -108.738E-03     217.363E-03    -108.625E-03     9.90063E-03    -108.739E-03     216.628E-03    -108.620E-03     9.67139E-03
             121    -61.9743E-09     112.227E-03    -80.2146E+06    -205.705E+06    -80.8174E+06    -3.16474E+06    -109.745E-03     219.615E-03    -109.871E-03     9.65456E-03    -109.733E-03     218.826E-03    -109.860E-03     9.41925E-03
             122    -187.080E-09     111.046E-03    -82.6100E+06    -215.635E+06    -82.5874E+06    -1.89211E+06    -110.449E-03     220.907E-03    -110.459E-03     9.43624E-03    -110.432E-03     220.074E-03    -110.439E-03     9.21707E-03
             123     381.727E-09     109.863E-03    -82.4057E+06    -221.338E+06    -83.1366E+06    -690.476E+03    -111.032E-03     221.539E-03    -110.507E-03     9.36026E-03    -111.005E-03     220.678E-03    -110.483E-03     9.15375E-03
             124     222.628E-09     108.681E-03    -85.3030E+06    -222.502E+06    -85.1419E+06     252.548E+03    -111.305E-03     222.091E-03    -110.786E-03     9.14561E-03    -111.288E-03     221.231E-03    -110.765E-03     8.94533E-03
             125    -24.5356E-09     107.498E-03    -85.0999E+06    -222.343E+06    -85.3567E+06     207.480E+03    -111.373E-03     222.627E-03    -111.254E-03     8.97060E-03    -111.355E-03     221.768E-03    -111.235E-03     8.76621E-03
             126    -20.0503E-09     106.314E-03    -83.5722E+06    -224.440E+06    -83.2078E+06    -981.228E+03    -111.316E-03     222.799E-03    -111.483E-03     9.08710E-03    -111.290E-03     221.924E-03    -111.453E-03     8.86715E-03
             127    -236.847E-09     105.129E-03    -85.3990E+06    -229.150E+06    -85.5659E+06    -1.13032E+06    -111.257E-03     222.611E-03    -111.354E-03     9.20557E-03    -111.231E-03     221.719E-03    -111.326E-03     8.98454E-03
             128     298.886E-09     103.946E-03    -85.6589E+06    -232.225E+06    -86.0546E+06    -267.481E+03    -111.369E-03     222.535E-03    -111.165E-03     9.30605E-03    -111.340E-03     221.628E-03    -111.135E-03     9.09216E-03
             129    -73.1011E-09     102.762E-03    -85.9908E+06    -233.873E+06    -85.8975E+06    -179.220E+03    -111.229E-03     222.484E-03    -111.255E-03     9.50208E-03    -111.199E-03     221.570E-03    -111.220E-03     9.28873E-03
             130    -230.999E-09     101.579E-03    -85.6760E+06    -233.946E+06    -85.5243E+06     58.4198E+03    -111.026E-03     222.313E-03    -111.287E-03     9.37163E-03    -110.995E-03     221.397E-03    -111.251E-03     9.16631E-03
             131     79.5169E-09     100.396E-03    -85.9290E+06    -234.368E+06    -85.9980E+06    -411.174E+03    -111.114E-03     222.125E-03    -111.011E-03     9.04561E-03    -111.082E-03     221.208E-03    -110.977E-03     8.83493E-03
             132     202.872E-09     99.2138E-03    -86.3595E+06    -235.207E+06    -86.5232E+06     138.960E+03    -111.365E-03     222.241E-03    -110.876E-03     9.09498E-03    -111.333E-03     221.321E-03    -110.842E-03     8.89156E-03
             133     265.386E-09     98.0297E-03    -86.1315E+06    -235.120E+06    -85.8738E+06    -160.856E+03    -111.579E-03     222.538E-03    -110.959E-03     9.24780E-03    -111.547E-03     221.618E-03    -110.923E-03     9.04054E-03
             134     230.357E-09     96.8464E-03    -86.7058E+06    -236.110E+06    -87.1520E+06    -331.218E+03    -111.525E-03     222.591E-03    -111.067E-03     9.13981E-03    -111.493E-03     221.669E-03    -111.034E-03     8.93023E-03
             135    -28.3315E-09     95.6632E-03    -85.9140E+06    -235.417E+06    -85.9148E+06     487.366E+03    -111.412E-03     222.582E-03    -111.171E-03     8.82041E-03    -111.378E-03     221.660E-03    -111.134E-03     8.62454E-03
             136     181.593E-09     94.4795E-03    -84.6527E+06    -233.893E+06    -84.2078E+06    -74.1357E+03    -111.367E-03     222.513E-03    -111.147E-03     8.75828E-03    -111.331E-03     221.594E-03    -111.106E-03     8.55907E-03
             137    -8.94383E-09     93.2959E-03    -83.8066E+06    -233.453E+06    -84.3144E+06     351.652E+03    -111.212E-03     222.347E-03    -111.135E-03     9.07353E-03    -111.173E-03     221.429E-03    -111.097E-03     8.87954E-03
             138    -81.3591E-09     92.1125E-03    -84.8324E+06    -233.614E+06    -83.8929E+06     278.638E+03    -111.176E-03     222.354E-03    -111.178E-03     9.29025E-03    -111.142E-03     221.436E-03    -111.136E-03     9.09506E-03
             139     140.280E-09     90.9291E-03    -83.5821E+06    -233.122E+06    -84.1874E+06    -165.566E+03    -111.340E-03     222.478E-03    -111.138E-03     9.36696E-03    -111.300E-03     221.561E-03    -111.100E-03     9.16279E-03
             140     81.3386E-09     89.7456E-03    -83.0162E+06    -232.592E+06    -83.2952E+06     369.327E+03    -111.302E-03     222.421E-03    -111.119E-03     9.32738E-03    -111.262E-03     221.505E-03    -111.078E-03     9.12689E-03
             141    -47.9192E-09     88.5624E-03    -83.7282E+06    -232.831E+06    -83.3784E+06    -193.134E+03    -111.209E-03     222.238E-03    -111.028E-03     9.07826E-03    -111.172E-03     221.321E-03    -110.986E-03     8.87614E-03
             142     273.988E-09     87.3799E-03    -82.8371E+06    -232.124E+06    -83.0603E+06    -33.6736E+03    -111.242E-03     222.191E-03    -110.949E-03     9.02422E-03    -111.202E-03     221.276E-03    -110.908E-03     8.81902E-03
             143    -66.2409E-09     86.1961E-03    -82.6282E+06    -231.693E+06    -82.2472E+06     5.89123E+03    -111.265E-03     222.248E-03    -110.984E-03     9.23843E-03    -111.226E-03     221.334E-03    -110.939E-03     9.03248E-03
             144     278.753E-09     85.0129E-03    -81.5644E+06    -231.095E+06     -81.824E+06     155.035E+03    -111.388E-03     222.320E-03    -110.932E-03     9.24242E-03    -111.345E-03     221.407E-03    -110.888E-03     9.04144E-03
             145     203.733E-09     83.8300E-03    -81.5530E+06    -230.702E+06    -81.1842E+06     305.178E+03    -111.485E-03     222.536E-03    -111.052E-03     9.20089E-03    -111.443E-03     221.624E-03    -111.005E-03     9.00453E-03
             146    -21.4907E-09     82.6462E-03    -80.8789E+06    -230.057E+06    -81.3384E+06     42.6427E+03    -111.409E-03     222.649E-03    -111.240E-03     8.90219E-03    -111.365E-03     221.739E-03    -111.196E-03     8.70479E-03
             147     73.1492E-09     81.4628E-03    -81.7494E+06    -230.368E+06    -81.3746E+06     -65.047E+03    -111.210E-03     222.446E-03    -111.237E-03     8.89898E-03    -111.169E-03     221.536E-03    -111.191E-03     8.69663E-03
             148    -198.161E-09     80.2792E-03    -81.9596E+06    -231.105E+06    -82.3646E+06     41.6213E+03    -111.246E-03     222.350E-03    -111.103E-03     9.08277E-03    -111.204E-03     221.438E-03    -111.061E-03     8.88356E-03
             149     513.198E-09     79.0958E-03    -81.6797E+06    -230.742E+06    -81.7205E+06    -78.2163E+03    -111.368E-03     222.373E-03    -111.005E-03     9.28186E-03    -111.326E-03     221.462E-03    -110.961E-03     9.08086E-03
             150    -282.072E-09     77.9126E-03    -82.8767E+06    -231.925E+06    -83.0148E+06    -205.560E+03    -111.198E-03     222.287E-03    -111.089E-03     9.05866E-03    -111.158E-03     221.373E-03    -111.048E-03     8.85946E-03
             151     188.456E-09     76.7300E-03    -82.9508E+06    -231.888E+06    -82.7995E+06     307.777E+03    -111.169E-03     222.323E-03    -111.154E-03     8.87186E-03    -111.130E-03     221.409E-03    -111.111E-03     8.68129E-03
             152    -102.981E-09     75.5459E-03    -81.8405E+06    -230.866E+06    -81.6898E+06    -16.4529E+03    -111.378E-03     222.439E-03    -111.062E-03     9.19125E-03    -111.336E-03     221.528E-03    -111.017E-03     8.99138E-03
             153     491.175E-09     74.3623E-03    -81.4123E+06    -230.605E+06    -81.1360E+06     261.717E+03    -111.397E-03     222.327E-03    -110.930E-03     9.41024E-03    -111.355E-03     221.415E-03    -110.883E-03     9.21173E-03
             154    -162.655E-09     73.1796E-03    -80.6615E+06    -229.978E+06    -80.8032E+06     61.8433E+03    -111.172E-03     222.335E-03    -111.162E-03     9.60859E-03    -111.128E-03     221.425E-03    -111.116E-03     9.40525E-03
             155    -191.367E-09     71.9957E-03    -81.4539E+06    -230.371E+06    -81.6284E+06    -306.961E+03    -111.182E-03     222.509E-03    -111.327E-03     9.51931E-03    -111.140E-03     221.599E-03    -111.283E-03     9.30821E-03
             156     271.608E-09     70.8121E-03    -81.8554E+06    -230.633E+06    -81.5138E+06     31.3921E+03    -111.447E-03     222.532E-03    -111.085E-03     9.57082E-03    -111.407E-03     221.621E-03    -111.039E-03     9.36489E-03
             157     195.185E-09     69.6290E-03    -81.5038E+06    -230.627E+06    -81.5916E+06    -126.201E+03    -111.564E-03     222.538E-03    -110.974E-03     9.46805E-03    -111.522E-03     221.627E-03    -110.929E-03     9.26254E-03
             158     249.406E-09     68.4454E-03    -82.0734E+06    -231.403E+06    -82.4959E+06    -60.1654E+03    -111.333E-03     222.502E-03    -111.169E-03     9.36981E-03    -111.292E-03     221.590E-03    -111.127E-03     9.16209E-03
             159     235.208E-09     66.0791E-03    -82.3192E+06    -231.374E+06    -82.1838E+06    -130.022E+03    -111.080E-03     222.292E-03    -111.212E-03     9.01046E-03    -111.039E-03     221.379E-03    -111.168E-03     8.80934E-03
             160    -245.700E-09     64.8958E-03    -81.6789E+06    -231.248E+06    -82.2242E+06     94.2908E+03    -111.203E-03     222.358E-03    -111.154E-03     8.95132E-03    -111.160E-03     221.445E-03    -111.112E-03     8.75217E-03
             161     294.875E-09     63.7128E-03    -82.0669E+06    -230.881E+06    -81.2535E+06    -111.257E+03    -111.290E-03     222.382E-03    -111.092E-03     8.77846E-03    -111.250E-03     221.470E-03    -111.044E-03     8.57516E-03
             162    -49.4138E-09     62.5291E-03    -81.2850E+06    -231.256E+06    -82.4373E+06     122.408E+03    -111.280E-03     222.342E-03    -111.062E-03     8.96603E-03    -111.234E-03     221.429E-03    -111.021E-03     8.77010E-03
             163     108.249E-09     61.3459E-03    -82.3162E+06    -231.002E+06    -81.1222E+06     166.557E+03    -111.274E-03     222.310E-03    -111.036E-03     8.93604E-03    -111.235E-03     221.397E-03    -110.988E-03     8.74071E-03
             164     192.789E-09     60.1628E-03    -81.9862E+06    -231.082E+06    -82.2014E+06    -566.031E+03    -111.292E-03     222.212E-03    -110.920E-03     8.94130E-03    -111.251E-03     221.300E-03    -110.877E-03     8.73786E-03
             165     69.7316E-09     58.9795E-03    -82.6018E+06    -231.529E+06    -82.8844E+06     18.6085E+03    -111.135E-03     222.074E-03    -110.939E-03     9.05319E-03    -111.094E-03     221.162E-03    -110.898E-03     8.85588E-03
             166    -56.1679E-09     57.7968E-03    -83.3631E+06    -232.190E+06    -83.3009E+06    -2.01664E+03    -110.929E-03     221.938E-03    -111.009E-03     9.17824E-03    -110.891E-03     221.024E-03    -110.968E-03     8.98032E-03
             167    -122.010E-09     56.6135E-03    -83.0244E+06    -232.424E+06    -83.5106E+06     19.1139E+03    -110.957E-03     222.013E-03    -111.056E-03     9.40573E-03    -110.917E-03     221.097E-03    -111.016E-03     9.20646E-03
             168     97.0645E-09     55.4309E-03    -83.8365E+06    -232.796E+06    -83.4004E+06    -265.354E+03    -111.344E-03     222.320E-03    -110.977E-03     9.41897E-03    -111.307E-03     221.405E-03    -110.934E-03     9.21031E-03
             169     485.402E-09     54.2468E-03    -82.7767E+06    -232.505E+06    -83.4075E+06     258.852E+03    -111.518E-03     222.334E-03    -110.816E-03     9.43770E-03    -111.477E-03     221.418E-03    -110.775E-03     9.23628E-03
             170     18.6538E-09     53.0643E-03    -82.4090E+06    -231.660E+06    -82.4049E+06     111.476E+03    -111.176E-03     222.044E-03    -110.868E-03     9.34700E-03    -111.135E-03     221.130E-03    -110.824E-03     9.14337E-03
             171    -64.5347E-09     51.8816E-03    -82.6941E+06    -231.209E+06    -82.0441E+06    -188.578E+03    -110.975E-03     221.818E-03    -110.844E-03     9.00557E-03    -110.937E-03     220.907E-03    -110.799E-03     8.79785E-03
             172     293.794E-09     50.6990E-03    -82.7962E+06    -231.671E+06    -82.5692E+06     -41.742E+03    -111.071E-03     221.807E-03    -110.737E-03     9.01635E-03    -111.032E-03     220.895E-03    -110.694E-03     8.81348E-03
             173    -17.7061E-09     49.5166E-03    -82.1340E+06    -231.746E+06    -82.6221E+06     73.3764E+03    -111.139E-03     221.945E-03    -110.806E-03     8.85483E-03    -111.097E-03     221.031E-03    -110.764E-03     8.65409E-03
             174     239.432E-09     48.3336E-03    -82.1638E+06    -231.564E+06    -82.3653E+06     148.438E+03    -111.073E-03     221.914E-03    -110.841E-03     8.91214E-03    -111.032E-03     221.001E-03    -110.798E-03     8.70936E-03
             175    -123.752E-09     47.1503E-03    -83.7627E+06    -232.544E+06    -83.5809E+06    -252.540E+03    -110.754E-03     221.582E-03    -110.828E-03     9.39330E-03    -110.717E-03     220.668E-03    -110.788E-03     9.18880E-03
             176    -148.693E-09     45.9680E-03    -83.8490E+06    -232.824E+06    -83.9907E+06    -61.0815E+03    -110.428E-03     221.102E-03    -110.673E-03     9.57010E-03    -110.391E-03     220.187E-03    -110.634E-03     9.36948E-03
             177    -15.2908E-09     44.7867E-03    -83.1074E+06    -232.383E+06    -83.4303E+06     229.958E+03    -110.358E-03     220.777E-03    -110.418E-03     9.54076E-03    -110.319E-03     219.862E-03    -110.378E-03     9.34097E-03
             178     39.8898E-09     43.6056E-03    -83.1319E+06    -232.241E+06    -83.1447E+06     6.79038E+03    -110.293E-03     220.543E-03    -110.250E-03     9.14592E-03    -110.254E-03     219.629E-03    -110.209E-03     8.94835E-03
             179    -32.6739E-09     42.4251E-03    -84.0354E+06    -233.115E+06    -84.1770E+06    -193.997E+03    -110.114E-03     220.023E-03    -109.908E-03     8.49345E-03    -110.077E-03     219.106E-03    -109.869E-03     8.29567E-03
             180     325.256E-09     41.2452E-03    -84.3908E+06    -233.319E+06    -84.2667E+06     84.1570E+03    -109.788E-03     219.489E-03    -109.701E-03     8.44564E-03    -109.752E-03     218.572E-03    -109.661E-03     8.25257E-03
             181    -506.425E-09     40.0655E-03    -83.5555E+06    -232.472E+06    -83.4072E+06    -9.09861E+03    -109.570E-03     219.178E-03    -109.608E-03     8.40548E-03    -109.532E-03     218.263E-03    -109.567E-03     8.21302E-03
             182     596.713E-09     38.8856E-03    -83.1595E+06    -232.116E+06    -83.1514E+06     84.7105E+03    -109.389E-03     218.643E-03    -109.254E-03     8.73721E-03    -109.350E-03     217.729E-03    -109.212E-03     8.54481E-03
             183    -501.281E-09     37.7069E-03    -82.8902E+06    -231.875E+06    -83.1227E+06     128.387E+03    -108.938E-03     217.774E-03    -108.836E-03     8.88084E-03    -108.898E-03     216.861E-03    -108.795E-03     8.69387E-03
             184     533.647E-09     36.5302E-03    -83.1885E+06    -231.973E+06    -83.1229E+06     60.5076E+03    -108.629E-03     216.894E-03    -108.265E-03     8.57551E-03    -108.590E-03     215.980E-03    -108.224E-03     8.39335E-03
             185    -9.77917E-09     35.3536E-03    -82.9842E+06    -231.722E+06    -82.9440E+06     162.559E+03    -108.234E-03     216.030E-03    -107.796E-03     8.65757E-03    -108.195E-03     215.118E-03    -107.755E-03     8.47869E-03
             186     160.490E-09     34.1783E-03    -82.5823E+06    -231.286E+06    -82.8343E+06     32.3288E+03    -107.621E-03     215.001E-03    -107.380E-03     8.60918E-03    -107.580E-03     214.090E-03    -107.339E-03     8.43081E-03
             187     42.9529E-09     33.0042E-03    -82.4374E+06    -230.926E+06    -82.4349E+06     83.1326E+03    -106.895E-03     213.687E-03    -106.792E-03     8.38561E-03    -106.855E-03     212.776E-03    -106.750E-03     8.20853E-03
             188    -110.566E-09     31.8327E-03    -81.9079E+06    -230.189E+06    -82.1877E+06     150.761E+03    -106.090E-03     212.233E-03    -106.143E-03     7.98458E-03    -106.049E-03     211.325E-03    -106.101E-03     7.80761E-03
             189     62.5375E-09     30.6620E-03    -81.5231E+06    -229.508E+06    -81.7821E+06    -107.804E+03    -105.431E-03     210.779E-03    -105.348E-03     7.93687E-03    -105.390E-03     209.874E-03    -105.306E-03     7.75577E-03
             190     90.9685E-09     29.4929E-03    -81.9692E+06    -229.668E+06    -81.7154E+06     100.313E+03    -104.682E-03     209.025E-03    -104.344E-03     7.93093E-03    -104.642E-03     208.119E-03    -104.300E-03     7.75873E-03
             191     279.681E-09     28.3267E-03    -81.8081E+06    -229.190E+06    -82.0204E+06     352.438E+03    -103.635E-03     207.184E-03    -103.549E-03     8.03574E-03    -103.595E-03     206.281E-03    -103.508E-03     7.87351E-03
             192    -541.221E-09     27.1624E-03    -81.9658E+06    -228.710E+06    -82.1064E+06     413.862E+03    -102.629E-03     205.442E-03    -102.812E-03     7.67574E-03    -102.590E-03     204.541E-03    -102.772E-03     7.51825E-03
             193     478.955E-09     25.9997E-03    -82.1405E+06    -228.475E+06    -82.0004E+06     346.068E+03    -101.932E-03     203.575E-03    -101.643E-03     7.43181E-03    -101.894E-03     202.676E-03    -101.603E-03     7.27624E-03
             194     31.5468E-09     24.8402E-03    -81.9935E+06    -227.884E+06    -82.0867E+06     176.520E+03    -100.970E-03     201.616E-03    -100.645E-03     7.31523E-03    -100.932E-03     200.719E-03    -100.607E-03     7.16347E-03
             195    -37.5790E-09     23.6821E-03    -82.3582E+06    -227.555E+06    -82.2463E+06     402.169E+03    -99.9774E-03     199.682E-03    -99.7042E-03     6.67559E-03    -99.9413E-03     198.787E-03    -99.6660E-03     6.53414E-03
             196     471.128E-09     22.5277E-03    -81.5518E+06    -226.185E+06    -81.3423E+06    -54.6338E+03    -99.1055E-03     197.964E-03    -98.8590E-03     6.56158E-03    -99.0686E-03     197.074E-03    -98.8195E-03     6.41616E-03
             197    -519.266E-09     21.3726E-03    -80.9081E+06    -224.950E+06    -81.2128E+06     579.247E+03    -98.2732E-03     196.354E-03    -98.0806E-03     6.63270E-03    -98.2349E-03     195.469E-03    -98.0432E-03     6.49978E-03
             198     859.639E-09     20.2209E-03    -81.2770E+06    -223.818E+06    -80.9061E+06     586.399E+03    -97.6147E-03     194.458E-03    -96.8436E-03     6.43023E-03    -97.5802E-03     193.579E-03    -96.8057E-03     6.30302E-03
             199     45.8589E-09     19.0719E-03    -81.9663E+06    -223.595E+06    -82.2440E+06    -501.498E+03    -96.3084E-03     192.185E-03    -95.8763E-03     6.05193E-03    -96.2756E-03     191.309E-03    -95.8444E-03     5.91191E-03
             200    -264.169E-09     17.9255E-03    -82.2295E+06    -222.628E+06    -82.2623E+06     117.659E+03    -94.5022E-03     189.140E-03    -94.6377E-03     4.79064E-03    -94.4720E-03     188.269E-03    -94.6070E-03     4.66603E-03
             201     251.858E-09     16.7833E-03    -81.7107E+06    -220.603E+06    -81.9912E+06     81.1529E+03    -92.3161E-03     184.631E-03    -92.3148E-03     3.42520E-03    -92.2863E-03     183.769E-03    -92.2864E-03     3.31235E-03
             202    -242.756E-09     15.6482E-03    -80.0248E+06    -217.605E+06    -80.6494E+06     316.798E+03    -89.5872E-03     179.156E-03    -89.5683E-03     2.46395E-03    -89.5551E-03     178.304E-03    -89.5400E-03     2.36594E-03
             203     258.172E-09     14.5172E-03    -78.3660E+06    -214.351E+06    -78.3174E+06     587.448E+03    -86.2916E-03     172.552E-03    -86.2604E-03     1.82141E-03    -86.2592E-03     171.710E-03    -86.2275E-03     1.74478E-03
             204    -217.854E-09     13.3958E-03    -76.4107E+06    -210.115E+06    -76.9270E+06     1.22797E+06    -82.1132E-03     164.079E-03    -81.9656E-03     1.29922E-03    -82.0793E-03     163.253E-03    -81.9348E-03     1.24674E-03
             205     424.223E-09     12.2848E-03    -74.7421E+06    -204.492E+06    -74.0332E+06     1.73496E+06    -77.4849E-03     154.474E-03    -76.9893E-03     687.525E-06    -77.4550E-03     153.669E-03    -76.9545E-03     652.046E-06
             206     212.693E-09     11.1850E-03    -72.3142E+06    -199.149E+06    -72.0809E+06     1.54181E+06    -72.6362E-03     144.701E-03    -72.0650E-03     346.750E-06    -72.6046E-03     143.917E-03    -72.0318E-03     315.332E-06
             207     116.262E-09     10.0954E-03    -67.1685E+06    -191.474E+06    -66.9331E+06     1.78941E+06    -67.9530E-03     135.731E-03    -67.7784E-03     326.730E-06    -67.9140E-03     134.971E-03    -67.7381E-03     300.999E-06
             208    -144.461E-09     9.01503E-03    -63.1700E+06    -185.874E+06    -62.1106E+06     1.03092E+06    -64.9612E-03     129.587E-03    -64.6253E-03     970.570E-06    -64.9169E-03     128.842E-03    -64.5748E-03     936.606E-06
             209     752.012E-09     7.93889E-03    -61.4414E+06    -184.695E+06    -60.9906E+06    -210.648E+03    -64.7025E-03     128.907E-03    -64.2041E-03     2.69115E-03    -64.6528E-03     128.164E-03    -64.1522E-03     2.64256E-03
             210    -515.723E-09     6.86000E-03    -62.5664E+06    -187.585E+06    -61.2805E+06    -811.429E+03    -67.8327E-03     135.626E-03    -67.7932E-03     4.56797E-03    -67.7851E-03     134.870E-03    -67.7369E-03     4.51254E-03
             211     362.506E-09     5.76943E-03    -62.3338E+06    -192.103E+06    -61.6578E+06    -1.13907E+06    -74.8679E-03     149.786E-03    -74.9177E-03     5.99079E-03    -74.8140E-03     149.005E-03    -74.8570E-03     5.93066E-03
             212    -273.382E-09     4.65926E-03    -61.3758E+06    -197.143E+06    -61.5798E+06    -1.05538E+06    -84.4388E-03     169.110E-03    -84.6716E-03     6.85487E-03    -84.3741E-03     168.302E-03    -84.6046E-03     6.79121E-03
             213    -179.045E-09     3.52549E-03    -58.6645E+06    -200.507E+06    -59.5120E+06    -158.623E+03    -94.9516E-03     190.277E-03    -95.3255E-03     6.58258E-03    -94.8710E-03     189.445E-03    -95.2473E-03     6.52957E-03
             214     28.9778E-09     2.36694E-03    -52.6412E+06    -199.731E+06    -53.6803E+06     227.532E+03    -104.463E-03     209.410E-03    -104.947E-03     5.47375E-03    -104.359E-03     208.566E-03    -104.849E-03     5.43322E-03
             215    -662.866E-09     1.18878E-03    -48.4661E+06    -198.478E+06    -48.5052E+06     386.732E+03    -111.151E-03     222.444E-03    -111.293E-03     2.72613E-03    -111.032E-03     221.594E-03    -111.177E-03     2.70589E-03
             216     802.643E-06    -7.35523E-15    -46.8705E+06    -197.856E+06    -46.5873E+06     227.589E+03    -113.659E-03     227.036E-03    -113.376E-03     2.10799E-03    -113.536E-03     226.183E-03    -113.255E-03     2.08787E-03
             217     1.60516E-03    -7.35523E-15    -46.6588E+06    -197.363E+06    -45.8717E+06    -250.654E+03    -113.589E-03     227.126E-03    -113.536E-03     4.59136E-03    -113.470E-03     226.273E-03    -113.412E-03     4.53969E-03
             218     2.40745E-03    -7.35523E-15    -45.9111E+06    -196.239E+06    -44.6427E+06    -149.207E+03    -113.591E-03     227.154E-03    -113.563E-03     6.95472E-03    -113.472E-03     226.304E-03    -113.435E-03     6.88115E-03
             219     3.21001E-03    -7.35523E-15    -45.4674E+06    -195.138E+06    -43.4353E+06     165.391E+03    -113.611E-03     227.193E-03    -113.582E-03     9.28657E-03    -113.494E-03     226.347E-03    -113.450E-03     9.19496E-03
             220     4.01238E-03    -7.35523E-15    -44.5547E+06    -194.405E+06    -43.7128E+06    -831.882E+03    -113.683E-03     227.281E-03    -113.598E-03     11.6541E-03    -113.563E-03     226.439E-03    -113.470E-03     11.5238E-03
             221     4.81466E-03    -7.35523E-15    -41.8347E+06    -189.575E+06    -47.0254E+06    -3.28066E+06    -113.854E-03     227.457E-03    -113.604E-03     14.2009E-03    -113.723E-03     226.641E-03    -113.503E-03     14.0129E-03
             222     5.61677E-03    -7.35523E-15    -37.3948E+06    -176.395E+06    -52.6376E+06    -5.52070E+06    -114.223E-03     227.835E-03    -113.612E-03     16.7317E-03    -114.083E-03     227.088E-03    -113.565E-03     16.4834E-03
             223     6.41858E-03    -7.35523E-15    -30.9777E+06    -153.164E+06    -58.3281E+06    -7.90901E+06    -114.812E-03     228.459E-03    -113.647E-03     19.3014E-03    -114.667E-03     227.829E-03    -113.672E-03     18.9859E-03
             224     7.21954E-03    -7.35523E-15    -23.6110E+06    -121.151E+06    -62.7602E+06    -8.54071E+06    -115.642E-03     229.373E-03    -113.731E-03     22.2572E-03    -115.503E-03     228.902E-03    -113.835E-03     21.8946E-03
             225     8.01957E-03    -7.35523E-15    -17.0345E+06    -84.4316E+06    -64.9967E+06    -7.87005E+06    -116.817E-03     230.708E-03    -113.891E-03     25.5714E-03    -116.699E-03     230.417E-03    -114.069E-03     25.1663E-03
             226     8.81849E-03    -7.35523E-15    -12.0013E+06    -39.9830E+06    -62.6829E+06    -6.46554E+06    -118.432E-03     232.585E-03    -114.153E-03     29.1679E-03    -118.361E-03     232.511E-03    -114.391E-03     28.7105E-03
             227     9.61560E-03    -7.35523E-15    -9.22976E+06     5.83209E+06    -47.0464E+06    -2.72026E+06    -120.603E-03     235.198E-03    -114.594E-03     33.6790E-03    -120.616E-03     235.333E-03    -114.824E-03     33.1842E-03
             228     10.4097E-03    -7.35523E-15    -9.25486E+06     36.8896E+06    -17.2784E+06    -122.841E+03    -123.413E-03     238.678E-03    -115.265E-03     39.1355E-03    -123.527E-03     238.939E-03    -115.392E-03     38.5435E-03
             229     11.2017E-03    -7.35523E-15    -8.39683E+06     54.6244E+06     12.0078E+06    -993.165E+03    -127.200E-03     243.314E-03    -116.114E-03     44.8435E-03    -127.399E-03     243.641E-03    -116.121E-03     44.0171E-03
             230     11.9904E-03    -7.35523E-15    -4.15163E+06     65.8394E+06     41.6665E+06    -2.28011E+06    -132.895E-03     250.086E-03    -117.190E-03     51.8007E-03    -133.161E-03     250.449E-03    -117.072E-03     50.6993E-03
             231     12.7719E-03    -7.35523E-15     2.77908E+06     76.3673E+06     77.8423E+06    -3.55736E+06    -142.281E-03     260.926E-03    -118.645E-03     63.7413E-03    -142.636E-03     261.334E-03    -118.371E-03     62.2231E-03
             232     13.5416E-03    -7.35523E-15     7.84567E+06     90.7760E+06     101.174E+06    -1.11102E+06    -156.823E-03     277.401E-03    -120.578E-03     88.2072E-03    -157.359E-03     277.986E-03    -120.215E-03     85.9093E-03
             233     14.2855E-03    -7.35523E-15     4.24679E+06     98.8942E+06     100.189E+06     6.72998E+06    -183.976E-03     307.310E-03    -123.333E-03     143.563E-03    -185.305E-03     308.701E-03    -122.982E-03     138.502E-03
             234     14.9963E-03    -7.35523E-15    -5.18935E+06     96.1879E+06     88.8430E+06     8.85328E+06    -234.801E-03     362.528E-03    -127.727E-03     243.204E-03    -238.998E-03     366.753E-03    -127.414E-03     230.481E-03
             235     15.8669E-03     1.50702E-03    -7.22509E+06     99.4613E+06     78.2019E+06     6.83445E+06    -229.172E-03     354.905E-03    -125.733E-03     266.056E-03    -235.302E-03     361.087E-03    -125.475E-03     250.672E-03
             236     15.9843E-03     2.78855E-03     4.62660E+06     111.645E+06     76.8545E+06     6.01977E+06    -189.727E-03     307.899E-03    -118.172E-03     186.462E-03    -194.763E-03     313.107E-03    -117.956E-03     174.084E-03
             237     16.0428E-03     4.05620E-03     4.77529E+06     113.482E+06     78.9292E+06     1.93931E+06    -203.059E-03     316.768E-03    -113.709E-03     114.691E-03    -206.751E-03     320.656E-03    -113.486E-03     101.716E-03
             238     16.0653E-03     5.38910E-03    -2.82354E+06     110.302E+06     80.1410E+06     1.56069E+06    -217.012E-03     328.535E-03    -111.522E-03     74.8069E-03    -220.002E-03     331.682E-03    -111.277E-03     61.3361E-03
             239     16.0800E-03     6.71783E-03    -775.444E+03     112.925E+06     84.7720E+06     1.88535E+06    -205.219E-03     316.149E-03    -110.930E-03     68.7329E-03    -208.242E-03     319.329E-03    -110.669E-03     56.0393E-03
             240     16.0837E-03     8.01424E-03    -1.38136E+06     112.665E+06     87.0141E+06    -707.228E+03    -188.615E-03     299.577E-03    -110.962E-03     77.2351E-03    -192.007E-03     303.114E-03    -110.688E-03     65.3811E-03
             241     16.0848E-03     9.29443E-03    -2.63288E+06     111.530E+06     87.8912E+06     190.728E+03    -176.353E-03     287.462E-03    -111.110E-03     81.4883E-03    -179.884E-03     291.126E-03    -110.828E-03     70.7641E-03
             242     16.0885E-03     10.5464E-03    -1.88992E+06     113.293E+06     89.0493E+06     509.870E+03    -164.654E-03     275.904E-03    -111.250E-03     77.9063E-03    -168.101E-03     279.486E-03    -110.967E-03     68.4711E-03
             243     16.0889E-03     11.7881E-03    -2.28720E+06     114.377E+06     89.1172E+06     195.365E+03    -155.051E-03     266.428E-03    -111.377E-03     73.8949E-03    -158.420E-03     269.937E-03    -111.094E-03     65.5902E-03
             244     16.0910E-03     13.0284E-03    -2.74664E+06     115.199E+06     89.0358E+06     816.685E+03    -146.231E-03     257.682E-03    -111.451E-03     78.4477E-03    -149.764E-03     261.356E-03    -111.169E-03     71.0000E-03
             245     16.0955E-03     14.2507E-03    -2.28091E+06     116.406E+06     89.5709E+06     826.801E+03    -140.299E-03     251.691E-03    -111.392E-03     83.6386E-03    -144.036E-03     255.573E-03    -111.109E-03     76.7107E-03
             246     16.0975E-03     15.4753E-03    -2.71725E+06     117.545E+06     89.8133E+06     619.641E+03    -136.787E-03     248.077E-03    -111.291E-03     84.8544E-03    -140.638E-03     252.076E-03    -111.008E-03     78.3196E-03
             247     16.1008E-03     16.6895E-03    -1.42119E+06     118.507E+06     90.8169E+06     377.634E+03    -133.659E-03     244.862E-03    -111.203E-03     85.8961E-03    -137.618E-03     248.972E-03    -110.918E-03     79.6619E-03
             248     16.1027E-03     17.9010E-03    -2.04995E+06     118.725E+06     90.9502E+06     222.264E+03    -132.961E-03     244.033E-03    -111.071E-03     87.6165E-03    -137.046E-03     248.268E-03    -110.786E-03     81.4660E-03
             249     16.1050E-03     19.1200E-03    -3.25151E+06     118.690E+06     90.8501E+06     265.962E+03    -132.319E-03     243.288E-03    -110.969E-03     91.0786E-03    -136.569E-03     247.685E-03    -110.682E-03     85.0105E-03
             250     16.1060E-03     20.3337E-03    -2.36084E+06     119.840E+06     91.9028E+06     580.473E+03    -129.536E-03     240.477E-03    -110.941E-03     94.4607E-03    -133.931E-03     245.023E-03    -110.652E-03     88.6427E-03
             251     16.1080E-03     21.5378E-03    -2.19495E+06     121.163E+06     92.4801E+06     651.385E+03    -127.290E-03     238.204E-03    -110.914E-03     94.7718E-03    -131.737E-03     242.805E-03    -110.624E-03     89.2104E-03
             252     16.1082E-03     22.7438E-03    -1.73769E+06     122.093E+06     93.1485E+06     106.739E+03    -126.285E-03     237.152E-03    -110.867E-03     94.9257E-03    -130.769E-03     241.793E-03    -110.576E-03     89.5017E-03
             253     16.1104E-03     23.9488E-03    -2.50515E+06     122.319E+06     93.0623E+06     295.335E+03    -125.257E-03     236.106E-03    -110.849E-03     95.5519E-03    -129.796E-03     240.800E-03    -110.558E-03     90.3280E-03
             254     16.1086E-03     25.1531E-03    -2.59644E+06     122.745E+06     93.0086E+06     253.139E+03    -123.142E-03     234.029E-03    -110.888E-03     95.8744E-03    -127.781E-03     238.826E-03    -110.597E-03     90.8934E-03
             255     16.1107E-03     26.3503E-03    -2.54272E+06     123.090E+06     93.1484E+06     140.487E+03    -120.468E-03     231.383E-03    -110.915E-03     99.4608E-03    -125.237E-03     236.309E-03    -110.624E-03     94.7231E-03
             256     16.1109E-03     27.5533E-03    -2.41326E+06     123.390E+06     93.6454E+06     329.841E+03    -117.686E-03     228.617E-03    -110.931E-03     101.640E-03    -122.544E-03     233.633E-03    -110.638E-03     97.2111E-03
             257     16.1120E-03     28.7406E-03    -2.39848E+06     123.906E+06     94.0346E+06    -7.54830E+03    -117.388E-03     228.295E-03    -110.907E-03     102.190E-03    -122.290E-03     233.356E-03    -110.613E-03     97.8213E-03
             258     16.1117E-03     29.9354E-03    -2.40123E+06     123.857E+06     93.8866E+06    -170.186E+03    -117.733E-03     228.622E-03    -110.889E-03     98.1284E-03    -122.506E-03     233.554E-03    -110.596E-03     93.8034E-03
             259     16.1116E-03     31.1319E-03    -2.59842E+06     123.895E+06     93.9749E+06     282.540E+03    -115.158E-03     226.110E-03    -110.951E-03     99.7502E-03    -120.024E-03     231.134E-03    -110.657E-03     95.6869E-03
             260     16.1124E-03     32.3194E-03    -2.46520E+06     124.405E+06     94.3529E+06     505.714E+03    -114.025E-03     224.987E-03    -110.962E-03     102.542E-03    -119.001E-03     230.122E-03    -110.667E-03     98.5958E-03
             261     16.1123E-03     33.5118E-03    -2.29422E+06     124.853E+06     94.4969E+06    -205.887E+03    -113.866E-03     224.824E-03    -110.958E-03     100.651E-03    -118.794E-03     229.913E-03    -110.663E-03     96.7737E-03
             262     16.1121E-03     34.6986E-03    -2.67988E+06     124.645E+06     94.3361E+06     86.1435E+03    -112.438E-03     223.420E-03    -110.982E-03     101.452E-03    -117.365E-03     228.507E-03    -110.688E-03     97.7920E-03
             263     16.1134E-03     35.8886E-03    -2.02196E+06     124.804E+06     94.6727E+06         659.344    -111.025E-03     222.018E-03    -110.992E-03     101.742E-03    -115.983E-03     227.136E-03    -110.697E-03     98.2303E-03
             264     16.1127E-03     37.0717E-03    -1.95914E+06     124.621E+06     94.6013E+06    -238.550E+03    -110.733E-03     221.729E-03    -110.996E-03     102.217E-03    -115.753E-03     226.910E-03    -110.701E-03     98.7208E-03
             265     16.1130E-03     38.2610E-03    -2.51632E+06     123.903E+06     94.2822E+06     178.260E+03    -110.593E-03     221.588E-03    -110.995E-03     102.695E-03    -115.614E-03     226.766E-03    -110.700E-03     99.2382E-03
             266     16.1134E-03     39.4449E-03    -2.73206E+06     123.582E+06     94.4609E+06    -137.635E+03    -109.933E-03     220.935E-03    -111.002E-03     101.915E-03    -114.921E-03     226.078E-03    -110.705E-03     98.5235E-03
             267     16.1129E-03     40.6285E-03    -2.71471E+06     123.368E+06     94.6343E+06    -434.970E+03    -109.627E-03     220.649E-03    -111.022E-03     99.3031E-03    -114.524E-03     225.700E-03    -110.724E-03     95.9484E-03
             268     16.1127E-03     41.8123E-03    -2.92930E+06     122.865E+06     94.3218E+06     139.716E+03    -110.034E-03     221.053E-03    -111.018E-03     99.3504E-03    -114.908E-03     226.079E-03    -110.721E-03     95.9989E-03
             269     16.1133E-03     42.9992E-03    -2.04832E+06     123.716E+06     94.7905E+06     276.569E+03    -110.025E-03     221.032E-03    -111.007E-03     99.6059E-03    -114.916E-03     226.081E-03    -110.710E-03     96.2638E-03
             270     16.1130E-03     44.1859E-03    -2.36568E+06     123.962E+06     94.7404E+06     139.776E+03    -108.972E-03     220.006E-03    -111.034E-03     102.096E-03    -113.989E-03     225.181E-03    -110.737E-03     98.8338E-03
             271     16.1131E-03     45.3708E-03    -2.73236E+06     124.074E+06     94.7133E+06    -107.011E+03    -108.779E-03     219.826E-03    -111.046E-03     104.653E-03    -113.902E-03     225.104E-03    -110.749E-03     101.404E-03
             272     16.1129E-03     46.5535E-03    -2.29117E+06     124.369E+06     95.1357E+06    -232.115E+03    -108.780E-03     219.829E-03    -111.049E-03     103.248E-03    -113.835E-03     225.042E-03    -110.750E-03     99.9995E-03
             273     16.1130E-03     47.7367E-03    -2.58289E+06     124.168E+06     95.0537E+06     355.265E+03    -108.610E-03     219.671E-03    -111.060E-03     102.421E-03    -113.634E-03     224.850E-03    -110.761E-03     99.2292E-03
             274     16.1125E-03     48.9201E-03    -2.29971E+06     124.955E+06     95.5891E+06    -97.4747E+03    -108.988E-03     220.034E-03    -111.046E-03     102.751E-03    -114.027E-03     225.231E-03    -110.746E-03     99.5034E-03
             275     16.1137E-03     50.1050E-03    -2.22130E+06     124.526E+06     95.5617E+06     13.0411E+03    -108.481E-03     219.528E-03    -111.047E-03     102.166E-03    -113.488E-03     224.692E-03    -110.747E-03     98.9709E-03
             276     16.1125E-03     51.2884E-03    -1.59888E+06     123.993E+06     95.4002E+06    -124.755E+03    -107.924E-03     218.984E-03    -111.060E-03     102.779E-03    -112.967E-03     224.185E-03    -110.761E-03     99.6107E-03
             277     16.1137E-03     52.4690E-03    -2.35192E+06     123.282E+06     94.7497E+06    -421.644E+03    -108.064E-03     219.094E-03    -111.030E-03     103.161E-03    -113.084E-03     224.269E-03    -110.731E-03     99.9710E-03
             278     16.1143E-03     53.6551E-03    -3.37448E+06     122.927E+06     94.2221E+06     283.502E+03    -108.356E-03     219.361E-03    -111.004E-03     102.404E-03    -113.341E-03     224.496E-03    -110.707E-03     99.2633E-03
             279     16.1130E-03     54.8358E-03    -1.96655E+06     124.111E+06     95.2427E+06    -170.347E+03    -108.899E-03     219.912E-03    -111.013E-03     100.331E-03    -113.856E-03     225.026E-03    -110.714E-03     97.0849E-03
             280     16.1134E-03     56.0184E-03    -2.20330E+06     123.779E+06     95.3458E+06    -237.042E+03    -109.361E-03     220.374E-03    -111.014E-03     99.9119E-03    -114.286E-03     225.455E-03    -110.713E-03     96.6388E-03
             281     16.1132E-03     57.2078E-03    -2.73141E+06     123.134E+06     95.0923E+06     256.323E+03    -108.950E-03     219.970E-03    -111.019E-03     102.495E-03    -113.969E-03     225.140E-03    -110.718E-03     99.2975E-03
             282     16.1137E-03     58.3909E-03    -2.20857E+06     122.974E+06     95.0936E+06    -164.617E+03    -107.566E-03     218.616E-03    -111.050E-03     101.972E-03    -112.569E-03     223.772E-03    -110.749E-03     98.8539E-03
             283     16.1132E-03     59.5670E-03    -2.65430E+06     121.688E+06     94.2253E+06    -604.214E+03    -107.878E-03     218.938E-03    -111.061E-03     98.8674E-03    -112.754E-03     223.964E-03    -110.762E-03     95.7565E-03
             284     16.1123E-03     60.7531E-03    -2.13915E+06     121.260E+06     94.1123E+06    -186.191E+03    -109.394E-03     220.441E-03    -111.047E-03     98.0587E-03    -114.210E-03     225.407E-03    -110.749E-03     94.8177E-03
             285     16.1130E-03     61.9382E-03    -2.29029E+06     121.573E+06     94.1041E+06     467.549E+03    -108.973E-03     220.024E-03    -111.051E-03     98.8689E-03    -113.804E-03     225.006E-03    -110.754E-03     95.6674E-03
             286     16.1130E-03     63.1228E-03    -2.95335E+06     122.234E+06     93.8333E+06     425.051E+03    -107.837E-03     218.898E-03    -111.061E-03     101.668E-03    -112.810E-03     224.022E-03    -110.765E-03     98.5791E-03
             287     16.1135E-03     64.3075E-03    -2.66256E+06     123.500E+06     94.6030E+06     359.331E+03    -107.400E-03     218.460E-03    -111.060E-03     103.856E-03    -112.464E-03     223.679E-03    -110.762E-03     100.767E-03
             288     16.1133E-03     65.4882E-03    -2.01697E+06     123.529E+06     95.1359E+06    -135.519E+03    -107.477E-03     218.536E-03    -111.059E-03     102.188E-03    -112.477E-03     223.692E-03    -110.760E-03     99.0841E-03
             289     16.1132E-03     66.6673E-03    -2.29773E+06     122.904E+06     94.8550E+06    -231.976E+03    -108.915E-03     219.945E-03    -111.029E-03     101.961E-03    -113.895E-03     225.077E-03    -110.730E-03     98.7517E-03
             290     16.1133E-03     67.8587E-03    -2.34264E+06     122.922E+06     94.7711E+06     152.263E+03    -109.576E-03     220.591E-03    -111.016E-03     102.923E-03    -114.582E-03     225.751E-03    -110.717E-03     99.6337E-03
             291     16.1130E-03     69.0401E-03    -1.42431E+06     123.239E+06     94.9159E+06     80.4345E+03    -108.178E-03     219.220E-03    -111.042E-03     103.849E-03    -113.235E-03     224.434E-03    -110.744E-03     100.650E-03
             292     805.253E-06     68.4559E-03    -81.3022E+06    -229.776E+06    -79.9065E+06     57.6407E+03    -111.351E-03     222.566E-03    -111.214E-03     15.6443E-03    -111.321E-03     221.664E-03    -111.163E-03     15.3074E-03
             293     1.61046E-03     68.4805E-03    -79.2475E+06    -225.856E+06    -73.8844E+06    -93.7488E+03    -111.418E-03     222.681E-03    -111.264E-03     28.6238E-03    -111.419E-03     221.814E-03    -111.191E-03     27.9955E-03
             294     2.41587E-03     68.5199E-03    -75.8607E+06    -218.823E+06    -64.5352E+06    -548.515E+03    -111.570E-03     222.841E-03    -111.272E-03     42.1536E-03    -111.625E-03     222.038E-03    -111.167E-03     41.1913E-03
             295     3.22139E-03     68.5747E-03    -71.1549E+06    -207.740E+06    -52.3879E+06    -375.057E+03    -111.826E-03     223.105E-03    -111.279E-03     55.7051E-03    -111.964E-03     222.404E-03    -111.136E-03     54.3871E-03
             296     4.02680E-03     68.6442E-03    -66.2566E+06    -193.709E+06    -41.2415E+06     153.186E+03    -112.167E-03     223.445E-03    -111.278E-03     69.0526E-03    -112.417E-03     222.892E-03    -111.107E-03     67.3435E-03
             297     4.83235E-03     68.7286E-03    -61.4964E+06    -178.765E+06    -31.5385E+06     445.195E+03    -112.594E-03     223.868E-03    -111.274E-03     82.1473E-03    -112.992E-03     223.504E-03    -111.083E-03     79.9972E-03
             298     5.63767E-03     68.8273E-03    -56.8042E+06    -168.824E+06    -22.4686E+06     380.803E+03    -113.087E-03     224.366E-03    -111.279E-03     95.0088E-03    -113.670E-03     224.213E-03    -111.064E-03     92.3552E-03
             299     6.44322E-03     68.9400E-03    -52.2424E+06    -149.062E+06    -15.9573E+06     203.313E+03    -113.535E-03     224.794E-03    -111.259E-03     107.733E-03    -114.368E-03     224.959E-03    -111.047E-03     104.518E-03
             300     7.24879E-03     69.0669E-03    -47.5949E+06    -133.983E+06    -10.2103E+06     353.394E+03    -113.972E-03     225.211E-03    -111.238E-03     120.238E-03    -115.119E-03     225.743E-03    -111.026E-03     116.389E-03
             301     8.05459E-03     69.2069E-03    -43.4298E+06    -121.699E+06    -5.82633E+06     361.178E+03    -114.439E-03     225.652E-03    -111.213E-03     132.672E-03    -115.992E-03     226.636E-03    -111.003E-03     128.097E-03
             302     8.86004E-03     69.3607E-03    -40.1479E+06    -94.5547E+06    -4.33378E+06     107.319E+03    -114.898E-03     226.054E-03    -111.156E-03     145.410E-03    -117.005E-03     227.695E-03    -110.982E-03     140.009E-03
             303     9.66576E-03     69.5285E-03    -36.7979E+06    -62.3533E+06    -1.18720E+06     232.500E+03    -115.222E-03     226.321E-03    -111.100E-03     158.322E-03    -118.058E-03     228.809E-03    -110.962E-03     151.993E-03
             304     10.4713E-03     69.7101E-03    -33.4712E+06    -14.8274E+06     5.35197E+06     197.201E+03    -115.410E-03     226.445E-03    -111.036E-03     172.259E-03    -119.274E-03     230.122E-03    -110.939E-03     164.849E-03
             305     11.2776E-03     69.9081E-03    -30.4476E+06     41.8049E+06     13.0951E+06    -365.577E+03    -115.813E-03     226.777E-03    -110.963E-03     191.359E-03    -121.238E-03     232.204E-03    -110.914E-03     182.624E-03
             306     12.0828E-03     70.1307E-03    -27.5420E+06     78.5339E+06     32.9309E+06    -390.615E+03    -116.813E-03     227.793E-03    -110.980E-03     221.436E-03    -124.811E-03     235.876E-03    -110.889E-03     211.039E-03
             307     12.8887E-03     70.3961E-03    -23.2385E+06     95.0535E+06     64.7551E+06     223.938E+03    -118.479E-03     229.561E-03    -111.082E-03     261.062E-03    -130.470E-03     241.620E-03    -110.863E-03     248.913E-03
             308     13.6943E-03     70.7086E-03    -17.4069E+06     109.261E+06     88.5094E+06    -115.674E+03    -118.089E-03     229.231E-03    -111.142E-03     283.368E-03    -133.866E-03     245.077E-03    -110.832E-03     271.063E-03
             309     14.5005E-03     71.0260E-03    -10.6621E+06     121.811E+06     98.8276E+06    -223.986E+03    -114.045E-03     225.176E-03    -111.131E-03     260.196E-03    -130.515E-03     241.754E-03    -110.798E-03     250.735E-03
             310     15.3084E-03     71.2896E-03    -5.15601E+06     125.201E+06     97.4703E+06     223.531E+03    -109.881E-03     220.963E-03    -111.082E-03     169.579E-03    -120.275E-03     231.501E-03    -110.769E-03     164.362E-03
             311     805.275E-06     69.6394E-03    -80.8506E+06    -229.430E+06    -79.7224E+06    -231.526E+03    -111.449E-03     222.563E-03    -111.114E-03     15.6660E-03    -111.417E-03     221.662E-03    -111.063E-03     15.3260E-03
             312     1.61068E-03     69.6639E-03    -78.6633E+06    -225.338E+06    -73.5406E+06    -434.730E+03    -111.370E-03     222.623E-03    -111.252E-03     28.5794E-03    -111.370E-03     221.757E-03    -111.179E-03     27.9455E-03
             313     2.41602E-03     69.7033E-03    -75.6012E+06    -218.219E+06    -63.3117E+06    -402.614E+03    -111.529E-03     222.782E-03    -111.253E-03     42.1463E-03    -111.586E-03     221.980E-03    -111.144E-03     41.1846E-03
             314     3.22137E-03     69.7580E-03    -71.7259E+06    -208.015E+06    -52.0266E+06    -292.140E+03    -111.814E-03     223.072E-03    -111.258E-03     55.6836E-03    -111.955E-03     222.371E-03    -111.113E-03     54.3653E-03
             315     4.02689E-03     69.8276E-03    -66.5958E+06    -194.645E+06    -41.0363E+06     94.0496E+03    -112.172E-03     223.434E-03    -111.262E-03     68.9885E-03    -112.423E-03     222.876E-03    -111.088E-03     67.2771E-03
             316     4.83230E-03     69.9119E-03    -61.4222E+06    -179.346E+06    -31.0490E+06     563.888E+03    -112.589E-03     223.850E-03    -111.261E-03     82.1149E-03    -112.987E-03     223.483E-03    -111.068E-03     79.9652E-03
             317     5.63793E-03     70.0107E-03    -56.3860E+06    -168.590E+06    -22.3284E+06     520.678E+03    -113.075E-03     224.340E-03    -111.265E-03     95.0124E-03    -113.657E-03     224.188E-03    -111.050E-03     92.3606E-03
             318     6.44331E-03     70.1235E-03    -51.5902E+06    -148.641E+06    -15.5815E+06     244.023E+03    -113.538E-03     224.784E-03    -111.247E-03     107.709E-03    -114.369E-03     224.950E-03    -111.034E-03     104.494E-03
             319     7.24893E-03     70.2501E-03    -47.3705E+06    -134.174E+06    -10.2482E+06     151.051E+03    -113.975E-03     225.202E-03    -111.227E-03     120.149E-03    -115.120E-03     225.732E-03    -111.015E-03     116.297E-03
             320     8.05437E-03     70.3902E-03    -43.3680E+06    -121.859E+06    -6.02961E+06     270.872E+03    -114.450E-03     225.653E-03    -111.203E-03     132.611E-03    -116.001E-03     226.635E-03    -110.994E-03     128.036E-03
             321     8.86018E-03     70.5440E-03    -39.7129E+06    -93.8241E+06    -3.85067E+06     216.420E+03    -114.910E-03     226.060E-03    -111.149E-03     145.372E-03    -117.014E-03     227.701E-03    -110.975E-03     139.975E-03
             322     9.66569E-03     70.7119E-03    -36.6220E+06    -62.3762E+06    -1.15185E+06    -101.290E+03    -115.212E-03     226.305E-03    -111.094E-03     158.229E-03    -118.049E-03     228.794E-03    -110.956E-03     151.893E-03
             323     10.4716E-03     70.8934E-03    -33.3975E+06    -14.9950E+06     5.14227E+06    -180.320E+03    -115.403E-03     226.431E-03    -111.029E-03     172.299E-03    -119.262E-03     230.104E-03    -110.933E-03     164.890E-03
             324     11.2770E-03     71.0913E-03    -30.4516E+06     41.7817E+06     12.7674E+06     307.489E+03    -115.785E-03     226.739E-03    -110.954E-03     191.394E-03    -121.201E-03     232.158E-03    -110.907E-03     182.680E-03
             325     12.0832E-03     71.3148E-03    -27.5946E+06     78.3779E+06     32.6361E+06     694.894E+03    -116.764E-03     227.731E-03    -110.967E-03     221.531E-03    -124.754E-03     235.807E-03    -110.878E-03     211.157E-03
             326     12.8892E-03     71.5789E-03    -23.1026E+06     95.1466E+06     64.5810E+06     324.112E+03    -118.314E-03     229.375E-03    -111.061E-03     261.461E-03    -130.305E-03     241.435E-03    -110.843E-03     249.327E-03
             327     13.6957E-03     71.8932E-03    -16.7098E+06     109.871E+06     89.1700E+06    -319.043E+03    -117.899E-03     229.012E-03    -111.113E-03     283.154E-03    -133.645E-03     244.830E-03    -110.802E-03     270.876E-03
             328     14.5023E-03     72.2082E-03    -11.2336E+06     121.558E+06     98.6642E+06    -359.935E+03    -114.587E-03     225.698E-03    -111.111E-03     260.948E-03    -131.127E-03     242.343E-03    -110.778E-03     251.455E-03
             329     15.3047E-03     72.4762E-03    -5.76358E+06     124.638E+06     96.5859E+06    -27.9479E+03    -110.206E-03     221.288E-03    -111.082E-03     169.312E-03    -120.654E-03     231.877E-03    -110.771E-03     164.045E-03
             330     805.294E-06     70.8231E-03    -80.8595E+06    -228.757E+06    -78.7459E+06    -165.658E+03    -111.372E-03     222.540E-03    -111.168E-03     15.5849E-03    -111.343E-03     221.641E-03    -111.112E-03     15.2430E-03
             331     1.61053E-03     70.8472E-03    -78.7119E+06    -224.764E+06    -72.4092E+06    -391.330E+03    -111.340E-03     222.584E-03    -111.243E-03     28.4034E-03    -111.343E-03     221.719E-03    -111.165E-03     27.7685E-03
             332     2.41604E-03     70.8866E-03    -75.1256E+06    -218.625E+06    -63.3190E+06    -89.4313E+03    -111.517E-03     222.754E-03    -111.237E-03     42.0617E-03    -111.572E-03     221.950E-03    -111.128E-03     41.1033E-03
             333     3.22154E-03     70.9413E-03    -70.6876E+06    -208.209E+06    -52.2436E+06     370.225E+03    -111.824E-03     223.067E-03    -111.243E-03     55.6372E-03    -111.959E-03     222.363E-03    -111.100E-03     54.3267E-03
             334     4.02689E-03     71.0109E-03    -66.4707E+06    -194.674E+06    -41.3769E+06     208.934E+03    -112.186E-03     223.438E-03    -111.252E-03     68.9685E-03    -112.436E-03     222.880E-03    -111.080E-03     67.2581E-03
             335     4.83241E-03     71.0953E-03    -61.2966E+06    -179.721E+06    -31.4632E+06     44.3204E+03    -112.588E-03     223.842E-03    -111.254E-03     82.1020E-03    -112.984E-03     223.474E-03    -111.062E-03     79.9443E-03
             336     5.63780E-03     71.1940E-03    -55.9881E+06    -168.798E+06    -22.5629E+06     350.015E+03    -113.051E-03     224.307E-03    -111.256E-03     94.9744E-03    -113.629E-03     224.153E-03    -111.043E-03     92.3215E-03
             337     6.44345E-03     71.3069E-03    -51.4318E+06    -148.418E+06    -15.6496E+06     441.077E+03    -113.515E-03     224.752E-03    -111.237E-03     107.630E-03    -114.345E-03     224.917E-03    -111.025E-03     104.419E-03
             338     7.24891E-03     71.4335E-03    -47.1772E+06    -134.011E+06     -9.9823E+06     144.012E+03    -113.981E-03     225.200E-03    -111.219E-03     120.087E-03    -115.126E-03     225.731E-03    -111.006E-03     116.233E-03
             339     8.05465E-03     71.5734E-03    -43.2002E+06    -121.985E+06    -5.99052E+06     109.763E+03    -114.474E-03     225.671E-03    -111.197E-03     132.683E-03    -116.024E-03     226.652E-03    -110.988E-03     128.106E-03
             340     8.86007E-03     71.7276E-03    -39.6480E+06    -93.7329E+06    -3.81485E+06     153.721E+03    -114.912E-03     226.057E-03    -111.144E-03     145.463E-03    -117.016E-03     227.698E-03    -110.970E-03     140.068E-03
             341     9.66582E-03     71.8952E-03    -36.5597E+06    -62.1523E+06    -987.101E+03    -16.9119E+03    -115.214E-03     226.304E-03    -111.089E-03     158.179E-03    -118.052E-03     228.794E-03    -110.951E-03     151.843E-03
             342     10.4715E-03     72.0766E-03    -34.1746E+06    -15.2192E+06     4.55947E+06     122.581E+03    -115.369E-03     226.391E-03    -111.022E-03     172.303E-03    -119.228E-03     230.062E-03    -110.927E-03     164.904E-03
             343     11.2775E-03     72.2751E-03    -31.5766E+06     41.2326E+06     11.7904E+06     399.412E+03    -115.723E-03     226.665E-03    -110.942E-03     191.550E-03    -121.133E-03     232.076E-03    -110.897E-03     182.853E-03
             344     12.0833E-03     72.4975E-03    -27.7142E+06     78.0543E+06     31.1805E+06     661.918E+03    -116.674E-03     227.621E-03    -110.947E-03     221.391E-03    -124.663E-03     235.698E-03    -110.864E-03     211.018E-03
             345     12.8894E-03     72.7628E-03    -22.6107E+06     95.4950E+06     64.1211E+06     244.747E+03    -118.147E-03     229.187E-03    -111.040E-03     261.105E-03    -130.137E-03     241.249E-03    -110.825E-03     248.974E-03
             346     13.6954E-03     73.0752E-03    -17.1541E+06     109.484E+06     89.0155E+06    -375.868E+03    -118.049E-03     229.147E-03    -111.098E-03     282.813E-03    -133.789E-03     244.957E-03    -110.787E-03     270.511E-03
             347     14.5010E-03     73.3921E-03    -10.8500E+06     121.854E+06      99.022E+06     59.7016E+03    -114.335E-03     225.430E-03    -111.095E-03     261.486E-03    -130.901E-03     242.103E-03    -110.761E-03     252.030E-03
             348     15.3088E-03     73.6627E-03    -4.81227E+06     125.550E+06     97.6381E+06     191.357E+03    -110.125E-03     221.182E-03    -111.057E-03     168.998E-03    -120.555E-03     231.757E-03    -110.744E-03     163.774E-03
             349     805.242E-06     72.0066E-03    -80.4973E+06    -228.735E+06    -78.9173E+06    -127.837E+03    -111.214E-03     222.489E-03    -111.275E-03     15.5279E-03    -111.183E-03     221.590E-03    -111.221E-03     15.1855E-03
             350     1.61071E-03     72.0305E-03    -78.2897E+06    -224.664E+06    -72.2744E+06     150.271E+03    -111.342E-03     222.565E-03    -111.223E-03     28.3924E-03    -111.343E-03     221.700E-03    -111.145E-03     27.7647E-03
             351     2.41602E-03     72.0698E-03    -75.1504E+06    -218.334E+06    -63.4518E+06    -183.244E+03    -111.555E-03     222.784E-03    -111.229E-03     42.0644E-03    -111.610E-03     221.981E-03    -111.120E-03     41.1049E-03
             352     3.22141E-03     72.1245E-03    -70.4422E+06    -209.122E+06    -52.3083E+06    -140.252E+03    -111.829E-03     223.072E-03    -111.244E-03     55.6148E-03    -111.961E-03     222.364E-03    -111.100E-03     54.2972E-03
             353     4.02694E-03     72.1943E-03    -65.1041E+06    -195.027E+06    -40.8751E+06     552.012E+03    -112.185E-03     223.438E-03    -111.253E-03     68.9404E-03    -112.428E-03     222.876E-03    -111.080E-03     67.2351E-03
             354     4.83233E-03     72.2785E-03    -60.7962E+06    -179.163E+06    -31.2485E+06     447.653E+03    -112.602E-03     223.855E-03    -111.254E-03     82.0549E-03    -112.996E-03     223.489E-03    -111.062E-03     79.9024E-03
             355     5.63795E-03     72.3774E-03    -56.4466E+06    -168.901E+06    -22.5747E+06     143.831E+03    -113.038E-03     224.296E-03    -111.258E-03     94.9247E-03    -113.618E-03     224.142E-03    -111.044E-03     92.2692E-03
             356     6.44333E-03     72.4902E-03    -51.2831E+06    -148.444E+06    -15.6214E+06    -1.69159E+03    -113.470E-03     224.704E-03    -111.234E-03     107.622E-03    -114.298E-03     224.869E-03    -111.023E-03     104.408E-03
             357     7.24907E-03     72.6168E-03    -46.5970E+06    -134.113E+06    -9.70321E+06      150.67E+03    -113.975E-03     225.190E-03    -111.215E-03     120.058E-03    -115.117E-03     225.719E-03    -111.001E-03     116.205E-03
             358     8.05451E-03     72.7568E-03    -42.9418E+06    -122.252E+06    -5.83618E+06     464.991E+03    -114.468E-03     225.661E-03    -111.193E-03     132.607E-03    -116.016E-03     226.640E-03    -110.983E-03     128.035E-03
             359     8.86031E-03     72.9109E-03    -39.9476E+06    -93.8516E+06    -4.08479E+06     387.533E+03    -114.882E-03     226.019E-03    -111.137E-03     145.463E-03    -116.985E-03     227.659E-03    -110.964E-03     140.073E-03
             360     9.66586E-03     73.0786E-03    -37.1573E+06    -61.8667E+06    -1.30117E+06     161.115E+03    -115.240E-03     226.322E-03    -111.082E-03     158.219E-03    -118.080E-03     228.815E-03    -110.945E-03     151.884E-03
             361     10.4715E-03     73.2601E-03    -34.1027E+06    -15.2550E+06     4.51438E+06     377.056E+03    -115.373E-03     226.391E-03    -111.018E-03     172.096E-03    -119.234E-03     230.064E-03    -110.924E-03     164.693E-03
             362     11.2775E-03     73.4575E-03    -31.0511E+06     41.1133E+06     11.9643E+06     823.785E+03    -115.638E-03     226.576E-03    -110.938E-03     191.395E-03    -121.037E-03     231.976E-03    -110.893E-03     182.715E-03
             363     12.0833E-03     73.6820E-03    -27.5175E+06     78.4870E+06     31.7973E+06     82.8136E+03    -116.590E-03     227.530E-03    -110.940E-03     221.381E-03    -124.588E-03     235.616E-03    -110.855E-03     211.004E-03
             364     12.8894E-03     73.9447E-03    -23.1199E+06     95.1776E+06     64.0508E+06    -130.915E+03    -118.175E-03     229.206E-03    -111.031E-03     260.972E-03    -130.183E-03     241.284E-03    -110.816E-03     248.821E-03
             365     13.6959E-03     74.2595E-03    -17.0759E+06     109.528E+06     89.0300E+06     126.575E+03    -118.253E-03     229.347E-03    -111.094E-03     283.460E-03    -134.002E-03     245.166E-03    -110.783E-03     271.148E-03
             366     14.5014E-03     74.5762E-03    -10.4725E+06     122.062E+06     99.3663E+06    -2.19124E+03    -114.377E-03     225.474E-03    -111.098E-03     260.801E-03    -130.908E-03     242.113E-03    -110.763E-03     251.330E-03
             367     15.3075E-03     74.8423E-03    -5.03394E+06     125.400E+06     97.7781E+06     195.948E+03    -110.053E-03     221.117E-03    -111.064E-03     167.960E-03    -120.456E-03     231.664E-03    -110.750E-03     162.733E-03
             368     805.365E-06     73.1898E-03    -80.2243E+06    -228.759E+06    -78.7021E+06    -14.9864E+03    -111.234E-03     222.405E-03    -111.171E-03     15.5706E-03    -111.201E-03     221.505E-03    -111.116E-03     15.2319E-03
             369     1.61071E-03     73.2138E-03    -78.0286E+06    -224.842E+06    -72.7372E+06    -111.794E+03    -111.387E-03     222.581E-03    -111.195E-03     28.3511E-03    -111.385E-03     221.715E-03    -111.119E-03     27.7204E-03
             370     2.41608E-03     73.2533E-03    -74.6509E+06    -217.967E+06    -63.2665E+06     3.50609E+03    -111.592E-03     222.818E-03    -111.226E-03     42.0018E-03    -111.645E-03     222.016E-03    -111.118E-03     41.0454E-03
             371     3.22146E-03     73.3078E-03    -70.8519E+06    -208.934E+06    -51.7958E+06    -364.167E+03    -111.845E-03     223.098E-03    -111.253E-03     55.5852E-03    -111.980E-03     222.390E-03    -111.106E-03     54.2640E-03
             372     4.02685E-03     73.3775E-03    -65.8935E+06    -196.246E+06    -41.2549E+06    -224.461E+03    -112.175E-03     223.435E-03    -111.260E-03     68.9617E-03    -112.420E-03     222.869E-03    -111.086E-03     67.2459E-03
             373     4.83239E-03     73.4620E-03    -59.9834E+06    -179.208E+06    -31.0218E+06     580.305E+03    -112.588E-03     223.845E-03    -111.257E-03     82.0922E-03    -112.979E-03     223.477E-03    -111.065E-03     79.9429E-03
             374     5.63772E-03     73.5607E-03    -54.4522E+06    -167.963E+06    -21.3592E+06     155.470E+03    -113.036E-03     224.296E-03    -111.261E-03     94.9192E-03    -113.609E-03     224.142E-03    -111.045E-03     92.2628E-03
             375     6.44348E-03     73.6734E-03    -50.3246E+06    -149.213E+06    -15.3370E+06     210.224E+03    -113.473E-03     224.708E-03    -111.235E-03     107.587E-03    -114.296E-03     224.867E-03    -111.023E-03     104.375E-03
             376     7.24899E-03     73.8002E-03    -47.1254E+06    -134.667E+06    -10.1154E+06     896.409E+03    -113.966E-03     225.180E-03    -111.214E-03     120.065E-03    -115.108E-03     225.706E-03    -111.001E-03     116.226E-03
             377     8.05461E-03     73.9402E-03    -43.7130E+06    -122.047E+06    -6.01871E+06     635.648E+03    -114.461E-03     225.652E-03    -111.192E-03     132.562E-03    -116.013E-03     226.634E-03    -110.982E-03     127.990E-03
             378     8.86018E-03     74.0939E-03    -39.9840E+06    -93.6374E+06    -3.98114E+06     510.235E+03    -114.889E-03     226.026E-03    -111.137E-03     145.411E-03    -116.993E-03     227.668E-03    -110.963E-03     140.021E-03
             379     9.66594E-03     74.2622E-03    -36.6267E+06    -61.5740E+06    -855.960E+03     444.253E+03    -115.241E-03     226.325E-03    -111.084E-03     158.131E-03    -118.079E-03     228.817E-03    -110.946E-03     151.801E-03
             380     10.4717E-03     74.4434E-03    -33.7769E+06    -15.8040E+06     4.63282E+06     407.866E+03    -115.431E-03     226.453E-03    -111.023E-03     171.865E-03    -119.289E-03     230.123E-03    -110.928E-03     164.455E-03
             381     11.2771E-03     74.6411E-03    -30.5337E+06      40.992E+06     11.9842E+06     511.401E+03    -115.573E-03     226.516E-03    -110.943E-03     191.095E-03    -120.968E-03     231.913E-03    -110.898E-03     182.413E-03
             382     12.0838E-03     74.8641E-03    -27.1651E+06     79.0992E+06     32.7966E+06     712.048E+03    -116.481E-03     227.424E-03    -110.943E-03     221.317E-03    -124.470E-03     235.503E-03    -110.855E-03     210.965E-03
             383     12.8897E-03     75.1294E-03    -22.9681E+06     95.6008E+06     65.0240E+06     437.175E+03    -118.279E-03     229.315E-03    -111.036E-03     260.681E-03    -130.283E-03     241.389E-03    -110.817E-03     248.525E-03
             384     13.6953E-03     75.4411E-03    -17.2284E+06     109.379E+06     88.7618E+06    -305.743E+03    -118.475E-03     229.582E-03    -111.107E-03     283.162E-03    -134.216E-03     245.392E-03    -110.796E-03     270.799E-03
             385     14.5018E-03     75.7613E-03    -10.9017E+06     121.704E+06     99.1661E+06    -29.8319E+03    -114.578E-03     225.703E-03    -111.125E-03     260.141E-03    -131.072E-03     242.303E-03    -110.790E-03     250.659E-03
             386     15.3056E-03     76.0267E-03    -5.01728E+06     125.704E+06     97.9952E+06     211.661E+03    -109.785E-03     220.877E-03    -111.091E-03     168.640E-03    -120.217E-03     231.453E-03    -110.776E-03     163.432E-03
             387     805.460E-06     74.3731E-03    -80.4308E+06    -228.867E+06    -78.5792E+06     169.699E+03    -111.349E-03     222.405E-03    -111.056E-03     15.4533E-03    -111.317E-03     221.504E-03    -111.000E-03     15.1193E-03
             388     1.61066E-03     74.3973E-03    -78.2529E+06    -224.691E+06    -72.2174E+06     9.01314E+03    -111.386E-03     222.584E-03    -111.198E-03     28.3530E-03    -111.386E-03     221.718E-03    -111.120E-03     27.7244E-03
             389     2.41599E-03     74.4365E-03    -75.1268E+06    -218.665E+06    -63.3131E+06     257.260E+03    -111.584E-03     222.811E-03    -111.227E-03     42.0315E-03    -111.638E-03     222.005E-03    -111.117E-03     41.0782E-03
             390     3.22138E-03     74.4913E-03    -71.2110E+06    -208.363E+06    -52.1894E+06     560.786E+03    -111.852E-03     223.101E-03    -111.250E-03     55.6087E-03    -111.989E-03     222.398E-03    -111.105E-03     54.3002E-03
             391     4.02685E-03     74.5608E-03    -67.1581E+06    -195.749E+06    -41.6475E+06    -35.4614E+03    -112.179E-03     223.439E-03    -111.260E-03     68.9941E-03    -112.431E-03     222.878E-03    -111.087E-03     67.2795E-03
             392     4.83231E-03     74.6453E-03    -62.6471E+06    -179.589E+06    -33.2514E+06    -793.794E+03    -112.548E-03     223.797E-03    -111.249E-03     82.1401E-03    -112.948E-03     223.434E-03    -111.064E-03     79.9748E-03
             393     5.63804E-03     74.7440E-03    -57.8156E+06    -168.299E+06    -24.0318E+06    -363.577E+03    -113.028E-03     224.278E-03    -111.250E-03     94.9473E-03    -113.614E-03     224.131E-03    -111.042E-03     92.2868E-03
             394     6.44330E-03     74.8567E-03    -52.9821E+06    -150.116E+06    -16.1462E+06     357.811E+03    -113.515E-03     224.753E-03    -111.238E-03     107.551E-03    -114.349E-03     224.912E-03    -111.024E-03     104.339E-03
             395     7.24899E-03     74.9833E-03    -47.6566E+06    -134.996E+06    -10.2311E+06     473.620E+03    -113.961E-03     225.179E-03    -111.219E-03     120.014E-03    -115.105E-03     225.705E-03    -111.005E-03     116.167E-03
             396     8.05462E-03     75.1235E-03    -42.8554E+06    -121.891E+06    -5.64108E+06     669.875E+03    -114.480E-03     225.677E-03    -111.197E-03     132.512E-03    -116.029E-03     226.658E-03    -110.986E-03     127.940E-03
             397     8.86020E-03     75.2774E-03    -39.4578E+06    -93.3413E+06    -3.50667E+06     669.380E+03    -114.954E-03     226.101E-03    -111.147E-03     145.299E-03    -117.058E-03     227.743E-03    -110.972E-03     139.904E-03
             398     9.66572E-03     75.4454E-03    -36.7823E+06    -61.7675E+06    -922.077E+03     649.631E+03    -115.259E-03     226.355E-03    -111.096E-03     158.059E-03    -118.096E-03     228.844E-03    -110.958E-03     151.732E-03
             399     10.4713E-03     75.6270E-03    -34.0099E+06    -15.6635E+06     5.00992E+06     654.942E+03    -115.383E-03     226.418E-03    -111.035E-03     171.749E-03    -119.239E-03     230.083E-03    -110.938E-03     164.351E-03
             400     11.2774E-03     75.8241E-03    -31.5231E+06     40.7827E+06     12.3027E+06     472.007E+03    -115.590E-03     226.547E-03    -110.957E-03     190.711E-03    -120.993E-03     231.947E-03    -110.909E-03     182.017E-03
             401     12.0830E-03     76.0469E-03    -28.3239E+06     78.2877E+06     31.0954E+06     626.037E+03    -116.599E-03     227.553E-03    -110.954E-03     221.200E-03    -124.588E-03     235.630E-03    -110.871E-03     210.831E-03
             402     12.8893E-03     76.3124E-03    -22.5749E+06     96.0376E+06     64.0707E+06     428.285E+03    -118.392E-03     229.446E-03    -111.054E-03     260.618E-03    -130.398E-03     241.527E-03    -110.840E-03     248.437E-03
             403     13.6952E-03     76.6255E-03    -16.4757E+06     110.207E+06     89.7692E+06     321.735E+03    -118.522E-03     229.656E-03    -111.134E-03     283.662E-03    -134.259E-03     245.466E-03    -110.821E-03     271.318E-03
             404     14.4991E-03     76.9451E-03    -10.7649E+06     121.879E+06     99.5141E+06     66.3819E+03    -114.123E-03     225.254E-03    -111.131E-03     261.053E-03    -130.609E-03     241.846E-03    -110.795E-03     251.662E-03
             405     15.3083E-03     77.2085E-03    -5.02651E+06     125.755E+06     97.8356E+06    -138.646E+03    -109.760E-03     220.837E-03    -111.077E-03     169.532E-03    -120.221E-03     231.443E-03    -110.763E-03     164.348E-03
             406     805.154E-06     75.5564E-03    -80.9025E+06    -229.304E+06    -79.2816E+06     254.598E+03    -111.294E-03     222.419E-03    -111.125E-03     15.4165E-03    -111.263E-03     221.518E-03    -111.071E-03     15.0844E-03
             407     1.61075E-03     75.5805E-03    -78.7059E+06    -225.211E+06    -72.7602E+06     693.573E+03    -111.340E-03     222.533E-03    -111.194E-03     28.4469E-03    -111.341E-03     221.667E-03    -111.117E-03     27.8268E-03
             408     2.41611E-03     75.6200E-03    -75.8146E+06    -219.017E+06    -63.2781E+06     804.470E+03    -111.587E-03     222.804E-03    -111.218E-03     42.0283E-03    -111.644E-03     221.998E-03    -111.106E-03     41.0815E-03
             409     3.22153E-03     75.6744E-03    -71.4096E+06    -208.426E+06    -52.2522E+06     556.037E+03    -111.856E-03     223.099E-03    -111.243E-03     55.5944E-03    -111.994E-03     222.395E-03    -111.099E-03     54.2870E-03
             410     4.02689E-03     75.7443E-03    -65.3609E+06    -194.240E+06    -40.3525E+06    -128.450E+03    -112.200E-03     223.458E-03    -111.259E-03     68.9649E-03    -112.446E-03     222.900E-03    -111.084E-03     67.2492E-03
             411     4.83240E-03     75.8284E-03    -59.8877E+06    -179.679E+06    -30.1678E+06    -134.833E+03    -112.594E-03     223.857E-03    -111.263E-03     82.0304E-03    -112.984E-03     223.484E-03    -111.067E-03     79.8705E-03
             412     5.63779E-03     75.9273E-03    -55.7515E+06    -169.629E+06    -22.2959E+06     598.937E+03    -113.038E-03     224.300E-03    -111.263E-03     94.8599E-03    -113.613E-03     224.140E-03    -111.047E-03     92.2125E-03
             413     6.44347E-03     76.0402E-03    -51.4897E+06    -149.545E+06    -15.3405E+06     438.947E+03    -113.528E-03     224.772E-03    -111.244E-03     107.519E-03    -114.357E-03     224.931E-03    -111.029E-03     104.308E-03
             414     7.24887E-03     76.1667E-03    -47.5471E+06    -134.840E+06    -10.0324E+06    -144.407E+03    -114.044E-03     225.273E-03    -111.229E-03     119.933E-03    -115.190E-03     225.801E-03    -111.015E-03     116.070E-03
             415     8.05445E-03     76.3067E-03    -43.8502E+06    -122.633E+06    -6.33711E+06     50.8739E+03    -114.530E-03     225.743E-03    -111.213E-03     132.441E-03    -116.082E-03     226.722E-03    -111.003E-03     127.858E-03
             416     8.85996E-03     76.4610E-03    -40.0619E+06    -93.8840E+06    -3.71259E+06     682.155E+03    -114.944E-03     226.110E-03    -111.166E-03     145.228E-03    -117.050E-03     227.751E-03    -110.990E-03     139.834E-03
             417     9.66555E-03     76.6287E-03    -36.7517E+06    -61.6545E+06    -138.043E+03     996.838E+03    -115.235E-03     226.350E-03    -111.115E-03     158.046E-03    -118.071E-03     228.837E-03    -110.973E-03     151.727E-03
             418     10.4714E-03     76.8104E-03    -33.9792E+06    -15.8602E+06     5.61946E+06     1.15063E+06    -115.351E-03     226.402E-03    -111.051E-03     171.707E-03    -119.206E-03     230.064E-03    -110.950E-03     164.318E-03
             419     11.2770E-03     77.0073E-03    -31.2431E+06     40.7235E+06     11.6431E+06     1.36031E+06    -115.710E-03     226.678E-03    -110.968E-03     190.596E-03    -121.114E-03     232.082E-03    -110.923E-03     181.898E-03
             420     12.0831E-03     77.2302E-03    -27.4320E+06     79.3651E+06     31.3205E+06     510.743E+03    -116.819E-03     227.797E-03    -110.978E-03     221.159E-03    -124.815E-03     235.887E-03    -110.897E-03     210.758E-03
             421     12.8887E-03     77.4957E-03    -22.6740E+06     96.5294E+06     64.6502E+06    -659.437E+03    -118.374E-03     229.460E-03    -111.086E-03     260.973E-03    -130.391E-03     241.552E-03    -110.870E-03     248.780E-03
             422     13.6942E-03     77.8090E-03    -16.6016E+06     110.400E+06     89.9011E+06     137.698E+03    -118.005E-03     229.150E-03    -111.145E-03     283.746E-03    -133.719E-03     244.936E-03    -110.832E-03     271.484E-03
             423     14.5034E-03     78.1284E-03    -11.1736E+06     121.464E+06     99.0417E+06     543.599E+03    -113.923E-03     225.043E-03    -111.120E-03     260.308E-03    -130.342E-03     241.567E-03    -110.785E-03     250.941E-03
             424     15.3070E-03     78.3916E-03    -5.71028E+06     125.159E+06     97.3152E+06    -31.2946E+03    -109.918E-03     220.986E-03    -111.068E-03     169.438E-03    -120.347E-03     231.557E-03    -110.754E-03     164.223E-03
             425     805.483E-06     76.7394E-03    -82.0258E+06    -230.240E+06    -80.2700E+06     346.387E+03    -111.220E-03     222.382E-03    -111.162E-03     15.3132E-03    -111.192E-03     221.480E-03    -111.111E-03     14.9840E-03
             426     1.61072E-03     76.7639E-03    -79.5171E+06    -226.022E+06    -73.7693E+06     443.256E+03    -111.368E-03     222.552E-03    -111.184E-03     28.4588E-03    -111.370E-03     221.684E-03    -111.110E-03     27.8355E-03
             427     2.41608E-03     76.8033E-03    -75.3148E+06    -219.121E+06    -63.7006E+06     505.124E+03    -111.586E-03     222.802E-03    -111.217E-03     41.9637E-03    -111.640E-03     221.996E-03    -111.108E-03     41.0141E-03
             428     3.22138E-03     76.8579E-03    -70.2299E+06    -207.591E+06    -51.4936E+06     40.0233E+03    -111.864E-03     223.110E-03    -111.245E-03     55.5561E-03    -111.999E-03     222.407E-03    -111.100E-03     54.2414E-03
             429     4.02689E-03     76.9275E-03    -65.9980E+06    -193.920E+06    -40.5443E+06    -229.396E+03    -112.216E-03     223.478E-03    -111.262E-03     68.9361E-03    -112.466E-03     222.923E-03    -111.088E-03     67.2200E-03
             430     4.83226E-03     77.0120E-03    -61.6729E+06    -180.494E+06    -30.8951E+06     169.882E+03    -112.634E-03     223.906E-03    -111.272E-03     82.0084E-03    -113.032E-03     223.533E-03    -111.075E-03     79.8512E-03
             431     5.63778E-03     77.1106E-03    -56.3272E+06    -170.042E+06    -22.2892E+06     408.216E+03    -113.073E-03     224.350E-03    -111.278E-03     94.8193E-03    -113.651E-03     224.190E-03    -111.061E-03     92.1661E-03
             432     6.44325E-03     77.2234E-03    -51.3132E+06    -149.322E+06    -15.6834E+06     516.467E+03    -113.536E-03     224.793E-03    -111.257E-03     107.497E-03    -114.363E-03     224.953E-03    -111.044E-03     104.288E-03
             433     7.24887E-03     77.3503E-03    -46.9039E+06    -134.414E+06    -9.22785E+06     573.977E+03    -114.098E-03     225.347E-03    -111.249E-03     119.923E-03    -115.242E-03     225.874E-03    -111.032E-03     116.069E-03
             434     8.05413E-03     77.4902E-03    -43.2448E+06    -122.629E+06    -5.47638E+06     434.696E+03    -114.590E-03     225.827E-03    -111.237E-03     132.418E-03    -116.141E-03     226.805E-03    -111.024E-03     127.833E-03
             435     8.85979E-03     77.6442E-03    -40.0373E+06    -94.8167E+06    -3.93570E+06     516.474E+03    -114.913E-03     226.099E-03    -111.186E-03     145.227E-03    -117.016E-03     227.735E-03    -111.010E-03     139.832E-03
             436     9.66548E-03     77.8122E-03    -37.0327E+06    -62.5939E+06    -535.934E+03     1.12884E+06    -115.151E-03     226.280E-03    -111.129E-03     158.015E-03    -117.984E-03     228.760E-03    -110.987E-03     151.707E-03
             437     10.4711E-03     77.9935E-03    -34.1506E+06    -16.0670E+06     5.33827E+06     1.46175E+06    -115.394E-03     226.455E-03    -111.061E-03     171.783E-03    -119.249E-03     230.116E-03    -110.961E-03     164.399E-03
             438     11.2771E-03     78.1908E-03    -30.5077E+06     41.5162E+06     12.1515E+06     965.589E+03    -115.884E-03     226.869E-03    -110.985E-03     190.680E-03    -121.294E-03     232.283E-03    -110.940E-03     181.956E-03
             439     12.0824E-03     78.4139E-03    -26.6031E+06     80.3558E+06     32.1553E+06     451.617E+03    -116.906E-03     227.912E-03    -111.005E-03     221.134E-03    -124.917E-03     236.020E-03    -110.922E-03     210.705E-03
             440     12.8884E-03     78.6790E-03    -22.4044E+06     97.2211E+06     65.6646E+06     368.155E+03    -118.249E-03     229.363E-03    -111.113E-03     260.725E-03    -130.239E-03     241.428E-03    -110.894E-03     248.579E-03
             441     13.6954E-03     78.9922E-03    -17.7769E+06     109.717E+06     89.2782E+06     155.038E+03    -117.844E-03     229.005E-03    -111.161E-03     283.036E-03    -133.526E-03     244.755E-03    -110.848E-03     270.810E-03
             442     14.4991E-03     79.3096E-03    -11.3374E+06     121.393E+06     98.7449E+06     153.538E+03    -114.031E-03     225.166E-03    -111.136E-03     260.548E-03    -130.453E-03     241.692E-03    -110.801E-03     251.139E-03
             443     15.3069E-03     79.5767E-03    -4.85595E+06     125.758E+06     98.0063E+06     152.319E+03    -109.759E-03     220.840E-03    -111.081E-03     169.761E-03    -120.179E-03     231.404E-03    -110.766E-03     164.555E-03
             444     805.308E-06     77.9229E-03    -81.9749E+06    -230.423E+06    -80.7002E+06    -213.838E+03    -111.262E-03     222.394E-03    -111.131E-03     15.3993E-03    -111.233E-03     221.491E-03    -111.082E-03     15.0622E-03
             445     1.61066E-03     77.9472E-03    -79.5148E+06    -226.245E+06    -74.4287E+06    -128.767E+03    -111.383E-03     222.572E-03    -111.189E-03     28.4774E-03    -111.385E-03     221.704E-03    -111.118E-03     27.8475E-03
             446     2.41601E-03     77.9866E-03    -76.0418E+06    -218.903E+06    -63.9804E+06    -318.612E+03    -111.573E-03     222.795E-03    -111.222E-03     42.0516E-03    -111.631E-03     221.991E-03    -111.114E-03     41.0916E-03
             447     3.22152E-03     78.0412E-03    -71.6165E+06    -207.642E+06    -51.7078E+06    -177.349E+03    -111.884E-03     223.136E-03    -111.252E-03     55.6073E-03    -112.025E-03     222.436E-03    -111.106E-03     54.2893E-03
             448     4.02679E-03     78.1110E-03    -66.2736E+06    -194.215E+06    -40.4960E+06     373.862E+03    -112.251E-03     223.525E-03    -111.274E-03     68.9215E-03    -112.502E-03     222.968E-03    -111.099E-03     67.2125E-03
             449     4.83230E-03     78.1952E-03    -60.9117E+06    -180.542E+06    -30.6055E+06     276.050E+03    -112.649E-03     223.935E-03    -111.286E-03     81.9748E-03    -113.043E-03     223.560E-03    -111.089E-03     79.8185E-03
             450     5.63769E-03     78.2941E-03    -56.1749E+06    -170.309E+06    -21.8896E+06     283.409E+03    -113.120E-03     224.416E-03    -111.296E-03     94.7899E-03    -113.698E-03     224.254E-03    -111.077E-03     92.1319E-03
             451     6.44312E-03     78.4067E-03    -51.8187E+06    -149.581E+06    -15.2578E+06     518.661E+03    -113.590E-03     224.870E-03    -111.280E-03     107.523E-03    -114.420E-03     225.030E-03    -111.065E-03     104.310E-03
             452     7.24858E-03     78.5337E-03    -47.7722E+06    -134.781E+06    -9.84653E+06     697.235E+03    -114.059E-03     225.326E-03    -111.266E-03     120.016E-03    -115.206E-03     225.853E-03    -111.051E-03     116.169E-03
             453     8.05420E-03     78.6739E-03    -43.7520E+06    -122.304E+06    -5.74032E+06     745.133E+03    -114.563E-03     225.812E-03    -111.249E-03     132.496E-03    -116.117E-03     226.793E-03    -111.037E-03     127.917E-03
             454     8.85957E-03     78.8276E-03    -40.3447E+06    -95.1551E+06    -4.36220E+06     721.183E+03    -114.928E-03     226.124E-03    -111.196E-03     145.240E-03    -117.032E-03     227.760E-03    -111.021E-03     139.848E-03
             455     9.66527E-03     78.9954E-03    -37.3442E+06    -63.7324E+06    -1.40871E+06     1.04672E+06    -115.171E-03     226.309E-03    -111.138E-03     158.003E-03    -118.002E-03     228.786E-03    -110.999E-03     151.692E-03
             456     10.4713E-03     79.1768E-03    -33.7036E+06    -15.8888E+06     5.50800E+06     916.240E+03    -115.431E-03     226.504E-03    -111.073E-03     171.894E-03    -119.283E-03     230.164E-03    -110.973E-03     164.501E-03
             457     11.2765E-03     79.3749E-03    -30.3104E+06     42.1768E+06     13.4740E+06     396.926E+03    -115.909E-03     226.911E-03    -111.003E-03     191.021E-03    -121.327E-03     232.333E-03    -110.953E-03     182.287E-03
             458     12.0824E-03     79.5973E-03    -27.0831E+06     80.3303E+06     33.0100E+06     630.201E+03    -116.937E-03     227.958E-03    -111.022E-03     221.343E-03    -124.957E-03     236.072E-03    -110.934E-03     210.913E-03
             459     12.8882E-03     79.8627E-03    -23.1027E+06     96.6089E+06     64.5407E+06     1.34375E+06    -118.297E-03     229.419E-03    -111.122E-03     260.613E-03    -130.264E-03     241.460E-03    -110.906E-03     248.486E-03
             460     13.6934E-03     80.1742E-03    -17.1396E+06     110.789E+06     89.6182E+06     1.03279E+06    -117.994E-03     229.171E-03    -111.178E-03     283.192E-03    -133.696E-03     244.946E-03    -110.865E-03     270.947E-03
             461     14.5023E-03     80.4941E-03    -10.7128E+06     122.234E+06     99.6754E+06     93.9374E+03    -114.073E-03     225.232E-03    -111.159E-03     260.843E-03    -130.542E-03     241.808E-03    -110.822E-03     251.428E-03
             462     15.3072E-03     80.7594E-03    -4.99830E+06     125.379E+06     97.8229E+06    -155.261E+03    -109.337E-03     220.428E-03    -111.091E-03     169.317E-03    -119.748E-03     230.982E-03    -110.776E-03     164.156E-03
             463     805.389E-06     79.1062E-03    -81.1819E+06    -229.511E+06    -79.7413E+06    -294.658E+03    -111.316E-03     222.409E-03    -111.093E-03     15.5107E-03    -111.285E-03     221.508E-03    -111.041E-03     15.1708E-03
             464     1.61070E-03     79.1305E-03    -79.3722E+06    -225.852E+06    -74.0877E+06    -574.304E+03    -111.365E-03     222.555E-03    -111.190E-03     28.4997E-03    -111.366E-03     221.688E-03    -111.118E-03     27.8634E-03
             465     2.41615E-03     79.1699E-03    -75.6889E+06    -218.592E+06    -63.7911E+06    -584.168E+03    -111.617E-03     222.842E-03    -111.225E-03     42.0716E-03    -111.674E-03     222.039E-03    -111.117E-03     41.1069E-03
             466     3.22134E-03     79.2247E-03    -70.7453E+06    -208.318E+06    -51.1584E+06    -353.547E+03    -111.925E-03     223.192E-03    -111.267E-03     55.5798E-03    -112.061E-03     222.486E-03    -111.118E-03     54.2590E-03
             467     4.02680E-03     79.2943E-03    -65.7734E+06    -195.247E+06    -39.9075E+06     294.503E+03    -112.259E-03     223.551E-03    -111.292E-03     68.9138E-03    -112.507E-03     222.988E-03    -111.113E-03     67.2032E-03
             468     4.83207E-03     79.3789E-03    -61.2161E+06    -180.582E+06    -30.3364E+06     775.307E+03    -112.661E-03     223.962E-03    -111.301E-03     82.0130E-03    -113.057E-03     223.587E-03    -111.102E-03     79.8632E-03
             469     5.63760E-03     79.4774E-03    -56.5848E+06    -170.299E+06    -21.8812E+06     710.082E+03    -113.138E-03     224.447E-03    -111.310E-03     94.8669E-03    -113.718E-03     224.286E-03    -111.090E-03     92.2155E-03
             470     6.44301E-03     79.5905E-03    -51.8863E+06    -149.757E+06    -15.4755E+06     713.381E+03    -113.603E-03     224.896E-03    -111.293E-03     107.604E-03    -114.433E-03     225.055E-03    -111.078E-03     104.394E-03
             471     7.24853E-03     79.7170E-03    -47.4294E+06    -135.130E+06    -9.94685E+06     833.503E+03    -114.046E-03     225.322E-03    -111.277E-03     120.086E-03    -115.190E-03     225.847E-03    -111.062E-03     116.241E-03
             472     8.05407E-03     79.8573E-03    -43.6367E+06    -122.816E+06    -6.03466E+06     937.823E+03    -114.481E-03     225.733E-03    -111.253E-03     132.592E-03    -116.032E-03     226.711E-03    -111.041E-03     128.023E-03
             473     8.85975E-03     80.0113E-03    -40.3209E+06    -95.1926E+06    -4.13398E+06     999.338E+03    -114.923E-03     226.119E-03    -111.196E-03     145.307E-03    -117.027E-03     227.755E-03    -111.020E-03     139.919E-03
             474     9.66536E-03     80.1785E-03    -36.8226E+06    -63.4937E+06    -963.570E+03     775.987E+03    -115.275E-03     226.417E-03    -111.142E-03     158.151E-03    -118.109E-03     228.898E-03    -111.001E-03     151.826E-03
             475     10.4705E-03     80.3605E-03    -33.9200E+06    -15.8614E+06     5.08866E+06     397.121E+03    -115.421E-03     226.497E-03    -111.075E-03     172.202E-03    -119.277E-03     230.161E-03    -110.978E-03     164.804E-03
             476     11.2770E-03     80.5578E-03    -31.1413E+06     41.7743E+06     12.7519E+06     499.802E+03    -115.776E-03     226.773E-03    -110.997E-03     191.475E-03    -121.191E-03     232.189E-03    -110.949E-03     182.768E-03
             477     12.0825E-03     80.7818E-03    -27.7389E+06     79.8890E+06     32.6406E+06     1.11582E+06    -116.804E-03     227.809E-03    -111.005E-03     221.798E-03    -124.817E-03     235.913E-03    -110.917E-03     211.409E-03
             478     12.8882E-03     81.0457E-03    -23.1254E+06     97.0090E+06     64.9233E+06     1.49932E+06    -118.351E-03     229.453E-03    -111.101E-03     261.114E-03    -130.343E-03     241.519E-03    -110.884E-03     248.978E-03
             479     13.6954E-03     81.3583E-03    -17.3784E+06     111.633E+06     89.7117E+06     931.798E+03    -118.343E-03     229.509E-03    -111.166E-03     283.774E-03    -134.144E-03     245.385E-03    -110.854E-03     271.431E-03
             480     14.4986E-03     81.6761E-03    -11.1184E+06     122.776E+06     99.7202E+06    -249.483E+03    -114.037E-03     225.196E-03    -111.159E-03     260.997E-03    -130.584E-03     241.851E-03    -110.822E-03     251.554E-03
             481     15.3058E-03     81.9427E-03    -5.34012E+06     125.273E+06     97.9955E+06    -277.478E+03    -109.060E-03     220.146E-03    -111.086E-03     169.513E-03    -119.479E-03     230.707E-03    -110.770E-03     164.404E-03
             482     805.274E-06     80.2895E-03    -81.1221E+06    -229.220E+06    -79.3840E+06    -28.9912E+03    -111.254E-03     222.395E-03    -111.141E-03     15.4221E-03    -111.224E-03     221.495E-03    -111.088E-03     15.0855E-03
             483     1.61076E-03     80.3137E-03    -78.8289E+06    -224.795E+06    -72.5183E+06    -385.988E+03    -111.402E-03     222.600E-03    -111.198E-03     28.5354E-03    -111.405E-03     221.736E-03    -111.120E-03     27.9007E-03
             484     2.41593E-03     80.3534E-03    -75.6043E+06    -218.293E+06    -63.1044E+06    -681.118E+03    -111.657E-03     222.899E-03    -111.243E-03     42.0985E-03    -111.714E-03     222.096E-03    -111.132E-03     41.1320E-03
             485     3.22136E-03     80.4081E-03    -71.7082E+06    -209.187E+06    -51.9831E+06    -217.752E+03    -111.913E-03     223.194E-03    -111.281E-03     55.6159E-03    -112.052E-03     222.487E-03    -111.134E-03     54.2982E-03
             486     4.02665E-03     80.4778E-03    -66.8590E+06    -196.501E+06    -40.9844E+06     392.858E+03    -112.244E-03     223.544E-03    -111.300E-03     68.9699E-03    -112.493E-03     222.977E-03    -111.123E-03     67.2615E-03
             487     4.83226E-03     80.5622E-03    -61.2271E+06    -180.937E+06    -30.7362E+06     774.325E+03    -112.665E-03     223.971E-03    -111.306E-03     82.0828E-03    -113.060E-03     223.596E-03    -111.109E-03     79.9343E-03
             488     5.63754E-03     80.6611E-03    -55.9708E+06    -170.496E+06    -22.0807E+06     928.716E+03    -113.132E-03     224.445E-03    -111.313E-03     94.9261E-03    -113.708E-03     224.281E-03    -111.095E-03     92.2787E-03
             489     6.44303E-03     80.7737E-03    -51.4315E+06    -149.926E+06    -15.4395E+06     993.081E+03    -113.561E-03     224.854E-03    -111.293E-03     107.677E-03    -114.389E-03     225.012E-03    -111.078E-03     104.473E-03
             490     7.24856E-03     80.9007E-03    -47.3500E+06    -135.374E+06    -9.93007E+06     919.131E+03    -114.006E-03     225.278E-03    -111.272E-03     120.200E-03    -115.150E-03     225.802E-03    -111.057E-03     116.359E-03
             491     8.05407E-03     81.0405E-03    -43.4322E+06    -123.224E+06    -6.03005E+06     1.07212E+06    -114.471E-03     225.716E-03    -111.245E-03     132.719E-03    -116.020E-03     226.691E-03    -111.033E-03     128.155E-03
             492     8.85984E-03     81.1945E-03    -39.7750E+06    -94.9844E+06    -3.73245E+06     1.20559E+06    -114.889E-03     226.076E-03    -111.187E-03     145.468E-03    -116.992E-03     227.711E-03    -111.010E-03     140.086E-03
             493     9.66528E-03     81.3625E-03    -37.0631E+06    -63.4199E+06    -1.22729E+06     814.962E+03    -115.199E-03     226.324E-03    -111.125E-03     158.370E-03    -118.035E-03     228.807E-03    -110.985E-03     152.050E-03
             494     10.4715E-03     81.5435E-03    -34.3742E+06    -15.5293E+06     4.80933E+06     738.515E+03    -115.378E-03     226.431E-03    -111.053E-03     172.522E-03    -119.238E-03     230.100E-03    -110.957E-03     165.134E-03
             495     11.2767E-03     81.7417E-03    -31.8502E+06     41.2877E+06     12.1106E+06     910.632E+03    -115.711E-03     226.681E-03    -110.970E-03     191.825E-03    -121.129E-03     232.097E-03    -110.923E-03     183.132E-03
             496     12.0831E-03     81.9646E-03    -28.6223E+06     79.0316E+06     31.6900E+06     920.872E+03    -116.650E-03     227.620E-03    -110.970E-03     221.828E-03    -124.660E-03     235.717E-03    -110.885E-03     211.456E-03
             497     12.8898E-03     82.2297E-03    -23.4403E+06     97.1661E+06     64.8660E+06     1.21598E+06    -118.376E-03     229.444E-03    -111.068E-03     260.959E-03    -130.395E-03     241.536E-03    -110.850E-03     248.799E-03
             498     13.6943E-03     82.5416E-03    -17.1566E+06     112.572E+06     90.3412E+06     1.12561E+06    -118.075E-03     229.205E-03    -111.130E-03     284.036E-03    -133.879E-03     245.085E-03    -110.816E-03     271.738E-03
             499     14.5020E-03     82.8623E-03    -10.9762E+06     123.361E+06     100.045E+06     50.7379E+03    -113.838E-03     224.945E-03    -111.107E-03     261.812E-03    -130.405E-03     241.620E-03    -110.770E-03     252.423E-03
             500     15.3091E-03     83.1225E-03    -5.13988E+06     125.403E+06     98.2069E+06    -416.865E+03    -109.868E-03     220.917E-03    -111.049E-03     169.904E-03    -120.345E-03     231.536E-03    -110.732E-03     164.699E-03
             501     805.455E-06     81.4726E-03    -80.7447E+06    -228.808E+06    -78.9920E+06    -123.558E+03    -111.265E-03     222.497E-03    -111.232E-03     15.3181E-03    -111.235E-03     221.598E-03    -111.178E-03     14.9792E-03
             502     1.61063E-03     81.4973E-03    -78.3052E+06    -224.518E+06    -72.2716E+06    -104.698E+03    -111.411E-03     222.650E-03    -111.240E-03     28.5290E-03    -111.412E-03     221.786E-03    -111.162E-03     27.8973E-03
             503     2.41601E-03     81.5369E-03    -75.1444E+06    -218.332E+06    -62.9864E+06     149.644E+03    -111.619E-03     222.884E-03    -111.265E-03     42.0956E-03    -111.674E-03     222.080E-03    -111.155E-03     41.1403E-03
             504     3.22128E-03     81.5915E-03    -70.9674E+06    -209.800E+06    -52.1840E+06     235.985E+03    -111.889E-03     223.177E-03    -111.288E-03     55.6111E-03    -112.023E-03     222.465E-03    -111.142E-03     54.2994E-03
             505     4.02680E-03     81.6612E-03    -66.0587E+06    -196.804E+06    -41.1062E+06     194.306E+03    -112.241E-03     223.542E-03    -111.301E-03     69.0112E-03    -112.486E-03     222.973E-03    -111.125E-03     67.3014E-03
             506     4.83200E-03     81.7457E-03    -61.1637E+06    -181.677E+06    -31.4342E+06     368.931E+03    -112.638E-03     223.940E-03    -111.302E-03     82.1621E-03    -113.031E-03     223.562E-03    -111.107E-03     80.0094E-03
             507     5.63761E-03     81.8445E-03    -55.9736E+06    -171.045E+06    -22.4259E+06     760.199E+03    -113.085E-03     224.389E-03    -111.304E-03     95.0392E-03    -113.660E-03     224.223E-03    -111.087E-03     92.3925E-03
             508     6.44306E-03     81.9573E-03    -51.1084E+06    -150.435E+06    -15.5576E+06     1.17023E+06    -113.509E-03     224.788E-03    -111.279E-03     107.747E-03    -114.334E-03     224.943E-03    -111.064E-03     104.548E-03
             509     7.24873E-03     82.0839E-03    -47.0761E+06    -135.403E+06    -9.73137E+06     1.37894E+06    -113.957E-03     225.211E-03    -111.254E-03     120.254E-03    -115.099E-03     225.733E-03    -111.038E-03     116.421E-03
             510     8.05447E-03     82.2240E-03    -43.3722E+06    -123.165E+06    -5.77469E+06     1.08640E+06    -114.452E-03     225.676E-03    -111.225E-03     132.805E-03    -116.001E-03     226.651E-03    -111.012E-03     128.245E-03
             511     8.85980E-03     82.3781E-03    -39.9266E+06    -95.3263E+06    -4.19350E+06     906.364E+03    -114.854E-03     226.016E-03    -111.162E-03     145.622E-03    -116.956E-03     227.650E-03    -110.987E-03     140.241E-03
             512     9.66594E-03     82.5453E-03    -36.3643E+06    -62.9250E+06    -798.024E+03     1.02240E+06    -115.153E-03     226.254E-03    -111.101E-03     158.340E-03    -117.987E-03     228.738E-03    -110.961E-03     152.025E-03
             513     10.4713E-03     82.7272E-03    -33.2804E+06    -16.3438E+06     5.06517E+06     1.38929E+06    -115.311E-03     226.339E-03    -111.028E-03     172.247E-03    -119.164E-03     230.001E-03    -110.931E-03     164.866E-03
             514     11.2778E-03     82.9246E-03    -30.4639E+06     41.2350E+06     12.6148E+06     1.79650E+06    -115.665E-03     226.608E-03    -110.943E-03     191.584E-03    -121.072E-03     232.017E-03    -110.896E-03     182.908E-03
             515     12.0834E-03     83.1484E-03    -27.6894E+06     79.7837E+06     33.0426E+06     1.68655E+06    -116.785E-03     227.739E-03    -110.953E-03     221.568E-03    -124.791E-03     235.834E-03    -110.864E-03     211.193E-03
             516     12.8887E-03     83.4123E-03    -23.4692E+06     97.0332E+06     65.1938E+06     1.12687E+06    -118.345E-03     229.399E-03    -111.055E-03     260.941E-03    -130.370E-03     241.497E-03    -110.835E-03     248.783E-03
             517     13.6957E-03     83.7268E-03    -17.2937E+06     112.589E+06     90.0007E+06     340.822E+03    -117.555E-03     228.658E-03    -111.103E-03     282.625E-03    -133.270E-03     244.450E-03    -110.791E-03     270.403E-03
             518     14.5030E-03     84.0404E-03    -10.6034E+06     124.193E+06     100.667E+06     391.435E+03    -113.800E-03     224.876E-03    -111.076E-03     260.611E-03    -130.240E-03     241.427E-03    -110.737E-03     251.249E-03
             519     15.3069E-03     84.3120E-03    -4.62235E+06     126.122E+06     98.9584E+06     207.935E+03    -110.362E-03     221.393E-03    -111.032E-03     169.391E-03    -120.754E-03     231.930E-03    -110.713E-03     164.155E-03
             520     805.053E-06     82.6563E-03    -80.4047E+06    -228.621E+06    -78.7212E+06     71.2492E+03    -111.371E-03     222.641E-03    -111.270E-03     15.3153E-03    -111.340E-03     221.742E-03    -111.216E-03     14.9805E-03
             521     1.61049E-03     82.6806E-03    -78.5102E+06    -224.894E+06    -72.5427E+06     140.672E+03    -111.378E-03     222.667E-03    -111.290E-03     28.5340E-03    -111.379E-03     221.802E-03    -111.212E-03     27.9060E-03
             522     2.41587E-03     82.7203E-03    -74.9470E+06    -218.644E+06    -63.4860E+06     238.827E+03    -111.556E-03     222.834E-03    -111.279E-03     42.1320E-03    -111.609E-03     222.029E-03    -111.170E-03     41.1780E-03
             523     3.22134E-03     82.7750E-03    -70.5712E+06    -209.660E+06    -51.7818E+06     376.091E+03    -111.866E-03     223.154E-03    -111.288E-03     55.6621E-03    -111.999E-03     222.442E-03    -111.141E-03     54.3521E-03
             524     4.02663E-03     82.8446E-03    -66.0903E+06    -196.966E+06    -40.9240E+06     439.685E+03    -112.204E-03     223.499E-03    -111.295E-03     69.0654E-03    -112.449E-03     222.928E-03    -111.118E-03     67.3611E-03
             525     4.83231E-03     82.9292E-03    -61.2756E+06    -182.084E+06    -31.4818E+06     457.139E+03    -112.587E-03     223.875E-03    -111.288E-03     82.2280E-03    -112.979E-03     223.495E-03    -111.093E-03     80.0790E-03
             526     5.63774E-03     83.0278E-03    -56.5479E+06    -171.544E+06    -22.6511E+06     584.376E+03    -113.026E-03     224.311E-03    -111.285E-03     95.0779E-03    -113.603E-03     224.143E-03    -111.067E-03     92.4314E-03
             527     6.44332E-03     83.1408E-03    -51.9430E+06    -151.342E+06    -16.0573E+06     812.239E+03    -113.466E-03     224.721E-03    -111.255E-03     107.746E-03    -114.293E-03     224.872E-03    -111.040E-03     104.544E-03
             528     7.24893E-03     83.2670E-03    -47.0608E+06    -135.706E+06    -9.99028E+06     1.17617E+06    -113.947E-03     225.176E-03    -111.229E-03     120.273E-03    -115.088E-03     225.697E-03    -111.014E-03     116.439E-03
             529     8.05437E-03     83.4076E-03    -42.8474E+06    -123.090E+06    -5.68546E+06     1.24438E+06    -114.392E-03     225.591E-03    -111.199E-03     132.775E-03    -115.938E-03     226.565E-03    -110.987E-03     128.219E-03
             530     8.86055E-03     83.5608E-03    -39.3761E+06    -95.2479E+06    -3.86494E+06     969.393E+03    -114.832E-03     225.968E-03    -111.136E-03     145.590E-03    -116.931E-03     227.600E-03    -110.960E-03     140.212E-03
             531     9.66570E-03     83.7294E-03    -36.6782E+06    -63.0748E+06    -1.07679E+06     999.084E+03    -115.213E-03     226.290E-03    -111.077E-03     158.364E-03    -118.050E-03     228.775E-03    -110.937E-03     152.046E-03
             532     10.4717E-03     83.9099E-03    -34.0635E+06    -17.0452E+06     4.79010E+06     1.33610E+06    -115.370E-03     226.382E-03    -111.013E-03     172.116E-03    -119.228E-03     230.045E-03    -110.915E-03     164.728E-03
             533     11.2772E-03     84.1080E-03    -30.9535E+06     40.3020E+06     12.1043E+06     2.00383E+06    -115.675E-03     226.607E-03    -110.932E-03     191.450E-03    -121.080E-03     232.009E-03    -110.885E-03     182.777E-03
             534     12.0835E-03     84.3314E-03    -26.8024E+06     80.1556E+06     32.7122E+06     2.31627E+06    -116.763E-03     227.700E-03    -110.937E-03     221.906E-03    -124.760E-03     235.792E-03    -110.851E-03     211.550E-03
             535     12.8895E-03     84.5971E-03    -22.3065E+06     98.2517E+06     66.1378E+06     1.72648E+06    -118.183E-03     229.219E-03    -111.036E-03     261.049E-03    -130.189E-03     241.303E-03    -110.815E-03     248.935E-03
             536     13.6954E-03     84.9077E-03    -17.0699E+06     114.700E+06     91.8124E+06     850.047E+03    -118.072E-03     229.172E-03    -111.100E-03     282.510E-03    -133.806E-03     244.986E-03    -110.782E-03     270.229E-03
             537     14.5002E-03     85.2249E-03    -11.5727E+06     125.284E+06     100.737E+06    -102.540E+03    -114.702E-03     225.812E-03    -111.110E-03     260.576E-03    -131.230E-03     242.451E-03    -110.771E-03     251.036E-03
             538     15.3090E-03     85.4932E-03    -6.02473E+06     124.801E+06     97.5819E+06    -254.664E+03    -109.901E-03     220.980E-03    -111.079E-03     167.899E-03    -120.298E-03     231.516E-03    -110.763E-03     162.672E-03
             539     805.354E-06     83.8399E-03    -80.6011E+06    -229.139E+06    -78.9551E+06     255.161E+03    -111.414E-03     222.570E-03    -111.157E-03     15.4727E-03    -111.382E-03     221.669E-03    -111.102E-03     15.1393E-03
             540     1.61053E-03     83.8641E-03    -78.2057E+06    -224.981E+06    -72.7731E+06     228.414E+03    -111.393E-03     222.654E-03    -111.262E-03     28.6020E-03    -111.392E-03     221.788E-03    -111.186E-03     27.9760E-03
             541     2.41596E-03     83.9036E-03    -75.0213E+06    -218.724E+06    -63.5356E+06     232.503E+03    -111.560E-03     222.825E-03    -111.264E-03     42.2256E-03    -111.614E-03     222.020E-03    -111.156E-03     41.2716E-03
             542     3.22135E-03     83.9583E-03    -70.9975E+06    -210.150E+06    -51.9407E+06     435.928E+03    -111.832E-03     223.107E-03    -111.275E-03     55.7286E-03    -111.966E-03     222.394E-03    -111.127E-03     54.4197E-03
             543     4.02688E-03     84.0281E-03    -66.0074E+06    -197.311E+06    -40.3428E+06     692.437E+03    -112.169E-03     223.448E-03    -111.280E-03     69.0658E-03    -112.414E-03     222.876E-03    -111.099E-03     67.3648E-03
             544     4.83225E-03     84.1123E-03    -61.0791E+06    -182.075E+06    -30.8110E+06     809.282E+03    -112.555E-03     223.826E-03    -111.271E-03     82.2152E-03    -112.947E-03     223.444E-03    -111.072E-03     80.0732E-03
             545     5.63782E-03     84.2114E-03    -56.3302E+06    -171.891E+06    -22.3695E+06     847.748E+03    -112.983E-03     224.246E-03    -111.263E-03     95.0229E-03    -113.558E-03     224.076E-03    -111.044E-03     92.3805E-03
             546     6.44346E-03     84.3236E-03    -51.7418E+06    -151.744E+06    -15.9470E+06     893.768E+03    -113.427E-03     224.657E-03    -111.230E-03     107.744E-03    -114.252E-03     224.806E-03    -111.015E-03     104.545E-03
             547     7.24903E-03     84.4509E-03    -47.8296E+06    -136.153E+06    -10.7491E+06     728.480E+03    -113.907E-03     225.107E-03    -111.200E-03     120.302E-03    -115.050E-03     225.628E-03    -110.987E-03     116.465E-03
             548     8.05495E-03     84.5902E-03    -43.7789E+06    -123.147E+06    -5.97136E+06     862.642E+03    -114.432E-03     225.607E-03    -111.175E-03     132.760E-03    -115.983E-03     226.582E-03    -110.963E-03     128.198E-03
             549     8.86015E-03     84.7447E-03    -40.3029E+06    -95.5164E+06    -3.71074E+06     1.20823E+06    -114.835E-03     225.954E-03    -111.120E-03     145.485E-03    -116.938E-03     227.586E-03    -110.941E-03     140.109E-03
             550     9.66643E-03     84.9120E-03    -37.2731E+06    -63.8189E+06    -968.228E+03     1.26219E+06    -115.141E-03     226.200E-03    -111.059E-03     158.383E-03    -117.976E-03     228.679E-03    -110.918E-03     152.077E-03
             551     10.4718E-03     85.0941E-03    -34.3971E+06    -17.3035E+06     5.09717E+06     1.58403E+06    -115.417E-03     226.412E-03    -110.995E-03     172.236E-03    -119.277E-03     230.074E-03    -110.895E-03     164.852E-03
             552     11.2778E-03     85.2908E-03    -31.3571E+06     40.1417E+06     11.8340E+06     1.69729E+06    -115.770E-03     226.687E-03    -110.917E-03     191.551E-03    -121.185E-03     232.099E-03    -110.871E-03     182.856E-03
             553     12.0836E-03     85.5150E-03    -27.4993E+06     79.3617E+06     31.5823E+06     1.41048E+06    -116.677E-03     227.598E-03    -110.921E-03     221.916E-03    -124.671E-03     235.685E-03    -110.839E-03     211.553E-03
             554     12.8899E-03     85.7797E-03    -22.0901E+06     98.2278E+06     66.1194E+06     1.70792E+06    -118.332E-03     229.360E-03    -111.028E-03     260.337E-03    -130.315E-03     241.422E-03    -110.808E-03     248.203E-03
             555     13.6963E-03     86.0919E-03    -16.3125E+06     116.243E+06     92.6039E+06     1.80036E+06    -118.516E-03     229.633E-03    -111.117E-03     281.894E-03    -134.278E-03     245.481E-03    -110.799E-03     269.523E-03
             556     14.5022E-03     86.4106E-03    -10.9301E+06     126.932E+06     101.581E+06     895.555E+03    -114.879E-03     226.027E-03    -111.148E-03     260.902E-03    -131.456E-03     242.721E-03    -110.808E-03     251.341E-03
             557     15.3024E-03     86.6773E-03    -5.33809E+06     125.305E+06     98.4920E+06     65.1424E+03    -109.692E-03     220.807E-03    -111.115E-03     168.349E-03    -120.107E-03     231.363E-03    -110.797E-03     163.162E-03
             558     805.339E-06     85.0235E-03    -80.8654E+06    -229.590E+06    -79.4023E+06     189.436E+03    -111.352E-03     222.409E-03    -111.057E-03     15.4068E-03    -111.320E-03     221.507E-03    -111.004E-03     15.0734E-03
             559     1.61075E-03     85.0475E-03    -78.7592E+06    -225.407E+06    -72.9223E+06     399.990E+03    -111.394E-03     222.593E-03    -111.200E-03     28.4891E-03    -111.394E-03     221.726E-03    -111.123E-03     27.8675E-03
             560     2.41603E-03     85.0870E-03    -75.5191E+06    -219.038E+06    -63.4783E+06     558.510E+03    -111.577E-03     222.806E-03    -111.229E-03     42.2009E-03    -111.632E-03     222.000E-03    -111.120E-03     41.2511E-03
             561     3.22142E-03     85.1417E-03    -71.2107E+06    -210.534E+06    -51.7845E+06     450.900E+03    -111.825E-03     223.076E-03    -111.251E-03     55.7217E-03    -111.960E-03     222.361E-03    -111.102E-03     54.4117E-03
             562     4.02689E-03     85.2113E-03    -66.4235E+06    -197.939E+06    -40.6190E+06     733.619E+03    -112.152E-03     223.409E-03    -111.258E-03     69.0583E-03    -112.397E-03     222.834E-03    -111.077E-03     67.3575E-03
             563     4.83243E-03     85.2958E-03    -61.5135E+06    -182.342E+06    -30.9773E+06     1.05944E+06    -112.518E-03     223.766E-03    -111.248E-03     82.1804E-03    -112.911E-03     223.384E-03    -111.050E-03     80.0423E-03
             564     5.63806E-03     85.3942E-03    -56.3902E+06    -171.768E+06    -22.0861E+06     810.457E+03    -112.959E-03     224.200E-03    -111.241E-03     95.0326E-03    -113.535E-03     224.030E-03    -111.021E-03     92.3914E-03
             565     6.44356E-03     85.5072E-03    -51.3341E+06    -151.913E+06    -15.3221E+06     713.480E+03    -113.426E-03     224.637E-03    -111.211E-03     107.681E-03    -114.250E-03     224.784E-03    -110.993E-03     104.479E-03
             566     7.24944E-03     85.6334E-03    -46.5628E+06    -136.450E+06    -9.26545E+06     1.08408E+06    -113.908E-03     225.095E-03    -111.187E-03     120.142E-03    -115.046E-03     225.610E-03    -110.968E-03     116.308E-03
             567     8.05477E-03     85.7740E-03    -43.0016E+06    -124.004E+06    -5.31937E+06     1.44277E+06    -114.424E-03     225.585E-03    -111.161E-03     132.709E-03    -115.969E-03     226.553E-03    -110.946E-03     128.156E-03
             568     8.86070E-03     85.9276E-03    -39.9542E+06    -95.4983E+06    -3.17692E+06     1.60421E+06    -114.882E-03     225.990E-03    -111.108E-03     145.436E-03    -116.985E-03     227.621E-03    -110.927E-03     140.063E-03
             569     9.66600E-03     86.0953E-03    -37.1670E+06    -63.7511E+06    -361.472E+03     1.65576E+06    -115.159E-03     226.213E-03    -111.053E-03     158.148E-03    -117.994E-03     228.690E-03    -110.909E-03     151.844E-03
             570     10.4723E-03     86.2771E-03    -34.1631E+06    -18.0782E+06     5.09867E+06     1.71258E+06    -115.387E-03     226.376E-03    -110.989E-03     171.991E-03    -119.240E-03     230.029E-03    -110.888E-03     164.611E-03
             571     11.2778E-03     86.4746E-03    -30.9615E+06     40.3138E+06     12.8297E+06     1.44655E+06    -115.846E-03     226.765E-03    -110.919E-03     190.979E-03    -121.262E-03     232.178E-03    -110.869E-03     182.266E-03
             572     12.0837E-03     86.6978E-03    -27.6884E+06     79.5876E+06     33.0294E+06     1.15424E+06    -116.798E-03     227.737E-03    -110.939E-03     221.162E-03    -124.794E-03     235.822E-03    -110.849E-03     210.773E-03
             573     12.8894E-03     86.9631E-03    -23.4001E+06     96.2086E+06     65.0331E+06     1.62006E+06    -118.618E-03     229.670E-03    -111.052E-03     260.648E-03    -130.619E-03     241.741E-03    -110.833E-03     248.470E-03
             574     13.6936E-03     87.2761E-03    -17.6296E+06     115.869E+06     91.3148E+06     1.70100E+06    -118.604E-03     229.748E-03    -111.144E-03     282.816E-03    -134.436E-03     245.663E-03    -110.830E-03     270.413E-03
             575     14.4983E-03     87.5928E-03    -10.1663E+06     129.660E+06     103.146E+06     1.01273E+06    -113.842E-03     224.991E-03    -111.149E-03     261.347E-03    -130.394E-03     241.668E-03    -110.806E-03     251.940E-03
             576     15.3112E-03     87.8623E-03    -4.66953E+06     126.327E+06     99.7316E+06     503.700E+03    -109.579E-03     220.659E-03    -111.081E-03     169.117E-03    -119.935E-03     231.159E-03    -110.759E-03     164.014E-03
             577     805.415E-06     86.2067E-03    -81.6790E+06    -230.092E+06    -79.8543E+06     257.020E+03    -111.262E-03     222.324E-03    -111.062E-03     15.4834E-03    -111.233E-03     221.421E-03    -111.009E-03     15.1488E-03
             578     1.61069E-03     86.2308E-03    -79.3142E+06    -226.015E+06    -73.5408E+06     550.833E+03    -111.372E-03     222.533E-03    -111.161E-03     28.5228E-03    -111.374E-03     221.664E-03    -111.086E-03     27.9021E-03
             579     2.41612E-03     86.2703E-03    -75.9984E+06    -219.598E+06    -63.9572E+06     751.229E+03    -111.573E-03     222.773E-03    -111.200E-03     42.1056E-03    -111.629E-03     221.965E-03    -111.091E-03     41.1583E-03
             580     3.22158E-03     86.3249E-03    -71.7838E+06    -210.717E+06    -51.7090E+06     911.616E+03    -111.812E-03     223.043E-03    -111.231E-03     55.6477E-03    -111.950E-03     222.327E-03    -111.079E-03     54.3444E-03
             581     4.02697E-03     86.3946E-03    -66.7387E+06    -198.088E+06    -40.2290E+06     667.658E+03    -112.126E-03     223.366E-03    -111.240E-03     69.0196E-03    -112.374E-03     222.790E-03    -111.057E-03     67.3183E-03
             582     4.83254E-03     86.4788E-03    -61.0077E+06    -182.788E+06    -30.5984E+06     520.200E+03    -112.504E-03     223.734E-03    -111.230E-03     82.1078E-03    -112.894E-03     223.348E-03    -111.030E-03     79.9613E-03
             583     5.63807E-03     86.5776E-03    -55.8946E+06    -171.968E+06    -21.4994E+06     909.722E+03    -112.969E-03     224.196E-03    -111.226E-03     94.9472E-03    -113.543E-03     224.023E-03    -111.003E-03     92.3071E-03
             584     6.44379E-03     86.6902E-03    -51.6478E+06    -151.786E+06    -14.6686E+06     882.758E+03    -113.460E-03     224.663E-03    -111.203E-03     107.589E-03    -114.286E-03     224.810E-03    -110.981E-03     104.387E-03
             585     7.24908E-03     86.8170E-03    -47.6232E+06    -137.273E+06    -9.60841E+06     892.849E+03    -113.944E-03     225.127E-03    -111.182E-03     120.054E-03    -115.086E-03     225.640E-03    -110.962E-03     116.215E-03
             586     8.05505E-03     86.9568E-03    -43.6036E+06    -124.843E+06    -5.78812E+06     1.52981E+06    -114.406E-03     225.564E-03    -111.158E-03     132.566E-03    -115.953E-03     226.530E-03    -110.943E-03     128.012E-03
             587     8.86062E-03     87.1110E-03    -39.8429E+06    -96.0125E+06    -3.39771E+06     1.98958E+06    -114.887E-03     225.993E-03    -111.105E-03     145.320E-03    -116.987E-03     227.620E-03    -110.925E-03     139.951E-03
             588     9.66631E-03     87.2790E-03    -36.6939E+06    -63.8791E+06     187.260E+03     2.21033E+06    -115.309E-03     226.370E-03    -111.061E-03     157.973E-03    -118.144E-03     228.848E-03    -110.914E-03     151.663E-03
             589     10.4715E-03     87.4596E-03    -34.0678E+06    -17.8125E+06     5.75078E+06     2.03055E+06    -115.528E-03     226.537E-03    -111.009E-03     171.861E-03    -119.384E-03     230.192E-03    -110.905E-03     164.471E-03
             590     11.2774E-03     87.6587E-03    -31.5084E+06     40.2150E+06     12.5897E+06     1.61006E+06    -115.842E-03     226.783E-03    -110.941E-03     190.970E-03    -121.259E-03     232.194E-03    -110.891E-03     182.262E-03
             591     12.0828E-03     87.8809E-03    -28.4349E+06     79.1790E+06     32.6185E+06     1.84862E+06    -116.791E-03     227.749E-03    -110.958E-03     221.297E-03    -124.802E-03     235.846E-03    -110.869E-03     210.912E-03
             592     12.8888E-03     88.1465E-03    -24.1031E+06     95.6111E+06     64.6352E+06     1.77251E+06    -118.334E-03     229.390E-03    -111.056E-03     261.878E-03    -130.366E-03     241.489E-03    -110.837E-03     249.731E-03
             593     13.6960E-03     88.4611E-03    -17.8467E+06     117.359E+06     92.0879E+06     1.47549E+06    -118.210E-03     229.326E-03    -111.116E-03     284.499E-03    -134.033E-03     245.236E-03    -110.800E-03     272.193E-03
             594     14.5029E-03     88.7780E-03    -11.5844E+06     131.160E+06     103.048E+06     966.220E+03    -114.308E-03     225.423E-03    -111.115E-03     260.124E-03    -130.792E-03     242.033E-03    -110.773E-03     250.712E-03
             595     15.3053E-03     89.0387E-03    -5.63851E+06     126.094E+06     98.9456E+06    -127.700E+03    -109.754E-03     220.827E-03    -111.072E-03     167.834E-03    -120.094E-03     231.307E-03    -110.752E-03     162.645E-03
             596     805.386E-06     87.3895E-03    -82.2022E+06    -230.784E+06    -80.8144E+06     136.889E+03    -111.244E-03     222.276E-03    -111.032E-03     15.4793E-03    -111.216E-03     221.372E-03    -110.982E-03     15.1426E-03
             597     1.61089E-03     87.4143E-03    -80.0423E+06    -226.719E+06    -74.3725E+06     457.788E+03    -111.357E-03     222.495E-03    -111.138E-03     28.5847E-03    -111.360E-03     221.625E-03    -111.065E-03     27.9621E-03
             598     2.41611E-03     87.4535E-03    -76.3147E+06    -220.116E+06     -64.459E+06     605.381E+03    -111.568E-03     222.749E-03    -111.182E-03     42.0515E-03    -111.624E-03     221.940E-03    -111.074E-03     41.1031E-03
             599     3.22149E-03     87.5082E-03    -71.2840E+06    -211.066E+06    -51.8045E+06     658.629E+03    -111.801E-03     223.016E-03    -111.215E-03     55.6027E-03    -111.935E-03     222.298E-03    -111.065E-03     54.2971E-03
             600     4.02709E-03     87.5777E-03    -66.0157E+06    -198.040E+06    -39.7750E+06     827.205E+03    -112.121E-03     223.349E-03    -111.227E-03     68.9402E-03    -112.366E-03     222.771E-03    -111.043E-03     67.2403E-03
             601     4.83258E-03     87.6621E-03    -61.5884E+06    -183.035E+06    -30.4009E+06     881.537E+03    -112.530E-03     223.753E-03    -111.223E-03     82.0190E-03    -112.924E-03     223.367E-03    -111.021E-03     79.8758E-03
             602     5.63819E-03     87.7606E-03    -56.9310E+06    -172.644E+06    -21.8808E+06     904.028E+03    -112.989E-03     224.212E-03    -111.224E-03     94.8607E-03    -113.566E-03     224.038E-03    -111.000E-03     92.2185E-03
             603     6.44359E-03     87.8736E-03    -51.9270E+06    -151.925E+06    -15.1209E+06     990.297E+03    -113.463E-03     224.664E-03    -111.201E-03     107.580E-03    -114.290E-03     224.811E-03    -110.981E-03     104.379E-03
             604     7.24948E-03     88.0001E-03    -47.6011E+06    -137.723E+06    -9.57232E+06     1.21239E+06    -113.994E-03     225.179E-03    -111.185E-03     119.982E-03    -115.135E-03     225.691E-03    -110.965E-03     116.144E-03
             605     8.05473E-03     88.1401E-03    -43.8501E+06    -125.740E+06    -5.85058E+06     1.61832E+06    -114.496E-03     225.665E-03    -111.169E-03     132.450E-03    -116.043E-03     226.627E-03    -110.953E-03     127.890E-03
             606     8.86036E-03     88.2942E-03    -40.4699E+06    -97.1550E+06    -4.16433E+06     1.88183E+06    -114.897E-03     226.015E-03    -111.118E-03     145.271E-03    -116.996E-03     227.638E-03    -110.940E-03     139.902E-03
             607     9.66610E-03     88.4620E-03    -37.3304E+06    -64.9277E+06    -714.962E+03     2.25298E+06    -115.290E-03     226.361E-03    -111.071E-03     158.114E-03    -118.123E-03     228.833E-03    -110.926E-03     151.811E-03
             608     10.4716E-03     88.6442E-03    -34.3841E+06    -17.4482E+06     5.58247E+06     2.54491E+06    -115.504E-03     226.520E-03    -111.016E-03     172.184E-03    -119.367E-03     230.182E-03    -110.913E-03     164.803E-03
             609     11.2771E-03     88.8410E-03    -31.7751E+06     40.6462E+06     12.1209E+06     2.58061E+06    -115.759E-03     226.697E-03    -110.938E-03     191.612E-03    -121.177E-03     232.111E-03    -110.890E-03     182.934E-03
             610     12.0835E-03     89.0653E-03    -28.5626E+06     79.1979E+06     31.6559E+06     2.36170E+06    -116.687E-03     227.630E-03    -110.943E-03     221.826E-03    -124.705E-03     235.736E-03    -110.858E-03     211.463E-03
             611     12.8896E-03     89.3291E-03    -23.1293E+06      96.343E+06     65.3899E+06     1.65865E+06    -118.130E-03     229.169E-03    -111.038E-03     261.565E-03    -130.171E-03     241.279E-03    -110.817E-03     249.425E-03
             612     13.6959E-03     89.6433E-03    -17.1274E+06     117.518E+06     92.6207E+06     1.74111E+06    -117.859E-03     228.946E-03    -111.086E-03     283.698E-03    -133.591E-03     244.765E-03    -110.769E-03     271.459E-03
             613     14.5012E-03     89.9616E-03    -10.8311E+06     132.687E+06     103.489E+06     1.26514E+06    -114.574E-03     225.654E-03    -111.081E-03     260.979E-03    -131.074E-03     242.288E-03    -110.740E-03     251.526E-03
             614     15.3067E-03     90.2279E-03    -4.67126E+06     127.358E+06     99.7018E+06    -85.3107E+03    -110.315E-03     221.373E-03    -111.058E-03     168.927E-03    -120.753E-03     231.957E-03    -110.737E-03     163.649E-03
             615     805.454E-06     88.5728E-03    -82.7270E+06    -231.315E+06    -81.1810E+06    -27.0174E+03    -111.244E-03     222.328E-03    -111.084E-03     15.4835E-03    -111.216E-03     221.422E-03    -111.035E-03     15.1467E-03
             616     1.61068E-03     88.5973E-03    -80.3895E+06    -227.392E+06    -75.2985E+06     256.169E+03    -111.331E-03     222.482E-03    -111.151E-03     28.5210E-03    -111.334E-03     221.611E-03    -111.081E-03     27.8964E-03
             617     2.41621E-03     88.6369E-03    -77.1032E+06    -220.350E+06    -64.7600E+06     305.519E+03    -111.504E-03     222.682E-03    -111.178E-03     41.9989E-03    -111.563E-03     221.873E-03    -111.071E-03     41.0489E-03
             618     3.22167E-03     88.6913E-03    -72.7077E+06    -211.049E+06    -51.7292E+06     193.967E+03    -111.799E-03     223.006E-03    -111.207E-03     55.5808E-03    -111.941E-03     222.290E-03    -111.054E-03     54.2703E-03
             619     4.02704E-03     88.7610E-03    -67.2437E+06    -199.044E+06    -40.8236E+06     543.448E+03    -112.158E-03     223.379E-03    -111.221E-03     68.8989E-03    -112.406E-03     222.800E-03    -111.039E-03     67.1939E-03
             620     4.83257E-03     88.8452E-03    -61.3421E+06    -183.498E+06    -30.9964E+06     1.16169E+06    -112.555E-03     223.778E-03    -111.223E-03     81.9767E-03    -112.946E-03     223.390E-03    -111.023E-03     79.8358E-03
             621     5.63800E-03     88.9440E-03    -56.0317E+06    -172.630E+06    -21.7964E+06     1.17525E+06    -113.018E-03     224.246E-03    -111.228E-03     94.8162E-03    -113.591E-03     224.071E-03    -111.006E-03     92.1759E-03
             622     6.44376E-03     89.0566E-03    -51.8500E+06    -152.673E+06    -15.3085E+06     1.48694E+06    -113.493E-03     224.702E-03    -111.209E-03     107.511E-03    -114.318E-03     224.846E-03    -110.989E-03     104.317E-03
             623     7.24906E-03     89.1836E-03    -48.3038E+06    -138.103E+06    -9.88931E+06     1.83387E+06    -114.004E-03     225.200E-03    -111.196E-03     119.970E-03    -115.147E-03     225.710E-03    -110.975E-03     116.141E-03
             624     8.05474E-03     89.3235E-03    -44.4171E+06    -126.326E+06    -6.32342E+06     1.56726E+06    -114.520E-03     225.700E-03    -111.180E-03     132.501E-03    -116.069E-03     226.661E-03    -110.964E-03     127.941E-03
             625     8.86034E-03     89.4774E-03    -40.7378E+06    -97.9579E+06    -4.73940E+06     1.78950E+06    -114.952E-03     226.082E-03    -111.130E-03     145.393E-03    -117.052E-03     227.703E-03    -110.953E-03     140.020E-03
             626     9.66578E-03     89.6455E-03    -37.6614E+06    -65.6566E+06    -1.29797E+06     2.14874E+06    -115.191E-03     226.270E-03    -111.079E-03     158.241E-03    -118.022E-03     228.738E-03    -110.936E-03     151.946E-03
             627     10.4719E-03     89.8270E-03    -34.5323E+06    -18.7511E+06     5.11832E+06     2.58758E+06    -115.261E-03     226.272E-03    -111.011E-03     172.072E-03    -119.114E-03     229.921E-03    -110.908E-03     164.713E-03
             628     11.2780E-03     90.0250E-03    -31.1701E+06     40.6584E+06     12.3002E+06     3.18246E+06    -115.608E-03     226.528E-03    -110.920E-03     191.430E-03    -121.014E-03     231.932E-03    -110.872E-03     182.776E-03
             629     12.0836E-03     90.2479E-03    -27.2624E+06     80.6784E+06     32.8266E+06     2.44029E+06    -116.661E-03     227.584E-03    -110.922E-03     221.672E-03    -124.675E-03     235.692E-03    -110.836E-03     211.311E-03
             630     12.8896E-03     90.5130E-03    -22.6856E+06     96.8373E+06     66.2676E+06     1.70125E+06    -118.492E-03     229.525E-03    -111.033E-03     261.194E-03    -130.537E-03     241.640E-03    -110.809E-03     249.016E-03
             631     13.6952E-03     90.8260E-03    -16.7194E+06     117.712E+06     93.1895E+06     1.85252E+06    -118.201E-03     229.308E-03    -111.108E-03     282.919E-03    -133.958E-03     245.153E-03    -110.788E-03     270.613E-03
             632     14.5030E-03     91.1446E-03    -10.8134E+06     133.605E+06     103.841E+06     1.18277E+06    -113.582E-03     224.673E-03    -111.091E-03     260.178E-03    -130.084E-03     241.310E-03    -110.749E-03     250.802E-03
             633     15.3102E-03     91.4121E-03    -5.24791E+06     128.059E+06     100.021E+06     384.736E+03    -110.099E-03     221.141E-03    -111.042E-03     167.732E-03    -120.486E-03     231.674E-03    -110.720E-03     162.519E-03
             634     805.269E-06     89.7561E-03    -82.4520E+06    -231.281E+06    -81.2153E+06     106.639E+03    -111.279E-03     222.434E-03    -111.156E-03     15.5659E-03    -111.250E-03     221.529E-03    -111.107E-03     15.2291E-03
             635     1.61072E-03     89.7807E-03    -80.6762E+06    -227.573E+06    -75.4155E+06    -83.4917E+03    -111.297E-03     222.485E-03    -111.187E-03     28.4570E-03    -111.301E-03     221.613E-03    -111.117E-03     27.8275E-03
             636     2.41610E-03     89.8199E-03    -77.1985E+06    -220.834E+06    -65.3571E+06     232.481E+03    -111.476E-03     222.664E-03    -111.188E-03     41.9635E-03    -111.534E-03     221.854E-03    -111.083E-03     41.0116E-03
             637     3.22161E-03     89.8746E-03    -72.7705E+06    -211.603E+06    -52.6310E+06     893.530E+03    -111.796E-03     223.004E-03    -111.208E-03     55.5250E-03    -111.935E-03     222.286E-03    -111.059E-03     54.2239E-03
             638     4.02707E-03     89.9442E-03    -68.5034E+06    -199.680E+06    -41.7784E+06     1.09209E+06    -112.164E-03     223.387E-03    -111.224E-03     68.8546E-03    -112.416E-03     222.808E-03    -111.044E-03     67.1567E-03
             639     4.83248E-03     90.0285E-03    -64.1746E+06    -183.657E+06    -33.0435E+06     577.073E+03    -112.565E-03     223.788E-03    -111.223E-03     81.9963E-03    -112.966E-03     223.406E-03    -111.029E-03     79.8481E-03
             640     5.63815E-03     90.1272E-03    -59.4649E+06    -173.237E+06    -24.0252E+06     805.928E+03    -113.050E-03     224.283E-03    -111.233E-03     94.8257E-03    -113.636E-03     224.112E-03    -111.016E-03     92.1810E-03
             641     6.44338E-03     90.2400E-03    -54.2399E+06    -153.937E+06    -16.4992E+06     1.45214E+06    -113.521E-03     224.743E-03    -111.222E-03     107.518E-03    -114.354E-03     224.885E-03    -111.003E-03     104.324E-03
             642     7.24919E-03     90.3667E-03    -48.7896E+06    -138.099E+06    -10.3118E+06     1.52676E+06    -113.994E-03     225.202E-03    -111.208E-03     120.015E-03    -115.139E-03     225.713E-03    -110.988E-03     116.185E-03
             643     8.05472E-03     90.5068E-03    -44.4014E+06    -126.282E+06    -6.24913E+06     1.44056E+06    -114.506E-03     225.697E-03    -111.191E-03     132.477E-03    -116.055E-03     226.658E-03    -110.975E-03     127.915E-03
             644     8.86018E-03     90.6609E-03    -40.9432E+06    -98.7828E+06    -4.82047E+06     1.58246E+06    -114.906E-03     226.044E-03    -111.139E-03     145.337E-03    -117.005E-03     227.661E-03    -110.960E-03     139.962E-03
             645     9.66603E-03     90.8288E-03    -37.5041E+06    -66.6083E+06    -1.44993E+06     2.04062E+06    -115.157E-03     226.240E-03    -111.083E-03     158.183E-03    -117.986E-03     228.703E-03    -110.939E-03     151.887E-03
             646     10.4715E-03     91.0102E-03    -34.4319E+06    -20.0855E+06     4.82921E+06     2.59595E+06    -115.310E-03     226.326E-03    -111.016E-03     171.860E-03    -119.159E-03     229.968E-03    -110.913E-03     164.495E-03
             647     11.2775E-03     91.2075E-03    -31.1357E+06     40.2322E+06     12.2777E+06     2.62246E+06    -115.623E-03     226.553E-03    -110.930E-03     190.860E-03    -121.023E-03     231.949E-03    -110.882E-03     182.196E-03
             648     12.0839E-03     91.4315E-03    -27.6405E+06     81.4485E+06     33.0604E+06     2.42974E+06    -116.767E-03     227.708E-03    -110.941E-03     221.010E-03    -124.778E-03     235.814E-03    -110.854E-03     210.630E-03
             649     12.8898E-03     91.6961E-03    -23.8842E+06     96.8936E+06     65.4391E+06     2.48291E+06    -118.605E-03     229.664E-03    -111.059E-03     260.505E-03    -130.614E-03     241.742E-03    -110.837E-03     248.339E-03
             650     13.6952E-03     92.0111E-03    -18.6320E+06     117.613E+06     92.1503E+06     1.38538E+06    -118.350E-03     229.495E-03    -111.145E-03     282.372E-03    -134.119E-03     245.348E-03    -110.828E-03     270.043E-03
             651     14.4989E-03     92.3257E-03    -11.6724E+06     134.656E+06     104.540E+06     528.393E+03    -114.003E-03     225.156E-03    -111.153E-03     259.113E-03    -130.458E-03     241.744E-03    -110.808E-03     249.681E-03
             652     15.3057E-03     92.5920E-03    -5.40239E+06     129.313E+06     100.962E+06     535.739E+03    -109.650E-03     220.753E-03    -111.103E-03     168.582E-03    -120.000E-03     231.250E-03    -110.778E-03     163.415E-03
             653     805.281E-06     90.9396E-03    -82.8954E+06    -231.481E+06    -81.4102E+06     64.9040E+03    -111.277E-03     222.448E-03    -111.170E-03     15.5278E-03    -111.250E-03     221.542E-03    -111.122E-03     15.1927E-03
             654     1.61063E-03     90.9638E-03    -80.8427E+06     -227.43E+06    -74.9101E+06     135.210E+03    -111.291E-03     222.486E-03    -111.195E-03     28.4406E-03    -111.297E-03     221.615E-03    -111.123E-03     27.8141E-03
             655     2.41614E-03     91.0031E-03    -77.6874E+06    -221.319E+06    -65.6099E+06     94.9640E+03    -111.517E-03     222.714E-03    -111.197E-03     42.0472E-03    -111.577E-03     221.903E-03    -111.091E-03     41.0922E-03
             656     3.22151E-03     91.0578E-03    -73.3148E+06    -213.317E+06    -54.3032E+06     805.598E+03    -111.819E-03     223.036E-03    -111.217E-03     55.5613E-03    -111.956E-03     222.314E-03    -111.073E-03     54.2583E-03
             657     4.02700E-03     91.1275E-03    -67.7238E+06    -200.057E+06    -42.1357E+06     1.55030E+06    -112.172E-03     223.408E-03    -111.236E-03     68.8123E-03    -112.419E-03     222.826E-03    -111.058E-03     67.1206E-03
             658     4.83256E-03     91.2117E-03    -62.3074E+06    -183.509E+06    -30.8760E+06     1.76442E+06    -112.605E-03     223.852E-03    -111.246E-03     81.8978E-03    -113.001E-03     223.464E-03    -111.044E-03     79.7636E-03
             659     5.63784E-03     91.3106E-03    -57.6343E+06    -173.659E+06    -22.7625E+06     1.41424E+06    -113.080E-03     224.335E-03    -111.255E-03     94.7511E-03    -113.658E-03     224.157E-03    -111.033E-03     92.1133E-03
             660     6.44357E-03     91.4233E-03    -52.8873E+06    -153.902E+06    -16.4438E+06     709.563E+03    -113.536E-03     224.775E-03    -111.239E-03     107.435E-03    -114.362E-03     224.915E-03    -111.021E-03     104.228E-03
             661     7.24894E-03     91.5500E-03    -48.3298E+06    -139.357E+06    -10.6576E+06     866.338E+03    -114.004E-03     225.228E-03    -111.225E-03     119.936E-03    -115.144E-03     225.734E-03    -111.006E-03     116.093E-03
             662     8.05443E-03     91.6903E-03    -44.2914E+06    -126.870E+06    -6.53119E+06     1.64562E+06    -114.479E-03     225.684E-03    -111.205E-03     132.489E-03    -116.025E-03     226.642E-03    -110.990E-03     127.932E-03
             663     8.86018E-03     91.8441E-03    -40.9660E+06    -98.6650E+06    -4.58990E+06     1.82717E+06    -114.870E-03     226.021E-03    -111.151E-03     145.216E-03    -116.969E-03     227.637E-03    -110.971E-03     139.845E-03
             664     9.66579E-03     92.0119E-03    -38.3019E+06    -67.8388E+06    -2.14896E+06     1.97117E+06    -115.161E-03     226.253E-03    -111.093E-03     157.983E-03    -117.989E-03     228.711E-03    -110.949E-03     151.684E-03
             665     10.4718E-03     92.1935E-03    -35.2066E+06    -20.7283E+06     4.16353E+06     2.22776E+06    -115.450E-03     226.481E-03    -111.030E-03     171.840E-03    -119.302E-03     230.122E-03    -110.928E-03     164.463E-03
             666     11.2772E-03     92.3912E-03    -32.3466E+06     40.1141E+06     11.6961E+06     2.27332E+06    -115.942E-03     226.903E-03    -110.961E-03     190.798E-03    -121.359E-03     232.313E-03    -110.913E-03     182.093E-03
             667     12.0826E-03     92.6139E-03    -29.1267E+06     80.8871E+06     31.2437E+06     2.54385E+06    -116.998E-03     227.981E-03    -110.983E-03     221.135E-03    -125.018E-03     236.095E-03    -110.902E-03     210.735E-03
             668     12.8877E-03     92.8808E-03    -23.9731E+06     97.2736E+06     64.4925E+06     2.83785E+06    -118.399E-03     229.497E-03    -111.098E-03     260.817E-03    -130.397E-03     241.568E-03    -110.882E-03     248.689E-03
             669     13.6941E-03     93.1925E-03    -17.1585E+06     120.474E+06     93.9275E+06     1.88343E+06    -118.142E-03     229.312E-03    -111.170E-03     283.434E-03    -133.919E-03     245.184E-03    -110.850E-03     271.145E-03
             670     14.5019E-03     93.5128E-03    -11.2119E+06     135.167E+06     104.940E+06     424.894E+03    -114.616E-03     225.793E-03    -111.176E-03     260.362E-03    -131.124E-03     242.435E-03    -110.831E-03     250.846E-03
             671     15.3060E-03     93.7747E-03    -5.53034E+06     128.392E+06     100.171E+06     380.220E+03    -109.527E-03     220.657E-03    -111.131E-03     169.225E-03    -119.937E-03     231.213E-03    -110.808E-03     164.042E-03
             672     805.345E-06     92.1229E-03    -83.5815E+06    -231.867E+06    -81.5217E+06     92.0857E+03    -111.206E-03     222.379E-03    -111.173E-03     15.4319E-03    -111.182E-03     221.472E-03    -111.123E-03     15.0980E-03
             673     1.61079E-03     92.1469E-03    -80.8061E+06    -227.556E+06    -75.1460E+06     41.8475E+03    -111.345E-03     222.523E-03    -111.178E-03     28.4024E-03    -111.350E-03     221.651E-03    -111.107E-03     27.7754E-03
             674     2.41611E-03     92.1864E-03    -77.4406E+06    -221.725E+06    -66.1852E+06     403.393E+03    -111.586E-03     222.792E-03    -111.205E-03     42.0030E-03    -111.643E-03     221.978E-03    -111.102E-03     41.0522E-03
             675     3.22153E-03     92.2411E-03    -73.1885E+06    -214.009E+06    -54.8705E+06     316.806E+03    -111.866E-03     223.105E-03    -111.239E-03     55.4583E-03    -112.001E-03     222.380E-03    -111.097E-03     54.1461E-03
             676     4.02691E-03     92.3107E-03    -68.1717E+06    -201.537E+06    -43.2438E+06     667.271E+03    -112.206E-03     223.466E-03    -111.260E-03     68.7873E-03    -112.451E-03     222.879E-03    -111.085E-03     67.0830E-03
             677     4.83223E-03     92.3952E-03    -62.6492E+06    -184.413E+06    -32.5642E+06     1.51343E+06    -112.618E-03     223.884E-03    -111.266E-03     81.9248E-03    -113.011E-03     223.495E-03    -111.071E-03     79.7875E-03
             678     5.63785E-03     92.4938E-03    -56.9394E+06    -172.725E+06    -22.9941E+06     1.29895E+06    -113.092E-03     224.367E-03    -111.275E-03     94.7600E-03    -113.668E-03     224.194E-03    -111.057E-03     92.1190E-03
             679     6.44313E-03     92.6067E-03    -52.3062E+06    -153.754E+06    -16.7021E+06     1.09717E+06    -113.554E-03     224.813E-03    -111.259E-03     107.439E-03    -114.378E-03     224.954E-03    -111.044E-03     104.236E-03
             680     7.24876E-03     92.7334E-03    -48.7433E+06    -140.381E+06    -11.2975E+06     1.26115E+06    -114.001E-03     225.246E-03    -111.245E-03     119.909E-03    -115.142E-03     225.748E-03    -111.027E-03     116.069E-03
             681     8.05453E-03     92.8733E-03    -45.0034E+06    -127.586E+06    -7.21239E+06     1.37440E+06    -114.462E-03     225.684E-03    -111.222E-03     132.450E-03    -116.009E-03     226.639E-03    -111.008E-03     127.891E-03
             682     8.85999E-03     93.0276E-03    -41.1109E+06    -99.3748E+06    -4.90910E+06     1.86034E+06    -114.915E-03     226.083E-03    -111.168E-03     145.123E-03    -117.013E-03     227.697E-03    -110.989E-03     139.749E-03
             683     9.66566E-03     93.1950E-03    -37.7017E+06    -68.2442E+06    -1.71657E+06     2.34905E+06    -115.264E-03     226.382E-03    -111.118E-03     157.802E-03    -118.091E-03     228.838E-03    -110.973E-03     151.498E-03
             684     10.4711E-03     93.3768E-03    -35.2491E+06    -21.3131E+06     3.64827E+06     2.54741E+06    -115.484E-03     226.540E-03    -111.056E-03     171.772E-03    -119.331E-03     230.176E-03    -110.956E-03     164.399E-03
             685     11.2771E-03     93.5748E-03    -32.6451E+06     39.6625E+06     10.3953E+06     2.73745E+06    -115.992E-03     226.974E-03    -110.983E-03     191.167E-03    -121.410E-03     232.387E-03    -110.941E-03     182.467E-03
             686     12.0822E-03     93.7987E-03    -29.3533E+06     80.8862E+06     30.5960E+06     2.40796E+06    -116.878E-03     227.878E-03    -111.000E-03     221.720E-03    -124.906E-03     236.000E-03    -110.921E-03     211.334E-03
             687     12.8890E-03     94.0632E-03    -23.3380E+06     98.2526E+06     65.6963E+06     1.56737E+06    -118.232E-03     229.338E-03    -111.106E-03     261.465E-03    -130.246E-03     241.428E-03    -110.886E-03     249.341E-03
             688     13.6953E-03     94.3769E-03    -16.9125E+06     120.897E+06     94.0679E+06     1.79770E+06    -118.219E-03     229.386E-03    -111.168E-03     283.823E-03    -134.027E-03     245.291E-03    -110.848E-03     271.506E-03
             689     14.4997E-03     94.6947E-03    -11.6379E+06     135.951E+06     104.697E+06     1.91977E+06    -113.978E-03     225.133E-03    -111.156E-03     260.560E-03    -130.490E-03     241.783E-03    -110.812E-03     251.157E-03
             690     15.3061E-03     94.9614E-03    -5.58930E+06     129.703E+06     100.857E+06     452.681E+03    -109.242E-03     220.331E-03    -111.089E-03     169.057E-03    -119.629E-03     230.866E-03    -110.764E-03     163.936E-03
             691     805.401E-06     93.3061E-03    -83.2338E+06    -231.903E+06    -81.6306E+06     211.475E+03    -111.243E-03     222.401E-03    -111.158E-03     15.3054E-03    -111.217E-03     221.494E-03    -111.109E-03     14.9742E-03
             692     1.61069E-03     93.3303E-03    -81.4478E+06    -228.081E+06    -75.3440E+06     254.778E+03    -111.401E-03     222.601E-03    -111.199E-03     28.3743E-03    -111.408E-03     221.727E-03    -111.127E-03     27.7505E-03
             693     2.41598E-03     93.3698E-03    -78.2153E+06    -222.106E+06    -66.4889E+06     392.336E+03    -111.640E-03     222.879E-03    -111.239E-03     41.9650E-03    -111.700E-03     222.066E-03    -111.136E-03     41.0127E-03
             694     3.22127E-03     93.4244E-03    -74.0141E+06    -213.951E+06    -55.0351E+06     473.242E+03    -111.891E-03     223.167E-03    -111.276E-03     55.4200E-03    -112.030E-03     222.443E-03    -111.134E-03     54.1087E-03
             695     4.02669E-03     93.4941E-03    -69.4652E+06    -202.675E+06    -44.8945E+06     652.864E+03    -112.205E-03     223.493E-03    -111.288E-03     68.7890E-03    -112.452E-03     222.905E-03    -111.118E-03     67.0836E-03
             696     4.83229E-03     93.5784E-03    -64.5631E+06    -184.632E+06    -35.6987E+06     359.590E+03    -112.597E-03     223.877E-03    -111.280E-03     81.9919E-03    -112.996E-03     223.494E-03    -111.097E-03     79.8411E-03
             697     5.63762E-03     93.6773E-03    -59.5244E+06    -172.563E+06    -25.1415E+06     116.478E+03    -113.071E-03     224.359E-03    -111.288E-03     94.8477E-03    -113.657E-03     224.194E-03    -111.077E-03     92.1922E-03
             698     6.44323E-03     93.7900E-03    -54.2804E+06    -154.973E+06    -17.2889E+06     640.164E+03    -113.545E-03     224.822E-03    -111.277E-03     107.518E-03    -114.377E-03     224.961E-03    -111.060E-03     104.308E-03
             699     7.24875E-03     93.9167E-03    -49.0516E+06    -140.312E+06    -11.3778E+06     1.20557E+06    -114.058E-03     225.319E-03    -111.261E-03     119.940E-03    -115.200E-03     225.823E-03    -111.044E-03     116.098E-03
             700     8.05404E-03     94.0568E-03    -44.9578E+06    -127.991E+06    -7.53556E+06     1.41824E+06    -114.526E-03     225.768E-03    -111.242E-03     132.365E-03    -116.073E-03     226.723E-03    -111.029E-03     127.799E-03
             701     8.85984E-03     94.2107E-03    -41.6989E+06    -100.907E+06    -6.05082E+06     1.70180E+06    -114.927E-03     226.116E-03    -111.189E-03     145.185E-03    -117.024E-03     227.724E-03    -111.012E-03     139.809E-03
             702     9.66524E-03     94.3788E-03    -38.6239E+06    -68.9678E+06    -2.98016E+06     2.22490E+06    -115.320E-03     226.457E-03    -111.137E-03     158.008E-03    -118.150E-03     228.914E-03    -110.996E-03     151.701E-03
             703     10.4710E-03     94.5600E-03    -35.4768E+06    -21.8608E+06     3.06421E+06     2.88134E+06    -115.558E-03     226.638E-03    -111.079E-03     172.032E-03    -119.413E-03     230.280E-03    -110.981E-03     164.651E-03
             704     11.2764E-03     94.7583E-03    -32.6136E+06     39.0493E+06     9.96472E+06     2.84836E+06    -115.729E-03     226.725E-03    -110.996E-03     191.405E-03    -121.140E-03     232.130E-03    -110.956E-03     182.733E-03
             705     12.0830E-03     94.9821E-03    -28.5783E+06     81.9541E+06     31.8058E+06     2.28393E+06    -116.616E-03     227.615E-03    -110.999E-03     221.516E-03    -124.621E-03     235.717E-03    -110.917E-03     211.167E-03
             706     12.8886E-03     95.2460E-03    -24.7864E+06     98.9373E+06     65.7559E+06     1.36925E+06    -118.280E-03     229.379E-03    -111.099E-03     260.996E-03    -130.297E-03     241.469E-03    -110.878E-03     248.856E-03
             707     13.6943E-03     95.5604E-03    -19.6776E+06     118.538E+06     92.0221E+06     1.09629E+06    -117.974E-03     229.125E-03    -111.151E-03     284.350E-03    -133.790E-03     245.025E-03    -110.835E-03     272.076E-03
             708     14.5009E-03     95.8797E-03    -10.5961E+06     137.408E+06     105.739E+06     1.47793E+06    -113.370E-03     224.487E-03    -111.116E-03     260.698E-03    -129.838E-03     241.098E-03    -110.771E-03     251.411E-03
             709     15.3102E-03     96.1399E-03    -4.00274E+06     132.368E+06     102.638E+06     711.788E+03    -109.457E-03     220.498E-03    -111.040E-03     169.068E-03    -119.823E-03     231.021E-03    -110.713E-03     163.946E-03
             710     805.237E-06     94.4893E-03    -83.9207E+06    -232.692E+06    -82.3534E+06     331.630E+03    -111.342E-03     222.539E-03    -111.196E-03     15.1791E-03    -111.317E-03     221.629E-03    -111.149E-03     14.8500E-03
             711     1.61062E-03     94.5137E-03    -81.8111E+06    -228.748E+06    -76.1825E+06     803.875E+03    -111.422E-03     222.679E-03    -111.257E-03     28.4186E-03    -111.428E-03     221.804E-03    -111.188E-03     27.8015E-03
             712     2.41590E-03     94.5533E-03    -78.8577E+06    -222.426E+06    -66.6254E+06     874.126E+03    -111.633E-03     222.915E-03    -111.282E-03     41.9631E-03    -111.695E-03     222.101E-03    -111.178E-03     41.0168E-03
             713     3.22127E-03     94.6079E-03    -74.8690E+06    -214.012E+06    -55.1517E+06     734.412E+03    -111.883E-03     223.190E-03    -111.307E-03     55.4416E-03    -112.026E-03     222.467E-03    -111.164E-03     54.1343E-03
             714     4.02665E-03     94.6774E-03    -69.4852E+06    -202.179E+06    -44.5973E+06     22.8469E+03    -112.215E-03     223.528E-03    -111.313E-03     68.8307E-03    -112.464E-03     222.943E-03    -111.142E-03     67.1154E-03
             715     4.83200E-03     94.7618E-03    -63.7408E+06    -184.464E+06    -35.3689E+06    -364.710E+03    -112.596E-03     223.897E-03    -111.301E-03     82.0368E-03    -112.991E-03     223.513E-03    -111.118E-03     79.8752E-03
             716     5.63764E-03     94.8607E-03    -58.7644E+06    -173.320E+06    -25.5540E+06     177.311E+03    -113.050E-03     224.351E-03    -111.301E-03     94.8855E-03    -113.630E-03     224.181E-03    -111.092E-03     92.2323E-03
             717     6.44307E-03     94.9734E-03    -54.5228E+06    -156.011E+06    -17.9806E+06     638.471E+03    -113.550E-03     224.837E-03    -111.286E-03     107.524E-03    -114.380E-03     224.972E-03    -111.071E-03     104.315E-03
             718     7.24856E-03     95.1002E-03    -50.7549E+06    -140.590E+06    -12.6081E+06     768.917E+03    -114.072E-03     225.341E-03    -111.269E-03     120.058E-03    -115.220E-03     225.847E-03    -111.055E-03     116.213E-03
             719     8.05415E-03     95.2403E-03    -46.6306E+06    -128.530E+06     -8.6725E+06     905.821E+03    -114.571E-03     225.823E-03    -111.252E-03     132.513E-03    -116.126E-03     226.782E-03    -111.042E-03     127.937E-03
             720     8.85948E-03     95.3940E-03    -42.5321E+06    -101.702E+06    -6.64514E+06     1.34422E+06    -114.957E-03     226.160E-03    -111.202E-03     145.337E-03    -117.058E-03     227.768E-03    -111.027E-03     139.954E-03
             721     9.66542E-03     95.5622E-03    -38.8059E+06    -70.2082E+06    -3.62013E+06     1.66091E+06    -115.284E-03     226.432E-03    -111.148E-03     158.239E-03    -118.114E-03     228.885E-03    -111.008E-03     151.927E-03
             722     10.4708E-03     95.7438E-03    -35.1284E+06    -23.5463E+06     2.61572E+06     2.17297E+06    -115.498E-03     226.583E-03    -111.084E-03     172.235E-03    -119.350E-03     230.219E-03    -110.986E-03     164.850E-03
             723     11.2766E-03     95.9418E-03    -31.5782E+06     39.3138E+06     10.4975E+06     2.85108E+06    -115.662E-03     226.658E-03    -110.997E-03     191.317E-03    -121.067E-03     232.061E-03    -110.955E-03     182.650E-03
             724     12.0826E-03     96.1642E-03    -28.6241E+06     81.9650E+06     31.5153E+06     3.09823E+06    -116.593E-03     227.585E-03    -110.992E-03     221.764E-03    -124.588E-03     235.679E-03    -110.912E-03     211.439E-03
             725     12.8886E-03     96.4311E-03    -24.1966E+06     100.837E+06     66.2866E+06     2.46974E+06    -118.135E-03     229.220E-03    -111.085E-03     261.567E-03    -130.174E-03     241.339E-03    -110.864E-03     249.460E-03
             726     13.6951E-03     96.7422E-03    -17.2710E+06     120.305E+06     93.7053E+06     1.03871E+06    -117.535E-03     228.657E-03    -111.122E-03     284.083E-03    -133.303E-03     244.519E-03    -110.803E-03     271.880E-03
             727     14.5033E-03     97.0619E-03    -11.4538E+06     135.882E+06     104.785E+06     442.832E+03    -113.821E-03     224.909E-03    -111.088E-03     259.796E-03    -130.242E-03     241.467E-03    -110.744E-03     250.450E-03
             728     15.3063E-03     97.3236E-03    -5.56430E+06     132.738E+06     101.973E+06     588.216E+03    -109.895E-03     220.937E-03    -111.042E-03     168.238E-03    -120.291E-03     231.489E-03    -110.716E-03     163.028E-03
             729     805.237E-06     95.6729E-03    -85.2191E+06    -233.891E+06    -83.5889E+06     509.505E+03    -111.408E-03     222.643E-03    -111.235E-03     15.2443E-03    -111.385E-03     221.731E-03    -111.190E-03     14.9150E-03
             730     1.61045E-03     95.6972E-03    -82.9979E+06    -229.747E+06    -77.3119E+06     708.862E+03    -111.446E-03     222.749E-03    -111.303E-03     28.4545E-03    -111.455E-03     221.873E-03    -111.236E-03     27.8351E-03
             731     2.41579E-03     95.7368E-03    -79.0787E+06    -222.944E+06    -67.3719E+06     907.174E+03    -111.590E-03     222.900E-03    -111.310E-03     41.9770E-03    -111.651E-03     222.085E-03    -111.209E-03     41.0308E-03
             732     3.22115E-03     95.7912E-03    -74.1428E+06    -213.465E+06    -54.6518E+06     549.781E+03    -111.854E-03     223.174E-03    -111.320E-03     55.4956E-03    -111.995E-03     222.452E-03    -111.176E-03     54.1860E-03
             733     4.02658E-03     95.8609E-03    -69.4175E+06    -200.872E+06    -43.5663E+06    -209.638E+03    -112.216E-03     223.539E-03    -111.323E-03     68.9375E-03    -112.469E-03     222.958E-03    -111.149E-03     67.2196E-03
             734     4.83207E-03     95.9451E-03    -65.0131E+06    -184.513E+06    -35.2474E+06    -595.886E+03    -112.614E-03     223.923E-03    -111.310E-03     82.1149E-03    -113.016E-03     223.542E-03    -111.124E-03     79.9491E-03
             735     5.63751E-03     96.0440E-03     -60.264E+06    -174.680E+06    -26.8834E+06     32.6932E+03    -113.071E-03     224.379E-03    -111.307E-03     94.9658E-03    -113.656E-03     224.207E-03    -111.101E-03     92.3107E-03
             736     6.44303E-03     96.1569E-03    -55.2287E+06    -156.323E+06    -19.0302E+06     536.506E+03    -113.554E-03     224.846E-03    -111.292E-03     107.611E-03    -114.385E-03     224.981E-03    -111.080E-03     104.402E-03
             737     7.24860E-03     96.2835E-03    -49.9762E+06    -140.878E+06    -12.1227E+06     612.778E+03    -114.033E-03     225.310E-03    -111.276E-03     120.102E-03    -115.178E-03     225.812E-03    -111.060E-03     116.257E-03
             738     8.05409E-03     96.4238E-03    -45.5467E+06    -129.161E+06    -8.26407E+06     745.708E+03    -114.547E-03     225.802E-03    -111.255E-03     132.591E-03    -116.096E-03     226.754E-03    -111.043E-03     128.017E-03
             739     8.85973E-03     96.5776E-03    -41.8018E+06    -101.798E+06    -6.38119E+06     704.486E+03    -114.997E-03     226.201E-03    -111.204E-03     145.375E-03    -117.097E-03     227.809E-03    -111.027E-03     139.980E-03
             740     9.66502E-03     96.7454E-03    -38.2754E+06    -71.0768E+06    -3.76619E+06     770.689E+03    -115.254E-03     226.401E-03    -111.148E-03     158.384E-03    -118.080E-03     228.851E-03    -111.008E-03     152.062E-03
             741     10.4710E-03     96.9274E-03    -35.0587E+06    -25.2969E+06     1.78858E+06     1.41367E+06    -115.346E-03     226.421E-03    -111.075E-03     172.333E-03    -119.189E-03     230.044E-03    -110.978E-03     164.955E-03
             742     11.2769E-03     97.1248E-03    -32.0050E+06     37.7331E+06     9.73690E+06     2.61883E+06    -115.632E-03     226.613E-03    -110.981E-03     191.382E-03    -121.036E-03     232.009E-03    -110.940E-03     182.716E-03
             743     12.0827E-03     97.3482E-03    -28.4238E+06     81.6008E+06     30.4333E+06     3.67694E+06    -116.537E-03     227.507E-03    -110.970E-03     221.927E-03    -124.539E-03     235.609E-03    -110.895E-03     211.604E-03
             744     12.8896E-03     97.6129E-03    -23.1018E+06     102.213E+06     65.9339E+06     2.75890E+06    -117.943E-03     228.998E-03    -111.056E-03     261.327E-03    -129.960E-03     241.106E-03    -110.841E-03     249.244E-03
             745     13.6960E-03     97.9266E-03    -17.8707E+06     121.509E+06     93.8109E+06     1.03624E+06    -117.871E-03     228.981E-03    -111.110E-03     282.879E-03    -133.626E-03     244.831E-03    -110.791E-03     270.621E-03
             746     14.5007E-03     98.2423E-03    -11.9435E+06     136.085E+06     105.204E+06     625.198E+03    -113.972E-03     225.070E-03    -111.098E-03     260.411E-03    -130.469E-03     241.703E-03    -110.752E-03     250.998E-03
             747     15.3080E-03     98.5122E-03     -5.4164E+06     133.532E+06     102.461E+06     488.282E+03    -109.728E-03     220.774E-03    -111.047E-03     169.551E-03    -120.178E-03     231.382E-03    -110.720E-03     164.355E-03
             748     805.281E-06     96.8566E-03    -85.6410E+06    -234.489E+06    -84.7460E+06    -42.4261E+03    -111.478E-03     222.666E-03    -111.187E-03     15.3748E-03    -111.456E-03     221.754E-03    -111.147E-03     15.0355E-03
             749     1.61045E-03     96.8808E-03    -83.2935E+06    -230.385E+06    -78.5077E+06     261.241E+03    -111.440E-03     222.749E-03    -111.308E-03     28.4114E-03    -111.449E-03     221.871E-03    -111.246E-03     27.7855E-03
             750     2.41580E-03     96.9201E-03     -79.856E+06    -223.110E+06    -67.8301E+06     85.4228E+03    -111.548E-03     222.857E-03    -111.308E-03     42.0368E-03    -111.613E-03     222.042E-03    -111.208E-03     41.0815E-03
             751     3.22127E-03     96.9747E-03    -74.9621E+06    -213.057E+06    -54.6934E+06    -108.338E+03    -111.831E-03     223.142E-03    -111.311E-03     55.6109E-03    -111.976E-03     222.424E-03    -111.167E-03     54.2941E-03
             752     4.02669E-03     97.0442E-03    -69.1062E+06    -199.939E+06    -43.0780E+06    -305.840E+03    -112.221E-03     223.535E-03    -111.314E-03     69.0018E-03    -112.474E-03     222.958E-03    -111.139E-03     67.2829E-03
             753     4.83210E-03     97.1287E-03    -63.3114E+06    -184.870E+06    -33.2480E+06    -54.1658E+03    -112.662E-03     223.975E-03    -111.314E-03     82.1177E-03    -113.058E-03     223.587E-03    -111.120E-03     79.9570E-03
             754     5.63754E-03     97.2273E-03    -58.5741E+06    -175.511E+06    -25.5134E+06     288.999E+03    -113.116E-03     224.431E-03    -111.315E-03     94.9513E-03    -113.693E-03     224.251E-03    -111.103E-03     92.2965E-03
             755     6.44301E-03     97.3403E-03    -54.1603E+06    -156.019E+06    -19.0438E+06     192.619E+03    -113.547E-03     224.840E-03    -111.293E-03     107.659E-03    -114.373E-03     224.976E-03    -111.084E-03     104.447E-03
             756     7.24849E-03     97.4670E-03    -50.0940E+06    -141.361E+06    -12.9653E+06     108.894E+03    -114.014E-03     225.288E-03    -111.274E-03     120.136E-03    -115.158E-03     225.790E-03    -111.061E-03     116.285E-03
             757     8.05413E-03     97.6071E-03    -45.9193E+06    -129.159E+06    -8.98915E+06    -94.1900E+03    -114.509E-03     225.758E-03    -111.249E-03     132.701E-03    -116.058E-03     226.711E-03    -111.040E-03     128.120E-03
             758     8.85961E-03     97.7612E-03    -41.5872E+06    -101.911E+06    -6.98940E+06    -209.235E+03    -114.951E-03     226.145E-03    -111.194E-03     145.471E-03    -117.048E-03     227.753E-03    -111.020E-03     140.068E-03
             759     9.66544E-03     97.9289E-03    -38.1875E+06    -71.9828E+06    -4.06871E+06     433.489E+03    -115.219E-03     226.357E-03    -111.137E-03     158.326E-03    -118.044E-03     228.802E-03    -110.998E-03     152.000E-03
             760     10.4712E-03     98.1104E-03    -35.8584E+06    -26.8883E+06     1.10144E+06     1.70924E+06    -115.271E-03     226.333E-03    -111.062E-03     172.229E-03    -119.111E-03     229.948E-03    -110.966E-03     164.861E-03
             761     11.2770E-03     98.3082E-03    -33.3990E+06     36.2367E+06     8.23798E+06     2.53649E+06    -115.552E-03     226.513E-03    -110.961E-03     191.327E-03    -120.955E-03     231.902E-03    -110.924E-03     182.669E-03
             762     12.0835E-03     98.5310E-03    -29.3543E+06     80.6582E+06     28.7678E+06     2.13827E+06    -116.571E-03     227.521E-03    -110.949E-03     221.514E-03    -124.581E-03     235.629E-03    -110.880E-03     211.153E-03
             763     12.8890E-03     98.7963E-03    -24.2294E+06     102.398E+06     64.7513E+06     1.96736E+06    -118.229E-03     229.280E-03    -111.051E-03     260.805E-03    -130.234E-03     241.375E-03    -110.841E-03     248.677E-03
             764     13.6950E-03     99.1086E-03    -17.3212E+06     123.520E+06     94.8951E+06     1.79906E+06    -118.136E-03     229.266E-03    -111.130E-03     282.912E-03    -133.925E-03     245.157E-03    -110.810E-03     270.618E-03
             765     14.5015E-03     99.4285E-03    -10.6895E+06     136.794E+06     106.095E+06     1.17130E+06    -113.644E-03     224.764E-03    -111.120E-03     259.355E-03    -130.120E-03     241.380E-03    -110.773E-03     249.975E-03
             766     15.3091E-03     99.6893E-03    -5.35168E+06     133.834E+06     102.641E+06     750.485E+03    -109.316E-03     220.368E-03    -111.053E-03     169.046E-03    -119.707E-03     230.918E-03    -110.726E-03     163.909E-03
             767     805.173E-06     98.0403E-03    -85.6117E+06    -233.958E+06    -84.1099E+06    -353.470E+03    -111.457E-03     222.565E-03    -111.109E-03     15.4909E-03    -111.436E-03     221.655E-03    -111.066E-03     15.1475E-03
             768     1.61051E-03     98.0643E-03    -83.4353E+06    -230.207E+06    -78.5816E+06    -620.966E+03    -111.398E-03     222.657E-03    -111.259E-03     28.4454E-03    -111.407E-03     221.780E-03    -111.197E-03     27.8093E-03
             769     2.41591E-03     98.1035E-03    -79.5836E+06    -222.982E+06    -68.2002E+06    -591.464E+03    -111.566E-03     222.834E-03    -111.268E-03     42.0567E-03    -111.629E-03     222.021E-03    -111.170E-03     41.0941E-03
             770     3.22130E-03     98.1580E-03    -74.7364E+06    -212.766E+06    -55.0980E+06    -609.625E+03    -111.865E-03     223.151E-03    -111.286E-03     55.6746E-03    -112.010E-03     222.435E-03    -111.145E-03     54.3506E-03
             771     4.02671E-03     98.2277E-03    -69.7577E+06    -199.565E+06    -43.8240E+06    -705.398E+03    -112.264E-03     223.564E-03    -111.300E-03     69.0082E-03    -112.520E-03     222.991E-03    -111.129E-03     67.2828E-03
             772     4.83211E-03     98.3121E-03    -64.9722E+06    -185.533E+06    -34.6613E+06    -585.597E+03    -112.678E-03     223.986E-03    -111.307E-03     82.1100E-03    -113.080E-03     223.598E-03    -111.117E-03     79.9427E-03
             773     5.63750E-03     98.4110E-03    -59.4175E+06    -175.741E+06    -26.2478E+06    -376.257E+03    -113.112E-03     224.425E-03    -111.313E-03     94.9267E-03    -113.692E-03     224.246E-03    -111.103E-03     92.2628E-03
             774     6.44298E-03     98.5235E-03    -54.0158E+06    -156.022E+06    -19.9179E+06    -152.346E+03    -113.533E-03     224.820E-03    -111.287E-03     107.664E-03    -114.357E-03     224.957E-03    -111.082E-03     104.448E-03
             775     7.24866E-03     98.6505E-03    -49.3661E+06    -141.475E+06    -13.6825E+06     106.857E+03    -114.000E-03     225.266E-03    -111.266E-03     120.166E-03    -115.138E-03     225.767E-03    -111.058E-03     116.315E-03
             776     8.05414E-03     98.7904E-03    -45.3994E+06    -128.064E+06    -9.07493E+06    -371.657E+03    -114.469E-03     225.709E-03    -111.240E-03     132.721E-03    -116.016E-03     226.667E-03    -111.034E-03     128.138E-03
             777     8.85989E-03     98.9447E-03    -42.4099E+06    -102.480E+06    -7.79738E+06    -796.862E+03    -114.874E-03     226.055E-03    -111.181E-03     145.537E-03    -116.973E-03     227.662E-03    -111.009E-03     140.131E-03
             778     9.66538E-03     99.1121E-03    -39.9447E+06    -74.5052E+06    -5.69862E+06     444.063E+03    -115.198E-03     226.320E-03    -111.121E-03     158.272E-03    -118.026E-03     228.758E-03    -110.984E-03     151.946E-03
             779     10.4711E-03     99.2938E-03    -37.2975E+06    -28.1456E+06    -271.433E+03     1.90838E+06    -115.321E-03     226.370E-03    -111.049E-03     172.004E-03    -119.166E-03     229.983E-03    -110.955E-03     164.634E-03
             780     11.2774E-03     99.4907E-03    -33.5145E+06     36.1017E+06     6.52455E+06     1.70141E+06    -115.643E-03     226.592E-03    -110.949E-03     191.152E-03    -121.046E-03     231.986E-03    -110.920E-03     182.469E-03
             781     12.0828E-03     99.7149E-03    -29.4540E+06     80.9882E+06     28.3316E+06     828.544E+03    -116.675E-03     227.627E-03    -110.952E-03     221.293E-03    -124.685E-03     235.738E-03    -110.885E-03     210.900E-03
             782     12.8893E-03     99.9789E-03    -24.2550E+06     102.785E+06     65.4998E+06     932.968E+03    -118.346E-03     229.413E-03    -111.066E-03     261.007E-03    -130.355E-03     241.511E-03    -110.853E-03     248.860E-03
             783     13.6948E-03     100.294E-03    -17.8568E+06     122.253E+06     93.4634E+06     1.54309E+06    -118.014E-03     229.148E-03    -111.133E-03     283.490E-03    -133.810E-03     245.043E-03    -110.817E-03     271.215E-03
             784     14.5007E-03     100.609E-03    -11.5771E+06     137.034E+06     105.633E+06     1.70847E+06    -114.101E-03     225.232E-03    -111.131E-03     259.697E-03    -130.583E-03     241.853E-03    -110.785E-03     250.282E-03
             785     15.3052E-03     100.874E-03    -5.51765E+06     135.520E+06     103.575E+06     814.349E+03    -109.347E-03     220.425E-03    -111.078E-03     169.270E-03    -119.753E-03     230.992E-03    -110.749E-03     164.117E-03
             786     805.437E-06     99.2234E-03    -85.5774E+06    -233.387E+06    -83.5710E+06    -67.9080E+03    -111.308E-03     222.315E-03    -111.007E-03     15.5066E-03    -111.288E-03     221.406E-03    -110.962E-03     15.1680E-03
             787     1.61079E-03     99.2479E-03    -83.4660E+06    -229.183E+06    -77.0157E+06    -513.700E+03    -111.383E-03     222.544E-03    -111.162E-03     28.5433E-03    -111.395E-03     221.671E-03    -111.093E-03     27.9093E-03
             788     2.41605E-03     99.2867E-03    -80.3174E+06    -222.633E+06    -67.9022E+06    -802.991E+03    -111.652E-03     222.865E-03    -111.213E-03     42.0722E-03    -111.720E-03     222.054E-03    -111.114E-03     41.1056E-03
             789     3.22142E-03     99.3415E-03    -76.0256E+06    -212.401E+06    -56.9755E+06    -888.742E+03    -111.949E-03     223.208E-03    -111.259E-03     55.6823E-03    -112.097E-03     222.498E-03    -111.126E-03     54.3540E-03
             790     4.02672E-03     99.4111E-03    -70.7808E+06    -199.256E+06    -46.0138E+06    -973.239E+03    -112.291E-03     223.579E-03    -111.288E-03     69.0006E-03    -112.549E-03     223.012E-03    -111.127E-03     67.2727E-03
             791     4.83206E-03     99.4956E-03    -65.1713E+06    -185.055E+06    -35.7213E+06    -1.36948E+06    -112.667E-03     223.969E-03    -111.302E-03     82.0995E-03    -113.069E-03     223.586E-03    -111.118E-03     79.9222E-03
             792     5.63756E-03     99.5942E-03    -59.7559E+06    -175.808E+06    -27.4353E+06    -1.69138E+06    -113.096E-03     224.402E-03    -111.306E-03     94.9175E-03    -113.676E-03     224.225E-03    -111.101E-03     92.2363E-03
             793     6.44306E-03     99.7071E-03    -54.6631E+06    -156.441E+06    -20.9724E+06    -1.39781E+06    -113.530E-03     224.812E-03    -111.282E-03     107.608E-03    -114.356E-03     224.949E-03    -111.080E-03     104.373E-03
             794     7.24856E-03     99.8336E-03    -49.5671E+06    -142.160E+06    -14.8572E+06     -934.27E+03    -113.979E-03     225.238E-03    -111.259E-03     120.140E-03    -115.116E-03     225.737E-03    -111.055E-03     116.276E-03
             795     8.05422E-03     99.9741E-03    -45.0011E+06    -127.391E+06    -9.86246E+06    -508.815E+03    -114.441E-03     225.671E-03    -111.230E-03     132.649E-03    -115.985E-03     226.632E-03    -111.029E-03     128.065E-03
             796     8.85986E-03     100.128E-03    -41.6380E+06    -103.291E+06    -7.07949E+06    -66.8707E+03    -114.813E-03     225.989E-03    -111.176E-03     145.394E-03    -116.907E-03     227.590E-03    -111.002E-03     139.997E-03
             797     9.66573E-03     100.296E-03    -38.5996E+06    -76.8410E+06    -5.63175E+06     678.482E+03    -115.149E-03     226.260E-03    -111.111E-03     158.257E-03    -117.963E-03     228.681E-03    -110.972E-03     151.943E-03
             798     10.4715E-03     100.477E-03    -34.5033E+06    -28.6307E+06    -363.878E+03     1.03815E+06    -115.423E-03     226.458E-03    -111.035E-03     172.046E-03    -119.256E-03     230.068E-03    -110.945E-03     164.657E-03
             799     11.2767E-03     100.675E-03    -31.1988E+06     35.7107E+06     6.88706E+06     1.32747E+06    -115.780E-03     226.726E-03    -110.946E-03     191.378E-03    -121.185E-03     232.127E-03    -110.918E-03     182.668E-03
             800     12.0832E-03     100.898E-03    -28.2291E+06     82.6386E+06     28.4895E+06     1.51717E+06    -116.670E-03     227.618E-03    -110.948E-03     221.703E-03    -124.673E-03     235.732E-03    -110.885E-03     211.333E-03
             801     12.8885E-03     101.163E-03    -23.9030E+06     102.522E+06     64.7403E+06     994.378E+03    -118.104E-03     229.153E-03    -111.049E-03     261.651E-03    -130.119E-03     241.260E-03    -110.840E-03     249.536E-03
             802     13.6955E-03     101.476E-03    -18.0901E+06     120.352E+06     92.6320E+06     1.00801E+06    -117.891E-03     228.994E-03    -111.103E-03     284.219E-03    -133.678E-03     244.875E-03    -110.788E-03     271.958E-03
             803     14.5021E-03     101.794E-03    -10.6029E+06     137.353E+06     105.925E+06     1.47719E+06    -114.151E-03     225.244E-03    -111.093E-03     261.251E-03    -130.717E-03     241.952E-03    -110.747E-03     251.824E-03
             804     15.3086E-03     102.059E-03    -4.11256E+06     136.899E+06     104.175E+06     1.50218E+06    -109.626E-03     220.670E-03    -111.044E-03     169.182E-03    -120.091E-03     231.305E-03    -110.716E-03     164.006E-03
             805     805.489E-06     100.407E-03    -85.1669E+06    -233.007E+06    -83.8479E+06    -281.790E+03    -111.175E-03     222.225E-03    -111.050E-03     15.3561E-03    -111.153E-03     221.318E-03    -111.008E-03     15.0159E-03
             806     1.61091E-03     100.431E-03    -82.9037E+06    -228.741E+06    -76.9992E+06    -75.8979E+03    -111.371E-03     222.494E-03    -111.123E-03     28.3993E-03    -111.382E-03     221.622E-03    -111.056E-03     27.7724E-03
             807     2.41622E-03     100.470E-03    -79.5354E+06    -222.185E+06    -67.3538E+06    -54.7354E+03    -111.687E-03     222.879E-03    -111.193E-03     41.9980E-03    -111.752E-03     222.069E-03    -111.092E-03     41.0407E-03
             808     3.22132E-03     100.525E-03    -75.4461E+06    -211.205E+06    -57.8101E+06    -768.799E+03    -111.997E-03     223.244E-03    -111.247E-03     55.6360E-03    -112.143E-03     222.540E-03    -111.120E-03     54.3082E-03
             809     4.02667E-03     100.595E-03    -70.5510E+06    -197.844E+06    -47.5733E+06    -1.99073E+06    -112.293E-03     223.572E-03    -111.279E-03     69.0119E-03    -112.550E-03     223.014E-03    -111.128E-03     67.2700E-03
             810     4.83211E-03     100.679E-03    -65.0335E+06    -184.430E+06    -37.0820E+06    -2.43237E+06    -112.656E-03     223.950E-03    -111.294E-03     82.0848E-03    -113.056E-03     223.572E-03    -111.117E-03     79.8927E-03
             811     5.63753E-03     100.778E-03    -59.9440E+06    -175.401E+06    -28.4165E+06    -2.30035E+06    -113.089E-03     224.388E-03    -111.299E-03     94.8900E-03    -113.669E-03     224.215E-03    -111.100E-03     92.2002E-03
             812     6.44300E-03     100.890E-03    -55.5273E+06    -156.850E+06    -22.3759E+06    -2.16026E+06    -113.523E-03     224.797E-03    -111.275E-03     107.592E-03    -114.350E-03     224.936E-03    -111.079E-03     104.347E-03
             813     7.24863E-03     101.017E-03    -51.3154E+06    -141.737E+06    -16.7021E+06    -2.50197E+06    -113.973E-03     225.223E-03    -111.250E-03     120.127E-03    -115.116E-03     225.730E-03    -111.054E-03     116.242E-03
             814     8.05424E-03     101.157E-03    -46.6589E+06    -128.519E+06    -12.4335E+06    -2.51128E+06    -114.416E-03     225.635E-03    -111.219E-03     132.655E-03    -115.963E-03     226.596E-03    -111.027E-03     128.048E-03
             815     8.85983E-03     101.311E-03    -41.6361E+06    -104.840E+06    -8.94246E+06    -1.24149E+06    -114.785E-03     225.951E-03    -111.165E-03     145.339E-03    -116.874E-03     227.545E-03    -110.998E-03     139.930E-03
             816     9.66563E-03     101.478E-03    -36.7319E+06    -76.7988E+06    -5.64860E+06    -919.793E+03    -115.073E-03     226.172E-03    -111.100E-03     158.283E-03    -117.873E-03     228.586E-03    -110.963E-03     151.960E-03
             817     10.4714E-03     101.661E-03    -33.1241E+06    -31.5872E+06    -1.86755E+06    -227.455E+03    -115.295E-03     226.307E-03    -111.011E-03     172.365E-03    -119.115E-03     229.902E-03    -110.927E-03     164.969E-03
             818     11.2776E-03     101.857E-03    -30.7515E+06     34.0973E+06     5.24396E+06     2.06571E+06    -115.740E-03     226.653E-03    -110.913E-03     191.836E-03    -121.138E-03     232.048E-03    -110.891E-03     183.148E-03
             819     12.0830E-03     102.082E-03    -28.4961E+06     83.3633E+06     26.6576E+06     2.82674E+06    -116.559E-03     227.465E-03    -110.905E-03     221.987E-03    -124.563E-03     235.586E-03    -110.852E-03     211.650E-03
             820     12.8902E-03     102.345E-03    -24.7539E+06     103.678E+06     63.8501E+06     1.23120E+06    -118.087E-03     229.095E-03    -111.009E-03     261.667E-03    -130.119E-03     241.222E-03    -110.804E-03     249.541E-03
             821     13.6963E-03     102.660E-03    -18.8578E+06     120.731E+06     93.1226E+06    -173.632E+03    -117.883E-03     228.957E-03    -111.074E-03     283.659E-03    -133.644E-03     244.809E-03    -110.756E-03     271.387E-03
             822     14.5022E-03     102.977E-03    -13.0326E+06     135.679E+06     104.884E+06     630.388E+03    -113.633E-03     224.685E-03    -111.052E-03     260.684E-03    -130.131E-03     241.314E-03    -110.706E-03     251.350E-03
             823     15.3084E-03     103.242E-03    -6.89003E+06     137.543E+06     103.410E+06     1.13380E+06    -109.773E-03     220.767E-03    -110.995E-03     168.666E-03    -120.185E-03     231.343E-03    -110.667E-03     163.499E-03
             824     805.308E-06     101.590E-03    -84.9988E+06    -232.381E+06    -82.9596E+06    -40.4597E+03    -111.152E-03     222.380E-03    -111.229E-03     15.4743E-03    -111.132E-03     221.475E-03    -111.183E-03     15.1357E-03
             825     1.61063E-03     101.614E-03    -82.8472E+06    -228.691E+06    -77.2032E+06    -229.698E+03    -111.378E-03     222.563E-03    -111.184E-03     28.4153E-03    -111.389E-03     221.691E-03    -111.119E-03     27.7859E-03
             826     2.41600E-03     101.654E-03    -79.1123E+06    -221.861E+06    -68.8139E+06    -476.148E+03    -111.629E-03     222.846E-03    -111.217E-03     42.0436E-03    -111.691E-03     222.039E-03    -111.125E-03     41.0815E-03
             827     3.22142E-03     101.709E-03    -74.8033E+06    -209.660E+06    -58.0612E+06    -834.729E+03    -111.944E-03     223.196E-03    -111.252E-03     55.6105E-03    -112.089E-03     222.500E-03    -111.130E-03     54.2822E-03
             828     4.02672E-03     101.778E-03    -70.7202E+06    -195.350E+06    -47.6970E+06    -1.81206E+06    -112.282E-03     223.558E-03    -111.276E-03     68.9743E-03    -112.543E-03     223.012E-03    -111.128E-03     67.2354E-03
             829     4.83207E-03     101.863E-03    -66.6565E+06    -183.310E+06    -38.6839E+06    -2.98281E+06    -112.650E-03     223.937E-03    -111.287E-03     82.0435E-03    -113.057E-03     223.568E-03    -111.118E-03     79.8457E-03
             830     5.63756E-03     101.961E-03    -61.9600E+06    -175.318E+06    -30.0957E+06    -3.13533E+06    -113.073E-03     224.367E-03    -111.294E-03     94.8589E-03    -113.660E-03     224.199E-03    -111.100E-03     92.1599E-03
             831     6.44308E-03     102.074E-03    -56.5912E+06    -156.171E+06    -23.2297E+06    -3.14986E+06    -113.501E-03     224.771E-03    -111.270E-03     107.538E-03    -114.334E-03     224.916E-03    -111.078E-03     104.280E-03
             832     7.24865E-03     102.200E-03    -51.4088E+06    -140.410E+06    -17.6128E+06    -3.79892E+06    -113.922E-03     225.162E-03    -111.240E-03     120.122E-03    -115.066E-03     225.676E-03    -111.050E-03     116.223E-03
             833     8.05414E-03     102.341E-03    -47.0670E+06    -129.200E+06    -14.2028E+06    -4.30648E+06    -114.335E-03     225.536E-03    -111.201E-03     132.762E-03    -115.880E-03     226.496E-03    -111.017E-03     128.138E-03
             834     8.86010E-03     102.494E-03    -42.5075E+06    -105.780E+06    -12.0247E+06    -4.57836E+06    -114.750E-03     225.886E-03    -111.136E-03     145.606E-03    -116.835E-03     227.479E-03    -110.981E-03     140.165E-03
             835     9.66568E-03     102.662E-03    -38.2616E+06    -78.0520E+06    -8.43859E+06    -3.56026E+06    -115.010E-03     226.080E-03    -111.069E-03     158.462E-03    -117.814E-03     228.495E-03    -110.943E-03     152.108E-03
             836     10.4720E-03     102.843E-03    -35.3556E+06    -35.7337E+06    -3.58577E+06    -827.302E+03    -115.184E-03     226.169E-03    -110.985E-03     172.554E-03    -119.005E-03     229.748E-03    -110.900E-03     165.161E-03
             837     11.2778E-03     103.042E-03    -32.9081E+06     30.9364E+06     2.47883E+06     1.84957E+06    -115.548E-03     226.419E-03    -110.870E-03     191.792E-03    -120.932E-03     231.788E-03    -110.855E-03     183.134E-03
             838     12.0844E-03     103.264E-03    -29.1695E+06     83.4189E+06     24.2332E+06     2.52478E+06    -116.543E-03     227.397E-03    -110.854E-03     221.653E-03    -124.551E-03     235.528E-03    -110.812E-03     211.301E-03
             839     12.8899E-03     103.528E-03    -24.2310E+06     106.013E+06     63.0810E+06     2.01424E+06    -118.293E-03     229.264E-03    -110.972E-03     261.495E-03    -130.326E-03     241.405E-03    -110.775E-03     249.348E-03
             840     13.6954E-03     103.843E-03    -19.5577E+06     122.218E+06     92.9821E+06     1.00930E+06    -117.916E-03     228.968E-03    -111.053E-03     283.529E-03    -133.662E-03     244.809E-03    -110.736E-03     271.292E-03
             841     14.5024E-03     104.159E-03    -13.9707E+06     135.076E+06     104.660E+06    -157.879E+03    -113.876E-03     224.919E-03    -111.043E-03     260.439E-03    -130.357E-03     241.527E-03    -110.695E-03     251.072E-03
             842     15.3099E-03     104.426E-03    -7.02057E+06     137.236E+06     103.306E+06    -211.845E+03    -109.861E-03     220.856E-03    -110.995E-03     168.354E-03    -120.268E-03     231.426E-03    -110.667E-03     163.151E-03
             843     805.322E-06     102.773E-03    -84.7993E+06    -232.135E+06    -83.2695E+06    -68.2559E+03    -111.274E-03     222.520E-03    -111.246E-03     15.5870E-03    -111.253E-03     221.616E-03    -111.203E-03     15.2447E-03
             844     1.61063E-03     102.797E-03    -82.1206E+06    -227.758E+06    -76.6975E+06    -403.996E+03    -111.403E-03     222.648E-03    -111.245E-03     28.5124E-03    -111.412E-03     221.779E-03    -111.179E-03     27.8796E-03
             845     2.41593E-03     102.837E-03    -79.0715E+06    -221.196E+06    -68.5798E+06    -1.07309E+06    -111.610E-03     222.868E-03    -111.258E-03     42.1254E-03    -111.673E-03     222.064E-03    -111.165E-03     41.1560E-03
             846     3.22127E-03     102.892E-03    -75.1211E+06    -208.964E+06    -58.4286E+06    -1.27158E+06    -111.903E-03     223.175E-03    -111.272E-03     55.6154E-03    -112.050E-03     222.483E-03    -111.152E-03     54.2832E-03
             847     4.02667E-03     102.962E-03    -69.8511E+06    -192.685E+06    -46.6697E+06    -2.04081E+06    -112.249E-03     223.536E-03    -111.287E-03     68.8866E-03    -112.511E-03     223.001E-03    -111.140E-03     67.1458E-03
             848     4.83210E-03     103.046E-03    -64.3024E+06     -181.65E+06    -36.5749E+06    -2.89161E+06    -112.627E-03     223.923E-03    -111.296E-03     81.9544E-03    -113.027E-03     223.556E-03    -111.123E-03     79.7586E-03
             849     5.63751E-03     103.145E-03    -59.3365E+06    -174.460E+06    -28.9083E+06    -3.39624E+06    -113.049E-03     224.344E-03    -111.295E-03     94.8373E-03    -113.626E-03     224.175E-03    -111.100E-03     92.1366E-03
             850     6.44301E-03     103.257E-03    -54.7848E+06    -154.562E+06    -23.4041E+06    -4.24089E+06    -113.440E-03     224.697E-03    -111.258E-03     107.591E-03    -114.264E-03     224.847E-03    -111.071E-03     104.324E-03
             851     7.24860E-03     103.384E-03    -50.6921E+06    -139.456E+06    -18.4290E+06    -4.63031E+06    -113.810E-03     225.027E-03    -111.217E-03     120.196E-03    -114.950E-03     225.545E-03    -111.033E-03     116.292E-03
             852     8.05467E-03     103.523E-03    -46.2629E+06    -126.802E+06    -13.7325E+06    -5.75841E+06    -114.248E-03     225.421E-03    -111.173E-03     132.872E-03    -115.791E-03     226.390E-03    -110.991E-03     128.237E-03
             853     8.86022E-03     103.678E-03    -42.2170E+06    -105.363E+06    -11.8877E+06    -6.77809E+06    -114.672E-03     225.776E-03    -111.104E-03     145.704E-03    -116.754E-03     227.369E-03    -110.949E-03     140.242E-03
             854     9.66642E-03     103.845E-03    -39.1298E+06    -82.2735E+06    -9.95277E+06    -4.84877E+06    -115.011E-03     226.048E-03    -111.037E-03     158.397E-03    -117.813E-03     228.448E-03    -110.910E-03     152.020E-03
             855     10.4720E-03     104.026E-03    -35.8848E+06    -40.2320E+06    -4.65415E+06    -1.44765E+06    -115.220E-03     226.179E-03    -110.959E-03     172.495E-03    -119.034E-03     229.737E-03    -110.872E-03     165.095E-03
             856     11.2781E-03     104.224E-03    -32.1843E+06     27.9486E+06     2.40059E+06     739.468E+03    -115.467E-03     226.312E-03    -110.845E-03     191.720E-03    -120.837E-03     231.660E-03    -110.827E-03     183.060E-03
             857     12.0842E-03     104.447E-03    -28.6255E+06     82.5693E+06     24.3812E+06     1.98335E+06    -116.594E-03     227.421E-03    -110.827E-03     222.019E-03    -124.606E-03     235.553E-03    -110.783E-03     211.655E-03
             858     12.8902E-03     104.713E-03    -24.3780E+06     106.807E+06     61.7285E+06     2.48813E+06    -118.200E-03     229.133E-03    -110.933E-03     261.700E-03    -130.235E-03     241.281E-03    -110.744E-03     249.579E-03
             859     13.6973E-03     105.025E-03    -17.4156E+06     123.893E+06     92.5390E+06     2.02355E+06    -118.151E-03     229.171E-03    -111.019E-03     283.588E-03    -133.916E-03     245.045E-03    -110.711E-03     271.308E-03
             860     14.5030E-03     105.343E-03    -10.3466E+06     136.366E+06     106.049E+06     811.434E+03    -114.193E-03     225.228E-03    -111.035E-03     260.364E-03    -130.715E-03     241.891E-03    -110.688E-03     250.929E-03
             861     15.3062E-03     105.609E-03    -4.82122E+06     137.465E+06     104.087E+06     14.1597E+03    -109.122E-03     220.102E-03    -110.979E-03     169.794E-03    -119.585E-03     230.733E-03    -110.651E-03     164.617E-03
             862     805.196E-06     103.956E-03    -84.8372E+06    -230.757E+06    -83.4892E+06    -783.244E+03    -111.367E-03     222.584E-03    -111.218E-03     15.5355E-03    -111.347E-03     221.688E-03    -111.177E-03     15.1848E-03
             863     1.61051E-03     103.981E-03    -82.0566E+06    -226.408E+06    -76.2259E+06    -1.39616E+06    -111.437E-03     222.717E-03    -111.280E-03     28.5209E-03    -111.449E-03     221.855E-03    -111.214E-03     27.8741E-03
             864     2.41586E-03     104.020E-03    -77.8315E+06    -220.556E+06    -67.0374E+06    -1.46353E+06    -111.638E-03     222.935E-03    -111.297E-03     42.1010E-03    -111.697E-03     222.129E-03    -111.199E-03     41.1242E-03
             865     3.22120E-03     104.075E-03    -73.4018E+06    -207.812E+06    -57.8962E+06    -1.94843E+06    -111.897E-03     223.195E-03    -111.298E-03     55.6518E-03    -112.038E-03     222.505E-03    -111.180E-03     54.3104E-03
             866     4.02655E-03     104.145E-03    -68.9324E+06    -190.249E+06     -47.982E+06    -3.01283E+06    -112.191E-03     223.481E-03    -111.290E-03     68.9318E-03    -112.450E-03     222.959E-03    -111.154E-03     67.1805E-03
             867     4.83200E-03     104.229E-03    -64.0871E+06    -180.178E+06    -37.8034E+06    -3.79801E+06    -112.551E-03     223.839E-03    -111.288E-03     81.9963E-03    -112.950E-03     223.481E-03    -111.123E-03     79.7917E-03
             868     5.63757E-03     104.328E-03     -58.888E+06    -172.675E+06    -29.1652E+06    -4.37307E+06    -112.942E-03     224.219E-03    -111.277E-03     94.9404E-03    -113.518E-03     224.057E-03    -111.087E-03     92.2332E-03
             869     6.44320E-03     104.440E-03    -54.1206E+06    -152.607E+06    -23.5913E+06    -5.22158E+06    -113.322E-03     224.549E-03    -111.226E-03     107.707E-03    -114.145E-03     224.706E-03    -111.044E-03     104.434E-03
             870     7.24913E-03     104.566E-03    -49.1616E+06    -138.195E+06    -17.9635E+06    -5.98217E+06    -113.764E-03     224.946E-03    -111.181E-03     120.242E-03    -114.898E-03     225.466E-03    -110.999E-03     116.325E-03
             871     8.05461E-03     104.707E-03    -44.8928E+06    -123.638E+06    -12.6280E+06     -6.4447E+06    -114.206E-03     225.343E-03    -111.137E-03     132.883E-03    -115.747E-03     226.322E-03    -110.955E-03     128.245E-03
             872     8.86079E-03     104.860E-03    -42.2317E+06    -104.626E+06    -9.96798E+06    -6.62605E+06    -114.601E-03     225.676E-03    -111.075E-03     145.695E-03    -116.685E-03     227.268E-03    -110.912E-03     140.240E-03
             873     9.66635E-03     105.028E-03    -39.4076E+06    -85.6367E+06    -10.1115E+06    -5.91863E+06    -114.975E-03     225.976E-03    -111.001E-03     158.632E-03    -117.773E-03     228.360E-03    -110.871E-03     152.248E-03
             874     10.4724E-03     105.209E-03    -34.9021E+06    -43.9046E+06    -6.53605E+06    -4.57219E+06    -115.185E-03     226.096E-03    -110.911E-03     172.807E-03    -118.985E-03     229.636E-03    -110.830E-03     165.376E-03
             875     11.2785E-03     105.407E-03    -29.5618E+06     22.4748E+06     996.705E+03    -1.42444E+06    -115.540E-03     226.341E-03    -110.801E-03     192.191E-03    -120.899E-03     231.672E-03    -110.786E-03     183.494E-03
             876     12.0848E-03     105.630E-03    -25.6455E+06     79.1678E+06     22.7987E+06     3.08444E+06    -116.639E-03     227.418E-03    -110.779E-03     222.673E-03    -124.632E-03     235.535E-03    -110.742E-03     212.333E-03
             877     12.8911E-03     105.896E-03    -22.1996E+06     108.553E+06     61.9309E+06     3.94203E+06    -118.140E-03     229.027E-03    -110.887E-03     261.530E-03    -130.156E-03     241.170E-03    -110.703E-03     249.450E-03
             878     13.6966E-03     106.208E-03    -17.5279E+06     125.424E+06     92.4562E+06     1.84959E+06    -118.112E-03     229.082E-03    -110.970E-03     284.814E-03    -133.902E-03     244.987E-03    -110.664E-03     272.543E-03
             879     14.5013E-03     106.529E-03    -9.91519E+06     137.523E+06     106.471E+06     940.580E+03    -113.950E-03     224.920E-03    -110.970E-03     261.903E-03    -130.449E-03     241.563E-03    -110.623E-03     252.527E-03
             880     15.3121E-03     106.788E-03    -3.64374E+06     138.621E+06     105.493E+06     935.983E+03    -108.786E-03     219.684E-03    -110.897E-03     169.498E-03    -119.187E-03     230.258E-03    -110.565E-03     164.390E-03
             881     805.344E-06     105.140E-03    -84.3095E+06    -227.646E+06    -82.6348E+06    -1.53295E+06    -111.323E-03     222.654E-03    -111.331E-03     15.4690E-03    -111.307E-03     221.771E-03    -111.292E-03     15.1093E-03
             882     1.61050E-03     105.165E-03    -81.4971E+06    -224.141E+06     -75.683E+06    -2.36160E+06    -111.464E-03     222.778E-03    -111.314E-03     28.5056E-03    -111.477E-03     221.925E-03    -111.249E-03     27.8441E-03
             883     2.41574E-03     105.204E-03    -77.5689E+06    -219.467E+06    -67.5074E+06    -2.84250E+06    -111.636E-03     222.957E-03    -111.321E-03     42.1162E-03    -111.695E-03     222.157E-03    -111.228E-03     41.1205E-03
             884     3.22108E-03     105.259E-03    -73.0132E+06    -205.834E+06    -58.7102E+06    -3.27022E+06    -111.830E-03     223.134E-03    -111.304E-03     55.6941E-03    -111.971E-03     222.455E-03    -111.193E-03     54.3373E-03
             885     4.02660E-03     105.329E-03    -68.1701E+06    -187.711E+06    -49.3252E+06    -4.17130E+06    -112.092E-03     223.364E-03    -111.272E-03     69.0367E-03    -112.348E-03     222.855E-03    -111.147E-03     67.2751E-03
             886     4.83216E-03     105.413E-03    -62.9449E+06    -178.270E+06    -38.9281E+06    -5.11644E+06    -112.448E-03     223.702E-03    -111.254E-03     82.1233E-03    -112.842E-03     223.353E-03    -111.099E-03     79.9066E-03
             887     5.63777E-03     105.511E-03    -57.9395E+06    -171.003E+06    -29.2821E+06    -5.70068E+06    -112.831E-03     224.066E-03    -111.235E-03     94.9983E-03    -113.404E-03     223.911E-03    -111.050E-03     92.2785E-03
             888     6.44362E-03     105.623E-03    -53.0185E+06    -150.149E+06    -22.5259E+06    -6.45477E+06    -113.237E-03     224.418E-03    -111.181E-03     107.754E-03    -114.059E-03     224.584E-03    -110.999E-03     104.471E-03
             889     7.24918E-03     105.750E-03    -48.8530E+06    -136.706E+06    -17.6763E+06    -7.21326E+06    -113.702E-03     224.832E-03    -111.131E-03     120.354E-03    -114.834E-03     225.357E-03    -110.950E-03     116.431E-03
             890     8.05527E-03     105.889E-03    -45.2447E+06    -122.651E+06    -13.4419E+06    -7.07723E+06    -114.136E-03     225.215E-03    -111.079E-03     133.079E-03    -115.676E-03     226.198E-03    -110.903E-03     128.444E-03
             891     8.86089E-03     106.043E-03    -41.1127E+06    -104.227E+06    -8.98080E+06    -6.52306E+06    -114.497E-03     225.518E-03    -111.020E-03     146.010E-03    -116.577E-03     227.108E-03    -110.854E-03     140.569E-03
             892     9.66726E-03     106.210E-03    -37.3920E+06    -85.0170E+06    -8.42119E+06    -6.77457E+06    -114.838E-03     225.778E-03    -110.940E-03     159.108E-03    -117.626E-03     228.155E-03    -110.804E-03     152.737E-03
             893     10.4733E-03     106.392E-03    -34.5836E+06    -44.4582E+06    -7.52961E+06    -7.48434E+06    -115.078E-03     225.910E-03    -110.832E-03     173.250E-03    -118.873E-03     229.447E-03    -110.755E-03     165.799E-03
             894     11.2794E-03     106.589E-03    -31.7752E+06     13.9198E+06    -2.85704E+06    -4.59262E+06    -115.573E-03     226.294E-03    -110.721E-03     192.910E-03    -120.932E-03     231.597E-03    -110.709E-03     184.179E-03
             895     12.0854E-03     106.813E-03    -27.3538E+06     71.5232E+06     15.4577E+06     577.702E+03    -116.627E-03     227.305E-03    -110.678E-03     223.536E-03    -124.608E-03     235.398E-03    -110.665E-03     213.188E-03
             896     12.8913E-03     107.079E-03    -21.2601E+06     108.565E+06     56.1748E+06     3.99723E+06    -118.055E-03     228.825E-03    -110.771E-03     262.955E-03    -130.077E-03     240.995E-03    -110.616E-03     250.903E-03
             897     13.6980E-03     107.391E-03    -15.2661E+06     130.752E+06     94.2180E+06     4.39507E+06    -117.525E-03     228.378E-03    -110.853E-03     286.164E-03    -133.299E-03     244.288E-03    -110.549E-03     274.041E-03
             898     14.5081E-03     107.711E-03    -11.0849E+06     138.773E+06     107.337E+06     1.97413E+06    -113.397E-03     224.220E-03    -110.823E-03     263.270E-03    -129.934E-03     240.898E-03    -110.471E-03     253.982E-03
             899     15.3095E-03     107.974E-03    -5.65385E+06     137.166E+06     105.160E+06     723.504E+03    -109.582E-03     220.339E-03    -110.756E-03     170.378E-03    -120.063E-03     230.981E-03    -110.421E-03     165.170E-03
             900     805.040E-06     106.324E-03    -83.0125E+06    -223.590E+06    -81.3990E+06    -1.47835E+06    -111.330E-03     222.746E-03    -111.417E-03     15.3800E-03    -111.315E-03     221.880E-03    -111.379E-03     15.0208E-03
             901     1.61041E-03     106.348E-03    -81.0492E+06    -220.520E+06    -75.6767E+06    -2.73629E+06    -111.409E-03     222.745E-03    -111.336E-03     28.5027E-03    -111.424E-03     221.909E-03    -111.277E-03     27.8375E-03
             902     2.41574E-03     106.388E-03    -77.4497E+06    -216.489E+06    -67.3990E+06    -4.26430E+06    -111.567E-03     222.882E-03    -111.314E-03     42.1680E-03    -111.630E-03     222.097E-03    -111.225E-03     41.1559E-03
             903     3.22118E-03     106.442E-03    -72.5473E+06    -203.338E+06    -58.6848E+06    -5.53216E+06    -111.741E-03     223.019E-03    -111.278E-03     55.7494E-03    -111.883E-03     222.351E-03    -111.171E-03     54.3661E-03
             904     4.02673E-03     106.512E-03    -67.5227E+06    -185.203E+06    -49.5839E+06    -6.14243E+06    -111.967E-03     223.194E-03    -111.227E-03     69.1206E-03    -112.222E-03     222.696E-03    -111.109E-03     67.3384E-03
             905     4.83240E-03     106.596E-03    -63.1713E+06    -176.193E+06    -39.9152E+06    -6.41211E+06    -112.318E-03     223.510E-03    -111.192E-03     82.2214E-03    -112.714E-03     223.172E-03    -111.045E-03     79.9954E-03
             906     5.63817E-03     106.694E-03    -58.0926E+06    -168.515E+06    -30.0606E+06    -7.31090E+06    -112.729E-03     223.893E-03    -111.164E-03     95.1200E-03    -113.304E-03     223.751E-03    -110.986E-03     92.3869E-03
             907     6.44381E-03     106.806E-03    -52.7639E+06    -148.214E+06    -22.8982E+06    -8.12442E+06    -113.105E-03     224.209E-03    -111.104E-03     108.006E-03    -113.926E-03     224.383E-03    -110.927E-03     104.714E-03
             908     7.24997E-03     106.933E-03    -47.9242E+06    -135.329E+06    -17.3000E+06    -8.13985E+06    -113.528E-03     224.574E-03    -111.046E-03     120.756E-03    -114.656E-03     225.102E-03    -110.867E-03     116.840E-03
             909     8.05569E-03     107.072E-03    -43.1925E+06    -121.986E+06    -13.5772E+06    -8.24766E+06    -113.959E-03     224.937E-03    -110.978E-03     133.583E-03    -115.487E-03     225.918E-03    -110.806E-03     128.953E-03
             910     8.86210E-03     107.226E-03    -39.0145E+06    -104.420E+06    -9.75226E+06    -7.88124E+06    -114.352E-03     225.257E-03    -110.906E-03     146.622E-03    -116.417E-03     226.842E-03    -110.746E-03     141.187E-03
             911     9.66806E-03     107.393E-03    -35.5811E+06    -83.3348E+06    -7.26878E+06    -7.49561E+06    -114.684E-03     225.507E-03    -110.823E-03     159.818E-03    -117.462E-03     227.884E-03    -110.687E-03     153.467E-03
             912     10.4743E-03     107.575E-03    -33.7274E+06    -44.1382E+06    -5.22606E+06    -6.48538E+06    -114.979E-03     225.696E-03    -110.717E-03     174.117E-03    -118.772E-03     229.228E-03    -110.630E-03     166.707E-03
             913     11.2808E-03     107.772E-03    -33.2567E+06     8.73538E+06    -2.35665E+06    -4.41518E+06    -115.427E-03     226.027E-03    -110.600E-03     193.983E-03    -120.786E-03     231.306E-03    -110.576E-03     185.291E-03
             914     12.0871E-03     107.997E-03    -32.0476E+06     66.3144E+06     10.8525E+06    -2.64041E+06    -116.436E-03     226.961E-03    -110.525E-03     224.894E-03    -124.426E-03     235.041E-03    -110.520E-03     214.549E-03
             915     12.8943E-03     108.261E-03    -27.3655E+06     103.615E+06     45.7318E+06    -655.425E+03    -118.000E-03     228.582E-03    -110.582E-03     263.820E-03    -130.036E-03     240.757E-03    -110.464E-03     251.727E-03
             916     13.7015E-03     108.575E-03    -19.9591E+06     128.959E+06     87.1474E+06     1.54546E+06    -117.558E-03     228.245E-03    -110.687E-03     284.914E-03    -133.336E-03     244.157E-03    -110.409E-03     272.722E-03
             917     14.5060E-03     108.890E-03    -12.7678E+06     140.635E+06     108.130E+06     2.16533E+06    -112.877E-03     223.570E-03    -110.693E-03     261.494E-03    -129.318E-03     240.151E-03    -110.338E-03     252.279E-03
             918     15.3190E-03     109.159E-03    -6.84931E+06     137.930E+06     106.160E+06     1.15579E+06    -109.163E-03     219.777E-03    -110.614E-03     170.821E-03    -119.543E-03     230.315E-03    -110.274E-03     165.690E-03
             919     805.198E-06     107.508E-03    -84.4969E+06    -220.380E+06    -82.5393E+06    -614.529E+03    -111.329E-03     222.595E-03    -111.266E-03     15.4010E-03    -111.324E-03     221.749E-03    -111.237E-03     15.0538E-03
             920     1.61044E-03     107.532E-03    -82.3161E+06    -215.637E+06    -75.6133E+06    -2.67074E+06    -111.331E-03     222.595E-03    -111.264E-03     28.6744E-03    -111.360E-03     221.785E-03    -111.210E-03     28.0119E-03
             921     2.41590E-03     107.571E-03    -78.5055E+06    -210.776E+06    -66.9223E+06    -5.45692E+06    -111.461E-03     222.700E-03    -111.239E-03     42.3082E-03    -111.539E-03     221.945E-03    -111.154E-03     41.2837E-03
             922     3.22136E-03     107.625E-03    -74.0371E+06    -199.577E+06    -58.8178E+06    -7.64838E+06    -111.618E-03     222.813E-03    -111.195E-03     55.8573E-03    -111.772E-03     222.166E-03    -111.092E-03     54.4514E-03
             923     4.02703E-03     107.695E-03    -69.5371E+06    -183.556E+06    -50.8792E+06    -7.78553E+06    -111.827E-03     222.960E-03    -111.133E-03     69.3062E-03    -112.092E-03     222.474E-03    -111.020E-03     67.5107E-03
             924     4.83285E-03     107.779E-03    -64.5920E+06    -173.344E+06    -41.2044E+06    -7.99969E+06    -112.150E-03     223.234E-03    -111.084E-03     82.5069E-03    -112.554E-03     222.913E-03    -110.945E-03     80.2720E-03
             925     5.63863E-03     107.877E-03    -59.0428E+06    -164.487E+06    -31.4025E+06    -9.79636E+06    -112.514E-03     223.553E-03    -111.039E-03     95.5115E-03    -113.096E-03     223.432E-03    -110.872E-03     92.7635E-03
             926     6.44478E-03     107.989E-03    -53.1615E+06    -146.615E+06    -24.2139E+06    -10.8105E+06    -112.867E-03     223.832E-03    -110.965E-03     108.487E-03    -113.687E-03     224.013E-03    -110.797E-03     105.182E-03
             927     7.25077E-03     108.115E-03    -47.5926E+06    -134.869E+06    -18.6261E+06    -10.4172E+06    -113.246E-03     224.135E-03    -110.889E-03     121.386E-03    -114.368E-03     224.663E-03    -110.717E-03     117.469E-03
             928     8.05729E-03     108.255E-03    -43.4138E+06    -120.802E+06    -14.7081E+06    -10.0344E+06    -113.671E-03     224.473E-03    -110.802E-03     134.346E-03    -115.196E-03     225.458E-03    -110.638E-03     129.727E-03
             929     8.86347E-03     108.408E-03    -39.5793E+06    -104.315E+06    -10.8837E+06    -10.0865E+06    -114.083E-03     224.798E-03    -110.715E-03     147.550E-03    -116.144E-03     226.380E-03    -110.561E-03     142.126E-03
             930     9.67001E-03     108.576E-03    -35.2717E+06    -84.2951E+06    -8.37653E+06    -9.09998E+06    -114.435E-03     225.053E-03    -110.618E-03     160.984E-03    -117.205E-03     227.423E-03    -110.487E-03     154.654E-03
             931     10.4768E-03     108.756E-03    -31.3186E+06    -47.4192E+06    -4.10830E+06    -5.90415E+06    -114.810E-03     225.322E-03    -110.512E-03     175.666E-03    -118.586E-03     228.830E-03    -110.418E-03     168.310E-03
             932     11.2829E-03     108.955E-03    -29.1110E+06     5.48163E+06    -220.913E+03    -1.51985E+06    -115.351E-03     225.742E-03    -110.391E-03     195.294E-03    -120.692E-03     231.000E-03    -110.358E-03     186.675E-03
             933     12.0903E-03     109.177E-03    -27.9057E+06     67.5322E+06     13.8227E+06     480.940E+03    -116.465E-03     226.781E-03    -110.316E-03     225.879E-03    -124.439E-03     234.855E-03    -110.304E-03     215.605E-03
             934     12.8962E-03     109.446E-03    -25.8922E+06     102.492E+06     49.8850E+06    -724.545E+03    -118.234E-03     228.630E-03    -110.396E-03     265.212E-03    -130.277E-03     240.800E-03    -110.258E-03     253.129E-03
             935     13.7013E-03     109.756E-03    -20.7336E+06     124.906E+06     88.2859E+06    -471.067E+03    -117.838E-03     228.344E-03    -110.506E-03     286.902E-03    -133.677E-03     244.297E-03    -110.215E-03     274.695E-03
             936     14.5096E-03     110.075E-03    -12.8693E+06     140.484E+06     106.925E+06     719.522E+03    -113.644E-03     224.164E-03    -110.519E-03     263.621E-03    -130.203E-03     240.865E-03    -110.170E-03     254.282E-03
             937     15.3128E-03     110.333E-03    -5.51981E+06     138.819E+06     105.979E+06     766.230E+03    -108.832E-03     219.287E-03    -110.456E-03     172.473E-03    -119.325E-03     229.946E-03    -110.119E-03     167.288E-03
             938     805.431E-06     108.691E-03    -84.1945E+06    -218.379E+06    -82.8087E+06    -573.510E+03    -111.242E-03     222.161E-03    -110.919E-03     15.4745E-03    -111.238E-03     221.325E-03    -110.895E-03     15.1308E-03
             939     1.61088E-03     108.715E-03    -81.5285E+06    -210.366E+06    -75.5752E+06    -2.54666E+06    -111.214E-03     222.276E-03    -111.061E-03     28.7437E-03    -111.247E-03     221.491E-03    -111.016E-03     28.0870E-03
             940     2.41625E-03     108.754E-03    -78.0887E+06    -203.131E+06    -65.5815E+06    -5.65132E+06    -111.300E-03     222.363E-03    -111.063E-03     42.4788E-03    -111.388E-03     221.642E-03    -110.983E-03     41.4589E-03
             941     3.22191E-03     108.808E-03    -74.0960E+06    -194.782E+06    -56.1692E+06    -7.99753E+06    -111.437E-03     222.469E-03    -111.032E-03     56.0753E-03    -111.601E-03     221.841E-03    -110.923E-03     54.6741E-03
             942     4.02772E-03     108.877E-03    -69.4725E+06    -180.962E+06    -48.8604E+06    -8.96420E+06    -111.630E-03     222.595E-03    -110.965E-03     69.6365E-03    -111.900E-03     222.118E-03    -110.846E-03     67.8376E-03
             943     4.83361E-03     108.961E-03    -64.0622E+06    -169.269E+06    -41.6185E+06    -10.3606E+06    -111.872E-03     222.760E-03    -110.889E-03     83.0076E-03    -112.277E-03     222.458E-03    -110.759E-03     80.7604E-03
             944     5.63983E-03     109.059E-03    -58.7404E+06    -159.693E+06    -32.8124E+06    -11.9982E+06    -112.172E-03     222.989E-03    -110.817E-03     96.1748E-03    -112.754E-03     222.890E-03    -110.664E-03     93.4259E-03
             945     6.44602E-03     109.171E-03    -54.2507E+06    -144.663E+06    -25.9673E+06    -12.8054E+06    -112.505E-03     223.229E-03    -110.724E-03     109.293E-03    -113.327E-03     223.420E-03    -110.565E-03     105.997E-03
             946     7.25264E-03     109.297E-03    -50.4370E+06    -133.995E+06    -20.9570E+06    -12.7452E+06    -112.865E-03     223.492E-03    -110.627E-03     122.343E-03    -113.993E-03     224.026E-03    -110.464E-03     118.437E-03
             947     8.05918E-03     109.436E-03    -45.6971E+06    -119.415E+06    -16.2778E+06    -12.8674E+06    -113.250E-03     223.771E-03    -110.520E-03     135.572E-03    -114.779E-03     224.761E-03    -110.362E-03     130.969E-03
             948     8.86603E-03     109.590E-03    -40.8613E+06    -103.275E+06    -12.0342E+06    -12.9348E+06    -113.664E-03     224.076E-03    -110.412E-03     148.972E-03    -115.724E-03     225.659E-03    -110.263E-03     143.568E-03
             949     9.67309E-03     109.756E-03    -36.7625E+06    -86.1983E+06    -10.6485E+06    -11.9911E+06    -114.123E-03     224.420E-03    -110.297E-03     162.590E-03    -116.888E-03     226.779E-03    -110.171E-03     156.281E-03
             950     10.4797E-03     109.939E-03    -32.2572E+06    -53.6879E+06    -7.94261E+06    -9.47471E+06    -114.538E-03     224.715E-03    -110.176E-03     177.399E-03    -118.300E-03     228.194E-03    -110.091E-03     170.058E-03
             951     11.2873E-03     110.136E-03    -25.9734E+06    -3.09205E+06    -2.11870E+06    -4.00008E+06    -115.360E-03     225.419E-03    -110.060E-03     197.422E-03    -120.668E-03     230.631E-03    -110.028E-03     188.826E-03
             952     12.0927E-03     110.362E-03    -20.2907E+06     64.5191E+06     15.4724E+06     2.60982E+06    -116.662E-03     226.658E-03    -109.996E-03     228.156E-03    -124.622E-03     234.730E-03    -109.983E-03     217.935E-03
             953     12.9004E-03     110.626E-03    -16.5182E+06     107.447E+06     56.8484E+06     4.98964E+06    -118.231E-03     228.322E-03    -110.091E-03     267.982E-03    -130.266E-03     240.514E-03    -109.938E-03     256.041E-03
             954     13.7086E-03     110.943E-03    -12.3747E+06     126.174E+06     94.6788E+06     3.44779E+06    -117.886E-03     228.087E-03    -110.201E-03     288.554E-03    -133.683E-03     244.013E-03    -109.892E-03     276.470E-03
             955     14.5153E-03     111.254E-03    -9.33944E+06     140.003E+06     107.821E+06     2.92877E+06    -113.888E-03     224.093E-03    -110.206E-03     265.659E-03    -130.491E-03     240.848E-03    -109.856E-03     256.345E-03
             956     15.3225E-03     111.526E-03    -4.99782E+06     140.314E+06     107.464E+06     2.14602E+06    -108.907E-03     219.066E-03    -110.158E-03     174.650E-03    -119.467E-03     229.794E-03    -109.817E-03     169.455E-03
             957     805.674E-06     109.874E-03    -82.0460E+06    -215.168E+06    -82.0933E+06    -1.68072E+06    -110.986E-03     221.625E-03    -110.640E-03     15.6105E-03    -110.977E-03     220.801E-03    -110.619E-03     15.2580E-03
             958     1.61117E-03     109.898E-03    -80.0181E+06    -205.107E+06    -76.1796E+06    -3.62762E+06    -110.933E-03     221.709E-03    -110.777E-03     28.7894E-03    -110.964E-03     220.950E-03    -110.744E-03     28.1263E-03
             959     2.41699E-03     109.937E-03    -76.5022E+06    -196.591E+06    -64.7163E+06    -5.32551E+06    -110.971E-03     221.743E-03    -110.772E-03     42.6376E-03    -111.061E-03     221.051E-03    -110.700E-03     41.6348E-03
             960     3.22283E-03     109.991E-03    -72.4860E+06    -189.039E+06    -53.2460E+06    -7.23110E+06    -111.119E-03     221.860E-03    -110.741E-03     56.4309E-03    -111.287E-03     221.254E-03    -110.628E-03     55.0563E-03
             961     4.02879E-03     110.060E-03    -67.8515E+06    -175.656E+06    -45.8866E+06    -9.80309E+06    -111.268E-03     221.932E-03    -110.664E-03     70.1473E-03    -111.541E-03     221.474E-03    -110.540E-03     68.3581E-03
             962     4.83516E-03     110.143E-03    -63.3407E+06    -164.370E+06    -40.4638E+06    -11.9532E+06    -111.437E-03     221.998E-03    -110.561E-03     83.7181E-03    -111.844E-03     221.715E-03    -110.433E-03     81.4800E-03
             963     5.64165E-03     110.241E-03    -58.9702E+06    -155.107E+06    -33.3029E+06    -13.2992E+06    -111.682E-03     222.139E-03    -110.457E-03     97.0936E-03    -112.267E-03     222.061E-03    -110.313E-03     94.3680E-03
             964     6.44853E-03     110.352E-03    -54.3237E+06    -142.076E+06    -25.7151E+06    -14.0877E+06    -111.969E-03     222.312E-03    -110.343E-03     110.407E-03    -112.790E-03     222.510E-03    -110.187E-03     107.141E-03
             965     7.25543E-03     110.478E-03    -49.2262E+06    -131.918E+06    -20.1447E+06    -14.5409E+06    -112.315E-03     222.535E-03    -110.220E-03     123.758E-03    -113.434E-03     223.069E-03    -110.058E-03     119.887E-03
             966     8.06260E-03     110.617E-03    -44.7449E+06    -116.776E+06    -16.3421E+06    -15.1665E+06    -112.680E-03     222.760E-03    -110.080E-03     137.287E-03    -114.198E-03     223.753E-03    -109.928E-03     132.726E-03
             967     8.87018E-03     110.770E-03    -40.7367E+06    -102.474E+06    -12.3105E+06    -15.1079E+06    -113.155E-03     223.105E-03    -109.950E-03     151.026E-03    -115.205E-03     224.682E-03    -109.804E-03     145.675E-03
             968     9.67728E-03     110.938E-03    -36.9411E+06    -86.2883E+06    -11.0517E+06    -14.6505E+06    -113.725E-03     223.544E-03    -109.819E-03     164.997E-03    -116.481E-03     225.895E-03    -109.695E-03     158.737E-03
             969     10.4850E-03     111.119E-03    -33.2556E+06    -56.9808E+06    -9.30810E+06    -13.4994E+06    -114.315E-03     224.007E-03    -109.692E-03     180.126E-03    -118.072E-03     227.470E-03    -109.608E-03     172.810E-03
             970     11.2916E-03     111.318E-03    -30.0295E+06    -12.9326E+06    -5.89218E+06    -9.71752E+06    -115.143E-03     224.716E-03    -109.573E-03     200.656E-03    -120.443E-03     229.880E-03    -109.540E-03     192.088E-03
             971     12.1001E-03     111.544E-03    -26.2306E+06     52.7211E+06     3.46648E+06    -2.64762E+06    -116.665E-03     226.136E-03    -109.471E-03     231.572E-03    -124.626E-03     234.181E-03    -109.492E-03     221.369E-03
             972     12.9061E-03     111.810E-03    -21.7603E+06     105.333E+06     37.7506E+06     3.54192E+06    -118.360E-03     227.884E-03    -109.524E-03     270.652E-03    -130.410E-03     240.121E-03    -109.456E-03     258.752E-03
             973     13.7127E-03     112.123E-03    -17.7081E+06     127.073E+06     81.5538E+06     4.38316E+06    -118.247E-03     227.923E-03    -109.676E-03     292.075E-03    -134.151E-03     243.978E-03    -109.426E-03     279.997E-03
             974     14.5182E-03     112.441E-03    -11.2786E+06     140.423E+06     107.506E+06     3.60569E+06    -113.671E-03     223.418E-03    -109.747E-03     267.673E-03    -130.275E-03     240.168E-03    -109.397E-03     258.462E-03
             975     15.3278E-03     112.701E-03    -5.33241E+06     143.425E+06     112.067E+06     3.04927E+06    -108.941E-03     218.667E-03    -109.726E-03     175.306E-03    -119.414E-03     229.306E-03    -109.366E-03     170.214E-03
             976     805.869E-06     111.056E-03    -81.7812E+06    -208.762E+06    -81.3956E+06    -3.22840E+06    -110.432E-03     220.854E-03    -110.422E-03     15.8018E-03    -110.432E-03     220.060E-03    -110.408E-03     15.4339E-03
             977     1.61184E-03     111.080E-03    -79.8254E+06    -199.422E+06    -76.3323E+06    -5.13219E+06    -110.425E-03     220.788E-03    -110.363E-03     29.0391E-03    -110.463E-03     220.056E-03    -110.340E-03     28.3660E-03
             978     2.41791E-03     111.119E-03    -76.5495E+06    -192.245E+06    -66.8648E+06    -5.93241E+06    -110.464E-03     220.778E-03    -110.314E-03     43.0219E-03    -110.556E-03     220.110E-03    -110.258E-03     42.0299E-03
             979     3.22427E-03     111.173E-03    -71.3320E+06    -181.910E+06    -54.4018E+06    -8.07748E+06    -110.553E-03     220.807E-03    -110.254E-03     57.0504E-03    -110.721E-03     220.234E-03    -110.159E-03     55.6919E-03
             980     4.03080E-03     111.241E-03    -65.4823E+06    -169.451E+06    -42.8611E+06    -10.7385E+06    -110.665E-03     220.835E-03    -110.170E-03     70.9049E-03    -110.937E-03     220.397E-03    -110.043E-03     69.1369E-03
             981     4.83757E-03     111.324E-03    -60.6276E+06    -159.963E+06    -35.0627E+06    -11.8201E+06    -110.805E-03     220.859E-03    -110.054E-03     84.7261E-03    -111.209E-03     220.581E-03    -109.910E-03     82.5323E-03
             982     5.64467E-03     111.421E-03    -56.6762E+06    -149.199E+06    -29.9042E+06    -13.7090E+06    -110.989E-03     220.899E-03    -109.910E-03     98.4121E-03    -111.570E-03     220.836E-03    -109.761E-03     95.7359E-03
             983     6.45201E-03     111.533E-03    -52.2152E+06    -138.398E+06    -24.7585E+06    -15.7109E+06    -111.217E-03     220.971E-03    -109.754E-03     112.049E-03    -112.026E-03     221.175E-03    -109.601E-03     108.833E-03
             984     7.25975E-03     111.658E-03    -47.8563E+06    -129.161E+06    -19.6974E+06    -16.3163E+06    -111.499E-03     221.092E-03    -109.594E-03     125.751E-03    -112.604E-03     221.626E-03    -109.435E-03     121.944E-03
             985     8.06786E-03     111.797E-03    -44.2276E+06    -114.152E+06    -16.2155E+06    -16.3448E+06    -111.897E-03     221.315E-03    -109.419E-03     139.709E-03    -113.403E-03     222.306E-03    -109.270E-03     135.234E-03
             986     8.87570E-03     111.950E-03    -40.9017E+06    -100.954E+06    -12.3979E+06    -16.4307E+06    -112.440E-03     221.700E-03    -109.260E-03     154.026E-03    -114.477E-03     223.269E-03    -109.116E-03     148.773E-03
             987     9.68431E-03     112.117E-03    -37.9026E+06    -84.7681E+06    -11.0122E+06    -16.3877E+06    -113.107E-03     222.214E-03    -109.106E-03     168.551E-03    -115.855E-03     224.558E-03    -108.984E-03     162.396E-03
             988     10.4919E-03     112.300E-03    -36.3321E+06    -59.1005E+06    -10.2574E+06    -14.6654E+06    -113.824E-03     222.790E-03    -108.966E-03     184.299E-03    -117.580E-03     226.236E-03    -108.879E-03     177.105E-03
             989     11.3004E-03     112.499E-03    -36.0644E+06    -19.3619E+06    -8.83997E+06    -10.5535E+06    -114.906E-03     223.744E-03    -108.838E-03     205.404E-03    -120.219E-03     228.886E-03    -108.802E-03     196.956E-03
             990     12.1071E-03     112.725E-03    -35.7042E+06     44.1172E+06    -5.64203E+06    -6.54838E+06    -116.655E-03     225.368E-03    -108.714E-03     237.006E-03    -124.637E-03     233.397E-03    -108.754E-03     226.898E-03
             991     12.9150E-03     112.994E-03    -31.8342E+06     97.9657E+06     22.7826E+06    -2.99652E+06    -118.659E-03     227.403E-03    -108.745E-03     276.236E-03    -130.808E-03     239.722E-03    -108.727E-03     264.330E-03
             992     13.7232E-03     113.306E-03    -24.0744E+06     125.036E+06     70.0388E+06     647.394E+03    -118.579E-03     227.494E-03    -108.915E-03     297.984E-03    -134.623E-03     243.693E-03    -108.711E-03     285.918E-03
             993     14.5323E-03     113.627E-03    -15.5820E+06     140.218E+06     103.297E+06     1.52947E+06    -114.578E-03     223.631E-03    -109.053E-03     271.573E-03    -131.326E-03     240.522E-03    -108.717E-03     262.316E-03
             994     15.3371E-03     113.881E-03    -7.61835E+06     143.549E+06     112.598E+06     848.163E+03    -110.603E-03     219.744E-03    -109.141E-03     178.566E-03    -121.275E-03     230.572E-03    -108.775E-03     173.239E-03
             995     806.229E-06     112.237E-03    -79.8596E+06    -199.372E+06    -78.9558E+06    -4.13872E+06    -109.713E-03     219.506E-03    -109.794E-03     16.1172E-03    -109.720E-03     218.753E-03    -109.784E-03     15.7436E-03
             996     1.61289E-03     112.261E-03    -78.0700E+06    -193.618E+06    -72.9947E+06    -5.58670E+06    -109.715E-03     219.405E-03    -109.691E-03     29.5186E-03    -109.757E-03     218.695E-03    -109.662E-03     28.8563E-03
             997     2.41958E-03     112.299E-03    -74.3847E+06    -186.870E+06    -65.3103E+06    -7.50947E+06    -109.729E-03     219.343E-03    -109.614E-03     43.6543E-03    -109.819E-03     218.695E-03    -109.562E-03     42.6671E-03
             998     3.22647E-03     112.353E-03    -69.6412E+06    -174.177E+06    -55.0922E+06    -10.2186E+06    -109.706E-03     219.219E-03    -109.513E-03     57.9519E-03    -109.874E-03     218.681E-03    -109.435E-03     56.6029E-03
             999     4.03373E-03     112.421E-03    -64.7154E+06    -164.514E+06    -42.7372E+06    -11.8937E+06    -109.754E-03     219.153E-03    -109.399E-03     72.0919E-03    -110.025E-03     218.735E-03    -109.281E-03     70.3592E-03
            1000     4.84128E-03     112.503E-03    -59.2615E+06    -155.897E+06    -33.0300E+06    -12.6940E+06    -109.847E-03     219.102E-03    -109.255E-03     86.2206E-03    -110.247E-03     218.834E-03    -109.108E-03     84.0792E-03
            1001     5.64926E-03     112.600E-03    -53.7250E+06    -142.352E+06    -27.0559E+06    -14.2119E+06    -109.964E-03     219.032E-03    -109.068E-03     100.368E-03    -110.535E-03     218.986E-03    -108.919E-03     97.7670E-03
            1002     6.45758E-03     112.711E-03    -49.9550E+06    -133.936E+06    -23.0915E+06    -15.8627E+06    -110.145E-03     219.013E-03    -108.868E-03     114.423E-03    -110.939E-03     219.221E-03    -108.717E-03     111.305E-03
            1003     7.26634E-03     112.836E-03    -47.1132E+06    -125.506E+06    -18.6334E+06    -16.8460E+06    -110.377E-03     219.040E-03    -108.664E-03     128.642E-03    -111.468E-03     219.573E-03    -108.506E-03     124.951E-03
            1004     8.07522E-03     112.975E-03    -43.5276E+06    -111.783E+06    -15.3530E+06    -17.3283E+06    -110.759E-03     219.203E-03    -108.444E-03     143.307E-03    -112.245E-03     220.182E-03    -108.296E-03     138.967E-03
            1005     8.88488E-03     113.128E-03    -40.1137E+06    -98.9558E+06    -11.9038E+06    -16.9215E+06    -111.371E-03     219.612E-03    -108.241E-03     158.375E-03    -113.384E-03     221.166E-03    -108.098E-03     153.284E-03
            1006     9.69372E-03     113.296E-03    -38.2549E+06    -83.6464E+06    -10.0586E+06    -15.9580E+06    -112.128E-03     220.183E-03    -108.054E-03     173.743E-03    -114.856E-03     222.507E-03    -107.928E-03     167.783E-03
            1007     10.5034E-03     113.478E-03    -36.4899E+06    -61.7610E+06    -9.91833E+06    -13.7300E+06    -113.067E-03     220.954E-03    -107.887E-03     190.158E-03    -116.798E-03     224.364E-03    -107.794E-03     183.175E-03
            1008     11.3121E-03     113.678E-03    -33.9559E+06    -25.3226E+06    -9.45997E+06    -9.29934E+06    -114.566E-03     222.310E-03    -107.743E-03     212.058E-03    -119.856E-03     227.416E-03    -107.705E-03     203.812E-03
            1009     12.1212E-03     113.907E-03    -31.5009E+06     42.1509E+06    -4.78461E+06    -4.63981E+06    -116.677E-03     224.298E-03    -107.621E-03     244.018E-03    -124.645E-03     232.317E-03    -107.660E-03     234.116E-03
            1010     12.9298E-03     114.175E-03    -28.9795E+06     97.4507E+06     27.4165E+06    -3.91307E+06    -119.324E-03     227.023E-03    -107.699E-03     283.105E-03    -131.564E-03     239.427E-03    -107.661E-03     271.262E-03
            1011     13.7366E-03     114.492E-03    -23.8549E+06     120.074E+06     71.5327E+06    -3.38775E+06    -119.647E-03     227.574E-03    -107.927E-03     302.235E-03    -135.719E-03     243.780E-03    -107.709E-03     290.152E-03
            1012     14.5430E-03     114.806E-03    -15.2985E+06     138.997E+06     100.649E+06    -1.84766E+06    -116.388E-03     224.529E-03    -108.141E-03     275.573E-03    -133.253E-03     241.541E-03    -107.817E-03     266.147E-03
            1013     15.3490E-03     115.072E-03    -6.53537E+06     142.180E+06     110.260E+06    -1.13537E+06    -113.669E-03     222.054E-03    -108.385E-03     180.410E-03    -124.474E-03     233.020E-03    -108.030E-03     174.732E-03
            1014     807.376E-06     113.416E-03    -77.4737E+06    -190.182E+06    -75.4021E+06    -3.70258E+06    -108.732E-03     217.375E-03    -108.642E-03     16.3971E-03    -108.746E-03     216.658E-03    -108.631E-03     16.0418E-03
            1015     1.61453E-03     113.440E-03    -74.9231E+06    -186.887E+06    -68.6004E+06    -5.60660E+06    -108.697E-03     217.338E-03    -108.641E-03     30.1044E-03    -108.739E-03     216.649E-03    -108.605E-03     29.4668E-03
            1016     2.42199E-03     113.478E-03    -71.3686E+06    -178.764E+06    -61.0373E+06    -8.52526E+06    -108.610E-03     217.167E-03    -108.557E-03     44.5626E-03    -108.701E-03     216.547E-03    -108.499E-03     43.5981E-03
            1017     3.22989E-03     113.531E-03    -67.9226E+06    -167.179E+06    -53.7720E+06    -10.8732E+06    -108.502E-03     216.915E-03    -108.413E-03     59.1879E-03    -108.670E-03     216.404E-03    -108.341E-03     57.8821E-03
            1018     4.03818E-03     113.598E-03    -64.1652E+06    -159.368E+06    -44.7781E+06    -12.5209E+06    -108.451E-03     216.696E-03    -108.245E-03     73.8088E-03    -108.717E-03     216.298E-03    -108.145E-03     72.1417E-03
            1019     4.84689E-03     113.680E-03    -59.3305E+06    -150.007E+06    -35.2135E+06    -14.8015E+06    -108.456E-03     216.507E-03    -108.051E-03     88.3587E-03    -108.852E-03     216.261E-03    -107.923E-03     86.2834E-03
            1020     5.65604E-03     113.776E-03    -54.1997E+06    -138.050E+06    -27.1107E+06    -15.8828E+06    -108.456E-03     216.278E-03    -107.822E-03     103.022E-03    -109.021E-03     216.240E-03    -107.679E-03     100.516E-03
            1021     6.46576E-03     113.887E-03    -49.4044E+06    -129.975E+06    -20.8730E+06    -15.8675E+06    -108.543E-03     216.114E-03    -107.571E-03     117.762E-03    -109.323E-03     216.318E-03    -107.415E-03     114.788E-03
            1022     7.27578E-03     114.011E-03    -44.9189E+06    -120.466E+06    -16.4761E+06    -17.1789E+06    -108.778E-03     216.078E-03    -107.301E-03     132.785E-03    -109.844E-03     216.605E-03    -107.143E-03     129.261E-03
            1023     8.08668E-03     114.150E-03    -41.5325E+06    -109.353E+06    -13.5618E+06    -17.9172E+06    -109.182E-03     216.207E-03    -107.025E-03     148.296E-03    -110.634E-03     217.163E-03    -106.874E-03     144.146E-03
            1024     8.89721E-03     114.303E-03    -38.8521E+06    -98.2670E+06    -11.2766E+06    -17.0918E+06    -109.826E-03     216.590E-03    -106.764E-03     164.317E-03    -111.799E-03     218.108E-03    -106.622E-03     159.454E-03
            1025     9.70876E-03     114.471E-03    -35.3187E+06    -83.3052E+06    -8.66088E+06    -15.5743E+06    -110.819E-03     217.352E-03    -106.533E-03     180.545E-03    -113.497E-03     219.634E-03    -106.405E-03     174.838E-03
            1026     10.5194E-03     114.655E-03    -31.6850E+06    -62.9641E+06    -7.44031E+06    -13.8840E+06    -112.299E-03     218.648E-03    -106.349E-03     197.712E-03    -115.980E-03     222.015E-03    -106.249E-03     190.965E-03
            1027     11.3297E-03     114.857E-03    -27.6023E+06    -30.1402E+06    -7.39946E+06    -10.9876E+06    -114.291E-03     220.508E-03    -106.217E-03     219.839E-03    -119.533E-03     225.567E-03    -106.170E-03     211.788E-03
            1028     12.1392E-03     115.086E-03    -22.4203E+06     35.6924E+06    -5.76475E+06    -4.97599E+06    -117.232E-03     223.354E-03    -106.121E-03     251.710E-03    -125.166E-03     231.352E-03    -106.169E-03     241.948E-03
            1029     12.9473E-03     115.358E-03    -18.3127E+06     98.3899E+06     30.3399E+06     212.116E+03    -120.737E-03     227.026E-03    -106.288E-03     290.683E-03    -133.008E-03     239.493E-03    -106.253E-03     278.942E-03
            1030     13.7546E-03     115.677E-03    -14.5003E+06     123.337E+06     81.5148E+06    -121.605E+03    -122.268E-03     228.954E-03    -106.687E-03     307.951E-03    -138.434E-03     245.271E-03    -106.437E-03     295.777E-03
            1031     14.5610E-03     115.993E-03    -9.12980E+06     138.310E+06     105.110E+06    -1.23036E+06    -119.948E-03     227.032E-03    -107.083E-03     279.785E-03    -136.978E-03     244.215E-03    -106.745E-03     269.989E-03
            1032     15.3627E-03     116.261E-03    -4.57314E+06     140.462E+06     108.314E+06    -380.023E+03    -117.857E-03     225.398E-03    -107.541E-03     182.843E-03    -128.797E-03     236.507E-03    -107.197E-03     176.756E-03
            1033     808.330E-06     114.593E-03    -75.9516E+06    -182.087E+06    -74.4026E+06    -2.86755E+06    -107.301E-03     214.380E-03    -107.079E-03     16.8630E-03    -107.320E-03     213.700E-03    -107.077E-03     16.5344E-03
            1034     1.61690E-03     114.616E-03    -73.6490E+06    -178.365E+06    -68.2291E+06    -6.04318E+06    -107.110E-03     214.227E-03    -107.117E-03     30.8102E-03    -107.157E-03     213.576E-03    -107.093E-03     30.2011E-03
            1035     2.42575E-03     114.654E-03    -69.9032E+06    -169.899E+06    -59.6883E+06    -9.17037E+06    -106.948E-03     213.942E-03    -106.995E-03     45.7885E-03    -107.043E-03     213.359E-03    -106.945E-03     44.8678E-03
            1036     3.23490E-03     114.706E-03    -65.0337E+06    -161.084E+06    -50.8905E+06    -11.3103E+06    -106.801E-03     213.620E-03    -106.819E-03     60.8849E-03    -106.962E-03     213.125E-03    -106.745E-03     59.6456E-03
            1037     4.04463E-03     114.773E-03    -60.3270E+06    -152.830E+06    -42.5374E+06    -13.0321E+06    -106.635E-03     213.234E-03    -106.598E-03     76.0620E-03    -106.886E-03     212.851E-03    -106.502E-03     74.4852E-03
            1038     4.85489E-03     114.854E-03    -56.3410E+06    -142.777E+06    -33.7656E+06    -15.3387E+06    -106.473E-03     212.812E-03    -106.339E-03     91.2793E-03    -106.853E-03     212.582E-03    -106.219E-03     89.3233E-03
            1039     5.66579E-03     114.949E-03    -52.7648E+06    -134.742E+06    -26.1358E+06    -16.7429E+06    -106.338E-03     212.380E-03    -106.042E-03     106.634E-03    -106.883E-03     212.335E-03    -105.901E-03     104.271E-03
            1040     6.47744E-03     115.059E-03    -48.6025E+06    -126.164E+06    -20.0909E+06    -17.2387E+06    -106.302E-03     212.012E-03    -105.710E-03     122.258E-03    -107.058E-03     212.206E-03    -105.557E-03     119.459E-03
            1041     7.28996E-03     115.183E-03    -43.9886E+06    -115.226E+06    -14.9928E+06    -18.1595E+06    -106.538E-03     211.900E-03    -105.362E-03     138.231E-03    -107.574E-03     212.413E-03    -105.206E-03     134.923E-03
            1042     8.10234E-03     115.321E-03    -40.1307E+06    -107.538E+06    -12.1487E+06    -18.3739E+06    -107.038E-03     212.058E-03    -105.020E-03     154.685E-03    -108.447E-03     212.977E-03    -104.867E-03     150.785E-03
            1043     8.91588E-03     115.474E-03    -36.3684E+06    -96.5266E+06    -10.0686E+06    -17.9754E+06    -107.915E-03     212.616E-03    -104.701E-03     171.731E-03    -109.832E-03     214.090E-03    -104.559E-03     167.139E-03
            1044     9.72867E-03     115.643E-03    -32.7632E+06    -83.7091E+06    -8.11193E+06    -17.2963E+06    -109.444E-03     213.886E-03    -104.442E-03     188.919E-03    -112.065E-03     216.117E-03    -104.314E-03     183.477E-03
            1045     10.5413E-03     115.829E-03    -28.9559E+06    -62.9338E+06    -5.60212E+06    -15.9042E+06    -111.622E-03     215.898E-03    -104.276E-03     206.804E-03    -115.257E-03     219.223E-03    -104.171E-03     200.301E-03
            1046     11.3526E-03     116.032E-03    -24.4693E+06    -32.3069E+06    -2.99533E+06    -14.9031E+06    -114.528E-03     218.745E-03    -104.217E-03     229.144E-03    -119.749E-03     223.773E-03    -104.149E-03     221.255E-03
            1047     12.1623E-03     116.265E-03    -20.3218E+06     24.4961E+06    -5.72653E+06    -9.45917E+06    -118.683E-03     222.905E-03    -104.222E-03     261.601E-03    -126.656E-03     230.910E-03    -104.257E-03     251.865E-03
            1048     12.9706E-03     116.541E-03    -15.1998E+06     92.4295E+06     24.3343E+06    -1.53593E+06    -123.361E-03     227.872E-03    -104.512E-03     299.276E-03    -135.711E-03     240.426E-03    -104.502E-03     287.438E-03
            1049     13.7771E-03     116.864E-03    -9.31188E+06     125.412E+06     74.7431E+06     2.40321E+06    -126.288E-03     231.405E-03    -105.117E-03     314.709E-03    -142.676E-03     247.989E-03    -104.912E-03     302.182E-03
            1050     14.5765E-03     117.186E-03    -6.68999E+06     139.961E+06     102.704E+06     3.76262E+06    -125.003E-03     230.833E-03    -105.829E-03     283.823E-03    -142.243E-03     248.248E-03    -105.509E-03     273.499E-03
            1051     15.3760E-03     117.450E-03    -4.00250E+06     141.610E+06     110.341E+06     2.75881E+06    -123.439E-03     230.075E-03    -106.636E-03     186.774E-03    -134.545E-03     241.350E-03    -106.283E-03     180.165E-03
            1052     810.031E-06     115.765E-03    -73.8178E+06    -173.361E+06    -72.9325E+06    -3.34370E+06    -105.227E-03     210.151E-03    -104.924E-03     17.5040E-03    -105.250E-03     209.509E-03    -104.930E-03     17.1928E-03
            1053     1.62023E-03     115.788E-03    -70.9857E+06    -168.146E+06    -66.7365E+06    -7.19027E+06    -104.898E-03     209.869E-03    -104.972E-03     31.8787E-03    -104.946E-03     209.262E-03    -104.958E-03     31.2991E-03
            1054     2.43087E-03     115.825E-03    -67.1495E+06    -161.340E+06    -58.1207E+06    -10.4902E+06    -104.664E-03     209.471E-03    -104.807E-03     47.3261E-03    -104.757E-03     208.920E-03    -104.766E-03     46.4563E-03
            1055     3.24207E-03     115.876E-03    -62.9801E+06    -154.828E+06    -48.8114E+06    -12.3858E+06    -104.393E-03     208.977E-03    -104.585E-03     63.0432E-03    -104.548E-03     208.500E-03    -104.513E-03     61.8844E-03
            1056     4.05370E-03     115.942E-03    -58.2552E+06    -145.750E+06    -39.9210E+06    -14.2264E+06    -104.056E-03     208.354E-03    -104.298E-03     78.9359E-03    -104.299E-03     207.988E-03    -104.202E-03     77.4673E-03
            1057     4.86627E-03     116.023E-03    -53.4715E+06    -136.795E+06    -31.7091E+06    -15.7168E+06    -103.702E-03     207.653E-03    -103.951E-03     95.0261E-03    -104.060E-03     207.427E-03    -103.834E-03     93.2274E-03
            1058     5.67968E-03     116.117E-03    -48.8441E+06    -130.045E+06    -24.2059E+06    -16.7636E+06    -103.481E-03     207.044E-03    -103.563E-03     111.260E-03    -103.989E-03     206.986E-03    -103.425E-03     109.097E-03
            1059     6.49391E-03     116.226E-03    -44.6446E+06    -120.749E+06    -18.1413E+06    -18.2879E+06    -103.428E-03     206.572E-03    -103.144E-03     127.822E-03    -104.139E-03     206.747E-03    -102.995E-03     125.244E-03
            1060     7.30869E-03     116.349E-03    -41.1715E+06    -112.675E+06    -13.6645E+06    -18.5865E+06    -103.638E-03     206.354E-03    -102.716E-03     144.894E-03    -104.617E-03     206.826E-03    -102.562E-03     141.858E-03
            1061     8.12459E-03     116.487E-03    -37.6027E+06    -103.843E+06    -10.0896E+06    -18.8678E+06    -104.402E-03     206.712E-03    -102.310E-03     162.428E-03    -105.749E-03     207.586E-03    -102.156E-03     158.831E-03
            1062     8.93995E-03     116.640E-03    -34.1724E+06    -93.9333E+06    -7.74924E+06    -19.4850E+06    -105.866E-03     207.831E-03    -101.965E-03     180.472E-03    -107.720E-03     209.252E-03    -101.818E-03     176.178E-03
            1063     9.75553E-03     116.811E-03    -30.7505E+06    -83.0622E+06    -5.66801E+06    -18.9753E+06    -108.102E-03     209.826E-03    -101.724E-03     198.788E-03    -110.661E-03     211.996E-03    -101.587E-03     193.641E-03
            1064     10.5695E-03     116.999E-03    -27.2996E+06    -62.6104E+06    -3.22497E+06    -18.2875E+06    -111.215E-03     212.832E-03    -101.617E-03     217.608E-03    -114.808E-03     216.114E-03    -101.503E-03     211.360E-03
            1065     11.3817E-03     117.207E-03    -25.5042E+06    -32.3560E+06     868.845E+03    -16.3661E+06    -115.497E-03     217.185E-03    -101.689E-03     240.395E-03    -120.744E-03     222.224E-03    -101.600E-03     232.664E-03
            1066     12.1917E-03     117.443E-03    -24.4077E+06     17.9061E+06    -1.94011E+06    -12.9950E+06    -121.200E-03     223.099E-03    -101.898E-03     272.635E-03    -129.302E-03     231.183E-03    -101.899E-03     262.841E-03
            1067     12.9982E-03     117.727E-03    -22.7912E+06     81.7880E+06     17.4025E+06    -6.42862E+06    -127.545E-03     229.949E-03    -102.404E-03     309.694E-03    -140.151E-03     242.715E-03    -102.403E-03     297.486E-03
            1068     13.7995E-03     118.054E-03    -21.3327E+06     120.548E+06     55.7690E+06    -503.971E+03    -131.571E-03     234.831E-03    -103.260E-03     324.191E-03    -148.395E-03     251.848E-03    -103.125E-03     311.046E-03
            1069     14.6001E-03     118.384E-03    -15.6554E+06     138.358E+06     90.6773E+06     1.48156E+06    -131.439E-03     235.798E-03    -104.359E-03     290.849E-03    -149.187E-03     253.720E-03    -104.084E-03     279.642E-03
            1070     15.3922E-03     118.650E-03    -7.72719E+06     143.025E+06     110.657E+06     1.83750E+06    -131.577E-03     237.217E-03    -105.640E-03     191.471E-03    -143.056E-03     248.856E-03    -105.283E-03     183.921E-03
            1071     812.362E-06     116.931E-03    -68.1385E+06    -163.015E+06    -67.4010E+06    -4.54385E+06    -102.208E-03     204.315E-03    -102.106E-03     17.9902E-03    -102.225E-03     203.706E-03    -102.108E-03     17.6965E-03
            1072     1.62502E-03     116.954E-03    -65.7009E+06    -157.173E+06    -62.3095E+06    -7.98194E+06    -101.929E-03     203.960E-03    -102.031E-03     33.2238E-03    -101.971E-03     203.391E-03    -102.020E-03     32.6891E-03
            1073     2.43796E-03     116.990E-03    -62.9506E+06    -152.752E+06    -54.9010E+06    -10.8503E+06    -101.622E-03     203.455E-03    -101.833E-03     49.3074E-03    -101.705E-03     202.931E-03    -101.795E-03     48.5159E-03
            1074     3.25156E-03     117.041E-03    -59.8784E+06    -147.348E+06    -46.6205E+06    -13.3504E+06    -101.129E-03     202.680E-03    -101.551E-03     65.7326E-03    -101.273E-03     202.223E-03    -101.484E-03     64.6781E-03
            1075     4.06623E-03     117.106E-03    -55.6967E+06    -138.359E+06    -38.5306E+06    -15.6134E+06    -100.575E-03     201.749E-03    -101.174E-03     82.4177E-03    -100.801E-03     201.397E-03    -101.086E-03     81.0854E-03
            1076     4.88176E-03     117.184E-03    -51.1954E+06    -131.905E+06    -30.6364E+06    -16.9202E+06    -100.094E-03     200.828E-03    -100.734E-03     99.3868E-03    -100.423E-03     200.595E-03    -100.621E-03     97.7665E-03
            1077     5.69838E-03     117.278E-03    -46.6894E+06    -124.516E+06    -23.4461E+06    -17.9854E+06    -99.7800E-03     200.027E-03    -100.247E-03     116.699E-03    -100.249E-03     199.955E-03    -100.116E-03     114.760E-03
            1078     6.51575E-03     117.386E-03    -42.6182E+06    -115.888E+06    -17.4645E+06    -18.8885E+06    -99.7643E-03     199.505E-03    -99.7404E-03     134.428E-03    -100.424E-03     199.651E-03    -99.5979E-03     132.123E-03
            1079     7.33421E-03     117.508E-03    -38.8666E+06    -109.871E+06    -12.5651E+06    -19.3153E+06    -100.238E-03     199.489E-03    -99.2513E-03     152.663E-03    -101.152E-03     199.911E-03    -99.0985E-03     149.930E-03
            1080     8.15281E-03     117.646E-03    -35.2215E+06    -99.8456E+06    -8.11909E+06    -19.4084E+06    -101.500E-03     200.316E-03    -98.8162E-03     171.492E-03    -102.774E-03     201.133E-03    -98.6610E-03     168.229E-03
            1081     8.97144E-03     117.802E-03    -32.7442E+06    -91.4073E+06    -5.06593E+06    -19.4308E+06    -103.757E-03     202.250E-03    -98.4930E-03     190.696E-03    -105.543E-03     203.609E-03    -98.3383E-03     186.745E-03
            1082     9.78863E-03     117.974E-03    -30.8178E+06    -79.7304E+06    -3.53282E+06    -20.0296E+06    -107.006E-03     205.327E-03    -98.3211E-03     210.072E-03    -109.513E-03     207.451E-03    -98.1784E-03     205.234E-03
            1083     10.6046E-03     118.167E-03    -29.5401E+06    -62.6356E+06    -2.07720E+06    -18.8481E+06    -111.436E-03     209.785E-03    -98.3497E-03     229.682E-03    -115.011E-03     213.039E-03    -98.2264E-03     223.686E-03
            1084     11.4175E-03     118.379E-03    -28.4704E+06    -32.4661E+06     2.87922E+06    -15.5684E+06    -117.490E-03     216.124E-03    -98.6333E-03     253.043E-03    -122.797E-03     221.207E-03    -98.5306E-03     245.431E-03
            1085     12.2256E-03     118.625E-03    -28.4128E+06     15.7404E+06     3.87327E+06    -11.8593E+06    -124.929E-03     224.078E-03    -99.1490E-03     285.108E-03    -133.236E-03     232.330E-03    -99.1113E-03     275.185E-03
            1086     13.0300E-03     118.913E-03    -29.3915E+06     72.9730E+06     18.4907E+06    -6.09867E+06    -132.788E-03     232.772E-03    -99.9838E-03     321.871E-03    -145.781E-03     245.867E-03    -99.9546E-03     309.199E-03
            1087     13.8311E-03     119.253E-03    -25.0122E+06     118.266E+06     52.2718E+06    -2.95650E+06    -138.270E-03     239.463E-03    -101.193E-03     334.094E-03    -155.574E-03     256.949E-03    -101.067E-03     320.112E-03
            1088     14.6225E-03     119.584E-03    -16.8183E+06     136.249E+06     87.5430E+06    -3.69283E+06    -140.210E-03     242.967E-03    -102.757E-03     298.349E-03    -158.530E-03     261.460E-03    -102.492E-03     285.829E-03
            1089     15.4090E-03     119.864E-03    -8.30332E+06     139.470E+06     108.277E+06    -1.90808E+06    -142.693E-03     247.296E-03    -104.603E-03     196.488E-03    -154.606E-03     259.363E-03    -104.251E-03     187.489E-03
            1090     815.402E-06     118.090E-03    -64.1336E+06    -150.834E+06    -64.0607E+06    -4.94995E+06    -98.3378E-03     196.667E-03    -98.3288E-03     18.6546E-03    -98.3562E-03     196.107E-03    -98.3374E-03     18.3904E-03
            1091     1.63120E-03     118.112E-03    -62.9416E+06    -146.726E+06    -60.2134E+06    -8.32513E+06    -97.9839E-03     196.158E-03    -98.1737E-03     34.6746E-03    -98.0275E-03     195.630E-03    -98.1707E-03     34.2005E-03
            1092     2.44750E-03     118.147E-03    -60.4124E+06    -143.713E+06    -53.2868E+06    -11.4127E+06    -97.5366E-03     195.449E-03    -97.9128E-03     51.5003E-03    -97.6157E-03     194.957E-03    -97.8832E-03     50.8013E-03
            1093     3.26456E-03     118.197E-03    -56.7158E+06    -138.259E+06    -45.3070E+06    -14.4577E+06    -96.8874E-03     194.441E-03    -97.5531E-03     68.7565E-03    -97.0175E-03     194.008E-03    -97.4969E-03     67.8246E-03
            1094     4.08265E-03     118.260E-03    -53.1019E+06    -131.428E+06    -37.8394E+06    -16.6460E+06    -96.1998E-03     193.293E-03    -97.0935E-03     86.3915E-03    -96.4025E-03     192.949E-03    -97.0151E-03     85.2234E-03
            1095     4.90199E-03     118.338E-03    -49.2149E+06    -126.145E+06    -30.2896E+06    -18.0136E+06    -95.6227E-03     192.191E-03    -96.5686E-03     104.335E-03    -95.9193E-03     191.951E-03    -96.4658E-03     102.920E-03
            1096     5.72235E-03     118.430E-03    -45.4091E+06    -119.137E+06    -23.4275E+06    -19.1157E+06    -95.2481E-03     191.247E-03    -95.9992E-03     122.760E-03    -95.6734E-03     191.154E-03    -95.8777E-03     121.073E-03
            1097     6.54410E-03     118.537E-03    -41.9150E+06    -112.342E+06    -17.3369E+06    -19.4167E+06    -95.4124E-03     190.839E-03    -95.4270E-03     141.734E-03    -96.0138E-03     190.942E-03    -95.2900E-03     139.732E-03
            1098     7.36613E-03     118.659E-03    -38.7204E+06    -105.118E+06    -12.1049E+06    -20.0374E+06    -96.4447E-03     191.353E-03    -94.9086E-03     161.309E-03    -97.2943E-03     191.726E-03    -94.7606E-03     158.903E-03
            1099     8.18827E-03     118.798E-03    -36.2379E+06    -97.8610E+06    -8.33406E+06    -19.5959E+06    -98.4905E-03     192.991E-03    -94.5002E-03     181.548E-03    -99.6928E-03     193.740E-03    -94.3474E-03     178.636E-03
            1100     9.00969E-03     118.955E-03    -34.1218E+06    -88.4417E+06    -4.80705E+06    -18.8627E+06    -101.826E-03     196.087E-03    -94.2615E-03     202.063E-03    -103.544E-03     197.383E-03    -94.1079E-03     198.468E-03
            1101     9.82941E-03     119.133E-03    -33.2550E+06    -75.6201E+06    -2.23947E+06    -18.6196E+06    -106.581E-03     200.832E-03    -94.2511E-03     222.228E-03    -109.053E-03     202.924E-03    -94.1044E-03     217.701E-03
            1102     10.6460E-03     119.329E-03    -33.0457E+06    -62.7353E+06    -836.064E+03    -17.1060E+06    -112.723E-03     207.247E-03    -94.5241E-03     242.558E-03    -116.306E-03     210.493E-03    -94.3894E-03     236.778E-03
            1103     11.4579E-03     119.552E-03    -32.4843E+06    -33.2056E+06     3.13941E+06    -14.9614E+06    -120.394E-03     215.499E-03    -95.1049E-03     266.878E-03    -125.790E-03     220.654E-03    -94.9940E-03     259.316E-03
            1104     12.2655E-03     119.805E-03    -30.7688E+06     10.6942E+06     9.47063E+06    -9.97153E+06    -129.740E-03     225.748E-03    -96.0083E-03     299.076E-03    -138.287E-03     234.199E-03    -95.9319E-03     288.927E-03
            1105     13.0670E-03     120.106E-03    -25.3346E+06     72.3040E+06     29.8089E+06    -5.54280E+06    -139.759E-03     237.046E-03    -97.2871E-03     334.460E-03    -153.233E-03     250.604E-03    -97.2062E-03     321.048E-03
            1106     13.8608E-03     120.453E-03    -17.5514E+06     118.050E+06     61.5376E+06    -5.21074E+06    -147.382E-03     246.381E-03    -98.9987E-03     343.766E-03    -165.308E-03     264.489E-03    -98.8368E-03     328.453E-03
            1107     14.6491E-03     120.799E-03    -10.4994E+06     134.364E+06     92.5537E+06    -3.54003E+06    -151.288E-03     252.430E-03    -101.142E-03     305.927E-03    -170.201E-03     271.518E-03    -100.859E-03     291.668E-03
            1108     15.4242E-03     121.087E-03    -6.09831E+06     137.828E+06     107.480E+06    -2.10684E+06    -155.460E-03     259.073E-03    -103.613E-03     203.185E-03    -167.800E-03     271.573E-03    -103.267E-03     192.471E-03
            1109     819.332E-06     119.239E-03    -60.7250E+06    -137.922E+06    -61.2200E+06    -5.02595E+06    -93.6076E-03     186.982E-03    -93.3741E-03     19.3668E-03    -93.6310E-03     186.476E-03    -93.3921E-03     19.1388E-03
            1110     1.63906E-03     119.260E-03    -60.1917E+06    -135.855E+06    -57.2977E+06    -9.05183E+06    -93.0004E-03     186.302E-03    -93.3012E-03     36.1806E-03    -93.0467E-03     185.816E-03    -93.3034E-03     35.7675E-03
            1111     2.45948E-03     119.295E-03    -57.8296E+06    -133.564E+06    -52.0385E+06    -12.6707E+06    -92.3387E-03     185.294E-03    -92.9554E-03     53.7988E-03    -92.4129E-03     184.837E-03    -92.9381E-03     53.1929E-03
            1112     3.28096E-03     119.342E-03    -54.9182E+06    -129.130E+06    -45.6965E+06    -15.6206E+06    -91.5988E-03     184.103E-03    -92.5039E-03     71.9045E-03    -91.7168E-03     183.697E-03    -92.4655E-03     71.1069E-03
            1113     4.10359E-03     119.404E-03    -51.5318E+06    -124.922E+06    -38.2691E+06    -17.3981E+06    -90.8568E-03     182.831E-03    -91.9741E-03     90.5595E-03    -91.0345E-03     182.490E-03    -91.9096E-03     89.5736E-03
            1114     4.92733E-03     119.480E-03    -48.7206E+06    -119.944E+06    -31.4476E+06    -18.3589E+06    -90.2451E-03     181.626E-03    -91.3808E-03     109.640E-03    -90.5078E-03     181.378E-03    -91.2935E-03     108.458E-03
            1115     5.75252E-03     119.571E-03    -46.4194E+06    -114.159E+06    -25.0019E+06    -18.9730E+06    -90.0839E-03     180.849E-03    -90.7654E-03     129.258E-03    -90.4659E-03     180.731E-03    -90.6576E-03     127.849E-03
            1116     6.57838E-03     119.677E-03    -44.0282E+06    -108.206E+06    -19.3353E+06    -19.6098E+06    -90.7260E-03     180.911E-03    -90.1855E-03     149.551E-03    -91.2726E-03     180.971E-03    -90.0614E-03     147.859E-03
            1117     7.40482E-03     119.800E-03    -42.3781E+06    -101.585E+06    -14.7526E+06    -19.2900E+06    -92.4992E-03     182.208E-03    -89.7090E-03     170.455E-03    -93.2862E-03     182.525E-03    -89.5740E-03     168.398E-03
            1118     8.23061E-03     119.941E-03    -41.4254E+06    -96.0022E+06    -10.6777E+06    -18.6742E+06    -95.7093E-03     185.123E-03    -89.4139E-03     191.884E-03    -96.8511E-03     185.807E-03    -89.2681E-03     189.324E-03
            1119     9.05466E-03     120.103E-03    -40.3376E+06    -84.5841E+06    -6.51232E+06    -18.6804E+06    -100.508E-03     189.869E-03    -89.3610E-03     213.592E-03    -102.181E-03     191.117E-03    -89.2124E-03     210.317E-03
            1120     9.87572E-03     120.285E-03    -38.3614E+06    -74.7876E+06    -2.28799E+06    -17.4357E+06    -106.980E-03     196.602E-03    -89.6221E-03     234.810E-03    -109.427E-03     198.654E-03    -89.4695E-03     230.550E-03
            1121     10.6921E-03     120.491E-03    -35.6872E+06    -60.7476E+06     1.30791E+06    -16.6281E+06    -114.934E-03     205.167E-03    -90.2321E-03     256.122E-03    -118.548E-03     208.435E-03    -90.0857E-03     250.474E-03
            1122     11.5039E-03     120.721E-03    -31.6473E+06    -34.5672E+06     6.37552E+06    -15.3257E+06    -124.435E-03     215.643E-03    -91.2083E-03     281.064E-03    -129.952E-03     220.909E-03    -91.0804E-03     273.416E-03
            1123     12.3090E-03     120.988E-03    -25.1457E+06     5.28931E+06     17.6815E+06    -11.1736E+06    -135.905E-03     228.486E-03    -92.5813E-03     313.437E-03    -144.724E-03     237.187E-03    -92.4641E-03     302.845E-03
            1124     13.1061E-03     121.303E-03    -18.3141E+06     74.4312E+06     41.2481E+06    -8.46758E+06    -148.519E-03     242.905E-03    -94.3857E-03     348.302E-03    -162.608E-03     257.078E-03    -94.2608E-03     333.768E-03
            1125     13.8952E-03     121.666E-03    -13.3168E+06     116.249E+06     68.2969E+06    -4.97132E+06    -158.765E-03     255.467E-03    -96.7021E-03     355.916E-03    -177.562E-03     274.437E-03    -96.5099E-03     338.787E-03
            1126     14.6701E-03     122.022E-03    -9.80166E+06     132.365E+06     94.3259E+06    -2.06963E+06    -164.419E-03     263.936E-03    -99.5177E-03     316.185E-03    -184.227E-03     283.911E-03    -99.2238E-03     299.618E-03
            1127     15.4388E-03     122.326E-03    -3.83630E+06     135.937E+06     107.354E+06    -1.27165E+06    -169.301E-03     271.987E-03    -102.686E-03     212.459E-03    -182.294E-03     285.143E-03    -102.341E-03     199.592E-03
            1128     824.238E-06     120.375E-03    -58.4604E+06    -124.539E+06    -58.7922E+06    -5.93193E+06    -87.6180E-03     175.066E-03    -87.4477E-03     20.0736E-03    -87.6520E-03     174.618E-03    -87.4763E-03     19.8749E-03
            1129     1.64882E-03     120.396E-03    -57.6680E+06    -124.083E+06    -55.8343E+06    -9.65813E+06    -86.9147E-03     174.227E-03    -87.3128E-03     37.5775E-03    -86.9635E-03     173.789E-03    -87.3284E-03     37.2302E-03
            1130     2.47447E-03     120.429E-03    -56.1446E+06    -122.635E+06    -51.9385E+06    -13.3253E+06    -86.1323E-03     173.036E-03    -86.9039E-03     56.0575E-03    -86.2043E-03     172.620E-03    -86.9044E-03     55.5550E-03
            1131     3.30107E-03     120.476E-03    -54.5414E+06    -120.630E+06     -47.325E+06    -15.9831E+06    -85.3204E-03     171.710E-03    -86.3896E-03     75.0716E-03    -85.4281E-03     171.329E-03    -86.3722E-03     74.4218E-03
            1132     4.12885E-03     120.536E-03    -53.3345E+06    -118.810E+06    -41.7711E+06    -17.3077E+06    -84.5620E-03     170.368E-03    -85.8056E-03     94.6751E-03    -84.7227E-03     170.035E-03    -85.7648E-03     93.8849E-03
            1133     4.95816E-03     120.610E-03    -51.9501E+06    -114.800E+06    -35.5897E+06    -17.6791E+06    -84.1498E-03     169.333E-03    -85.1832E-03     114.883E-03    -84.3860E-03     169.077E-03    -85.1194E-03     113.944E-03
            1134     5.78833E-03     120.700E-03    -50.3859E+06    -109.544E+06    -29.7193E+06    -17.9789E+06    -84.5314E-03     169.115E-03    -84.5839E-03     135.827E-03    -84.8738E-03     168.973E-03    -84.5006E-03     134.701E-03
            1135     6.61907E-03     120.807E-03    -49.6313E+06    -104.067E+06    -24.1893E+06    -17.9452E+06    -86.0531E-03     170.143E-03    -84.0898E-03     157.418E-03    -86.5537E-03     170.165E-03    -83.9878E-03     156.042E-03
            1136     7.44934E-03     120.931E-03    -49.1942E+06    -99.4664E+06    -18.5102E+06    -17.0992E+06    -89.0020E-03     172.783E-03    -83.7812E-03     179.485E-03    -89.7377E-03     173.043E-03    -83.6582E-03     177.763E-03
            1137     8.27816E-03     121.076E-03    -47.9137E+06    -92.0962E+06    -12.7648E+06    -17.4446E+06    -93.6314E-03     177.355E-03    -83.7232E-03     202.024E-03    -94.7245E-03     177.987E-03    -83.5840E-03     199.776E-03
            1138     9.10419E-03     121.242E-03    -45.6126E+06    -81.4953E+06    -7.29374E+06    -17.9349E+06    -100.045E-03     184.021E-03    -83.9766E-03     224.864E-03    -101.676E-03     185.222E-03    -83.8288E-03     221.861E-03
            1139     9.92608E-03     121.434E-03    -43.1000E+06    -74.1472E+06    -2.56582E+06    -17.9309E+06    -108.140E-03     192.740E-03    -84.5993E-03     247.303E-03    -110.571E-03     194.763E-03    -84.4421E-03     243.235E-03
            1140     10.7430E-03     121.649E-03    -38.9705E+06    -55.5169E+06     3.31563E+06    -19.6207E+06    -117.967E-03     203.586E-03    -85.6187E-03     269.682E-03    -121.639E-03     206.915E-03    -85.4651E-03     264.053E-03
            1141     11.5523E-03     121.893E-03    -32.4227E+06    -35.6221E+06     9.14351E+06    -20.4904E+06    -129.739E-03     216.811E-03    -87.0726E-03     295.419E-03    -135.432E-03     222.240E-03    -86.9283E-03     287.493E-03
            1142     12.3538E-03     122.173E-03    -26.5600E+06     361.767E+03     19.8244E+06    -17.0801E+06    -143.507E-03     232.487E-03    -88.9799E-03     328.479E-03    -152.724E-03     241.559E-03    -88.8428E-03     317.154E-03
            1143     13.1471E-03     122.506E-03    -22.8567E+06     72.9345E+06     40.5216E+06    -11.3363E+06    -158.521E-03     249.878E-03    -91.3571E-03     363.604E-03    -173.359E-03     264.783E-03    -91.2271E-03     347.666E-03
            1144     13.9275E-03     122.887E-03    -18.2194E+06     109.479E+06     63.6431E+06    -8.41463E+06    -170.912E-03     265.221E-03    -94.3092E-03     370.074E-03    -190.697E-03     285.153E-03    -94.1233E-03     350.795E-03
            1145     14.6982E-03     123.263E-03    -11.0100E+06     126.611E+06     89.6960E+06    -4.03272E+06    -178.764E-03     276.592E-03    -97.8277E-03     329.914E-03    -199.658E-03     297.644E-03    -97.5469E-03     310.552E-03
            1146     15.4515E-03     123.582E-03    -5.90581E+06     134.197E+06     106.047E+06    -158.896E+03    -184.798E-03     286.555E-03    -101.757E-03     224.359E-03    -198.604E-03     300.515E-03    -101.413E-03     208.860E-03
            1147     829.958E-06     121.498E-03    -57.2414E+06    -110.881E+06    -56.6908E+06    -5.93681E+06    -80.4688E-03     160.849E-03    -80.3806E-03     21.0152E-03    -80.5188E-03     160.463E-03    -80.4203E-03     20.8547E-03
            1148     1.66066E-03     121.517E-03    -56.5291E+06    -111.832E+06    -56.3920E+06    -10.3584E+06    -79.8279E-03     160.028E-03    -80.2003E-03     38.8528E-03    -79.8835E-03     159.645E-03    -80.2382E-03     38.5670E-03
            1149     2.49204E-03     121.549E-03    -56.1017E+06    -112.623E+06    -54.2728E+06    -13.3553E+06    -79.0148E-03     158.802E-03    -79.7870E-03     58.0633E-03    -79.0869E-03     158.428E-03    -79.8137E-03     57.6672E-03
            1150     3.32468E-03     121.593E-03    -56.2279E+06    -113.337E+06    -50.4649E+06    -14.6911E+06    -78.1906E-03     157.456E-03    -79.2651E-03     77.9225E-03    -78.2929E-03     157.098E-03    -79.2715E-03     77.4338E-03
            1151     4.15863E-03     121.652E-03    -56.5953E+06    -113.404E+06    -46.1031E+06    -15.1806E+06    -77.6473E-03     156.333E-03    -78.6860E-03     98.4345E-03    -77.7936E-03     156.005E-03    -78.6700E-03     97.8534E-03
            1152     4.99353E-03     121.725E-03    -57.0274E+06    -110.308E+06    -42.1220E+06    -15.5798E+06    -77.7963E-03     155.910E-03    -78.1133E-03     119.740E-03    -78.0087E-03     155.646E-03    -78.0813E-03     119.043E-03
            1153     5.82913E-03     121.815E-03    -57.8709E+06    -105.896E+06    -36.9892E+06    -15.3672E+06    -79.0766E-03     156.721E-03    -77.6440E-03     141.815E-03    -79.3908E-03     156.557E-03    -77.5915E-03     140.964E-03
            1154     6.66442E-03     121.923E-03    -58.4997E+06    -101.615E+06    -29.8595E+06    -14.5019E+06    -81.8330E-03     159.205E-03    -77.3717E-03     164.504E-03    -82.3013E-03     159.189E-03    -77.2888E-03     163.428E-03
            1155     7.49811E-03     122.051E-03    -57.7767E+06    -95.4123E+06    -22.1241E+06    -15.2183E+06    -86.2434E-03     163.604E-03    -77.3604E-03     187.754E-03    -86.9448E-03     163.824E-03    -77.2489E-03     186.313E-03
            1156     8.32926E-03     122.201E-03    -55.1915E+06    -86.6442E+06    -14.8771E+06    -17.5057E+06    -92.4162E-03     170.076E-03    -77.6602E-03     211.604E-03    -93.4741E-03     170.674E-03    -77.5290E-03     209.600E-03
            1157     9.15653E-03     122.376E-03    -51.2328E+06    -78.4136E+06    -8.48487E+06    -19.1379E+06    -100.386E-03     178.705E-03    -78.3191E-03     235.681E-03    -101.986E-03     179.870E-03    -78.1736E-03     232.874E-03
            1158     9.97884E-03     122.576E-03    -45.3014E+06    -70.3319E+06    -2.14941E+06    -20.6776E+06    -110.180E-03     189.560E-03    -79.3799E-03     259.315E-03    -112.605E-03     191.583E-03    -79.2230E-03     255.345E-03
            1159     10.7943E-03     122.805E-03    -39.0586E+06    -48.8393E+06     4.80310E+06    -22.8419E+06    -121.899E-03     202.769E-03    -80.8698E-03     283.102E-03    -125.632E-03     206.179E-03    -80.7183E-03     277.421E-03
            1160     11.6021E-03     123.063E-03    -36.0765E+06    -35.4033E+06     8.67408E+06    -23.4362E+06    -135.785E-03     218.626E-03    -82.8411E-03     310.163E-03    -141.682E-03     224.249E-03    -82.6941E-03     301.916E-03
            1161     12.4003E-03     123.362E-03    -34.3079E+06    -2.83822E+06     16.3876E+06    -20.6122E+06    -152.068E-03     237.374E-03    -85.3065E-03     344.749E-03    -161.767E-03     246.900E-03    -85.1707E-03     332.573E-03
            1162     13.1866E-03     123.714E-03    -29.0740E+06     68.8362E+06     35.7410E+06    -16.6454E+06    -169.443E-03     257.727E-03    -88.2841E-03     381.277E-03    -185.129E-03     273.459E-03    -88.1631E-03     363.677E-03
            1163     13.9625E-03     124.120E-03    -22.2271E+06     102.879E+06     60.3246E+06    -12.9708E+06    -183.956E-03     275.852E-03    -91.8964E-03     387.238E-03    -204.897E-03     296.914E-03    -91.7117E-03     365.433E-03
            1164     14.7211E-03     124.514E-03    -16.0835E+06     117.269E+06     84.6198E+06    -9.63477E+06    -194.348E-03     290.486E-03    -96.1373E-03     345.611E-03    -216.567E-03     312.829E-03    -95.8610E-03     322.786E-03
            1165     15.4688E-03     124.860E-03    -7.22421E+06     126.151E+06     102.870E+06    -4.18203E+06    -201.572E-03     302.430E-03    -100.858E-03     234.683E-03    -216.209E-03     317.199E-03    -100.516E-03     216.021E-03
            1166     837.138E-06     122.603E-03    -53.0829E+06    -97.7616E+06    -53.6862E+06    -5.35749E+06    -72.4976E-03     144.779E-03    -72.2811E-03     21.3949E-03    -72.5490E-03     144.446E-03    -72.3308E-03     21.2752E-03
            1167     1.67416E-03     122.621E-03    -54.8521E+06    -99.8464E+06    -54.6395E+06    -9.34258E+06    -71.8403E-03     144.013E-03    -72.1731E-03     39.6405E-03    -71.9026E-03     143.679E-03    -72.2220E-03     39.4310E-03
            1168     2.51232E-03     122.651E-03    -56.6635E+06    -104.533E+06    -55.6927E+06    -11.9188E+06    -71.1291E-03     142.913E-03    -71.7835E-03     59.5301E-03    -71.2027E-03     142.570E-03    -71.8282E-03     59.2466E-03
            1169     3.35151E-03     122.695E-03    -58.8865E+06    -109.649E+06    -55.3364E+06    -11.3354E+06    -70.5691E-03     141.879E-03    -71.3099E-03     80.1546E-03    -70.6628E-03     141.530E-03    -71.3422E-03     79.8343E-03
            1170     4.19172E-03     122.752E-03    -62.4217E+06    -108.898E+06    -54.0354E+06    -10.3879E+06    -70.6171E-03     141.446E-03    -70.8294E-03     101.540E-03    -70.7560E-03     141.129E-03    -70.8512E-03     101.174E-03
            1171     5.03253E-03     122.826E-03    -66.2547E+06    -106.174E+06    -50.8447E+06    -10.7528E+06    -71.7681E-03     142.220E-03    -70.4522E-03     123.820E-03    -71.9766E-03     141.960E-03    -70.4564E-03     123.362E-03
            1172     5.87293E-03     122.917E-03    -68.5305E+06    -103.185E+06    -43.5994E+06    -10.8834E+06    -74.3297E-03     144.612E-03    -70.2826E-03     146.810E-03    -74.6368E-03     144.433E-03    -70.2516E-03     146.208E-03
            1173     6.71181E-03     123.028E-03    -67.6817E+06    -97.3888E+06    -34.3660E+06    -12.4301E+06    -78.4195E-03     148.792E-03    -70.3726E-03     170.491E-03    -78.8690E-03     148.753E-03    -70.3051E-03     169.645E-03
            1174     7.54846E-03     123.161E-03    -63.6367E+06    -89.3346E+06    -24.7956E+06    -15.4016E+06    -84.2075E-03     154.971E-03    -70.7638E-03     194.970E-03    -84.8726E-03     155.164E-03    -70.6659E-03     193.735E-03
            1175     8.38132E-03     123.319E-03    -58.9291E+06    -80.5911E+06    -16.0802E+06    -18.0417E+06    -91.8425E-03     163.341E-03    -71.4989E-03     220.278E-03    -92.8563E-03     163.907E-03    -71.3770E-03     218.470E-03
            1176     9.20951E-03     123.503E-03    -54.3035E+06     -72.064E+06    -8.76904E+06    -21.1602E+06    -101.402E-03     174.020E-03    -72.6176E-03     245.902E-03    -102.973E-03     175.169E-03    -72.4782E-03     243.237E-03
            1177     10.0315E-03     123.716E-03    -48.8659E+06    -63.2206E+06    -3.11953E+06    -25.8339E+06    -112.933E-03     187.089E-03    -74.1563E-03     271.228E-03    -115.370E-03     189.140E-03    -74.0094E-03     267.279E-03
            1178     10.8460E-03     123.958E-03    -43.2975E+06    -46.2384E+06     2.08224E+06    -27.2099E+06    -126.461E-03     202.609E-03    -76.1484E-03     296.791E-03    -130.270E-03     206.099E-03    -76.0082E-03     291.002E-03
            1179     11.6511E-03     124.234E-03    -38.3023E+06    -37.6503E+06     5.97314E+06    -23.5028E+06    -142.402E-03     221.050E-03    -78.6487E-03     325.637E-03    -148.493E-03     226.860E-03    -78.5087E-03     317.061E-03
            1180     12.4454E-03     124.553E-03    -33.4113E+06    -633.346E+03     15.0414E+06    -20.8488E+06    -161.039E-03     242.703E-03    -81.6635E-03     362.161E-03    -171.187E-03     252.694E-03    -81.5389E-03     349.116E-03
            1181     13.2286E-03     124.931E-03    -30.1822E+06     68.8124E+06     33.4956E+06    -19.4592E+06    -180.775E-03     266.009E-03    -85.2346E-03     399.692E-03    -197.331E-03     282.616E-03    -85.1232E-03     380.291E-03
            1182     13.9964E-03     125.361E-03    -24.7946E+06     97.9891E+06     59.6130E+06    -19.6161E+06    -198.119E-03     287.638E-03    -89.5187E-03     406.203E-03    -220.375E-03     309.993E-03    -89.3267E-03     381.368E-03
            1183     14.7485E-03     125.787E-03    -14.1368E+06     105.003E+06     84.1129E+06    -15.9523E+06    -211.005E-03     305.503E-03    -94.4981E-03     364.976E-03    -234.748E-03     329.338E-03    -94.2093E-03     338.202E-03
            1184     15.4770E-03     126.155E-03    -6.61381E+06     111.689E+06     100.519E+06    -6.96685E+06    -219.796E-03     319.808E-03    -100.012E-03     249.901E-03    -235.445E-03     335.550E-03    -99.6616E-03     227.731E-03
            1185     843.857E-06     123.689E-03    -59.0840E+06    -85.8594E+06    -59.0521E+06    -5.52775E+06    -63.8294E-03     127.402E-03    -63.5731E-03     21.5541E-03    -63.9190E-03     127.144E-03    -63.6581E-03     21.4601E-03
            1186     1.68887E-03     123.707E-03    -60.6367E+06    -91.5543E+06    -61.2493E+06    -6.38357E+06    -63.1859E-03     126.681E-03    -63.4947E-03     40.0665E-03    -63.2750E-03     126.401E-03    -63.5803E-03     39.9461E-03
            1187     2.53421E-03     123.736E-03    -66.5331E+06    -100.379E+06    -64.7928E+06    -5.84967E+06    -62.8441E-03     126.012E-03    -63.1676E-03     60.3420E-03    -62.9494E-03     125.706E-03    -63.2495E-03     60.2115E-03
            1188     3.38041E-03     123.779E-03    -74.0530E+06    -108.802E+06    -68.6924E+06    -4.54591E+06    -63.0041E-03     125.855E-03    -62.8509E-03     81.5491E-03    -63.1371E-03     125.533E-03    -62.9293E-03     81.4129E-03
            1189     4.22686E-03     123.836E-03    -79.1085E+06    -105.199E+06    -68.2702E+06    -4.65415E+06    -64.1244E-03     126.759E-03    -62.6350E-03     103.613E-03    -64.3043E-03     126.479E-03    -62.7091E-03     103.435E-03
            1190     5.07281E-03     123.911E-03    -80.3872E+06    -102.111E+06    -59.6736E+06    -6.45892E+06    -66.5830E-03     129.228E-03    -62.6452E-03     126.639E-03    -66.8188E-03     128.986E-03    -62.6789E-03     126.365E-03
            1191     5.91705E-03     124.005E-03    -77.3734E+06    -98.4614E+06    -47.8254E+06    -9.57780E+06    -70.4562E-03     133.374E-03    -62.9176E-03     150.497E-03    -70.7626E-03     133.193E-03    -62.9018E-03     150.055E-03
            1192     6.75910E-03     124.121E-03    -71.4672E+06    -89.9638E+06    -36.4815E+06    -13.6647E+06    -75.7944E-03     139.258E-03    -63.4632E-03     175.289E-03    -76.2156E-03     139.210E-03    -63.4115E-03     174.583E-03
            1193     7.59767E-03     124.262E-03    -65.4843E+06    -83.2253E+06    -26.4770E+06    -17.4005E+06    -82.8130E-03     147.132E-03    -64.3192E-03     201.136E-03    -83.4313E-03     147.299E-03    -64.2360E-03     200.043E-03
            1194     8.43224E-03     124.428E-03    -59.1880E+06    -74.5298E+06    -17.0022E+06    -19.9749E+06    -91.7440E-03     157.264E-03    -65.5198E-03     227.954E-03    -92.7000E-03     157.795E-03    -65.4109E-03     226.293E-03
            1195     9.26105E-03     124.624E-03    -52.3560E+06    -63.7408E+06    -8.76072E+06    -23.5239E+06    -102.781E-03     169.885E-03    -67.1037E-03     255.387E-03    -104.295E-03     171.014E-03    -66.9791E-03     252.843E-03
            1196     10.0827E-03     124.850E-03    -46.7704E+06    -54.0856E+06    -3.05984E+06    -27.6337E+06    -115.950E-03     185.067E-03    -69.1172E-03     282.716E-03    -118.358E-03     187.130E-03    -68.9863E-03     278.834E-03
            1197     10.8957E-03     125.109E-03    -43.1198E+06    -45.6103E+06     154.260E+03    -28.1918E+06    -131.359E-03     202.964E-03    -71.6053E-03     310.364E-03    -135.198E-03     206.493E-03    -71.4759E-03     304.511E-03
            1198     11.6987E-03     125.405E-03    -38.8538E+06    -40.4331E+06     3.49641E+06    -26.6256E+06    -149.416E-03     224.036E-03    -74.6203E-03     341.440E-03    -155.661E-03     229.997E-03    -74.4878E-03     332.488E-03
            1199     12.4901E-03     125.748E-03    -33.5097E+06     2.34155E+06     13.4155E+06    -24.3849E+06    -170.311E-03     248.475E-03    -78.1640E-03     379.961E-03    -180.854E-03     258.878E-03    -78.0517E-03     365.998E-03
            1200     13.2669E-03     126.151E-03    -25.5807E+06     68.2314E+06     35.7598E+06    -21.1617E+06    -192.991E-03     275.320E-03    -82.3288E-03     418.969E-03    -210.343E-03     292.732E-03    -82.2119E-03     397.629E-03
            1201     14.0291E-03     126.613E-03    -17.4901E+06     102.976E+06     69.0261E+06    -19.6945E+06    -212.696E-03     299.964E-03    -87.2674E-03     427.260E-03    -236.319E-03     323.705E-03    -87.0462E-03     399.222E-03
            1202     14.7693E-03     127.071E-03    -13.9539E+06     94.3121E+06     83.1887E+06    -19.4718E+06    -227.332E-03     320.235E-03    -92.9025E-03     387.105E-03    -252.731E-03     345.695E-03    -92.6031E-03     356.210E-03
            1203     15.4979E-03     127.473E-03    -7.13340E+06     87.8425E+06     90.7725E+06    -11.6278E+06    -238.447E-03     337.584E-03    -99.1373E-03     268.697E-03    -255.141E-03     354.317E-03    -98.8004E-03     242.857E-03
            1204     852.217E-06     124.757E-03    -79.4665E+06    -80.1716E+06    -76.9116E+06     596.727E+03    -54.7213E-03     109.122E-03    -54.4007E-03     21.6720E-03    -54.8941E-03     108.945E-03    -54.5538E-03     21.6777E-03
            1205     1.70425E-03     124.773E-03    -87.2634E+06    -88.5555E+06    -85.3739E+06    -285.737E+03    -54.5579E-03     109.011E-03    -54.4535E-03     40.1458E-03    -54.7454E-03     108.816E-03    -54.6254E-03     40.1390E-03
            1206     2.55713E-03     124.802E-03    -92.4321E+06    -101.546E+06    -88.7387E+06     1.15210E+06    -54.9676E-03     109.358E-03    -54.3901E-03     60.4321E-03    -55.1572E-03     109.111E-03    -54.5525E-03     60.4419E-03
            1207     3.40960E-03     124.845E-03    -93.6028E+06    -106.901E+06    -84.5953E+06     756.115E+03    -56.2796E-03     110.734E-03    -54.4547E-03     81.8732E-03    -56.4757E-03     110.460E-03    -54.5870E-03     81.8682E-03
            1208     4.26130E-03     124.904E-03    -91.4949E+06    -100.774E+06    -75.0901E+06    -2.56274E+06    -58.7397E-03     113.458E-03    -54.7183E-03     104.388E-03    -58.9575E-03     113.208E-03    -54.8149E-03     104.312E-03
            1209     5.11110E-03     124.983E-03    -86.2852E+06    -96.0144E+06    -63.0262E+06    -6.99610E+06    -62.3988E-03     117.627E-03    -55.2280E-03     128.020E-03    -62.6401E-03     117.402E-03    -55.2788E-03     127.826E-03
            1210     5.95882E-03     125.082E-03    -79.6175E+06    -90.2598E+06    -50.7460E+06    -12.4143E+06    -67.3098E-03     123.297E-03    -55.9872E-03     152.750E-03    -67.5980E-03     123.128E-03    -55.9946E-03     152.374E-03
            1211     6.80325E-03     125.204E-03    -73.1422E+06    -82.6804E+06    -39.3675E+06    -16.9881E+06    -73.7038E-03     130.714E-03    -57.0106E-03     178.693E-03    -74.0920E-03     130.663E-03    -56.9815E-03     178.066E-03
            1212     7.64402E-03     125.352E-03    -66.4596E+06    -76.6623E+06    -28.9739E+06    -20.3762E+06    -81.8625E-03     140.197E-03    -58.3340E-03     205.942E-03    -82.4326E-03     140.343E-03    -58.2713E-03     204.950E-03
            1213     8.47933E-03     125.529E-03    -59.1494E+06    -67.1053E+06    -19.4331E+06    -24.4560E+06    -91.9702E-03     151.957E-03    -59.9871E-03     234.409E-03    -92.8642E-03     152.461E-03    -59.9012E-03     232.843E-03
            1214     9.30858E-03     125.737E-03    -51.5345E+06    -56.3875E+06    -11.0581E+06    -28.1810E+06    -104.249E-03     166.262E-03    -62.0130E-03     263.796E-03    -105.691E-03     167.355E-03    -61.9118E-03     261.347E-03
            1215     10.1302E-03     125.980E-03    -44.9765E+06    -49.1281E+06    -4.64429E+06    -29.5341E+06    -118.961E-03     183.431E-03    -64.4695E-03     293.247E-03    -121.299E-03     185.452E-03    -64.3563E-03     289.459E-03
            1216     10.9423E-03     126.257E-03    -38.6585E+06    -43.9893E+06     643.267E+03    -29.4405E+06    -136.336E-03     203.756E-03    -67.4204E-03     323.111E-03    -140.137E-03     207.268E-03    -67.2973E-03     317.227E-03
            1217     11.7429E-03     126.576E-03    -30.2975E+06    -38.5125E+06     6.93510E+06    -30.1344E+06    -156.556E-03     227.476E-03    -70.9201E-03     356.325E-03    -162.840E-03     233.504E-03    -70.7856E-03     347.043E-03
            1218     12.5303E-03     126.944E-03    -17.9229E+06     1.35473E+06     19.4883E+06    -28.2479E+06    -179.932E-03     254.907E-03    -74.9748E-03     396.819E-03    -190.645E-03     265.516E-03    -74.8533E-03     381.980E-03
            1219     13.3044E-03     127.378E-03    -5.75628E+06     60.9521E+06     41.7657E+06    -20.1406E+06    -205.315E-03     284.987E-03    -79.6717E-03     438.847E-03    -223.146E-03     302.907E-03    -79.5429E-03     415.711E-03
            1220     14.0581E-03     127.875E-03     251.078E+03     102.258E+06     77.5646E+06    -7.93201E+06    -226.935E-03     312.105E-03    -85.1697E-03     449.629E-03    -251.736E-03     337.062E-03    -84.9306E-03     418.524E-03
            1221     14.7967E-03     128.368E-03     2.71617E+06     107.494E+06     100.527E+06    -1.06280E+06    -244.600E-03     336.056E-03    -91.4565E-03     411.169E-03    -271.938E-03     363.517E-03    -91.1137E-03     375.757E-03
            1222     15.5038E-03     128.810E-03    -110.482E+03     85.0098E+06     97.7290E+06    -3.57712E+06    -256.858E-03     355.255E-03    -98.3976E-03     286.914E-03    -274.902E-03     373.335E-03    -98.0321E-03     257.104E-03
            1223     859.989E-06     125.804E-03    -112.394E+06    -87.3439E+06    -112.035E+06     7.80141E+06    -45.9584E-03     91.5259E-03    -45.5674E-03     21.0834E-03    -46.2328E-03     91.4119E-03    -45.8380E-03     21.1940E-03
            1224     1.71983E-03     125.822E-03    -115.489E+06    -88.3181E+06    -111.605E+06     7.17792E+06    -46.7298E-03     92.5944E-03    -45.8645E-03     39.1844E-03    -47.0174E-03     92.4773E-03    -46.1270E-03     39.2938E-03
            1225     2.57847E-03     125.851E-03    -114.531E+06    -99.8184E+06    -107.368E+06     1.67351E+06    -48.3544E-03     94.6225E-03    -46.2681E-03     59.5034E-03    -48.6241E-03     94.4391E-03    -46.4941E-03     59.5465E-03
            1226     3.43631E-03     125.896E-03    -107.794E+06    -103.439E+06    -97.2794E+06    -2.80338E+06    -50.9211E-03     97.7889E-03    -46.8677E-03     81.0035E-03    -51.1655E-03     97.5630E-03    -47.0478E-03     80.9858E-03
            1227     4.29187E-03     125.959E-03    -99.2692E+06    -94.2562E+06    -82.3862E+06    -6.63604E+06    -54.4420E-03     102.117E-03    -47.6753E-03     103.788E-03    -54.6838E-03     101.909E-03    -47.8066E-03     103.702E-03
            1228     5.14526E-03     126.042E-03    -90.1709E+06    -86.5083E+06    -68.5702E+06    -13.1721E+06    -58.9861E-03     107.672E-03    -48.6863E-03     127.907E-03    -59.2321E-03     107.489E-03    -48.7729E-03     127.690E-03
            1229     5.99545E-03     126.148E-03    -80.0134E+06    -82.1509E+06    -55.4619E+06    -18.7365E+06    -64.7435E-03     114.656E-03    -49.9123E-03     153.434E-03    -65.0084E-03     114.506E-03    -49.9545E-03     153.052E-03
            1230     6.84234E-03     126.278E-03    -70.4912E+06    -76.8649E+06    -42.3546E+06    -21.2906E+06    -72.0612E-03     123.442E-03    -51.3812E-03     180.441E-03    -72.3972E-03     123.379E-03    -51.3793E-03     179.857E-03
            1231     7.68420E-03     126.435E-03    -62.4414E+06    -69.0726E+06    -30.5530E+06    -24.1124E+06    -81.1656E-03     134.291E-03    -53.1259E-03     208.996E-03    -81.6643E-03     134.413E-03    -53.0879E-03     208.082E-03
            1232     8.52078E-03     126.624E-03    -55.4116E+06    -57.8013E+06    -20.2804E+06    -28.4433E+06    -92.2830E-03     147.466E-03    -55.1827E-03     239.100E-03    -93.0918E-03     147.934E-03    -55.1199E-03     237.633E-03
            1233     9.35037E-03     126.846E-03    -49.6041E+06    -50.6035E+06    -11.8610E+06    -31.6351E+06    -105.792E-03     163.401E-03    -57.6093E-03     270.310E-03    -107.132E-03     164.424E-03    -57.5233E-03     267.983E-03
            1234     10.1717E-03     127.104E-03    -42.6768E+06    -44.5307E+06    -3.57238E+06    -34.2380E+06    -122.022E-03     182.493E-03    -60.4717E-03     301.769E-03    -124.240E-03     184.418E-03    -60.3631E-03     298.073E-03
            1235     10.9826E-03     127.403E-03    -32.4478E+06    -42.6465E+06     3.99251E+06    -36.2831E+06    -141.158E-03     204.997E-03    -63.8390E-03     333.739E-03    -144.817E-03     208.385E-03    -63.7101E-03     327.843E-03
            1236     11.7811E-03     127.745E-03    -21.4510E+06    -34.7292E+06     12.5042E+06    -37.6351E+06    -163.533E-03     231.302E-03    -67.7684E-03     369.054E-03    -169.692E-03     237.234E-03    -67.6244E-03     359.533E-03
            1237     12.5661E-03     128.141E-03    -14.7966E+06    -4.65066E+06     20.8467E+06    -38.1562E+06    -189.489E-03     261.772E-03    -72.2834E-03     411.491E-03    -200.157E-03     272.324E-03    -72.1510E-03     395.880E-03
            1238     13.3334E-03     128.607E-03    -13.1033E+06     37.3552E+06     33.4888E+06    -29.2482E+06    -216.837E-03     294.289E-03    -77.4516E-03     454.945E-03    -234.748E-03     312.204E-03    -77.3194E-03     430.264E-03
            1239     14.0872E-03     129.142E-03    -11.0019E+06      78.042E+06     66.1563E+06    -15.7193E+06    -241.042E-03     324.494E-03    -83.4527E-03     468.131E-03    -266.639E-03     350.160E-03    -83.2191E-03     433.690E-03
            1240     14.8124E-03     129.678E-03    -10.1534E+06     95.8260E+06     92.0244E+06    -5.90338E+06    -262.158E-03     352.524E-03    -90.3661E-03     432.525E-03    -291.739E-03     382.171E-03    -90.0302E-03     391.066E-03
            1241     15.5186E-03     130.175E-03    -4.19056E+06     82.8915E+06     100.195E+06    -1.10488E+06    -269.693E-03     367.662E-03    -97.9690E-03     299.736E-03    -289.681E-03     387.655E-03    -97.5821E-03     264.600E-03
            1242     866.533E-06     126.835E-03    -154.636E+06    -96.8607E+06    -156.465E+06     2.08418E+06    -38.9413E-03     77.5212E-03    -38.5799E-03     19.6997E-03    -39.3470E-03     77.4866E-03    -38.9976E-03     19.7380E-03
            1243     1.73205E-03     126.853E-03    -142.895E+06    -87.5798E+06    -144.427E+06     1.17701E+06    -40.5110E-03     79.5313E-03    -39.0203E-03     36.9580E-03    -40.8870E-03     79.5057E-03    -39.4083E-03     36.9945E-03
            1244     2.59625E-03     126.886E-03    -131.367E+06    -89.4291E+06    -128.413E+06    -5.85965E+06    -43.1762E-03     82.9802E-03    -39.8040E-03     57.0116E-03    -43.5117E-03     82.9026E-03    -40.1259E-03     56.9655E-03
            1245     3.45734E-03     126.935E-03    -119.705E+06    -95.7870E+06    -113.341E+06    -14.4204E+06    -46.7334E-03     87.5835E-03    -40.8501E-03     78.6218E-03    -47.0205E-03     87.4332E-03    -41.1043E-03     78.4676E-03
            1246     4.31639E-03     127.003E-03    -105.146E+06    -87.2558E+06    -96.7328E+06    -18.9076E+06    -51.0430E-03     93.1266E-03    -42.0836E-03     101.569E-03    -51.2953E-03     92.9759E-03    -42.2883E-03     101.347E-03
            1247     5.17223E-03     127.092E-03    -90.9380E+06    -74.7951E+06    -78.0360E+06    -23.6957E+06    -56.2488E-03     99.7494E-03    -43.5006E-03     125.859E-03    -56.4877E-03     99.6262E-03    -43.6505E-03     125.541E-03
            1248     6.02495E-03     127.204E-03    -79.3645E+06    -75.7682E+06    -61.9346E+06    -28.2004E+06    -62.7435E-03     107.863E-03    -45.1196E-03     151.915E-03    -62.9810E-03     107.730E-03    -45.2043E-03     151.465E-03
            1249     6.87310E-03     127.343E-03    -68.9306E+06    -73.3477E+06    -47.2110E+06    -28.9701E+06    -70.7863E-03     117.743E-03    -46.9563E-03     179.740E-03    -71.0730E-03     117.662E-03    -46.9861E-03     179.138E-03
            1250     7.71648E-03     127.510E-03    -59.3318E+06    -61.6755E+06    -32.6161E+06    -30.2198E+06    -80.6063E-03     129.653E-03    -49.0469E-03     209.302E-03    -81.0346E-03     129.748E-03    -49.0345E-03     208.425E-03
            1251     8.55354E-03     127.711E-03    -51.1919E+06    -50.7193E+06    -19.3133E+06    -32.4600E+06    -92.6548E-03     144.103E-03    -51.4479E-03     240.648E-03    -93.3598E-03     144.505E-03    -51.3967E-03     239.285E-03
            1252     9.38330E-03     127.947E-03    -42.9828E+06    -44.3092E+06    -7.32601E+06    -34.7270E+06    -107.419E-03     161.647E-03    -54.2272E-03     273.294E-03    -108.607E-03     162.550E-03    -54.1372E-03     271.118E-03
            1253     10.2038E-03     128.224E-03    -35.5976E+06    -37.0861E+06     3.08280E+06    -37.5378E+06    -125.038E-03     182.486E-03    -57.4488E-03     306.400E-03    -127.052E-03     184.239E-03    -57.3280E-03     302.880E-03
            1254     11.0132E-03     128.544E-03    -31.7348E+06    -36.0548E+06     8.67683E+06    -42.0986E+06    -145.706E-03     206.886E-03    -61.1795E-03     340.024E-03    -149.114E-03     210.036E-03    -61.0378E-03     334.270E-03
            1255     11.8100E-03     128.911E-03    -31.2782E+06    -30.3369E+06     12.2268E+06    -46.2895E+06    -170.121E-03     235.609E-03    -65.4880E-03     376.823E-03    -175.985E-03     241.229E-03    -65.3375E-03     367.290E-03
            1256     12.5907E-03     129.338E-03    -32.1060E+06    -6.89809E+06     17.3856E+06    -46.0431E+06    -198.390E-03     268.821E-03    -70.4316E-03     419.774E-03    -208.638E-03     278.895E-03    -70.2881E-03     403.869E-03
            1257     13.3563E-03     129.837E-03    -30.6509E+06     12.9170E+06     22.7729E+06    -39.0317E+06    -228.084E-03     304.151E-03    -76.0674E-03     462.495E-03    -245.379E-03     321.334E-03    -75.9278E-03     436.782E-03
            1258     14.0989E-03     130.406E-03    -26.2460E+06     56.2402E+06     54.6059E+06    -31.2335E+06    -254.583E-03     337.141E-03    -82.5577E-03     481.211E-03    -280.260E-03     362.789E-03    -82.3281E-03     443.785E-03
            1259     14.8208E-03     131.000E-03    -29.6021E+06     75.7013E+06     78.8558E+06    -22.9370E+06    -272.317E-03     362.132E-03    -89.8147E-03     461.799E-03    -303.921E-03     393.690E-03    -89.4872E-03     415.746E-03
            1260     15.5041E-03     131.546E-03    -21.6870E+06     55.6055E+06     92.6399E+06    -12.2171E+06    -277.685E-03     375.304E-03    -97.6192E-03     332.638E-03    -299.951E-03     397.442E-03    -97.2052E-03     293.317E-03
            1261     869.762E-06     127.853E-03    -159.656E+06    -90.9914E+06    -159.664E+06    -7.69164E+06    -35.1703E-03     70.1644E-03    -34.9941E-03     17.2694E-03    -35.6044E-03     70.1726E-03    -35.4290E-03     17.1768E-03
            1262     1.73892E-03     127.874E-03    -151.937E+06    -80.1873E+06    -152.907E+06    -13.2298E+06    -37.0118E-03     72.3877E-03    -35.3759E-03     33.1101E-03    -37.4316E-03     72.4266E-03    -35.8038E-03     32.9533E-03
            1263     2.60573E-03     127.911E-03    -141.220E+06    -75.3662E+06    -139.537E+06    -18.7327E+06    -39.7745E-03     75.9980E-03    -36.2236E-03     51.8418E-03    -40.1644E-03     76.0235E-03    -36.6072E-03     51.6221E-03
            1264     3.47078E-03     127.965E-03    -129.573E+06    -79.6342E+06    -124.227E+06    -27.8659E+06    -43.5551E-03     80.9158E-03    -37.3607E-03     72.7827E-03    -43.8999E-03     80.8780E-03    -37.6784E-03     72.4508E-03
            1265     4.33188E-03     128.038E-03    -117.140E+06    -76.9776E+06    -112.528E+06    -36.3054E+06    -48.2426E-03     86.9472E-03    -38.7047E-03     95.6440E-03    -48.5450E-03     86.8872E-03    -38.9858E-03     95.2013E-03
            1266     5.18995E-03     128.134E-03    -103.619E+06    -65.4531E+06    -96.5453E+06    -39.5101E+06    -53.9997E-03     94.2731E-03    -40.2734E-03     120.261E-03    -54.2810E-03     94.2348E-03    -40.5109E-03     119.757E-03
            1267     6.04371E-03     128.253E-03    -90.6593E+06    -68.8924E+06    -75.3275E+06    -41.3363E+06    -61.1784E-03     103.303E-03    -42.1246E-03     146.687E-03    -61.4450E-03     103.223E-03    -42.2699E-03     146.106E-03
            1268     6.89303E-03     128.401E-03    -76.8375E+06    -70.1558E+06    -55.6619E+06    -43.0430E+06    -69.8532E-03     114.075E-03    -44.2216E-03     174.834E-03    -70.1367E-03     113.999E-03    -44.2868E-03     174.116E-03
            1269     7.73671E-03     128.579E-03    -62.3328E+06    -59.1076E+06    -37.2678E+06    -41.9460E+06    -80.3187E-03     126.894E-03    -46.5749E-03     204.707E-03    -80.6949E-03     126.949E-03    -46.5852E-03     203.784E-03
            1270     8.57397E-03     128.792E-03    -50.9355E+06    -48.2746E+06    -19.0601E+06    -39.0521E+06    -93.1732E-03     142.433E-03    -49.2599E-03     236.568E-03    -93.7697E-03     142.736E-03    -49.2114E-03     235.282E-03
            1271     9.40296E-03     129.044E-03    -45.1713E+06    -37.2295E+06    -4.05956E+06    -39.1068E+06    -108.888E-03     161.220E-03    -52.3329E-03     270.095E-03    -109.918E-03     161.974E-03    -52.2337E-03     268.101E-03
            1272     10.2220E-03     129.339E-03    -42.6707E+06    -31.1642E+06     5.28226E+06    -41.2285E+06    -127.675E-03     183.537E-03    -55.8619E-03     303.935E-03    -129.445E-03     185.036E-03    -55.7284E-03     300.695E-03
            1273     11.0297E-03     129.680E-03    -41.0636E+06    -25.4406E+06     12.0419E+06    -43.3541E+06    -149.859E-03     209.790E-03    -59.9309E-03     338.009E-03    -152.885E-03     212.554E-03    -59.7743E-03     332.652E-03
            1274     11.8227E-03     130.073E-03    -39.0631E+06    -20.9490E+06     16.7384E+06    -47.1500E+06    -176.087E-03     240.710E-03    -64.6222E-03     374.898E-03    -181.314E-03     245.685E-03    -64.4515E-03     365.835E-03
            1275     12.6002E-03     130.530E-03    -34.6426E+06    -10.2910E+06     22.0120E+06    -45.7206E+06    -206.111E-03     276.103E-03    -69.9917E-03     416.922E-03    -215.212E-03     284.994E-03    -69.8165E-03     401.593E-03
            1276     13.3569E-03     131.063E-03    -28.4364E+06     2.05785E+06     29.0384E+06    -40.9156E+06    -237.421E-03     313.482E-03    -76.0612E-03     460.472E-03    -252.970E-03     328.870E-03    -75.8777E-03     435.178E-03
            1277     14.0964E-03     131.671E-03    -24.4228E+06     38.4311E+06     55.6830E+06    -27.2301E+06    -259.986E-03     342.702E-03    -82.7165E-03     492.934E-03    -283.842E-03     366.460E-03    -82.4584E-03     456.431E-03
            1278     14.8122E-03     132.313E-03    -13.0440E+06     73.0619E+06     93.1648E+06    -14.2172E+06    -269.543E-03     359.191E-03    -89.6481E-03     495.755E-03    -301.176E-03     390.780E-03    -89.2693E-03     450.546E-03
            1279     15.5485E-03     132.901E-03    -2.08797E+06     46.0480E+06     116.540E+06    -9.29112E+06    -287.036E-03     384.221E-03    -97.1844E-03     379.582E-03    -310.827E-03     407.872E-03    -96.6654E-03     338.456E-03
            1280     869.682E-06     128.868E-03    -123.287E+06    -72.0876E+06    -121.898E+06    -10.7592E+06    -35.6183E-03     71.1344E-03    -35.5162E-03     14.3490E-03    -35.9533E-03     71.1302E-03    -35.8423E-03     14.2092E-03
            1281     1.73797E-03     128.891E-03    -121.694E+06    -64.1470E+06    -115.665E+06    -18.0407E+06    -37.2847E-03     73.1582E-03    -35.8735E-03     27.5424E-03    -37.6328E-03     73.1813E-03    -36.1824E-03     27.3086E-03
            1282     2.60560E-03     128.931E-03    -118.348E+06    -59.5085E+06    -109.347E+06    -25.0140E+06    -39.5358E-03     76.1573E-03    -36.6215E-03     43.3367E-03    -39.8827E-03     76.1893E-03    -36.9104E-03     43.0141E-03
            1283     3.47051E-03     128.989E-03    -114.287E+06    -58.5489E+06    -103.061E+06    -33.4780E+06    -42.6017E-03     80.1753E-03    -37.5736E-03     61.6816E-03    -42.9382E-03     80.1967E-03    -37.8383E-03     61.2515E-03
            1284     4.33367E-03     129.068E-03    -110.610E+06    -58.7315E+06    -96.9284E+06    -43.2741E+06    -46.7923E-03     85.5373E-03    -38.7449E-03     82.6146E-03    -47.1191E-03     85.5439E-03    -38.9840E-03     82.0571E-03
            1285     5.19298E-03     129.169E-03    -105.569E+06    -55.2676E+06    -89.1013E+06    -49.5337E+06    -52.4231E-03     92.6019E-03    -40.1788E-03     106.292E-03    -52.7445E-03     92.6112E-03    -40.3911E-03     105.644E-03
            1286     6.04782E-03     129.297E-03    -97.0392E+06    -58.6827E+06    -76.6932E+06    -52.8948E+06    -59.6933E-03     101.633E-03    -41.9401E-03     132.493E-03    -59.9989E-03     101.610E-03    -42.0977E-03     131.770E-03
            1287     6.89692E-03     129.454E-03    -87.1479E+06    -61.8725E+06    -62.8840E+06    -57.0984E+06    -68.7438E-03     112.776E-03    -44.0323E-03     160.894E-03    -69.0537E-03     112.741E-03    -44.1307E-03     160.039E-03
            1288     7.73992E-03     129.643E-03    -76.0051E+06    -58.9165E+06    -46.5332E+06    -58.3627E+06    -79.8865E-03     126.369E-03    -46.4827E-03     191.179E-03    -80.2554E-03     126.396E-03    -46.5198E-03     190.140E-03
            1289     8.57555E-03     129.868E-03    -62.7362E+06    -53.8053E+06    -26.7385E+06    -53.2256E+06    -93.5465E-03     142.892E-03    -49.3450E-03     223.117E-03    -94.0592E-03     143.071E-03    -49.3097E-03     221.820E-03
            1290     9.40256E-03     130.135E-03    -50.9350E+06    -38.3291E+06    -6.24333E+06    -44.4813E+06    -109.990E-03     162.643E-03    -52.6529E-03     256.179E-03    -110.819E-03     163.177E-03    -52.5546E-03     254.403E-03
            1291     10.2194E-03     130.447E-03    -44.2236E+06    -25.0245E+06     10.2718E+06    -40.1787E+06    -129.610E-03     186.082E-03    -56.4716E-03     289.407E-03    -131.014E-03     187.216E-03    -56.3198E-03     286.639E-03
            1292     11.0224E-03     130.810E-03    -40.3458E+06    -17.4192E+06     21.4264E+06    -40.6481E+06    -152.897E-03     213.773E-03    -60.8761E-03     322.881E-03    -155.294E-03     215.910E-03    -60.6852E-03     318.263E-03
            1293     11.8112E-03     131.229E-03    -36.9732E+06    -8.44129E+06     29.5265E+06    -43.7115E+06    -180.148E-03     246.084E-03    -65.9362E-03     358.962E-03    -184.300E-03     249.999E-03    -65.7227E-03     351.041E-03
            1294     12.5809E-03     131.715E-03    -34.3580E+06    -13.0509E+06     32.9848E+06    -45.9011E+06    -210.865E-03     282.562E-03    -71.6972E-03     399.620E-03    -218.114E-03     289.558E-03    -71.4635E-03     385.993E-03
            1295     13.3351E-03     132.278E-03    -34.8033E+06    -6.96080E+06     42.4060E+06    -39.7536E+06    -238.464E-03     316.472E-03    -78.0077E-03     445.665E-03    -250.837E-03     328.584E-03    -77.7351E-03     423.738E-03
            1296     14.0701E-03     132.921E-03    -27.1950E+06     14.8414E+06     62.0371E+06    -35.6891E+06    -249.873E-03     334.199E-03    -84.3260E-03     484.383E-03    -268.869E-03     352.974E-03    -83.9979E-03     454.161E-03
            1297     14.8287E-03     133.578E-03     3.85760E+06     34.9903E+06     93.3764E+06    -21.3300E+06    -262.410E-03     353.014E-03    -90.6050E-03     498.267E-03    -290.568E-03     381.063E-03    -90.1944E-03     456.515E-03
            1298     15.5320E-03     134.237E-03     14.8301E+06     40.0193E+06     140.611E+06     1.69093E+06    -283.699E-03     381.450E-03    -97.7505E-03     407.643E-03    -308.248E-03     405.830E-03    -97.1269E-03     365.183E-03
            1299     865.281E-06     129.888E-03    -84.9287E+06    -51.2909E+06    -81.1273E+06    -9.22489E+06    -40.7574E-03     80.9755E-03    -40.2181E-03     10.9480E-03    -40.9923E-03     80.9593E-03    -40.4262E-03     10.8161E-03
            1300     1.73021E-03     129.913E-03    -82.1930E+06    -45.7157E+06    -74.4177E+06    -16.2219E+06    -41.9937E-03     82.8195E-03    -40.8257E-03     20.2450E-03    -42.2348E-03     82.8177E-03    -41.0124E-03     20.0112E-03
            1301     2.59292E-03     129.955E-03     -78.694E+06    -41.5709E+06    -67.2986E+06    -23.6494E+06    -43.7649E-03     85.2964E-03    -41.5315E-03     31.7463E-03    -44.0073E-03     85.3024E-03    -41.6936E-03     31.4042E-03
            1302     3.45510E-03     130.016E-03    -75.3393E+06    -38.6887E+06    -60.1454E+06    -30.9816E+06    -46.0813E-03     88.4717E-03    -42.3904E-03     45.3175E-03    -46.3252E-03     88.4804E-03    -42.5257E-03     44.8676E-03
            1303     4.31481E-03     130.098E-03    -73.3834E+06    -38.9801E+06    -52.3481E+06    -37.7588E+06    -49.2232E-03     92.6572E-03    -43.4341E-03     61.3637E-03    -49.4731E-03     92.6556E-03    -43.5329E-03     60.8119E-03
            1304     5.17194E-03     130.205E-03    -73.4044E+06    -39.2560E+06    -48.2401E+06    -44.2466E+06    -53.4913E-03     98.1700E-03    -44.6787E-03     80.6446E-03    -53.7535E-03     98.1683E-03    -44.7565E-03     79.9937E-03
            1305     6.02539E-03     130.338E-03    -74.2449E+06    -43.2149E+06    -48.2817E+06    -50.6459E+06    -59.3388E-03     105.514E-03    -46.1748E-03     103.584E-03    -59.6094E-03     105.505E-03    -46.2459E-03     102.829E-03
            1306     6.87408E-03     130.503E-03    -73.9560E+06    -46.2428E+06    -45.9192E+06    -56.6256E+06    -67.3199E-03     115.332E-03    -48.0123E-03     129.957E-03    -67.6088E-03     115.326E-03    -48.0676E-03     129.082E-03
            1307     7.71601E-03     130.702E-03    -71.6727E+06    -49.0153E+06    -39.0985E+06    -62.4979E+06    -78.0231E-03     128.306E-03    -50.2833E-03     159.534E-03    -78.3535E-03     128.322E-03    -50.3038E-03     158.484E-03
            1308     8.54925E-03     130.940E-03    -67.0618E+06    -57.1431E+06    -31.5771E+06    -62.9813E+06    -91.8420E-03     144.902E-03    -53.0602E-03     191.434E-03    -92.2485E-03     144.961E-03    -53.0380E-03     190.168E-03
            1309     9.37224E-03     131.221E-03    -57.2959E+06    -49.2243E+06    -13.9379E+06    -57.2980E+06    -108.814E-03     165.238E-03    -56.4240E-03     224.416E-03    -109.404E-03     165.492E-03    -56.3392E-03     222.812E-03
            1310     10.1830E-03     131.551E-03    -44.5526E+06    -33.0478E+06     13.2112E+06    -46.0449E+06    -129.111E-03     189.559E-03    -60.4489E-03     256.955E-03    -130.058E-03     190.196E-03    -60.2703E-03     254.729E-03
            1311     10.9812E-03     131.933E-03    -35.3835E+06    -14.1884E+06     33.5501E+06    -38.6866E+06    -152.772E-03     217.907E-03    -65.1347E-03     288.666E-03    -154.377E-03     219.243E-03    -64.8950E-03     285.122E-03
            1312     11.7620E-03     132.375E-03    -31.9541E+06     147.222E+03     46.0670E+06    -36.2981E+06    -179.767E-03     250.304E-03    -70.5372E-03     321.317E-03    -182.564E-03     252.860E-03    -70.2608E-03     315.243E-03
            1313     12.5274E-03     132.885E-03    -31.5634E+06    -1.26837E+06     56.5180E+06    -35.0919E+06    -206.969E-03     283.570E-03    -76.6003E-03     359.410E-03    -211.809E-03     288.136E-03    -76.2701E-03     349.163E-03
            1314     13.2706E-03     133.475E-03    -22.6514E+06    -11.3579E+06     65.7735E+06    -33.3907E+06    -225.072E-03     307.911E-03    -82.8381E-03     403.334E-03    -233.050E-03     315.578E-03    -82.4599E-03     387.652E-03
            1315     14.0267E-03     134.117E-03    -2.03985E+06     21.7614E+06     89.3423E+06    -36.3008E+06    -232.402E-03     321.181E-03    -88.7791E-03     432.563E-03    -244.888E-03     333.479E-03    -88.3610E-03     410.443E-03
            1316     14.7643E-03     134.779E-03    -10.8858E+06    -4.47296E+06     71.2114E+06    -36.0201E+06    -246.744E-03     341.167E-03    -94.4232E-03     470.501E-03    -267.917E-03     362.099E-03    -94.0449E-03     436.863E-03
            1317     15.4818E-03     135.561E-03    -21.4425E+06    -16.6729E+06     82.3381E+06    -17.2671E+06    -248.179E-03     348.220E-03    -100.041E-03     446.471E-03    -270.970E-03     370.663E-03    -99.5742E-03     410.364E-03
            1318     857.456E-06     130.924E-03    -44.7174E+06    -32.8824E+06    -43.2557E+06    -6.84243E+06    -50.6135E-03     100.835E-03    -50.2210E-03     5.64402E-03    -50.7335E-03     100.793E-03    -50.3248E-03     5.52519E-03
            1319     1.71315E-03     130.950E-03    -44.2651E+06    -28.3356E+06    -38.8988E+06    -13.8104E+06    -51.7273E-03     102.531E-03    -50.8040E-03     10.8185E-03    -51.8610E-03     102.506E-03    -50.8932E-03     10.5770E-03
            1320     2.56859E-03     130.994E-03    -43.2522E+06    -24.3345E+06    -30.8672E+06    -20.0779E+06    -53.5227E-03     105.119E-03    -51.5966E-03     16.5162E-03    -53.6730E-03     105.104E-03    -51.6529E-03     16.1582E-03
            1321     3.42120E-03     131.056E-03    -42.4512E+06    -22.9073E+06    -23.4861E+06    -25.2542E+06    -55.4913E-03     108.089E-03    -52.5981E-03     23.3797E-03    -55.6563E-03     108.075E-03    -52.6208E-03     22.9143E-03
            1322     4.27193E-03     131.140E-03    -42.3358E+06    -23.3694E+06    -18.9417E+06    -29.5835E+06    -57.6145E-03     111.345E-03    -53.7308E-03     32.4451E-03    -57.7936E-03     111.330E-03    -53.7302E-03     31.8804E-03
            1323     5.12031E-03     131.249E-03    -42.1666E+06    -23.2808E+06    -14.5222E+06    -34.1019E+06    -60.1665E-03     115.164E-03    -54.9972E-03     44.3070E-03    -60.3626E-03     115.153E-03    -54.9749E-03     43.6418E-03
            1324     5.96606E-03     131.386E-03    -41.7823E+06    -25.5455E+06    -10.7409E+06    -39.5097E+06    -63.6390E-03     120.080E-03    -56.4412E-03     59.6464E-03    -63.8493E-03     120.066E-03    -56.3973E-03     58.8714E-03
            1325     6.80797E-03     131.554E-03    -41.9883E+06    -29.2082E+06    -9.03671E+06    -44.9919E+06    -68.7470E-03     126.884E-03    -58.1367E-03     78.8495E-03    -68.9727E-03     126.867E-03    -58.0787E-03     77.9631E-03
            1326     7.64463E-03     131.760E-03    -45.3445E+06    -31.9881E+06    -8.73301E+06    -48.8232E+06    -76.2943E-03     136.492E-03    -60.1979E-03     102.270E-03    -76.5584E-03     136.493E-03    -60.1294E-03     101.278E-03
            1327     8.47387E-03     132.007E-03    -49.2811E+06    -43.5460E+06    -10.6808E+06    -53.9748E+06    -87.0790E-03     149.833E-03    -62.7536E-03     129.684E-03    -87.3863E-03     149.830E-03    -62.6725E-03     128.525E-03
            1328     9.29258E-03     132.301E-03    -50.6903E+06    -48.0215E+06    -5.50371E+06    -58.0737E+06    -101.695E-03     167.642E-03    -65.9476E-03     159.758E-03    -102.089E-03     167.694E-03    -65.8320E-03     158.353E-03
            1329     10.0987E-03     132.646E-03    -47.3490E+06    -47.1374E+06     7.83048E+06    -54.4522E+06    -120.241E-03     190.134E-03    -69.8924E-03     190.525E-03    -120.790E-03     190.318E-03    -69.7162E-03     188.783E-03
            1330     10.8870E-03     133.047E-03    -39.8960E+06    -25.6691E+06     29.8697E+06    -44.9072E+06    -142.707E-03     217.365E-03    -74.6580E-03     220.412E-03    -143.577E-03     217.912E-03    -74.4136E-03     218.007E-03
            1331     11.6593E-03     133.506E-03    -30.4532E+06    -6.85893E+06     61.0844E+06    -34.2964E+06    -167.358E-03     247.647E-03    -80.2884E-03     250.724E-03    -168.808E-03     248.787E-03    -79.9289E-03     246.984E-03
            1332     12.4080E-03     134.036E-03    -17.0219E+06     2.54813E+06     86.2943E+06    -27.7690E+06    -187.165E-03     273.579E-03    -86.4139E-03     284.355E-03    -189.546E-03     275.652E-03    -85.9614E-03     278.438E-03
            1333     13.1616E-03     134.624E-03    -981.399E+03    -109.382E+03     90.1964E+06    -31.3737E+06    -198.052E-03     290.520E-03    -92.4683E-03     314.903E-03    -201.921E-03     294.107E-03    -92.0157E-03     305.745E-03
            1334     13.9024E-03     135.262E-03    -7.26490E+06     17.2766E+06     90.3026E+06    -29.5194E+06    -204.262E-03     302.509E-03    -98.2476E-03     339.555E-03    -210.696E-03     308.709E-03    -97.8106E-03     326.039E-03
            1335     14.6335E-03     135.955E-03    -15.4616E+06     10.1396E+06     88.2951E+06    -13.3249E+06    -201.071E-03     304.452E-03    -103.381E-03     386.374E-03    -212.468E-03     315.554E-03    -102.932E-03     367.566E-03
            1336     15.4150E-03     136.698E-03    -5.62179E+06    -22.4814E+06     61.8489E+06    -14.8915E+06    -157.366E-03     263.609E-03    -106.243E-03     419.240E-03    -170.757E-03     276.762E-03    -105.893E-03     401.569E-03
            1337     843.360E-06     131.985E-03    -8.64908E+06    -17.9137E+06    -8.37819E+06    -5.06869E+06    -66.5027E-03     132.768E-03    -66.2657E-03    -445.646E-06    -66.5227E-03     132.690E-03    -66.2691E-03    -567.938E-06
            1338     1.68749E-03     132.013E-03    -10.1214E+06    -13.5918E+06    -3.77473E+06    -9.52117E+06    -68.1214E-03     135.144E-03    -67.0221E-03    -1.99168E-03    -68.1653E-03     135.079E-03    -67.0066E-03    -2.23207E-03
            1339     2.52769E-03     132.059E-03    -9.97829E+06    -11.2034E+06     3.62094E+06    -13.9215E+06    -69.7936E-03     137.926E-03    -68.1319E-03    -4.29421E-03    -69.8515E-03     137.862E-03    -68.0831E-03    -4.66361E-03
            1340     3.36596E-03     132.124E-03    -9.61226E+06    -10.9072E+06     9.69079E+06    -16.8010E+06    -71.3714E-03     140.776E-03    -69.4049E-03    -5.26349E-03    -71.4386E-03     140.705E-03    -69.3267E-03    -5.75027E-03
            1341     4.20161E-03     132.209E-03    -9.45838E+06    -11.2420E+06     14.7344E+06    -19.7519E+06    -72.9263E-03     143.744E-03    -70.8179E-03    -4.79446E-03    -73.0038E-03     143.666E-03    -70.7143E-03    -5.40314E-03
            1342     5.03446E-03     132.318E-03    -9.54896E+06    -10.1102E+06     19.2056E+06    -23.4887E+06    -74.4019E-03     146.785E-03    -72.3827E-03    -2.63822E-03    -74.4945E-03     146.709E-03    -72.2582E-03    -3.38090E-03
            1343     5.86392E-03     132.454E-03    -11.1514E+06    -11.7555E+06     22.4980E+06    -26.5969E+06    -75.9525E-03     150.083E-03    -74.1301E-03     1.74708E-03    -76.0650E-03     150.001E-03    -73.9844E-03     879.280E-06
            1344     6.68960E-03     132.623E-03    -15.2663E+06    -14.5984E+06     24.1521E+06    -29.3165E+06    -77.8993E-03     154.011E-03    -76.1119E-03     8.91886E-03    -78.0435E-03     153.928E-03    -75.9478E-03     7.93428E-03
            1345     7.51027E-03     132.828E-03    -19.3954E+06    -19.2216E+06     25.3741E+06    -30.5882E+06    -80.7512E-03     159.166E-03    -78.4148E-03     19.3492E-03    -80.9275E-03     159.077E-03    -78.2319E-03     18.2705E-03
            1346     8.32434E-03     133.077E-03    -21.5339E+06    -21.5103E+06     28.7828E+06    -35.2961E+06    -85.1538E-03     166.306E-03    -81.1520E-03     33.4615E-03    -85.3641E-03     166.222E-03    -80.9457E-03     32.2387E-03
            1347     9.13012E-03     133.373E-03    -23.5551E+06    -32.5432E+06     29.1444E+06    -39.0510E+06    -91.8986E-03     176.340E-03    -84.4414E-03     51.2942E-03    -92.1317E-03     176.232E-03    -84.2143E-03     49.9286E-03
            1348     9.92291E-03     133.725E-03    -26.3043E+06    -39.0170E+06     30.0109E+06    -41.1354E+06    -101.636E-03     190.051E-03    -88.4159E-03     71.7648E-03    -101.916E-03     189.956E-03    -88.1711E-03     70.2362E-03
            1349     10.7036E-03     134.134E-03    -24.0486E+06    -35.5666E+06     43.1624E+06    -38.9898E+06    -114.447E-03     207.664E-03    -93.2166E-03     94.8512E-03    -114.814E-03     207.643E-03    -92.9143E-03     93.1205E-03
            1350     11.4613E-03     134.610E-03    -13.0954E+06    -19.4252E+06     77.3145E+06    -32.3811E+06    -127.435E-03     226.224E-03    -98.7886E-03     121.459E-03    -127.956E-03     226.361E-03    -98.3548E-03     119.444E-03
            1351     12.2128E-03     135.142E-03     2.69756E+06    -1.54797E+06     106.170E+06    -27.6595E+06    -136.642E-03     241.352E-03    -104.710E-03     147.008E-03    -137.415E-03     241.777E-03    -104.181E-03     144.338E-03
            1352     12.9445E-03     135.722E-03     2.72685E+06     10.0732E+06     105.411E+06    -18.3021E+06    -142.461E-03     253.035E-03    -110.574E-03     170.841E-03    -143.747E-03     254.026E-03    -110.065E-03     167.003E-03
            1353     13.6668E-03     136.353E-03    -4.74785E+06     15.2180E+06     110.760E+06    -5.47630E+06    -142.015E-03     258.235E-03    -116.219E-03     196.008E-03    -144.137E-03     260.023E-03    -115.681E-03     190.771E-03
            1354     14.4101E-03     137.018E-03     21.4963E+06     13.6967E+06     128.736E+06     723.883E+03    -121.747E-03     242.474E-03    -120.727E-03     233.364E-03    -125.004E-03     245.449E-03    -120.134E-03     227.170E-03
            1355     15.1441E-03     137.693E-03     20.2955E+06      8.6658E+06     97.8535E+06     5.58664E+06    -42.0342E-03     163.532E-03    -121.498E-03     254.290E-03    -45.3650E-03     166.618E-03    -121.050E-03     250.969E-03
            1356     826.250E-06     133.088E-03     22.3972E+06    -7.77085E+06     24.8254E+06    -4.15562E+06    -91.1884E-03     182.657E-03    -91.4690E-03    -12.2348E-03    -91.1395E-03     182.508E-03    -91.3661E-03    -12.3853E-03
            1357     1.64690E-03     133.120E-03     23.5490E+06    -4.05253E+06     29.9403E+06    -5.72057E+06    -91.8652E-03     183.916E-03    -92.0511E-03    -21.9630E-03    -91.8153E-03     183.777E-03    -91.9297E-03    -22.2024E-03
            1358     2.46700E-03     133.168E-03     24.0133E+06    -2.76640E+06     35.6298E+06    -7.07104E+06    -92.9058E-03     185.935E-03    -93.0290E-03    -31.2878E-03    -92.8581E-03     185.789E-03    -92.8817E-03    -31.6270E-03
            1359     3.28468E-03     133.234E-03     23.8500E+06    -3.68861E+06     42.4686E+06    -7.88353E+06    -94.6382E-03     189.064E-03    -94.4257E-03    -40.9662E-03    -94.5954E-03     188.894E-03    -94.2426E-03    -41.4076E-03
            1360     4.09870E-03     133.321E-03     23.6341E+06    -2.37276E+06     48.3758E+06    -9.16588E+06    -96.3340E-03     192.574E-03    -96.2399E-03    -51.3434E-03    -96.2965E-03     192.389E-03    -96.0289E-03    -51.9013E-03
            1361     4.90839E-03     133.431E-03     21.4586E+06    -1.95084E+06     52.0719E+06    -9.91742E+06    -97.6689E-03     196.097E-03    -98.4278E-03    -62.1599E-03    -97.6407E-03     195.892E-03    -98.1957E-03    -62.8372E-03
            1362     5.71320E-03     133.567E-03     17.8858E+06    -2.32501E+06     55.5242E+06    -10.4021E+06    -98.3438E-03     199.332E-03    -100.988E-03    -73.3380E-03    -98.3282E-03     199.101E-03    -100.733E-03    -74.1417E-03
            1363     6.51197E-03     133.733E-03     14.8005E+06    -5.22070E+06     59.5021E+06    -10.0563E+06    -97.9787E-03     201.912E-03    -103.933E-03    -84.4687E-03    -97.9681E-03     201.636E-03    -103.650E-03    -85.3920E-03
            1364     7.30386E-03     133.934E-03     13.2555E+06    -7.39939E+06     64.4973E+06    -11.8020E+06    -96.3206E-03     203.608E-03    -107.288E-03    -94.7113E-03    -96.3082E-03     203.283E-03    -106.974E-03    -95.7752E-03
            1365     8.08748E-03     134.175E-03     10.4607E+06    -8.54563E+06     69.4171E+06    -12.3746E+06    -93.1477E-03     204.238E-03    -111.090E-03    -102.939E-03    -93.1424E-03     203.871E-03    -110.746E-03    -104.115E-03
            1366     8.86051E-03     134.463E-03     7.20718E+06    -12.7434E+06     73.8891E+06    -14.7411E+06    -88.3233E-03     203.707E-03    -115.384E-03    -107.453E-03    -88.3257E-03     203.288E-03    -115.007E-03    -108.746E-03
            1367     9.62412E-03     134.802E-03     4.48165E+06    -22.9431E+06     77.9498E+06    -14.3631E+06    -82.3597E-03     202.557E-03    -120.197E-03    -105.527E-03    -82.3647E-03     202.077E-03    -119.781E-03    -106.876E-03
            1368     10.3692E-03     135.201E-03     7.07572E+06    -22.2567E+06     85.9195E+06    -19.5821E+06    -75.4229E-03     200.892E-03    -125.469E-03    -93.8916E-03    -75.4421E-03     200.418E-03    -125.017E-03    -95.3043E-03
            1369     11.1090E-03     135.655E-03     4.76171E+06    -21.6398E+06     93.6597E+06    -19.6238E+06    -67.2111E-03     198.252E-03    -131.041E-03    -73.5666E-03    -67.2876E-03     197.814E-03    -130.548E-03    -74.8962E-03
            1370     11.8320E-03     136.170E-03     2.36366E+06    -3.39352E+06     102.105E+06    -22.8919E+06    -58.4521E-03     195.080E-03    -136.628E-03    -46.2672E-03    -58.6379E-03     194.815E-03    -136.116E-03    -47.5503E-03
            1371     12.5518E-03     136.734E-03    -7.99405E+06    -3.30031E+06     100.286E+06    -9.61458E+06    -50.4548E-03     192.454E-03    -141.999E-03    -13.3325E-03    -50.7724E-03     192.305E-03    -141.482E-03    -14.4018E-03
            1372     13.2761E-03     137.344E-03     4.75954E+06     3.69128E+06     118.905E+06     3.37717E+06    -40.7844E-03     187.667E-03    -146.883E-03     24.0719E-03    -41.1973E-03     187.681E-03    -146.301E-03     22.9858E-03
            1373     13.9755E-03     137.979E-03     5.33963E+06     13.7602E+06     101.134E+06    -16.1985E+06    -10.9469E-03     160.623E-03    -149.676E-03     75.4256E-03    -11.4164E-03     160.837E-03    -149.198E-03     74.2601E-03
            1374     14.7886E-03     138.594E-03    -7.39723E+06    -1.37455E+06     57.0549E+06     631.158E+03     46.7074E-03     101.982E-03    -148.689E-03     80.1492E-03     46.4193E-03     102.040E-03    -148.391E-03     79.8639E-03
            1375     15.3066E-03     68.9258E-03    -5.06317E+06     124.987E+06     96.9625E+06    -29.1846E+03    -109.852E-03     220.918E-03    -111.066E-03     169.531E-03    -120.259E-03     231.469E-03    -110.755E-03     164.273E-03
            1376     14.5004E-03     68.6573E-03    -11.4282E+06     121.078E+06     98.1776E+06    -90.1940E+03    -114.164E-03     225.271E-03    -111.107E-03     258.987E-03    -130.576E-03     241.788E-03    -110.775E-03     249.550E-03
            1377     13.6959E-03     68.3420E-03    -16.3521E+06     110.271E+06     89.8335E+06     121.846E+03    -117.794E-03     228.913E-03    -111.119E-03     282.382E-03    -133.515E-03     244.707E-03    -110.806E-03     270.155E-03
            1378     12.8893E-03     68.0295E-03    -22.2476E+06     96.0252E+06     64.7977E+06     49.6023E+03    -118.062E-03     229.132E-03    -111.070E-03     261.160E-03    -130.077E-03     241.221E-03    -110.853E-03     249.035E-03
            1379     12.0825E-03     67.7647E-03    -27.7285E+06     78.0469E+06     31.0140E+06    -229.907E+03    -116.717E-03     227.695E-03    -110.978E-03     221.775E-03    -124.729E-03     235.796E-03    -110.896E-03     211.369E-03
            1380     11.2773E-03     67.5405E-03    -31.1085E+06     40.3905E+06     11.4674E+06    -282.362E+03    -115.744E-03     226.717E-03    -110.973E-03     191.329E-03    -121.161E-03     232.134E-03    -110.929E-03     182.601E-03
            1381     10.4711E-03     67.3433E-03    -34.1432E+06    -15.7643E+06     4.71801E+06     29.1915E+03    -115.347E-03     226.403E-03    -111.056E-03     172.121E-03    -119.209E-03     230.074E-03    -110.960E-03     164.712E-03
            1382     9.66568E-03     67.1619E-03    -37.4154E+06    -62.0230E+06    -1.32430E+06     311.304E+03    -115.135E-03     226.263E-03    -111.128E-03     158.470E-03    -117.974E-03     228.753E-03    -110.991E-03     152.150E-03
            1383     8.85952E-03     66.9942E-03    -40.6593E+06    -94.2425E+06    -4.47134E+06     86.1548E+03    -114.837E-03     226.032E-03    -111.195E-03     145.659E-03    -116.943E-03     227.672E-03    -111.022E-03     140.268E-03
            1384     8.05409E-03     66.8400E-03    -43.7655E+06    -122.193E+06    -5.87495E+06     4.73212E+03    -114.528E-03     225.786E-03    -111.258E-03     132.811E-03    -116.081E-03     226.767E-03    -111.047E-03     128.230E-03
            1385     7.24852E-03     66.7000E-03    -47.4953E+06    -133.856E+06    -10.1190E+06     130.807E+03    -114.086E-03     225.363E-03    -111.277E-03     120.302E-03    -115.233E-03     225.895E-03    -111.064E-03     116.448E-03
            1386     6.44300E-03     66.5731E-03    -51.7442E+06    -148.580E+06    -16.1882E+06     107.644E+03    -113.582E-03     224.873E-03    -111.291E-03     107.753E-03    -114.412E-03     225.039E-03    -111.081E-03     104.537E-03
            1387     5.63746E-03     66.4605E-03    -56.3405E+06    -169.026E+06    -23.0219E+06    -16.1114E+03    -113.090E-03     224.402E-03    -111.312E-03     94.9653E-03    -113.669E-03     224.247E-03    -111.100E-03     92.3088E-03
            1388     4.83206E-03     66.3617E-03    -61.2373E+06    -178.809E+06    -31.6930E+06    -149.788E+03    -112.637E-03     223.947E-03    -111.310E-03     82.0509E-03    -113.033E-03     223.583E-03    -111.120E-03     79.8922E-03
            1389     4.02664E-03     66.2775E-03    -66.2174E+06    -193.457E+06    -41.0879E+06    -19.3009E+03    -112.255E-03     223.563E-03    -111.309E-03     68.9149E-03    -112.505E-03     223.011E-03    -111.138E-03     67.2008E-03
            1390     3.22134E-03     66.2077E-03    -71.2330E+06    -207.933E+06    -51.8130E+06     342.465E+03    -111.926E-03     223.220E-03    -111.295E-03     55.5759E-03    -112.064E-03     222.518E-03    -111.149E-03     54.2645E-03
            1391     2.41595E-03     66.1531E-03    -75.4826E+06    -218.576E+06    -62.9691E+06     507.295E+03    -111.673E-03     222.932E-03    -111.259E-03     42.0829E-03    -111.730E-03     222.127E-03    -111.147E-03     41.1335E-03
            1392     1.61068E-03     66.1134E-03    -78.7195E+06    -225.268E+06    -72.7926E+06     304.294E+03    -111.443E-03     222.647E-03    -111.204E-03     28.5346E-03    -111.444E-03     221.780E-03    -111.127E-03     27.9099E-03
            1393     805.387E-06     66.0891E-03    -81.2888E+06    -229.762E+06    -79.7362E+06    -7.88576E+03    -111.200E-03     222.393E-03    -111.193E-03     15.3670E-03    -111.169E-03     221.491E-03    -111.141E-03     15.0308E-03
            1394     15.3086E-03     67.7393E-03    -5.13814E+06     125.390E+06     97.5506E+06    -2.67906E+03    -110.162E-03     221.194E-03    -111.032E-03     169.604E-03    -120.596E-03     231.773E-03    -110.719E-03     164.376E-03
            1395     14.5039E-03     67.4773E-03    -10.6104E+06     122.011E+06     99.2268E+06    -1.88270E+03    -113.517E-03     224.604E-03    -111.087E-03     260.389E-03    -129.990E-03     241.185E-03    -110.752E-03     251.082E-03
            1396     13.6946E-03     67.1588E-03    -17.3422E+06     109.262E+06     88.6968E+06    -320.782E+03    -117.574E-03     228.701E-03    -111.127E-03     283.453E-03    -133.328E-03     244.524E-03    -110.817E-03     271.239E-03
            1397     12.8881E-03     66.8464E-03    -23.0859E+06     95.3041E+06     64.1179E+06    -443.584E+03    -118.230E-03     229.316E-03    -111.087E-03     261.415E-03    -130.269E-03     241.426E-03    -110.871E-03     249.238E-03
            1398     12.0833E-03     66.5805E-03    -27.1439E+06     78.6879E+06     31.7039E+06    -1.58875E+03    -116.776E-03     227.768E-03    -110.992E-03     221.932E-03    -124.786E-03     235.869E-03    -110.909E-03     211.525E-03
            1399     11.2769E-03     66.3579E-03    -31.1259E+06     40.3490E+06     11.4085E+06     199.738E+03    -115.641E-03     226.632E-03    -110.991E-03     191.786E-03    -121.054E-03     232.045E-03    -110.947E-03     183.082E-03
            1400     10.4711E-03     66.1598E-03    -34.4746E+06    -16.3732E+06     4.54122E+06     298.955E+03    -115.323E-03     226.407E-03    -111.084E-03     172.511E-03    -119.185E-03     230.075E-03    -110.988E-03     165.113E-03
            1401     9.66488E-03     65.9787E-03    -37.3362E+06    -62.0950E+06    -1.19388E+06     235.776E+03    -115.261E-03     226.417E-03    -111.156E-03     158.455E-03    -118.102E-03     228.909E-03    -111.018E-03     152.123E-03
            1402     8.85964E-03     65.8106E-03    -40.1771E+06    -93.5091E+06    -4.37871E+06    -29.5022E+03    -114.984E-03     226.195E-03    -111.211E-03     145.565E-03    -117.088E-03     227.837E-03    -111.039E-03     140.166E-03
            1403     8.05387E-03     65.6567E-03    -43.8622E+06    -122.460E+06    -6.59023E+06    -305.187E+03    -114.554E-03     225.818E-03    -111.265E-03     132.695E-03    -116.104E-03     226.798E-03    -111.057E-03     128.112E-03
            1404     7.24838E-03     65.5163E-03    -47.7807E+06    -134.452E+06    -10.7520E+06    -73.0682E+03    -114.086E-03     225.369E-03    -111.283E-03     120.098E-03    -115.231E-03     225.898E-03    -111.073E-03     116.242E-03
            1405     6.44293E-03     65.3897E-03    -51.9234E+06    -148.380E+06    -16.0250E+06     87.5828E+03    -113.600E-03     224.898E-03    -111.298E-03     107.507E-03    -114.431E-03     225.064E-03    -111.087E-03     104.291E-03
            1406     5.63755E-03     65.2770E-03    -56.4566E+06    -168.693E+06    -22.4079E+06    -125.356E+03    -113.124E-03     224.440E-03    -111.316E-03     94.7777E-03    -113.704E-03     224.286E-03    -111.101E-03     92.1174E-03
            1407     4.83209E-03     65.1783E-03    -61.3091E+06    -178.883E+06    -31.5558E+06    -136.456E+03    -112.663E-03     223.969E-03    -111.306E-03     81.9694E-03    -113.060E-03     223.605E-03    -111.115E-03     79.8088E-03
            1408     4.02671E-03     65.0939E-03     -66.464E+06    -193.690E+06    -41.1963E+06      90.837E+03    -112.272E-03     223.570E-03    -111.298E-03     68.8656E-03    -112.523E-03     223.017E-03    -111.127E-03     67.1531E-03
            1409     3.22129E-03     65.0243E-03    -71.2592E+06    -207.973E+06    -51.8105E+06     137.325E+03    -111.942E-03     223.218E-03    -111.276E-03     55.5400E-03    -112.081E-03     222.515E-03    -111.130E-03     54.2254E-03
            1410     2.41603E-03     64.9695E-03    -75.2741E+06    -218.493E+06    -62.9735E+06    -15.6423E+03    -111.638E-03     222.875E-03    -111.237E-03     42.0227E-03    -111.693E-03     222.070E-03    -111.126E-03     41.0649E-03
            1411     1.61073E-03     64.9300E-03    -78.7216E+06    -225.107E+06    -72.4213E+06     42.7257E+03    -111.381E-03     222.581E-03    -111.200E-03     28.4710E-03    -111.382E-03     221.714E-03    -111.122E-03     27.8435E-03
            1412     805.342E-06     64.9059E-03    -80.9929E+06    -229.526E+06    -79.3541E+06     118.142E+03    -111.241E-03     222.411E-03    -111.170E-03     15.3350E-03    -111.210E-03     221.509E-03    -111.117E-03     15.0010E-03
            1413     15.3084E-03     66.5601E-03    -5.12198E+06     125.308E+06     97.6609E+06    -325.571E+03    -109.675E-03     220.736E-03    -111.061E-03     169.779E-03    -120.115E-03     231.320E-03    -110.747E-03     164.630E-03
            1414     14.4985E-03     66.2916E-03    -10.9462E+06     121.664E+06     99.1921E+06     140.641E+03    -113.608E-03     224.740E-03    -111.133E-03     261.153E-03    -130.115E-03     241.353E-03    -110.797E-03     251.842E-03
            1415     13.6949E-03     65.9771E-03    -16.6266E+06     110.003E+06     89.2321E+06     302.752E+03    -118.011E-03     229.173E-03    -111.162E-03     283.658E-03    -133.788E-03     245.023E-03    -110.851E-03     271.379E-03
            1416     12.8892E-03     65.6621E-03    -22.7184E+06     95.5590E+06     63.7119E+06    -250.582E+03    -118.269E-03     229.377E-03    -111.108E-03     261.698E-03    -130.305E-03     241.487E-03    -110.895E-03     249.520E-03
            1417     12.0821E-03     65.3980E-03    -28.1236E+06     77.7856E+06     30.8506E+06     51.7571E+03    -116.632E-03     227.656E-03    -111.024E-03     222.269E-03    -124.630E-03     235.741E-03    -110.942E-03     211.892E-03
            1418     11.2762E-03     65.1739E-03    -32.0088E+06     40.5881E+06     11.4173E+06     565.055E+03    -115.770E-03     226.800E-03    -111.030E-03     191.826E-03    -121.185E-03     232.212E-03    -110.985E-03     183.122E-03
            1419     10.4703E-03     64.9768E-03    -35.0469E+06    -15.6572E+06     4.07102E+06    -85.9617E+03    -115.551E-03     226.659E-03    -111.107E-03     172.259E-03    -119.416E-03     230.331E-03    -111.014E-03     164.840E-03
            1420     9.66507E-03     64.7946E-03    -37.3779E+06    -62.2709E+06    -1.64247E+06    -754.350E+03    -115.406E-03     226.571E-03    -111.164E-03     158.091E-03    -118.244E-03     229.060E-03    -111.028E-03     151.737E-03
            1421     8.85940E-03     64.6272E-03    -39.8616E+06    -93.7963E+06    -4.62208E+06    -340.440E+03    -115.072E-03     226.279E-03    -111.207E-03     145.205E-03    -117.173E-03     227.919E-03    -111.037E-03     139.796E-03
            1422     8.05408E-03     64.4730E-03    -43.0949E+06    -122.644E+06    -6.15916E+06     193.895E+03    -114.622E-03     225.875E-03    -111.253E-03     132.424E-03    -116.168E-03     226.851E-03    -111.044E-03     127.843E-03
            1423     7.24862E-03     64.3329E-03    -47.2806E+06    -134.515E+06    -9.90211E+06     102.459E+03    -114.081E-03     225.348E-03    -111.267E-03     119.829E-03    -115.224E-03     225.875E-03    -111.053E-03     115.974E-03
            1424     6.44308E-03     64.2061E-03    -51.6391E+06    -148.158E+06    -15.8300E+06    -143.705E+03    -113.557E-03     224.834E-03    -111.278E-03     107.310E-03    -114.385E-03     225.000E-03    -111.067E-03     104.092E-03
            1425     5.63761E-03     64.0936E-03    -56.1862E+06    -168.733E+06    -22.4219E+06    -150.535E+03    -113.104E-03     224.400E-03    -111.295E-03     94.6700E-03    -113.683E-03     224.245E-03    -111.081E-03     92.0093E-03
            1426     4.83219E-03     63.9948E-03    -61.2431E+06    -178.985E+06    -30.8941E+06    -28.7196E+03    -112.656E-03     223.943E-03    -111.287E-03     81.8710E-03    -113.053E-03     223.577E-03    -111.093E-03     79.7113E-03
            1427     4.02676E-03     63.9105E-03    -66.2593E+06    -193.681E+06    -40.4873E+06        -79.3623    -112.250E-03     223.527E-03    -111.277E-03     68.7892E-03    -112.501E-03     222.972E-03    -111.102E-03     67.0759E-03
            1428     3.22148E-03     63.8408E-03    -70.8383E+06    -207.821E+06    -51.6559E+06    -250.674E+03    -111.906E-03     223.159E-03    -111.253E-03     55.5308E-03    -112.043E-03     222.456E-03    -111.107E-03     54.2113E-03
            1429     2.41614E-03     63.7861E-03    -75.1560E+06    -218.722E+06    -63.2349E+06    -294.579E+03    -111.595E-03     222.814E-03    -111.219E-03     41.9968E-03    -111.649E-03     222.009E-03    -111.109E-03     41.0356E-03
            1430     1.61065E-03     63.7469E-03    -78.6458E+06    -225.348E+06    -72.8716E+06    -106.481E+03    -111.350E-03     222.543E-03    -111.193E-03     28.4447E-03    -111.351E-03     221.675E-03    -111.116E-03     27.8152E-03
            1431     805.309E-06     63.7224E-03    -81.0320E+06    -229.396E+06    -79.0775E+06    -66.3401E+03    -111.274E-03     222.412E-03    -111.138E-03     15.2640E-03    -111.244E-03     221.511E-03    -111.083E-03     14.9270E-03
            1432     15.3050E-03     65.3734E-03    -5.53503E+06     124.866E+06     97.1459E+06    -261.084E+03    -109.296E-03     220.394E-03    -111.097E-03     168.441E-03    -119.665E-03     230.904E-03    -110.785E-03     163.310E-03
            1433     14.5024E-03     65.1123E-03    -11.2907E+06     121.207E+06     98.6405E+06    -357.378E+03    -113.939E-03     225.106E-03    -111.166E-03     260.080E-03    -130.359E-03     241.630E-03    -110.832E-03     250.726E-03
            1434     13.6938E-03     64.7910E-03    -16.7194E+06     109.996E+06     89.3569E+06    -220.747E+03    -117.937E-03     229.131E-03    -111.194E-03     284.013E-03    -133.690E-03     244.956E-03    -110.882E-03     271.743E-03
            1435     12.8876E-03     64.4800E-03    -22.9049E+06     95.3436E+06     63.9704E+06     579.002E+03    -118.317E-03     229.463E-03    -111.147E-03     261.652E-03    -130.334E-03     241.552E-03    -110.932E-03     249.498E-03
            1436     12.0818E-03     64.2139E-03    -27.9446E+06     77.9410E+06     31.0334E+06     989.454E+03    -116.885E-03     227.937E-03    -111.052E-03     221.870E-03    -124.883E-03     236.022E-03    -110.969E-03     211.481E-03
            1437     11.2760E-03     63.9908E-03    -31.0573E+06     41.2472E+06     11.8044E+06     143.191E+03    -116.032E-03     227.069E-03    -111.036E-03     191.127E-03    -121.445E-03     232.484E-03    -110.992E-03     182.387E-03
            1438     10.4708E-03     63.7924E-03    -33.4805E+06    -14.8961E+06     4.97395E+06    -411.468E+03    -115.699E-03     226.794E-03    -111.095E-03     171.599E-03    -119.554E-03     230.463E-03    -111.000E-03     164.162E-03
            1439     9.66519E-03     63.6114E-03    -36.7325E+06    -62.1045E+06    -819.523E+03    -529.966E+03    -115.404E-03     226.547E-03    -111.143E-03     157.622E-03    -118.237E-03     229.031E-03    -111.004E-03     151.271E-03
            1440     8.85983E-03     63.4434E-03    -40.6708E+06    -94.8281E+06    -4.25678E+06    -346.386E+03    -115.058E-03     226.241E-03    -111.183E-03     144.937E-03    -117.161E-03     227.875E-03    -111.008E-03     139.526E-03
            1441     8.05433E-03     63.2896E-03    -44.2884E+06    -122.599E+06    -6.34379E+06    -155.056E+03    -114.625E-03     225.845E-03    -111.220E-03     132.206E-03    -116.177E-03     226.823E-03    -111.010E-03     127.617E-03
            1442     7.24891E-03     63.1493E-03    -47.4987E+06    -133.970E+06    -9.77725E+06    -498.001E+03    -114.036E-03     225.267E-03    -111.230E-03     119.699E-03    -115.180E-03     225.795E-03    -111.016E-03     115.838E-03
            1443     6.44339E-03     63.0229E-03    -51.2673E+06    -148.812E+06    -15.9248E+06    -335.647E+03    -113.493E-03     224.735E-03    -111.242E-03     107.273E-03    -114.318E-03     224.896E-03    -111.031E-03     104.055E-03
            1444     5.63781E-03     62.9100E-03    -55.9953E+06    -168.795E+06    -22.7627E+06     122.064E+03    -113.061E-03     224.322E-03    -111.261E-03     94.6618E-03    -113.638E-03     224.166E-03    -111.048E-03     92.0081E-03
            1445     4.83240E-03     62.8114E-03    -60.9664E+06    -178.695E+06    -30.6584E+06    -98.4574E+03    -112.625E-03     223.880E-03    -111.255E-03     81.8316E-03    -113.020E-03     223.514E-03    -111.061E-03     79.6733E-03
            1446     4.02699E-03     62.7271E-03    -65.6941E+06    -193.603E+06    -40.5393E+06    -420.934E+03    -112.197E-03     223.442E-03    -111.246E-03     68.7848E-03    -112.445E-03     222.888E-03    -111.072E-03     67.0669E-03
            1447     3.22146E-03     62.6574E-03    -70.6152E+06    -208.157E+06    -52.1956E+06    -231.136E+03    -111.828E-03     223.058E-03    -111.230E-03     55.5276E-03    -111.962E-03     222.354E-03    -111.087E-03     54.2095E-03
            1448     2.41599E-03     62.6028E-03    -75.2832E+06    -218.920E+06    -63.5839E+06    -8.34179E+03    -111.558E-03     222.768E-03    -111.210E-03     41.9740E-03    -111.612E-03     221.962E-03    -111.102E-03     41.0173E-03
            1449     1.61079E-03     62.5635E-03    -78.8143E+06    -225.380E+06    -72.8613E+06     33.7205E+03    -111.358E-03     222.545E-03    -111.187E-03     28.4376E-03    -111.359E-03     221.677E-03    -111.110E-03     27.8089E-03
            1450     805.381E-06     62.5392E-03    -80.7663E+06    -229.605E+06    -79.6289E+06     97.1626E+03    -111.274E-03     222.392E-03    -111.118E-03     15.3555E-03    -111.241E-03     221.490E-03    -111.067E-03     15.0216E-03
            1451     15.3079E-03     64.1906E-03    -4.57595E+06     125.413E+06     97.7671E+06     211.271E+03    -109.052E-03     220.161E-03    -111.110E-03     169.677E-03    -119.437E-03     230.693E-03    -110.796E-03     164.558E-03
            1452     14.4989E-03     63.9273E-03    -10.5509E+06     121.257E+06     98.7544E+06    -356.335E+03    -113.938E-03     225.127E-03    -111.188E-03     260.674E-03    -130.400E-03     241.694E-03    -110.855E-03     251.253E-03
            1453     13.6940E-03     63.6099E-03    -18.0895E+06     108.512E+06     87.4471E+06    -288.447E+03    -118.175E-03     229.380E-03    -111.205E-03     283.759E-03    -133.931E-03     245.203E-03    -110.899E-03     271.439E-03
            1454     12.8875E-03     63.2952E-03    -23.7818E+06     94.6511E+06     64.1992E+06     203.771E+03    -118.476E-03     229.626E-03    -111.150E-03     260.620E-03    -130.457E-03     241.672E-03    -110.932E-03     248.447E-03
            1455     12.0821E-03     63.0307E-03    -27.3773E+06     79.0555E+06     33.7535E+06     6.84812E+03    -117.121E-03     228.162E-03    -111.041E-03     221.050E-03    -125.137E-03     236.264E-03    -110.948E-03     210.604E-03
            1456     11.2768E-03     62.8065E-03    -30.2615E+06     42.1409E+06     13.3713E+06    -255.985E+03    -116.139E-03     227.139E-03    -111.000E-03     190.648E-03    -121.549E-03     232.552E-03    -110.950E-03     181.894E-03
            1457     10.4712E-03     62.6090E-03    -33.5391E+06    -15.1652E+06     5.11195E+06    -261.505E+03    -115.604E-03     226.652E-03    -111.047E-03     171.181E-03    -119.452E-03     230.312E-03    -110.951E-03     163.756E-03
            1458     9.66581E-03     62.4277E-03    -36.9484E+06    -62.5124E+06    -678.127E+03     324.017E+03    -115.292E-03     226.390E-03    -111.098E-03     157.449E-03    -118.122E-03     228.869E-03    -110.957E-03     151.117E-03
            1459     8.86018E-03     62.2601E-03    -40.3128E+06    -94.5410E+06    -3.60329E+06     477.138E+03    -114.990E-03     226.132E-03    -111.142E-03     144.914E-03    -117.093E-03     227.767E-03    -110.964E-03     139.516E-03
            1460     8.05475E-03     62.1059E-03    -44.0901E+06    -121.568E+06     -6.3537E+06    -532.120E+03    -114.512E-03     225.691E-03    -111.180E-03     132.183E-03    -116.064E-03     226.673E-03    -110.971E-03     127.595E-03
            1461     7.24923E-03     61.9662E-03    -48.4821E+06    -134.122E+06    -10.6767E+06    -948.944E+03    -113.966E-03     225.161E-03    -111.194E-03     119.767E-03    -115.113E-03     225.690E-03    -110.983E-03     115.905E-03
            1462     6.44354E-03     61.8396E-03    -53.4333E+06    -149.988E+06    -16.4798E+06    -323.391E+03    -113.500E-03     224.710E-03    -111.210E-03     107.352E-03    -114.334E-03     224.870E-03    -110.998E-03     104.135E-03
            1463     5.63807E-03     61.7269E-03    -58.0281E+06    -167.980E+06    -24.2085E+06    -467.611E+03    -113.026E-03     224.244E-03    -111.218E-03     94.6825E-03    -113.611E-03     224.097E-03    -111.011E-03     92.0243E-03
            1464     4.83251E-03     61.6280E-03    -61.9091E+06    -178.521E+06    -33.0049E+06    -1.17978E+06    -112.548E-03     223.758E-03    -111.210E-03     81.8501E-03    -112.945E-03     223.397E-03    -111.026E-03     79.6827E-03
            1465     4.02700E-03     61.5438E-03    -66.3491E+06    -194.936E+06    -41.8577E+06    -618.999E+03    -112.155E-03     223.367E-03    -111.212E-03     68.7499E-03    -112.402E-03     222.808E-03    -111.043E-03     67.0305E-03
            1466     3.22159E-03     61.4742E-03    -71.3496E+06    -208.487E+06    -52.8721E+06     104.898E+03    -111.791E-03     222.991E-03    -111.200E-03     55.4284E-03    -111.927E-03     222.288E-03    -111.059E-03     54.1158E-03
            1467     2.41619E-03     61.4196E-03    -75.5477E+06    -218.928E+06    -64.1129E+06     124.575E+03    -111.501E-03     222.687E-03    -111.186E-03     41.9238E-03    -111.555E-03     221.882E-03    -111.079E-03     40.9706E-03
            1468     1.61062E-03     61.3802E-03    -78.5932E+06    -225.369E+06    -73.1334E+06     50.1560E+03    -111.330E-03     222.501E-03    -111.172E-03     28.3984E-03    -111.330E-03     221.634E-03    -111.097E-03     27.7703E-03
            1469     805.335E-06     61.3560E-03    -81.1055E+06    -229.454E+06    -79.0772E+06     63.8466E+03    -111.273E-03     222.373E-03    -111.100E-03     15.2950E-03    -111.243E-03     221.471E-03    -111.045E-03     14.9605E-03
            1470     15.3051E-03     63.0101E-03    -4.60574E+06     125.565E+06     97.6696E+06     593.865E+03    -109.155E-03     220.266E-03    -111.110E-03     169.168E-03    -119.500E-03     230.756E-03    -110.798E-03     164.050E-03
            1471     14.4999E-03     62.7434E-03    -10.4782E+06     121.532E+06     98.7220E+06     58.8473E+03    -113.945E-03     225.130E-03    -111.185E-03     260.221E-03    -130.395E-03     241.688E-03    -110.852E-03     250.761E-03
            1472     13.6940E-03     62.4254E-03    -17.3681E+06     108.842E+06     88.0794E+06     35.8443E+03    -118.505E-03     229.691E-03    -111.185E-03     282.646E-03    -134.260E-03     245.514E-03    -110.877E-03     270.271E-03
            1473     12.8890E-03     62.1125E-03    -22.7444E+06     95.7214E+06     64.8779E+06    -49.9505E+03    -118.747E-03     229.848E-03    -111.102E-03     260.588E-03    -130.753E-03     241.926E-03    -110.883E-03     248.370E-03
            1474     12.0830E-03     61.8465E-03    -27.5925E+06     78.8806E+06     33.2341E+06    -1.08075E+06    -117.179E-03     228.154E-03    -110.975E-03     220.823E-03    -125.203E-03     236.263E-03    -110.883E-03     210.342E-03
            1475     11.2775E-03     61.6229E-03    -31.1543E+06     41.4125E+06     13.0375E+06    -767.482E+03    -115.936E-03     226.870E-03    -110.934E-03     190.236E-03    -121.335E-03     232.267E-03    -110.883E-03     181.499E-03
            1476     10.4721E-03     61.4255E-03    -33.9528E+06    -15.4468E+06     4.87794E+06     93.2504E+03    -115.334E-03     226.326E-03    -110.992E-03     171.189E-03    -119.176E-03     229.978E-03    -110.896E-03     163.796E-03
            1477     9.66617E-03     61.2447E-03    -36.7396E+06    -63.1132E+06    -1.13371E+06     302.313E+03    -115.199E-03     226.252E-03    -111.053E-03     157.709E-03    -118.027E-03     228.729E-03    -110.914E-03     151.384E-03
            1478     8.86064E-03     61.0764E-03    -39.3442E+06    -94.0608E+06    -3.49957E+06     215.912E+03    -114.893E-03     225.996E-03    -111.104E-03     145.073E-03    -116.991E-03     227.632E-03    -110.928E-03     139.678E-03
            1479     8.05495E-03     60.9229E-03    -42.8180E+06    -120.642E+06    -5.34497E+06     287.145E+03    -114.423E-03     225.576E-03    -111.152E-03     132.257E-03    -115.970E-03     226.557E-03    -110.942E-03     127.688E-03
            1480     7.24917E-03     60.7829E-03    -47.6424E+06    -134.340E+06    -9.89633E+06     426.127E+03    -113.977E-03     225.147E-03    -111.170E-03     119.757E-03    -115.119E-03     225.672E-03    -110.956E-03     115.914E-03
            1481     6.44376E-03     60.6562E-03    -52.3531E+06    -149.510E+06    -15.8226E+06    -90.8072E+03    -113.507E-03     224.687E-03    -111.180E-03     107.292E-03    -114.337E-03     224.846E-03    -110.966E-03     104.079E-03
            1482     5.63829E-03     60.5436E-03    -56.7585E+06    -167.013E+06    -23.7171E+06    -895.226E+03    -112.991E-03     224.174E-03    -111.183E-03     94.6700E-03    -113.571E-03     224.029E-03    -110.977E-03     92.0083E-03
            1483     4.83273E-03     60.4450E-03    -62.0578E+06    -179.114E+06    -34.4026E+06    -868.190E+03    -112.512E-03     223.684E-03    -111.171E-03     81.8799E-03    -112.907E-03     223.322E-03    -110.994E-03     79.7189E-03
            1484     4.02719E-03     60.3606E-03    -67.5125E+06    -196.345E+06    -43.7463E+06    -564.042E+03    -112.130E-03     223.303E-03    -111.173E-03     68.7485E-03    -112.378E-03     222.742E-03    -111.009E-03     67.0320E-03
            1485     3.22174E-03     60.2911E-03    -71.7720E+06    -208.809E+06    -53.3556E+06    -316.837E+03    -111.778E-03     222.940E-03    -111.162E-03     55.3961E-03    -111.915E-03     222.236E-03    -111.022E-03     54.0791E-03
            1486     2.41619E-03     60.2365E-03    -75.5548E+06    -218.945E+06    -64.1045E+06    -118.191E+03    -111.485E-03     222.625E-03    -111.140E-03     41.9165E-03    -111.539E-03     221.820E-03    -111.033E-03     40.9602E-03
            1487     1.61085E-03     60.1970E-03    -78.9252E+06    -225.347E+06    -72.9673E+06    -112.190E+03    -111.282E-03     222.402E-03    -111.121E-03     28.3434E-03    -111.283E-03     221.536E-03    -111.044E-03     27.7134E-03
            1488     805.408E-06     60.1727E-03    -81.1809E+06    -229.430E+06    -79.4707E+06    -334.435E+03    -111.247E-03     222.263E-03    -111.016E-03     15.2371E-03    -111.217E-03     221.362E-03    -110.963E-03     14.8985E-03
            1489     15.3084E-03     61.8289E-03    -5.83392E+06     125.074E+06     96.7535E+06     368.326E+03    -109.997E-03     221.068E-03    -111.071E-03     167.677E-03    -120.367E-03     231.581E-03    -110.760E-03     162.458E-03
            1490     14.5008E-03     61.5601E-03    -10.6735E+06     122.447E+06     99.0864E+06     316.626E+03    -113.969E-03     225.087E-03    -111.118E-03     260.125E-03    -130.446E-03     241.674E-03    -110.785E-03     250.707E-03
            1491     13.6950E-03     61.2419E-03    -16.0456E+06     109.811E+06     89.5955E+06     43.8299E+03    -118.282E-03     229.405E-03    -111.123E-03     282.498E-03    -134.006E-03     245.203E-03    -110.811E-03     270.158E-03
            1492     12.8889E-03     60.9284E-03    -22.4841E+06     95.7871E+06     64.4108E+06    -525.803E+03    -118.824E-03     229.855E-03    -111.031E-03     260.288E-03    -130.851E-03     241.955E-03    -110.815E-03     248.029E-03
            1493     12.0841E-03     60.6625E-03    -26.9210E+06     79.0212E+06     31.8207E+06     -603.48E+03    -116.958E-03     227.855E-03    -110.896E-03     220.687E-03    -124.953E-03     235.942E-03    -110.813E-03     210.248E-03
            1494     11.2787E-03     60.4398E-03    -30.8659E+06     40.7100E+06     11.9984E+06    -471.809E+03    -115.522E-03     226.401E-03    -110.879E-03     190.571E-03    -120.911E-03     231.790E-03    -110.833E-03     181.879E-03
            1495     10.4721E-03     60.2429E-03    -34.0885E+06    -16.3149E+06     4.42580E+06    -220.977E+03    -115.198E-03     226.161E-03    -110.963E-03     171.880E-03    -119.041E-03     229.812E-03    -110.868E-03     164.499E-03
            1496     9.66642E-03     60.0610E-03    -36.6866E+06    -62.8286E+06    -1.21741E+06    -160.795E+03    -115.190E-03     226.222E-03    -111.032E-03     158.134E-03    -118.020E-03     228.702E-03    -110.893E-03     151.806E-03
            1497     8.86074E-03     59.8935E-03    -39.8504E+06    -94.2509E+06    -3.78272E+06    -311.097E+03    -114.880E-03     225.964E-03    -111.084E-03     145.163E-03    -116.979E-03     227.598E-03    -110.909E-03     139.766E-03
            1498     8.05497E-03     59.7396E-03    -43.2067E+06    -121.576E+06    -5.54485E+06     382.880E+03    -114.468E-03     225.599E-03    -111.131E-03     132.298E-03    -116.014E-03     226.576E-03    -110.920E-03     127.732E-03
            1499     7.24969E-03     59.5996E-03    -46.3729E+06    -133.801E+06    -9.30725E+06     715.977E+03    -114.001E-03     225.143E-03    -111.142E-03     119.752E-03    -115.139E-03     225.669E-03    -110.927E-03     115.913E-03
            1500     6.44404E-03     59.4730E-03    -50.2502E+06    -148.010E+06    -15.1801E+06     46.4649E+03    -113.466E-03     224.614E-03    -111.148E-03     107.307E-03    -114.288E-03     224.776E-03    -110.936E-03     104.098E-03
            1501     5.63837E-03     59.3605E-03    -55.3691E+06    -167.643E+06    -22.3500E+06     83.5936E+03    -112.973E-03     224.134E-03    -111.160E-03     94.6496E-03    -113.548E-03     223.981E-03    -110.949E-03     92.0011E-03
            1502     4.83280E-03     59.2618E-03    -60.9009E+06    -179.383E+06    -32.2125E+06     608.635E+03    -112.506E-03     223.656E-03    -111.150E-03     81.8488E-03    -112.898E-03     223.288E-03    -110.963E-03     79.7062E-03
            1503     4.02732E-03     59.1775E-03    -66.1808E+06    -195.456E+06    -43.2078E+06     125.485E+03    -112.097E-03     223.237E-03    -111.141E-03     68.7741E-03    -112.340E-03     222.677E-03    -110.977E-03     67.0682E-03
            1504     3.22178E-03     59.1079E-03    -71.4432E+06    -209.300E+06    -53.7333E+06    -408.002E+03    -111.781E-03     222.905E-03    -111.124E-03     55.4146E-03    -111.915E-03     222.199E-03    -110.986E-03     54.0967E-03
            1505     2.41643E-03     59.0534E-03    -75.8452E+06    -219.154E+06    -63.6490E+06    -293.266E+03    -111.508E-03     222.598E-03    -111.089E-03     41.8768E-03    -111.565E-03     221.792E-03    -110.980E-03     40.9172E-03
            1506     1.61092E-03     59.0139E-03    -79.2285E+06    -225.411E+06    -73.0607E+06    -349.635E+03    -111.231E-03     222.279E-03    -111.048E-03     28.3181E-03    -111.234E-03     221.412E-03    -110.971E-03     27.6857E-03
            1507     805.462E-06     58.9898E-03    -81.6782E+06    -229.828E+06    -80.1421E+06    -226.752E+03    -111.117E-03     222.102E-03    -110.985E-03     15.3089E-03    -111.088E-03     221.201E-03    -110.934E-03     14.9719E-03
            1508     15.3073E-03     60.6435E-03    -5.17017E+06     125.515E+06     97.3880E+06    -269.354E+03    -110.338E-03     221.396E-03    -111.058E-03     168.079E-03    -120.819E-03     232.022E-03    -110.746E-03     162.821E-03
            1509     14.5030E-03     60.3788E-03    -11.0450E+06     122.694E+06     99.0734E+06     354.816E+03    -114.449E-03     225.532E-03    -111.083E-03     261.827E-03    -131.102E-03     242.294E-03    -110.749E-03     252.342E-03
            1510     13.6960E-03     60.0590E-03    -16.7133E+06     109.856E+06     89.3254E+06     268.110E+03    -118.648E-03     229.716E-03    -111.068E-03     283.772E-03    -134.433E-03     245.573E-03    -110.757E-03     271.374E-03
            1511     12.8912E-03     59.7443E-03    -22.2866E+06     95.8618E+06     64.4820E+06    -613.502E+03    -118.514E-03     229.494E-03    -110.980E-03     261.024E-03    -130.531E-03     241.585E-03    -110.764E-03     248.806E-03
            1512     12.0849E-03     59.4799E-03    -27.3133E+06     78.4796E+06     31.4466E+06    -319.603E+03    -116.495E-03     227.372E-03    -110.877E-03     221.651E-03    -124.477E-03     235.444E-03    -110.794E-03     211.292E-03
            1513     11.2778E-03     59.2572E-03    -30.9816E+06     40.7923E+06     11.9806E+06     79.1322E+03    -115.525E-03     226.407E-03    -110.883E-03     191.452E-03    -120.921E-03     231.804E-03    -110.837E-03     182.776E-03
            1514     10.4721E-03     59.0597E-03    -34.1234E+06    -16.3894E+06     4.35482E+06    -251.867E+03    -115.397E-03     226.361E-03    -110.964E-03     172.200E-03    -119.249E-03     230.021E-03    -110.869E-03     164.801E-03
            1515     9.66634E-03     58.8778E-03    -37.4232E+06    -62.9280E+06    -1.92279E+06    -417.279E+03    -115.250E-03     226.271E-03    -111.021E-03     158.131E-03    -118.081E-03     228.751E-03    -110.885E-03     151.802E-03
            1516     8.86073E-03     58.7102E-03    -40.6711E+06    -94.2950E+06    -4.46066E+06    -146.568E+03    -114.935E-03     226.002E-03    -111.067E-03     145.051E-03    -117.035E-03     227.636E-03    -110.894E-03     139.657E-03
            1517     8.05539E-03     58.5564E-03    -44.2772E+06    -122.157E+06    -6.77157E+06    -388.432E+03    -114.477E-03     225.584E-03    -111.107E-03     132.308E-03    -116.026E-03     226.562E-03    -110.899E-03     127.731E-03
            1518     7.24962E-03     58.4163E-03    -47.9253E+06    -133.850E+06    -10.8752E+06    -510.799E+03    -113.936E-03     225.053E-03    -111.117E-03     119.897E-03    -115.079E-03     225.583E-03    -110.908E-03     116.047E-03
            1519     6.44404E-03     58.2900E-03    -52.1835E+06    -148.056E+06    -15.7604E+06     100.534E+03    -113.463E-03     224.593E-03    -111.130E-03     107.393E-03    -114.294E-03     224.759E-03    -110.919E-03     104.184E-03
            1520     5.63858E-03     58.1773E-03    -57.0633E+06    -168.128E+06    -22.4575E+06     593.178E+03    -112.990E-03     224.131E-03    -111.141E-03     94.6757E-03    -113.573E-03     223.980E-03    -110.927E-03     92.0319E-03
            1521     4.83307E-03     58.0787E-03    -62.0602E+06    -179.403E+06    -31.5262E+06     862.566E+03    -112.492E-03     223.620E-03    -111.129E-03     81.8480E-03    -112.890E-03     223.253E-03    -110.936E-03     79.7089E-03
            1522     4.02741E-03     57.9944E-03    -67.4297E+06    -194.174E+06    -42.6149E+06     924.375E+03    -112.068E-03     223.183E-03    -111.114E-03     68.7684E-03    -112.320E-03     222.630E-03    -110.948E-03     67.0739E-03
            1523     3.22193E-03     57.9249E-03    -72.5067E+06    -208.266E+06    -53.8427E+06    -19.3200E+03    -111.749E-03     222.842E-03    -111.093E-03     55.4792E-03    -111.889E-03     222.142E-03    -110.955E-03     54.1689E-03
            1524     2.41648E-03     57.8701E-03    -76.7473E+06    -219.645E+06    -64.2938E+06    -866.369E+03    -111.485E-03     222.541E-03    -111.056E-03     41.9287E-03    -111.544E-03     221.735E-03    -110.948E-03     40.9636E-03
            1525     1.61110E-03     57.8312E-03    -79.9663E+06    -226.063E+06    -73.7987E+06    -593.649E+03    -111.219E-03     222.223E-03    -111.004E-03     28.3021E-03    -111.223E-03     221.355E-03    -110.929E-03     27.6680E-03
            1526     805.499E-06     57.8068E-03    -82.3242E+06    -230.358E+06    -80.4932E+06    -150.341E+03    -111.006E-03     222.001E-03    -110.995E-03     15.3593E-03    -110.979E-03     221.098E-03    -110.944E-03     15.0244E-03
            1527     15.3073E-03     59.4614E-03    -5.14000E+06     125.495E+06     97.8628E+06    -411.408E+03    -109.967E-03     221.052E-03    -111.085E-03     168.221E-03    -120.400E-03     231.629E-03    -110.770E-03     163.013E-03
            1528     14.4995E-03     59.1929E-03    -11.2576E+06     122.445E+06     99.2941E+06     88.7182E+03    -115.016E-03     226.123E-03    -111.107E-03     261.798E-03    -131.641E-03     242.854E-03    -110.771E-03     252.242E-03
            1529     13.6965E-03     58.8742E-03    -17.3142E+06     110.354E+06     88.9262E+06    -62.0951E+03    -118.658E-03     229.735E-03    -111.077E-03     284.527E-03    -134.487E-03     245.636E-03    -110.767E-03     272.120E-03
            1530     12.8898E-03     58.5614E-03    -23.0278E+06     95.6657E+06     63.9688E+06    -317.563E+03    -118.279E-03     229.285E-03    -111.005E-03     261.947E-03    -130.291E-03     241.368E-03    -110.791E-03     249.795E-03
            1531     12.0829E-03     58.2970E-03    -28.0174E+06     77.7518E+06     31.2507E+06    -93.2206E+03    -116.661E-03     227.575E-03    -110.914E-03     221.927E-03    -124.647E-03     235.648E-03    -110.830E-03     211.563E-03
            1532     11.2777E-03     58.0738E-03    -31.4008E+06     40.7368E+06     11.8944E+06    -120.297E+03    -115.898E-03     226.801E-03    -110.902E-03     191.187E-03    -121.304E-03     232.205E-03    -110.857E-03     182.472E-03
            1533     10.4721E-03     57.8760E-03    -34.4535E+06    -16.0264E+06     4.16023E+06    -149.125E+03    -115.579E-03     226.538E-03    -110.959E-03     171.831E-03    -119.438E-03     230.206E-03    -110.865E-03     164.411E-03
            1534     9.66665E-03     57.6948E-03    -37.3132E+06    -62.7514E+06    -2.23677E+06    -225.715E+03    -115.289E-03     226.292E-03    -111.003E-03     157.918E-03    -118.120E-03     228.774E-03    -110.869E-03     151.588E-03
            1535     8.86107E-03     57.5267E-03     -40.156E+06    -94.6220E+06    -4.84715E+06    -347.253E+03    -114.880E-03     225.928E-03    -111.048E-03     145.085E-03    -116.976E-03     227.560E-03    -110.877E-03     139.692E-03
            1536     8.05536E-03     57.3733E-03    -43.4595E+06    -121.770E+06    -6.00414E+06    -134.974E+03    -114.419E-03     225.516E-03    -111.097E-03     132.344E-03    -115.967E-03     226.494E-03    -110.887E-03     127.771E-03
            1537     7.24975E-03     57.2334E-03    -48.1121E+06    -134.032E+06    -10.5367E+06     17.4347E+03    -113.921E-03     225.031E-03    -111.110E-03     119.913E-03    -115.065E-03     225.560E-03    -110.899E-03     116.070E-03
            1538     6.44415E-03     57.1066E-03    -52.9512E+06    -148.925E+06    -16.6546E+06     33.5620E+03    -113.442E-03     224.562E-03    -111.120E-03     107.427E-03    -114.274E-03     224.726E-03    -110.911E-03     104.218E-03
            1539     5.63859E-03     56.9943E-03    -57.6894E+06    -168.397E+06    -22.7371E+06     511.257E+03    -112.990E-03     224.123E-03    -111.133E-03     94.7608E-03    -113.575E-03     223.972E-03    -110.919E-03     92.1160E-03
            1540     4.83299E-03     56.8956E-03    -62.9258E+06    -179.320E+06    -30.9529E+06     837.147E+03    -112.515E-03     223.636E-03    -111.121E-03     81.9132E-03    -112.919E-03     223.270E-03    -110.925E-03     79.7734E-03
            1541     4.02757E-03     56.8115E-03    -67.5443E+06    -193.311E+06    -41.2673E+06     324.159E+03    -112.077E-03     223.180E-03    -111.103E-03     68.8494E-03    -112.333E-03     222.630E-03    -110.931E-03     67.1477E-03
            1542     3.22199E-03     56.7418E-03    -71.7270E+06    -207.155E+06    -52.8307E+06    -137.040E+03    -111.696E-03     222.777E-03    -111.081E-03     55.5530E-03    -111.836E-03     222.080E-03    -110.941E-03     54.2434E-03
            1543     2.41643E-03     56.6873E-03    -76.2917E+06    -219.640E+06    -64.9385E+06    -386.397E+03    -111.407E-03     222.465E-03    -111.058E-03     41.9897E-03    -111.463E-03     221.658E-03    -110.953E-03     41.0330E-03
            1544     1.61095E-03     56.6480E-03    -80.3496E+06    -227.022E+06    -75.2137E+06    -448.293E+03    -111.212E-03     222.241E-03    -111.029E-03     28.3677E-03    -111.215E-03     221.371E-03    -110.959E-03     27.7352E-03
            1545     805.588E-06     56.6243E-03    -82.5332E+06    -231.036E+06    -81.2512E+06    -120.357E+03    -111.044E-03     222.080E-03    -111.036E-03     15.4880E-03    -111.015E-03     221.176E-03    -110.988E-03     15.1517E-03
            1546     15.3051E-03     58.2740E-03    -5.37390E+06     124.539E+06     97.4650E+06    -127.013E+03    -109.854E-03     220.929E-03    -111.075E-03     168.630E-03    -120.219E-03     231.435E-03    -110.760E-03     163.419E-03
            1547     14.5033E-03     58.0103E-03    -11.0076E+06     121.545E+06     99.0994E+06    -15.8178E+03    -114.679E-03     225.787E-03    -111.107E-03     260.528E-03    -131.134E-03     242.347E-03    -110.772E-03     251.032E-03
            1548     13.6946E-03     57.6902E-03    -16.7827E+06     111.110E+06     89.5496E+06    -55.6522E+03    -118.188E-03     229.288E-03    -111.100E-03     283.570E-03    -133.942E-03     245.116E-03    -110.789E-03     271.252E-03
            1549     12.8887E-03     57.3784E-03    -23.0638E+06     96.2182E+06     64.2899E+06         294.696    -118.419E-03     229.448E-03    -111.029E-03     260.282E-03    -130.385E-03     241.488E-03    -110.813E-03     248.136E-03
            1550     12.0838E-03     57.1133E-03    -27.9572E+06     78.1281E+06     31.1227E+06    -118.677E+03    -116.918E-03     227.830E-03    -110.911E-03     220.648E-03    -124.899E-03     235.898E-03    -110.828E-03     210.247E-03
            1551     11.2780E-03     56.8901E-03    -31.3550E+06     40.4036E+06     11.3541E+06    -391.239E+03    -115.863E-03     226.746E-03    -110.883E-03     190.679E-03    -121.268E-03     232.150E-03    -110.839E-03     181.952E-03
            1552     10.4724E-03     56.6926E-03    -34.1713E+06    -15.9019E+06     4.53492E+06    -225.789E+03    -115.496E-03     226.439E-03    -110.944E-03     171.775E-03    -119.353E-03     230.106E-03    -110.848E-03     164.359E-03
            1553     9.66682E-03     56.5112E-03    -37.1496E+06    -62.3083E+06    -1.59140E+06    -56.1281E+03    -115.229E-03     226.223E-03    -110.993E-03     157.951E-03    -118.063E-03     228.708E-03    -110.857E-03     151.622E-03
            1554     8.86108E-03     56.3438E-03    -40.7599E+06    -94.6764E+06    -5.03269E+06    -267.451E+03    -114.810E-03     225.851E-03    -111.041E-03     145.209E-03    -116.909E-03     227.484E-03    -110.869E-03     139.822E-03
            1555     8.05531E-03     56.1900E-03    -44.6950E+06    -122.451E+06    -6.54593E+06    -116.521E+03    -114.403E-03     225.497E-03    -111.093E-03     132.426E-03    -115.955E-03     226.474E-03    -110.884E-03     127.856E-03
            1556     7.24984E-03     56.0501E-03    -48.3951E+06    -133.885E+06    -10.1219E+06     223.965E+03    -113.924E-03     225.034E-03    -111.110E-03     119.949E-03    -115.072E-03     225.564E-03    -110.896E-03     116.107E-03
            1557     6.44415E-03     55.9237E-03    -52.5526E+06    -148.997E+06    -16.1547E+06     145.640E+03    -113.416E-03     224.537E-03    -111.121E-03     107.517E-03    -114.247E-03     224.699E-03    -110.909E-03     104.312E-03
            1558     5.63850E-03     55.8110E-03    -57.1209E+06    -169.337E+06    -22.7258E+06     258.035E+03    -112.968E-03     224.105E-03    -111.137E-03     94.7943E-03    -113.549E-03     223.948E-03    -110.922E-03     92.1480E-03
            1559     4.83307E-03     55.7126E-03    -61.3861E+06    -178.908E+06    -30.4621E+06     234.000E+03    -112.514E-03     223.641E-03    -111.128E-03     81.9516E-03    -112.911E-03     223.274E-03    -110.931E-03     79.8049E-03
            1560     4.02747E-03     55.6284E-03    -66.5204E+06    -192.726E+06    -40.8960E+06     170.790E+03    -112.089E-03     223.200E-03    -111.111E-03     68.9153E-03    -112.341E-03     222.650E-03    -110.939E-03     67.2131E-03
            1561     3.22198E-03     55.5589E-03    -72.3030E+06    -206.998E+06    -52.7956E+06     134.429E+03    -111.688E-03     222.780E-03    -111.093E-03     55.5856E-03    -111.831E-03     222.085E-03    -110.952E-03     54.2802E-03
            1562     2.41642E-03     55.5043E-03    -76.9445E+06    -219.486E+06    -64.7531E+06     120.503E+03    -111.353E-03     222.438E-03    -111.085E-03     42.0103E-03    -111.413E-03     221.633E-03    -110.979E-03     41.0614E-03
            1563     1.61081E-03     55.4652E-03    -80.3442E+06    -227.174E+06    -75.1597E+06     229.842E+03    -111.163E-03     222.260E-03    -111.097E-03     28.3915E-03    -111.166E-03     221.390E-03    -111.027E-03     27.7689E-03
            1564     805.257E-06     55.4410E-03    -82.8533E+06    -231.345E+06    -81.2621E+06    -29.1964E+03    -111.229E-03     222.274E-03    -111.045E-03     15.5070E-03    -111.202E-03     221.369E-03    -110.996E-03     15.1693E-03
            1565     15.3097E-03     57.0912E-03    -4.33046E+06     125.234E+06     98.5418E+06     176.324E+03    -110.065E-03     221.108E-03    -111.043E-03     169.428E-03    -120.405E-03     231.592E-03    -110.726E-03     164.211E-03
            1566     14.5000E-03     56.8260E-03    -10.2561E+06     121.821E+06     99.6212E+06         85.6484    -114.314E-03     225.393E-03    -111.078E-03     260.340E-03    -130.761E-03     241.947E-03    -110.742E-03     250.838E-03
            1567     13.6960E-03     56.5078E-03    -17.8292E+06     110.300E+06     88.5566E+06    -147.161E+03    -118.356E-03     229.419E-03    -111.063E-03     282.348E-03    -134.113E-03     245.247E-03    -110.754E-03     269.991E-03
            1568     12.8906E-03     56.1944E-03    -23.3870E+06     96.1786E+06     64.2503E+06    -67.4616E+03    -118.358E-03     229.338E-03    -110.980E-03     259.685E-03    -130.310E-03     241.362E-03    -110.764E-03     247.542E-03
            1569     12.0844E-03     55.9301E-03    -27.8228E+06     78.5836E+06     31.4433E+06    -72.3271E+03    -116.666E-03     227.534E-03    -110.867E-03     220.715E-03    -124.654E-03     235.610E-03    -110.784E-03     210.329E-03
            1570     11.2785E-03     55.7071E-03    -31.6899E+06     40.3090E+06     11.0992E+06    -211.167E+03    -115.621E-03     226.474E-03    -110.853E-03     190.951E-03    -121.024E-03     231.876E-03    -110.810E-03     182.250E-03
            1571     10.4724E-03     55.5093E-03    -35.0571E+06    -16.2644E+06     4.03989E+06    -303.583E+03    -115.285E-03     226.216E-03    -110.931E-03     171.955E-03    -119.140E-03     229.877E-03    -110.836E-03     164.560E-03
            1572     9.66669E-03     55.3280E-03    -38.1694E+06    -62.7275E+06    -1.91634E+06    -260.236E+03    -115.115E-03     226.110E-03    -110.995E-03     158.027E-03    -117.950E-03     228.593E-03    -110.858E-03     151.705E-03
            1573     8.86099E-03     55.1608E-03    -41.2703E+06    -94.1923E+06    -5.01735E+06     133.352E+03    -114.832E-03     225.878E-03    -111.047E-03     145.275E-03    -116.935E-03     227.515E-03    -110.875E-03     139.893E-03
            1574     8.05546E-03     55.0068E-03    -44.7927E+06    -122.675E+06    -6.93157E+06    -19.4752E+03    -114.412E-03     225.510E-03    -111.098E-03     132.564E-03    -115.963E-03     226.486E-03    -110.889E-03     127.997E-03
            1575     7.24967E-03     54.8671E-03    -49.1148E+06    -134.409E+06    -10.4844E+06    -75.1366E+03    -113.924E-03     225.040E-03    -111.116E-03     120.002E-03    -115.073E-03     225.568E-03    -110.903E-03     116.158E-03
            1576     6.44408E-03     54.7405E-03    -53.9328E+06    -148.811E+06    -16.1260E+06     236.468E+03    -113.428E-03     224.558E-03    -111.129E-03     107.512E-03    -114.266E-03     224.722E-03    -110.916E-03     104.310E-03
            1577     5.63859E-03     54.6280E-03    -58.7038E+06    -168.724E+06    -24.4375E+06    -621.320E+03    -112.934E-03     224.072E-03    -111.138E-03     94.8492E-03    -113.520E-03     223.922E-03    -110.931E-03     92.1953E-03
            1578     4.83284E-03     54.5294E-03    -63.3045E+06    -179.342E+06    -33.6887E+06    -1.05901E+06    -112.486E-03     223.616E-03    -111.129E-03     81.9977E-03    -112.887E-03     223.253E-03    -110.946E-03     79.8375E-03
            1579     4.02737E-03     54.4453E-03    -67.4276E+06    -193.593E+06    -41.8641E+06    -178.095E+03    -112.093E-03     223.221E-03    -111.128E-03     68.8494E-03    -112.347E-03     222.669E-03    -110.958E-03     67.1427E-03
            1580     3.22183E-03     54.3758E-03    -71.5571E+06    -206.836E+06    -52.0033E+06     442.582E+03    -111.706E-03     222.821E-03    -111.115E-03     55.4666E-03    -111.846E-03     222.124E-03    -110.972E-03     54.1636E-03
            1581     2.41631E-03     54.3215E-03    -76.2440E+06    -219.471E+06    -64.0575E+06     569.828E+03    -111.380E-03     222.486E-03    -111.106E-03     41.9225E-03    -111.437E-03     221.679E-03    -110.998E-03     40.9785E-03
            1582     1.61080E-03     54.2822E-03    -80.0765E+06    -226.634E+06    -74.2806E+06     408.983E+03    -111.189E-03     222.304E-03    -111.115E-03     28.3885E-03    -111.192E-03     221.434E-03    -111.042E-03     27.7692E-03
            1583     805.332E-06     54.2579E-03    -82.1200E+06    -230.865E+06    -80.8541E+06     246.478E+03    -111.330E-03     222.301E-03    -110.972E-03     15.5534E-03    -111.300E-03     221.397E-03    -110.922E-03     15.2202E-03
            1584     15.3068E-03     55.9109E-03    -5.10838E+06     124.704E+06     97.8489E+06    -173.226E+03    -110.619E-03     221.639E-03    -111.020E-03     168.744E-03    -120.999E-03     232.160E-03    -110.705E-03     163.438E-03
            1585     14.5032E-03     55.6415E-03    -10.8995E+06     121.476E+06     99.5037E+06    -109.425E+03    -114.598E-03     225.628E-03    -111.030E-03     260.101E-03    -131.111E-03     242.245E-03    -110.692E-03     250.564E-03
            1586     13.6972E-03     55.3243E-03    -16.8257E+06     111.453E+06     89.7075E+06     316.766E+03    -118.052E-03     229.062E-03    -111.009E-03     282.066E-03    -133.793E-03     244.878E-03    -110.698E-03     269.775E-03
            1587     12.8908E-03     55.0118E-03    -22.9334E+06     96.2961E+06     63.7688E+06     407.277E+03    -117.931E-03     228.877E-03    -110.946E-03     261.055E-03    -129.897E-03     240.918E-03    -110.733E-03     248.976E-03
            1588     12.0846E-03     54.7472E-03    -28.0090E+06     78.1169E+06     30.7450E+06     104.043E+03    -116.571E-03     227.431E-03    -110.860E-03     221.931E-03    -124.574E-03     235.523E-03    -110.779E-03     211.555E-03
            1589     11.2784E-03     54.5240E-03    -31.3756E+06     40.7219E+06     11.4511E+06     210.069E+03    -115.726E-03     226.581E-03    -110.855E-03     191.431E-03    -121.137E-03     231.992E-03    -110.811E-03     182.727E-03
            1590     10.4726E-03     54.3264E-03    -34.4581E+06    -16.1366E+06     4.45367E+06     238.197E+03    -115.248E-03     226.182E-03    -110.934E-03     172.096E-03    -119.099E-03     229.840E-03    -110.838E-03     164.715E-03
            1591     9.66655E-03     54.1450E-03    -37.8184E+06    -62.8012E+06    -1.50201E+06     14.3941E+03    -115.051E-03     226.056E-03    -111.005E-03     158.160E-03    -117.880E-03     228.532E-03    -110.866E-03     151.853E-03
            1592     8.86091E-03     53.9773E-03    -40.8925E+06    -94.5268E+06    -4.73899E+06    -164.245E+03    -114.827E-03     225.888E-03    -111.061E-03     145.336E-03    -116.928E-03     227.522E-03    -110.888E-03     139.949E-03
            1593     8.05511E-03     53.8239E-03    -44.1316E+06    -122.602E+06    -6.47837E+06         782.969    -114.453E-03     225.565E-03    -111.112E-03     132.569E-03    -116.002E-03     226.541E-03    -110.902E-03     128.000E-03
            1594     7.24964E-03     53.6837E-03    -47.7186E+06    -134.554E+06    -10.1289E+06     108.044E+03    -113.969E-03     225.096E-03    -111.126E-03     119.970E-03    -115.111E-03     225.620E-03    -110.913E-03     116.129E-03
            1595     6.44409E-03     53.5575E-03    -51.1462E+06    -148.664E+06    -15.3747E+06    -310.897E+03    -113.453E-03     224.590E-03    -111.136E-03     107.431E-03    -114.278E-03     224.749E-03    -110.924E-03     104.222E-03
            1596     5.63835E-03     53.4449E-03    -55.1234E+06    -168.093E+06    -21.8394E+06    -262.975E+03    -112.960E-03     224.112E-03    -111.151E-03     94.7442E-03    -113.533E-03     223.956E-03    -110.937E-03     92.0939E-03
            1597     4.83290E-03     53.3464E-03    -60.6445E+06    -179.630E+06    -31.1885E+06    -39.5122E+03    -112.498E-03     223.642E-03    -111.144E-03     81.8751E-03    -112.888E-03     223.270E-03    -110.951E-03     79.7274E-03
            1598     4.02735E-03     53.2621E-03    -66.7959E+06    -194.153E+06    -41.8698E+06    -339.363E+03    -112.085E-03     223.219E-03    -111.134E-03     68.7326E-03    -112.335E-03     222.664E-03    -110.965E-03     67.0234E-03
            1599     3.22187E-03     53.1929E-03    -72.1048E+06    -207.489E+06    -52.7514E+06     18.7859E+03    -111.722E-03     222.842E-03    -111.119E-03     55.3535E-03    -111.863E-03     222.143E-03    -110.978E-03     54.0446E-03
            1600     2.41636E-03     53.1384E-03    -76.1103E+06    -219.221E+06    -63.7119E+06     515.118E+03    -111.441E-03     222.540E-03    -111.099E-03     41.8157E-03    -111.498E-03     221.734E-03    -110.990E-03     40.8701E-03
            1601     1.61086E-03     53.0993E-03    -79.3457E+06    -225.984E+06    -73.5091E+06     537.968E+03    -111.259E-03     222.327E-03    -111.068E-03     28.3862E-03    -111.260E-03     221.458E-03    -110.993E-03     27.7685E-03
            1602     805.495E-06     53.0745E-03    -81.6639E+06    -230.209E+06    -80.0759E+06     324.298E+03    -111.188E-03     222.147E-03    -110.959E-03     15.5573E-03    -111.158E-03     221.244E-03    -110.907E-03     15.2253E-03
            1603     15.3090E-03     54.7248E-03    -6.34601E+06     123.855E+06     96.3267E+06    -391.785E+03    -110.643E-03     221.657E-03    -111.014E-03     169.105E-03    -121.165E-03     232.316E-03    -110.702E-03     163.752E-03
            1604     14.5034E-03     54.4577E-03    -12.1077E+06     120.375E+06     97.9714E+06    -646.932E+03    -114.541E-03     225.566E-03    -111.025E-03     261.395E-03    -131.139E-03     242.264E-03    -110.692E-03     251.893E-03
            1605     13.6972E-03     54.1419E-03    -16.2872E+06     111.809E+06     90.6938E+06    -44.6696E+03    -117.782E-03     228.818E-03    -111.036E-03     283.921E-03    -133.523E-03     244.636E-03    -110.721E-03     271.700E-03
            1606     12.8901E-03     53.8297E-03    -22.2334E+06     96.7583E+06     65.0964E+06     746.409E+03    -118.181E-03     229.170E-03    -110.989E-03     261.976E-03    -130.185E-03     241.250E-03    -110.771E-03     249.866E-03
            1607     12.0834E-03     53.5636E-03    -27.3089E+06     78.4518E+06     31.1327E+06     750.092E+03    -116.750E-03     227.642E-03    -110.892E-03     222.111E-03    -124.746E-03     235.730E-03    -110.811E-03     211.736E-03
            1608     11.2780E-03     53.3402E-03    -30.7255E+06     40.8957E+06     11.9849E+06     313.575E+03    -115.738E-03     226.623E-03    -110.885E-03     191.510E-03    -121.147E-03     232.034E-03    -110.840E-03     182.806E-03
            1609     10.4723E-03     53.1435E-03    -33.7143E+06    -15.8346E+06     5.42468E+06     445.440E+03    -115.418E-03     226.381E-03    -110.962E-03     172.327E-03    -119.273E-03     230.044E-03    -110.863E-03     164.938E-03
            1610     9.66659E-03     52.9619E-03    -36.7186E+06    -62.0090E+06    -512.800E+03     501.893E+03    -115.197E-03     226.219E-03    -111.022E-03     158.284E-03    -118.026E-03     228.699E-03    -110.882E-03     151.975E-03
            1611     8.86065E-03     52.7943E-03    -40.0779E+06    -94.7760E+06    -4.22889E+06     85.2540E+03    -114.868E-03     225.939E-03    -111.072E-03     145.275E-03    -116.964E-03     227.570E-03    -110.897E-03     139.891E-03
            1612     8.05521E-03     52.6404E-03    -43.6683E+06    -122.698E+06    -6.64622E+06    -263.919E+03    -114.477E-03     225.594E-03    -111.117E-03     132.420E-03    -116.022E-03     226.567E-03    -110.909E-03     127.848E-03
            1613     7.24961E-03     52.5007E-03    -47.1785E+06    -134.169E+06    -10.5396E+06    -665.022E+03    -113.978E-03     225.105E-03    -111.128E-03     119.890E-03    -115.116E-03     225.630E-03    -110.917E-03     116.040E-03
            1614     6.44394E-03     52.3742E-03    -51.6793E+06    -148.772E+06    -15.7074E+06    -548.929E+03    -113.503E-03     224.639E-03    -111.136E-03     107.321E-03    -114.328E-03     224.799E-03    -110.924E-03     104.109E-03
            1615     5.63860E-03     52.2618E-03    -57.2364E+06    -168.817E+06    -22.3987E+06    -131.100E+03    -113.009E-03     224.153E-03    -111.144E-03     94.5594E-03    -113.590E-03     223.997E-03    -110.929E-03     91.9087E-03
            1616     4.83294E-03     52.1632E-03    -62.1154E+06    -179.743E+06    -31.6895E+06     261.369E+03    -112.485E-03     223.614E-03    -111.129E-03     81.7360E-03    -112.882E-03     223.244E-03    -110.936E-03     79.5922E-03
            1617     4.02739E-03     52.0792E-03    -66.6195E+06    -193.709E+06    -42.5889E+06     456.930E+03    -112.050E-03     223.165E-03    -111.115E-03     68.5988E-03    -112.298E-03     222.612E-03    -110.950E-03     66.9012E-03
            1618     3.22182E-03     52.0097E-03    -71.4615E+06    -207.738E+06    -53.7021E+06     170.096E+03    -111.711E-03     222.812E-03    -111.101E-03     55.2783E-03    -111.847E-03     222.113E-03    -110.965E-03     53.9718E-03
            1619     2.41640E-03     51.9555E-03    -75.9678E+06    -219.300E+06    -63.8995E+06     8.05219E+03    -111.488E-03     222.562E-03    -111.074E-03     41.8397E-03    -111.544E-03     221.756E-03    -110.966E-03     40.8863E-03
            1620     1.61104E-03     51.9161E-03    -79.4589E+06    -225.682E+06    -72.9073E+06     178.107E+03    -111.289E-03     222.301E-03    -111.012E-03     28.3612E-03    -111.293E-03     221.433E-03    -110.934E-03     27.7382E-03
            1621     805.564E-06     51.8917E-03    -81.7626E+06    -229.674E+06    -79.4354E+06     19.0173E+03    -111.074E-03     221.982E-03    -110.908E-03     15.3238E-03    -111.046E-03     221.080E-03    -110.853E-03     14.9877E-03
            1622     15.3067E-03     53.5380E-03    -4.51184E+06     125.521E+06     98.1442E+06     181.675E+03    -109.658E-03     220.698E-03    -111.040E-03     169.914E-03    -120.076E-03     231.261E-03    -110.725E-03     164.737E-03
            1623     14.5013E-03     53.2750E-03    -10.0561E+06     121.940E+06     99.4095E+06     64.0044E+03    -113.925E-03     225.026E-03    -111.101E-03     261.286E-03    -130.417E-03     241.627E-03    -110.766E-03     251.890E-03
            1624     13.6940E-03     52.9581E-03    -18.1828E+06     109.113E+06     87.8014E+06    -546.866E+03    -118.258E-03     229.369E-03    -111.111E-03     283.764E-03    -134.021E-03     245.200E-03    -110.804E-03     271.450E-03
            1625     12.8890E-03     52.6453E-03    -23.5756E+06     94.9874E+06     64.3925E+06    -555.544E+03    -118.673E-03     229.716E-03    -111.043E-03     261.358E-03    -130.693E-03     241.803E-03    -110.824E-03     249.156E-03
            1626     12.0844E-03     52.3805E-03    -27.0387E+06     79.0796E+06     33.3008E+06     378.973E+03    -116.812E-03     227.748E-03    -110.935E-03     221.913E-03    -124.814E-03     235.837E-03    -110.844E-03     211.531E-03
            1627     11.2775E-03     52.1575E-03    -30.7123E+06     41.1533E+06     12.7882E+06     700.984E+03    -115.739E-03     226.661E-03    -110.922E-03     191.613E-03    -121.148E-03     232.069E-03    -110.873E-03     182.920E-03
            1628     10.4716E-03     51.9595E-03    -34.1404E+06    -15.9030E+06     4.78924E+06     327.688E+03    -115.561E-03     226.550E-03    -110.989E-03     172.106E-03    -119.418E-03     230.216E-03    -110.893E-03     164.700E-03
            1629     9.66622E-03     51.7786E-03    -36.9366E+06    -61.9364E+06    -965.243E+03     100.986E+03    -115.396E-03     226.431E-03    -111.035E-03     158.003E-03    -118.229E-03     228.916E-03    -110.897E-03     151.671E-03
            1630     8.86091E-03     51.6110E-03    -39.6628E+06    -94.4145E+06    -4.07084E+06     232.283E+03    -114.990E-03     226.062E-03    -111.072E-03     145.131E-03    -117.085E-03     227.692E-03    -110.898E-03     139.743E-03
            1631     8.05519E-03     51.4572E-03    -43.1040E+06    -122.025E+06    -6.40510E+06    -137.885E+03    -114.497E-03     225.605E-03    -111.108E-03     132.267E-03    -116.038E-03     226.579E-03    -110.901E-03     127.698E-03
            1632     7.24957E-03     51.3175E-03    -47.5565E+06    -134.201E+06    -10.5958E+06    -348.118E+03    -113.996E-03     225.112E-03    -111.116E-03     119.656E-03    -115.135E-03     225.636E-03    -110.905E-03     115.810E-03
            1633     6.44413E-03     51.1909E-03    -52.3320E+06    -149.233E+06    -16.3998E+06     62.4609E+03    -113.505E-03     224.622E-03    -111.118E-03     107.122E-03    -114.331E-03     224.780E-03    -110.908E-03     103.918E-03
            1634     5.63858E-03     51.0786E-03    -57.0111E+06    -168.920E+06    -22.9480E+06     240.620E+03    -113.016E-03     224.136E-03    -111.120E-03     94.4104E-03    -113.595E-03     223.979E-03    -110.907E-03     91.7653E-03
            1635     4.83314E-03     50.9803E-03    -62.1948E+06    -179.860E+06    -31.6947E+06     64.7713E+03    -112.499E-03     223.600E-03    -111.101E-03     81.6148E-03    -112.896E-03     223.230E-03    -110.909E-03     79.4674E-03
            1636     4.02757E-03     50.8961E-03    -67.1834E+06    -193.671E+06    -42.1881E+06     20.9016E+03    -112.032E-03     223.116E-03    -111.084E-03     68.4988E-03    -112.283E-03     222.563E-03    -110.916E-03     66.7967E-03
            1637     3.22202E-03     50.8269E-03    -71.4457E+06    -207.567E+06    -53.1256E+06     206.679E+03    -111.677E-03     222.744E-03    -111.067E-03     55.1819E-03    -111.814E-03     222.044E-03    -110.928E-03     53.8773E-03
            1638     2.41641E-03     50.7723E-03    -75.6828E+06    -219.095E+06    -63.4546E+06     126.622E+03    -111.434E-03     222.475E-03    -111.041E-03     41.8146E-03    -111.490E-03     221.668E-03    -110.930E-03     40.8645E-03
            1639     1.61105E-03     50.7330E-03    -79.3468E+06    -225.519E+06    -73.0460E+06    -330.397E+03    -111.234E-03     222.220E-03    -110.986E-03     28.3029E-03    -111.237E-03     221.353E-03    -110.909E-03     27.6721E-03
            1640     805.621E-06     50.7092E-03    -81.8189E+06    -229.940E+06    -79.9981E+06    -316.840E+03    -111.101E-03     221.945E-03    -110.845E-03     15.2499E-03    -111.072E-03     221.043E-03    -110.792E-03     14.9090E-03
            1641     15.3086E-03     52.3586E-03    -4.89484E+06     125.218E+06     97.7383E+06    -225.624E+03    -109.419E-03     220.490E-03    -111.071E-03     169.814E-03    -119.782E-03     230.996E-03    -110.757E-03     164.662E-03
            1642     14.4996E-03     52.0910E-03    -10.6022E+06     121.749E+06     99.2456E+06     345.832E+03    -113.969E-03     225.107E-03    -111.138E-03     260.063E-03    -130.373E-03     241.618E-03    -110.803E-03     250.690E-03
            1643     13.6953E-03     51.7744E-03    -16.8562E+06     110.076E+06     88.6935E+06     721.906E+03    -118.311E-03     229.451E-03    -111.140E-03     282.580E-03    -134.033E-03     245.247E-03    -110.832E-03     270.277E-03
            1644     12.8896E-03     51.4610E-03    -23.2029E+06     95.3876E+06     63.5001E+06    -78.3039E+03    -118.458E-03     229.523E-03    -111.065E-03     260.793E-03    -130.456E-03     241.593E-03    -110.852E-03     248.622E-03
            1645     12.0824E-03     51.1975E-03    -28.5765E+06     78.0505E+06     31.5834E+06    -600.271E+03    -116.900E-03     227.860E-03    -110.960E-03     221.655E-03    -124.913E-03     235.957E-03    -110.874E-03     211.241E-03
            1646     11.2773E-03     50.9735E-03    -31.8949E+06     41.1651E+06     12.3641E+06     30.8875E+03    -116.014E-03     226.951E-03    -110.936E-03     191.195E-03    -121.430E-03     232.363E-03    -110.888E-03     182.468E-03
            1647     10.4719E-03     50.7763E-03    -34.4357E+06    -15.6559E+06     4.29962E+06     110.035E+03    -115.579E-03     226.568E-03    -110.988E-03     171.663E-03    -119.433E-03     230.231E-03    -110.894E-03     164.250E-03
            1648     9.66631E-03     50.5947E-03    -37.3520E+06    -62.6438E+06    -1.83003E+06    -90.2483E+03    -115.397E-03     226.428E-03    -111.031E-03     157.745E-03    -118.227E-03     228.908E-03    -110.895E-03     151.409E-03
            1649     8.86081E-03     50.4276E-03    -40.6846E+06    -94.2500E+06    -4.26048E+06    -129.430E+03    -115.090E-03     226.152E-03    -111.062E-03     144.856E-03    -117.191E-03     227.786E-03    -110.888E-03     139.454E-03
            1650     8.05538E-03     50.2740E-03    -44.3088E+06    -121.263E+06    -6.33479E+06    -74.6151E+03    -114.577E-03     225.664E-03    -111.087E-03     132.007E-03    -116.125E-03     226.643E-03    -110.878E-03     127.434E-03
            1651     7.25002E-03     50.1341E-03    -48.0838E+06    -134.192E+06    -10.6017E+06    -67.0245E+03    -114.009E-03     225.093E-03    -111.084E-03     119.476E-03    -115.148E-03     225.616E-03    -110.873E-03     115.635E-03
            1652     6.44438E-03     50.0079E-03    -52.1599E+06    -149.909E+06    -16.7088E+06     47.5887E+03    -113.472E-03     224.553E-03    -111.081E-03     106.958E-03    -114.295E-03     224.706E-03    -110.871E-03     103.757E-03
            1653     5.63880E-03     49.8954E-03    -56.8733E+06    -168.945E+06    -23.4103E+06     408.430E+03    -112.971E-03     224.051E-03    -111.081E-03     94.2295E-03    -113.546E-03     223.893E-03    -110.870E-03     91.5911E-03
            1654     4.83326E-03     49.7972E-03    -61.8569E+06    -179.392E+06    -30.9486E+06     325.674E+03    -112.486E-03     223.550E-03    -111.064E-03     81.4242E-03    -112.882E-03     223.179E-03    -110.869E-03     79.2813E-03
            1655     4.02773E-03     49.7133E-03    -67.1787E+06    -193.665E+06    -41.4220E+06    -5.05697E+03    -112.033E-03     223.073E-03    -111.039E-03     68.3766E-03    -112.285E-03     222.519E-03    -110.868E-03     66.6740E-03
            1656     3.22216E-03     49.6439E-03    -72.4094E+06    -207.461E+06    -53.0718E+06    -332.954E+03    -111.651E-03     222.660E-03    -111.009E-03     55.1257E-03    -111.792E-03     221.962E-03    -110.869E-03     53.8161E-03
            1657     2.41672E-03     49.5896E-03    -76.3440E+06    -218.878E+06    -63.8136E+06    -500.483E+03    -111.330E-03     222.313E-03    -110.983E-03     41.7489E-03    -111.389E-03     221.508E-03    -110.874E-03     40.7937E-03
            1658     1.61099E-03     49.5501E-03    -79.4666E+06    -225.942E+06    -73.8059E+06    -340.778E+03    -111.097E-03     222.059E-03    -110.963E-03     28.2069E-03    -111.099E-03     221.191E-03    -110.889E-03     27.5778E-03
            1659     805.455E-06     49.5263E-03    -81.5690E+06    -230.300E+06    -80.3329E+06    -53.5318E+03    -111.080E-03     221.962E-03    -110.882E-03     15.1265E-03    -111.049E-03     221.059E-03    -110.832E-03     14.7898E-03
            1660     15.3051E-03     51.1725E-03    -5.16064E+06     125.095E+06     97.2864E+06    -173.563E+03    -109.695E-03     220.785E-03    -111.089E-03     169.633E-03    -120.149E-03     231.381E-03    -110.777E-03     164.401E-03
            1661     14.5024E-03     50.9095E-03    -11.4751E+06     121.082E+06     98.1554E+06    -265.767E+03    -114.358E-03     225.493E-03    -111.135E-03     260.669E-03    -130.835E-03     242.074E-03    -110.803E-03     251.221E-03
            1662     13.6949E-03     50.5897E-03    -17.3759E+06     110.130E+06     89.3285E+06     295.937E+03    -118.134E-03     229.277E-03    -111.143E-03     283.192E-03    -133.871E-03     245.084E-03    -110.830E-03     270.918E-03
            1663     12.8882E-03     50.2786E-03    -23.3584E+06     96.1546E+06     64.0586E+06     857.113E+03    -118.388E-03     229.462E-03    -111.074E-03     260.608E-03    -130.402E-03     241.549E-03    -110.859E-03     248.444E-03
            1664     12.0834E-03     50.0131E-03    -28.3391E+06     78.4399E+06     30.4440E+06     121.383E+03    -117.097E-03     228.050E-03    -110.953E-03     221.075E-03    -125.104E-03     236.146E-03    -110.873E-03     210.640E-03
            1665     11.2778E-03     49.7900E-03    -31.9894E+06     40.2919E+06     11.2614E+06    -731.886E+03    -116.083E-03     227.001E-03    -110.918E-03     190.734E-03    -121.493E-03     232.408E-03    -110.874E-03     181.985E-03
            1666     10.4720E-03     49.5927E-03    -34.7389E+06    -16.1225E+06     4.19536E+06    -430.198E+03    -115.604E-03     226.571E-03    -110.967E-03     171.442E-03    -119.455E-03     230.229E-03    -110.873E-03     164.022E-03
            1667     9.66646E-03     49.4116E-03    -37.5771E+06    -62.4377E+06    -1.72330E+06     151.676E+03    -115.376E-03     226.382E-03    -111.006E-03     157.525E-03    -118.203E-03     228.860E-03    -110.870E-03     151.196E-03
            1668     8.86103E-03     49.2438E-03    -40.9021E+06    -93.9884E+06    -4.07356E+06     154.248E+03    -115.074E-03     226.110E-03    -111.036E-03     144.585E-03    -117.173E-03     227.742E-03    -110.861E-03     139.188E-03
            1669     8.05582E-03     49.0907E-03    -44.6778E+06    -120.817E+06    -6.15876E+06    -32.4688E+03    -114.603E-03     225.658E-03    -111.055E-03     131.800E-03    -116.152E-03     226.638E-03    -110.846E-03     127.227E-03
            1670     7.25014E-03     48.9510E-03    -49.1028E+06    -134.270E+06    -11.3331E+06    -35.9603E+03    -114.033E-03     225.075E-03    -111.042E-03     119.387E-03    -115.175E-03     225.599E-03    -110.832E-03     115.550E-03
            1671     6.44467E-03     48.8247E-03    -54.2361E+06    -150.568E+06    -17.7225E+06     354.005E+03    -113.485E-03     224.515E-03    -111.030E-03     106.780E-03    -114.314E-03     224.669E-03    -110.822E-03     103.585E-03
            1672     5.63919E-03     48.7126E-03    -59.2387E+06    -168.271E+06    -25.1011E+06     17.2961E+03    -112.942E-03     223.959E-03    -111.017E-03     94.0536E-03    -113.527E-03     223.809E-03    -110.813E-03     91.4150E-03
            1673     4.83355E-03     48.6142E-03    -63.5014E+06    -179.246E+06    -33.1170E+06    -795.569E+03    -112.434E-03     223.426E-03    -110.992E-03     81.2232E-03    -112.834E-03     223.060E-03    -110.805E-03     79.0706E-03
            1674     4.02802E-03     48.5304E-03    -67.4506E+06    -194.127E+06    -41.6757E+06    -504.210E+03    -111.989E-03     222.959E-03    -110.970E-03     68.1616E-03    -112.241E-03     222.403E-03    -110.799E-03     66.4539E-03
            1675     3.22246E-03     48.4612E-03    -71.8760E+06    -206.790E+06    -52.9216E+06    -419.326E+03    -111.584E-03     222.519E-03    -110.934E-03     54.9997E-03    -111.724E-03     221.823E-03    -110.795E-03     53.6914E-03
            1676     2.41676E-03     48.4068E-03    -76.5597E+06    -219.519E+06    -65.4093E+06    -667.131E+03    -111.250E-03     222.152E-03    -110.902E-03     41.6361E-03    -111.306E-03     221.346E-03    -110.799E-03     40.6807E-03
            1677     1.61123E-03     48.3677E-03    -79.9541E+06    -226.803E+06    -74.9206E+06    -329.608E+03    -110.994E-03     221.889E-03    -110.895E-03     28.1674E-03    -110.995E-03     221.019E-03    -110.825E-03     27.5409E-03
            1678     805.512E-06     48.3434E-03    -81.6583E+06    -230.286E+06    -80.2324E+06     22.2080E+03    -110.982E-03     221.855E-03    -110.873E-03     15.1874E-03    -110.952E-03     220.952E-03    -110.822E-03     14.8523E-03
            1679     15.3082E-03     49.9911E-03    -4.65523E+06     125.258E+06     97.9312E+06     242.362E+03    -109.651E-03     220.729E-03    -111.078E-03     168.972E-03    -120.036E-03     231.259E-03    -110.763E-03     163.778E-03
            1680     14.4992E-03     49.7234E-03    -11.0558E+06     120.683E+06     98.1679E+06     658.463E+03    -113.952E-03     225.085E-03    -111.133E-03     260.321E-03    -130.390E-03     241.627E-03    -110.801E-03     250.919E-03
            1681     13.6947E-03     49.4078E-03    -18.1869E+06     109.443E+06     88.1216E+06     24.6652E+03    -118.291E-03     229.432E-03    -111.141E-03     282.946E-03    -134.049E-03     245.258E-03    -110.833E-03     270.610E-03
            1682     12.8894E-03     49.0941E-03    -23.4633E+06     96.2709E+06     65.2800E+06    -288.523E+03    -118.653E-03     229.718E-03    -111.065E-03     260.247E-03    -130.679E-03     241.813E-03    -110.844E-03     248.024E-03
            1683     12.0834E-03     48.8295E-03    -27.4542E+06     79.3408E+06     32.3598E+06     300.255E+03    -117.056E-03     227.990E-03    -110.934E-03     221.019E-03    -125.056E-03     236.080E-03    -110.847E-03     210.595E-03
            1684     11.2777E-03     48.6064E-03    -31.0982E+06     40.4769E+06     11.4402E+06     147.708E+03    -116.029E-03     226.922E-03    -110.893E-03     190.710E-03    -121.430E-03     232.324E-03    -110.850E-03     181.977E-03
            1685     10.4724E-03     48.4091E-03    -34.6937E+06    -16.3477E+06     4.41673E+06    -306.002E+03    -115.688E-03     226.629E-03    -110.941E-03     171.301E-03    -119.539E-03     230.286E-03    -110.845E-03     163.873E-03
            1686     9.66709E-03     48.2282E-03    -37.7967E+06    -62.6677E+06    -1.70856E+06    -73.6983E+03    -115.449E-03     226.418E-03    -110.969E-03     157.380E-03    -118.276E-03     228.894E-03    -110.832E-03     151.044E-03
            1687     8.86156E-03     48.0605E-03    -40.6942E+06    -93.6544E+06    -4.60149E+06     240.167E+03    -115.035E-03     226.024E-03    -110.989E-03     144.449E-03    -117.126E-03     227.652E-03    -110.817E-03     139.066E-03
            1688     8.05580E-03     47.9074E-03    -44.4035E+06    -121.150E+06    -6.03886E+06     445.287E+03    -114.601E-03     225.610E-03    -111.009E-03     131.478E-03    -116.145E-03     226.584E-03    -110.799E-03     126.916E-03
            1689     7.25062E-03     47.7678E-03    -48.9868E+06    -134.604E+06    -10.7413E+06     983.090E+03    -114.073E-03     225.061E-03    -110.988E-03     118.947E-03    -115.213E-03     225.580E-03    -110.775E-03     115.121E-03
            1690     6.44510E-03     47.6417E-03    -53.3127E+06    -149.889E+06    -17.0474E+06     478.485E+03    -113.472E-03     224.434E-03    -110.963E-03     106.454E-03    -114.295E-03     224.586E-03    -110.753E-03     103.265E-03
            1691     5.63955E-03     47.5296E-03    -57.2012E+06    -166.991E+06    -23.7636E+06    -439.927E+03    -112.912E-03     223.854E-03    -110.942E-03     93.8245E-03    -113.489E-03     223.704E-03    -110.736E-03     91.1833E-03
            1692     4.83406E-03     47.4315E-03    -61.8569E+06    -178.868E+06    -33.0949E+06    -1.04985E+06    -112.381E-03     223.287E-03    -110.906E-03     81.1057E-03    -112.772E-03     222.920E-03    -110.723E-03     78.9547E-03
            1693     4.02840E-03     47.3477E-03    -66.9371E+06    -195.213E+06    -42.8334E+06    -1.20564E+06    -111.923E-03     222.801E-03    -110.878E-03     68.0672E-03    -112.168E-03     222.239E-03    -110.712E-03     66.3543E-03
            1694     3.22271E-03     47.2787E-03    -71.7781E+06    -207.446E+06    -53.2115E+06    -327.828E+03    -111.517E-03     222.359E-03    -110.842E-03     54.8490E-03    -111.655E-03     221.659E-03    -110.703E-03     53.5438E-03
            1695     2.41708E-03     47.2244E-03    -76.3293E+06    -219.684E+06    -64.6756E+06     302.291E+03    -111.186E-03     221.989E-03    -110.803E-03     41.4380E-03    -111.241E-03     221.181E-03    -110.697E-03     40.4972E-03
            1696     1.61128E-03     47.1852E-03    -80.1273E+06    -226.738E+06    -74.5999E+06    -29.8349E+03    -110.921E-03     221.695E-03    -110.774E-03     28.0077E-03    -110.923E-03     220.824E-03    -110.702E-03     27.3868E-03
            1697     805.615E-06     47.1611E-03    -82.7460E+06    -230.885E+06    -81.0366E+06    -300.804E+03    -110.778E-03     221.576E-03    -110.798E-03     15.3694E-03    -110.752E-03     220.673E-03    -110.748E-03     15.0321E-03
            1698     15.3073E-03     48.8071E-03    -5.72109E+06     124.284E+06     97.0227E+06     83.0719E+03    -109.977E-03     221.044E-03    -111.067E-03     169.133E-03    -120.381E-03     231.587E-03    -110.753E-03     163.921E-03
            1699     14.5025E-03     48.5439E-03    -11.0884E+06     120.188E+06     98.3906E+06     819.118E+03    -114.107E-03     225.219E-03    -111.112E-03     260.380E-03    -130.518E-03     241.732E-03    -110.778E-03     250.985E-03
            1700     13.6947E-03     48.2222E-03    -16.0739E+06     111.134E+06     89.8586E+06     973.049E+03    -118.372E-03     229.488E-03    -111.116E-03     282.950E-03    -134.088E-03     245.281E-03    -110.804E-03     270.622E-03
            1701     12.8896E-03     47.9108E-03    -22.6727E+06     96.4576E+06     64.2058E+06    -73.3977E+03    -118.608E-03     229.636E-03    -111.028E-03     260.087E-03    -130.622E-03     241.725E-03    -110.814E-03     247.863E-03
            1702     12.0838E-03     47.6461E-03    -27.8441E+06     78.5965E+06     31.1399E+06    -249.658E+03    -116.996E-03     227.896E-03    -110.900E-03     220.910E-03    -124.990E-03     235.980E-03    -110.818E-03     210.484E-03
            1703     11.2783E-03     47.4226E-03    -31.0624E+06     41.2936E+06     11.9888E+06     407.791E+03    -116.020E-03     226.885E-03    -110.865E-03     190.544E-03    -121.413E-03     232.279E-03    -110.820E-03     181.825E-03
            1704     10.4726E-03     47.2257E-03    -34.2571E+06    -15.7886E+06      4.6402E+06     376.388E+03    -115.749E-03     226.655E-03    -110.906E-03     171.188E-03    -119.594E-03     230.309E-03    -110.810E-03     163.772E-03
            1705     9.66725E-03     47.0443E-03    -37.5437E+06    -63.1927E+06    -1.69971E+06    -60.4187E+03    -115.548E-03     226.473E-03    -110.924E-03     157.046E-03    -118.371E-03     228.942E-03    -110.786E-03     150.707E-03
            1706     8.86189E-03     46.8777E-03    -40.7299E+06    -93.7789E+06    -4.48559E+06     31.8261E+03    -115.126E-03     226.055E-03    -110.929E-03     144.069E-03    -117.214E-03     227.678E-03    -110.756E-03     138.684E-03
            1707     8.05674E-03     46.7238E-03    -44.1003E+06    -122.404E+06    -5.58010E+06     730.533E+03    -114.620E-03     225.557E-03    -110.938E-03     131.131E-03    -116.157E-03     226.519E-03    -110.724E-03     126.576E-03
            1708     7.25127E-03     46.5849E-03    -47.7283E+06    -134.421E+06    -9.23480E+06     1.04635E+06    -114.022E-03     224.931E-03    -110.910E-03     118.587E-03    -115.155E-03     225.445E-03    -110.692E-03     114.765E-03
            1709     6.44573E-03     46.4588E-03    -51.7880E+06    -147.867E+06    -15.6829E+06     315.766E+03    -113.418E-03     224.292E-03    -110.875E-03     106.211E-03    -114.236E-03     224.447E-03    -110.664E-03     103.027E-03
            1710     5.64019E-03     46.3470E-03    -56.7356E+06    -166.359E+06    -23.6329E+06    -492.076E+03    -112.837E-03     223.684E-03    -110.847E-03     93.5850E-03    -113.411E-03     223.534E-03    -110.641E-03     90.9490E-03
            1711     4.83438E-03     46.2489E-03    -61.9379E+06    -178.685E+06    -32.7047E+06    -606.038E+03    -112.289E-03     223.099E-03    -110.810E-03     80.8746E-03    -112.680E-03     222.731E-03    -110.624E-03     78.7348E-03
            1712     4.02873E-03     46.1653E-03    -67.2805E+06    -195.908E+06    -43.2661E+06    -546.462E+03    -111.845E-03     222.619E-03    -110.774E-03     67.8738E-03    -112.089E-03     222.054E-03    -110.609E-03     66.1739E-03
            1713     3.22309E-03     46.0962E-03    -72.5337E+06    -208.722E+06    -54.0420E+06    -293.435E+03    -111.458E-03     222.184E-03    -110.727E-03     54.6616E-03    -111.595E-03     221.480E-03    -110.589E-03     53.3588E-03
            1714     2.41736E-03     46.0421E-03    -76.8044E+06    -219.798E+06    -63.7309E+06     163.699E+03    -111.122E-03     221.796E-03    -110.674E-03     41.2962E-03    -111.180E-03     220.986E-03    -110.562E-03     40.3556E-03
            1715     1.61174E-03     46.0031E-03    -80.1483E+06    -226.138E+06    -73.5129E+06     318.841E+03    -110.836E-03     221.445E-03    -110.609E-03     27.8597E-03    -110.841E-03     220.576E-03    -110.532E-03     27.2465E-03
            1716     805.879E-06     45.9791E-03    -82.7748E+06    -230.966E+06    -81.1489E+06      93.296E+03    -110.567E-03     221.192E-03    -110.625E-03     15.3628E-03    -110.540E-03     220.288E-03    -110.576E-03     15.0330E-03
            1717     15.3068E-03     47.6227E-03    -5.11642E+06     124.648E+06     97.3228E+06     91.3482E+03    -110.211E-03     221.284E-03    -111.073E-03     168.532E-03    -120.626E-03     231.842E-03    -110.760E-03     163.278E-03
            1718     14.5006E-03     47.3593E-03    -10.5880E+06     120.564E+06     98.6634E+06     14.2527E+03    -114.711E-03     225.804E-03    -111.093E-03     260.087E-03    -131.119E-03     242.317E-03    -110.759E-03     250.621E-03
            1719     13.6964E-03     47.0397E-03    -16.5528E+06     109.993E+06     89.5090E+06     351.428E+03    -118.336E-03     229.418E-03    -111.083E-03     283.526E-03    -134.027E-03     245.182E-03    -110.771E-03     271.223E-03
            1720     12.8897E-03     46.7270E-03    -21.8652E+06     96.5556E+06     64.4240E+06     940.365E+03    -118.513E-03     229.515E-03    -111.002E-03     260.505E-03    -130.516E-03     241.596E-03    -110.788E-03     248.316E-03
            1721     12.0844E-03     46.4622E-03    -26.8096E+06     79.3035E+06     30.9284E+06     784.976E+03    -117.189E-03     228.058E-03    -110.868E-03     220.821E-03    -125.177E-03     236.142E-03    -110.790E-03     210.393E-03
            1722     11.2785E-03     46.2396E-03    -30.7584E+06     41.1529E+06     11.4548E+06     158.174E+03    -116.171E-03     226.990E-03    -110.819E-03     190.405E-03    -121.560E-03     232.383E-03    -110.777E-03     181.676E-03
            1723     10.4732E-03     46.0415E-03    -33.4863E+06    -16.0342E+06     5.35836E+06     566.118E+03    -115.836E-03     226.688E-03    -110.852E-03     170.773E-03    -119.669E-03     230.330E-03    -110.753E-03     163.362E-03
            1724     9.66804E-03     45.8612E-03    -36.6700E+06    -62.3809E+06    -177.872E+03     782.808E+03    -115.582E-03     226.441E-03    -110.860E-03     156.469E-03    -118.396E-03     228.904E-03    -110.717E-03     150.143E-03
            1725     8.86287E-03     45.6938E-03    -40.4720E+06    -93.8643E+06    -3.64004E+06     543.745E+03    -115.149E-03     226.000E-03    -110.851E-03     143.702E-03    -117.233E-03     227.618E-03    -110.674E-03     138.325E-03
            1726     8.05741E-03     45.5411E-03    -44.2288E+06    -123.122E+06    -5.87191E+06     248.616E+03    -114.580E-03     225.426E-03    -110.846E-03     130.971E-03    -116.113E-03     226.382E-03    -110.633E-03     126.418E-03
            1727     7.25191E-03     45.4017E-03    -47.7814E+06    -134.260E+06    -9.66174E+06     80.2875E+03    -113.970E-03     224.780E-03    -110.810E-03     118.405E-03    -115.100E-03     225.292E-03    -110.595E-03     114.581E-03
            1728     6.44637E-03     45.2762E-03    -51.8948E+06    -147.178E+06    -15.3794E+06     464.240E+03    -113.370E-03     224.140E-03    -110.771E-03     105.912E-03    -114.188E-03     224.296E-03    -110.559E-03     102.735E-03
            1729     5.64070E-03     45.1643E-03    -56.8389E+06    -165.498E+06    -22.9367E+06     273.631E+03    -112.782E-03     223.516E-03    -110.734E-03     93.2771E-03    -113.356E-03     223.367E-03    -110.526E-03     90.6568E-03
            1730     4.83515E-03     45.0667E-03    -62.4178E+06    -178.844E+06    -31.9679E+06    -11.0839E+03    -112.218E-03     222.905E-03    -110.687E-03     80.5367E-03    -112.611E-03     222.534E-03    -110.497E-03     78.4091E-03
            1731     4.02932E-03     44.9829E-03    -68.0046E+06    -195.970E+06    -42.8142E+06     108.970E+03    -111.724E-03     222.366E-03    -110.642E-03     67.6019E-03    -111.971E-03     221.800E-03    -110.473E-03     65.9166E-03
            1732     3.22352E-03     44.9141E-03    -72.9894E+06    -208.688E+06    -54.2780E+06    -261.730E+03    -111.319E-03     221.905E-03    -110.586E-03     54.4626E-03    -111.457E-03     221.201E-03    -110.449E-03     53.1664E-03
            1733     2.41777E-03     44.8601E-03    -77.2333E+06    -220.217E+06    -64.7978E+06    -583.536E+03    -110.977E-03     221.506E-03    -110.528E-03     41.1966E-03    -111.035E-03     220.695E-03    -110.421E-03     40.2503E-03
            1734     1.61185E-03     44.8212E-03    -80.3741E+06    -226.444E+06    -73.9108E+06    -179.060E+03    -110.702E-03     221.165E-03    -110.463E-03     27.8540E-03    -110.707E-03     220.295E-03    -110.388E-03     27.2365E-03
            1735     806.022E-06     44.7975E-03    -82.3363E+06    -230.592E+06    -80.5001E+06     232.225E+03    -110.476E-03     220.901E-03    -110.425E-03     15.3489E-03    -110.448E-03     219.997E-03    -110.374E-03     15.0205E-03
            1736     15.3071E-03     46.4390E-03    -5.10282E+06     124.330E+06     97.1240E+06    -68.2044E+03    -110.277E-03     221.338E-03    -111.061E-03     168.638E-03    -120.653E-03     231.855E-03    -110.748E-03     163.375E-03
            1737     14.5028E-03     46.1747E-03    -10.8011E+06     120.455E+06     98.2606E+06     34.6194E+03    -114.530E-03     225.611E-03    -111.080E-03     259.475E-03    -130.904E-03     242.089E-03    -110.748E-03     250.034E-03
            1738     13.6956E-03     45.8576E-03    -16.6398E+06     109.767E+06     89.0024E+06    -79.8501E+03    -118.447E-03     229.517E-03    -111.070E-03     283.845E-03    -134.162E-03     245.304E-03    -110.760E-03     271.526E-03
            1739     12.8900E-03     45.5428E-03    -22.3610E+06     95.5239E+06     65.1162E+06     420.381E+03    -118.861E-03     229.846E-03    -110.985E-03     260.843E-03    -130.861E-03     241.917E-03    -110.766E-03     248.625E-03
            1740     12.0843E-03     45.2786E-03    -26.6579E+06     79.6390E+06     33.1799E+06     894.138E+03    -117.398E-03     228.234E-03    -110.836E-03     220.151E-03    -125.379E-03     236.307E-03    -110.747E-03     209.706E-03
            1741     11.2795E-03     45.0555E-03    -30.1431E+06     41.8364E+06     12.9469E+06     802.587E+03    -116.347E-03     227.107E-03    -110.760E-03     189.808E-03    -121.733E-03     232.497E-03    -110.712E-03     181.070E-03
            1742     10.4743E-03     44.8583E-03    -33.7327E+06    -16.2897E+06     5.37736E+06     614.492E+03    -115.868E-03     226.639E-03    -110.771E-03     170.486E-03    -119.697E-03     230.275E-03    -110.672E-03     163.079E-03
            1743     9.66897E-03     44.6774E-03    -36.7322E+06    -62.3244E+06    -539.302E+03     838.984E+03    -115.536E-03     226.305E-03    -110.769E-03     156.269E-03    -118.343E-03     228.761E-03    -110.628E-03     149.958E-03
            1744     8.86354E-03     44.5109E-03    -39.5501E+06    -93.5825E+06    -3.67709E+06     1.00184E+06    -115.097E-03     225.852E-03    -110.755E-03     143.433E-03    -117.172E-03     227.466E-03    -110.581E-03     138.070E-03
            1745     8.05813E-03     44.3579E-03    -43.2222E+06    -122.247E+06    -5.40449E+06     637.342E+03    -114.576E-03     225.319E-03    -110.744E-03     130.586E-03    -116.101E-03     226.273E-03    -110.531E-03     126.044E-03
            1746     7.25274E-03     44.2191E-03    -48.0065E+06    -134.097E+06    -9.71740E+06     274.716E+03    -113.945E-03     224.640E-03    -110.695E-03     117.961E-03    -115.071E-03     225.148E-03    -110.479E-03     114.147E-03
            1747     6.44718E-03     44.0935E-03    -52.7544E+06    -147.769E+06    -15.4792E+06     149.918E+03    -113.299E-03     223.944E-03    -110.645E-03     105.522E-03    -114.117E-03     224.096E-03    -110.432E-03     102.346E-03
            1748     5.64162E-03     43.9822E-03    -57.3823E+06    -165.159E+06    -22.3209E+06     458.837E+03    -112.703E-03     223.302E-03    -110.600E-03     92.9820E-03    -113.278E-03     223.152E-03    -110.388E-03     90.3709E-03
            1749     4.83578E-03     43.8843E-03     -62.418E+06    -178.510E+06    -31.6364E+06     506.609E+03    -112.133E-03     222.672E-03    -110.539E-03     80.2983E-03    -112.525E-03     222.301E-03    -110.348E-03     78.1840E-03
            1750     4.03005E-03     43.8013E-03    -67.4639E+06    -195.606E+06    -42.4853E+06     224.754E+03    -111.609E-03     222.090E-03    -110.481E-03     67.4101E-03    -111.853E-03     221.523E-03    -110.312E-03     65.7325E-03
            1751     3.22408E-03     43.7323E-03    -72.3245E+06    -208.028E+06    -53.7514E+06    -100.416E+03    -111.141E-03     221.563E-03    -110.422E-03     54.2898E-03    -111.277E-03     220.860E-03    -110.284E-03     53.0023E-03
            1752     2.41807E-03     43.6786E-03    -76.8308E+06    -220.245E+06    -65.2171E+06    -351.852E+03    -110.777E-03     221.146E-03    -110.370E-03     40.9824E-03    -110.831E-03     220.335E-03    -110.265E-03     40.0435E-03
            1753     1.61206E-03     43.6397E-03    -80.4265E+06    -227.144E+06    -75.2053E+06    -520.124E+03    -110.524E-03     220.843E-03    -110.319E-03     27.7003E-03    -110.526E-03     219.971E-03    -110.249E-03     27.0799E-03
            1754     806.001E-06     43.6160E-03    -82.5277E+06    -230.901E+06    -80.9628E+06    -311.631E+03    -110.364E-03     220.638E-03    -110.274E-03     15.0995E-03    -110.336E-03     219.734E-03    -110.225E-03     14.7665E-03
            1755     15.3080E-03     45.2533E-03    -5.00254E+06     124.396E+06     97.0794E+06     31.9610E+03    -110.179E-03     221.242E-03    -111.063E-03     169.770E-03    -120.580E-03     231.785E-03    -110.751E-03     164.502E-03
            1756     14.5009E-03     44.9922E-03    -10.7489E+06     120.436E+06     98.1022E+06    -362.019E+03    -114.681E-03     225.764E-03    -111.083E-03     259.666E-03    -131.076E-03     242.264E-03    -110.752E-03     250.149E-03
            1757     13.6957E-03     44.6732E-03    -17.2424E+06     109.515E+06     88.6631E+06    -313.325E+03    -118.943E-03     229.993E-03    -111.050E-03     283.155E-03    -134.673E-03     245.794E-03    -110.740E-03     270.744E-03
            1758     12.8905E-03     44.3590E-03    -22.6824E+06     94.9948E+06     64.9528E+06    -30.8647E+03    -119.153E-03     230.087E-03    -110.933E-03     260.163E-03    -131.137E-03     242.139E-03    -110.714E-03     247.906E-03
            1759     12.0859E-03     44.0943E-03    -27.1107E+06     78.8177E+06     33.2189E+06     126.168E+03    -117.466E-03     228.232E-03    -110.766E-03     219.792E-03    -125.445E-03     236.298E-03    -110.675E-03     209.329E-03
            1760     11.2805E-03     43.8720E-03    -30.5528E+06     41.7452E+06     13.3458E+06     976.859E+03    -116.376E-03     227.055E-03    -110.679E-03     189.501E-03    -121.757E-03     232.437E-03    -110.629E-03     180.770E-03
            1761     10.4750E-03     43.6747E-03    -33.5417E+06    -15.3178E+06     5.18742E+06     1.18904E+06    -115.834E-03     226.512E-03    -110.677E-03     170.197E-03    -119.653E-03     230.142E-03    -110.581E-03     162.814E-03
            1762     9.66980E-03     43.4942E-03    -36.6522E+06    -62.5144E+06    -1.15965E+06     591.975E+03    -115.505E-03     226.172E-03    -110.668E-03     155.979E-03    -118.302E-03     228.621E-03    -110.530E-03     149.677E-03
            1763     8.86452E-03     43.3279E-03    -39.7440E+06    -93.7710E+06    -3.61824E+06     571.766E+03    -115.131E-03     225.778E-03    -110.647E-03     143.023E-03    -117.203E-03     227.386E-03    -110.471E-03     137.656E-03
            1764     8.05925E-03     43.1750E-03    -43.2936E+06    -121.789E+06    -4.74132E+06     1.16738E+06    -114.567E-03     225.188E-03    -110.621E-03     130.135E-03    -116.089E-03     226.138E-03    -110.406E-03     125.606E-03
            1765     7.25385E-03     43.0365E-03    -47.4967E+06    -133.380E+06    -8.61764E+06     1.07588E+06    -113.876E-03     224.437E-03    -110.561E-03     117.583E-03    -114.998E-03     224.942E-03    -110.342E-03     113.789E-03
            1766     6.44817E-03     42.9114E-03    -52.3251E+06    -147.299E+06    -15.1152E+06     437.661E+03    -113.220E-03     223.718E-03    -110.498E-03     105.197E-03    -114.034E-03     223.867E-03    -110.284E-03     102.035E-03
            1767     5.64239E-03     42.8000E-03    -57.3486E+06    -165.558E+06    -22.5752E+06     245.188E+03    -112.589E-03     223.031E-03    -110.441E-03     92.6612E-03    -113.161E-03     222.876E-03    -110.231E-03     90.0572E-03
            1768     4.83662E-03     42.7027E-03    -62.2620E+06    -178.209E+06    -31.3860E+06     361.115E+03    -111.998E-03     222.373E-03    -110.374E-03     80.0069E-03    -112.387E-03     221.999E-03    -110.183E-03     77.9007E-03
            1769     4.03065E-03     42.6195E-03    -67.3836E+06    -195.206E+06    -42.0287E+06     268.127E+03    -111.484E-03     221.792E-03    -110.308E-03     67.1232E-03    -111.727E-03     221.224E-03    -110.137E-03     65.4531E-03
            1770     3.22470E-03     42.5511E-03    -72.4232E+06    -207.635E+06    -53.1251E+06     150.916E+03    -111.006E-03     221.242E-03    -110.236E-03     54.0293E-03    -111.143E-03     220.538E-03    -110.095E-03     52.7503E-03
            1771     2.41858E-03     42.4973E-03    -77.0060E+06    -220.024E+06    -64.6332E+06     21.6471E+03    -110.620E-03     220.786E-03    -110.166E-03     40.6744E-03    -110.676E-03     219.975E-03    -110.058E-03     39.7446E-03
            1772     1.61241E-03     42.4588E-03    -80.6298E+06    -227.243E+06    -75.2115E+06    -69.9644E+03    -110.339E-03     220.429E-03    -110.090E-03     27.4239E-03    -110.342E-03     219.557E-03    -110.020E-03     26.8117E-03
            1773     806.273E-06     42.4348E-03    -83.0775E+06    -231.505E+06    -81.7456E+06    -143.895E+03    -110.168E-03     220.150E-03    -109.982E-03     14.6948E-03    -110.141E-03     219.244E-03    -109.934E-03     14.3664E-03
            1774     15.3060E-03     44.0713E-03    -4.99733E+06     124.237E+06     96.8378E+06     152.054E+03    -110.172E-03     221.221E-03    -111.049E-03     168.137E-03    -120.501E-03     231.693E-03    -110.737E-03     162.869E-03
            1775     14.5015E-03     43.8062E-03    -10.9770E+06     120.244E+06     97.7997E+06    -295.600E+03    -114.876E-03     225.934E-03    -111.058E-03     258.821E-03    -131.244E-03     242.406E-03    -110.727E-03     249.253E-03
            1776     13.6973E-03     43.4896E-03    -16.9265E+06     109.855E+06     89.1098E+06    -643.942E+03    -119.382E-03     230.381E-03    -110.999E-03     282.498E-03    -135.111E-03     246.182E-03    -110.689E-03     270.005E-03
            1777     12.8921E-03     43.1750E-03    -22.5965E+06     95.3059E+06     65.1560E+06    -322.190E+03    -119.294E-03     230.151E-03    -110.857E-03     259.998E-03    -131.275E-03     242.201E-03    -110.637E-03     247.730E-03
            1778     12.0863E-03     42.9106E-03    -27.7962E+06     77.7634E+06     31.5065E+06     176.085E+03    -117.455E-03     228.128E-03    -110.673E-03     219.623E-03    -125.413E-03     236.172E-03    -110.588E-03     209.183E-03
            1779     11.2813E-03     42.6880E-03    -31.3889E+06     40.8941E+06     11.7766E+06     641.625E+03    -116.350E-03     226.931E-03    -110.581E-03     189.071E-03    -121.716E-03     232.296E-03    -110.536E-03     180.352E-03
            1780     10.4764E-03     42.4915E-03    -34.2211E+06    -14.9310E+06     5.40712E+06     890.918E+03    -115.822E-03     226.399E-03    -110.577E-03     169.755E-03    -119.637E-03     230.024E-03    -110.479E-03     162.374E-03
            1781     9.67090E-03     42.3113E-03    -37.3275E+06    -61.8005E+06    -668.261E+03     861.367E+03    -115.531E-03     226.087E-03    -110.557E-03     155.712E-03    -118.327E-03     228.534E-03    -110.416E-03     149.418E-03
            1782     8.86573E-03     42.1446E-03    -41.0966E+06    -93.7565E+06    -3.97061E+06     653.826E+03    -115.127E-03     225.647E-03    -110.520E-03     142.714E-03    -117.198E-03     227.251E-03    -110.344E-03     137.359E-03
            1783     8.06041E-03     41.9925E-03    -44.8146E+06    -121.952E+06    -5.72919E+06     497.589E+03    -114.499E-03     224.979E-03    -110.480E-03     129.800E-03    -116.021E-03     225.926E-03    -110.267E-03     125.276E-03
            1784     7.25478E-03     41.8542E-03    -48.2793E+06    -133.132E+06    -9.29591E+06     487.983E+03    -113.815E-03     224.224E-03    -110.409E-03     117.287E-03    -114.935E-03     224.727E-03    -110.192E-03     113.498E-03
            1785     6.44921E-03     41.7293E-03    -52.2525E+06    -146.828E+06    -14.9678E+06     615.495E+03    -113.166E-03     223.500E-03    -110.334E-03     104.813E-03    -113.976E-03     223.646E-03    -110.120E-03     101.665E-03
            1786     5.64351E-03     41.6184E-03    -57.0646E+06    -165.212E+06    -22.3178E+06     462.133E+03    -112.511E-03     222.772E-03    -110.261E-03     92.2409E-03    -113.078E-03     222.615E-03    -110.050E-03     89.6499E-03
            1787     4.83750E-03     41.5212E-03    -62.3422E+06    -178.162E+06    -31.2563E+06     298.145E+03    -111.879E-03     222.057E-03    -110.178E-03     79.5669E-03    -112.266E-03     221.680E-03    -109.985E-03     77.4704E-03
            1788     4.03151E-03     41.4384E-03    -67.5958E+06    -195.007E+06    -41.9871E+06     275.063E+03    -111.325E-03     221.420E-03    -110.096E-03     66.6654E-03    -111.567E-03     220.852E-03    -109.925E-03     65.0038E-03
            1789     3.22536E-03     41.3701E-03    -72.5156E+06    -207.486E+06    -53.0037E+06     195.033E+03    -110.829E-03     220.838E-03    -110.009E-03     53.6444E-03    -110.965E-03     220.134E-03    -109.868E-03     52.3718E-03
            1790     2.41924E-03     41.3166E-03    -77.0382E+06    -219.810E+06    -64.1782E+06     199.350E+03    -110.418E-03     220.342E-03    -109.924E-03     40.4724E-03    -110.474E-03     219.530E-03    -109.815E-03     39.5504E-03
            1791     1.61300E-03     41.2782E-03    -80.8536E+06    -227.081E+06    -74.7635E+06     263.133E+03    -110.101E-03     219.936E-03    -109.836E-03     27.3758E-03    -110.105E-03     219.064E-03    -109.763E-03     26.7720E-03
            1792     806.577E-06     41.2546E-03    -83.4311E+06    -231.550E+06    -81.5312E+06     213.094E+03    -109.878E-03     219.626E-03    -109.749E-03     14.6795E-03    -109.852E-03     218.721E-03    -109.699E-03     14.3576E-03
            1793     15.3102E-03     42.8890E-03    -5.16907E+06     124.551E+06     96.9470E+06    -1.42186E+03    -110.805E-03     221.809E-03    -111.004E-03     167.435E-03    -121.124E-03     232.271E-03    -110.693E-03     162.111E-03
            1794     14.5030E-03     42.6232E-03    -10.6821E+06     121.459E+06     98.7540E+06    -245.332E+03    -114.951E-03     225.948E-03    -110.998E-03     259.837E-03    -131.354E-03     242.459E-03    -110.665E-03     250.275E-03
            1795     13.6971E-03     42.3037E-03    -16.6520E+06     109.963E+06     89.4009E+06    -172.440E+03    -119.460E-03     230.394E-03    -110.934E-03     282.411E-03    -135.168E-03     246.173E-03    -110.622E-03     269.917E-03
            1796     12.8926E-03     41.9913E-03    -23.4564E+06     94.0062E+06     63.4395E+06    -123.222E+03    -119.444E-03     230.214E-03    -110.770E-03     259.202E-03    -131.410E-03     242.246E-03    -110.555E-03     246.914E-03
            1797     12.0881E-03     41.7268E-03    -28.6262E+06     76.9023E+06     30.5413E+06     230.384E+03    -117.406E-03     227.982E-03    -110.576E-03     219.306E-03    -125.345E-03     236.003E-03    -110.493E-03     208.885E-03
            1798     11.2829E-03     41.5047E-03    -32.2029E+06     40.8363E+06     11.6723E+06     563.921E+03    -116.219E-03     226.705E-03    -110.486E-03     189.047E-03    -121.579E-03     232.062E-03    -110.440E-03     180.347E-03
            1799     10.4772E-03     41.3082E-03    -35.5153E+06    -14.8978E+06     4.83755E+06     458.110E+03    -115.891E-03     226.366E-03    -110.475E-03     169.828E-03    -119.710E-03     229.993E-03    -110.378E-03     162.441E-03
            1800     9.67222E-03     41.1282E-03    -38.4817E+06    -61.7387E+06    -1.41623E+06     483.503E+03    -115.665E-03     226.102E-03    -110.436E-03     155.582E-03    -118.462E-03     228.546E-03    -110.298E-03     149.286E-03
            1801     8.86688E-03     40.9619E-03    -40.9416E+06    -93.5637E+06    -4.29485E+06     476.607E+03    -115.125E-03     225.507E-03    -110.381E-03     142.338E-03    -117.186E-03     227.102E-03    -110.208E-03     136.995E-03
            1802     8.06146E-03     40.8101E-03    -44.0032E+06    -121.562E+06    -5.46400E+06     283.559E+03    -114.485E-03     224.813E-03    -110.328E-03     129.283E-03    -115.995E-03     225.751E-03    -110.115E-03     124.770E-03
            1803     7.25610E-03     40.6721E-03    -48.2909E+06    -133.047E+06    -9.43949E+06      126.85E+03    -113.792E-03     224.030E-03    -110.238E-03     116.742E-03    -114.905E-03     224.527E-03    -110.022E-03     112.961E-03
            1804     6.45037E-03     40.5475E-03    -52.9068E+06    -147.026E+06    -15.3079E+06     161.508E+03    -113.100E-03     223.244E-03    -110.144E-03     104.273E-03    -113.907E-03     223.386E-03    -109.931E-03     101.132E-03
            1805     5.64458E-03     40.4370E-03    -57.4843E+06     -164.83E+06    -22.2570E+06     362.977E+03    -112.437E-03     222.487E-03    -110.050E-03     91.7095E-03    -113.003E-03     222.328E-03    -109.839E-03     89.1277E-03
            1806     4.83874E-03     40.3402E-03    -62.3330E+06    -177.940E+06    -31.1131E+06     372.814E+03    -111.753E-03     221.697E-03    -109.944E-03     79.0869E-03    -112.138E-03     221.319E-03    -109.751E-03     77.0015E-03
            1807     4.03262E-03     40.2577E-03    -67.3987E+06    -194.884E+06    -41.7745E+06     237.512E+03    -111.127E-03     220.971E-03    -109.845E-03     66.2995E-03    -111.366E-03     220.401E-03    -109.673E-03     64.6485E-03
            1808     3.22635E-03     40.1897E-03    -72.4844E+06    -207.476E+06    -53.0186E+06     195.127E+03    -110.564E-03     220.314E-03    -109.750E-03     53.3457E-03    -110.699E-03     219.609E-03    -109.609E-03     52.0828E-03
            1809     2.41979E-03     40.1365E-03    -76.9990E+06    -219.851E+06    -64.2801E+06     277.745E+03    -110.113E-03     219.786E-03    -109.673E-03     40.2673E-03    -110.168E-03     218.974E-03    -109.564E-03     39.3538E-03
            1810     1.61314E-03     40.0983E-03    -80.4634E+06    -226.801E+06    -74.6325E+06     254.926E+03    -109.798E-03     219.411E-03    -109.613E-03     27.2409E-03    -109.801E-03     218.539E-03    -109.541E-03     26.6421E-03
            1811     806.557E-06     40.0748E-03    -82.7387E+06    -230.963E+06    -81.0757E+06     84.2161E+03    -109.622E-03     219.222E-03    -109.600E-03     14.5684E-03    -109.594E-03     218.317E-03    -109.551E-03     14.2474E-03
            1812     15.3073E-03     41.7036E-03    -4.77927E+06     125.199E+06     97.7393E+06     89.6610E+03    -111.422E-03     222.423E-03    -111.001E-03     167.496E-03    -121.779E-03     232.924E-03    -110.687E-03     162.078E-03
            1813     14.5034E-03     41.4397E-03    -10.5279E+06     122.396E+06     99.4290E+06    -74.5195E+03    -115.790E-03     226.742E-03    -110.952E-03     260.099E-03    -132.252E-03     243.313E-03    -110.617E-03     250.405E-03
            1814     13.6990E-03     41.1191E-03    -17.6550E+06     109.004E+06     88.6044E+06    -169.838E+03    -119.497E-03     230.353E-03    -110.856E-03     282.177E-03    -135.190E-03     246.113E-03    -110.545E-03     269.676E-03
            1815     12.8945E-03     40.8070E-03    -23.2755E+06     93.2452E+06     63.5925E+06     403.516E+03    -119.207E-03     229.903E-03    -110.696E-03     259.069E-03    -131.147E-03     241.907E-03    -110.479E-03     246.832E-03
            1816     12.0889E-03     40.5435E-03    -27.8624E+06     77.2103E+06     31.1897E+06     810.201E+03    -117.393E-03     227.900E-03    -110.507E-03     219.788E-03    -125.336E-03     235.927E-03    -110.422E-03     209.383E-03
            1817     11.2831E-03     40.3215E-03    -31.5183E+06     40.9331E+06     11.6196E+06     635.856E+03    -116.387E-03     226.793E-03    -110.406E-03     189.336E-03    -121.746E-03     232.152E-03    -110.362E-03     180.628E-03
            1818     10.4782E-03     40.1249E-03    -34.4459E+06    -14.7251E+06     5.17785E+06     703.409E+03    -116.111E-03     226.488E-03    -110.377E-03     169.628E-03    -119.919E-03     230.106E-03    -110.280E-03     162.240E-03
            1819     9.67316E-03     39.9447E-03    -37.4250E+06    -61.2959E+06    -663.582E+03     363.733E+03    -115.811E-03     226.125E-03    -110.315E-03     155.064E-03    -118.594E-03     228.560E-03    -110.175E-03     148.769E-03
            1820     8.86826E-03     39.7794E-03    -40.7078E+06    -93.4282E+06    -4.08607E+06    -34.3776E+03    -115.233E-03     225.465E-03    -110.232E-03     141.747E-03    -117.284E-03     227.052E-03    -110.058E-03     136.405E-03
            1821     8.06300E-03     39.6277E-03    -44.3275E+06    -121.560E+06    -5.61286E+06     55.7011E+03    -114.546E-03     224.697E-03    -110.151E-03     128.687E-03    -116.049E-03     225.627E-03    -109.938E-03     124.181E-03
            1822     7.25753E-03     39.4903E-03    -48.1234E+06    -132.908E+06    -9.19353E+06     141.401E+03    -113.798E-03     223.832E-03    -110.034E-03     116.042E-03    -114.903E-03     224.321E-03    -109.817E-03     112.273E-03
            1823     6.45189E-03     39.3661E-03    -52.4349E+06    -146.738E+06    -14.9657E+06     194.686E+03    -113.025E-03     222.939E-03    -109.913E-03     103.568E-03    -113.824E-03     223.073E-03    -109.699E-03     100.443E-03
            1824     5.64610E-03     39.2559E-03    -57.3705E+06    -164.860E+06    -22.3094E+06     122.429E+03    -112.259E-03     222.058E-03    -109.799E-03     91.0668E-03    -112.818E-03     221.893E-03    -109.589E-03     88.4988E-03
            1825     4.83997E-03     39.1596E-03    -62.4399E+06    -178.019E+06    -31.4025E+06     170.161E+03    -111.521E-03     221.202E-03    -109.681E-03     78.5874E-03    -111.902E-03     220.820E-03    -109.489E-03     76.5142E-03
            1826     4.03365E-03     39.0776E-03    -67.4100E+06    -194.881E+06    -42.0677E+06     289.265E+03    -110.878E-03     220.451E-03    -109.573E-03     65.9269E-03    -111.115E-03     219.879E-03    -109.403E-03     64.2901E-03
            1827     3.22710E-03     39.0099E-03    -72.2747E+06    -207.377E+06    -53.0400E+06     240.949E+03    -110.313E-03     219.784E-03    -109.472E-03     52.9779E-03    -110.445E-03     219.078E-03    -109.331E-03     51.7254E-03
            1828     2.42049E-03     38.9572E-03    -76.7599E+06    -219.717E+06    -64.3596E+06     155.173E+03    -109.854E-03     219.238E-03    -109.384E-03     39.8947E-03    -109.907E-03     218.425E-03    -109.275E-03     38.9855E-03
            1829     1.61373E-03     38.9189E-03    -80.1784E+06    -226.597E+06    -74.5341E+06     53.7220E+03    -109.494E-03     218.814E-03    -109.320E-03     26.8575E-03    -109.495E-03     217.942E-03    -109.248E-03     26.2609E-03
            1830     806.800E-06     38.8957E-03    -82.3323E+06    -230.532E+06    -80.6871E+06     48.6963E+03    -109.361E-03     218.639E-03    -109.278E-03     14.5224E-03    -109.332E-03     217.735E-03    -109.228E-03     14.2031E-03
            1831     15.3083E-03     40.5179E-03    -5.54882E+06     124.275E+06     96.9456E+06    -160.887E+03    -111.736E-03     222.729E-03    -110.993E-03     167.037E-03    -122.080E-03     233.214E-03    -110.680E-03     161.547E-03
            1832     14.5045E-03     40.2531E-03    -10.9638E+06     121.777E+06     98.7131E+06     336.597E+03    -116.309E-03     227.224E-03    -110.915E-03     259.179E-03    -132.735E-03     243.757E-03    -110.582E-03     249.427E-03
            1833     13.7002E-03     39.9355E-03    -16.8421E+06     109.517E+06     89.0692E+06     277.217E+03    -119.319E-03     230.129E-03    -110.810E-03     282.595E-03    -134.994E-03     245.875E-03    -110.499E-03     270.157E-03
            1834     12.8940E-03     39.6232E-03    -22.7932E+06     93.1938E+06     64.6107E+06     460.553E+03    -119.136E-03     229.803E-03    -110.667E-03     260.014E-03    -131.068E-03     241.798E-03    -110.446E-03     247.819E-03
            1835     12.0887E-03     39.3599E-03    -27.2623E+06     77.5505E+06     32.4175E+06     936.678E+03    -117.810E-03     228.279E-03    -110.469E-03     219.652E-03    -125.750E-03     236.304E-03    -110.380E-03     209.212E-03
            1836     11.2843E-03     39.1377E-03    -30.7612E+06     41.3388E+06     12.2316E+06     730.773E+03    -116.927E-03     227.252E-03    -110.325E-03     188.743E-03    -122.277E-03     232.605E-03    -110.280E-03     179.998E-03
            1837     10.4795E-03     38.9414E-03    -33.7005E+06    -14.5541E+06     5.47858E+06     443.758E+03    -116.385E-03     226.638E-03    -110.253E-03     168.783E-03    -120.174E-03     230.240E-03    -110.156E-03     161.387E-03
            1838     9.67473E-03     38.7618E-03    -36.4287E+06    -60.9518E+06     131.497E+03     533.229E+03    -115.869E-03     226.032E-03    -110.163E-03     154.209E-03    -118.632E-03     228.449E-03    -110.022E-03     147.931E-03
            1839     8.86966E-03     38.5965E-03    -39.7095E+06    -92.9221E+06    -3.18160E+06     480.121E+03    -115.302E-03     225.358E-03    -110.056E-03     140.929E-03    -117.338E-03     226.933E-03    -109.880E-03     135.604E-03
            1840     8.06460E-03     38.4457E-03    -43.5444E+06    -121.370E+06    -5.22618E+06     141.543E+03    -114.617E-03     224.560E-03    -109.943E-03     127.927E-03    -116.108E-03     225.481E-03    -109.730E-03     123.434E-03
            1841     7.25932E-03     38.3086E-03    -47.7076E+06    -132.890E+06    -8.99014E+06     73.6449E+03    -113.784E-03     223.579E-03    -109.795E-03     115.312E-03    -114.879E-03     224.059E-03    -109.578E-03     111.557E-03
            1842     6.45375E-03     38.1851E-03    -52.2093E+06    -146.638E+06    -14.9752E+06     266.303E+03    -112.922E-03     222.568E-03    -109.646E-03     102.902E-03    -113.712E-03     222.696E-03    -109.433E-03     99.7954E-03
            1843     5.64771E-03     38.0755E-03    -56.9833E+06    -164.798E+06    -22.5647E+06     309.463E+03    -112.070E-03     221.579E-03    -109.509E-03     90.4008E-03    -112.621E-03     221.409E-03    -109.301E-03     87.8542E-03
            1844     4.84137E-03     37.9798E-03    -62.0933E+06    -178.086E+06    -31.5897E+06     175.370E+03    -111.276E-03     220.651E-03    -109.375E-03     77.8639E-03    -111.650E-03     220.264E-03    -109.185E-03     75.8069E-03
            1845     4.03485E-03     37.8981E-03    -67.2094E+06    -194.876E+06    -41.9218E+06     225.362E+03    -110.596E-03     219.852E-03    -109.256E-03     65.2102E-03    -110.829E-03     219.276E-03    -109.085E-03     63.5848E-03
            1846     3.22819E-03     37.8308E-03    -72.0454E+06    -207.147E+06    -52.8453E+06     196.385E+03    -110.020E-03     219.161E-03    -109.141E-03     52.3951E-03    -110.150E-03     218.453E-03    -109.000E-03     51.1516E-03
            1847     2.42134E-03     37.7783E-03    -76.5522E+06    -219.419E+06    -64.0917E+06     64.3163E+03    -109.559E-03     218.594E-03    -109.036E-03     39.4859E-03    -109.611E-03     217.782E-03    -108.927E-03     38.5824E-03
            1848     1.61437E-03     37.7405E-03    -80.1292E+06    -226.459E+06    -74.4373E+06     46.8999E+03    -109.183E-03     218.127E-03    -108.944E-03     26.6356E-03    -109.184E-03     217.255E-03    -108.872E-03     26.0439E-03
            1849     807.201E-06     37.7174E-03    -82.2553E+06    -230.479E+06    -80.7920E+06     84.6877E+03    -108.980E-03     217.852E-03    -108.872E-03     14.5569E-03    -108.950E-03     216.948E-03    -108.822E-03     14.2424E-03
            1850     15.3084E-03     39.3316E-03    -4.97002E+06     124.511E+06     97.0318E+06    -77.2161E+03    -111.778E-03     222.753E-03    -110.975E-03     168.734E-03    -122.119E-03     233.237E-03    -110.663E-03     163.235E-03
            1851     14.5046E-03     39.0663E-03    -10.5959E+06     121.471E+06     98.4156E+06     55.1743E+03    -115.946E-03     226.855E-03    -110.909E-03     259.104E-03    -132.308E-03     243.326E-03    -110.578E-03     249.405E-03
            1852     13.6991E-03     38.7525E-03    -16.8097E+06     108.987E+06     88.6174E+06     560.582E+03    -119.415E-03     230.225E-03    -110.811E-03     282.190E-03    -135.071E-03     245.952E-03    -110.501E-03     269.759E-03
            1853     12.8940E-03     38.4387E-03    -22.5469E+06     92.9329E+06     64.4917E+06     734.183E+03    -119.787E-03     230.430E-03    -110.642E-03     259.523E-03    -131.707E-03     242.412E-03    -110.422E-03     247.249E-03
            1854     12.0899E-03     38.1755E-03    -27.5325E+06     77.1604E+06     32.5157E+06     453.296E+03    -118.399E-03     228.797E-03    -110.398E-03     218.677E-03    -126.326E-03     236.806E-03    -110.307E-03     208.171E-03
            1855     11.2855E-03     37.9532E-03    -30.7953E+06     41.8289E+06     12.9832E+06     369.098E+03    -117.324E-03     227.533E-03    -110.208E-03     187.772E-03    -122.659E-03     232.869E-03    -110.159E-03     179.002E-03
            1856     10.4813E-03     37.7578E-03    -33.5588E+06    -14.0164E+06     5.61400E+06     302.649E+03    -116.564E-03     226.659E-03    -110.095E-03     167.831E-03    -120.334E-03     230.244E-03    -109.998E-03     160.440E-03
            1857     9.67661E-03     37.5789E-03    -36.6599E+06    -61.2860E+06    -389.161E+03     450.961E+03    -115.979E-03     225.952E-03    -109.973E-03     153.440E-03    -118.726E-03     228.353E-03    -109.833E-03     147.174E-03
            1858     8.87172E-03     37.4142E-03    -39.8401E+06    -92.4854E+06    -3.08055E+06     619.771E+03    -115.355E-03     225.193E-03    -109.838E-03     140.084E-03    -117.378E-03     226.756E-03    -109.662E-03     134.779E-03
            1859     8.06662E-03     37.2636E-03    -43.4083E+06    -120.749E+06    -5.02756E+06     463.128E+03    -114.597E-03     224.292E-03    -109.695E-03     126.956E-03    -116.076E-03     225.203E-03    -109.482E-03     122.486E-03
            1860     7.26130E-03     37.1274E-03    -47.6484E+06    -132.985E+06    -9.45689E+06     279.144E+03    -113.696E-03     223.213E-03    -109.517E-03     114.381E-03    -114.780E-03     223.683E-03    -109.302E-03     110.649E-03
            1861     6.45545E-03     37.0045E-03    -52.2444E+06    -146.892E+06    -15.4577E+06     309.415E+03    -112.798E-03     222.139E-03    -109.341E-03     101.964E-03    -113.580E-03     222.258E-03    -109.129E-03     98.8756E-03
            1862     5.64952E-03     36.8956E-03    -57.0667E+06    -164.607E+06    -22.4268E+06     322.945E+03    -111.915E-03     221.091E-03    -109.175E-03     89.4457E-03    -112.462E-03     220.915E-03    -108.966E-03     86.9145E-03
            1863     4.84323E-03     36.8005E-03    -62.0440E+06    -177.750E+06    -31.2415E+06     198.507E+03    -111.052E-03     220.062E-03    -109.010E-03     77.0237E-03    -111.422E-03     219.672E-03    -108.819E-03     74.9814E-03
            1864     4.03658E-03     36.7194E-03    -66.9959E+06    -194.854E+06    -41.8001E+06     138.159E+03    -110.279E-03     219.144E-03    -108.865E-03     64.4945E-03    -110.508E-03     218.565E-03    -108.695E-03     62.8809E-03
            1865     3.22952E-03     36.6526E-03    -71.9159E+06    -207.012E+06    -52.7890E+06     181.652E+03    -109.619E-03     218.357E-03    -108.738E-03     51.8597E-03    -109.746E-03     217.647E-03    -108.597E-03     50.6288E-03
            1866     2.42232E-03     36.6003E-03    -76.4955E+06    -219.297E+06    -64.0572E+06     145.182E+03    -109.132E-03     217.765E-03    -108.633E-03     39.0748E-03    -109.183E-03     216.952E-03    -108.525E-03     38.1820E-03
            1867     1.61491E-03     36.5630E-03    -80.0408E+06    -226.268E+06    -74.2880E+06     96.5299E+03    -108.797E-03     217.335E-03    -108.538E-03     26.3754E-03    -108.797E-03     216.463E-03    -108.466E-03     25.7887E-03
            1868     807.560E-06     36.5398E-03    -82.2943E+06    -230.334E+06    -80.5906E+06     75.5724E+03    -108.646E-03     217.027E-03    -108.381E-03     14.3504E-03    -108.617E-03     216.124E-03    -108.331E-03     14.0396E-03
            1869     15.3087E-03     38.1448E-03    -4.76358E+06     124.748E+06     96.9542E+06    -90.9965E+03    -111.690E-03     222.662E-03    -110.972E-03     168.696E-03    -121.965E-03     233.082E-03    -110.661E-03     163.223E-03
            1870     14.5034E-03     37.8820E-03    -10.2854E+06     121.368E+06     98.4564E+06    -220.413E+03    -115.723E-03     226.638E-03    -110.915E-03     258.211E-03    -132.002E-03     243.026E-03    -110.584E-03     248.521E-03
            1871     13.6991E-03     37.5669E-03    -16.9712E+06     108.233E+06     88.1843E+06     445.451E+03    -120.102E-03     230.896E-03    -110.794E-03     280.954E-03    -135.741E-03     246.603E-03    -110.485E-03     268.408E-03
            1872     12.8956E-03     37.2541E-03    -22.7137E+06     92.4204E+06     64.1720E+06     804.714E+03    -120.585E-03     231.153E-03    -110.567E-03     258.484E-03    -132.486E-03     243.114E-03    -110.348E-03     246.110E-03
            1873     12.0913E-03     36.9905E-03    -26.8210E+06     77.5757E+06     32.9661E+06     425.885E+03    -118.811E-03     229.083E-03    -110.271E-03     217.761E-03    -126.715E-03     237.071E-03    -110.180E-03     207.219E-03
            1874     11.2876E-03     36.7688E-03    -30.3961E+06     41.8561E+06     12.8265E+06     377.081E+03    -117.425E-03     227.472E-03    -110.046E-03     186.645E-03    -122.724E-03     232.774E-03    -109.999E-03     177.891E-03
            1875     10.4831E-03     36.5743E-03    -33.9791E+06    -14.0025E+06     5.22944E+06     581.650E+03    -116.645E-03     226.553E-03    -109.908E-03     166.890E-03    -120.394E-03     230.116E-03    -109.812E-03     159.518E-03
            1876     9.67860E-03     36.3959E-03    -37.3182E+06    -60.8939E+06    -928.890E+03     505.705E+03    -116.166E-03     225.918E-03    -109.752E-03     152.538E-03    -118.903E-03     228.309E-03    -109.614E-03     146.279E-03
            1877     8.87397E-03     36.2318E-03    -40.5487E+06    -92.1585E+06    -3.95839E+06     414.736E+03    -115.474E-03     225.049E-03    -109.575E-03     139.101E-03    -117.485E-03     226.601E-03    -109.402E-03     133.808E-03
            1878     8.06902E-03     36.0821E-03    -44.1291E+06    -120.623E+06    -5.54753E+06     379.352E+03    -114.574E-03     223.970E-03    -109.396E-03     125.797E-03    -116.043E-03     224.870E-03    -109.185E-03     121.346E-03
            1879     7.26360E-03     35.9466E-03    -47.9951E+06    -132.937E+06    -9.52337E+06     325.135E+03    -113.591E-03     222.776E-03    -109.185E-03     113.149E-03    -114.666E-03     223.236E-03    -108.970E-03     109.436E-03
            1880     6.45801E-03     35.8244E-03    -52.2882E+06    -146.704E+06    -15.0986E+06     226.569E+03    -112.613E-03     221.591E-03    -108.978E-03     100.798E-03    -113.387E-03     221.702E-03    -108.765E-03     97.7282E-03
            1881     5.65186E-03     35.7163E-03    -56.9835E+06    -164.450E+06    -22.2152E+06     174.121E+03    -111.658E-03     220.441E-03    -108.783E-03     88.4608E-03    -112.198E-03     220.259E-03    -108.573E-03     85.9477E-03
            1882     4.84525E-03     35.6219E-03    -61.9299E+06    -177.600E+06    -31.2779E+06     126.341E+03    -110.757E-03     219.348E-03    -108.591E-03     76.1932E-03    -111.123E-03     218.953E-03    -108.400E-03     74.1679E-03
            1883     4.03829E-03     35.5416E-03    -66.9435E+06    -194.867E+06    -41.9056E+06     130.654E+03    -109.927E-03     218.347E-03    -108.420E-03     63.7573E-03    -110.153E-03     217.765E-03    -108.250E-03     62.1591E-03
            1884     3.23104E-03     35.4754E-03    -71.7996E+06    -206.923E+06    -52.7536E+06     234.925E+03    -109.184E-03     217.460E-03    -108.276E-03     51.2524E-03    -109.309E-03     216.748E-03    -108.135E-03     50.0353E-03
            1885     2.42340E-03     35.4236E-03    -76.3459E+06    -219.090E+06    -63.9408E+06     216.124E+03    -108.652E-03     216.818E-03    -108.166E-03     38.6460E-03    -108.701E-03     216.004E-03    -108.057E-03     37.7644E-03
            1886     1.61576E-03     35.3862E-03    -79.9382E+06    -226.116E+06    -74.2411E+06     96.3296E+03    -108.306E-03     216.384E-03    -108.078E-03     26.0689E-03    -108.306E-03     215.513E-03    -108.005E-03     25.4882E-03
            1887     807.859E-06     35.3635E-03    -82.1970E+06    -230.176E+06    -80.5142E+06     78.2536E+03    -108.198E-03     216.118E-03    -107.920E-03     14.2501E-03    -108.169E-03     215.215E-03    -107.869E-03     13.9421E-03
            1888     15.3092E-03     36.9611E-03    -5.66822E+06     124.329E+06     95.9773E+06    -242.397E+03    -111.927E-03     222.889E-03    -110.962E-03     167.872E-03    -122.189E-03     233.293E-03    -110.654E-03     162.341E-03
            1889     14.5043E-03     36.6971E-03    -11.5121E+06     119.938E+06     97.0878E+06    -204.531E+03    -116.282E-03     227.162E-03    -110.879E-03     257.758E-03    -132.515E-03     243.498E-03    -110.551E-03     247.979E-03
            1890     13.7006E-03     36.3806E-03    -16.8404E+06     108.249E+06     88.6402E+06     117.331E+03    -120.815E-03     231.536E-03    -110.721E-03     280.247E-03    -136.399E-03     247.188E-03    -110.411E-03     267.604E-03
            1891     12.8967E-03     36.0688E-03    -22.2194E+06     93.1728E+06     64.9457E+06     133.925E+03    -121.100E-03     231.546E-03    -110.446E-03     257.298E-03    -132.963E-03     243.472E-03    -110.224E-03     244.862E-03
            1892     12.0938E-03     35.8049E-03    -26.5119E+06     77.4275E+06     32.5534E+06     423.796E+03    -119.012E-03     229.118E-03    -110.106E-03     216.804E-03    -126.873E-03     237.065E-03    -110.017E-03     206.270E-03
            1893     11.2896E-03     35.5852E-03    -30.5380E+06     41.7868E+06     11.9352E+06     1.14824E+06    -117.540E-03     227.391E-03    -109.851E-03     185.607E-03    -122.801E-03     232.657E-03    -109.807E-03     176.887E-03
            1894     10.4854E-03     35.3907E-03    -33.8842E+06    -13.4362E+06     5.17386E+06     998.757E+03    -116.859E-03     226.540E-03    -109.681E-03     165.781E-03    -120.587E-03     230.085E-03    -109.586E-03     158.420E-03
            1895     9.68118E-03     35.2131E-03    -36.7476E+06    -60.0482E+06    -298.955E+03     512.663E+03    -116.316E-03     225.801E-03    -109.485E-03     151.199E-03    -119.034E-03     228.176E-03    -109.346E-03     144.948E-03
            1896     8.87671E-03     35.0495E-03    -39.5743E+06    -92.1459E+06    -3.53020E+06     202.994E+03    -115.519E-03     224.785E-03    -109.266E-03     137.780E-03    -117.509E-03     226.318E-03    -109.093E-03     132.503E-03
            1897     8.07186E-03     34.9009E-03    -42.7769E+06    -121.000E+06    -4.64054E+06     533.761E+03    -114.562E-03     223.610E-03    -109.048E-03     124.532E-03    -116.010E-03     224.491E-03    -108.834E-03     120.102E-03
            1898     7.26669E-03     34.7662E-03    -47.0418E+06    -132.368E+06    -8.51285E+06     768.137E+03    -113.473E-03     222.271E-03    -108.798E-03     111.951E-03    -114.534E-03     222.719E-03    -108.580E-03     108.267E-03
            1899     6.46068E-03     34.6452E-03    -51.8383E+06    -146.208E+06    -14.9848E+06     304.527E+03    -112.353E-03     220.908E-03    -108.554E-03     99.6699E-03    -113.116E-03     221.011E-03    -108.342E-03     96.6268E-03
            1900     5.65427E-03     34.5379E-03    -56.6628E+06    -164.425E+06    -22.4646E+06     128.908E+03    -111.319E-03     219.652E-03    -108.333E-03     87.4272E-03    -111.849E-03     219.463E-03    -108.125E-03     84.9377E-03
            1901     4.84750E-03     34.4443E-03    -61.6261E+06    -177.519E+06    -31.2452E+06     177.750E+03    -110.368E-03     218.489E-03    -108.121E-03     75.2397E-03    -110.726E-03     218.089E-03    -107.930E-03     73.2357E-03
            1902     4.04037E-03     34.3647E-03    -66.7705E+06    -194.829E+06    -41.7017E+06     229.627E+03    -109.505E-03     217.437E-03    -107.932E-03     62.9493E-03    -109.726E-03     216.850E-03    -107.761E-03     61.3698E-03
            1903     3.23271E-03     34.2993E-03    -71.7645E+06    -206.861E+06    -52.7387E+06     289.073E+03    -108.746E-03     216.512E-03    -107.766E-03     50.6397E-03    -108.869E-03     215.799E-03    -107.626E-03     49.4373E-03
            1904     2.42480E-03     34.2479E-03    -76.1299E+06    -218.869E+06    -63.9009E+06     260.644E+03    -108.158E-03     215.796E-03    -107.638E-03     38.2332E-03    -108.205E-03     214.981E-03    -107.530E-03     37.3641E-03
            1905     1.61652E-03     34.2109E-03    -79.6156E+06    -225.819E+06    -74.1541E+06     213.355E+03    -107.758E-03     215.305E-03    -107.547E-03     25.7785E-03    -107.755E-03     214.433E-03    -107.475E-03     25.2081E-03
            1906     808.299E-06     34.1882E-03    -81.8252E+06    -229.824E+06    -80.4447E+06     117.860E+03    -107.615E-03     215.063E-03    -107.448E-03     14.0897E-03    -107.585E-03     214.161E-03    -107.398E-03     13.7862E-03
            1907     15.3081E-03     35.7726E-03    -5.07604E+06     125.017E+06     96.5869E+06     34.2914E+03    -112.521E-03     223.462E-03    -110.941E-03     167.112E-03    -122.763E-03     233.850E-03    -110.632E-03     161.470E-03
            1908     14.5055E-03     35.5126E-03    -11.2194E+06     119.956E+06     97.1770E+06     140.620E+03    -117.264E-03     228.073E-03    -110.808E-03     257.123E-03    -133.438E-03     244.351E-03    -110.480E-03     247.194E-03
            1909     13.7015E-03     35.1936E-03    -16.9349E+06     108.042E+06     88.5382E+06    -266.714E+03    -121.401E-03     232.000E-03    -110.599E-03     279.575E-03    -136.891E-03     247.557E-03    -110.289E-03     266.862E-03
            1910     12.8997E-03     34.8828E-03    -22.8293E+06     92.6967E+06     64.4478E+06    -490.966E+03    -121.260E-03     231.548E-03    -110.288E-03     256.331E-03    -133.079E-03     243.428E-03    -110.067E-03     243.876E-03
            1911     12.0956E-03     34.6205E-03    -28.2717E+06     75.7270E+06     31.2145E+06     393.882E+03    -119.249E-03     229.167E-03    -109.917E-03     215.780E-03    -127.073E-03     237.068E-03    -109.830E-03     205.255E-03
            1912     11.2920E-03     34.4007E-03    -31.5950E+06     41.9661E+06     11.9307E+06     876.873E+03    -117.839E-03     227.464E-03    -109.625E-03     184.374E-03    -123.077E-03     232.704E-03    -109.580E-03     175.649E-03
            1913     10.4884E-03     34.2072E-03    -33.8670E+06    -12.4443E+06     5.64605E+06     515.524E+03    -117.126E-03     226.533E-03    -109.407E-03     164.564E-03    -120.838E-03     230.064E-03    -109.312E-03     157.195E-03
            1914     9.68447E-03     34.0303E-03    -36.4606E+06    -59.5671E+06    -11.0677E+03     324.315E+03    -116.418E-03     225.582E-03    -109.164E-03     149.904E-03    -119.115E-03     227.939E-03    -109.025E-03     143.666E-03
            1915     8.88001E-03     33.8680E-03    -40.0268E+06    -92.1298E+06    -3.79218E+06     407.148E+03    -115.477E-03     224.381E-03    -108.904E-03     136.483E-03    -117.450E-03     225.896E-03    -108.731E-03     131.234E-03
            1916     8.07510E-03     33.7200E-03    -44.0931E+06    -121.434E+06    -6.02247E+06     368.805E+03    -114.427E-03     223.074E-03    -108.647E-03     123.299E-03    -115.864E-03     223.940E-03    -108.437E-03     118.897E-03
            1917     7.26966E-03     33.5867E-03    -47.7558E+06    -132.038E+06    -9.55094E+06     341.560E+03    -113.270E-03     221.631E-03    -108.361E-03     110.712E-03    -114.320E-03     222.070E-03    -108.148E-03     107.053E-03
            1918     6.46378E-03     33.4666E-03    -51.7810E+06    -145.793E+06    -15.0437E+06     500.669E+03    -112.101E-03     220.189E-03    -108.087E-03     98.4917E-03    -112.854E-03     220.284E-03    -107.876E-03     95.4774E-03
            1919     5.65728E-03     33.3605E-03    -56.6332E+06    -164.045E+06    -22.2249E+06     371.162E+03    -110.980E-03     218.816E-03    -107.836E-03     86.3238E-03    -111.503E-03     218.620E-03    -107.627E-03     83.8623E-03
            1920     4.85011E-03     33.2677E-03    -61.7102E+06    -177.392E+06    -31.3090E+06     167.429E+03    -109.911E-03     217.510E-03    -107.598E-03     74.2231E-03    -110.264E-03     217.104E-03    -107.408E-03     72.2443E-03
            1921     4.04240E-03     33.1891E-03    -66.6459E+06    -194.889E+06    -41.9718E+06     245.970E+03    -109.003E-03     216.396E-03    -107.393E-03     62.0766E-03    -109.218E-03     215.805E-03    -107.224E-03     60.5184E-03
            1922     3.23443E-03     33.1242E-03    -71.5044E+06    -206.761E+06    -52.9487E+06     365.957E+03    -108.260E-03     215.470E-03    -107.210E-03     49.9342E-03    -108.378E-03     214.754E-03    -107.071E-03     48.7485E-03
            1923     2.42611E-03     33.0735E-03    -75.9933E+06    -218.716E+06    -64.0774E+06     402.997E+03    -107.653E-03     214.710E-03    -107.056E-03     37.6698E-03    -107.698E-03     213.894E-03    -106.949E-03     36.8133E-03
            1924     1.61759E-03     33.0368E-03    -79.3236E+06    -225.386E+06    -73.9523E+06     360.982E+03    -107.206E-03     214.141E-03    -106.935E-03     25.4228E-03    -107.202E-03     213.270E-03    -106.863E-03     24.8633E-03
            1925     808.783E-06     33.0143E-03    -81.5419E+06    -229.300E+06    -79.9811E+06     210.758E+03    -106.966E-03     213.807E-03    -106.840E-03     13.8701E-03    -106.936E-03     212.906E-03    -106.790E-03     13.5731E-03
            1926     15.3106E-03     34.5885E-03    -4.72658E+06     125.554E+06     97.3084E+06     82.5892E+03    -113.788E-03     224.686E-03    -110.899E-03     166.570E-03    -123.981E-03     235.027E-03    -110.587E-03     160.752E-03
            1927     14.5063E-03     34.3236E-03    -10.1449E+06     120.887E+06     98.5322E+06     465.313E+03    -118.027E-03     228.734E-03    -110.707E-03     256.125E-03    -134.104E-03     244.918E-03    -110.375E-03     246.078E-03
            1928     13.7053E-03     34.0083E-03    -17.2573E+06     107.426E+06     87.4066E+06     239.188E+03    -121.718E-03     232.168E-03    -110.450E-03     279.044E-03    -137.146E-03     247.662E-03    -110.143E-03     266.291E-03
            1929     12.9007E-03     33.6969E-03    -23.7892E+06     91.5648E+06     63.0792E+06    -8.52806E+03    -121.579E-03     231.686E-03    -110.107E-03     255.576E-03    -133.370E-03     243.534E-03    -109.889E-03     243.098E-03
            1930     12.0984E-03     33.4351E-03    -28.3397E+06     75.9412E+06     32.4497E+06     272.458E+03    -119.630E-03     229.333E-03    -109.703E-03     214.316E-03    -127.414E-03     237.192E-03    -109.610E-03     203.780E-03
            1931     11.2954E-03     33.2167E-03    -31.5540E+06     42.3481E+06     12.6715E+06     123.449E+03    -118.120E-03     227.479E-03    -109.359E-03     183.170E-03    -123.337E-03     232.698E-03    -109.311E-03     174.430E-03
            1932     10.4917E-03     33.0236E-03    -34.5830E+06    -12.0633E+06     4.56114E+06    -90.5656E+03    -117.273E-03     226.361E-03    -109.088E-03     163.430E-03    -120.964E-03     229.873E-03    -108.998E-03     156.069E-03
            1933     9.68785E-03     32.8479E-03    -37.6392E+06    -59.7870E+06    -1.49736E+06     31.0837E+03    -116.491E-03     225.294E-03    -108.802E-03     148.669E-03    -119.170E-03     227.630E-03    -108.668E-03     142.451E-03
            1934     8.88358E-03     32.6867E-03    -40.4871E+06    -92.2671E+06    -4.65131E+06     562.668E+03    -115.465E-03     223.965E-03    -108.500E-03     135.126E-03    -117.420E-03     225.462E-03    -108.331E-03     129.905E-03
            1935     8.07866E-03     32.5400E-03    -43.6540E+06    -120.646E+06    -6.18855E+06     539.032E+03    -114.244E-03     222.448E-03    -108.205E-03     121.906E-03    -115.660E-03     223.299E-03    -107.997E-03     117.542E-03
            1936     7.27321E-03     32.4077E-03    -47.9438E+06    -132.095E+06    -9.90618E+06     127.058E+03    -112.984E-03     220.873E-03    -107.889E-03     109.365E-03    -114.018E-03     221.297E-03    -107.678E-03     105.739E-03
            1937     6.46695E-03     32.2890E-03    -52.5126E+06    -146.065E+06    -15.5305E+06     120.531E+03    -111.798E-03     219.383E-03    -107.585E-03     97.2772E-03    -112.542E-03     219.467E-03    -107.375E-03     94.2889E-03
            1938     5.66022E-03     32.1838E-03    -56.8581E+06    -163.535E+06    -22.3239E+06     317.150E+03    -110.634E-03     217.933E-03    -107.299E-03     85.1854E-03    -111.150E-03     217.732E-03    -107.092E-03     82.7514E-03
            1939     4.85285E-03     32.0925E-03    -61.7607E+06    -176.888E+06    -31.4001E+06     269.589E+03    -109.506E-03     216.533E-03    -107.027E-03     73.1121E-03    -109.852E-03     216.123E-03    -106.838E-03     71.1605E-03
            1940     4.04494E-03     32.0146E-03    -66.8595E+06    -195.112E+06    -42.5519E+06     156.678E+03    -108.525E-03     215.312E-03    -106.787E-03     61.0329E-03    -108.736E-03     214.716E-03    -106.620E-03     59.4958E-03
            1941     3.23647E-03     31.9506E-03    -71.5092E+06    -206.928E+06    -53.5021E+06     404.693E+03    -107.704E-03     214.278E-03    -106.574E-03     49.0136E-03    -107.818E-03     213.559E-03    -106.438E-03     47.8464E-03
            1942     2.42775E-03     31.9002E-03    -75.7075E+06    -218.282E+06    -63.8870E+06     564.422E+03    -107.054E-03     213.452E-03    -106.398E-03     36.9365E-03    -107.097E-03     212.637E-03    -106.291E-03     36.0956E-03
            1943     1.61866E-03     31.8643E-03    -79.1608E+06    -224.977E+06    -73.7058E+06     498.096E+03    -106.575E-03     212.825E-03    -106.249E-03     25.0243E-03    -106.571E-03     211.955E-03    -106.177E-03     24.4764E-03
            1944     809.500E-06     31.8417E-03    -81.2560E+06    -228.830E+06    -79.8730E+06     330.065E+03    -106.237E-03     212.401E-03    -106.165E-03     13.5848E-03    -106.205E-03     211.502E-03    -106.114E-03     13.2935E-03
            1945     15.3096E-03     33.3970E-03    -5.30663E+06     124.667E+06     96.4181E+06    -30.3169E+03    -114.842E-03     225.684E-03    -110.842E-03     165.745E-03    -124.983E-03     235.969E-03    -110.533E-03     159.781E-03
            1946     14.5101E-03     33.1377E-03    -11.2250E+06     119.611E+06     97.2241E+06     255.398E+03    -118.584E-03     229.186E-03    -110.603E-03     255.881E-03    -134.604E-03     245.310E-03    -110.274E-03     245.754E-03
            1947     13.7050E-03     32.8215E-03    -16.8120E+06     107.939E+06     88.2835E+06     634.702E+03    -122.432E-03     232.740E-03    -110.308E-03     278.742E-03    -137.841E-03     248.216E-03    -109.999E-03     265.908E-03
            1948     12.9045E-03     32.5103E-03    -22.2164E+06     93.0848E+06     65.0238E+06     863.919E+03    -122.256E-03     232.165E-03    -109.909E-03     254.280E-03    -134.003E-03     243.975E-03    -109.687E-03     241.760E-03
            1949     12.1016E-03     32.2502E-03    -27.0563E+06     76.7317E+06      32.338E+06     397.029E+03    -119.939E-03     229.381E-03    -109.442E-03     212.966E-03    -127.675E-03     237.199E-03    -109.352E-03     202.426E-03
            1950     11.2985E-03     32.0321E-03    -30.5022E+06     42.3897E+06     11.6455E+06     103.436E+03    -118.329E-03     227.380E-03    -109.051E-03     181.961E-03    -123.505E-03     232.564E-03    -109.010E-03     173.232E-03
            1951     10.4954E-03     31.8406E-03    -33.5751E+06    -11.6450E+06     4.85148E+06     522.346E+03    -117.374E-03     226.118E-03    -108.744E-03     162.114E-03    -121.027E-03     229.596E-03    -108.654E-03     154.788E-03
            1952     9.69160E-03     31.6657E-03    -37.0015E+06    -59.6146E+06    -938.091E+03     546.787E+03    -116.527E-03     224.946E-03    -108.419E-03     147.350E-03    -119.176E-03     227.254E-03    -108.283E-03     141.170E-03
            1953     8.88745E-03     31.5059E-03    -40.2392E+06    -92.3823E+06    -4.31946E+06     204.010E+03    -115.433E-03     223.506E-03    -108.073E-03     133.687E-03    -117.364E-03     224.978E-03    -107.902E-03     128.493E-03
            1954     8.08263E-03     31.3607E-03    -43.7376E+06    -120.129E+06    -6.10468E+06     441.183E+03    -114.092E-03     221.825E-03    -107.733E-03     120.474E-03    -115.489E-03     222.659E-03    -107.526E-03     116.146E-03
            1955     7.27682E-03     31.2299E-03    -47.5446E+06    -131.725E+06    -10.0525E+06     404.384E+03    -112.745E-03     220.122E-03    -107.377E-03     107.971E-03    -113.761E-03     220.530E-03    -107.167E-03     104.388E-03
            1956     6.47049E-03     31.1122E-03    -51.7644E+06    -146.236E+06    -15.7802E+06     107.385E+03    -111.481E-03     218.515E-03    -107.034E-03     95.7658E-03    -112.207E-03     218.583E-03    -106.826E-03     92.8128E-03
            1957     5.66348E-03     31.0085E-03    -56.6931E+06    -163.556E+06    -22.7394E+06     222.023E+03    -110.245E-03     216.955E-03    -106.710E-03     83.6801E-03    -110.749E-03     216.743E-03    -106.505E-03     81.2763E-03
            1958     4.85585E-03     30.9181E-03    -61.6412E+06    -176.386E+06    -31.2434E+06     200.382E+03    -109.087E-03     215.486E-03    -106.399E-03     71.7743E-03    -109.427E-03     215.072E-03    -106.210E-03     69.8474E-03
            1959     4.04765E-03     30.8415E-03    -66.5021E+06    -195.350E+06    -41.3353E+06     207.344E+03    -108.054E-03     214.173E-03    -106.119E-03     59.9088E-03    -108.259E-03     213.568E-03    -105.946E-03     58.3949E-03
            1960     3.23891E-03     30.7782E-03    -71.3649E+06    -207.157E+06    -52.5062E+06     457.737E+03    -107.113E-03     212.976E-03    -105.863E-03     48.0781E-03    -107.225E-03     212.251E-03    -105.721E-03     46.9317E-03
            1961     2.42955E-03     30.7289E-03    -75.6973E+06    -217.778E+06    -63.7237E+06     591.533E+03    -106.358E-03     212.010E-03    -105.651E-03     36.1898E-03    -106.400E-03     211.194E-03    -105.544E-03     35.3660E-03
            1962     1.61992E-03     30.6932E-03    -78.9882E+06    -224.471E+06    -73.3053E+06     426.111E+03    -105.804E-03     211.298E-03    -105.494E-03     24.4917E-03    -105.799E-03     210.429E-03    -105.421E-03     23.9533E-03
            1963     809.933E-06     30.6712E-03    -80.9236E+06    -228.139E+06    -79.3478E+06     92.4367E+03    -105.500E-03     210.891E-03    -105.391E-03     13.3440E-03    -105.468E-03     209.994E-03    -105.340E-03     13.0519E-03
            1964     15.3130E-03     32.2088E-03    -4.88936E+06     124.872E+06     96.6290E+06     409.736E+03    -115.545E-03     226.372E-03    -110.828E-03     166.679E-03    -125.726E-03     236.700E-03    -110.518E-03     160.563E-03
            1965     14.5079E-03     31.9495E-03    -10.9860E+06     119.790E+06     96.9789E+06     144.042E+03    -119.960E-03     230.481E-03    -110.522E-03     254.805E-03    -136.007E-03     246.634E-03    -110.194E-03     244.422E-03
            1966     13.7092E-03     31.6332E-03    -17.3352E+06     107.431E+06     87.9306E+06    -30.6187E+03    -123.355E-03     233.499E-03    -110.144E-03     277.028E-03    -138.710E-03     248.919E-03    -109.835E-03     264.062E-03
            1967     12.9067E-03     31.3235E-03    -22.5007E+06     92.8540E+06     65.2918E+06     165.739E+03    -122.610E-03     232.298E-03    -109.689E-03     253.155E-03    -134.273E-03     244.022E-03    -109.464E-03     240.630E-03
            1968     12.1049E-03     31.0647E-03    -26.9889E+06     76.7325E+06     32.3222E+06     505.481E+03    -120.311E-03     229.486E-03    -109.174E-03     211.959E-03    -128.005E-03     237.262E-03    -109.085E-03     201.411E-03
            1969     11.3026E-03     30.8481E-03    -30.9373E+06     42.5896E+06     11.3339E+06     550.629E+03    -118.618E-03     227.351E-03    -108.734E-03     180.879E-03    -123.756E-03     232.498E-03    -108.694E-03     172.170E-03
            1970     10.4992E-03     30.6575E-03    -34.2147E+06    -11.6217E+06     4.57177E+06     564.426E+03    -117.554E-03     225.933E-03    -108.379E-03     160.900E-03    -121.177E-03     229.380E-03    -108.290E-03     153.602E-03
            1971     9.69563E-03     30.4840E-03    -36.8804E+06    -59.1260E+06    -736.316E+03     703.005E+03    -116.564E-03     224.572E-03    -108.008E-03     145.957E-03    -119.182E-03     226.851E-03    -107.873E-03     139.819E-03
            1972     8.89144E-03     30.3253E-03    -40.1376E+06    -92.1087E+06    -4.44206E+06     613.601E+03    -115.346E-03     222.964E-03    -107.618E-03     132.125E-03    -117.249E-03     224.410E-03    -107.448E-03     126.980E-03
            1973     8.08644E-03     30.1821E-03    -43.9104E+06    -119.868E+06    -6.75748E+06     289.650E+03    -114.031E-03     221.259E-03    -107.228E-03     118.779E-03    -115.408E-03     222.074E-03    -107.024E-03     114.485E-03
            1974     7.28092E-03     30.0526E-03    -47.7424E+06    -131.159E+06    -10.5697E+06     34.9564E+03    -112.616E-03     219.431E-03    -106.815E-03     106.211E-03    -113.615E-03     219.826E-03    -106.609E-03     102.658E-03
            1975     6.47449E-03     29.9365E-03    -51.9717E+06    -146.365E+06    -16.0762E+06     229.183E+03    -111.181E-03     217.601E-03    -106.420E-03     94.0129E-03    -111.893E-03     217.655E-03    -106.213E-03     91.0983E-03
            1976     5.66731E-03     29.8342E-03    -56.4910E+06    -163.370E+06    -22.6319E+06     283.084E+03    -109.818E-03     215.868E-03    -106.051E-03     82.0494E-03    -110.310E-03     215.646E-03    -105.845E-03     79.6810E-03
            1977     4.85929E-03     29.7452E-03    -61.1865E+06    -176.044E+06    -31.0051E+06    -72.2647E+03    -108.558E-03     214.257E-03    -105.698E-03     70.3041E-03    -108.889E-03     213.835E-03    -105.509E-03     68.4033E-03
            1978     4.05064E-03     29.6696E-03    -66.2046E+06    -195.879E+06    -40.1189E+06     86.9191E+03    -107.451E-03     212.840E-03    -105.388E-03     58.6413E-03    -107.651E-03     212.225E-03    -105.209E-03     57.1510E-03
            1979     3.24137E-03     29.6076E-03    -71.2846E+06    -207.276E+06    -50.9242E+06     588.218E+03    -106.449E-03     211.547E-03    -105.098E-03     47.0574E-03    -106.559E-03     210.816E-03    -104.949E-03     45.9335E-03
            1980     2.43161E-03     29.5591E-03    -75.7666E+06    -216.977E+06    -63.3107E+06     428.900E+03    -105.624E-03     210.472E-03    -104.848E-03     35.4789E-03    -105.666E-03     209.658E-03    -104.740E-03     34.6695E-03
            1981     1.62131E-03     29.5242E-03    -78.9434E+06    -224.049E+06    -73.4159E+06    -26.3346E+03    -105.022E-03     209.681E-03    -104.660E-03     23.9444E-03    -105.016E-03     208.813E-03    -104.587E-03     23.4110E-03
            1982     810.706E-06     29.5026E-03    -81.0479E+06    -228.045E+06    -79.3721E+06    -21.6043E+03    -104.727E-03     209.191E-03    -104.464E-03     13.0599E-03    -104.695E-03     208.294E-03    -104.413E-03     12.7729E-03
            1983     15.3070E-03     31.0168E-03    -5.07167E+06     124.538E+06     96.4874E+06     249.523E+03    -116.707E-03     227.491E-03    -110.783E-03     164.192E-03    -126.753E-03     237.680E-03    -110.474E-03     157.924E-03
            1984     14.5126E-03     30.7568E-03    -9.93646E+06     120.928E+06     98.4288E+06     549.826E+03    -120.836E-03     231.249E-03    -110.413E-03     252.478E-03    -136.747E-03     247.269E-03    -110.082E-03     241.977E-03
            1985     13.7111E-03     30.4461E-03    -16.3883E+06     108.232E+06     88.3200E+06     709.900E+03    -123.855E-03     233.829E-03    -109.974E-03     275.698E-03    -139.119E-03     249.163E-03    -109.666E-03     262.697E-03
            1986     12.9100E-03     30.1367E-03    -23.2268E+06     91.8097E+06     63.4013E+06     201.246E+03    -123.057E-03     232.526E-03    -109.469E-03     252.659E-03    -134.653E-03     244.182E-03    -109.251E-03     240.113E-03
            1987     12.1081E-03     29.8787E-03    -28.0049E+06     75.8544E+06     31.8790E+06     259.367E+03    -120.764E-03     229.679E-03    -108.915E-03     210.896E-03    -128.409E-03     237.401E-03    -108.825E-03     200.336E-03
            1988     11.3056E-03     29.6638E-03    -31.4840E+06     43.0189E+06     11.6686E+06     886.557E+03    -119.066E-03     227.484E-03    -108.419E-03     179.583E-03    -124.167E-03     232.592E-03    -108.377E-03     170.885E-03
            1989     10.5031E-03     29.4745E-03    -34.6303E+06    -10.6857E+06     3.84045E+06     585.726E+03    -117.880E-03     225.877E-03    -107.996E-03     159.379E-03    -121.467E-03     229.292E-03    -107.911E-03     152.103E-03
            1990     9.69990E-03     29.3026E-03    -37.7632E+06    -59.3368E+06    -2.00169E+06     230.316E+03    -116.676E-03     224.241E-03    -107.566E-03     144.140E-03    -119.262E-03     226.489E-03    -107.435E-03     138.029E-03
            1991     8.89570E-03     29.1459E-03    -40.4517E+06    -91.9460E+06    -5.06745E+06     467.537E+03    -115.351E-03     222.472E-03    -107.121E-03     130.227E-03    -117.226E-03     223.891E-03    -106.954E-03     125.120E-03
            1992     8.09101E-03     29.0037E-03    -43.5724E+06    -119.138E+06    -6.56850E+06     364.754E+03    -113.985E-03     220.659E-03    -106.674E-03     116.772E-03    -115.337E-03     221.453E-03    -106.471E-03     112.515E-03
            1993     7.28548E-03     28.8762E-03    -47.6892E+06    -130.929E+06    -10.0915E+06     143.136E+03    -112.445E-03     218.646E-03    -106.201E-03     104.203E-03    -113.426E-03     219.022E-03    -105.993E-03     100.686E-03
            1994     6.47892E-03     28.7619E-03    -52.1041E+06    -146.173E+06    -15.6907E+06     102.483E+03    -110.863E-03     216.610E-03    -105.747E-03     92.1496E-03    -111.560E-03     216.649E-03    -105.538E-03     89.2714E-03
            1995     5.67140E-03     28.6612E-03    -56.5423E+06    -163.011E+06    -22.6007E+06    -30.5488E+03    -109.352E-03     214.675E-03    -105.323E-03     80.3161E-03    -109.833E-03     214.442E-03    -105.118E-03     77.9806E-03
            1996     4.86310E-03     28.5737E-03    -61.3879E+06    -175.879E+06    -31.2291E+06    -141.533E+03    -107.952E-03     212.879E-03    -104.928E-03     68.7720E-03    -108.274E-03     212.450E-03    -104.740E-03     66.9036E-03
            1997     4.05392E-03     28.4996E-03    -66.5591E+06    -196.291E+06    -40.7877E+06    -38.6617E+03    -106.731E-03     211.317E-03    -104.585E-03     57.3060E-03    -106.925E-03     210.696E-03    -104.408E-03     55.8427E-03
            1998     3.24407E-03     28.4386E-03    -71.1943E+06    -207.388E+06    -51.4342E+06     101.565E+03    -105.669E-03     209.943E-03    -104.274E-03     45.9565E-03    -105.773E-03     209.208E-03    -104.128E-03     44.8492E-03
            1999     2.43354E-03     28.3912E-03    -75.2656E+06    -216.474E+06    -63.1387E+06     268.269E+03    -104.839E-03     208.845E-03    -104.006E-03     34.6650E-03    -104.877E-03     208.030E-03    -103.898E-03     33.8700E-03
            2000     1.62268E-03     28.3569E-03    -78.8817E+06    -223.839E+06    -73.6611E+06     209.937E+03    -104.214E-03     208.000E-03    -103.786E-03     23.3830E-03    -104.207E-03     207.132E-03    -103.716E-03     22.8630E-03
            2001     811.568E-06     28.3360E-03    -81.1509E+06    -227.934E+06    -79.9501E+06     208.393E+03    -103.787E-03     207.407E-03    -103.620E-03     12.9037E-03    -103.755E-03     206.512E-03    -103.572E-03     12.6268E-03
            2002     15.3180E-03     29.8280E-03    -5.45668E+06     123.969E+06     95.9353E+06    -220.557E+03    -118.031E-03     228.715E-03    -110.685E-03     163.330E-03    -127.956E-03     238.783E-03    -110.377E-03     156.910E-03
            2003     14.5122E-03     29.5663E-03    -10.9460E+06     119.672E+06     97.3618E+06     62.0427E+03    -120.696E-03     230.978E-03    -110.282E-03     252.098E-03    -136.410E-03     246.795E-03    -109.953E-03     241.640E-03
            2004     13.7126E-03     29.2564E-03    -15.9617E+06     108.474E+06     89.1877E+06     1.08334E+06    -124.181E-03     234.020E-03    -109.839E-03     274.947E-03    -139.315E-03     249.224E-03    -109.527E-03     261.948E-03
            2005     12.9121E-03     28.9494E-03    -21.8113E+06     93.0358E+06     64.8552E+06     1.66865E+06    -123.997E-03     233.279E-03    -109.282E-03     251.590E-03    -135.552E-03     244.898E-03    -109.061E-03     238.969E-03
            2006     12.1110E-03     28.6925E-03    -27.2678E+06     76.0886E+06     31.3354E+06     1.13419E+06    -121.518E-03     230.162E-03    -108.644E-03     209.181E-03    -129.097E-03     237.823E-03    -108.558E-03     198.601E-03
            2007     11.3097E-03     28.4791E-03    -30.7362E+06     43.2021E+06     10.9392E+06     669.958E+03    -119.586E-03     227.657E-03    -108.071E-03     177.422E-03    -124.632E-03     232.716E-03    -108.035E-03     168.718E-03
            2008     10.5075E-03     28.2913E-03    -33.3909E+06    -9.97000E+06     4.67830E+06     913.672E+03    -118.185E-03     225.770E-03    -107.585E-03     157.191E-03    -121.726E-03     229.143E-03    -107.499E-03     149.939E-03
            2009     9.70442E-03     28.1216E-03    -36.5318E+06    -58.4603E+06    -495.417E+03     825.917E+03    -116.870E-03     223.959E-03    -107.089E-03     141.902E-03    -119.419E-03     226.173E-03    -106.954E-03     135.825E-03
            2010     8.90074E-03     27.9665E-03    -40.1450E+06    -91.4211E+06    -4.60707E+06     329.990E+03    -115.421E-03     221.993E-03    -106.572E-03     128.059E-03    -117.266E-03     223.384E-03    -106.404E-03     122.984E-03
            2011     8.09599E-03     27.8263E-03    -43.6022E+06    -118.867E+06    -6.69800E+06     115.418E+03    -113.840E-03     219.899E-03    -106.059E-03     114.657E-03    -115.167E-03     220.669E-03    -105.857E-03     110.441E-03
            2012     7.29031E-03     27.7006E-03    -47.0284E+06    -130.911E+06    -9.63242E+06     61.3274E+03    -112.168E-03     217.699E-03    -105.531E-03     102.043E-03    -113.127E-03     218.054E-03    -105.321E-03     98.5659E-03
            2013     6.48362E-03     27.5884E-03    -51.0631E+06    -145.927E+06    -14.6861E+06     192.059E+03    -110.460E-03     215.484E-03    -105.024E-03     90.1235E-03    -111.139E-03     215.506E-03    -104.812E-03     87.2865E-03
            2014     5.67599E-03     27.4896E-03    -56.0747E+06    -162.672E+06    -22.1230E+06     132.526E+03    -108.816E-03     213.366E-03    -104.550E-03     78.5600E-03    -109.284E-03     213.122E-03    -104.343E-03     76.2656E-03
            2015     4.86708E-03     27.4040E-03    -61.2431E+06    -175.797E+06    -31.3947E+06    -111.289E+03    -107.313E-03     211.423E-03    -104.110E-03     67.2148E-03    -107.626E-03     210.986E-03    -103.923E-03     65.3816E-03
            2016     4.05742E-03     27.3311E-03    -65.8974E+06    -196.314E+06    -41.0781E+06    -185.615E+03    -105.982E-03     209.715E-03    -103.733E-03     55.9152E-03    -106.166E-03     209.087E-03    -103.558E-03     54.4793E-03
            2017     3.24687E-03     27.2719E-03    -70.7774E+06    -207.762E+06    -52.1648E+06     8.52834E+03    -104.851E-03     208.247E-03    -103.396E-03     44.8018E-03    -104.948E-03     207.507E-03    -103.253E-03     43.7164E-03
            2018     2.43579E-03     27.2251E-03    -75.5036E+06    -216.619E+06    -63.6067E+06     394.490E+03    -103.965E-03     207.079E-03    -103.114E-03     33.7578E-03    -104.002E-03     206.263E-03    -103.008E-03     32.9811E-03
            2019     1.62422E-03     27.1918E-03    -79.0605E+06    -223.343E+06    -73.1376E+06     481.496E+03    -103.292E-03     206.189E-03    -102.897E-03     22.7331E-03    -103.287E-03     205.323E-03    -102.824E-03     22.2268E-03
            2020     812.055E-06     27.1713E-03    -81.2287E+06    -227.297E+06    -79.6197E+06     391.245E+03    -102.819E-03     205.629E-03    -102.810E-03     12.4605E-03    -102.789E-03     204.736E-03    -102.760E-03     12.1915E-03
            2021     15.3100E-03     28.6310E-03    -4.86168E+06     124.318E+06     96.2661E+06     67.2530E+03    -118.620E-03     229.308E-03    -110.687E-03     164.799E-03    -128.582E-03     239.414E-03    -110.379E-03     158.201E-03
            2022     14.5161E-03     28.3785E-03    -10.9371E+06     119.225E+06     96.6613E+06     182.729E+03    -122.024E-03     232.254E-03    -110.231E-03     252.039E-03    -137.679E-03     248.014E-03    -109.904E-03     241.342E-03
            2023     13.7140E-03     28.0668E-03    -17.5880E+06     106.808E+06     87.6227E+06     326.548E+03    -125.357E-03     235.071E-03    -109.714E-03     274.569E-03    -140.422E-03     250.199E-03    -109.405E-03     261.399E-03
            2024     12.9144E-03     27.7600E-03    -22.7052E+06     92.5089E+06     65.6294E+06     830.761E+03    -125.146E-03     234.224E-03    -109.077E-03     249.184E-03    -136.624E-03     245.759E-03    -108.850E-03     236.433E-03
            2025     12.1150E-03     27.5055E-03    -26.5192E+06     77.0938E+06     33.6662E+06     1.23170E+06    -122.373E-03     230.717E-03    -108.344E-03     206.410E-03    -129.881E-03     238.307E-03    -108.249E-03     195.787E-03
            2026     11.3141E-03     27.2940E-03    -30.0943E+06     43.8882E+06     12.1448E+06     1.05397E+06    -120.046E-03     227.728E-03    -107.682E-03     174.862E-03    -125.035E-03     232.730E-03    -107.641E-03     166.167E-03
            2027     10.5123E-03     27.1088E-03    -33.3993E+06    -10.1149E+06     4.73336E+06     873.562E+03    -118.413E-03     225.533E-03    -107.120E-03     154.722E-03    -121.908E-03     228.860E-03    -107.033E-03     147.494E-03
            2028     9.70973E-03     26.9405E-03    -36.2513E+06    -57.8395E+06     88.5452E+03     1.00421E+06    -116.997E-03     223.554E-03    -106.558E-03     139.585E-03    -119.509E-03     225.732E-03    -106.421E-03     133.545E-03
            2029     8.90612E-03     26.7879E-03    -39.4439E+06    -90.3886E+06    -3.51620E+06     1.00759E+06    -115.411E-03     221.385E-03    -105.974E-03     125.731E-03    -117.225E-03     222.748E-03    -105.804E-03     120.705E-03
            2030     8.10144E-03     26.6497E-03    -43.1252E+06    -117.414E+06    -7.06799E+06     93.5176E+03    -113.625E-03     219.016E-03    -105.391E-03     112.434E-03    -114.924E-03     219.766E-03    -105.194E-03     108.268E-03
            2031     7.29571E-03     26.5262E-03    -46.6502E+06    -131.245E+06    -10.9423E+06    -654.574E+03    -111.782E-03     216.591E-03    -104.809E-03     99.9296E-03    -112.714E-03     216.923E-03    -104.606E-03     96.4959E-03
            2032     6.48873E-03     26.4162E-03    -50.5632E+06    -147.048E+06    -15.3683E+06     198.293E+03    -109.962E-03     214.222E-03    -104.260E-03     88.1000E-03    -110.619E-03     214.222E-03    -104.051E-03     85.3084E-03
            2033     5.68036E-03     26.3197E-03    -55.1737E+06    -161.811E+06    -21.4226E+06     643.709E+03    -108.228E-03     211.975E-03    -103.747E-03     76.7348E-03    -108.682E-03     211.721E-03    -103.540E-03     74.4870E-03
            2034     4.87127E-03     26.2355E-03    -60.2205E+06    -175.266E+06    -30.9153E+06     197.721E+03    -106.638E-03     209.906E-03    -103.267E-03     65.5674E-03    -106.939E-03     209.460E-03    -103.081E-03     63.7727E-03
            2035     4.06100E-03     26.1650E-03    -65.8213E+06    -196.519E+06    -41.3352E+06     300.029E+03    -105.239E-03     208.092E-03    -102.853E-03     54.4931E-03    -105.416E-03     207.457E-03    -102.679E-03     53.0923E-03
            2036     3.24993E-03     26.1066E-03    -71.3097E+06    -208.006E+06    -52.1526E+06     617.789E+03    -104.020E-03     206.506E-03    -102.487E-03     43.6333E-03    -104.115E-03     205.762E-03    -102.342E-03     42.5788E-03
            2037     2.43809E-03     26.0615E-03    -75.8802E+06    -216.304E+06    -63.6645E+06     488.703E+03    -103.033E-03     205.220E-03    -102.186E-03     32.8726E-03    -103.070E-03     204.404E-03    -102.081E-03     32.1152E-03
            2038     1.62559E-03     26.0286E-03    -79.1634E+06    -222.833E+06    -73.1574E+06     117.698E+03    -102.349E-03     204.318E-03    -101.968E-03     22.1142E-03    -102.344E-03     203.453E-03    -101.896E-03     21.6162E-03
            2039     813.042E-06     26.0090E-03    -81.3018E+06    -226.907E+06    -79.5280E+06     181.413E+03    -102.010E-03     203.772E-03    -101.762E-03     12.0697E-03    -101.981E-03     202.881E-03    -101.712E-03     11.8046E-03
            2040     15.3132E-03     27.4338E-03    -4.46127E+06     124.235E+06     96.3611E+06     569.098E+03    -118.959E-03     229.660E-03    -110.701E-03     162.070E-03    -128.682E-03     239.529E-03    -110.393E-03     155.428E-03
            2041     14.5121E-03     27.1849E-03    -10.4063E+06     119.583E+06     97.0913E+06     836.893E+03    -123.543E-03     233.724E-03    -110.181E-03     248.228E-03    -138.962E-03     249.249E-03    -109.854E-03     237.295E-03
            2042     13.7160E-03     26.8750E-03    -17.1881E+06     107.087E+06     87.6730E+06     600.346E+03    -127.274E-03     236.811E-03    -109.537E-03     271.243E-03    -142.209E-03     251.811E-03    -109.229E-03     257.813E-03
            2043     12.9184E-03     26.5696E-03    -22.9572E+06     92.0969E+06     65.3286E+06     42.4444E+03    -125.920E-03     234.704E-03    -108.783E-03     245.580E-03    -137.229E-03     246.069E-03    -108.557E-03     232.787E-03
            2044     12.1194E-03     26.3179E-03    -27.8912E+06     76.0097E+06     33.6158E+06     274.842E+03    -122.758E-03     230.733E-03    -107.975E-03     203.351E-03    -130.171E-03     238.219E-03    -107.877E-03     192.731E-03
            2045     11.3192E-03     26.1090E-03    -31.4558E+06     44.2608E+06     12.3580E+06     1.15466E+06    -120.359E-03     227.602E-03    -107.242E-03     172.142E-03    -125.286E-03     232.538E-03    -107.199E-03     163.476E-03
            2046     10.5179E-03     25.9261E-03    -34.7716E+06    -8.76921E+06     3.69526E+06     990.179E+03    -118.577E-03     225.182E-03    -106.606E-03     152.296E-03    -122.028E-03     228.468E-03    -106.524E-03     145.108E-03
            2047     9.71531E-03     25.7603E-03    -38.0382E+06    -58.1044E+06    -2.24288E+06     530.807E+03    -117.002E-03     222.979E-03    -105.977E-03     137.397E-03    -119.479E-03     225.121E-03    -105.849E-03     131.399E-03
            2048     8.91182E-03     25.6095E-03    -40.8792E+06    -90.1807E+06    -4.77311E+06     764.125E+03    -115.281E-03     220.621E-03    -105.339E-03     123.513E-03    -117.068E-03     221.955E-03    -105.173E-03     118.536E-03
            2049     8.10718E-03     25.4743E-03    -44.2699E+06    -114.919E+06    -8.24774E+06     195.832E+03    -113.331E-03     218.029E-03    -104.698E-03     110.225E-03    -114.610E-03     218.767E-03    -104.508E-03     106.115E-03
            2050     7.30102E-03     25.3529E-03    -48.8394E+06    -131.668E+06    -13.7691E+06    -502.723E+03    -111.316E-03     215.382E-03    -104.066E-03     97.8792E-03    -112.231E-03     215.696E-03    -103.874E-03     94.5047E-03
            2051     6.49361E-03     25.2456E-03    -53.3033E+06    -147.909E+06    -18.4270E+06    -505.147E+03    -109.444E-03     212.920E-03    -103.475E-03     86.1321E-03    -110.093E-03     212.907E-03    -103.276E-03     83.3785E-03
            2052     5.68533E-03     25.1510E-03    -56.9984E+06    -161.420E+06    -23.6787E+06    -442.141E+03    -107.621E-03     210.541E-03    -102.920E-03     74.8533E-03    -108.069E-03     210.282E-03    -102.722E-03     72.6307E-03
            2053     4.87539E-03     25.0694E-03    -61.2424E+06    -175.923E+06    -31.6593E+06     451.929E+03    -105.910E-03     208.322E-03    -102.412E-03     63.8884E-03    -106.205E-03     207.867E-03    -102.227E-03     62.1330E-03
            2054     4.06464E-03     25.0002E-03    -66.3330E+06    -196.274E+06    -41.1366E+06     1.11125E+06    -104.454E-03     206.425E-03    -101.971E-03     53.0860E-03    -104.628E-03     205.786E-03    -101.795E-03     51.7260E-03
            2055     3.25293E-03     24.9439E-03    -71.3370E+06    -207.444E+06    -51.7280E+06     713.425E+03    -103.177E-03     204.755E-03    -101.578E-03     42.4856E-03    -103.271E-03     204.009E-03    -101.433E-03     41.4559E-03
            2056     2.44034E-03     24.8997E-03    -75.7105E+06    -215.540E+06    -63.2858E+06     322.614E+03    -102.149E-03     203.403E-03    -101.255E-03     31.9982E-03    -102.184E-03     202.588E-03    -101.149E-03     31.2565E-03
            2057     1.62731E-03     24.8681E-03    -79.2743E+06    -222.710E+06    -73.8252E+06     132.765E+03    -101.432E-03     202.443E-03    -101.011E-03     21.5105E-03    -101.426E-03     201.579E-03    -100.942E-03     21.0246E-03
            2058     813.612E-06     24.8485E-03    -81.4151E+06    -226.796E+06    -80.2748E+06     119.196E+03    -101.059E-03     201.836E-03    -100.777E-03     11.7768E-03    -101.029E-03     200.946E-03    -100.732E-03     11.5184E-03
            2059     15.3137E-03     26.2448E-03    -5.57437E+06     123.052E+06     95.0508E+06     366.899E+03    -121.137E-03     231.760E-03    -110.623E-03     160.372E-03    -130.746E-03     241.510E-03    -110.318E-03     153.431E-03
            2060     14.5171E-03     25.9891E-03    -10.7943E+06     119.134E+06     96.7358E+06     581.796E+03    -124.975E-03     234.970E-03    -109.995E-03     245.433E-03    -140.182E-03     250.281E-03    -109.669E-03     234.271E-03
            2061     13.7213E-03     25.6812E-03    -15.7958E+06     108.249E+06     89.2194E+06     802.008E+03    -128.185E-03     237.443E-03    -109.258E-03     267.201E-03    -142.870E-03     252.197E-03    -108.946E-03     253.706E-03
            2062     12.9239E-03     25.3805E-03    -21.8982E+06     92.7053E+06     66.0983E+06     1.26468E+06    -126.257E-03     234.683E-03    -108.426E-03     242.698E-03    -137.391E-03     245.877E-03    -108.198E-03     229.969E-03
            2063     12.1246E-03     25.1301E-03    -27.5981E+06     75.6612E+06     32.8654E+06     1.41093E+06    -122.890E-03     230.450E-03    -107.560E-03     201.131E-03    -130.193E-03     237.828E-03    -107.465E-03     190.585E-03
            2064     11.3247E-03     24.9241E-03    -31.6087E+06     44.5035E+06     11.3577E+06     1.13605E+06    -120.524E-03     227.298E-03    -106.774E-03     169.921E-03    -125.381E-03     232.168E-03    -106.736E-03     161.303E-03
            2065     10.5234E-03     24.7438E-03    -34.2519E+06    -7.23861E+06     4.06471E+06     943.871E+03    -118.755E-03     224.837E-03    -106.082E-03     150.161E-03    -122.158E-03     228.081E-03    -106.001E-03     143.013E-03
            2066     9.72117E-03     24.5805E-03    -36.7503E+06    -57.3247E+06    -2.12474E+06     719.922E+03    -117.019E-03     222.408E-03    -105.389E-03     135.143E-03    -119.452E-03     224.514E-03    -105.263E-03     129.193E-03
            2067     8.91753E-03     24.4323E-03    -39.3533E+06    -90.0788E+06    -6.04172E+06     169.370E+03    -115.049E-03     219.739E-03    -104.690E-03     121.263E-03    -116.790E-03     221.039E-03    -104.533E-03     116.338E-03
            2068     8.11266E-03     24.2994E-03    -42.3725E+06    -115.216E+06    -7.68419E+06     1.05213E+06    -112.990E-03     217.001E-03    -104.012E-03     107.921E-03    -114.231E-03     217.706E-03    -103.822E-03     103.878E-03
            2069     7.30642E-03     24.1815E-03    -46.7804E+06    -130.034E+06    -11.6369E+06     1.49926E+06    -110.897E-03     214.236E-03    -103.339E-03     95.6139E-03    -111.786E-03     214.531E-03    -103.141E-03     92.3145E-03
            2070     6.49883E-03     24.0759E-03    -51.6143E+06    -146.490E+06    -17.6619E+06    -306.031E+03    -108.867E-03     211.568E-03    -102.702E-03     84.1009E-03    -109.493E-03     211.542E-03    -102.503E-03     81.3987E-03
            2071     5.68972E-03     23.9843E-03    -56.6659E+06    -162.551E+06    -24.3939E+06    -747.074E+03    -106.969E-03     209.081E-03    -102.112E-03     73.0124E-03    -107.401E-03     208.805E-03    -101.916E-03     70.8269E-03
            2072     4.87965E-03     23.9047E-03    -61.7137E+06    -177.088E+06    -31.7319E+06     91.3002E+03    -105.206E-03     206.782E-03    -101.577E-03     62.2919E-03    -105.493E-03     206.314E-03    -101.389E-03     60.5674E-03
            2073     4.06817E-03     23.8377E-03    -66.0838E+06    -196.268E+06    -40.2892E+06     674.359E+03    -103.662E-03     204.773E-03    -101.110E-03     51.6990E-03    -103.831E-03     204.127E-03    -100.932E-03     50.3634E-03
            2074     3.25575E-03     23.7828E-03    -70.7838E+06    -206.442E+06    -51.5492E+06     802.348E+03    -102.367E-03     203.056E-03    -100.689E-03     41.2737E-03    -102.456E-03     202.310E-03    -100.545E-03     40.2682E-03
            2075     2.44264E-03     23.7402E-03    -75.6462E+06    -215.098E+06    -63.5385E+06     589.424E+03    -101.304E-03     201.641E-03    -100.337E-03     31.0450E-03    -101.338E-03     200.827E-03    -100.233E-03     30.3240E-03
            2076     1.62873E-03     23.7092E-03    -79.4446E+06    -222.226E+06    -73.8832E+06     516.279E+03    -100.523E-03     200.593E-03    -100.070E-03     20.9314E-03    -100.517E-03     199.731E-03    -100.002E-03     20.4624E-03
            2077     814.669E-06     23.6907E-03     -81.681E+06    -226.370E+06    -80.2923E+06     420.753E+03    -100.100E-03     199.932E-03    -99.8320E-03     11.2835E-03    -100.072E-03     199.045E-03    -99.7868E-03     11.0369E-03
            2078     15.3150E-03     25.0436E-03    -5.46452E+06     122.953E+06     94.9434E+06     168.673E+03    -123.817E-03     234.336E-03    -110.519E-03     157.690E-03    -133.357E-03     244.018E-03    -110.214E-03     150.369E-03
            2079     14.5216E-03     24.7946E-03    -10.7779E+06     118.850E+06     96.2484E+06     89.1926E+03    -126.414E-03     236.181E-03    -109.767E-03     244.495E-03    -141.498E-03     251.369E-03    -109.442E-03     233.103E-03
            2080     13.7248E-03     24.4871E-03    -16.6603E+06     107.101E+06     88.2585E+06     498.529E+03    -128.413E-03     237.384E-03    -108.971E-03     266.553E-03    -142.914E-03     251.951E-03    -108.661E-03     253.100E-03
            2081     12.9280E-03     24.1903E-03    -22.5908E+06     91.9574E+06     66.1717E+06     1.47174E+06    -126.807E-03     234.909E-03    -108.101E-03     241.340E-03    -137.839E-03     245.995E-03    -107.871E-03     228.615E-03
            2082     12.1297E-03     23.9431E-03    -26.8736E+06     76.1735E+06     34.1192E+06     2.23495E+06    -123.476E-03     230.647E-03    -107.172E-03     199.314E-03    -130.696E-03     237.944E-03    -107.073E-03     188.790E-03
            2083     11.3295E-03     23.7392E-03    -30.3884E+06     46.0209E+06     12.1439E+06     1.97350E+06    -120.767E-03     227.082E-03    -106.316E-03     167.633E-03    -125.549E-03     231.885E-03    -106.278E-03     159.071E-03
            2084     10.5289E-03     23.5615E-03    -33.8775E+06    -6.37554E+06     3.88114E+06     1.11206E+06    -118.859E-03     224.420E-03    -105.561E-03     147.844E-03    -122.211E-03     227.618E-03    -105.483E-03     140.744E-03
            2085     9.72680E-03     23.4010E-03    -36.9613E+06    -56.0311E+06    -2.27869E+06     308.144E+03    -116.986E-03     221.796E-03    -104.810E-03     132.851E-03    -119.382E-03     223.869E-03    -104.687E-03     126.944E-03
            2086     8.92341E-03     23.2561E-03    -40.5292E+06    -89.9043E+06    -6.89048E+06     459.470E+03    -114.813E-03     218.871E-03    -104.059E-03     118.951E-03    -116.525E-03     220.140E-03    -103.904E-03     114.086E-03
            2087     8.11818E-03     23.1261E-03    -44.1439E+06    -116.254E+06    -9.72197E+06     729.596E+03    -112.610E-03     215.943E-03    -103.333E-03     105.765E-03    -113.827E-03     216.619E-03    -103.149E-03     101.778E-03
            2088     7.31183E-03     23.0104E-03    -45.8287E+06    -128.481E+06    -11.8659E+06     211.113E+03    -110.458E-03     213.079E-03    -102.621E-03     93.5105E-03    -111.323E-03     213.359E-03    -102.427E-03     90.2463E-03
            2089     6.50371E-03     22.9085E-03    -48.5447E+06    -146.159E+06    -15.9457E+06     888.107E+03    -108.318E-03     210.272E-03    -101.954E-03     82.0495E-03    -108.914E-03     210.224E-03    -101.752E-03     79.4119E-03
            2090     5.69429E-03     22.8187E-03    -53.9172E+06    -162.482E+06    -22.6509E+06     1.21883E+06    -106.307E-03     207.643E-03    -101.336E-03     71.0537E-03    -106.714E-03     207.348E-03    -101.135E-03     68.9393E-03
            2091     4.88341E-03     22.7419E-03    -59.6139E+06    -176.954E+06    -30.7972E+06     465.668E+03    -104.499E-03     205.272E-03    -100.773E-03     60.5042E-03    -104.768E-03     204.790E-03    -100.584E-03     58.8193E-03
            2092     4.07156E-03     22.6768E-03    -65.3617E+06    -196.914E+06    -40.4968E+06     709.484E+03    -102.903E-03     203.184E-03    -100.281E-03     50.2396E-03    -103.060E-03     202.528E-03    -100.103E-03     48.9329E-03
            2093     3.25864E-03     22.6238E-03    -70.8743E+06    -205.849E+06    -52.1243E+06     1.22017E+06    -101.564E-03     201.403E-03    -99.8386E-03     40.1587E-03    -101.650E-03     200.657E-03    -99.6980E-03     39.1820E-03
            2094     2.44479E-03     22.5824E-03    -75.4766E+06    -214.373E+06    -63.7131E+06     1.18015E+06    -100.494E-03     199.962E-03    -99.4675E-03     30.1154E-03    -100.526E-03     199.149E-03    -99.3658E-03     29.4182E-03
            2095     1.63030E-03     22.5531E-03    -78.9634E+06    -221.362E+06    -73.7483E+06     947.909E+03    -99.6458E-03     198.832E-03    -99.1866E-03     20.3004E-03    -99.6382E-03     197.973E-03    -99.1199E-03     19.8493E-03
            2096     815.125E-06     22.5343E-03    -80.9434E+06    -225.199E+06    -79.8041E+06     400.021E+03    -99.1948E-03     198.160E-03    -98.9656E-03     11.0441E-03    -99.1647E-03     197.277E-03    -98.9207E-03     10.8041E-03
            2097     15.3181E-03     23.8434E-03    -4.74173E+06     123.291E+06     95.5870E+06     512.491E+03    -125.391E-03     235.830E-03    -110.439E-03     156.674E-03    -134.773E-03     245.356E-03    -110.133E-03     149.152E-03
            2098     14.5231E-03     23.5966E-03    -10.3782E+06     118.945E+06     96.4303E+06     919.735E+03    -127.353E-03     236.964E-03    -109.610E-03     242.513E-03    -142.242E-03     251.958E-03    -109.286E-03     231.002E-03
            2099     13.7279E-03     23.2947E-03    -17.2481E+06     106.095E+06     87.1130E+06     818.743E+03    -129.195E-03     237.941E-03    -108.746E-03     264.491E-03    -143.514E-03     252.323E-03    -108.439E-03     250.988E-03
            2100     12.9307E-03     22.9978E-03    -23.2289E+06     91.0367E+06     65.3971E+06     613.504E+03    -127.519E-03     235.326E-03    -107.807E-03     238.633E-03    -138.391E-03     246.248E-03    -107.578E-03     225.884E-03
            2101     12.1337E-03     22.7547E-03    -27.4671E+06     75.5729E+06     34.1867E+06     1.15389E+06    -124.074E-03     230.876E-03    -106.802E-03     196.144E-03    -131.188E-03     238.062E-03    -106.701E-03     185.614E-03
            2102     11.3353E-03     22.5544E-03    -30.5437E+06     46.6634E+06     12.1642E+06     1.96452E+06    -121.059E-03     226.929E-03    -105.870E-03     165.135E-03    -125.772E-03     231.664E-03    -105.833E-03     156.610E-03
            2103     10.5343E-03     22.3798E-03    -33.6221E+06    -4.90262E+06     4.37972E+06     2.08532E+06    -118.842E-03     223.901E-03    -105.060E-03     145.668E-03    -122.142E-03     227.052E-03    -104.982E-03     138.636E-03
            2104     9.73219E-03     22.2220E-03    -37.9808E+06    -54.8869E+06    -1.95298E+06     1.75023E+06    -116.846E-03     221.111E-03    -104.265E-03     130.629E-03    -119.205E-03     223.146E-03    -104.140E-03     124.803E-03
            2105     8.92855E-03     22.0805E-03    -42.4579E+06    -89.5628E+06    -7.26863E+06     1.55019E+06    -114.649E-03     218.114E-03    -103.464E-03     116.586E-03    -116.334E-03     219.351E-03    -103.309E-03     111.793E-03
            2106     8.12353E-03     21.9537E-03    -45.7427E+06    -112.978E+06    -11.9661E+06    -472.464E+03    -112.282E-03     214.959E-03    -102.677E-03     103.484E-03    -113.477E-03     215.625E-03    -102.507E-03     99.5448E-03
            2107     7.31651E-03     21.8411E-03    -49.2895E+06    -129.684E+06    -16.6852E+06    -1.97425E+06    -109.977E-03     211.900E-03    -101.923E-03     91.2645E-03    -110.824E-03     212.161E-03    -101.747E-03     88.0331E-03
            2108     6.50839E-03     21.7417E-03    -52.7667E+06    -149.124E+06    -20.8457E+06    -45.3063E+03    -107.814E-03     209.038E-03    -101.224E-03     79.8011E-03    -108.401E-03     208.969E-03    -101.035E-03     77.2018E-03
            2109     5.69857E-03     21.6552E-03    -55.6360E+06    -161.096E+06    -25.8946E+06     1.27924E+06    -105.720E-03     206.287E-03    -100.567E-03     69.0085E-03    -106.118E-03     205.991E-03    -100.382E-03     66.9423E-03
            2110     4.88738E-03     21.5804E-03    -59.7286E+06    -177.137E+06    -32.0098E+06     1.56204E+06    -103.811E-03     203.795E-03    -99.9844E-03     58.5455E-03    -104.068E-03     203.305E-03    -99.8010E-03     56.9133E-03
            2111     4.07478E-03     21.5179E-03    -65.2260E+06    -196.776E+06    -40.6967E+06     1.95694E+06    -102.140E-03     201.616E-03    -99.4760E-03     48.4831E-03    -102.290E-03     200.954E-03    -99.2996E-03     47.2237E-03
            2112     3.26108E-03     21.4665E-03    -70.7500E+06    -205.233E+06    -51.8295E+06     1.71530E+06    -100.739E-03     199.763E-03    -99.0243E-03     38.7789E-03    -100.821E-03     199.016E-03    -98.8832E-03     37.8346E-03
            2113     2.44666E-03     21.4267E-03    -75.2189E+06    -213.216E+06    -63.2914E+06     1.33308E+06    -99.6637E-03     198.313E-03    -98.6496E-03     29.0489E-03    -99.6935E-03     197.503E-03    -98.5478E-03     28.3722E-03
            2114     1.63160E-03     21.3982E-03    -78.3864E+06    -220.123E+06    -73.1694E+06     955.354E+03    -98.8178E-03     197.186E-03    -98.3685E-03     19.5371E-03    -98.8089E-03     196.330E-03    -98.3015E-03     19.0974E-03
            2115     815.958E-06     21.3810E-03    -80.3053E+06    -223.873E+06    -79.2874E+06     684.565E+03    -98.3542E-03     196.522E-03    -98.1682E-03     10.7804E-03    -98.3232E-03     195.643E-03    -98.1236E-03     10.5504E-03
            2116     15.3163E-03     22.6400E-03    -5.23311E+06     122.202E+06     94.6411E+06     365.485E+03    -126.613E-03     237.036E-03    -110.423E-03     155.327E-03    -135.861E-03     246.425E-03    -110.119E-03     147.573E-03
            2117     14.5247E-03     22.3979E-03    -11.0013E+06     118.192E+06     95.7212E+06     1.09825E+06    -128.880E-03     238.392E-03    -109.512E-03     239.749E-03    -143.555E-03     253.170E-03    -109.189E-03     228.014E-03
            2118     13.7305E-03     22.0993E-03    -16.1373E+06     106.962E+06     88.3212E+06     1.46985E+06    -130.621E-03     239.168E-03    -108.547E-03     261.385E-03    -144.743E-03     253.356E-03    -108.237E-03     247.756E-03
            2119     12.9361E-03     21.8063E-03    -21.9136E+06     91.8014E+06     66.3605E+06     1.30177E+06    -128.197E-03     235.711E-03    -107.514E-03     235.902E-03    -138.895E-03     246.465E-03    -107.284E-03     223.171E-03
            2120     12.1388E-03     21.5658E-03    -27.5206E+06     74.8821E+06     33.3948E+06     1.51723E+06    -124.203E-03     230.650E-03    -106.448E-03     193.639E-03    -131.188E-03     237.708E-03    -106.349E-03     183.191E-03
            2121     11.3394E-03     21.3697E-03    -31.9884E+06     46.2876E+06     10.7585E+06     1.84307E+06    -121.253E-03     226.721E-03    -105.468E-03     163.097E-03    -125.899E-03     231.386E-03    -105.435E-03     154.622E-03
            2122     10.5392E-03     21.1981E-03    -35.3837E+06    -4.31573E+06     3.66570E+06     2.31594E+06    -119.045E-03     223.650E-03    -104.605E-03     143.580E-03    -122.300E-03     226.753E-03    -104.529E-03     136.598E-03
            2123     9.73704E-03     21.0440E-03    -38.0116E+06    -54.2269E+06    -2.39231E+06     2.86436E+06    -116.890E-03     220.641E-03    -103.750E-03     128.096E-03    -119.198E-03     222.628E-03    -103.629E-03     122.345E-03
            2124     8.93360E-03     20.9051E-03    -40.2757E+06    -87.4092E+06    -7.02911E+06     1.88319E+06    -114.560E-03     217.451E-03    -102.891E-03     113.731E-03    -116.192E-03     218.651E-03    -102.741E-03     109.006E-03
            2125     8.12838E-03     20.7823E-03    -43.7719E+06    -109.508E+06    -11.2363E+06     391.963E+03    -112.085E-03     214.134E-03    -102.049E-03     100.439E-03    -113.240E-03     214.778E-03    -101.883E-03     96.5693E-03
            2126     7.32161E-03     20.6727E-03    -48.5383E+06    -129.856E+06    -17.0749E+06    -246.910E+03    -109.586E-03     210.831E-03    -101.245E-03     88.2864E-03    -110.399E-03     211.060E-03    -101.072E-03     85.1399E-03
            2127     6.51281E-03     20.5766E-03    -53.2103E+06    -150.755E+06    -23.5052E+06    -667.983E+03    -107.275E-03     207.773E-03    -100.498E-03     76.9828E-03    -107.834E-03     207.676E-03    -100.320E-03     74.4355E-03
            2128     5.70270E-03     20.4927E-03    -57.1133E+06    -162.224E+06    -30.1454E+06     118.823E+03    -105.150E-03     204.947E-03    -99.7968E-03     66.3969E-03    -105.530E-03     204.636E-03    -99.6295E-03     64.3667E-03
            2129     4.89103E-03     20.4208E-03    -61.0236E+06    -178.415E+06    -34.3973E+06     1.84132E+06    -103.185E-03     202.369E-03    -99.1843E-03     56.1507E-03    -103.430E-03     201.864E-03    -99.0091E-03     54.5674E-03
            2130     4.07811E-03     20.3605E-03    -65.5396E+06    -195.788E+06    -40.1458E+06     2.44912E+06    -101.444E-03     200.091E-03    -98.6469E-03     46.3021E-03    -101.589E-03     199.424E-03    -98.4687E-03     45.0866E-03
            2131     3.26399E-03     20.3112E-03    -70.3623E+06    -203.908E+06    -50.4726E+06     1.97640E+06    -99.9239E-03     198.091E-03    -98.1675E-03     36.8696E-03    -100.002E-03     197.342E-03    -98.0222E-03     35.9588E-03
            2132     2.44875E-03     20.2727E-03    -75.0123E+06    -211.858E+06    -62.1327E+06     1.30554E+06    -98.7350E-03     196.522E-03    -97.7874E-03     27.5741E-03    -98.7640E-03     195.713E-03    -97.6821E-03     26.9209E-03
            2133     1.63281E-03     20.2456E-03    -78.6406E+06    -218.718E+06    -72.3888E+06     587.003E+03    -97.9676E-03     195.470E-03    -97.5026E-03     18.4353E-03    -97.9616E-03     194.619E-03    -97.4334E-03     18.0048E-03
            2134     816.463E-06     20.2288E-03    -80.6769E+06    -222.708E+06    -78.9262E+06     404.453E+03    -97.6495E-03     194.761E-03    -97.1118E-03     10.1779E-03    -97.6221E-03     193.888E-03    -97.0665E-03     9.95102E-03
            2135     15.3172E-03     21.4359E-03    -4.97518E+06     121.905E+06     94.5435E+06     638.088E+03    -128.100E-03     238.530E-03    -110.430E-03     153.325E-03    -137.166E-03     247.737E-03    -110.127E-03     145.341E-03
            2136     14.5251E-03     21.1959E-03    -10.8757E+06     117.814E+06     95.3756E+06     569.345E+03    -130.397E-03     239.825E-03    -109.428E-03     235.966E-03    -144.754E-03     254.286E-03    -109.106E-03     224.013E-03
            2137     13.7336E-03     20.9017E-03    -16.4527E+06     106.355E+06     87.8943E+06     952.846E+03    -131.468E-03     239.845E-03    -108.378E-03     258.547E-03    -145.360E-03     253.803E-03    -108.068E-03     244.856E-03
            2138     12.9386E-03     20.6132E-03    -22.0678E+06     91.2749E+06     66.6385E+06     1.97867E+06    -128.777E-03     236.061E-03    -107.284E-03     233.785E-03    -139.325E-03     246.661E-03    -107.051E-03     221.081E-03
            2139     12.1416E-03     20.3777E-03    -27.4095E+06     74.3445E+06     33.6463E+06     2.94243E+06    -124.663E-03     230.822E-03    -106.158E-03     191.210E-03    -131.521E-03     237.749E-03    -106.058E-03     180.831E-03
            2140     11.3433E-03     20.1844E-03    -31.7085E+06     47.1226E+06     10.2499E+06     3.23630E+06    -121.684E-03     226.794E-03    -105.110E-03     160.260E-03    -126.238E-03     231.373E-03    -105.081E-03     151.845E-03
            2141     10.5431E-03     20.0164E-03    -35.4679E+06    -3.57575E+06     2.71951E+06     2.80426E+06    -119.479E-03     223.650E-03    -104.171E-03     140.315E-03    -122.663E-03     226.688E-03    -104.101E-03     133.375E-03
            2142     9.74199E-03     19.8656E-03    -38.5373E+06    -52.9909E+06    -3.52599E+06     1.97818E+06    -117.177E-03     220.410E-03    -103.234E-03     124.575E-03    -119.424E-03     222.343E-03    -103.119E-03     118.862E-03
            2143     8.93867E-03     19.7309E-03    -41.4142E+06    -85.6232E+06    -8.15521E+06     1.36455E+06    -114.615E-03     216.910E-03    -102.295E-03     110.008E-03    -116.197E-03     218.065E-03    -102.152E-03     105.342E-03
            2144     8.13370E-03     19.6111E-03    -44.4399E+06    -108.639E+06    -11.5862E+06     1.18895E+06    -111.949E-03     213.333E-03    -101.384E-03     96.5131E-03    -113.061E-03     213.935E-03    -101.220E-03     92.7234E-03
            2145     7.32671E-03     19.5057E-03    -47.8263E+06    -128.726E+06    -16.5957E+06     1.02219E+06    -109.318E-03     209.829E-03    -100.512E-03     84.3726E-03    -110.089E-03     210.023E-03    -100.339E-03     81.3131E-03
            2146     6.51793E-03     19.4127E-03    -52.0114E+06    -150.125E+06    -22.4719E+06     811.623E+03    -106.831E-03     206.532E-03    -99.7017E-03     73.1634E-03    -107.354E-03     206.404E-03    -99.5210E-03     70.7062E-03
            2147     5.70734E-03     19.3319E-03    -57.0761E+06    -164.009E+06    -30.8638E+06     1.05411E+06    -104.538E-03     203.478E-03    -98.9404E-03     62.6762E-03    -104.890E-03     203.135E-03    -98.7742E-03     60.7227E-03
            2148     4.89529E-03     19.2627E-03    -61.8536E+06    -179.160E+06    -37.5291E+06     1.69247E+06    -102.494E-03     200.758E-03    -98.2636E-03     52.7570E-03    -102.720E-03     200.237E-03    -98.1018E-03     51.2290E-03
            2149     4.08181E-03     19.2049E-03    -66.0679E+06    -194.705E+06    -42.3713E+06     1.79987E+06    -100.691E-03     198.365E-03    -97.6735E-03     43.3362E-03    -100.824E-03     197.695E-03    -97.5072E-03     42.1594E-03
            2150     3.26712E-03     19.1577E-03      -70.35E+06    -202.846E+06    -49.9051E+06     1.60740E+06    -99.0724E-03     196.224E-03    -97.1521E-03     34.3149E-03    -99.1449E-03     195.472E-03    -97.0055E-03     33.4361E-03
            2151     2.45124E-03     19.1213E-03    -74.8328E+06    -210.224E+06    -61.1781E+06     1.29393E+06    -97.7692E-03     194.493E-03    -96.7234E-03     25.5819E-03    -97.7964E-03     193.685E-03    -96.6160E-03     24.9587E-03
            2152     1.63459E-03     19.0947E-03    -78.7490E+06    -217.447E+06    -72.4747E+06     598.186E+03    -96.9064E-03     193.304E-03    -96.3974E-03     17.0464E-03    -96.9006E-03     192.457E-03    -96.3303E-03     16.6369E-03
            2153     817.708E-06     19.0790E-03    -81.1515E+06    -221.955E+06    -79.7505E+06    -136.190E+03    -96.4462E-03     192.514E-03    -96.0677E-03     9.42001E-03    -96.4205E-03     191.645E-03    -96.0270E-03     9.19451E-03
            2154     15.3157E-03     20.2268E-03    -4.45465E+06     121.564E+06     94.7314E+06     818.393E+03    -129.607E-03     240.025E-03    -110.418E-03     150.983E-03    -138.429E-03     248.989E-03    -110.114E-03     142.838E-03
            2155     14.5280E-03     19.9932E-03    -9.41263E+06     118.537E+06     96.4643E+06     1.17289E+06    -130.994E-03     240.349E-03    -109.355E-03     232.367E-03    -144.977E-03     254.440E-03    -109.031E-03     220.391E-03
            2156     13.7345E-03     19.7043E-03    -16.4419E+06     105.597E+06     87.2345E+06     1.57631E+06    -132.085E-03     240.336E-03    -108.251E-03     255.386E-03    -145.689E-03     254.004E-03    -107.944E-03     241.704E-03
            2157     12.9403E-03     19.4188E-03    -23.2760E+06     89.5278E+06     65.3110E+06     2.20022E+06    -129.550E-03     236.640E-03    -107.090E-03     229.548E-03    -139.870E-03     247.006E-03    -106.859E-03     216.845E-03
            2158     12.1451E-03     19.1881E-03    -27.9766E+06     73.4039E+06     33.8290E+06     3.01730E+06    -125.475E-03     231.358E-03    -105.882E-03     186.769E-03    -132.178E-03     238.124E-03    -105.779E-03     176.392E-03
            2159     11.3473E-03     18.9989E-03    -31.0939E+06     47.7747E+06     10.4456E+06     3.65261E+06    -122.449E-03     227.181E-03    -104.732E-03     156.189E-03    -126.890E-03     231.652E-03    -104.704E-03     147.793E-03
            2160     10.5484E-03     18.8341E-03    -33.8148E+06    -1.78691E+06     3.74148E+06     3.64773E+06    -120.036E-03     223.732E-03    -103.696E-03     135.960E-03    -123.119E-03     226.678E-03    -103.625E-03     129.074E-03
            2161     9.74722E-03     18.6876E-03    -37.3187E+06    -50.6285E+06    -2.04662E+06     2.82141E+06    -117.620E-03     220.279E-03    -102.659E-03     119.860E-03    -119.781E-03     222.134E-03    -102.541E-03     114.219E-03
            2162     8.94468E-03     18.5565E-03    -40.8580E+06    -84.4012E+06    -7.88205E+06     1.70639E+06    -114.904E-03     216.513E-03    -101.609E-03     104.909E-03    -116.409E-03     217.596E-03    -101.467E-03     100.325E-03
            2163     8.13983E-03     18.4413E-03    -44.2695E+06    -108.564E+06    -12.1217E+06     1.46058E+06    -111.996E-03     212.583E-03    -100.586E-03     91.1627E-03    -113.039E-03     213.119E-03    -100.425E-03     87.4675E-03
            2164     7.33296E-03     18.3393E-03    -48.3738E+06    -128.227E+06    -17.0122E+06     1.99323E+06    -109.182E-03     208.789E-03    -99.6066E-03     78.8924E-03    -109.902E-03     208.932E-03    -99.4356E-03     75.9369E-03
            2165     6.52423E-03     18.2503E-03    -53.3665E+06    -149.769E+06    -22.5089E+06     2.55093E+06    -106.484E-03     205.175E-03    -98.6909E-03     67.7478E-03    -106.972E-03     205.007E-03    -98.5089E-03     65.4013E-03
            2166     5.71351E-03     18.1729E-03    -58.2375E+06    -163.685E+06    -30.7344E+06     2.61942E+06    -103.925E-03     201.753E-03    -97.8281E-03     57.5236E-03    -104.250E-03     201.380E-03    -97.6600E-03     55.6759E-03
            2167     4.90089E-03     18.1067E-03    -62.7687E+06    -178.429E+06    -39.1510E+06     2.17038E+06    -101.652E-03     198.704E-03    -97.0522E-03     47.9964E-03    -101.856E-03     198.166E-03    -96.8983E-03     46.5527E-03
            2168     4.08681E-03     18.0514E-03    -67.1883E+06    -193.160E+06    -46.6680E+06     1.34551E+06    -99.6704E-03     196.041E-03    -96.3704E-03     39.0710E-03    -99.7883E-03     195.370E-03    -96.2262E-03     37.9544E-03
            2169     3.27129E-03     18.0067E-03    -71.1527E+06    -202.209E+06    -53.4990E+06     646.347E+03    -97.9619E-03     193.740E-03    -95.7777E-03     30.6729E-03    -98.0236E-03     192.986E-03    -95.6488E-03     29.8334E-03
            2170     2.45469E-03     17.9720E-03    -74.7746E+06    -209.704E+06    -62.3853E+06     934.895E+03    -96.5449E-03     191.823E-03    -95.2782E-03     22.7786E-03    -96.5649E-03     191.014E-03    -95.1776E-03     22.1904E-03
            2171     1.63708E-03     17.9471E-03    -78.3242E+06    -216.106E+06    -72.5619E+06     1.06696E+06    -95.4725E-03     190.365E-03    -94.8921E-03     15.1587E-03    -95.4635E-03     189.521E-03    -94.8280E-03     14.7845E-03
            2172     818.413E-06     17.9319E-03    -81.1578E+06    -220.860E+06    -79.7022E+06     432.209E+03    -94.7695E-03     189.455E-03    -94.6856E-03     8.05407E-03    -94.7446E-03     188.591E-03    -94.6462E-03     7.85156E-03
            2173     15.3196E-03     19.0198E-03    -4.66463E+06     120.805E+06     94.1168E+06     652.036E+03    -130.959E-03     241.369E-03    -110.410E-03     147.660E-03    -139.506E-03     250.056E-03    -110.108E-03     139.397E-03
            2174     14.5264E-03     18.7903E-03    -9.77770E+06     117.381E+06     95.3684E+06     1.33030E+06    -131.564E-03     240.853E-03    -109.289E-03     229.045E-03    -145.199E-03     254.594E-03    -108.968E-03     217.007E-03
            2175     13.7359E-03     18.5041E-03    -16.1956E+06     104.992E+06     87.2544E+06     2.32496E+06    -133.251E-03     241.372E-03    -108.120E-03     250.910E-03    -146.538E-03     254.721E-03    -107.813E-03     237.157E-03
            2176     12.9442E-03     18.2239E-03    -22.1240E+06     89.7655E+06     66.6066E+06     3.20795E+06    -130.571E-03     237.435E-03    -106.864E-03     224.491E-03    -140.606E-03     247.518E-03    -106.629E-03     211.792E-03
            2177     12.1489E-03     17.9980E-03    -27.5701E+06     73.0471E+06     34.4271E+06     3.52599E+06    -126.529E-03     232.077E-03    -105.548E-03     182.063E-03    -133.036E-03     238.646E-03    -105.442E-03     171.692E-03
            2178     11.3526E-03     17.8121E-03    -31.7095E+06     48.1703E+06     10.1930E+06     3.56483E+06    -123.555E-03     227.827E-03    -104.272E-03     151.127E-03    -127.844E-03     232.145E-03    -104.245E-03     142.751E-03
            2179     10.5540E-03     17.6521E-03    -34.6440E+06    -537.158E+03     2.62743E+06     3.28762E+06    -121.062E-03     224.152E-03    -103.090E-03     130.258E-03    -124.012E-03     226.970E-03    -103.026E-03     123.421E-03
            2180     9.75426E-03     17.5090E-03    -36.6791E+06    -48.8055E+06    -2.41443E+06     3.01304E+06    -118.479E-03     220.378E-03    -101.899E-03     113.174E-03    -120.513E-03     222.116E-03    -101.787E-03     107.619E-03
            2181     8.95223E-03     17.3828E-03    -39.5418E+06    -83.1082E+06    -7.40662E+06     2.97657E+06    -115.495E-03     216.183E-03    -100.688E-03     97.4126E-03    -116.885E-03     217.160E-03    -100.547E-03     92.9516E-03
            2182     8.14820E-03     17.2718E-03    -43.8085E+06    -108.082E+06    -12.1133E+06     3.03358E+06    -112.323E-03     211.817E-03    -99.4939E-03     83.3069E-03    -113.272E-03     212.262E-03    -99.3342E-03     79.7502E-03
            2183     7.34186E-03     17.1745E-03    -48.3467E+06    -128.407E+06    -17.5157E+06     3.52941E+06    -109.134E-03     207.475E-03    -98.3415E-03     70.9973E-03    -109.778E-03     207.543E-03    -98.1728E-03     68.1877E-03
            2184     6.53309E-03     17.0894E-03    -52.7549E+06    -149.386E+06    -22.0355E+06     4.15396E+06    -106.067E-03     203.332E-03    -97.2651E-03     60.0527E-03    -106.495E-03     203.106E-03    -97.0822E-03     57.8487E-03
            2185     5.72213E-03     17.0161E-03    -57.3754E+06    -161.568E+06    -29.3424E+06     3.68299E+06    -103.168E-03     199.417E-03    -96.2495E-03     50.2935E-03    -103.450E-03     199.008E-03    -96.0788E-03     48.5726E-03
            2186     4.90915E-03     16.9533E-03    -61.8093E+06    -176.909E+06    -38.6026E+06     2.93959E+06    -100.525E-03     195.857E-03    -95.3317E-03     41.4858E-03    -100.697E-03     195.293E-03    -95.1786E-03     40.1548E-03
            2187     4.09412E-03     16.9012E-03    -66.0519E+06    -190.850E+06    -48.6803E+06     2.15453E+06    -98.2383E-03     192.758E-03    -94.5193E-03     33.4071E-03    -98.3299E-03     192.078E-03    -94.3902E-03     32.3894E-03
            2188     3.27754E-03     16.8588E-03    -70.5362E+06    -201.010E+06    -57.5685E+06     1.08065E+06    -96.3027E-03     190.125E-03    -93.8222E-03     25.9668E-03    -96.3441E-03     189.369E-03    -93.7163E-03     25.2036E-03
            2189     2.45952E-03     16.8265E-03    -74.8354E+06    -210.196E+06    -64.9121E+06     945.817E+03    -94.7188E-03     187.969E-03    -93.2505E-03     19.1234E-03    -94.7277E-03     187.154E-03    -93.1617E-03     18.5864E-03
            2190     1.64031E-03     16.8032E-03    -78.1557E+06    -214.867E+06    -72.3105E+06     1.35021E+06    -93.5394E-03     186.326E-03    -92.7867E-03     12.6094E-03    -93.5286E-03     185.484E-03    -92.7234E-03     12.2740E-03
            2191     820.727E-06     16.7892E-03    -80.6104E+06    -218.877E+06    -79.0158E+06     767.741E+03    -92.6892E-03     185.137E-03    -92.4481E-03     6.38609E-03    -92.6643E-03     184.280E-03    -92.4089E-03     6.20807E-03
            2192     15.3159E-03     17.8115E-03    -5.16493E+06     119.559E+06     92.7422E+06     513.692E+03    -132.548E-03     243.017E-03    -110.469E-03     144.907E-03    -140.928E-03     251.534E-03    -110.171E-03     136.394E-03
            2193     14.5291E-03     17.5864E-03    -10.7784E+06     115.837E+06     93.7716E+06     1.30907E+06    -133.725E-03     242.968E-03    -109.243E-03     226.231E-03    -147.102E-03     256.447E-03    -108.926E-03     213.889E-03
            2194     13.7391E-03     17.3019E-03    -16.2782E+06     104.079E+06     86.8799E+06     2.21888E+06    -134.730E-03     242.689E-03    -107.959E-03     246.678E-03    -147.652E-03     255.671E-03    -107.652E-03     232.813E-03
            2195     12.9468E-03     17.0287E-03    -21.9207E+06     89.1029E+06     67.5937E+06     3.34750E+06    -132.169E-03     238.755E-03    -106.586E-03     219.520E-03    -141.872E-03     248.501E-03    -106.346E-03     206.771E-03
            2196     12.1539E-03     16.8054E-03    -26.8240E+06     72.8225E+06     36.1770E+06     4.51686E+06    -128.518E-03     233.631E-03    -105.113E-03     176.012E-03    -134.764E-03     239.936E-03    -104.999E-03     165.606E-03
            2197     11.3589E-03     16.6252E-03    -30.4777E+06     49.7751E+06     11.0056E+06     4.37716E+06    -125.534E-03     229.163E-03    -103.629E-03     143.603E-03    -129.597E-03     233.264E-03    -103.602E-03     135.240E-03
            2198     10.5627E-03     16.4684E-03    -33.2069E+06     1.75946E+06     2.57094E+06     3.20652E+06    -122.912E-03     225.124E-03    -102.212E-03     121.464E-03    -125.660E-03     227.754E-03    -102.154E-03     114.683E-03
            2199     9.76449E-03     16.3306E-03    -36.3779E+06    -48.6332E+06    -3.40738E+06     3.12940E+06    -119.950E-03     220.721E-03    -100.771E-03     103.066E-03    -121.805E-03     222.285E-03    -100.665E-03     97.6241E-03
            2200     8.96408E-03     16.2092E-03    -39.9672E+06    -83.0161E+06    -8.06625E+06     4.34107E+06    -116.447E-03     215.754E-03    -99.3065E-03     86.4881E-03    -117.687E-03     216.581E-03    -99.1685E-03     82.1948E-03
            2201     8.16101E-03     16.1035E-03    -43.7560E+06    -106.830E+06    -11.9491E+06     4.88957E+06    -112.678E-03     210.542E-03    -97.8642E-03     72.1762E-03    -113.506E-03     210.871E-03    -97.7056E-03     68.8131E-03
            2202     7.35513E-03     16.0113E-03    -47.9922E+06    -128.318E+06    -17.7240E+06     5.01367E+06    -108.924E-03     205.399E-03    -96.4751E-03     60.2062E-03    -109.471E-03     205.372E-03    -96.3081E-03     57.5860E-03
            2203     6.54649E-03     15.9312E-03    -52.2403E+06    -147.933E+06    -22.7386E+06     5.01184E+06    -105.299E-03     200.476E-03    -95.1770E-03     49.9445E-03    -105.655E-03     200.187E-03    -95.0004E-03     47.9135E-03
            2204     5.73512E-03     15.8622E-03    -56.2469E+06    -158.996E+06    -29.2382E+06     4.32941E+06    -101.867E-03     195.838E-03    -93.9713E-03     41.1114E-03    -102.097E-03     195.389E-03    -93.8054E-03     39.5446E-03
            2205     4.92102E-03     15.8040E-03    -60.5658E+06    -175.328E+06    -38.5528E+06     3.89581E+06    -98.7787E-03     191.671E-03    -92.8920E-03     33.4997E-03    -98.9123E-03     191.079E-03    -92.7427E-03     32.3066E-03
            2206     4.10470E-03     15.7552E-03    -64.9853E+06    -188.634E+06    -49.2160E+06     3.60797E+06    -96.0983E-03     188.044E-03    -91.9456E-03     26.7540E-03    -96.1648E-03     187.352E-03    -91.8240E-03     25.8614E-03
            2207     3.28632E-03     15.7161E-03    -69.2351E+06    -199.288E+06    -58.2925E+06     3.23190E+06    -93.8716E-03     185.024E-03    -91.1521E-03     20.6166E-03    -93.8945E-03     184.262E-03    -91.0542E-03     19.9648E-03
            2208     2.46629E-03     15.6861E-03    -73.6914E+06    -208.929E+06    -66.0408E+06     2.60862E+06    -92.1131E-03     182.625E-03    -90.5114E-03     15.0976E-03    -92.1094E-03     181.808E-03    -90.4318E-03     14.6426E-03
            2209     1.64516E-03     15.6647E-03    -77.4118E+06    -213.346E+06    -72.7771E+06     1.72941E+06    -90.7795E-03     180.796E-03    -90.0165E-03     10.0045E-03    -90.7634E-03     179.958E-03    -89.9588E-03     9.71423E-03
            2210     822.777E-06     15.6519E-03    -79.4439E+06    -216.411E+06    -78.2808E+06     834.529E+03    -89.9011E-03     179.589E-03    -89.6879E-03     4.98274E-03    -89.8742E-03     178.740E-03    -89.6503E-03     4.82695E-03
            2211     15.3138E-03     16.5977E-03    -5.16122E+06     118.949E+06     92.1403E+06     489.625E+03    -134.266E-03     244.821E-03    -110.555E-03     141.615E-03    -142.406E-03     253.097E-03    -110.259E-03     132.837E-03
            2212     14.5282E-03     16.3760E-03    -11.0287E+06     114.681E+06     93.0403E+06     1.36425E+06    -136.067E-03     245.281E-03    -109.214E-03     221.573E-03    -149.046E-03     258.359E-03    -108.899E-03     208.916E-03
            2213     13.7405E-03     16.1004E-03    -16.5849E+06     102.623E+06     85.9691E+06     2.44872E+06    -137.217E-03     244.992E-03    -107.775E-03     242.027E-03    -149.722E-03     257.553E-03    -107.470E-03     227.925E-03
            2214     12.9516E-03     15.8289E-03    -22.4405E+06     87.6762E+06     67.1675E+06     3.24957E+06    -135.485E-03     241.678E-03    -106.194E-03     212.954E-03    -144.801E-03     251.031E-03    -105.952E-03     199.954E-03
            2215     12.1614E-03     15.6116E-03    -26.8112E+06     72.0095E+06     37.5579E+06     4.18402E+06    -132.093E-03     236.535E-03    -104.442E-03     166.809E-03    -137.988E-03     242.482E-03    -104.320E-03     156.251E-03
            2216     11.3700E-03     15.4352E-03    -29.8722E+06     51.9874E+06     12.1051E+06     4.30680E+06    -128.889E-03     231.505E-03    -102.616E-03     132.469E-03    -132.655E-03     235.315E-03    -102.588E-03     124.071E-03
            2217     10.5766E-03     15.2841E-03    -32.7754E+06     4.19596E+06     2.56857E+06     4.06049E+06    -125.633E-03     226.468E-03    -100.835E-03     108.590E-03    -128.118E-03     228.845E-03    -100.781E-03     101.897E-03
            2218     9.78094E-03     15.1515E-03    -36.2496E+06    -48.6279E+06    -4.27224E+06     4.59785E+06    -121.812E-03     220.848E-03    -99.0354E-03     89.1596E-03    -123.440E-03     222.187E-03    -98.9336E-03     83.8959E-03
            2219     8.98251E-03     15.0364E-03    -39.6875E+06    -82.9165E+06    -9.22857E+06     5.39533E+06    -117.404E-03     214.632E-03    -97.2279E-03     72.3039E-03    -118.462E-03     215.282E-03    -97.0962E-03     68.2238E-03
            2220     8.18050E-03     14.9373E-03    -43.2019E+06    -105.776E+06    -12.5686E+06     5.95450E+06    -112.717E-03     208.192E-03    -95.4742E-03     58.4549E-03    -113.406E-03     208.388E-03    -95.3210E-03     55.3217E-03
            2221     7.37482E-03     14.8512E-03    -46.8886E+06    -127.341E+06    -18.2724E+06     6.49215E+06    -108.155E-03     201.963E-03    -93.8079E-03     47.3789E-03    -108.595E-03     201.838E-03    -93.6466E-03     44.9882E-03
            2222     6.56567E-03     14.7770E-03    -51.0173E+06    -145.151E+06    -23.9973E+06     6.12445E+06    -103.780E-03     196.046E-03    -92.2656E-03     38.3066E-03    -104.059E-03     195.698E-03    -92.1011E-03     36.4849E-03
            2223     5.75294E-03     14.7137E-03    -55.4498E+06    -156.797E+06    -30.2889E+06     5.15915E+06    -99.7166E-03     190.584E-03    -90.8675E-03     30.9103E-03    -99.8940E-03     190.096E-03    -90.7111E-03     29.5263E-03
            2224     4.93721E-03     14.6601E-03    -60.2114E+06    -174.395E+06    -37.9338E+06     5.44073E+06    -96.1303E-03     185.776E-03    -89.6456E-03     24.7799E-03    -96.2311E-03     185.153E-03    -89.4951E-03     23.7498E-03
            2225     4.11859E-03     14.6158E-03    -65.2517E+06    -186.271E+06    -49.0980E+06     5.63829E+06    -93.0512E-03     181.635E-03    -88.5838E-03     19.6118E-03    -93.1015E-03     180.934E-03    -88.4645E-03     18.8625E-03
            2226     3.29763E-03     14.5800E-03    -69.6334E+06    -197.050E+06    -58.9533E+06     4.97901E+06    -90.5694E-03     178.283E-03    -87.7140E-03     15.0254E-03    -90.5841E-03     177.521E-03    -87.6221E-03     14.4877E-03
            2227     2.47492E-03     14.5528E-03    -72.7706E+06    -205.796E+06    -65.7998E+06     4.19352E+06    -88.6328E-03     175.675E-03    -87.0419E-03     10.9251E-03    -88.6228E-03     174.866E-03    -86.9670E-03     10.5567E-03
            2228     1.65056E-03     14.5334E-03    -75.5351E+06    -210.108E+06    -72.2079E+06     2.84523E+06    -87.1904E-03     173.766E-03    -86.5754E-03     7.14989E-03    -87.1677E-03     172.937E-03    -86.5222E-03     6.91691E-03
            2229     825.363E-06     14.5221E-03    -77.7028E+06    -213.341E+06    -76.9187E+06     1.28363E+06    -86.4477E-03     172.778E-03    -86.3300E-03     3.55926E-03    -86.4179E-03     171.938E-03    -86.2926E-03     3.43412E-03
            2230     15.3143E-03     15.3811E-03    -4.89809E+06     118.962E+06     92.3309E+06     1.01232E+06    -136.287E-03     246.880E-03    -110.593E-03     138.258E-03    -144.090E-03     254.820E-03    -110.297E-03     129.256E-03
            2231     14.5295E-03     15.1667E-03    -10.5458E+06     113.621E+06     92.8179E+06     1.70174E+06    -138.345E-03     247.475E-03    -109.130E-03     216.342E-03    -150.821E-03     260.048E-03    -108.815E-03     203.327E-03
            2232     13.7436E-03     14.8932E-03    -16.5192E+06     100.941E+06     85.7666E+06     2.44497E+06    -141.953E-03     249.416E-03    -107.463E-03     235.084E-03    -153.985E-03     261.499E-03    -107.156E-03     220.374E-03
            2233     12.9589E-03     14.6255E-03    -21.6237E+06     86.9852E+06     68.2634E+06     3.27683E+06    -141.070E-03     246.577E-03    -105.507E-03     201.720E-03    -149.868E-03     255.410E-03    -105.261E-03     188.246E-03
            2234     12.1742E-03     14.4129E-03    -25.9145E+06     71.4650E+06     38.9063E+06     3.54512E+06    -137.124E-03     240.430E-03    -103.306E-03     152.722E-03    -142.549E-03     245.905E-03    -103.178E-03     141.951E-03
            2235     11.3876E-03     14.2424E-03    -28.7761E+06     52.7125E+06     12.7178E+06     3.77401E+06    -133.051E-03     234.059E-03    -101.008E-03     117.074E-03    -136.442E-03     237.500E-03    -100.979E-03     108.642E-03
            2236     10.5985E-03     14.0978E-03    -31.4412E+06     5.12161E+06     2.46363E+06     5.39617E+06    -128.630E-03     227.396E-03    -98.7658E-03     92.4656E-03    -130.810E-03     229.477E-03    -98.7153E-03     85.9006E-03
            2237     9.80589E-03     13.9730E-03    -34.9013E+06    -47.1513E+06     -5.0631E+06     6.58274E+06    -123.502E-03     220.038E-03    -96.5367E-03     73.0613E-03    -124.886E-03     221.149E-03    -96.4431E-03     68.0270E-03
            2238     9.00878E-03     13.8656E-03    -38.5347E+06    -81.5186E+06    -11.2367E+06     6.54867E+06    -117.852E-03     212.197E-03    -94.3447E-03     56.7642E-03    -118.724E-03     212.676E-03    -94.2268E-03     52.9428E-03
            2239     8.20721E-03     13.7746E-03    -41.9787E+06    -104.822E+06    -13.8752E+06     6.95308E+06    -112.145E-03     204.408E-03    -92.2631E-03     43.9474E-03    -112.696E-03     204.479E-03    -92.1196E-03     41.0718E-03
            2240     7.40109E-03     13.6959E-03    -45.5266E+06    -126.012E+06    -18.5709E+06     7.59624E+06    -106.605E-03     196.922E-03    -90.3169E-03     34.1056E-03    -106.948E-03     196.710E-03    -90.1611E-03     31.9601E-03
            2241     6.59046E-03     13.6291E-03    -49.2281E+06    -142.378E+06    -24.1596E+06     7.64299E+06    -101.374E-03     189.917E-03    -88.5430E-03     26.4226E-03    -101.583E-03     189.516E-03    -88.3859E-03     24.8274E-03
            2242     5.77579E-03     13.5720E-03    -54.0247E+06    -154.629E+06    -30.4369E+06     7.43645E+06    -96.6606E-03     183.630E-03    -86.9697E-03     20.6163E-03    -96.7901E-03     183.107E-03    -86.8194E-03     19.4389E-03
            2243     4.95734E-03     13.5242E-03    -59.6250E+06    -173.352E+06    -37.2334E+06     7.67745E+06    -92.5805E-03     178.207E-03    -85.6260E-03     16.0855E-03    -92.6525E-03     177.559E-03    -85.4744E-03     15.2293E-03
            2244     4.13576E-03     13.4845E-03    -64.5506E+06    -183.218E+06    -47.6164E+06     7.57751E+06    -89.1543E-03     173.634E-03    -84.4794E-03     12.5518E-03    -89.1901E-03     172.927E-03    -84.3583E-03     11.9426E-03
            2245     3.31158E-03     13.4526E-03    -68.6068E+06    -193.175E+06    -57.7946E+06     6.35021E+06    -86.4491E-03     170.010E-03    -83.5609E-03     9.58108E-03    -86.4557E-03     169.254E-03    -83.4703E-03     9.15030E-03
            2246     2.48531E-03     13.4280E-03    -71.8022E+06    -202.219E+06    -65.3347E+06     4.74745E+06    -84.4314E-03     167.304E-03    -82.8721E-03     6.85478E-03    -84.4171E-03     166.504E-03    -82.8015E-03     6.55759E-03
            2247     1.65768E-03     13.4110E-03    -73.8909E+06    -205.956E+06    -70.6362E+06     3.66480E+06    -83.0382E-03     165.436E-03    -82.3973E-03     4.36571E-03    -83.0133E-03     164.620E-03    -82.3447E-03     4.18366E-03
            2248     829.034E-06     13.4003E-03    -75.5286E+06    -208.694E+06    -74.7917E+06     2.24274E+06    -82.3054E-03     164.395E-03    -82.0900E-03     2.25432E-03    -82.2740E-03     163.572E-03    -82.0518E-03     2.16449E-03
            2249     15.3146E-03     14.1654E-03    -4.34768E+06     117.668E+06     92.0152E+06     1.46743E+06    -140.274E-03     250.863E-03    -110.589E-03     134.392E-03    -147.760E-03     258.485E-03    -110.293E-03     124.844E-03
            2250     14.5303E-03     13.9543E-03    -9.30167E+06     113.462E+06     93.3392E+06     2.50247E+06    -144.031E-03     252.882E-03    -108.851E-03     209.320E-03    -155.971E-03     264.921E-03    -108.535E-03     195.454E-03
            2251     13.7508E-03     13.6779E-03    -15.6445E+06     101.095E+06     86.7563E+06     2.60663E+06    -149.040E-03     255.803E-03    -106.763E-03     223.618E-03    -160.417E-03     267.232E-03    -106.453E-03     208.042E-03
            2252     12.9752E-03     13.4156E-03    -21.0145E+06     86.3041E+06     70.1852E+06     2.08747E+06    -147.729E-03     252.012E-03    -104.283E-03     185.589E-03    -155.852E-03     260.165E-03    -104.027E-03     171.579E-03
            2253     12.1968E-03     13.2101E-03    -24.5352E+06     70.9780E+06     40.2027E+06     2.49213E+06    -142.466E-03     243.997E-03    -101.531E-03     135.989E-03    -147.371E-03     248.952E-03    -101.397E-03     125.029E-03
            2254     11.4151E-03     13.0471E-03    -27.8994E+06     51.6438E+06     10.5645E+06     4.24846E+06    -136.969E-03     235.671E-03    -98.7027E-03     100.522E-03    -139.967E-03     238.726E-03    -98.6843E-03     92.1468E-03
            2255     10.6289E-03     12.9112E-03    -31.3946E+06     5.11080E+06    -355.712E+03     6.49189E+06    -131.129E-03     227.113E-03    -95.9833E-03     76.1496E-03    -133.017E-03     228.911E-03    -95.9469E-03     69.7753E-03
            2256     9.83802E-03     12.7958E-03    -34.0733E+06    -44.8902E+06    -6.74365E+06     7.67755E+06    -124.596E-03     217.925E-03    -93.3294E-03     57.1751E-03    -125.764E-03     218.835E-03    -93.2486E-03     52.3945E-03
            2257     9.04177E-03     12.6986E-03    -36.7852E+06    -79.5164E+06    -12.0602E+06     8.24143E+06    -117.634E-03     208.404E-03    -90.7698E-03     41.8476E-03    -118.344E-03     208.738E-03    -90.6615E-03     38.3104E-03
            2258     8.23989E-03     12.6167E-03    -40.3988E+06    -103.191E+06    -13.9650E+06     8.53197E+06    -110.797E-03     199.176E-03    -88.3793E-03     30.3584E-03    -111.235E-03     199.147E-03    -88.2409E-03     27.7517E-03
            2259     7.43257E-03     12.5473E-03    -44.1456E+06    -124.462E+06    -17.9764E+06     8.70134E+06    -104.294E-03     190.473E-03    -86.1796E-03     21.9053E-03    -104.559E-03     190.193E-03    -86.0250E-03     19.9945E-03
            2260     6.61998E-03     12.4887E-03    -48.1058E+06    -140.381E+06    -23.3267E+06     8.98400E+06    -98.2625E-03     182.466E-03    -84.2035E-03     15.8185E-03    -98.4208E-03     182.023E-03    -84.0468E-03     14.4314E-03
            2261     5.80244E-03     12.4391E-03    -51.8704E+06    -152.724E+06    -29.1540E+06     9.28600E+06    -92.9423E-03     175.421E-03    -82.4787E-03     11.5606E-03    -93.0336E-03     174.870E-03    -82.3279E-03     10.5649E-03
            2262     4.98077E-03     12.3975E-03    -55.8282E+06    -171.146E+06    -34.2333E+06     9.74765E+06    -88.4228E-03     169.455E-03    -81.0327E-03     8.49820E-03    -88.4629E-03     168.788E-03    -80.8747E-03     7.79627E-03
            2263     4.15556E-03     12.3631E-03    -60.5258E+06    -179.427E+06    -42.1575E+06     9.21466E+06    -84.6886E-03     164.514E-03    -79.8255E-03     6.40676E-03    -84.7053E-03     163.800E-03    -79.6884E-03     5.91830E-03
            2264     3.32742E-03     12.3351E-03    -65.2127E+06    -188.304E+06    -52.6243E+06     8.04791E+06    -81.7811E-03     160.650E-03    -78.8688E-03     4.82156E-03    -81.7783E-03     159.898E-03    -78.7643E-03     4.48823E-03
            2265     2.49725E-03     12.3135E-03    -69.3880E+06    -197.064E+06    -63.0035E+06     6.19400E+06    -79.7044E-03     157.859E-03    -78.1547E-03     3.44619E-03    -79.6853E-03     157.075E-03    -78.0834E-03     3.22222E-03
            2266     1.66560E-03     12.2983E-03    -72.4692E+06    -201.361E+06    -69.4433E+06     4.11969E+06    -78.3534E-03     156.012E-03    -77.6583E-03     2.25507E-03    -78.3283E-03     155.214E-03    -77.6084E-03     2.11446E-03
            2267     833.126E-06     12.2890E-03    -74.1782E+06    -203.565E+06    -72.7453E+06     2.53256E+06    -77.6610E-03     154.886E-03    -77.2247E-03     1.20506E-03    -77.6329E-03     154.083E-03    -77.1857E-03     1.13764E-03
            2268     15.3126E-03     12.9390E-03    -4.83576E+06     115.997E+06     91.3278E+06     1.06504E+06    -147.639E-03     258.089E-03    -110.449E-03     127.968E-03    -154.857E-03     265.436E-03    -110.154E-03     117.376E-03
            2269     14.5412E-03     12.7341E-03    -9.80610E+06     111.968E+06     92.4225E+06     2.09537E+06    -153.211E-03     261.440E-03    -108.228E-03     200.659E-03    -164.699E-03     273.022E-03    -107.914E-03     185.317E-03
            2270     13.7706E-03     12.4564E-03    -14.3624E+06     102.206E+06     87.7373E+06     2.59758E+06    -157.282E-03     262.851E-03    -105.569E-03     212.539E-03    -168.010E-03     273.638E-03    -105.258E-03     195.984E-03
            2271     13.0000E-03     12.2000E-03    -19.1756E+06     87.7937E+06     69.2417E+06     1.97938E+06    -154.338E-03     256.845E-03    -102.507E-03     172.212E-03    -161.828E-03     264.380E-03    -102.260E-03     157.774E-03
            2272     12.2265E-03     12.0037E-03    -25.1083E+06     69.0725E+06     35.2132E+06     2.89770E+06    -147.875E-03     247.065E-03    -99.1898E-03     121.200E-03    -152.305E-03     251.552E-03    -99.0775E-03     110.129E-03
            2273     11.4480E-03     11.8505E-03    -29.6179E+06     49.4439E+06     5.11709E+06     5.47505E+06    -140.522E-03     236.367E-03    -95.8454E-03     85.2864E-03    -143.168E-03     239.072E-03    -95.8486E-03     77.0531E-03
            2274     10.6647E-03     11.7255E-03    -32.7189E+06     6.35180E+06    -4.08565E+06     7.48742E+06    -132.898E-03     225.576E-03    -92.6783E-03     61.1361E-03    -134.539E-03     227.139E-03    -92.6605E-03     54.9998E-03
            2275     9.87525E-03     11.6215E-03    -36.0124E+06    -42.8474E+06    -8.37830E+06     8.46396E+06    -124.800E-03     214.454E-03    -89.6539E-03     42.8733E-03    -125.805E-03     215.206E-03    -89.5815E-03     38.3570E-03
            2276     9.07908E-03     11.5363E-03    -38.9156E+06    -77.0877E+06    -14.2264E+06      8.6612E+06    -116.523E-03     203.303E-03    -86.7804E-03     29.2329E-03    -117.128E-03     203.540E-03    -86.6833E-03     25.9518E-03
            2277     8.27611E-03     11.4655E-03    -40.6167E+06    -101.298E+06    -15.3577E+06     8.56830E+06    -108.641E-03     192.786E-03    -84.1458E-03     19.6135E-03    -109.007E-03     192.695E-03    -84.0169E-03     17.2302E-03
            2278     7.46669E-03     11.4064E-03    -42.9816E+06    -123.680E+06    -17.2953E+06     9.67269E+06    -101.344E-03     183.110E-03    -81.7655E-03     12.7538E-03    -101.558E-03     182.783E-03    -81.6103E-03     11.0432E-03
            2279     6.65129E-03     11.3574E-03    -46.3937E+06    -137.690E+06    -21.1244E+06     10.1317E+06    -94.7429E-03     174.388E-03    -79.6453E-03     8.23069E-03    -94.8701E-03     173.923E-03    -79.4840E-03     7.01118E-03
            2280     5.83068E-03     11.3157E-03    -50.2999E+06    -151.241E+06    -27.9569E+06     10.1333E+06    -88.9826E-03     166.784E-03    -77.8018E-03     5.35714E-03    -89.0518E-03     166.219E-03    -77.6494E-03     4.49437E-03
            2281     5.00548E-03     11.2811E-03    -54.4605E+06    -168.414E+06    -33.5644E+06     10.8025E+06    -84.1304E-03     160.393E-03    -76.2628E-03     3.50586E-03    -84.1574E-03     159.725E-03    -76.1074E-03     2.91394E-03
            2282     4.17642E-03     11.2521E-03    -58.5065E+06    -175.151E+06    -38.9180E+06     10.2764E+06    -80.1462E-03     155.145E-03    -74.9984E-03     2.43918E-03    -80.1570E-03     154.438E-03    -74.8542E-03     2.03811E-03
            2283     3.34443E-03     11.2285E-03    -62.6750E+06    -183.830E+06    -47.9814E+06     9.49564E+06    -77.0507E-03     151.051E-03    -74.0008E-03     1.80697E-03    -77.0447E-03     150.308E-03    -73.8833E-03     1.54714E-03
            2284     2.50999E-03     11.2099E-03    -66.5065E+06    -190.357E+06    -58.4879E+06     7.96103E+06    -74.8357E-03     148.093E-03    -73.2576E-03     1.37093E-03    -74.8166E-03     147.330E-03    -73.1776E-03     1.21010E-03
            2285     1.67407E-03     11.1965E-03    -69.5618E+06    -195.106E+06    -66.3767E+06     5.16405E+06    -73.4277E-03     146.181E-03    -72.7532E-03     944.564E-06    -73.4009E-03     145.405E-03    -72.7013E-03     844.285E-06
            2286     837.236E-06     11.1883E-03    -71.6146E+06    -198.066E+06    -70.8323E+06     2.60287E+06    -72.7713E-03     145.081E-03    -72.3101E-03     531.793E-06    -72.7409E-03     144.299E-03    -72.2732E-03     478.329E-06
            2287     15.3219E-03     11.7102E-03    -5.02741E+06     114.350E+06     90.9375E+06     693.072E+03    -157.094E-03     267.222E-03    -110.127E-03     124.977E-03    -164.129E-03     274.381E-03    -109.831E-03     113.098E-03
            2288     14.5534E-03     11.4956E-03    -9.29162E+06     111.013E+06     92.6890E+06     1.27162E+06    -163.029E-03     270.401E-03    -107.373E-03     196.791E-03    -174.177E-03     281.643E-03    -107.057E-03     179.916E-03
            2289     13.7912E-03     11.2292E-03    -13.4337E+06     102.166E+06     88.0678E+06     1.83579E+06    -166.585E-03     270.695E-03    -104.110E-03     204.861E-03    -176.809E-03     280.981E-03    -103.798E-03     187.205E-03
            2290     13.0260E-03     10.9777E-03    -19.5495E+06     86.9147E+06     66.2733E+06     3.56247E+06    -162.098E-03     262.506E-03    -100.407E-03     159.514E-03    -169.034E-03     269.493E-03    -100.174E-03     144.600E-03
            2291     12.2589E-03     10.7921E-03    -25.6185E+06     67.5640E+06     32.2688E+06     5.69239E+06    -152.848E-03     249.361E-03    -96.5130E-03     105.033E-03    -156.797E-03     253.370E-03    -96.4125E-03     94.0094E-03
            2292     11.4855E-03     10.6536E-03    -30.0816E+06     48.4961E+06     3.27722E+06     7.28179E+06    -142.972E-03     235.673E-03    -92.7012E-03     70.6929E-03    -145.312E-03     238.073E-03    -92.7115E-03     62.6818E-03
            2293     10.7038E-03     10.5413E-03    -33.9117E+06     7.87491E+06    -8.88854E+06     9.19198E+06    -133.329E-03     222.486E-03    -89.1571E-03     48.6448E-03    -134.780E-03     223.874E-03    -89.1638E-03     42.7905E-03
            2294     9.91429E-03     10.4518E-03    -37.5977E+06    -40.2118E+06    -11.8015E+06     10.2751E+06    -123.590E-03     209.472E-03    -85.8815E-03     32.4496E-03    -124.480E-03     210.123E-03    -85.8277E-03     28.2288E-03
            2295     9.11645E-03     10.3801E-03    -40.8488E+06    -72.3589E+06    -16.1931E+06     8.97263E+06    -114.249E-03     197.088E-03    -82.8396E-03     21.3589E-03    -114.798E-03     197.285E-03    -82.7564E-03     18.3169E-03
            2296     8.31120E-03     10.3216E-03    -44.1497E+06    -100.046E+06    -18.5214E+06     8.15664E+06    -105.671E-03     185.763E-03    -80.0919E-03     13.8568E-03    -106.014E-03     185.649E-03    -79.9754E-03     11.6574E-03
            2297     7.49893E-03     10.2740E-03    -46.8400E+06    -123.095E+06    -20.2403E+06      8.9061E+06    -97.9344E-03     175.574E-03    -77.6395E-03     8.78622E-03    -98.1447E-03     175.240E-03    -77.4943E-03     7.21230E-03
            2298     6.68059E-03     10.2347E-03    -48.6563E+06    -135.423E+06    -22.7058E+06     9.40581E+06    -91.1129E-03     166.582E-03    -75.4688E-03     5.68397E-03    -91.2432E-03     166.125E-03    -75.3155E-03     4.56350E-03
            2299     5.85663E-03     10.2019E-03    -51.3427E+06    -150.732E+06    -27.5132E+06     10.7466E+06    -85.2163E-03     158.808E-03    -73.5920E-03     3.86739E-03    -85.2882E-03     158.243E-03    -73.4366E-03     3.09145E-03
            2300     5.02802E-03     10.1743E-03    -54.7750E+06    -164.665E+06    -33.4184E+06     11.0934E+06    -80.2496E-03     152.253E-03    -72.0031E-03     2.84438E-03    -80.2826E-03     151.603E-03    -71.8520E-03     2.31405E-03
            2301     4.19558E-03     10.1512E-03    -58.1480E+06    -171.318E+06    -38.9601E+06     10.0329E+06    -76.1850E-03     146.875E-03    -70.6898E-03     2.27049E-03    -76.1994E-03     146.187E-03    -70.5519E-03     1.90758E-03
            2302     3.35981E-03     10.1322E-03    -61.2166E+06    -179.516E+06    -45.3230E+06     9.34378E+06    -72.9935E-03     142.641E-03    -69.6475E-03     1.87377E-03    -72.9904E-03     141.914E-03    -69.5251E-03     1.64082E-03
            2303     2.52177E-03     10.1169E-03    -63.6834E+06    -183.753E+06    -53.1065E+06     7.79613E+06    -70.6259E-03     139.478E-03    -68.8524E-03     1.54674E-03    -70.6100E-03     138.737E-03    -68.7591E-03     1.40429E-03
            2304     1.68201E-03     10.1055E-03    -65.7797E+06    -188.225E+06    -60.9415E+06     5.54616E+06    -69.0496E-03     137.348E-03    -68.2987E-03     1.10049E-03    -69.0215E-03     136.594E-03    -68.2351E-03     1.01905E-03
            2305     841.250E-06     10.0985E-03    -66.9714E+06    -190.908E+06    -65.7524E+06     3.06147E+06    -68.2019E-03     136.131E-03    -67.9294E-03     572.885E-06    -68.1657E-03     135.371E-03    -67.8842E-03     531.799E-06
            2306     15.3238E-03     10.4606E-03    -4.49990E+06     113.063E+06     90.5034E+06     762.273E+03    -167.147E-03     276.886E-03    -109.739E-03     124.594E-03    -173.983E-03     283.845E-03    -109.444E-03     111.338E-03
            2307     14.5677E-03     10.2536E-03    -8.59614E+06     110.528E+06     92.0021E+06     442.463E+03    -173.703E-03     280.115E-03    -106.412E-03     191.772E-03    -184.387E-03     290.895E-03    -106.100E-03     173.328E-03
            2308     13.8105E-03     9.98670E-03    -14.7207E+06     99.6561E+06     85.7942E+06     1.11678E+06    -177.196E-03     279.674E-03    -102.478E-03     193.897E-03    -186.859E-03     289.393E-03    -102.173E-03     175.046E-03
            2309     13.0590E-03     9.74598E-03    -21.1293E+06     83.2776E+06     66.3566E+06     4.09662E+06    -169.337E-03     267.458E-03    -98.1214E-03     142.511E-03    -175.649E-03     273.805E-03    -97.8797E-03     127.273E-03
            2310     12.2969E-03     9.57990E-03    -24.7672E+06     66.7666E+06     36.0144E+06     7.38068E+06    -155.474E-03     249.221E-03    -93.7466E-03     90.6198E-03    -158.988E-03     252.785E-03    -93.6274E-03     79.8933E-03
            2311     11.5230E-03     9.45722E-03    -29.5896E+06     47.0539E+06     3.38236E+06     11.1018E+06    -143.103E-03     232.730E-03    -89.6270E-03     60.6024E-03    -145.211E-03     234.895E-03    -89.6354E-03     52.9839E-03
            2312     10.7407E-03     9.36150E-03    -35.3756E+06     10.1383E+06    -14.0861E+06     13.4029E+06    -131.536E-03     217.437E-03    -85.9011E-03     41.5570E-03    -132.860E-03     218.716E-03    -85.9349E-03     36.1115E-03
            2313     9.94853E-03     9.28820E-03    -39.7034E+06    -34.6481E+06    -15.7014E+06     11.9149E+06    -120.576E-03     203.162E-03    -82.5867E-03     28.5607E-03    -121.414E-03     203.784E-03    -82.5574E-03     24.6658E-03
            2314     9.14788E-03     9.23080E-03    -42.6328E+06    -67.7437E+06    -16.2877E+06     9.98268E+06    -110.703E-03     190.300E-03    -79.5972E-03     20.2529E-03    -111.245E-03     190.500E-03    -79.5186E-03     17.4453E-03
            2315     8.33926E-03     9.18554E-03    -45.7741E+06    -97.6336E+06    -18.2149E+06     9.09223E+06    -101.906E-03     178.836E-03    -76.9306E-03     15.0036E-03    -102.258E-03     178.733E-03    -76.8137E-03     12.9749E-03
            2316     7.52368E-03     9.14943E-03    -49.0232E+06    -120.827E+06    -20.6117E+06     7.84539E+06    -94.2428E-03     168.817E-03    -74.5737E-03     11.7985E-03    -94.4740E-03     168.506E-03    -74.4305E-03     10.3173E-03
            2317     6.70186E-03     9.12012E-03    -51.9702E+06    -134.869E+06    -22.8077E+06     7.66024E+06    -87.6694E-03     160.175E-03    -72.5053E-03     9.88720E-03    -87.8274E-03     159.736E-03    -72.3484E-03     8.81136E-03
            2318     5.87498E-03     9.09585E-03    -53.9698E+06    -150.733E+06    -25.5733E+06     8.79037E+06    -82.0860E-03     152.802E-03    -70.7156E-03     8.64628E-03    -82.1841E-03     152.248E-03    -70.5466E-03     7.88431E-03
            2319     5.04360E-03     9.07553E-03    -55.2346E+06    -161.126E+06    -29.9452E+06     9.17932E+06    -77.3785E-03     146.552E-03    -69.1734E-03     7.75631E-03    -77.4322E-03     145.925E-03    -69.0094E-03     7.22427E-03
            2320     4.20840E-03     9.05820E-03    -57.1314E+06    -167.833E+06    -35.2505E+06     8.43482E+06    -73.5212E-03     141.392E-03    -67.8703E-03     6.87372E-03    -73.5468E-03     140.721E-03    -67.7204E-03     6.50315E-03
            2321     3.37047E-03     9.04379E-03    -59.2668E+06    -175.022E+06    -41.1458E+06     7.03155E+06    -70.4271E-03     137.223E-03    -66.7962E-03     5.83121E-03    -70.4304E-03     136.514E-03    -66.6622E-03     5.57524E-03
            2322     2.52999E-03     9.03204E-03    -61.0521E+06    -178.590E+06    -47.8706E+06     5.43380E+06    -67.9787E-03     133.918E-03    -65.9390E-03     4.68600E-03    -67.9666E-03     133.193E-03    -65.8308E-03     4.51684E-03
            2323     1.68771E-03     9.02312E-03    -62.3010E+06    -182.309E+06    -54.9546E+06     3.65373E+06    -66.2155E-03     131.528E-03    -65.3121E-03     3.34599E-03    -66.1878E-03     130.791E-03    -65.2322E-03     3.24241E-03
            2324     844.189E-06     9.01740E-03    -62.9225E+06    -184.937E+06    -60.1914E+06     1.79356E+06    -65.2375E-03     130.079E-03    -64.8417E-03     1.78365E-03    -65.1977E-03     129.336E-03    -64.7832E-03     1.72781E-03
            2325     15.3334E-03     9.19646E-03    -2.73694E+06     113.441E+06     91.1414E+06     673.445E+03    -178.864E-03     288.160E-03    -109.296E-03     122.377E-03    -185.497E-03     294.922E-03    -109.001E-03     107.589E-03
            2326     14.5818E-03     9.00154E-03    -7.94798E+06     109.479E+06     90.6546E+06     1.37433E+06    -186.381E-03     291.673E-03    -105.292E-03     184.792E-03    -196.585E-03     301.976E-03    -104.986E-03     164.606E-03
            2327     13.8401E-03     8.72738E-03    -15.4100E+06     96.7397E+06     83.3135E+06     2.07326E+06    -186.292E-03     286.968E-03    -100.676E-03     181.213E-03    -195.263E-03     295.992E-03    -100.377E-03     161.636E-03
            2328     13.0915E-03     8.51118E-03    -20.5134E+06     80.5663E+06     67.1401E+06     4.26875E+06    -171.627E-03     267.498E-03    -95.8719E-03     127.116E-03    -177.250E-03     273.148E-03    -95.6233E-03     112.337E-03
            2329     12.3276E-03     8.36842E-03    -26.8849E+06     61.8473E+06     35.9258E+06     9.09015E+06    -154.550E-03     245.864E-03    -91.3140E-03     82.1716E-03    -157.736E-03     249.076E-03    -91.1850E-03     72.0659E-03
            2330     11.5537E-03     8.26418E-03    -33.1991E+06     41.3867E+06     3.83787E+06     15.5005E+06    -140.090E-03     227.285E-03    -87.1945E-03     56.8989E-03    -142.053E-03     229.271E-03    -87.1872E-03     49.8749E-03
            2331     10.7677E-03     8.18842E-03    -38.0114E+06     15.2065E+06    -11.1324E+06     17.9527E+06    -126.973E-03     210.573E-03    -83.5999E-03     42.0366E-03    -128.255E-03     211.810E-03    -83.6225E-03     37.1152E-03
            2332     9.97143E-03     8.13142E-03    -42.1179E+06    -24.4658E+06    -12.2330E+06     13.5655E+06    -115.566E-03     196.085E-03    -80.5185E-03     33.1109E-03    -116.428E-03     196.748E-03    -80.4831E-03     29.5694E-03
            2333     9.16625E-03     8.08898E-03    -44.6579E+06    -63.9202E+06    -12.6548E+06     8.83144E+06    -105.818E-03     183.649E-03    -77.8303E-03     27.8318E-03    -106.400E-03     183.884E-03    -77.7362E-03     25.2294E-03
            2334     8.35334E-03     8.05655E-03    -45.4530E+06    -95.1638E+06    -13.0591E+06     7.57018E+06    -97.5452E-03     173.027E-03    -75.4823E-03     24.7480E-03    -97.9358E-03     172.958E-03    -75.3437E-03     22.8347E-03
            2335     7.53384E-03     8.03139E-03    -46.6614E+06    -117.614E+06    -13.6107E+06     6.72267E+06    -90.6304E-03     164.066E-03    -73.4354E-03     22.7983E-03    -90.8945E-03     163.787E-03    -73.2652E-03     21.3777E-03
            2336     6.70914E-03     8.01121E-03    -48.6979E+06    -134.431E+06    -15.7791E+06     5.78624E+06    -84.8923E-03     156.538E-03    -71.6454E-03     21.3327E-03    -85.0709E-03     156.113E-03    -71.4588E-03     20.2683E-03
            2337     5.87985E-03     7.99475E-03    -51.4536E+06    -150.442E+06    -19.1427E+06     6.03078E+06    -80.1372E-03     150.220E-03    -70.0831E-03     19.8706E-03    -80.2532E-03     149.676E-03    -69.8860E-03     19.0848E-03
            2338     5.04691E-03     7.98094E-03    -54.4373E+06    -158.313E+06    -22.5046E+06     5.54229E+06    -76.1452E-03     144.859E-03    -68.7140E-03     18.2091E-03    -76.2249E-03     144.249E-03    -68.5180E-03     17.6301E-03
            2339     4.21094E-03     7.96905E-03    -56.2301E+06    -164.860E+06    -27.3532E+06     4.10467E+06    -72.7820E-03     140.304E-03    -67.5223E-03     16.1808E-03    -72.8289E-03     139.646E-03    -67.3385E-03     15.7504E-03
            2340     3.37218E-03     7.95896E-03    -57.3273E+06    -171.429E+06    -35.6780E+06     2.78502E+06    -69.9990E-03     136.492E-03    -66.4931E-03     13.6986E-03    -70.0120E-03     135.797E-03    -66.3398E-03     13.3840E-03
            2341     2.53137E-03     7.95094E-03    -58.5327E+06    -175.434E+06    -43.3263E+06     1.39665E+06    -67.7199E-03     133.366E-03    -65.6464E-03     10.8414E-03    -67.7097E-03     132.651E-03    -65.5238E-03     10.6173E-03
            2342     1.68868E-03     7.94470E-03    -59.7586E+06    -179.197E+06    -50.7517E+06     289.284E+03    -65.9546E-03     130.958E-03    -65.0039E-03     7.65485E-03    -65.9263E-03     130.229E-03    -64.9111E-03     7.50667E-03
            2343     844.672E-06     7.94072E-03    -60.9106E+06    -183.113E+06    -58.0831E+06    -203.660E+03    -64.9602E-03     129.430E-03    -64.4693E-03     4.33036E-03    -64.9164E-03     128.690E-03    -64.4059E-03     4.24930E-03
            2344     15.3387E-03     7.92779E-03    -4.23525E+06     111.993E+06     88.1486E+06    -222.702E+03    -192.263E-03     301.077E-03    -108.814E-03     122.986E-03    -198.830E-03     307.769E-03    -108.529E-03     106.546E-03
            2345     14.6024E-03     7.72296E-03    -9.47421E+06     106.964E+06     88.1816E+06     1.74415E+06    -198.293E-03     302.445E-03    -104.153E-03     182.355E-03    -208.103E-03     312.349E-03    -103.853E-03     160.850E-03
            2346     13.8667E-03     7.46342E-03    -14.2926E+06     95.3364E+06     83.0743E+06     4.53075E+06    -189.700E-03     288.775E-03    -99.0752E-03     169.552E-03    -197.824E-03     296.956E-03    -98.7774E-03     150.473E-03
            2347     13.1156E-03     7.28022E-03    -21.8700E+06     76.1647E+06     65.1258E+06     7.96427E+06    -168.287E-03     262.478E-03    -94.1908E-03     118.403E-03    -173.283E-03     267.487E-03    -93.9439E-03     104.897E-03
            2348     12.3501E-03     7.15926E-03    -30.9714E+06     53.8044E+06     36.1958E+06     13.3552E+06    -149.079E-03     238.933E-03    -89.8539E-03     80.8966E-03    -152.013E-03     241.850E-03    -89.7061E-03     71.8169E-03
            2349     11.5697E-03     7.07957E-03    -37.7429E+06     35.9266E+06     12.6039E+06     18.6730E+06    -132.931E-03     219.072E-03    -86.1415E-03     62.2115E-03    -134.821E-03     220.925E-03    -86.0758E-03     56.0229E-03
            2350     10.7770E-03     7.02277E-03    -41.9815E+06     22.1486E+06     1.06604E+06     18.6928E+06    -119.561E-03     202.597E-03    -83.0364E-03     52.9847E-03    -120.882E-03     203.848E-03    -83.0023E-03     48.6384E-03
            2351     9.97425E-03     6.98263E-03    -43.6288E+06    -11.4357E+06    -2.14220E+06     12.1041E+06    -108.751E-03     189.232E-03    -80.4811E-03     47.8594E-03    -109.685E-03     189.980E-03    -80.4120E-03     44.6706E-03
            2352     9.16323E-03     6.95375E-03    -44.2995E+06    -59.0916E+06    -3.70658E+06     5.50511E+06    -100.142E-03     178.500E-03    -78.3574E-03     44.9730E-03    -100.788E-03     178.792E-03    -78.2260E-03     42.5547E-03
            2353     8.34579E-03     6.93266E-03    -45.0151E+06    -94.3759E+06    -4.97536E+06     3.27425E+06    -93.3407E-03     169.887E-03    -76.5459E-03     42.9449E-03    -93.7883E-03     169.856E-03    -76.3687E-03     41.0996E-03
            2354     7.52336E-03     6.91666E-03    -45.3111E+06    -115.436E+06    -5.25289E+06     2.50454E+06    -87.9094E-03     162.891E-03    -74.9814E-03     41.0376E-03    -88.2224E-03     162.649E-03    -74.7746E-03     39.6218E-03
            2355     6.69661E-03     6.90409E-03    -46.3526E+06    -135.397E+06    -7.42206E+06     2.77005E+06    -83.5713E-03     157.189E-03    -73.6175E-03     38.7635E-03    -83.7810E-03     156.775E-03    -73.3911E-03     37.6812E-03
            2356     5.86673E-03     6.89389E-03    -48.3924E+06    -149.358E+06    -9.49319E+06     3.06186E+06    -80.0297E-03     152.445E-03    -72.4153E-03     35.9783E-03    -80.1698E-03     151.910E-03    -72.1760E-03     35.1564E-03
            2357     5.03416E-03     6.88523E-03    -50.5201E+06    -154.820E+06    -12.2265E+06     941.513E+03    -77.0443E-03     148.383E-03    -71.3387E-03     32.6720E-03    -77.1411E-03     147.786E-03    -71.1021E-03     32.0283E-03
            2358     4.19921E-03     6.87801E-03    -53.0336E+06    -163.119E+06    -19.6342E+06    -1.26732E+06    -74.4638E-03     144.839E-03    -70.3756E-03     28.7242E-03    -74.5196E-03     144.184E-03    -70.1604E-03     28.2184E-03
            2359     3.36223E-03     6.87191E-03    -55.4174E+06    -169.614E+06    -30.5421E+06    -2.69120E+06    -72.2457E-03     141.776E-03    -69.5304E-03     24.1655E-03    -72.2660E-03     141.084E-03    -69.3568E-03     23.7777E-03
            2360     2.52342E-03     6.86696E-03    -57.1384E+06    -175.330E+06    -40.7557E+06    -3.45818E+06    -70.4437E-03     139.277E-03    -68.8329E-03     18.9708E-03    -70.4345E-03     138.558E-03    -68.6996E-03     18.6839E-03
            2361     1.68324E-03     6.86349E-03    -59.0311E+06    -180.375E+06    -49.6063E+06    -2.74644E+06    -69.0600E-03     137.358E-03    -68.2975E-03     13.2850E-03    -69.0305E-03     136.620E-03    -68.1984E-03     13.0987E-03
            2362     841.927E-06     6.86108E-03    -61.3705E+06    -185.370E+06    -57.7787E+06    -1.42776E+06    -68.1551E-03     136.087E-03    -67.9316E-03     7.45815E-03    -68.1122E-03     135.335E-03    -67.8627E-03     7.36240E-03
            2363     15.3457E-03     6.64580E-03    -4.74754E+06     111.301E+06     84.8425E+06     1.03607E+06    -205.784E-03     314.244E-03    -108.459E-03     123.459E-03    -212.175E-03     320.769E-03    -108.190E-03     105.963E-03
            2364     14.6160E-03     6.42094E-03    -11.0512E+06     103.870E+06     83.4269E+06     1.40254E+06    -202.192E-03     305.564E-03    -103.371E-03     181.106E-03    -211.466E-03     314.933E-03    -103.089E-03     159.760E-03
            2365     13.8814E-03     6.20637E-03    -17.9856E+06     88.7734E+06     76.2395E+06      6.1997E+06    -184.560E-03     282.879E-03    -98.3184E-03     162.652E-03    -191.765E-03     290.127E-03    -98.0399E-03     145.421E-03
            2366     13.1246E-03     6.05124E-03    -25.6563E+06     68.9836E+06     60.9934E+06     12.8421E+06    -159.270E-03     253.127E-03    -93.8563E-03     120.915E-03    -163.716E-03     257.560E-03    -93.6142E-03     109.325E-03
            2367     12.3497E-03     5.96161E-03    -32.1461E+06      48.246E+06     42.7649E+06     17.5682E+06    -138.309E-03     228.521E-03    -90.2118E-03     92.2369E-03    -141.020E-03     231.173E-03    -90.0213E-03     84.6347E-03
            2368     11.5594E-03     5.90442E-03    -37.0481E+06     36.0108E+06     29.0004E+06     18.7739E+06    -122.476E-03     209.784E-03    -87.3084E-03     80.3926E-03    -124.329E-03     211.556E-03    -87.1619E-03     75.1807E-03
            2369     10.7581E-03     5.86594E-03    -38.6935E+06     31.9560E+06     21.3436E+06     14.9345E+06    -110.610E-03     195.617E-03    -85.0070E-03     74.7235E-03    -111.966E-03     196.892E-03    -84.8906E-03     70.9509E-03
            2370     9.94825E-03     5.84011E-03    -39.4137E+06    -230.305E+03     15.1383E+06     7.40565E+06    -101.720E-03     184.934E-03    -83.2141E-03     71.3405E-03    -102.705E-03     185.738E-03    -83.0809E-03     68.4795E-03
            2371     9.13221E-03     5.82231E-03    -40.9816E+06    -55.8216E+06     9.19456E+06     1.69031E+06    -95.3550E-03     177.163E-03    -81.8083E-03     68.8128E-03    -96.0447E-03     177.485E-03    -81.6220E-03     66.5728E-03
            2372     8.31175E-03     5.80947E-03    -42.7710E+06    -93.0936E+06     6.70862E+06    -1.38230E+06    -90.7457E-03     171.391E-03    -80.6452E-03     65.9938E-03    -91.2346E-03     171.379E-03    -80.4146E-03     64.2151E-03
            2373     7.48794E-03     5.80018E-03    -44.6815E+06    -116.142E+06     6.03745E+06    -2.67635E+06    -87.3112E-03     166.960E-03    -79.6489E-03     62.5260E-03    -87.6639E-03     166.724E-03    -79.3855E-03     61.1080E-03
            2374     6.66187E-03     5.79281E-03    -46.2727E+06    -137.165E+06     4.70410E+06    -2.60957E+06    -84.6306E-03     163.407E-03    -78.7765E-03     58.2470E-03    -84.8758E-03     162.986E-03    -78.4870E-03     57.1260E-03
            2375     5.83376E-03     5.78710E-03    -46.7528E+06    -147.301E+06     2.32222E+06    -3.97592E+06    -82.4085E-03     160.395E-03    -77.9867E-03     53.3610E-03    -82.5753E-03     159.864E-03    -77.6937E-03     52.4639E-03
            2376     5.00380E-03     5.78221E-03    -47.4207E+06    -153.561E+06    -5.09809E+06    -5.47244E+06    -80.5420E-03     157.801E-03    -77.2592E-03     47.7488E-03    -80.6457E-03     157.203E-03    -76.9933E-03     47.0302E-03
            2377     4.17241E-03     5.77838E-03    -49.3635E+06    -162.784E+06    -16.2974E+06    -6.38799E+06    -78.9504E-03     155.557E-03    -76.6068E-03     41.3447E-03    -79.0001E-03     154.897E-03    -76.3807E-03     40.7764E-03
            2378     3.33961E-03     5.77525E-03    -52.2028E+06    -170.636E+06    -28.7904E+06    -7.03366E+06    -77.5740E-03     153.614E-03    -76.0401E-03     34.2978E-03    -77.5841E-03     152.912E-03    -75.8609E-03     33.8556E-03
            2379     2.50566E-03     5.77276E-03    -55.7278E+06    -178.766E+06    -41.2933E+06    -6.33518E+06    -76.4607E-03     152.037E-03    -75.5765E-03     26.5281E-03    -76.4420E-03     151.300E-03    -75.4429E-03     26.2044E-03
            2380     1.67086E-03     5.77095E-03    -59.1648E+06    -185.398E+06    -51.2863E+06    -4.52822E+06    -75.6495E-03     150.874E-03    -75.2248E-03     18.2770E-03    -75.6133E-03     150.113E-03    -75.1266E-03     18.0664E-03
            2381     835.626E-06     5.76981E-03    -61.4761E+06    -190.270E+06    -58.8001E+06    -2.28212E+06    -75.0941E-03     150.090E-03    -74.9961E-03     10.0371E-03    -75.0452E-03     149.314E-03    -74.9250E-03     9.92905E-03
            2382     15.3520E-03     5.33844E-03    -3.73862E+06     110.954E+06     82.0352E+06     2.58324E+06    -211.765E-03     320.714E-03    -108.949E-03     139.413E-03    -218.290E-03     327.391E-03    -108.694E-03     121.773E-03
            2383     14.6215E-03     5.13292E-03    -10.5632E+06     99.5493E+06     77.1249E+06     5.47988E+06    -197.200E-03     301.134E-03    -103.934E-03     198.779E-03    -206.138E-03     310.176E-03    -103.677E-03     179.148E-03
            2384     13.8709E-03     4.95167E-03    -18.6830E+06     79.0671E+06     67.3961E+06     10.6173E+06    -173.013E-03     272.451E-03    -99.4380E-03     172.635E-03    -179.303E-03     278.774E-03    -99.1886E-03     158.260E-03
            2385     13.1023E-03     4.83727E-03    -24.5164E+06     62.3180E+06     59.3284E+06     16.5215E+06    -145.412E-03     241.266E-03    -95.8543E-03     136.064E-03    -149.231E-03     245.060E-03    -95.6125E-03     126.889E-03
            2386     12.3135E-03     4.77600E-03    -29.8935E+06     48.9081E+06     51.0586E+06     18.0427E+06    -124.970E-03     218.208E-03    -93.2386E-03     115.003E-03    -127.424E-03     220.591E-03    -93.0109E-03     108.991E-03
            2387     11.5132E-03     4.73821E-03    -31.5357E+06     43.7564E+06     45.0314E+06     13.2556E+06    -112.047E-03     203.396E-03    -91.3489E-03     106.502E-03    -113.809E-03     205.076E-03    -91.1415E-03     102.165E-03
            2388     10.7045E-03     4.71428E-03    -30.8732E+06     41.1822E+06     41.3518E+06     7.00286E+06    -103.229E-03     193.196E-03    -89.9676E-03     101.093E-03    -104.535E-03     194.422E-03    -89.7758E-03     97.8191E-03
            2389     9.89003E-03     4.69907E-03    -31.2617E+06     3.74770E+06     35.1208E+06     2.56855E+06    -97.4674E-03     186.451E-03    -88.9833E-03     96.6429E-03    -98.4157E-03     187.200E-03    -88.7678E-03     94.0996E-03
            2390     9.07192E-03     4.68817E-03    -34.1980E+06    -54.5051E+06     26.7494E+06    -1.18523E+06    -93.9047E-03     182.164E-03    -88.2597E-03     91.8749E-03    -94.5661E-03     182.432E-03    -87.9973E-03     89.8425E-03
            2391     8.25158E-03     4.68063E-03    -38.3212E+06    -91.0709E+06     23.1987E+06    -4.93101E+06    -91.5589E-03     179.239E-03    -87.6805E-03     86.4103E-03    -92.0362E-03     179.188E-03    -87.3769E-03     84.7461E-03
            2392     7.42997E-03     4.67473E-03    -41.3772E+06    -116.944E+06     20.2662E+06    -8.34996E+06    -89.9687E-03     177.152E-03    -87.1831E-03     80.2959E-03    -90.3125E-03     176.871E-03    -86.8522E-03     78.9111E-03
            2393     6.60718E-03     4.67069E-03    -42.0989E+06    -137.024E+06     15.5761E+06    -11.5563E+06    -88.7907E-03     175.520E-03    -86.7290E-03     73.4915E-03    -89.0227E-03     175.066E-03    -86.3914E-03     72.3258E-03
            2394     5.78331E-03     4.66752E-03    -42.1400E+06    -147.953E+06     8.18063E+06    -13.1021E+06    -87.8071E-03     174.107E-03    -86.2994E-03     66.1250E-03    -87.9531E-03     173.548E-03    -85.9829E-03     65.1560E-03
            2395     4.95870E-03     4.66500E-03    -43.1146E+06    -156.743E+06    -4.48268E+06    -12.4364E+06    -86.9821E-03     172.874E-03    -85.8920E-03     58.0849E-03    -87.0577E-03     172.247E-03    -85.6246E-03     57.3031E-03
            2396     4.13330E-03     4.66312E-03    -45.1302E+06    -166.350E+06    -18.2949E+06    -10.7195E+06    -86.3181E-03     171.847E-03    -85.5285E-03     49.4356E-03    -86.3377E-03     171.161E-03    -85.3134E-03     48.8232E-03
            2397     3.30742E-03     4.66167E-03    -48.7874E+06    -175.533E+06    -31.1589E+06    -8.21664E+06    -85.7688E-03     170.983E-03    -85.2140E-03     40.2762E-03    -85.7518E-03     170.252E-03    -85.0446E-03     39.8190E-03
            2398     2.48111E-03     4.66061E-03    -53.3555E+06    -184.199E+06    -43.2470E+06    -5.81607E+06    -85.2898E-03     170.239E-03    -84.9488E-03     30.7029E-03    -85.2497E-03     169.472E-03    -84.8206E-03     30.3806E-03
            2399     1.65440E-03     4.65979E-03    -57.6644E+06    -191.272E+06    -53.1857E+06    -3.81957E+06    -84.9096E-03     169.653E-03    -84.7434E-03     20.8993E-03    -84.8560E-03     168.861E-03    -84.6484E-03     20.6916E-03
            2400     827.270E-06     4.65937E-03    -60.5740E+06    -195.852E+06    -59.6624E+06    -1.95505E+06    -84.5960E-03     169.260E-03    -84.6639E-03     11.4033E-03    -84.5345E-03     168.454E-03    -84.5904E-03     11.2943E-03
            2401     15.3116E-03     4.02377E-03    -2.75975E+06     106.058E+06     74.3658E+06     4.70754E+06    -202.548E-03     313.981E-03    -111.433E-03     177.314E-03    -209.501E-03     321.092E-03    -111.211E-03     160.696E-03
            2402     14.5698E-03     3.84269E-03    -13.0737E+06     89.1774E+06     66.9860E+06     9.90319E+06    -189.152E-03     296.193E-03    -107.041E-03     221.915E-03    -197.467E-03     304.599E-03    -106.816E-03     204.795E-03
            2403     13.8159E-03     3.70575E-03    -17.4403E+06     71.6778E+06     63.4512E+06     14.8022E+06    -159.003E-03     262.366E-03    -103.363E-03     184.188E-03    -164.061E-03     267.451E-03    -103.125E-03     173.056E-03
            2404     13.0351E-03     3.63692E-03    -20.7653E+06     61.2813E+06     62.9158E+06     16.6099E+06    -131.306E-03     232.130E-03    -100.824E-03     154.250E-03    -134.369E-03     235.166E-03    -100.569E-03     147.364E-03
            2405     12.2374E-03     3.59845E-03    -22.2253E+06     57.4343E+06     62.8371E+06     11.9792E+06    -115.347E-03     214.581E-03    -99.2346E-03     138.494E-03    -117.419E-03     216.601E-03    -98.9715E-03     133.729E-03
            2406     11.4309E-03     3.57452E-03    -21.8985E+06     54.9107E+06     58.3090E+06     4.35248E+06    -106.611E-03     204.815E-03    -98.2032E-03     128.351E-03    -108.093E-03     206.246E-03    -97.9595E-03     124.776E-03
            2407     10.6194E-03     3.56045E-03    -23.2168E+06     43.8835E+06     52.8469E+06     137.712E+03    -101.644E-03     199.175E-03    -97.5305E-03     119.618E-03    -102.735E-03     200.183E-03    -97.2962E-03     116.861E-03
            2408     9.80535E-03     3.55039E-03    -26.5375E+06     921.136E+03     45.6282E+06    -1.33607E+06    -99.0090E-03     196.117E-03    -97.1076E-03     111.376E-03    -99.7963E-03     196.677E-03    -96.8423E-03     109.211E-03
            2409     8.99031E-03     3.54323E-03    -29.6971E+06    -52.6871E+06     36.0821E+06    -4.97169E+06    -97.6300E-03     194.439E-03    -96.8092E-03     102.993E-03    -98.1733E-03     194.580E-03    -96.5093E-03     101.225E-03
            2410     8.17451E-03     3.53787E-03    -30.9587E+06    -88.1657E+06     29.7633E+06    -10.6244E+06    -96.8299E-03     193.400E-03    -96.5697E-03     94.4866E-03    -97.2010E-03     193.256E-03    -96.2481E-03     92.9838E-03
            2411     7.35795E-03     3.53392E-03    -31.1067E+06    -115.487E+06     23.4552E+06    -15.9792E+06    -96.3548E-03     192.718E-03    -96.3632E-03     85.7954E-03    -96.5937E-03     192.362E-03    -96.0333E-03     84.4861E-03
            2412     6.54110E-03     3.53106E-03    -32.4900E+06    -137.961E+06     14.1465E+06    -19.1398E+06    -96.0899E-03     192.255E-03    -96.1656E-03     76.9031E-03    -96.2284E-03     191.741E-03    -95.8477E-03     75.7625E-03
            2413     5.72426E-03     3.52912E-03    -35.1132E+06    -153.404E+06     1.14198E+06    -18.9815E+06    -95.9068E-03     191.867E-03    -95.9598E-03     67.9081E-03    -95.9716E-03     191.251E-03    -95.6808E-03     66.9444E-03
            2414     4.90702E-03     3.52771E-03    -38.3440E+06    -164.679E+06    -13.3681E+06    -15.8674E+06    -95.7417E-03     191.500E-03    -95.7579E-03     58.6883E-03    -95.7514E-03     190.819E-03    -95.5303E-03     57.9114E-03
            2415     4.08964E-03     3.52668E-03    -42.5171E+06    -174.948E+06    -26.0379E+06    -11.1506E+06    -95.5952E-03     191.177E-03    -95.5821E-03     49.2435E-03    -95.5675E-03     190.445E-03    -95.3969E-03     48.6511E-03
            2416     3.27205E-03     3.52593E-03    -46.9828E+06    -183.017E+06    -36.0642E+06    -6.72182E+06    -95.4490E-03     190.884E-03    -95.4351E-03     39.6981E-03    -95.3993E-03     190.114E-03    -95.2820E-03     39.2698E-03
            2417     2.45427E-03     3.52557E-03    -51.3230E+06    -189.979E+06    -45.1678E+06    -3.33920E+06    -95.3258E-03     190.637E-03    -95.3113E-03     30.1013E-03    -95.2616E-03     189.839E-03    -95.1873E-03     29.8117E-03
            2418     1.63626E-03     3.52538E-03    -54.9173E+06    -195.306E+06    -52.3311E+06    -1.22094E+06    -95.2183E-03     190.436E-03    -95.2175E-03     20.4372E-03    -95.1454E-03     189.617E-03    -95.1163E-03     20.2606E-03
            2419     818.198E-06     3.52529E-03    -57.5131E+06    -198.898E+06    -57.2804E+06    -358.941E+03    -95.0573E-03     190.310E-03    -95.2528E-03     11.0857E-03    -94.9790E-03     189.481E-03    -95.1674E-03     10.9954E-03
            2420     15.2273E-03     2.70488E-03    -1.57793E+06     100.304E+06     72.2469E+06     9.82847E+06    -191.867E-03     308.161E-03    -116.293E-03     214.883E-03    -198.496E-03     314.931E-03    -116.075E-03     200.358E-03
            2421     14.4889E-03     2.54571E-03    -10.8335E+06     81.5675E+06       67.06E+06     14.1159E+06    -176.932E-03     289.662E-03    -112.730E-03     218.433E-03    -183.167E-03     295.976E-03    -112.497E-03     205.147E-03
            2422     13.7229E-03     2.47951E-03    -15.3836E+06     71.3220E+06     68.4243E+06     12.5990E+06    -146.000E-03     255.971E-03    -109.970E-03     181.846E-03    -149.395E-03     259.379E-03    -109.709E-03     173.921E-03
            2423     12.9304E-03     2.44018E-03    -14.8389E+06     68.4791E+06     74.3360E+06     7.22380E+06    -125.889E-03     234.165E-03    -108.276E-03     159.820E-03    -127.996E-03     236.247E-03    -107.982E-03     154.758E-03
            2424     12.1311E-03     2.41712E-03    -12.4591E+06     66.1200E+06     73.6582E+06     1.61630E+06    -116.211E-03     223.444E-03    -107.234E-03     141.279E-03    -117.620E-03     224.827E-03    -106.943E-03     137.666E-03
            2425     11.3269E-03     2.40271E-03    -13.7908E+06     59.7689E+06     54.9489E+06    -1.13097E+06    -110.936E-03     217.423E-03    -106.487E-03     125.884E-03    -111.912E-03     218.397E-03    -106.279E-03     123.198E-03
            2426     10.5206E-03     2.39245E-03    -17.4935E+06     41.0304E+06     35.3129E+06    -1.32980E+06    -108.141E-03     214.121E-03    -105.980E-03     112.736E-03    -108.838E-03     214.793E-03    -105.838E-03     110.679E-03
            2427     9.71364E-03     2.38534E-03    -21.0128E+06    -782.245E+03     22.2872E+06    -3.53375E+06    -106.717E-03     212.386E-03    -105.670E-03     101.457E-03    -107.198E-03     212.720E-03    -105.527E-03     99.8168E-03
            2428     8.90554E-03     2.37981E-03    -22.5005E+06    -48.1449E+06     12.1203E+06    -10.0419E+06    -105.926E-03     211.383E-03    -105.456E-03     91.2408E-03    -106.231E-03     211.395E-03    -105.293E-03     89.8381E-03
            2429     8.09690E-03     2.37573E-03    -22.5945E+06    -84.7814E+06     2.79300E+06    -16.8310E+06    -105.420E-03     210.702E-03    -105.283E-03     81.7227E-03    -105.589E-03     210.477E-03    -105.113E-03     80.4733E-03
            2430     7.28809E-03     2.37266E-03    -23.5859E+06    -116.500E+06    -5.59244E+06    -20.2199E+06    -105.091E-03     210.239E-03    -105.148E-03     72.7243E-03    -105.159E-03     209.820E-03    -104.973E-03     71.6182E-03
            2431     6.47891E-03     2.37051E-03    -26.1501E+06    -142.736E+06    -10.3082E+06    -20.3178E+06    -104.891E-03     209.948E-03    -105.058E-03     64.1102E-03    -104.892E-03     209.374E-03    -104.864E-03     63.1511E-03
            2432     5.66928E-03     2.36904E-03    -30.5603E+06    -162.380E+06    -17.0208E+06    -17.7947E+06    -104.799E-03     209.770E-03    -104.971E-03     55.8257E-03    -104.758E-03     209.087E-03    -104.776E-03     55.0228E-03
            2433     4.85974E-03     2.36809E-03    -36.3027E+06    -176.195E+06    -26.0100E+06    -12.7247E+06    -104.741E-03     209.621E-03    -104.880E-03     47.7543E-03    -104.676E-03     208.871E-03    -104.702E-03     47.1231E-03
            2434     4.05002E-03     2.36746E-03    -41.6956E+06    -184.539E+06    -34.9785E+06    -7.47397E+06    -104.660E-03     209.455E-03    -104.796E-03     39.7996E-03    -104.582E-03     208.670E-03    -104.643E-03     39.3298E-03
            2435     3.24008E-03     2.36726E-03    -46.0786E+06    -190.225E+06    -41.3438E+06    -3.55814E+06    -104.597E-03     209.335E-03    -104.739E-03     31.9215E-03    -104.512E-03     208.526E-03    -104.603E-03     31.5861E-03
            2436     2.42998E-03     2.36706E-03    -49.4058E+06    -194.279E+06    -46.0444E+06    -969.090E+03    -104.582E-03     209.289E-03    -104.707E-03     24.0600E-03    -104.494E-03     208.463E-03    -104.583E-03     23.8346E-03
            2437     1.62001E-03     2.36703E-03    -51.4324E+06    -197.021E+06    -49.5454E+06     292.487E+03    -104.599E-03     209.295E-03    -104.696E-03     16.2625E-03    -104.506E-03     208.457E-03    -104.583E-03     16.1253E-03
            2438     809.914E-06     2.36711E-03    -52.3793E+06    -198.901E+06    -52.3217E+06     445.009E+03    -104.538E-03     209.360E-03    -104.821E-03     8.93915E-03    -104.439E-03     208.517E-03    -104.719E-03     8.87027E-03
            2439     15.1345E-03     1.36730E-03    -4.09528E+06     96.9454E+06     81.5807E+06     10.5945E+06    -212.248E-03     335.750E-03    -123.502E-03     237.127E-03    -217.443E-03     341.020E-03    -123.229E-03     224.079E-03
            2440     14.3779E-03     1.28182E-03    -1.24785E+06     89.9663E+06     86.5775E+06     11.9076E+06    -176.477E-03     296.205E-03    -119.728E-03     177.219E-03    -179.548E-03     299.347E-03    -119.424E-03     169.246E-03
            2441     13.5984E-03     1.25183E-03    -1.82720E+06     82.5028E+06     88.1563E+06     4.57490E+06    -148.666E-03     265.881E-03    -117.215E-03     133.728E-03    -150.190E-03     267.434E-03    -116.891E-03     129.401E-03
            2442     12.8172E-03     1.22993E-03    -3.15970E+06     75.4639E+06     80.4306E+06    -1.84682E+06    -134.591E-03     250.149E-03    -115.559E-03     110.691E-03    -135.544E-03     251.122E-03    -115.261E-03     107.811E-03
            2443     12.0290E-03     1.21766E-03    -6.36501E+06     67.2318E+06     58.9268E+06    -2.99339E+06    -126.487E-03     240.836E-03    -114.348E-03     92.9947E-03    -127.116E-03     241.505E-03    -114.142E-03     90.9598E-03
            2444     11.2370E-03     1.20963E-03    -9.95081E+06     56.9846E+06     28.6881E+06    -1.47534E+06    -121.599E-03     235.009E-03    -113.410E-03     80.1406E-03    -122.036E-03     235.525E-03    -113.335E-03     78.6423E-03
            2445     10.4412E-03     1.20435E-03    -12.4178E+06     37.9385E+06    -1.22914E+06    -417.689E+03    -118.412E-03     231.102E-03    -112.690E-03     69.8137E-03    -118.701E-03     231.481E-03    -112.733E-03     68.6935E-03
            2446     9.64214E-03     1.19984E-03    -13.3295E+06     2.80302E+06    -24.9128E+06    -3.51799E+06    -116.239E-03     228.405E-03    -112.166E-03     61.1979E-03    -116.393E-03     228.590E-03    -112.275E-03     60.2821E-03
            2447     8.84193E-03     1.19646E-03    -14.3582E+06    -42.4067E+06    -37.2758E+06    -9.45955E+06    -114.685E-03     226.506E-03    -111.821E-03     53.8199E-03    -114.725E-03     226.449E-03    -111.925E-03     52.9981E-03
            2448     8.04043E-03     1.19396E-03    -17.9428E+06    -83.9196E+06    -43.4415E+06    -13.2432E+06    -113.520E-03     225.111E-03    -111.591E-03     47.4137E-03    -113.485E-03     224.838E-03    -111.661E-03     46.6714E-03
            2449     7.23775E-03     1.19216E-03    -23.1499E+06    -119.775E+06    -46.6446E+06    -14.4580E+06    -112.669E-03     224.109E-03    -111.440E-03     41.6913E-03    -112.587E-03     223.653E-03    -111.466E-03     41.0326E-03
            2450     6.43438E-03     1.19089E-03    -28.7379E+06    -149.616E+06    -44.4474E+06    -13.5672E+06    -112.064E-03     223.428E-03    -111.364E-03     36.4353E-03    -111.958E-03     222.815E-03    -111.327E-03     35.8664E-03
            2451     5.63074E-03     1.19002E-03    -34.3717E+06    -172.019E+06    -41.2009E+06    -10.3040E+06    -111.661E-03     222.986E-03    -111.325E-03     31.5176E-03    -111.547E-03     222.257E-03    -111.232E-03     31.0573E-03
            2452     4.82660E-03     1.18943E-03    -39.3002E+06    -185.981E+06    -39.7269E+06    -6.39124E+06    -111.402E-03     222.701E-03    -111.299E-03     26.8069E-03    -111.288E-03     221.900E-03    -111.171E-03     26.4549E-03
            2453     4.02223E-03     1.18929E-03    -43.0148E+06    -191.631E+06    -41.4189E+06    -2.88370E+06    -111.255E-03     222.523E-03    -111.268E-03     22.2233E-03    -111.143E-03     221.696E-03    -111.135E-03     21.9677E-03
            2454     3.21780E-03     1.18915E-03    -45.6883E+06    -194.261E+06    -43.4944E+06    -725.147E+03    -111.198E-03     222.445E-03    -111.247E-03     17.7478E-03    -111.090E-03     221.608E-03    -111.116E-03     17.5676E-03
            2455     2.41345E-03     1.18909E-03    -47.1227E+06    -195.984E+06    -45.2595E+06    -103.341E+03    -111.184E-03     222.418E-03    -111.235E-03     13.2923E-03    -111.074E-03     221.574E-03    -111.108E-03     13.1631E-03
            2456     1.60885E-03     1.18911E-03    -47.9503E+06    -197.330E+06    -46.9326E+06     84.8425E+03    -111.197E-03     222.425E-03    -111.228E-03     8.90708E-03    -111.085E-03     221.577E-03    -111.107E-03     8.82274E-03
            2457     804.446E-06     1.18893E-03    -48.4305E+06    -198.201E+06    -48.0461E+06     286.319E+03    -111.183E-03     222.442E-03    -111.260E-03     4.74160E-03    -111.067E-03     221.592E-03    -111.142E-03     4.70108E-03


