********************************************************************************
Field Output Report, written Wed May 29 00:26:31 2024

Source 1
---------

   ODB: G:/Abaqus_calc_2019/1740/Vel_5/odb/zeides_2a_24_red_150_cal_30_vel_5_fric_025.odb
   Step: Step-1
   Frame: Increment  12728315: Step Time =    1.669

Loc 1 : Nodal values from source 1

Output sorted by column "Nodal Label".

Field Output reported at nodes for region: DIE_2A_24_D0_36-1.Region_1
   Computation algorithm: EXTRAPOLATE_COMPUTE_AVERAGE
   Averaged at nodes
   Averaging regions: ODB_REGIONS

      Node Label     COORD.COOR1     COORD.COOR2
                          @Loc 1          @Loc 1
-------------------------------------------------
               1     21.4163E-03     116.971E-03


Field Output reported at nodes for region: DIE_2A_24_D0_36-1.Region_2
   Computation algorithm: EXTRAPOLATE_COMPUTE_AVERAGE
   Averaged at nodes
   Averaging regions: ODB_REGIONS

      Node Label     COORD.COOR1     COORD.COOR2
                          @Loc 1          @Loc 1
-------------------------------------------------
               1     21.4163E-03     116.971E-03


Field Output reported at nodes for part: WIRE-1
   Computation algorithm: EXTRAPOLATE_COMPUTE_AVERAGE
   Averaged at nodes
   Averaging regions: ODB_REGIONS

      Node Label     COORD.COOR1     COORD.COOR2           S.S11           S.S22           S.S33           S.S12         PE.PE11         PE.PE22         PE.PE33         PE.PE12         LE.LE11         LE.LE22         LE.LE33         LE.LE12
                          @Loc 1          @Loc 1          @Loc 1          @Loc 1          @Loc 1          @Loc 1          @Loc 1          @Loc 1          @Loc 1          @Loc 1          @Loc 1          @Loc 1          @Loc 1          @Loc 1
-------------------------------------------------------------------------------------------------------------------------------------------------------------------------------------------------------------------------------------------------
               1    -48.1733E-09     56.3624E-03    -14.7836E+06    -59.2148E+06    -14.7558E+06     208.001E+03    -15.4344E-03     30.8307E-03    -15.3963E-03     2.10423E-03    -15.4008E-03     30.5786E-03    -15.3628E-03     2.10656E-03
               2     17.7263E-03     57.2924E-03    -2.65859E+06     160.974E+06     64.7686E+06    -142.355E+03    -18.9497E-03     34.4054E-03    -15.4557E-03     161.926E-03    -22.0550E-03     37.8850E-03    -15.3614E-03     165.211E-03
               3     17.5205E-03     114.080E-03     14.6525E+06    -15.4859E+06     18.1209E+06     8.69005E+06     11.2989E-03     11.1138E-03    -22.4127E-03     1.58639E-03     11.3462E-03     10.9667E-03    -22.3209E-03     1.69831E-03
               4    -937.591E-09     112.983E-03     19.9476E+06     1.50970E+06     19.4678E+06    -1.76447E+06    -18.3478E-03     37.1804E-03    -18.8326E-03    -1.14871E-03    -18.2775E-03     37.1330E-03    -18.7663E-03    -1.16896E-03
               5     81.5377E-09    -1.13798E-15    -9.07362E+06    -38.9288E+06    -8.70019E+06     1.62809E+06    -13.0713E-03     26.1409E-03    -13.0696E-03     185.405E-06    -13.0428E-03     25.9734E-03    -13.0435E-03     211.498E-06
               6     17.6382E-03    -1.13798E-15    -6.65455E+06     75.9584E+06     55.3109E+06     14.5344E+06    -46.3146E-03     64.6237E-03    -18.3091E-03     52.1771E-03    -46.6616E-03     65.0529E-03    -18.1330E-03     52.1062E-03
               7     886.280E-06     56.3644E-03    -14.3719E+06    -59.3550E+06    -13.4890E+06     165.554E+03    -15.4247E-03     30.8350E-03    -15.4103E-03     3.54287E-03    -15.3907E-03     30.5792E-03    -15.3709E-03     3.54450E-03
               8     1.77252E-03     56.3690E-03    -13.4894E+06    -58.0907E+06    -11.3036E+06     94.7145E+03    -15.4157E-03     30.8402E-03    -15.4245E-03     6.58246E-03    -15.3825E-03     30.5858E-03    -15.3773E-03     6.58280E-03
               9     2.65881E-03     56.3767E-03    -12.5233E+06    -56.4668E+06    -9.11731E+06     207.890E+03    -15.4192E-03     30.8472E-03    -15.4280E-03     9.84549E-03    -15.3868E-03     30.5963E-03    -15.3735E-03     9.84686E-03
              10     3.54509E-03     56.3874E-03    -11.4261E+06    -54.6125E+06    -6.40111E+06     28.7049E+03    -15.4287E-03     30.8617E-03    -15.4330E-03     13.2447E-03    -15.3977E-03     30.6148E-03    -15.3693E-03     13.2432E-03
              11     4.43139E-03     56.4013E-03    -9.97999E+06    -52.1296E+06    -3.17208E+06    -208.269E+03    -15.4551E-03     30.8949E-03    -15.4399E-03     16.7926E-03    -15.4253E-03     30.6539E-03    -15.3657E-03     16.7874E-03
              12     5.31768E-03     56.4186E-03    -8.57230E+06    -53.5529E+06    -36.5495E+03     22.1792E+03    -15.5085E-03     30.9628E-03    -15.4543E-03     20.4795E-03    -15.4745E-03     30.7084E-03    -15.3644E-03     20.4766E-03
              13     6.20394E-03     56.4394E-03    -7.94086E+06    -52.1213E+06     1.22288E+06    -164.033E+03    -15.5592E-03     31.0174E-03    -15.4582E-03     24.3783E-03    -15.5264E-03     30.7678E-03    -15.3650E-03     24.3721E-03
              14     7.09019E-03     56.4640E-03    -7.51918E+06    -50.1670E+06     1.59204E+06    -69.0769E+03    -15.6075E-03     31.0647E-03    -15.4571E-03     28.4892E-03    -15.5766E-03     30.8244E-03    -15.3655E-03     28.4831E-03
              15     7.97648E-03     56.4924E-03    -5.80837E+06    -51.6638E+06     3.17484E+06    -5.58689E+03    -15.6809E-03     31.1457E-03    -15.4648E-03     32.7078E-03    -15.6425E-03     30.8941E-03    -15.3656E-03     32.7009E-03
              16     8.86275E-03     56.5248E-03    -3.60046E+06    -46.4378E+06     4.35069E+06    -647.423E+03    -15.7527E-03     31.2123E-03    -15.4596E-03     37.0567E-03    -15.7142E-03     30.9835E-03    -15.3653E-03     37.0393E-03
              17     9.74907E-03     56.5613E-03    -2.76146E+06    -47.0678E+06     4.75075E+06    -379.338E+03    -15.8568E-03     31.3181E-03    -15.4614E-03     41.3588E-03    -15.8163E-03     31.0870E-03    -15.3654E-03     41.3417E-03
              18     10.6353E-03     56.6016E-03    -2.70461E+06    -50.2107E+06     3.03504E+06     175.984E+03    -15.9731E-03     31.4319E-03    -15.4588E-03     45.5344E-03    -15.9293E-03     31.1915E-03    -15.3669E-03     45.5203E-03
              19     11.5216E-03     56.6459E-03    -2.11586E+06    -39.6733E+06     3.40301E+06     182.146E+03    -16.0486E-03     31.4946E-03    -15.4460E-03     50.0116E-03    -16.0240E-03     31.3118E-03    -15.3684E-03     49.9924E-03
              20     12.4077E-03     56.6946E-03    -1.57423E+06    -36.1948E+06     2.16755E+06     273.414E+03    -16.2082E-03     31.6423E-03    -15.4340E-03     56.8011E-03    -16.1967E-03     31.4903E-03    -15.3684E-03     56.7762E-03
              21     13.2943E-03     56.7516E-03    -1.39224E+06    -36.3313E+06    -7.00772E+06     502.812E+03    -16.3820E-03     31.7706E-03    -15.3886E-03     61.7705E-03    -16.3759E-03     31.6509E-03    -15.3689E-03     61.7405E-03
              22     14.1801E-03     56.8094E-03    -1.68429E+06    -13.8726E+06    -7.10439E+06     912.223E+03    -16.4027E-03     31.7591E-03    -15.3563E-03     65.3435E-03    -16.4602E-03     31.7819E-03    -15.3693E-03     65.3154E-03
              23     15.0676E-03     56.8732E-03    -2.38144E+06     22.7548E+06    -5.13859E+06     1.38073E+06    -17.4128E-03     32.7271E-03    -15.3143E-03     91.3980E-03    -17.6866E-03     33.0881E-03    -15.3696E-03     91.3950E-03
              24     15.9526E-03     56.9797E-03    -3.51769E+06     69.7128E+06    -11.2359E+06     129.086E+03    -19.5904E-03     34.8096E-03    -15.2192E-03     142.811E-03    -20.9373E-03     36.4240E-03    -15.3713E-03     143.208E-03
              25     16.8364E-03     57.1393E-03    -3.53395E+06     129.507E+06     25.4434E+06    -729.271E+03    -19.8404E-03     35.1519E-03    -15.3115E-03     166.552E-03    -22.5222E-03     38.2071E-03    -15.3670E-03     168.582E-03
              26     17.7249E-03     58.2726E-03    -4.61261E+06     159.167E+06     63.5650E+06     451.664E+03    -19.5785E-03     35.0235E-03    -15.4450E-03     161.900E-03    -22.7014E-03     38.5108E-03    -15.3513E-03     165.165E-03
              27     17.7265E-03     59.2495E-03    -973.351E+03     161.624E+06     61.3156E+06     1.76524E+06    -18.5241E-03     33.9631E-03    -15.4390E-03     161.208E-03    -21.6007E-03     37.4322E-03    -15.3654E-03     164.518E-03
              28     17.7255E-03     60.2272E-03    -1.64145E+06     165.428E+06     56.2707E+06     1.21040E+06    -18.4300E-03     33.8433E-03    -15.4133E-03     162.424E-03    -21.5305E-03     37.3621E-03    -15.3694E-03     165.728E-03
              29     17.7260E-03     61.2052E-03    -1.77103E+06     164.965E+06     53.4911E+06     725.219E+03    -18.4774E-03     33.8708E-03    -15.3934E-03     160.564E-03    -21.5514E-03     37.3690E-03    -15.3626E-03     163.850E-03
              30     17.7262E-03     62.1792E-03    -2.19204E+06     164.232E+06     51.8529E+06    -824.619E+03    -18.1976E-03     33.5827E-03    -15.3850E-03     159.281E-03    -21.2483E-03     37.0582E-03    -15.3607E-03     162.573E-03
              31     17.7257E-03     63.1599E-03    -2.19661E+06     161.778E+06     63.1477E+06    -1.51118E+06    -18.8815E-03     34.3265E-03    -15.4450E-03     160.384E-03    -21.9686E-03     37.7970E-03    -15.3606E-03     163.632E-03
              32     17.7254E-03     64.1382E-03     1.11518E+06     160.373E+06     70.9907E+06    -703.854E+03    -19.0340E-03     34.5158E-03    -15.4819E-03     162.015E-03    -22.1494E-03     37.9987E-03    -15.3611E-03     165.292E-03
              33     17.7265E-03     65.1153E-03     543.807E+03     163.242E+06     58.0336E+06     414.341E+03    -18.8838E-03     34.2797E-03    -15.3959E-03     162.060E-03    -21.9855E-03     37.7946E-03    -15.3432E-03     165.377E-03
              34     17.7262E-03     66.0946E-03    -1.90519E+06     165.345E+06     53.2110E+06     307.494E+03    -18.5398E-03     33.9251E-03    -15.3854E-03     162.153E-03    -21.6378E-03     37.4491E-03    -15.3563E-03     165.467E-03
              35     17.7254E-03     67.0720E-03    -2.52760E+06     165.011E+06     56.1276E+06     988.084E+03    -18.5924E-03     34.0093E-03    -15.4169E-03     163.131E-03    -21.7153E-03     37.5463E-03    -15.3719E-03     166.447E-03
              36     17.7262E-03     68.0472E-03    -1.78146E+06     165.816E+06     54.7494E+06     924.095E+03    -19.2226E-03     34.6002E-03    -15.3776E-03     160.797E-03    -22.3018E-03     38.1030E-03    -15.3417E-03     164.068E-03
              37     17.7261E-03     69.0264E-03    -3.83585E+06     165.748E+06     58.2256E+06    -902.235E+03    -19.1104E-03     34.5090E-03    -15.3986E-03     159.263E-03    -22.1767E-03     37.9813E-03    -15.3423E-03     162.508E-03
              38     17.7254E-03     70.0058E-03    -1.86183E+06     163.884E+06     70.5618E+06    -934.789E+03    -18.9455E-03     34.4414E-03    -15.4959E-03     161.579E-03    -22.0646E-03     37.9310E-03    -15.3780E-03     164.845E-03
              39     17.7249E-03     70.9837E-03     1.12851E+06     163.959E+06     63.3881E+06     617.699E+03    -18.6475E-03     34.1086E-03    -15.4611E-03     161.815E-03    -21.7423E-03     37.6056E-03    -15.3835E-03     165.112E-03
              40     17.7268E-03     71.9586E-03     782.001E+03     167.430E+06     51.1314E+06     914.107E+03    -18.6663E-03     34.0282E-03    -15.3619E-03     160.873E-03    -21.7291E-03     37.5399E-03    -15.3501E-03     164.183E-03
              41     17.7258E-03     72.9393E-03    -3.61052E+06     168.031E+06     56.7612E+06     9.75503E+03    -19.0241E-03     34.4228E-03    -15.3988E-03     161.084E-03    -22.1190E-03     37.9369E-03    -15.3534E-03     164.358E-03
              42     17.7251E-03     73.9185E-03    -2.36241E+06     165.957E+06     64.6002E+06     41.6246E+03    -18.6175E-03     34.0842E-03    -15.4667E-03     162.265E-03    -21.7495E-03     37.6097E-03    -15.3809E-03     165.571E-03
              43     17.7264E-03     74.8908E-03     230.399E+03     166.839E+06     59.6917E+06    -877.398E+03    -18.8790E-03     34.2847E-03    -15.4057E-03     159.823E-03    -21.9589E-03     37.7846E-03    -15.3495E-03     163.111E-03
              44     17.7259E-03     75.8722E-03    -2.30349E+06     165.590E+06     63.3273E+06     67.4723E+03    -19.1454E-03     34.5831E-03    -15.4377E-03     160.032E-03    -22.2330E-03     38.0668E-03    -15.3578E-03     163.302E-03
              45     17.7245E-03     76.8548E-03    -469.631E+03     168.424E+06     64.1454E+06     3.37167E+06    -18.6226E-03     34.1006E-03    -15.4779E-03     165.404E-03    -21.8070E-03     37.6952E-03    -15.4007E-03     168.780E-03
              46     17.7264E-03     77.8267E-03    -2.96965E+06     173.339E+06     57.7663E+06     326.599E+03    -18.6066E-03     34.0276E-03    -15.4210E-03     162.819E-03    -21.7545E-03     37.6129E-03    -15.3792E-03     166.153E-03
              47     17.7252E-03     78.8039E-03    -1.03576E+06     172.675E+06     56.4288E+06    -1.46670E+06    -18.7808E-03     34.1707E-03    -15.3899E-03     159.903E-03    -21.8450E-03     37.6806E-03    -15.3566E-03     163.164E-03
              48     17.7266E-03     79.7853E-03    -1.53402E+06     171.092E+06     51.5915E+06    -987.051E+03    -19.2251E-03     34.5867E-03    -15.3616E-03     163.976E-03    -22.3594E-03     38.1733E-03    -15.3495E-03     167.239E-03
              49     17.7252E-03     80.7642E-03    -932.694E+03     169.317E+06     61.4803E+06    -309.134E+03    -18.6566E-03     34.0847E-03    -15.4281E-03     163.706E-03    -21.7951E-03     37.6427E-03    -15.3649E-03     167.008E-03
              50     17.7265E-03     81.7377E-03    -720.535E+03     170.188E+06     61.8403E+06     909.052E+03    -18.2438E-03     33.6805E-03    -15.4367E-03     161.903E-03    -21.3496E-03     37.2087E-03    -15.3732E-03     165.248E-03
              51     17.7253E-03     82.7153E-03    -2.16279E+06     172.054E+06     46.2308E+06     1.02874E+06    -18.8704E-03     34.2034E-03    -15.3330E-03     160.232E-03    -21.9278E-03     37.7300E-03    -15.3482E-03     163.513E-03
              52     17.7269E-03     83.6950E-03    -1.62389E+06     172.071E+06     47.4475E+06    -735.268E+03    -18.9172E-03     34.2537E-03    -15.3365E-03     161.054E-03    -21.9982E-03     37.8023E-03    -15.3465E-03     164.322E-03
              53     17.7249E-03     84.6724E-03    -1.19954E+06     169.558E+06     59.1173E+06    -338.392E+03    -18.8301E-03     34.2346E-03    -15.4045E-03     161.706E-03    -21.9418E-03     37.7726E-03    -15.3530E-03     165.001E-03
              54     17.7270E-03     85.6502E-03    -1.41957E+06     169.253E+06     54.6522E+06    -140.286E+03    -18.7701E-03     34.1473E-03    -15.3773E-03     161.658E-03    -21.8700E-03     37.6847E-03    -15.3474E-03     164.951E-03
              55     17.7254E-03     86.6281E-03    -2.35068E+06     169.738E+06     60.3365E+06    -93.2116E+03    -19.0542E-03     34.4622E-03    -15.4080E-03     161.565E-03    -22.1679E-03     37.9953E-03    -15.3491E-03     164.842E-03
              56     17.7259E-03     87.6070E-03    -1.47385E+06     168.407E+06     55.6964E+06    -37.9144E+03    -18.6930E-03     34.0876E-03    -15.3946E-03     160.734E-03    -21.7830E-03     37.6088E-03    -15.3581E-03     164.024E-03
              57     17.7264E-03     88.5809E-03    -162.108E+03     168.258E+06     50.8510E+06    -1.35452E+06    -18.8670E-03     34.2030E-03    -15.3360E-03     160.122E-03    -21.9451E-03     37.7304E-03    -15.3255E-03     163.408E-03
              58     17.7267E-03     89.5624E-03    -210.340E+03     167.795E+06     46.3658E+06     901.266E+03    -18.4769E-03     33.7834E-03    -15.3064E-03     160.798E-03    -21.5355E-03     37.3024E-03    -15.3176E-03     164.105E-03
              59     17.7270E-03     90.5417E-03    -536.486E+03     170.882E+06     30.5590E+06     1.72156E+06    -18.2821E-03     33.4990E-03    -15.2169E-03     166.551E-03    -21.4220E-03     37.1550E-03    -15.3111E-03     169.918E-03
              60     17.7277E-03     91.5170E-03    -2.89396E+06     172.338E+06     40.9657E+06    -305.908E+03    -19.4190E-03     34.6500E-03    -15.2310E-03     163.416E-03    -22.5392E-03     38.2530E-03    -15.2719E-03     166.677E-03
              61     17.7262E-03     92.4940E-03    -1.48325E+06     168.983E+06     33.6980E+06    -395.678E+03    -19.1526E-03     34.3367E-03    -15.1841E-03     159.199E-03    -22.1725E-03     37.8536E-03    -15.2585E-03     162.435E-03
              62     17.7294E-03     93.4695E-03    -661.010E+03     167.793E+06     29.8018E+06    -1.30596E+06    -19.5996E-03     34.7190E-03    -15.1194E-03     158.923E-03    -22.6070E-03     38.2333E-03    -15.2127E-03     162.140E-03
              63     17.7269E-03     94.4529E-03    -3.36388E+06     163.497E+06     52.3114E+06    -2.30142E+06    -19.7168E-03     34.9547E-03    -15.2379E-03     158.498E-03    -22.7636E-03     38.4183E-03    -15.2085E-03     161.678E-03
              64     17.7287E-03     95.4293E-03     2.50564E+06     159.492E+06     36.2558E+06     148.656E+03    -19.2610E-03     34.3967E-03    -15.1357E-03     160.849E-03    -22.3031E-03     37.9089E-03    -15.1893E-03     164.122E-03
              65     17.7301E-03     96.4053E-03    -460.233E+03     163.800E+06     26.2005E+06    -124.071E+03    -21.2183E-03     36.2013E-03    -14.9830E-03     161.042E-03    -24.2656E-03     39.7527E-03    -15.0889E-03     164.235E-03
              66     17.7290E-03     97.3951E-03    -2.36339E+06     165.343E+06     38.5332E+06     1.06944E+06    -21.4848E-03     36.5271E-03    -15.0422E-03     162.275E-03    -24.5829E-03     40.0921E-03    -15.0859E-03     165.445E-03
              67     17.7297E-03     98.3679E-03    -2.68415E+06     162.128E+06     35.7756E+06    -125.139E+03    -20.6852E-03     35.7295E-03    -15.0444E-03     161.263E-03    -23.7602E-03     39.2668E-03    -15.0967E-03     164.445E-03
              68     17.7300E-03     99.3438E-03     824.574E+03     160.437E+06     35.8668E+06    -1.40135E+06    -22.5186E-03     37.4746E-03    -14.9560E-03     155.777E-03    -25.4662E-03     40.8908E-03    -15.0105E-03     158.799E-03
              69     17.7308E-03     100.330E-03    -2.66422E+06     157.139E+06     40.8816E+06    -1.79096E+06    -23.8524E-03     38.7931E-03    -14.9407E-03     156.270E-03    -26.8239E-03     42.1945E-03    -14.9603E-03     159.199E-03
              70     17.7300E-03     101.315E-03    -2.46528E+06     152.767E+06     41.7234E+06    -1.51167E+06    -24.5870E-03     39.5164E-03    -14.9294E-03     160.961E-03    -27.6411E-03     42.9832E-03    -14.9388E-03     163.877E-03
              71     17.7315E-03     102.298E-03     466.966E+03     151.215E+06     51.1633E+06    -1.39197E+06    -26.0455E-03     40.9659E-03    -14.9203E-03     161.651E-03    -29.0899E-03     44.4003E-03    -14.8844E-03     164.466E-03
              72     17.7306E-03     103.284E-03    -2.35914E+06     146.409E+06     54.7671E+06    -3.69972E+06    -27.8347E-03     42.7177E-03    -14.8831E-03     162.352E-03    -30.8833E-03     46.1190E-03    -14.8181E-03     165.003E-03
              73     17.7325E-03     104.272E-03     3.04993E+06     143.137E+06     69.3379E+06     1.02411E+06    -30.6485E-03     45.5498E-03    -14.9013E-03     164.797E-03    -33.7160E-03     48.9355E-03    -14.7666E-03     167.334E-03
              74     17.7286E-03     105.266E-03     3.62985E+06     145.215E+06     86.9669E+06     9.05108E+06    -32.0840E-03     47.0603E-03    -14.9763E-03     164.273E-03    -35.1961E-03     50.4483E-03    -14.7573E-03     166.746E-03
              75     17.7324E-03     106.248E-03    -15.6127E+06     128.718E+06     69.3788E+06    -4.78519E+06    -34.3107E-03     49.1321E-03    -14.8214E-03     163.700E-03    -37.4537E-03     52.4754E-03    -14.6385E-03     165.815E-03
              76     17.7328E-03     107.246E-03      -22.03E+03     124.414E+06     73.6276E+06    -9.58693E+06    -38.0541E-03     52.6972E-03    -14.6431E-03     167.990E-03    -41.0747E-03     55.9478E-03    -14.4553E-03     169.697E-03
              77     17.7353E-03     108.258E-03     7.07731E+06     121.851E+06     72.2354E+06    -9.21548E+06    -41.6920E-03     56.2214E-03    -14.5293E-03     191.929E-03    -44.9867E-03     59.7671E-03    -14.3551E-03     193.277E-03
              78     17.7343E-03     109.268E-03    -4.68710E+06     102.395E+06     47.0777E+06    -8.20482E+06    -44.9672E-03     59.3356E-03    -14.3684E-03     211.547E-03    -48.4512E-03     63.0313E-03    -14.2746E-03     212.527E-03
              79     17.7368E-03     110.264E-03    -15.5670E+06     76.7721E+06     10.9792E+06    -14.7534E+06    -41.0149E-03     55.3013E-03    -14.2864E-03     212.642E-03    -44.0079E-03     58.4795E-03    -14.3202E-03     213.266E-03
              80     17.7375E-03     111.251E-03     4.66654E+06     33.3732E+06     1.42924E+06    -24.4843E+06    -26.0168E-03     40.5897E-03    -14.5729E-03     204.131E-03    -27.8231E-03     42.5285E-03    -14.6209E-03     204.478E-03
              81     17.7392E-03     112.206E-03     10.0909E+06     3.17789E+06     5.79026E+06    -9.11073E+06     75.1493E-06     15.6121E-03    -15.6873E-03     162.349E-03    -485.545E-06     16.2103E-03    -15.6776E-03     162.542E-03
              82     17.7029E-03     113.122E-03    -8.56809E+06    -10.3188E+06     4.38072E+06     2.47410E+06     13.6178E-03     5.85058E-03    -19.4684E-03     66.1941E-03     13.5250E-03     5.84708E-03    -19.4191E-03     66.2649E-03
              83     16.6496E-03     113.919E-03    -1.93769E+06     17.2065E+06     38.1301E+06     3.20794E+06     8.08201E-03     14.9259E-03    -23.0079E-03     13.4001E-03     7.98183E-03     14.9494E-03    -22.8394E-03     13.4412E-03
              84     15.7510E-03     113.791E-03    -15.5695E+06    -431.188E+03     46.9596E+06    -3.43119E+06    -8.20030E-03     31.9849E-03    -23.7846E-03     23.3317E-03    -8.34946E-03     31.9360E-03    -23.5266E-03     23.2814E-03
              85     14.8861E-03     113.649E-03    -5.66368E+06    -6.74812E+06     43.6731E+06    -7.28540E+06    -20.5517E-03     44.3449E-03    -23.7932E-03     14.1885E-03    -20.6433E-03     44.2496E-03    -23.5568E-03     14.0840E-03
              86     14.0235E-03     113.537E-03     1.39976E+06     1.32248E+06     45.1412E+06    -7.00506E+06    -20.8301E-03     44.3832E-03    -23.5531E-03     5.32856E-03    -20.8970E-03     44.3173E-03    -23.3313E-03     5.22923E-03
              87     13.1498E-03     113.452E-03     4.58292E+06    -5.39924E+06     46.6118E+06    -3.38805E+06    -24.0479E-03     47.3648E-03    -23.3169E-03     2.13570E-03    -24.0881E-03     47.2612E-03    -23.0826E-03     2.08254E-03
              88     12.2824E-03     113.374E-03     8.27156E+06     1.41633E+06     46.8358E+06    -2.75938E+06    -27.0191E-03     49.8971E-03    -22.8781E-03     28.5534E-06    -27.0509E-03     49.8217E-03    -22.6579E-03    -17.1635E-06
              89     11.4135E-03     113.308E-03     10.6097E+06    -2.78585E+06     44.2333E+06    -2.41623E+06    -27.6739E-03     49.9787E-03    -22.3049E-03    -748.629E-06    -27.6835E-03     49.8832E-03    -22.0950E-03    -789.325E-06
              90     10.5447E-03     113.249E-03     12.6937E+06     994.568E+03     45.1881E+06    -2.11057E+06    -27.0065E-03     48.7110E-03    -21.7045E-03    -942.292E-06    -27.0120E-03     48.6302E-03    -21.4984E-03    -977.786E-06
              91     9.67268E-03     113.201E-03     13.9076E+06    -1.57470E+06     43.5098E+06    -1.75093E+06    -25.7325E-03     46.8624E-03    -21.1299E-03    -866.245E-06    -25.7254E-03     46.7700E-03    -20.9303E-03    -895.591E-06
              92     8.79944E-03     113.158E-03     14.6997E+06     786.216E+03     42.0351E+06    -1.48431E+06    -24.3470E-03     44.9551E-03    -20.6081E-03    -705.517E-06    -24.3369E-03     44.8756E-03    -20.4203E-03    -729.997E-06
              93     7.92361E-03     113.122E-03     14.9287E+06    -802.909E+03     39.0277E+06    -1.43564E+06    -23.0793E-03     43.2297E-03    -20.1504E-03    -422.864E-06    -23.0611E-03     43.1465E-03    -19.9757E-03    -445.532E-06
              94     7.04674E-03     113.091E-03     15.4561E+06     515.015E+03     36.7714E+06    -1.53015E+06    -21.9374E-03     41.6948E-03    -19.7574E-03    -169.576E-06    -21.9150E-03     41.6208E-03    -19.5967E-03    -192.605E-06
              95     6.16815E-03     113.065E-03     16.0246E+06     -706.26E+03     32.8792E+06    -1.44419E+06    -20.9576E-03     40.3834E-03    -19.4258E-03    -4.98124E-06    -20.9248E-03     40.3083E-03    -19.2836E-03    -26.2183E-06
              96     5.28858E-03     113.042E-03     16.5547E+06     372.128E+03     29.9661E+06    -1.37008E+06    -20.1603E-03     39.3198E-03    -19.1595E-03     19.9303E-06    -20.1221E-03     39.2536E-03    -19.0342E-03     223.610E-09
              97     4.40810E-03     113.024E-03     17.1850E+06    -515.640E+03     26.9670E+06    -1.42298E+06    -19.5533E-03     38.5075E-03    -18.9542E-03    -31.9479E-06    -19.5063E-03     38.4403E-03    -18.8436E-03    -51.8185E-06
              98     3.52702E-03     113.010E-03     18.0289E+06     -32.547E+03     23.8670E+06    -1.16914E+06    -19.1061E-03     37.9067E-03    -18.8005E-03    -8.22078E-06    -19.0511E-03     37.8452E-03    -18.7073E-03    -24.4008E-06
              99     2.64551E-03     112.998E-03     18.6221E+06    -452.135E+03     21.9763E+06    -898.107E+03    -18.8286E-03     37.5305E-03    -18.7019E-03    -81.4401E-06    -18.7672E-03     37.4689E-03    -18.6183E-03    -93.8566E-06
             100     1.76346E-03     112.990E-03     19.1572E+06    -138.984E+03     20.3709E+06    -768.608E+03    -18.6939E-03     37.3285E-03    -18.6346E-03    -114.238E-06    -18.6279E-03     37.2700E-03    -18.5603E-03    -124.623E-06
             101     881.640E-06     112.985E-03     19.7328E+06    -405.760E+03     18.9214E+06    -1.33211E+06    -18.4823E-03     37.2002E-03    -18.7179E-03    -580.434E-06    -18.4103E-03     37.1429E-03    -18.6513E-03    -596.469E-06
             102     509.845E-09     111.998E-03     16.9265E+06    -1.32878E+06     16.2252E+06    -591.919E+03    -16.9205E-03     33.8926E-03    -16.9721E-03     29.0518E-06    -16.8562E-03     33.8399E-03    -16.9136E-03     22.6927E-06
             103    -177.996E-09     111.020E-03     12.6030E+06    -3.11832E+06     12.9177E+06     260.233E+03    -14.3804E-03     28.5504E-03    -14.1700E-03     1.04690E-03    -14.3302E-03     28.4995E-03    -14.1192E-03     1.05026E-03
             104     221.216E-09     110.048E-03     7.67566E+06    -5.81882E+06     8.61585E+06    -1.65997E+06    -12.4706E-03     24.9799E-03    -12.5094E-03     1.25590E-03    -12.4355E-03     24.9287E-03    -12.4690E-03     1.23428E-03
             105    -324.012E-09     109.076E-03    -1.33619E+06    -11.8215E+06    -1.45077E+06    -1.96317E+06    -11.2043E-03     22.5515E-03    -11.3472E-03     1.66719E-03    -11.1911E-03     22.4978E-03    -11.3354E-03     1.64157E-03
             106     169.048E-09     108.108E-03    -11.8425E+06    -18.2878E+06    -11.7041E+06    -2.11095E+06    -10.5477E-03     21.1882E-03    -10.6405E-03     1.71627E-03    -10.5629E-03     21.1321E-03    -10.6553E-03     1.68874E-03
             107    -179.976E-09     107.139E-03    -25.9597E+06    -25.2260E+06    -26.2250E+06    -1.88062E+06    -10.3109E-03     20.6112E-03    -10.3003E-03     1.86332E-03    -10.3657E-03     20.5619E-03    -10.3572E-03     1.83871E-03
             108     204.591E-09     106.172E-03    -43.7006E+06    -31.6312E+06    -43.3840E+06    -1.91155E+06    -10.3505E-03     20.6080E-03    -10.2575E-03     2.11013E-03    -10.4599E-03     20.5772E-03    -10.3652E-03     2.08517E-03
             109    -62.4023E-09     105.203E-03    -60.7070E+06    -38.5616E+06    -60.6501E+06    -2.19667E+06    -10.5567E-03     20.9826E-03    -10.4258E-03     2.19940E-03    -10.7160E-03     20.9668E-03    -10.5851E-03     2.17071E-03
             110     151.235E-09     104.235E-03    -68.4667E+06    -44.6700E+06    -68.4890E+06    -1.55794E+06    -10.9190E-03     21.7828E-03    -10.8638E-03     2.19978E-03    -11.0969E-03     21.7592E-03    -11.0422E-03     2.17942E-03
             111    -144.724E-09     103.265E-03    -57.6054E+06    -47.1636E+06    -58.4242E+06    -328.731E+03    -11.4528E-03     22.9168E-03    -11.4640E-03     2.19613E-03    -11.5875E-03     22.8503E-03    -11.6042E-03     2.19176E-03
             112     106.488E-09     102.295E-03    -45.2533E+06    -44.7475E+06    -45.6142E+06     1.86897E+06    -12.0017E-03     24.0108E-03    -12.0091E-03     2.22530E-03    -12.0967E-03     23.9200E-03    -12.1067E-03     2.24913E-03
             113    -88.2591E-09     101.323E-03    -36.5844E+06    -38.5227E+06    -36.5145E+06     2.45259E+06    -12.5473E-03     25.0673E-03    -12.5199E-03     2.23704E-03    -12.6211E-03     24.9818E-03    -12.5936E-03     2.26844E-03
             114     116.595E-09     100.350E-03    -30.4434E+06    -30.1602E+06    -30.7464E+06     2.60989E+06    -13.0223E-03     26.0929E-03    -13.0705E-03     2.17692E-03    -13.0860E-03     26.0320E-03    -13.1364E-03     2.21033E-03
             115    -236.582E-09     99.3762E-03    -26.4903E+06    -22.3046E+06    -26.0409E+06     2.09636E+06    -13.4507E-03     26.9846E-03    -13.5338E-03     2.08662E-03    -13.5128E-03     26.9504E-03    -13.5933E-03     2.11333E-03
             116     211.771E-09     98.4015E-03    -20.8745E+06    -17.3454E+06    -20.5780E+06     813.672E+03    -13.8836E-03     27.7724E-03    -13.8888E-03     2.15241E-03    -13.9327E-03     27.7470E-03    -13.9363E-03     2.16256E-03
             117    -195.314E-09     97.4263E-03    -16.4715E+06    -16.4255E+06    -16.2859E+06    -198.901E+03    -14.2209E-03     28.4667E-03    -14.2457E-03     2.12555E-03    -14.2556E-03     28.4333E-03    -14.2795E-03     2.12281E-03
             118     134.596E-09     96.4503E-03    -14.3213E+06    -17.8979E+06    -14.0557E+06    -962.416E+03    -14.5339E-03     29.0455E-03    -14.5116E-03     2.04339E-03    -14.5590E-03     28.9984E-03    -14.5351E-03     2.03082E-03
             119    -33.4102E-09     95.4740E-03    -11.8586E+06    -20.8004E+06    -12.1583E+06    -986.403E+03    -14.7991E-03     29.5315E-03    -14.7324E-03     2.12739E-03    -14.8103E-03     29.4635E-03    -14.7458E-03     2.11443E-03
             120     44.6059E-09     94.4969E-03    -9.49158E+06    -22.6776E+06    -9.81836E+06     80.5490E+03    -14.9240E-03     29.8669E-03    -14.9429E-03     2.10392E-03    -14.9241E-03     29.7827E-03    -14.9453E-03     2.10478E-03
             121    -95.4284E-09     93.5201E-03    -10.1551E+06    -23.6642E+06    -9.69952E+06    -376.135E+03    -15.0104E-03     30.1190E-03    -15.1086E-03     2.12187E-03    -15.0126E-03     30.0307E-03    -15.1080E-03     2.11683E-03
             122    -24.9725E-09     92.5425E-03    -11.8888E+06    -26.8188E+06    -11.7839E+06    -1.56857E+06    -15.1366E-03     30.3367E-03    -15.2001E-03     2.12995E-03    -15.1398E-03     30.2382E-03    -15.2029E-03     2.10953E-03
             123     31.5253E-09     91.5652E-03    -10.0729E+06    -31.6105E+06    -10.3856E+06    -1.28375E+06    -15.2875E-03     30.5025E-03    -15.2151E-03     2.20310E-03    -15.2768E-03     30.3754E-03    -15.2066E-03     2.18641E-03
             124     84.1881E-09     90.5874E-03    -6.54729E+06    -34.1784E+06    -6.78936E+06    -292.669E+03    -15.3986E-03     30.6815E-03    -15.2828E-03     2.29632E-03    -15.3718E-03     30.5311E-03    -15.2577E-03     2.29234E-03
             125    -107.214E-12     89.6098E-03    -7.74251E+06    -35.2799E+06    -7.59977E+06    -265.032E+03    -15.4134E-03     30.7667E-03    -15.3532E-03     2.17789E-03    -15.3897E-03     30.6137E-03    -15.3289E-03     2.17423E-03
             126     21.7783E-09     88.6321E-03    -12.1492E+06    -37.8093E+06    -11.6553E+06    -1.23239E+06    -15.4145E-03     30.7979E-03    -15.3834E-03     1.91644E-03    -15.4033E-03     30.6446E-03    -15.3693E-03     1.90044E-03
             127     15.1393E-09     87.6546E-03    -11.3643E+06    -42.3743E+06    -11.3677E+06    -1.99791E+06    -15.4723E-03     30.9361E-03    -15.4638E-03     1.79040E-03    -15.4510E-03     30.7584E-03    -15.4427E-03     1.76445E-03
             128    -38.9036E-09     86.6763E-03    -6.97061E+06    -47.0464E+06    -7.65197E+06    -1.08228E+06    -15.5266E-03     31.0831E-03    -15.5565E-03     1.86719E-03    -15.4819E-03     30.8702E-03    -15.5164E-03     1.85304E-03
             129    -57.7410E-12     85.6984E-03    -9.75403E+06    -50.4611E+06    -9.55210E+06    -750.716E+03    -15.5445E-03     31.1067E-03    -15.5623E-03     2.00878E-03    -15.5061E-03     30.8835E-03    -15.5227E-03     1.99883E-03
             130     7.67214E-09     84.7201E-03    -14.0888E+06    -52.3885E+06    -14.5327E+06    -236.832E+03    -15.5247E-03     31.0499E-03    -15.5252E-03     2.12487E-03    -15.4979E-03     30.8306E-03    -15.5015E-03     2.12146E-03
             131    -23.6550E-09     83.7423E-03    -15.8765E+06    -50.8447E+06    -16.1079E+06     1.05136E+06    -15.4823E-03     31.0123E-03    -15.5300E-03     2.15555E-03    -15.4644E-03     30.8056E-03    -15.5138E-03     2.16877E-03
             132    -50.1015E-09     82.7642E-03    -16.9747E+06    -48.2111E+06    -16.7286E+06     722.122E+03    -15.4847E-03     30.9999E-03    -15.5152E-03     2.11486E-03    -15.4753E-03     30.8089E-03    -15.5043E-03     2.12386E-03
             133     70.3343E-09     81.7864E-03    -18.0684E+06    -47.7343E+06    -17.8247E+06    -204.210E+03    -15.5341E-03     30.9640E-03    -15.4300E-03     2.10245E-03    -15.5292E-03     30.7786E-03    -15.4237E-03     2.09948E-03
             134     94.3727E-09     80.8084E-03    -17.4864E+06    -49.6227E+06    -17.2368E+06    -902.702E+03    -15.5757E-03     30.9732E-03    -15.3975E-03     2.12842E-03    -15.5660E-03     30.7766E-03    -15.3864E-03     2.11646E-03
             135     57.1445E-09     79.8307E-03    -15.8423E+06    -52.1806E+06    -16.1741E+06    -715.156E+03    -15.5174E-03     31.0048E-03    -15.4874E-03     2.09436E-03    -15.4973E-03     30.7915E-03    -15.4696E-03     2.08478E-03
             136    -161.477E-09     78.8526E-03    -16.0791E+06    -53.3037E+06    -16.2229E+06    -4.94256E+03    -15.4498E-03     31.0113E-03    -15.5615E-03     2.05655E-03    -15.4292E-03     30.7929E-03    -15.5420E-03     2.05616E-03
             137     64.0342E-09     77.8747E-03    -17.4992E+06    -53.0904E+06    -17.4676E+06     91.5956E+03    -15.4739E-03     30.9961E-03    -15.5222E-03     2.09263E-03    -15.4589E-03     30.7825E-03    -15.5071E-03     2.09354E-03
             138    -54.1920E-09     76.8967E-03    -17.3348E+06    -52.4185E+06    -17.4626E+06     111.599E+03    -15.4730E-03     30.9438E-03    -15.4708E-03     2.14761E-03    -15.4582E-03     30.7333E-03    -15.4569E-03     2.14880E-03
             139     44.4618E-09     75.9190E-03    -17.8200E+06    -53.0854E+06    -17.4436E+06    -411.690E+03    -15.4566E-03     30.9154E-03    -15.4588E-03     2.09025E-03    -15.4432E-03     30.7023E-03    -15.4432E-03     2.08468E-03
             140    -36.7172E-09     74.9412E-03    -17.1169E+06    -55.1453E+06    -17.1311E+06    -945.560E+03    -15.4840E-03     30.9492E-03    -15.4652E-03     2.03519E-03    -15.4646E-03     30.7243E-03    -15.4461E-03     2.02266E-03
             141     60.0217E-09     73.9632E-03    -15.6135E+06    -57.6441E+06    -15.8009E+06    -570.554E+03    -15.4936E-03     30.9876E-03    -15.4941E-03     2.10872E-03    -15.4649E-03     30.7461E-03    -15.4668E-03     2.10113E-03
             142    -88.7631E-09     72.9853E-03    -15.0246E+06    -58.4192E+06    -15.4823E+06     328.291E+03    -15.4937E-03     30.9818E-03    -15.4881E-03     2.13464E-03    -15.4614E-03     30.7351E-03    -15.4590E-03     2.13860E-03
             143     119.666E-09     72.0075E-03    -13.5870E+06    -58.1122E+06    -12.8820E+06    -269.389E+03    -15.5040E-03     30.9794E-03    -15.4755E-03     2.07010E-03    -15.4687E-03     30.7284E-03    -15.4359E-03     2.06626E-03
             144    -94.3765E-09     71.0298E-03    -13.3150E+06    -60.7394E+06    -13.4584E+06    -1.32518E+06    -15.4987E-03     31.0059E-03    -15.5072E-03     2.01290E-03    -15.4575E-03     30.7422E-03    -15.4671E-03     1.99546E-03
             145     50.3389E-09     70.0518E-03    -15.0901E+06    -61.5741E+06    -16.2095E+06     704.395E+03    -15.4952E-03     31.0147E-03    -15.5195E-03     2.04185E-03    -15.4577E-03     30.7533E-03    -15.4894E-03     2.05067E-03
             146    -64.3726E-09     69.0737E-03    -16.2896E+06    -58.3999E+06    -15.4764E+06     1.20401E+06    -15.4970E-03     30.9772E-03    -15.4802E-03     2.12956E-03    -15.4711E-03     30.7323E-03    -15.4493E-03     2.14480E-03
             147     114.983E-09     68.0960E-03    -14.0341E+06    -58.3450E+06    -13.4788E+06    -1.11762E+06    -15.5068E-03     30.9684E-03    -15.4617E-03     2.15895E-03    -15.4726E-03     30.7177E-03    -15.4241E-03     2.14425E-03
             148    -81.6787E-09     67.1181E-03    -13.9620E+06    -61.3087E+06    -14.7427E+06    -792.492E+03    -15.4854E-03     30.9727E-03    -15.4873E-03     2.12189E-03    -15.4447E-03     30.7089E-03    -15.4519E-03     2.11134E-03
             149     33.6138E-09     66.1403E-03    -15.5017E+06    -61.7434E+06    -15.5055E+06     498.937E+03    -15.4941E-03     30.9795E-03    -15.4854E-03     2.08532E-03    -15.4594E-03     30.7168E-03    -15.4509E-03     2.09138E-03
             150     27.4960E-09     65.1625E-03    -14.3090E+06    -60.5649E+06    -14.3031E+06     385.145E+03    -15.4946E-03     30.9745E-03    -15.4799E-03     2.10327E-03    -15.4574E-03     30.7143E-03    -15.4429E-03     2.10785E-03
             151    -64.9051E-09     64.1845E-03    -15.6023E+06    -59.0926E+06    -15.6589E+06     432.622E+03    -15.4719E-03     30.9221E-03    -15.4502E-03     2.07484E-03    -15.4413E-03     30.6731E-03    -15.4201E-03     2.08001E-03
             152     137.834E-09     63.2068E-03    -16.2447E+06    -59.0252E+06    -15.6234E+06    -467.033E+03    -15.4749E-03     30.9035E-03    -15.4286E-03     2.10593E-03    -15.4476E-03     30.6557E-03    -15.3976E-03     2.09961E-03
             153    -124.037E-09     62.2290E-03    -14.4571E+06    -60.9617E+06    -14.9587E+06    -728.076E+03    -15.4381E-03     30.9089E-03    -15.4708E-03     2.11687E-03    -15.4000E-03     30.6479E-03    -15.4363E-03     2.10718E-03
             154     43.9055E-09     61.2512E-03    -14.4446E+06    -61.6352E+06    -14.7753E+06     428.886E+03    -15.4190E-03     30.8958E-03    -15.4768E-03     2.06737E-03    -15.3802E-03     30.6311E-03    -15.4404E-03     2.07266E-03
             155    -72.3897E-09     60.2735E-03    -15.3305E+06    -59.9184E+06    -15.1495E+06     529.656E+03    -15.4091E-03     30.8708E-03    -15.4617E-03     2.07196E-03    -15.3767E-03     30.6165E-03    -15.4283E-03     2.07856E-03
             156     7.35991E-09     59.2957E-03    -16.3495E+06    -59.0906E+06    -16.3079E+06     11.4616E+03    -15.4165E-03     30.8563E-03    -15.4397E-03     2.09073E-03    -15.3887E-03     30.6093E-03    -15.4119E-03     2.09063E-03
             157     14.6490E-09     58.3179E-03    -14.3948E+06    -59.4748E+06    -14.3141E+06    -114.316E+03    -15.4708E-03     30.8718E-03    -15.4010E-03     2.09794E-03    -15.4356E-03     30.6171E-03    -15.3654E-03     2.09623E-03
             158     85.6674E-09     57.3403E-03    -13.0701E+06    -59.5555E+06    -13.2145E+06     31.5996E+03    -15.4741E-03     30.8682E-03    -15.3941E-03     2.09954E-03    -15.4337E-03     30.6097E-03    -15.3549E-03     2.09968E-03
             159     75.9236E-09     55.3848E-03    -15.9885E+06    -58.9592E+06    -15.8854E+06    -120.088E+03    -15.4238E-03     30.7986E-03    -15.3748E-03     2.15226E-03    -15.3950E-03     30.5512E-03    -15.3456E-03     2.15039E-03
             160    -18.2033E-09     54.4069E-03    -14.4527E+06    -59.1096E+06    -14.5687E+06     31.9123E+03    -15.4094E-03     30.7807E-03    -15.3713E-03     2.19885E-03    -15.3745E-03     30.5284E-03    -15.3375E-03     2.19891E-03
             161     23.7936E-09     53.4294E-03    -15.3012E+06    -59.6892E+06    -14.8060E+06    -393.119E+03    -15.3576E-03     30.7448E-03    -15.3872E-03     2.13262E-03    -15.3257E-03     30.4912E-03    -15.3525E-03     2.12726E-03
             162    -78.8982E-09     52.4518E-03    -15.0450E+06    -61.8743E+06    -15.2644E+06    -935.057E+03    -15.3377E-03     30.7398E-03    -15.4021E-03     2.09128E-03    -15.3007E-03     30.4755E-03    -15.3668E-03     2.07890E-03
             163     14.8208E-09     51.4741E-03    -13.3751E+06    -63.2226E+06    -13.9003E+06     91.5849E+03    -15.3531E-03     30.7418E-03    -15.3887E-03     2.12449E-03    -15.3079E-03     30.4664E-03    -15.3471E-03     2.12538E-03
             164    -22.4038E-09     50.4965E-03    -14.8504E+06    -61.6941E+06    -14.9048E+06     936.387E+03    -15.3303E-03     30.6616E-03    -15.3313E-03     2.13401E-03    -15.2932E-03     30.3974E-03    -15.2948E-03     2.14586E-03
             165     25.0181E-09     49.5191E-03    -15.4049E+06    -58.9683E+06    -15.1951E+06     684.183E+03    -15.3148E-03     30.5890E-03    -15.2741E-03     2.10357E-03    -15.2841E-03     30.3397E-03    -15.2422E-03     2.11215E-03
             166     44.4588E-09     48.5416E-03    -16.4544E+06    -57.8710E+06    -16.1534E+06    -133.789E+03    -15.2766E-03     30.5354E-03    -15.2588E-03     2.06238E-03    -15.2512E-03     30.2946E-03    -15.2318E-03     2.06033E-03
             167    -81.4766E-09     47.5643E-03    -14.6144E+06    -59.2085E+06    -14.5895E+06    -542.044E+03    -15.2210E-03     30.4987E-03    -15.2777E-03     2.00038E-03    -15.1867E-03     30.2462E-03    -15.2436E-03     1.99301E-03
             168     15.9450E-09     46.5869E-03    -13.3454E+06    -60.3992E+06    -13.6373E+06    -108.195E+03    -15.2115E-03     30.4553E-03    -15.2437E-03     1.99910E-03    -15.1706E-03     30.1936E-03    -15.2050E-03     1.99731E-03
             169    -13.1760E-09     45.6095E-03    -15.3561E+06    -59.5217E+06    -15.5346E+06     488.254E+03    -15.1630E-03     30.3502E-03    -15.1872E-03     2.03502E-03    -15.1307E-03     30.0986E-03    -15.1563E-03     2.04088E-03
             170    -37.0008E-09     44.6325E-03    -15.1411E+06    -57.6272E+06    -15.1092E+06     770.044E+03    -15.1298E-03     30.2496E-03    -15.1198E-03     1.97160E-03    -15.0997E-03     30.0065E-03    -15.0898E-03     1.98121E-03
             171     103.027E-09     43.6552E-03    -13.6415E+06    -55.6283E+06    -13.2336E+06     342.772E+03    -15.1216E-03     30.1620E-03    -15.0403E-03     1.96098E-03    -15.0897E-03     29.9241E-03    -15.0061E-03     1.96504E-03
             172    -22.5261E-09     42.6783E-03    -14.9232E+06    -56.6862E+06    -14.5797E+06    -1.00578E+06    -15.0395E-03     30.0531E-03    -15.0136E-03     2.00332E-03    -15.0105E-03     29.8138E-03    -14.9827E-03     1.99001E-03
             173    -10.4524E-09     41.7012E-03    -14.9270E+06    -59.5368E+06    -15.6067E+06    -643.712E+03    -14.9379E-03     29.9389E-03    -15.0011E-03     2.02005E-03    -14.9033E-03     29.6869E-03    -14.9711E-03     2.01142E-03
             174    -78.6449E-09     40.7246E-03    -15.4115E+06    -59.4252E+06    -15.6041E+06     704.433E+03    -14.8653E-03     29.7885E-03    -14.9232E-03     1.97175E-03    -14.8333E-03     29.5377E-03    -14.8927E-03     1.98063E-03
             175     60.5510E-09     39.7479E-03    -16.1294E+06    -57.3639E+06    -15.7523E+06     557.462E+03    -14.8354E-03     29.6081E-03    -14.7727E-03     1.87988E-03    -14.8097E-03     29.3689E-03    -14.7449E-03     1.88693E-03
             176     70.7210E-09     38.7716E-03    -15.0646E+06    -56.3276E+06    -14.9032E+06    -17.7217E+03    -14.7579E-03     29.4356E-03    -14.6777E-03     1.87886E-03    -14.7295E-03     29.1988E-03    -14.6487E-03     1.87841E-03
             177    -60.3373E-09     37.7952E-03    -15.5864E+06    -56.4161E+06    -15.7512E+06    -88.1541E+03    -14.6120E-03     29.2516E-03    -14.6396E-03     1.87165E-03    -14.5847E-03     29.0163E-03    -14.6140E-03     1.87027E-03
             178    -3.53449E-09     36.8192E-03    -16.0460E+06    -56.8187E+06    -15.9666E+06    -127.889E+03    -14.5140E-03     29.0335E-03    -14.5196E-03     1.83676E-03    -14.4881E-03     28.7972E-03    -14.4937E-03     1.83478E-03
             179     55.9745E-09     35.8432E-03    -15.5221E+06    -57.3691E+06    -15.6360E+06    -253.646E+03    -14.4081E-03     28.7838E-03    -14.3757E-03     1.82483E-03    -14.3794E-03     28.5435E-03    -14.3482E-03     1.82123E-03
             180    -54.6199E-09     34.8678E-03    -17.0222E+06    -58.4509E+06    -16.8134E+06    -458.739E+03    -14.2486E-03     28.5213E-03    -14.2727E-03     1.79055E-03    -14.2240E-03     28.2794E-03    -14.2473E-03     1.78433E-03
             181     10.4657E-09     33.8923E-03    -15.6895E+06    -59.5360E+06    -16.0117E+06    -196.367E+03    -14.1070E-03     28.2458E-03    -14.1388E-03     1.74935E-03    -14.0754E-03     27.9954E-03    -14.1098E-03     1.74644E-03
             182    -28.7869E-09     32.9174E-03    -12.9909E+06    -59.0750E+06    -13.1223E+06     489.609E+03    -13.9623E-03     27.9418E-03    -13.9795E-03     1.74590E-03    -13.9220E-03     27.6855E-03    -13.9406E-03     1.75183E-03
             183     12.6654E-09     31.9425E-03    -13.8119E+06    -57.8972E+06    -13.5657E+06     257.491E+03    -13.7742E-03     27.5781E-03    -13.8039E-03     1.71108E-03    -13.7391E-03     27.3296E-03    -13.7677E-03     1.71401E-03
             184    -48.6934E-09     30.9683E-03    -15.7636E+06    -57.4924E+06    -15.8382E+06    -10.8621E+03    -13.5728E-03     27.1586E-03    -13.5857E-03     1.64927E-03    -13.5447E-03     26.9182E-03    -13.5587E-03     1.64874E-03
             185     58.6330E-09     29.9942E-03    -15.1202E+06    -57.2102E+06    -15.1278E+06     65.3888E+03    -13.3792E-03     26.7252E-03    -13.3460E-03     1.59955E-03    -13.3493E-03     26.4842E-03    -13.3167E-03     1.60001E-03
             186    -11.9552E-09     29.0209E-03    -15.3609E+06    -56.8560E+06    -15.4211E+06     244.374E+03    -13.1521E-03     26.2443E-03    -13.0922E-03     1.56011E-03    -13.1236E-03     26.0059E-03    -13.0646E-03     1.56285E-03
             187     69.0341E-09     28.0478E-03    -15.3826E+06     -55.648E+06    -15.5070E+06     581.206E+03    -12.8784E-03     25.7190E-03    -12.8406E-03     1.54017E-03    -12.8516E-03     25.4868E-03    -12.8152E-03     1.54730E-03
             188    -62.4628E-09     27.0754E-03    -14.7476E+06    -53.9957E+06    -14.5519E+06     459.686E+03    -12.5626E-03     25.1416E-03    -12.5790E-03     1.49440E-03    -12.5365E-03     24.9153E-03    -12.5521E-03     1.49993E-03
             189     27.1212E-09     26.1034E-03    -14.7096E+06    -53.5538E+06    -14.4889E+06    -186.023E+03    -12.2511E-03     24.5249E-03    -12.2738E-03     1.37688E-03    -12.2256E-03     24.3007E-03    -12.2472E-03     1.37416E-03
             190    -31.0939E-09     25.1324E-03    -12.4364E+06    -54.3647E+06    -12.6298E+06    -321.777E+03    -11.9713E-03     23.9394E-03    -11.9682E-03     1.29437E-03    -11.9359E-03     23.7052E-03    -11.9345E-03     1.28999E-03
             191     36.9105E-09     24.1614E-03    -11.9332E+06    -54.1594E+06    -12.3243E+06     446.859E+03    -11.6798E-03     23.3444E-03    -11.6646E-03     1.25552E-03    -11.6426E-03     23.1100E-03    -11.6304E-03     1.26108E-03
             192    -21.6973E-09     23.1916E-03    -13.7281E+06    -51.7381E+06    -13.7287E+06     1.08858E+06    -11.3679E-03     22.6970E-03    -11.3291E-03     1.22634E-03    -11.3411E-03     22.4794E-03    -11.3028E-03     1.24001E-03
             193     74.0085E-09     22.2217E-03    -15.0627E+06    -47.9209E+06    -14.5901E+06     999.762E+03    -11.0332E-03     22.0617E-03    -11.0284E-03     1.20954E-03    -11.0174E-03     21.8663E-03    -11.0101E-03     1.22220E-03
             194    -113.949E-09     21.2532E-03    -13.8221E+06    -45.5784E+06    -13.9772E+06     856.950E+03    -10.7692E-03     21.5210E-03    -10.7518E-03     1.13564E-03    -10.7514E-03     21.3345E-03    -10.7355E-03     1.14648E-03
             195     181.565E-09     20.2843E-03    -11.0629E+06    -45.2473E+06    -10.4536E+06    -453.581E+03    -10.5546E-03     21.0404E-03    -10.4859E-03     1.06753E-03    -10.5284E-03     20.8465E-03    -10.4565E-03     1.06151E-03
             196    -121.585E-09     19.3170E-03    -10.0587E+06    -45.3743E+06    -11.0252E+06     5.09281E+03    -10.3064E-03     20.5800E-03    -10.2736E-03     996.014E-06    -10.2741E-03     20.3848E-03    -10.2483E-03     995.807E-06
             197     107.112E-09     18.3487E-03    -10.6138E+06    -43.7280E+06    -10.2031E+06     1.00533E+06    -10.0676E-03     20.1611E-03    -10.0935E-03     933.498E-06    -10.0417E-03     19.9738E-03    -10.0657E-03     946.124E-06
             198    -135.888E-09     17.3823E-03    -7.91520E+06    -40.4451E+06    -8.00280E+06     1.15773E+06    -9.86194E-03     19.7512E-03    -9.88923E-03     849.112E-06    -9.83058E-03     19.5734E-03    -9.85912E-03     863.882E-06
             199     113.472E-09     16.4148E-03    -8.64892E+06    -37.7948E+06    -8.06090E+06     899.515E+03    -9.66810E-03     19.3237E-03    -9.65563E-03     793.193E-06    -9.64397E-03     19.1604E-03    -9.62859E-03     804.523E-06
             200    -63.9166E-09     15.4491E-03    -4.49428E+06    -36.1062E+06    -5.06101E+06    -50.6046E+03    -9.46446E-03     18.8691E-03    -9.40467E-03     679.822E-06    -9.42614E-03     18.7040E-03    -9.37111E-03     678.785E-06
             201     112.298E-09     14.4826E-03    -167.515E+03    -35.8632E+06     199.734E+03    -184.063E+03    -9.22659E-03     18.3342E-03    -9.10762E-03     455.667E-06    -9.17441E-03     18.1565E-03    -9.05438E-03     452.590E-06
             202     53.3684E-09     13.5180E-03     881.837E+03    -37.0975E+06     725.168E+03    -449.901E+03    -8.85228E-03     17.6187E-03    -8.76643E-03     333.063E-06    -8.79336E-03     17.4324E-03    -8.71029E-03     326.615E-06
             203    -70.8512E-09     12.5527E-03    -856.773E+03    -38.2051E+06    -947.612E+03    -165.952E+03    -8.33807E-03     16.5997E-03    -8.26164E-03     219.302E-06    -8.28356E-03     16.4129E-03    -8.20974E-03     216.110E-06
             204     220.298E-09     11.5900E-03    -3.29338E+06    -37.9170E+06    -3.07128E+06     506.802E+03    -7.71577E-03     15.2907E-03    -7.57493E-03     124.740E-06    -7.67051E-03     15.1119E-03    -7.53053E-03     131.274E-06
             205    -119.537E-09     10.6275E-03    -6.95219E+06    -37.5017E+06    -7.24539E+06     240.602E+03    -7.00024E-03     13.9292E-03    -6.92900E-03     57.3008E-06    -6.96765E-03     13.7637E-03    -6.90077E-03     60.9558E-06
             206     138.419E-09     9.66722E-03    -11.3637E+06    -38.7202E+06    -10.8431E+06    -874.946E+03    -6.50913E-03     12.9671E-03    -6.45800E-03     109.000E-06    -6.49189E-03     12.8071E-03    -6.43959E-03     97.0888E-06
             207    -63.7002E-09     8.70673E-03    -12.9464E+06    -39.4238E+06    -13.0620E+06    -247.101E+03    -6.43617E-03     12.8157E-03    -6.37956E-03     304.749E-06    -6.42294E-03     12.6576E-03    -6.36894E-03     302.491E-06
             208     85.5577E-09     7.74657E-03    -13.8104E+06    -38.7844E+06    -14.2990E+06     964.521E+03    -6.83466E-03     13.6546E-03    -6.81991E-03     522.094E-06    -6.82504E-03     13.5025E-03    -6.81514E-03     534.729E-06
             209    -89.6400E-09     6.78453E-03    -9.05961E+06    -36.5855E+06    -8.98002E+06     1.11916E+06    -7.66937E-03     15.3425E-03    -7.67315E-03     665.333E-06    -7.64716E-03     15.1869E-03    -7.65186E-03     679.138E-06
             210     85.4521E-09     5.82097E-03    -7.54918E+06    -34.5281E+06    -6.23696E+06    -170.142E+03    -8.67615E-03     17.3685E-03    -8.69233E-03     748.834E-06    -8.65296E-03     17.2170E-03    -8.66251E-03     747.057E-06
             211    -98.1619E-09     4.85498E-03    -3.68634E+06    -35.2765E+06    -4.27680E+06    -935.904E+03    -9.75313E-03     19.5319E-03    -9.77874E-03     827.136E-06    -9.71180E-03     19.3680E-03    -9.74362E-03     814.833E-06
             212     54.3082E-09     3.88735E-03     2.25770E+06    -38.7376E+06     2.23489E+06    -1.34818E+06    -10.8427E-03     21.7196E-03    -10.8769E-03     744.629E-06    -10.7756E-03     21.5202E-03    -10.8128E-03     727.208E-06
             213    -76.5835E-09     2.91721E-03    -1.91381E+06    -42.4243E+06    -2.61185E+06    -580.982E+03    -11.7797E-03     23.5650E-03    -11.7853E-03     622.451E-06    -11.7205E-03     23.3604E-03    -11.7341E-03     614.774E-06
             214     74.7039E-09     1.94591E-03    -6.33171E+06    -42.6125E+06    -6.18637E+06     448.672E+03    -12.4873E-03     24.9768E-03    -12.4896E-03     470.296E-06    -12.4443E-03     24.7834E-03    -12.4495E-03     475.259E-06
             215    -82.1845E-09     973.100E-06    -6.94415E+06    -40.6617E+06    -7.04908E+06     810.067E+03    -12.9314E-03     25.8621E-03    -12.9307E-03     267.735E-06    -12.8924E-03     25.6807E-03    -12.8970E-03     280.176E-06
             216     888.221E-06    -1.13798E-15    -8.49550E+06    -43.7718E+06    -6.78514E+06     460.833E+03    -13.1164E-03     26.2148E-03    -13.0985E-03     225.724E-06    -13.0828E-03     26.0188E-03    -13.0566E-03     233.891E-06
             217     1.77650E-03    -1.13798E-15    -7.71106E+06    -48.0899E+06    -6.60481E+06     50.5619E+03    -13.2025E-03     26.3384E-03    -13.1359E-03     371.018E-06    -13.1612E-03     26.1184E-03    -13.0880E-03     371.690E-06
             218     2.66454E-03    -1.13798E-15    -7.14189E+06    -49.0978E+06    -9.01312E+06    -639.802E+03    -13.3114E-03     26.4765E-03    -13.1651E-03     571.878E-06    -13.2625E-03     26.2541E-03    -13.1286E-03     563.818E-06
             219     3.55263E-03    -1.13798E-15    -7.01915E+06    -50.9410E+06    -10.8368E+06    -324.115E+03    -13.4728E-03     26.6832E-03    -13.2105E-03     778.202E-06    -13.4180E-03     26.4542E-03    -13.1806E-03     773.985E-06
             220     4.44038E-03    -1.13798E-15    -7.59202E+06    -52.2798E+06    -13.2720E+06    -218.410E+03    -13.6846E-03     26.9532E-03    -13.2686E-03     1.00367E-03    -13.6272E-03     26.7218E-03    -13.2482E-03     1.00086E-03
             221     5.32808E-03    -1.13798E-15    -8.06635E+06    -52.4580E+06    -16.0392E+06    -538.119E+03    -13.9358E-03     27.2749E-03    -13.3391E-03     1.25547E-03    -13.8766E-03     27.0474E-03    -13.3315E-03     1.24841E-03
             222     6.21535E-03    -1.13798E-15    -8.21191E+06    -52.1602E+06    -19.8609E+06    -916.652E+03    -14.2292E-03     27.6469E-03    -13.4178E-03     1.52173E-03    -14.1657E-03     27.4267E-03    -13.4295E-03     1.50978E-03
             223     7.10255E-03    -1.13798E-15    -7.87728E+06    -53.8198E+06    -25.1226E+06    -1.46169E+06    -14.5729E-03     28.0786E-03    -13.5057E-03     1.83872E-03    -14.4977E-03     27.8572E-03    -13.5418E-03     1.81970E-03
             224     7.98913E-03    -1.13798E-15    -7.08317E+06    -54.8464E+06    -30.2629E+06    -2.02543E+06    -14.9609E-03     28.5678E-03    -13.6070E-03     2.17739E-03    -14.8727E-03     28.3476E-03    -13.6685E-03     2.15104E-03
             225     8.87574E-03    -1.13798E-15    -6.34926E+06    -53.2057E+06    -35.7366E+06    -1.73707E+06    -15.4337E-03     29.1529E-03    -13.7193E-03     2.56045E-03    -15.3363E-03     28.9478E-03    -13.8116E-03     2.53778E-03
             226     9.76139E-03    -1.13798E-15    -5.88417E+06    -49.0329E+06    -41.3843E+06    -2.05661E+06    -16.0120E-03     29.8604E-03    -13.8484E-03     3.12962E-03    -15.9102E-03     29.6836E-03    -13.9757E-03     3.10278E-03
             227     10.6467E-03    -1.13798E-15    -4.20473E+06    -41.8837E+06    -44.3508E+06    -3.50348E+06    -16.6930E-03     30.7026E-03    -14.0096E-03     3.69735E-03    -16.5888E-03     30.5635E-03    -14.1645E-03     3.65166E-03
             228     11.5315E-03    -1.13798E-15    -1.56147E+06    -31.9689E+06    -47.8322E+06    -2.98662E+06    -17.6288E-03     31.8242E-03    -14.1954E-03     4.45028E-03    -17.5208E-03     31.7359E-03    -14.3859E-03     4.41112E-03
             229     12.4148E-03    -1.13798E-15     3.05890E+06    -19.4707E+06    -47.2396E+06    -5.80618E+06    -18.8306E-03     33.2697E-03    -14.4390E-03     5.66115E-03    -18.7186E-03     33.2363E-03    -14.6514E-03     5.58537E-03
             230     13.2969E-03    -1.13798E-15     7.49608E+06     1.52228E+06    -39.6661E+06    -3.01341E+06    -20.3371E-03     35.0976E-03    -14.7605E-03     7.07075E-03    -20.2443E-03     35.1520E-03    -14.9719E-03     7.03022E-03
             231     14.1778E-03    -1.13798E-15     8.08472E+06     25.4192E+06    -29.2877E+06    -254.062E+03    -23.0404E-03     38.2297E-03    -15.1893E-03     9.66124E-03    -22.9945E-03     38.3877E-03    -15.3843E-03     9.65539E-03
             232     15.0540E-03    -1.13798E-15     12.4952E+06     46.6810E+06    -8.41724E+06    -6.76908E+06    -26.9065E-03     42.7206E-03    -15.8141E-03     12.7572E-03    -26.8998E-03     42.9485E-03    -15.9420E-03     12.6665E-03
             233     15.9271E-03    -1.13798E-15     14.6497E+06     68.1660E+06     29.5878E+06    -4.18923E+06    -30.1669E-03     46.8335E-03    -16.6666E-03     14.7648E-03    -30.2392E-03     47.1140E-03    -16.6387E-03     14.6867E-03
             234     16.7982E-03    -1.13798E-15     2.68033E+06     77.1858E+06     54.1690E+06     8.48304E+06    -38.8546E-03     56.5835E-03    -17.7289E-03     33.8614E-03    -39.0970E-03     56.9506E-03    -17.5738E-03     33.8195E-03
             235     17.6901E-03     1.02756E-03    -3.65864E+06     85.2727E+06     49.6391E+06     8.89821E+06    -42.7237E-03     60.1296E-03    -17.4060E-03     61.6400E-03    -43.1210E-03     60.6739E-03    -17.2761E-03     61.5269E-03
             236     17.7042E-03     2.04092E-03     3.81546E+06     99.1861E+06     52.1695E+06     4.13293E+06    -46.2022E-03     62.2232E-03    -16.0210E-03     76.7781E-03    -46.7504E-03     62.9916E-03    -15.9095E-03     76.5392E-03
             237     17.7137E-03     3.07599E-03     83.1833E+03     106.361E+06     63.6860E+06     2.91401E+06    -53.0526E-03     68.4492E-03    -15.3966E-03     93.6349E-03    -53.9008E-03     69.4948E-03    -15.2325E-03     93.3022E-03
             238     17.7168E-03     4.09814E-03    -1.40325E+06     111.601E+06     68.5326E+06     1.03240E+06    -52.0374E-03     67.1985E-03    -15.1610E-03     111.585E-03    -53.1884E-03     68.5436E-03    -14.9782E-03     111.322E-03
             239     17.7216E-03     5.11319E-03     1.04350E+06     114.730E+06     69.5489E+06     1.74655E+06    -50.7244E-03     65.8502E-03    -15.1258E-03     118.030E-03    -52.0581E-03     67.3946E-03    -14.9459E-03     117.927E-03
             240     17.7137E-03     6.12927E-03     3.58122E+06     110.053E+06     70.4074E+06     4.23807E+06    -47.2056E-03     62.5093E-03    -15.3037E-03     123.009E-03    -48.6540E-03     64.1569E-03    -15.1164E-03     123.039E-03
             241     17.7193E-03     7.12887E-03    -16.3208E+06     106.529E+06     45.4448E+06    -5.79627E+06    -45.1071E-03     60.5287E-03    -15.4216E-03     120.256E-03    -46.6636E-03     62.2623E-03    -15.3251E-03     120.427E-03
             242     17.7047E-03     8.12912E-03    -41.4953E+06     105.071E+06     39.4452E+06     186.291E+03    -40.1018E-03     55.7392E-03    -15.6375E-03     112.074E-03    -41.7853E-03     57.5209E-03    -15.5324E-03     112.798E-03
             243     17.7215E-03     9.12563E-03     3.18165E+06     112.331E+06     53.2974E+06     9.06007E+06    -32.0799E-03     47.6703E-03    -15.5904E-03     132.698E-03    -33.8253E-03     49.6701E-03    -15.4914E-03     133.764E-03
             244     17.7216E-03     10.1371E-03     23.8446E+06     129.810E+06     50.8942E+06     5.22030E+06    -34.5761E-03     49.8045E-03    -15.2284E-03     158.002E-03    -36.5897E-03     52.2183E-03    -15.1968E-03     158.907E-03
             245     17.7235E-03     11.1385E-03     4.87854E+06     140.260E+06     52.7458E+06     2.22083E+06    -36.4736E-03     51.6216E-03    -15.1480E-03     161.890E-03    -38.7650E-03     54.2750E-03    -15.0947E-03     162.866E-03
             246     17.7236E-03     12.1186E-03     6.70338E+06     143.776E+06     55.2545E+06    -1.75254E+06    -34.3772E-03     49.5498E-03    -15.1726E-03     156.144E-03    -36.6400E-03     52.1861E-03    -15.1145E-03     157.301E-03
             247     17.7230E-03     13.1153E-03    -1.75612E+06     143.606E+06     56.7260E+06     906.810E+03    -34.9248E-03     50.1051E-03    -15.1802E-03     152.225E-03    -37.2250E-03     52.7445E-03    -15.1023E-03     153.489E-03
             248     17.7234E-03     14.1086E-03    -2.28632E+06     144.568E+06     54.5828E+06     566.953E+03    -34.5120E-03     49.6838E-03    -15.1719E-03     153.615E-03    -36.8962E-03     52.4148E-03    -15.1053E-03     155.002E-03
             249     17.7237E-03     15.1003E-03    -1.60980E+06     146.398E+06     53.7745E+06     662.030E+03    -33.7290E-03     48.8865E-03    -15.1575E-03     153.117E-03    -36.1563E-03     51.6718E-03    -15.0986E-03     154.640E-03
             250     17.7243E-03     16.0930E-03    -1.59427E+06     148.044E+06     53.9321E+06     938.072E+03    -32.5312E-03     47.6961E-03    -15.1649E-03     153.835E-03    -35.0221E-03     50.5507E-03    -15.1076E-03     155.506E-03
             251     17.7243E-03     17.0851E-03    -1.59539E+06     149.373E+06     54.3956E+06     1.06394E+06    -31.0536E-03     46.2481E-03    -15.1945E-03     156.225E-03    -33.6304E-03     49.1919E-03    -15.1368E-03     158.049E-03
             252     17.7245E-03     18.0737E-03    -1.96513E+06     150.219E+06     52.6616E+06     1.24923E+06    -30.0508E-03     45.2492E-03    -15.1983E-03     157.026E-03    -32.6828E-03     48.2546E-03    -15.1500E-03     158.972E-03
             253     17.7249E-03     19.0608E-03    -1.36778E+06     150.842E+06     54.1915E+06     177.445E+03    -29.4633E-03     44.6666E-03    -15.2032E-03     155.671E-03    -32.1051E-03     47.6818E-03    -15.1490E-03     157.686E-03
             254     17.7247E-03     20.0490E-03    -839.934E+03     151.764E+06     52.5269E+06     311.175E+03    -28.9175E-03     44.1074E-03    -15.1899E-03     155.716E-03    -31.5902E-03     47.1636E-03    -15.1462E-03     157.824E-03
             255     17.7258E-03     21.0366E-03    -993.317E+03     153.430E+06     55.2158E+06     525.221E+03    -28.2335E-03     43.4489E-03    -15.2154E-03     156.726E-03    -30.9625E-03     46.5591E-03    -15.1604E-03     158.942E-03
             256     17.7241E-03     22.0255E-03    -2.73340E+06     153.217E+06     56.5118E+06     441.418E+03    -27.1467E-03     42.4110E-03    -15.2643E-03     157.950E-03    -29.9444E-03     45.5791E-03    -15.2000E-03     160.287E-03
             257     17.7257E-03     23.0075E-03     1.04047E+06     153.892E+06     47.0226E+06     915.526E+03    -26.1637E-03     41.3822E-03    -15.2185E-03     157.766E-03    -28.9470E-03     44.5791E-03    -15.2080E-03     160.211E-03
             258     17.7254E-03     23.9931E-03    -7.49688E+06     148.918E+06     51.5218E+06    -4.32048E+06    -26.0165E-03     41.3027E-03    -15.2863E-03     156.622E-03    -28.8465E-03     44.4855E-03    -15.2337E-03     159.053E-03
             259     17.7226E-03     24.9805E-03     9.78410E+06     148.447E+06     41.7021E+06     1.94886E+06    -19.2815E-03     34.6596E-03    -15.3781E-03     152.565E-03    -21.8992E-03     37.7189E-03    -15.3991E-03     155.208E-03
             260     17.7287E-03     25.9419E-03     12.9195E+06     151.449E+06     42.4901E+06    -1.35483E+06    -21.0050E-03     36.2783E-03    -15.2733E-03     161.193E-03    -23.7493E-03     39.4873E-03    -15.2992E-03     163.841E-03
             261     17.7241E-03     26.9418E-03    -13.7027E+06     146.842E+06     61.5503E+06    -3.15841E+06    -32.6886E-03     47.8333E-03    -15.1446E-03     163.219E-03    -35.6895E-03     51.1347E-03    -15.0299E-03     165.425E-03
             262     17.7251E-03     27.9442E-03    -7.63149E+06     149.522E+06     62.6714E+06     5.15552E+06    -26.9663E-03     42.2848E-03    -15.3185E-03     162.028E-03    -29.9856E-03     45.6289E-03    -15.2109E-03     164.650E-03
             263     17.7253E-03     28.9052E-03    -588.908E+03     155.731E+06     59.3708E+06     1.01441E+06    -20.2163E-03     35.6513E-03    -15.4350E-03     163.771E-03    -23.2719E-03     39.0857E-03    -15.3631E-03     166.848E-03
             264     17.7255E-03     29.8896E-03    -2.83386E+06     156.326E+06     52.3588E+06     771.916E+03    -21.7378E-03     37.0802E-03    -15.3424E-03     156.802E-03    -24.6447E-03     40.3803E-03    -15.3032E-03     159.716E-03
             265     17.7255E-03     30.8730E-03    -2.27944E+06     156.783E+06     51.6706E+06     1.13065E+06    -21.1425E-03     36.4948E-03    -15.3523E-03     161.454E-03    -24.1393E-03     39.8903E-03    -15.3179E-03     164.454E-03
             266     17.7258E-03     31.8512E-03    -1.64226E+06     158.176E+06     53.1362E+06    -788.455E+03    -21.1362E-03     36.4780E-03    -15.3418E-03     161.438E-03    -24.1468E-03     39.8902E-03    -15.3031E-03     164.451E-03
             267     17.7262E-03     32.8300E-03    -590.506E+03     158.255E+06     54.3771E+06    -568.069E+03    -21.2370E-03     36.5643E-03    -15.3273E-03     159.567E-03    -24.2232E-03     39.9525E-03    -15.2840E-03     162.579E-03
             268     17.7260E-03     33.8123E-03    -1.02611E+06     158.400E+06     55.1681E+06     1.44401E+06    -20.6412E-03     35.9919E-03    -15.3507E-03     161.463E-03    -23.6706E-03     39.4200E-03    -15.3030E-03     164.547E-03
             269     17.7259E-03     34.7929E-03    -3.52393E+06     158.310E+06     60.5227E+06     494.311E+03    -20.2675E-03     35.6901E-03    -15.4226E-03     163.443E-03    -23.3612E-03     39.1578E-03    -15.3444E-03     166.570E-03
             270     17.7243E-03     35.7699E-03    -3.27631E+06     156.434E+06     67.8936E+06    -123.569E+03    -20.3112E-03     35.7863E-03    -15.4751E-03     160.460E-03    -23.3773E-03     39.1992E-03    -15.3577E-03     163.580E-03
             271     17.7262E-03     36.7446E-03     1.84755E+06     157.204E+06     56.9576E+06    -571.147E+03    -20.0362E-03     35.4071E-03    -15.3709E-03     157.024E-03    -22.9917E-03     38.7621E-03    -15.3168E-03     160.129E-03
             272     17.7270E-03     37.7276E-03     196.634E+03     159.130E+06     49.5861E+06    -945.235E+03    -20.5722E-03     35.8709E-03    -15.2987E-03     160.739E-03    -23.6011E-03     39.3217E-03    -15.2818E-03     163.852E-03
             273     17.7255E-03     38.7138E-03    -2.45382E+06     157.920E+06     50.1164E+06     991.255E+03    -20.0638E-03     35.4085E-03    -15.3447E-03     166.145E-03    -23.2132E-03     38.9645E-03    -15.3195E-03     169.354E-03
             274     17.7266E-03     39.6870E-03    -1.79566E+06     159.026E+06     52.6158E+06     669.854E+03    -19.3201E-03     34.7015E-03    -15.3814E-03     165.743E-03    -22.4703E-03     38.2573E-03    -15.3463E-03     169.017E-03
             275     17.7253E-03     40.6629E-03    -2.37966E+06     159.361E+06     54.4045E+06     496.273E+03    -19.6401E-03     35.0162E-03    -15.3761E-03     160.415E-03    -22.6898E-03     38.4655E-03    -15.3317E-03     163.622E-03
             276     17.7267E-03     41.6422E-03    -2.37088E+06     159.678E+06     53.6501E+06     678.829E+03    -19.4981E-03     34.8736E-03    -15.3755E-03     159.838E-03    -22.5329E-03     38.3113E-03    -15.3354E-03     163.041E-03
             277     17.7251E-03     42.6214E-03    -2.29523E+06     159.564E+06     53.7328E+06    -422.024E+03    -19.4549E-03     34.8367E-03    -15.3818E-03     161.084E-03    -22.5165E-03     38.3007E-03    -15.3411E-03     164.279E-03
             278     17.7266E-03     43.5995E-03     1.54521E+06     159.442E+06     59.5841E+06    -1.42122E+06    -19.3891E-03     34.7828E-03    -15.3937E-03     160.882E-03    -22.4453E-03     38.2378E-03    -15.3292E-03     164.078E-03
             279     17.7261E-03     44.5765E-03    -339.903E+03     159.656E+06     64.3359E+06     107.873E+03    -19.5392E-03     34.9610E-03    -15.4218E-03     161.099E-03    -22.6124E-03     38.4133E-03    -15.3311E-03     164.325E-03
             280     17.7252E-03     45.5606E-03    -3.82743E+06     159.711E+06     55.9897E+06     1.61627E+06    -19.3405E-03     34.7544E-03    -15.4139E-03     163.880E-03    -22.4683E-03     38.2733E-03    -15.3600E-03     167.149E-03
             281     17.7262E-03     46.5337E-03     170.339E+03     162.491E+06     54.8983E+06    -574.299E+03    -18.9993E-03     34.3862E-03    -15.3870E-03     162.216E-03    -22.0966E-03     37.9018E-03    -15.3483E-03     165.490E-03
             282     17.7263E-03     47.5098E-03    -1.72039E+06     161.508E+06     60.3841E+06    -741.634E+03    -19.3938E-03     34.8051E-03    -15.4113E-03     159.440E-03    -22.4412E-03     38.2447E-03    -15.3411E-03     162.658E-03
             283     17.7245E-03     48.4953E-03    -2.78240E+06     158.926E+06     53.1617E+06     793.974E+03    -19.3358E-03     34.7354E-03    -15.3997E-03     163.880E-03    -22.4554E-03     38.2552E-03    -15.3603E-03     167.136E-03
             284     17.7274E-03     49.4682E-03    -768.562E+03     159.882E+06     50.7420E+06    -1.30798E+06    -19.1900E-03     34.5501E-03    -15.3601E-03     162.855E-03    -22.2985E-03     38.0763E-03    -15.3371E-03     166.125E-03
             285     17.7253E-03     50.4461E-03    -963.343E+03     159.134E+06     61.6650E+06    -611.561E+03    -19.0918E-03     34.5044E-03    -15.4127E-03     160.508E-03    -22.1552E-03     37.9505E-03    -15.3337E-03     163.759E-03
             286     17.7267E-03     51.4284E-03    -421.292E+03     159.655E+06     62.3900E+06     1.19437E+06    -19.1473E-03     34.5784E-03    -15.4311E-03     164.580E-03    -22.2825E-03     38.0980E-03    -15.3501E-03     167.870E-03
             287     17.7251E-03     52.4038E-03    -3.00590E+06     160.557E+06     54.7372E+06     566.916E+03    -19.0448E-03     34.4458E-03    -15.4010E-03     163.157E-03    -22.1633E-03     37.9649E-03    -15.3558E-03     166.446E-03
             288     17.7265E-03     53.3806E-03    -1.64021E+06     161.271E+06     54.7431E+06     513.285E+03    -18.7728E-03     34.1715E-03    -15.3987E-03     160.852E-03    -21.8407E-03     37.6474E-03    -15.3565E-03     164.138E-03
             289     17.7256E-03     54.3575E-03    -315.459E+03     162.709E+06     54.8161E+06     203.704E+03    -19.3666E-03     34.7381E-03    -15.3714E-03     160.696E-03    -22.4254E-03     38.2145E-03    -15.3328E-03     163.940E-03
             290     17.7266E-03     55.3390E-03    -1.82270E+06     162.503E+06     53.3227E+06    -885.148E+03    -19.3957E-03     34.7595E-03    -15.3638E-03     161.421E-03    -22.4809E-03     38.2606E-03    -15.3302E-03     164.670E-03
             291     17.7256E-03     56.3159E-03    -55.3149E+03     162.133E+06     63.0110E+06    -60.3835E+03    -18.5414E-03     33.9777E-03    -15.4363E-03     161.566E-03    -21.6317E-03     37.4607E-03    -15.3563E-03     164.878E-03
             292     886.233E-06     57.3421E-03    -13.0135E+06    -59.6014E+06    -12.9965E+06     111.356E+03    -15.4530E-03     30.8662E-03    -15.4132E-03     3.53982E-03    -15.4127E-03     30.6065E-03    -15.3729E-03     3.54079E-03
             293     1.77252E-03     57.3468E-03    -12.7513E+06    -58.1834E+06    -11.8325E+06     214.663E+03    -15.4257E-03     30.8574E-03    -15.4316E-03     6.58257E-03    -15.3879E-03     30.6021E-03    -15.3879E-03     6.58447E-03
             294     2.65877E-03     57.3544E-03    -11.9549E+06    -56.5776E+06    -9.19595E+06     155.382E+03    -15.4236E-03     30.8587E-03    -15.4351E-03     9.84626E-03    -15.3881E-03     30.6066E-03    -15.3817E-03     9.84694E-03
             295     3.54508E-03     57.3651E-03    -10.7651E+06    -54.2957E+06    -5.91510E+06     59.4581E+03    -15.4356E-03     30.8764E-03    -15.4408E-03     13.2478E-03    -15.4024E-03     30.6294E-03    -15.3761E-03     13.2467E-03
             296     4.43135E-03     57.3790E-03    -9.77475E+06    -52.0295E+06    -2.88310E+06    -54.0796E+03    -15.4639E-03     30.9114E-03    -15.4476E-03     16.7982E-03    -15.4336E-03     30.6702E-03    -15.3724E-03     16.7950E-03
             297     5.31764E-03     57.3964E-03    -8.77999E+06    -54.2240E+06    -365.174E+03     290.755E+03    -15.5161E-03     30.9768E-03    -15.4608E-03     20.4913E-03    -15.4816E-03     30.7198E-03    -15.3712E-03     20.4919E-03
             298     6.20388E-03     57.4172E-03    -7.89236E+06    -51.9214E+06     769.322E+03     827.550E+03    -15.5575E-03     31.0193E-03    -15.4618E-03     24.4022E-03    -15.5241E-03     30.7713E-03    -15.3712E-03     24.4088E-03
             299     7.09018E-03     57.4417E-03    -7.12715E+06    -49.8721E+06     1.16559E+06     251.585E+03    -15.6005E-03     31.0592E-03    -15.4587E-03     28.5190E-03    -15.5675E-03     30.8204E-03    -15.3702E-03     28.5170E-03
             300     7.97647E-03     57.4701E-03    -6.12584E+06    -50.6271E+06     2.16612E+06    -1.01573E+06    -15.6740E-03     31.1360E-03    -15.4620E-03     32.7622E-03    -15.6373E-03     30.8915E-03    -15.3689E-03     32.7422E-03
             301     8.86276E-03     57.5026E-03    -5.55551E+06    -46.8525E+06     3.72657E+06    -793.604E+03    -15.7606E-03     31.2238E-03    -15.4633E-03     37.0767E-03    -15.7303E-03     30.9967E-03    -15.3687E-03     37.0574E-03
             302     9.74900E-03     57.5390E-03    -5.45786E+06    -48.0825E+06     4.60595E+06     359.442E+03    -15.8640E-03     31.3347E-03    -15.4707E-03     41.3609E-03    -15.8353E-03     31.1026E-03    -15.3700E-03     41.3533E-03
             303     10.6353E-03     57.5795E-03    -4.67544E+06    -49.2117E+06     2.79351E+06    -196.071E+03    -15.9735E-03     31.4380E-03    -15.4645E-03     45.5432E-03    -15.9407E-03     31.2059E-03    -15.3724E-03     45.5242E-03
             304     11.5214E-03     57.6237E-03    -3.04225E+06    -39.9090E+06     2.92522E+06    -912.061E+03    -16.0455E-03     31.4964E-03    -15.4509E-03     50.0360E-03    -16.0246E-03     31.3145E-03    -15.3739E-03     50.0027E-03
             305     12.4079E-03     57.6725E-03    -1.70023E+06    -36.9714E+06     1.75608E+06    -38.9157E+03    -16.2453E-03     31.6851E-03    -15.4397E-03     56.7884E-03    -16.2328E-03     31.5302E-03    -15.3749E-03     56.7593E-03
             306     13.2939E-03     57.7291E-03    -1.93710E+06    -36.7182E+06    -7.39411E+06     713.345E+03    -16.4090E-03     31.8053E-03    -15.3963E-03     61.6784E-03    -16.4046E-03     31.6851E-03    -15.3772E-03     61.6510E-03
             307     14.1805E-03     57.7876E-03    -2.17954E+06    -13.6024E+06    -7.05175E+06     406.736E+03    -16.4862E-03     31.8547E-03    -15.3685E-03     65.2411E-03    -16.5471E-03     31.8800E-03    -15.3809E-03     65.2060E-03
             308     15.0657E-03     57.8505E-03    -730.890E+03     21.9695E+06    -4.71555E+06     327.539E+03    -17.2461E-03     32.5703E-03    -15.3242E-03     91.1393E-03    -17.5110E-03     32.9243E-03    -15.3786E-03     91.1242E-03
             309     15.9533E-03     57.9580E-03    -70.4944E+03     70.8289E+06    -9.49018E+06     773.737E+03    -19.1692E-03     34.3829E-03    -15.2137E-03     142.600E-03    -20.4941E-03     35.9864E-03    -15.3637E-03     143.016E-03
             310     16.8429E-03     58.1174E-03    -2.51669E+06     130.918E+06     26.6809E+06     697.232E+03    -20.0024E-03     35.3018E-03    -15.2994E-03     166.527E-03    -22.6807E-03     38.3586E-03    -15.3522E-03     168.571E-03
             311     886.260E-06     58.3199E-03    -14.0904E+06    -59.6697E+06    -13.6855E+06    -57.5150E+03    -15.4527E-03     30.8725E-03    -15.4198E-03     3.53215E-03    -15.4166E-03     30.6150E-03    -15.3812E-03     3.53098E-03
             312     1.77248E-03     58.3245E-03    -13.2837E+06    -58.3652E+06    -11.9884E+06     46.1399E+03    -15.4283E-03     30.8661E-03    -15.4378E-03     6.57749E-03    -15.3927E-03     30.6110E-03    -15.3938E-03     6.57722E-03
             313     2.65879E-03     58.3321E-03    -12.2052E+06    -56.4160E+06    -8.95747E+06    -18.4478E+03    -15.4303E-03     30.8728E-03    -15.4425E-03     9.85243E-03    -15.3967E-03     30.6216E-03    -15.3878E-03     9.85085E-03
             314     3.54503E-03     58.3428E-03    -10.9657E+06    -54.4316E+06    -5.72684E+06     34.2877E+03    -15.4459E-03     30.8952E-03    -15.4493E-03     13.2554E-03    -15.4138E-03     30.6475E-03    -15.3831E-03     13.2540E-03
             315     4.43133E-03     58.3568E-03    -9.72451E+06    -52.1385E+06    -3.19916E+06     344.481E+03    -15.4687E-03     30.9219E-03    -15.4533E-03     16.8110E-03    -15.4376E-03     30.6805E-03    -15.3796E-03     16.8130E-03
             316     5.31758E-03     58.3741E-03    -8.39360E+06    -54.5192E+06    -862.011E+03     300.544E+03    -15.5120E-03     30.9759E-03    -15.4639E-03     20.5098E-03    -15.4744E-03     30.7175E-03    -15.3770E-03     20.5105E-03
             317     6.20389E-03     58.3949E-03    -6.45210E+06    -52.5560E+06     896.645E+03     487.925E+03    -15.5558E-03     31.0208E-03    -15.4650E-03     24.4158E-03    -15.5144E-03     30.7673E-03    -15.3749E-03     24.4181E-03
             318     7.09018E-03     58.4195E-03    -4.66598E+06    -48.5815E+06     3.54218E+06     274.209E+03    -15.6172E-03     31.0855E-03    -15.4683E-03     28.5035E-03    -15.5771E-03     30.8461E-03    -15.3734E-03     28.5018E-03
             319     7.97645E-03     58.4479E-03    -4.41415E+06    -50.0579E+06     5.26316E+06    -86.2406E+03    -15.7011E-03     31.1799E-03    -15.4788E-03     32.7138E-03    -15.6611E-03     30.9313E-03    -15.3735E-03     32.7059E-03
             320     8.86270E-03     58.4803E-03    -4.84079E+06    -47.9394E+06     5.39837E+06      385.04E+03    -15.7774E-03     31.2557E-03    -15.4784E-03     37.0347E-03    -15.7444E-03     31.0198E-03    -15.3749E-03     37.0305E-03
             321     9.74895E-03     58.5169E-03    -3.95357E+06    -48.1718E+06     5.73564E+06     307.715E+03    -15.8721E-03     31.3528E-03    -15.4807E-03     41.3318E-03    -15.8374E-03     31.1165E-03    -15.3765E-03     41.3236E-03
             322     10.6352E-03     58.5572E-03    -2.94546E+06    -47.8861E+06     3.59952E+06    -314.456E+03    -15.9769E-03     31.4470E-03    -15.4701E-03     45.5485E-03    -15.9386E-03     31.2177E-03    -15.3784E-03     45.5280E-03
             323     11.5215E-03     58.6016E-03    -3.37262E+06    -39.5897E+06     3.03610E+06    -944.060E+03    -16.0626E-03     31.5202E-03    -15.4576E-03     50.0087E-03    -16.0440E-03     31.3403E-03    -15.3801E-03     49.9750E-03
             324     12.4077E-03     58.6501E-03    -3.72227E+06    -38.7537E+06     665.014E+03    -343.491E+03    -16.2895E-03     31.7374E-03    -15.4479E-03     56.8414E-03    -16.2829E-03     31.5781E-03    -15.3830E-03     56.8083E-03
             325     13.2939E-03     58.7075E-03    -3.24517E+06    -36.7408E+06    -7.92515E+06     456.686E+03    -16.4769E-03     31.8842E-03    -15.4072E-03     61.6570E-03    -16.4786E-03     31.7668E-03    -15.3889E-03     61.6260E-03
             326     14.1798E-03     58.7647E-03    -2.51896E+06    -12.5232E+06    -6.77571E+06    -298.415E+03    -16.4392E-03     31.8197E-03    -15.3806E-03     65.4771E-03    -16.5039E-03     31.8507E-03    -15.3926E-03     65.4332E-03
             327     15.0666E-03     58.8298E-03    -2.77754E+06     21.6159E+06    -5.89112E+06    -955.614E+03    -17.3244E-03     32.6587E-03    -15.3342E-03     91.0223E-03    -17.5977E-03     33.0159E-03    -15.3910E-03     90.9903E-03
             328     15.9529E-03     58.9332E-03    -2.83326E+06     69.2236E+06    -11.1367E+06     287.210E+03    -19.4838E-03     34.7201E-03    -15.2363E-03     141.837E-03    -20.8087E-03     36.3129E-03    -15.3882E-03     142.233E-03
             329     16.8363E-03     59.0965E-03    -1.61850E+06     131.023E+06     24.9431E+06     1.66160E+06    -19.6229E-03     34.9362E-03    -15.3133E-03     165.893E-03    -22.2706E-03     37.9710E-03    -15.3763E-03     167.950E-03
             330     886.232E-06     59.2977E-03    -15.8916E+06    -59.6040E+06    -14.6283E+06     27.4694E+03    -15.4226E-03     30.8637E-03    -15.4411E-03     3.52571E-03    -15.3943E-03     30.6105E-03    -15.4048E-03     3.52564E-03
             331     1.77251E-03     59.3023E-03    -14.6977E+06    -58.2769E+06    -11.7768E+06    -123.958E+03    -15.4302E-03     30.8733E-03    -15.4431E-03     6.57682E-03    -15.4021E-03     30.6203E-03    -15.3962E-03     6.57437E-03
             332     2.65874E-03     59.3099E-03    -13.1289E+06    -56.2541E+06    -9.14167E+06    -262.432E+03    -15.4378E-03     30.8857E-03    -15.4479E-03     9.85910E-03    -15.4087E-03     30.6369E-03    -15.3930E-03     9.85437E-03
             333     3.54503E-03     59.3206E-03    -11.4777E+06    -54.6727E+06    -6.22720E+06    -154.072E+03    -15.4509E-03     30.9051E-03    -15.4542E-03     13.2655E-03    -15.4202E-03     30.6577E-03    -15.3894E-03     13.2616E-03
             334     4.43128E-03     59.3345E-03    -9.80607E+06    -52.6207E+06    -3.59233E+06     160.574E+03    -15.4689E-03     30.9268E-03    -15.4579E-03     16.8225E-03    -15.4369E-03     30.6836E-03    -15.3853E-03     16.8221E-03
             335     5.31760E-03     59.3519E-03    -8.30556E+06    -54.1112E+06    -655.336E+03     150.155E+03    -15.5153E-03     30.9845E-03    -15.4692E-03     20.5140E-03    -15.4782E-03     30.7277E-03    -15.3820E-03     20.5127E-03
             336     6.20384E-03     59.3726E-03    -6.83251E+06    -52.5423E+06     1.53513E+06    -473.474E+03    -15.5720E-03     31.0465E-03    -15.4745E-03     24.4099E-03    -15.5335E-03     30.7928E-03    -15.3807E-03     24.3997E-03
             337     7.09012E-03     59.3973E-03    -5.18671E+06    -48.7516E+06     3.98582E+06    -142.925E+03    -15.6360E-03     31.1152E-03    -15.4792E-03     28.4976E-03    -15.5990E-03     30.8752E-03    -15.3811E-03     28.4905E-03
             338     7.97635E-03     59.4257E-03    -3.85121E+06    -50.7356E+06     6.47192E+06     976.940E+03    -15.7221E-03     31.2163E-03    -15.4942E-03     32.6765E-03    -15.6801E-03     30.9618E-03    -15.3827E-03     32.6821E-03
             339     8.86258E-03     59.4582E-03    -2.55909E+06    -47.6632E+06     6.37676E+06     774.630E+03    -15.7874E-03     31.2763E-03    -15.4889E-03     37.0241E-03    -15.7449E-03     31.0370E-03    -15.3842E-03     37.0250E-03
             340     9.74885E-03     59.4947E-03    -1.78587E+06    -47.8060E+06     5.88110E+06     199.511E+03    -15.8765E-03     31.3625E-03    -15.4860E-03     41.3392E-03    -15.8318E-03     31.1247E-03    -15.3847E-03     41.3296E-03
             341     10.6351E-03     59.5351E-03    -1.96857E+06    -47.7991E+06     4.15388E+06     433.885E+03    -15.9968E-03     31.4761E-03    -15.4792E-03     45.5245E-03    -15.9546E-03     31.2451E-03    -15.3863E-03     45.5136E-03
             342     11.5214E-03     59.5794E-03    -2.21203E+06    -38.7732E+06     4.81182E+06     341.307E+03    -16.0919E-03     31.5645E-03    -15.4726E-03     49.9587E-03    -16.0713E-03     31.3844E-03    -15.3891E-03     49.9414E-03
             343     12.4075E-03     59.6282E-03    -2.14964E+06    -39.5340E+06     1.36911E+06    -188.267E+03    -16.2750E-03     31.7339E-03    -15.4589E-03     56.8693E-03    -16.2605E-03     31.5674E-03    -15.3916E-03     56.8382E-03
             344     13.2938E-03     59.6851E-03    -1.74255E+06    -36.5043E+06    -8.17982E+06    -456.944E+03    -16.4684E-03     31.8783E-03    -15.4099E-03     61.8984E-03    -16.4625E-03     31.7604E-03    -15.3953E-03     61.8557E-03
             345     14.1798E-03     59.7433E-03    -2.31667E+06    -12.5416E+06    -7.03915E+06    -247.010E+03    -16.4736E-03     31.8591E-03    -15.3854E-03     65.3487E-03    -16.5369E-03     31.8900E-03    -15.3991E-03     65.3053E-03
             346     15.0664E-03     59.8061E-03    -3.15364E+06     22.5355E+06    -5.81159E+06    -154.376E+03    -17.4805E-03     32.8257E-03    -15.3452E-03     91.1630E-03    -17.7572E-03     33.1880E-03    -15.4023E-03     91.1397E-03
             347     15.9513E-03     59.9140E-03    -3.75284E+06     67.4015E+06    -12.7868E+06    -142.159E+03    -19.5485E-03     34.7956E-03    -15.2471E-03     142.755E-03    -20.8882E-03     36.3983E-03    -15.4033E-03     143.149E-03
             348     16.8402E-03     60.0726E-03    -3.00558E+06     129.525E+06     20.0354E+06     612.635E+03    -19.4963E-03     34.7987E-03    -15.3025E-03     166.980E-03    -22.1678E-03     37.8614E-03    -15.3858E-03     169.030E-03
             349     886.261E-06     60.2754E-03    -14.9365E+06    -59.8803E+06    -13.9593E+06     367.153E+03    -15.4229E-03     30.8760E-03    -15.4531E-03     3.51799E-03    -15.3904E-03     30.6191E-03    -15.4144E-03     3.52230E-03
             350     1.77248E-03     60.2800E-03    -14.0135E+06    -57.8426E+06    -11.4533E+06     8.26439E+03    -15.4376E-03     30.8840E-03    -15.4464E-03     6.57960E-03    -15.4071E-03     30.6317E-03    -15.3995E-03     6.57884E-03
             351     2.65875E-03     60.2876E-03    -12.9694E+06    -56.1160E+06    -8.67767E+06    -224.928E+03    -15.4450E-03     30.8990E-03    -15.4540E-03     9.86396E-03    -15.4160E-03     30.6500E-03    -15.3973E-03     9.85970E-03
             352     3.54499E-03     60.2983E-03    -11.8721E+06    -54.7994E+06    -6.10449E+06    -188.775E+03    -15.4548E-03     30.9152E-03    -15.4604E-03     13.2703E-03    -15.4261E-03     30.6676E-03    -15.3943E-03     13.2660E-03
             353     4.43129E-03     60.3123E-03    -10.5116E+06    -52.7886E+06    -3.48982E+06    -177.757E+03    -15.4775E-03     30.9427E-03    -15.4653E-03     16.8217E-03    -15.4490E-03     30.6996E-03    -15.3909E-03     16.8169E-03
             354     5.31754E-03     60.3296E-03    -8.82747E+06    -54.0239E+06    -562.976E+03    -120.177E+03    -15.5311E-03     31.0086E-03    -15.4775E-03     20.5189E-03    -15.4969E-03     30.7529E-03    -15.3892E-03     20.5141E-03
             355     6.20379E-03     60.3505E-03    -7.76885E+06    -51.8350E+06     1.40926E+06    -196.875E+03    -15.5852E-03     31.0683E-03    -15.4831E-03     24.4190E-03    -15.5522E-03     30.8196E-03    -15.3896E-03     24.4124E-03
             356     7.09001E-03     60.3750E-03    -7.33462E+06    -49.7566E+06     2.01409E+06    -132.168E+03    -15.6365E-03     31.1198E-03    -15.4833E-03     28.5306E-03    -15.6058E-03     30.8806E-03    -15.3905E-03     28.5237E-03
             357     7.97627E-03     60.4036E-03    -5.71492E+06    -51.2623E+06     3.42915E+06     84.3815E+03    -15.7113E-03     31.2021E-03    -15.4908E-03     32.7466E-03    -15.6735E-03     30.9520E-03    -15.3910E-03     32.7408E-03
             358     8.86252E-03     60.4359E-03    -3.90929E+06    -47.3495E+06     5.03560E+06     292.561E+03    -15.7876E-03     31.2785E-03    -15.4909E-03     37.0726E-03    -15.7503E-03     31.0447E-03    -15.3914E-03     37.0672E-03
             359     9.74880E-03     60.4725E-03    -3.38594E+06    -48.2229E+06     5.36935E+06     896.050E+03    -15.8881E-03     31.3821E-03    -15.4940E-03     41.3590E-03    -15.8500E-03     31.1452E-03    -15.3923E-03     41.3584E-03
             360     10.6350E-03     60.5129E-03    -2.84599E+06    -47.4886E+06     3.40494E+06     681.990E+03    -16.0044E-03     31.4888E-03    -15.4844E-03     45.5879E-03    -15.9659E-03     31.2617E-03    -15.3944E-03     45.5803E-03
             361     11.5211E-03     60.5574E-03    -1.50672E+06    -38.3901E+06     4.46770E+06     36.0811E+03    -16.0705E-03     31.5467E-03    -15.4762E-03     50.0620E-03    -16.0464E-03     31.3680E-03    -15.3960E-03     50.0408E-03
             362     12.4075E-03     60.6059E-03    -423.500E+03    -39.0262E+06     1.53352E+06    -261.196E+03    -16.2400E-03     31.7003E-03    -15.4603E-03     56.9565E-03    -16.2178E-03     31.5336E-03    -15.3954E-03     56.9246E-03
             363     13.2937E-03     60.6632E-03    -1.40076E+06    -37.0933E+06    -8.52611E+06     77.1168E+03    -16.3922E-03     31.8000E-03    -15.4078E-03     62.0331E-03    -16.3829E-03     31.6787E-03    -15.3946E-03     61.9977E-03
             364     14.1801E-03     60.7210E-03    -2.77549E+06    -12.4671E+06    -6.82748E+06     472.898E+03    -16.5626E-03     31.9486E-03    -15.3861E-03     65.6943E-03    -16.6290E-03     31.9807E-03    -15.3981E-03     65.6598E-03
             365     15.0654E-03     60.7850E-03    -2.49350E+06     22.7751E+06    -5.39794E+06    -64.8768E+03    -17.3441E-03     32.6870E-03    -15.3429E-03     91.6001E-03    -17.6174E-03     33.0479E-03    -15.3993E-03     91.5797E-03
             366     15.9536E-03     60.8907E-03    -3.03609E+06     67.1526E+06    -12.0004E+06    -475.312E+03    -19.3448E-03     34.5824E-03    -15.2376E-03     142.663E-03    -20.6766E-03     36.1766E-03    -15.3905E-03     143.059E-03
             367     16.8384E-03     61.0507E-03    -2.90064E+06     129.735E+06     19.5858E+06     109.178E+03    -19.6056E-03     34.8930E-03    -15.2874E-03     165.769E-03    -22.2619E-03     37.9428E-03    -15.3734E-03     167.809E-03
             368     886.223E-06     61.2532E-03    -14.1724E+06    -60.0757E+06    -14.4196E+06     91.6598E+03    -15.4323E-03     30.8919E-03    -15.4596E-03     3.51325E-03    -15.3950E-03     30.6335E-03    -15.4240E-03     3.51400E-03
             369     1.77249E-03     61.2578E-03    -13.4987E+06    -57.6083E+06    -12.3629E+06    -76.8407E+03    -15.4429E-03     30.8897E-03    -15.4468E-03     6.57763E-03    -15.4089E-03     30.6392E-03    -15.4055E-03     6.57578E-03
             370     2.65873E-03     61.2654E-03    -12.3947E+06    -56.0260E+06    -8.22614E+06     9.06071E+03    -15.4499E-03     30.9099E-03    -15.4600E-03     9.86235E-03    -15.4188E-03     30.6597E-03    -15.4019E-03     9.86112E-03
             371     3.54500E-03     61.2761E-03    -10.9301E+06    -54.8913E+06    -4.31329E+06     37.1119E+03    -15.4731E-03     30.9470E-03    -15.4738E-03     13.2567E-03    -15.4422E-03     30.6949E-03    -15.4000E-03     13.2553E-03
             372     4.43123E-03     61.2900E-03    -9.60944E+06    -52.6100E+06    -2.09098E+06    -12.5061E+03    -15.4995E-03     30.9783E-03    -15.4788E-03     16.8142E-03    -15.4687E-03     30.7327E-03    -15.3991E-03     16.8115E-03
             373     5.31749E-03     61.3075E-03    -8.42268E+06    -53.8825E+06    -615.085E+03    -320.501E+03    -15.5423E-03     31.0280E-03    -15.4858E-03     20.5301E-03    -15.5062E-03     30.7726E-03    -15.3985E-03     20.5227E-03
             374     6.20373E-03     61.3282E-03    -7.08098E+06    -52.3355E+06     542.984E+03     170.339E+03    -15.5854E-03     31.0722E-03    -15.4868E-03     24.4447E-03    -15.5470E-03     30.8212E-03    -15.3979E-03     24.4428E-03
             375     7.09000E-03     61.3529E-03    -5.81986E+06    -49.3832E+06     2.26820E+06     217.196E+03    -15.6371E-03     31.1255E-03    -15.4883E-03     28.5488E-03    -15.5998E-03     30.8856E-03    -15.3970E-03     28.5463E-03
             376     7.97626E-03     61.3813E-03    -5.31096E+06    -51.3655E+06     3.67446E+06    -238.057E+03    -15.7159E-03     31.2130E-03    -15.4971E-03     32.7667E-03    -15.6762E-03     30.9615E-03    -15.3965E-03     32.7568E-03
             377     8.86252E-03     61.4139E-03    -4.92547E+06    -48.0866E+06     5.13434E+06     329.691E+03    -15.7952E-03     31.2949E-03    -15.4996E-03     37.0776E-03    -15.7621E-03     31.0587E-03    -15.3971E-03     37.0727E-03
             378     9.74871E-03     61.4503E-03    -3.10781E+06    -48.2232E+06     6.04385E+06     251.292E+03    -15.8879E-03     31.3905E-03    -15.5026E-03     41.3949E-03    -15.8494E-03     31.1522E-03    -15.3979E-03     41.3859E-03
             379     10.6349E-03     61.4909E-03    -1.24073E+06    -47.2897E+06     3.36281E+06     138.973E+03    -15.9747E-03     31.4599E-03    -15.4852E-03     45.6752E-03    -15.9284E-03     31.2315E-03    -15.3980E-03     45.6606E-03
             380     11.5213E-03     61.5350E-03    -1.49970E+06    -38.1901E+06     4.36117E+06     400.417E+03    -16.0516E-03     31.5279E-03    -15.4763E-03     50.1016E-03    -16.0276E-03     31.3503E-03    -15.3969E-03     50.0852E-03
             381     12.4075E-03     61.5839E-03    -2.90944E+06    -38.8091E+06     1.28809E+06     291.950E+03    -16.2389E-03     31.7019E-03    -15.4630E-03     56.8813E-03    -16.2291E-03     31.5402E-03    -15.3960E-03     56.8565E-03
             382     13.2938E-03     61.6407E-03    -3.29643E+06    -37.8183E+06    -9.00529E+06     431.060E+03    -16.3859E-03     31.7963E-03    -15.4104E-03     61.9240E-03    -16.3844E-03     31.6750E-03    -15.3958E-03     61.8931E-03
             383     14.1800E-03     61.6990E-03    -2.92902E+06    -12.1240E+06    -6.63429E+06     418.547E+03    -16.4073E-03     31.7906E-03    -15.3833E-03     65.7585E-03    -16.4750E-03     31.8241E-03    -15.3946E-03     65.7239E-03
             384     15.0671E-03     61.7631E-03    -3.98866E+06     23.6498E+06    -5.72233E+06    -106.899E+03    -17.3946E-03     32.7316E-03    -15.3370E-03     90.9431E-03    -17.6755E-03     33.0989E-03    -15.3941E-03     90.9208E-03
             385     15.9522E-03     61.8677E-03    -4.81781E+06     67.1259E+06    -12.7366E+06    -523.675E+03    -19.5095E-03     34.7487E-03    -15.2392E-03     142.324E-03    -20.8439E-03     36.3412E-03    -15.3932E-03     142.707E-03
             386     16.8388E-03     62.0309E-03    -3.35102E+06     129.344E+06     18.7720E+06    -681.780E+03    -19.4265E-03     34.7139E-03    -15.2874E-03     165.539E-03    -22.0674E-03     37.7476E-03    -15.3762E-03     167.573E-03
             387     886.244E-06     62.2310E-03    -14.5198E+06    -59.6528E+06    -14.5622E+06    -504.665E+03    -15.4440E-03     30.9046E-03    -15.4606E-03     3.53503E-03    -15.4088E-03     30.6491E-03    -15.4259E-03     3.52805E-03
             388     1.77246E-03     62.2355E-03    -14.1564E+06    -57.6820E+06    -12.6129E+06    -253.416E+03    -15.4499E-03     30.9048E-03    -15.4549E-03     6.57060E-03    -15.4187E-03     30.6552E-03    -15.4138E-03     6.56647E-03
             389     2.65872E-03     62.2432E-03    -13.0013E+06    -56.1152E+06    -8.93547E+06    -70.8558E+03    -15.4574E-03     30.9236E-03    -15.4662E-03     9.86169E-03    -15.4281E-03     30.6749E-03    -15.4107E-03     9.85941E-03
             390     3.54495E-03     62.2539E-03    -11.3442E+06    -54.8955E+06    -4.99123E+06    -19.9887E+03    -15.4826E-03     30.9627E-03    -15.4801E-03     13.2646E-03    -15.4528E-03     30.7122E-03    -15.4090E-03     13.2624E-03
             391     4.43118E-03     62.2679E-03    -9.48492E+06    -52.4918E+06    -2.52705E+06    -78.0252E+03    -15.5075E-03     30.9928E-03    -15.4853E-03     16.8255E-03    -15.4757E-03     30.7483E-03    -15.4081E-03     16.8220E-03
             392     5.31744E-03     62.2852E-03    -8.14416E+06    -53.6135E+06    -849.812E+03    -69.8633E+03    -15.5433E-03     31.0352E-03    -15.4919E-03     20.5424E-03    -15.5059E-03     30.7810E-03    -15.4066E-03     20.5382E-03
             393     6.20369E-03     62.3061E-03    -6.98048E+06    -52.8627E+06     322.122E+03    -258.467E+03    -15.5874E-03     31.0806E-03    -15.4932E-03     24.4563E-03    -15.5474E-03     30.8272E-03    -15.4048E-03     24.4489E-03
             394     7.08997E-03     62.3307E-03    -5.46562E+06    -49.1183E+06     2.83082E+06    -101.592E+03    -15.6457E-03     31.1425E-03    -15.4968E-03     28.5512E-03    -15.6079E-03     30.9027E-03    -15.4035E-03     28.5446E-03
             395     7.97619E-03     62.3593E-03    -4.20167E+06    -51.7112E+06     5.45430E+06     430.252E+03    -15.7315E-03     31.2433E-03    -15.5118E-03     32.7340E-03    -15.6884E-03     30.9859E-03    -15.4035E-03     32.7326E-03
             396     8.86240E-03     62.3916E-03    -2.88164E+06    -48.0388E+06     5.59060E+06     97.6062E+03    -15.7929E-03     31.2982E-03    -15.5052E-03     37.0940E-03    -15.7504E-03     31.0586E-03    -15.4034E-03     37.0862E-03
             397     9.74868E-03     62.4283E-03    -1.88133E+06    -47.4273E+06     5.93481E+06    -639.245E+03    -15.8725E-03     31.3759E-03    -15.5034E-03     41.4002E-03    -15.8289E-03     31.1400E-03    -15.4022E-03     41.3797E-03
             398     10.6350E-03     62.4685E-03    -1.59983E+06    -48.5647E+06     3.64382E+06    -57.4459E+03    -15.9801E-03     31.4724E-03    -15.4923E-03     45.6010E-03    -15.9341E-03     31.2378E-03    -15.4013E-03     45.5839E-03
             399     11.5212E-03     62.5131E-03    -1.25381E+06    -38.9576E+06     5.31847E+06     1.49679E+06    -16.0654E-03     31.5512E-03    -15.4858E-03     50.0048E-03    -16.0405E-03     31.3681E-03    -15.4009E-03     50.0025E-03
             400     12.4074E-03     62.5616E-03    -829.101E+03    -37.7706E+06     3.41681E+06     1.29238E+06    -16.2599E-03     31.7339E-03    -15.4739E-03     56.7644E-03    -16.2443E-03     31.5714E-03    -15.4009E-03     56.7524E-03
             401     13.2936E-03     62.6187E-03    -703.895E+03    -37.4341E+06    -8.16688E+06    -129.908E+03    -16.4377E-03     31.8545E-03    -15.4168E-03     61.9018E-03    -16.4253E-03     31.7304E-03    -15.4023E-03     61.8634E-03
             402     14.1799E-03     62.6767E-03    -1.03956E+06    -13.1139E+06    -6.74789E+06     325.130E+03    -16.4332E-03     31.8228E-03    -15.3896E-03     65.5549E-03    -16.4896E-03     31.8484E-03    -15.4028E-03     65.5190E-03
             403     15.0658E-03     62.7407E-03    -1.52998E+06     24.4688E+06    -4.42631E+06     1.22191E+06    -17.4327E-03     32.7799E-03    -15.3473E-03     91.2049E-03    -17.7061E-03     33.1477E-03    -15.4027E-03     91.1996E-03
             404     15.9519E-03     62.8472E-03    -1.93097E+06     69.1100E+06    -11.3726E+06     123.906E+03    -19.2781E-03     34.5193E-03    -15.2412E-03     142.284E-03    -20.5997E-03     36.1124E-03    -15.3955E-03     142.684E-03
             405     16.8396E-03     63.0056E-03    -2.16121E+06     128.905E+06     24.5904E+06    -1.25069E+06    -19.4895E-03     34.8028E-03    -15.3133E-03     165.553E-03    -22.1384E-03     37.8303E-03    -15.3742E-03     167.571E-03
             406     886.213E-06     63.2087E-03    -15.6734E+06    -59.1989E+06    -14.2190E+06    -261.968E+03    -15.4683E-03     30.9163E-03    -15.4480E-03     3.53259E-03    -15.4401E-03     30.6643E-03    -15.4105E-03     3.52871E-03
             407     1.77246E-03     63.2134E-03    -14.6192E+06    -57.7593E+06    -11.8933E+06    -70.7939E+03    -15.4628E-03     30.9316E-03    -15.4688E-03     6.57028E-03    -15.4348E-03     30.6813E-03    -15.4234E-03     6.56847E-03
             408     2.65867E-03     63.2210E-03    -13.5903E+06    -56.2147E+06    -9.84885E+06    -43.0665E+03    -15.4670E-03     30.9409E-03    -15.4738E-03     9.86530E-03    -15.4393E-03     30.6939E-03    -15.4219E-03     9.86339E-03
             409     3.54492E-03     63.2317E-03    -12.3342E+06    -54.5598E+06    -7.30113E+06    -265.845E+03    -15.4770E-03     30.9560E-03    -15.4790E-03     13.2902E-03    -15.4493E-03     30.7120E-03    -15.4185E-03     13.2849E-03
             410     4.43117E-03     63.2457E-03    -10.7738E+06    -52.3246E+06    -4.20463E+06    -565.524E+03    -15.5010E-03     30.9865E-03    -15.4855E-03     16.8472E-03    -15.4734E-03     30.7471E-03    -15.4150E-03     16.8374E-03
             411     5.31741E-03     63.2631E-03    -8.98401E+06    -54.0374E+06    -1.12851E+06    -206.213E+03    -15.5481E-03     31.0466E-03    -15.4985E-03     20.5503E-03    -15.5139E-03     30.7919E-03    -15.4127E-03     20.5444E-03
             412     6.20366E-03     63.2839E-03    -7.82189E+06    -52.3394E+06     677.223E+03    -100.660E+03    -15.5965E-03     31.0988E-03    -15.5023E-03     24.4611E-03    -15.5620E-03     30.8487E-03    -15.4117E-03     24.4557E-03
             413     7.08987E-03     63.3086E-03    -7.38936E+06    -49.8042E+06     1.48928E+06    -47.3054E+03    -15.6424E-03     31.1434E-03    -15.5010E-03     28.5766E-03    -15.6113E-03     30.9049E-03    -15.4106E-03     28.5707E-03
             414     7.97612E-03     63.3371E-03    -6.10989E+06    -51.4782E+06     3.04891E+06    -190.969E+03    -15.7120E-03     31.2200E-03    -15.5080E-03     32.7973E-03    -15.6753E-03     30.9700E-03    -15.4092E-03     32.7879E-03
             415     8.86238E-03     63.3695E-03    -4.63882E+06    -47.6825E+06     3.97918E+06     -433.32E+03    -15.7829E-03     31.2864E-03    -15.5035E-03     37.1304E-03    -15.7473E-03     31.0535E-03    -15.4077E-03     37.1157E-03
             416     9.74869E-03     63.4060E-03    -4.43170E+06    -47.5012E+06     4.69980E+06     134.907E+03    -15.8807E-03     31.3863E-03    -15.5056E-03     41.3968E-03    -15.8479E-03     31.1555E-03    -15.4068E-03     41.3863E-03
             417     10.6348E-03     63.4465E-03    -4.26998E+06    -48.8183E+06     2.38631E+06    -93.6743E+03    -15.9910E-03     31.4871E-03    -15.4961E-03     45.6070E-03    -15.9562E-03     31.2569E-03    -15.4072E-03     45.5893E-03
             418     11.5211E-03     63.4908E-03    -2.14824E+06    -40.3510E+06     2.92325E+06    -271.722E+03    -16.0488E-03     31.5315E-03    -15.4827E-03     50.1146E-03    -16.0228E-03     31.3461E-03    -15.4064E-03     50.0896E-03
             419     12.4073E-03     63.5396E-03     542.304E+03    -37.0821E+06     2.70434E+06     366.681E+03    -16.2407E-03     31.7115E-03    -15.4707E-03     56.9221E-03    -16.2182E-03     31.5514E-03    -15.4042E-03     56.8983E-03
             420     13.2937E-03     63.5964E-03     641.061E+03    -36.7209E+06    -7.49523E+06     425.346E+03    -16.4395E-03     31.8585E-03    -15.4189E-03     62.0866E-03    -16.4223E-03     31.7350E-03    -15.4041E-03     62.0554E-03
             421     14.1796E-03     63.6548E-03    -124.586E+03    -14.1083E+06    -6.93368E+06     250.649E+03    -16.4751E-03     31.8659E-03    -15.3908E-03     65.9398E-03    -16.5254E-03     31.8858E-03    -15.4048E-03     65.9030E-03
             422     15.0662E-03     63.7186E-03     838.804E+03     23.3374E+06    -3.84973E+06     801.125E+03    -17.2087E-03     32.5524E-03    -15.3437E-03     91.6507E-03    -17.4686E-03     32.9092E-03    -15.3980E-03     91.6424E-03
             423     15.9533E-03     63.8248E-03     169.962E+03     70.7587E+06    -9.25413E+06     1.49461E+06    -19.2317E-03     34.4651E-03    -15.2335E-03     142.125E-03    -20.5408E-03     36.0529E-03    -15.3826E-03     142.544E-03
             424     16.8388E-03     63.9836E-03    -143.260E+03     130.372E+06     30.0003E+06     481.877E+03    -19.7835E-03     35.1122E-03    -15.3287E-03     166.020E-03    -22.4439E-03     38.1479E-03    -15.3675E-03     168.068E-03
             425     886.238E-06     64.1866E-03    -15.3977E+06    -59.2238E+06    -14.5399E+06     281.165E+03    -15.4732E-03     30.9352E-03    -15.4620E-03     3.52181E-03    -15.4431E-03     30.6831E-03    -15.4265E-03     3.52487E-03
             426     1.77242E-03     64.1912E-03    -14.4985E+06    -57.6745E+06    -12.3135E+06     29.7716E+03    -15.4727E-03     30.9485E-03    -15.4758E-03     6.57740E-03    -15.4437E-03     30.6991E-03    -15.4327E-03     6.57687E-03
             427     2.65866E-03     64.1988E-03    -13.0371E+06    -56.0542E+06    -9.75892E+06    -208.465E+03    -15.4743E-03     30.9562E-03    -15.4819E-03     9.87059E-03    -15.4442E-03     30.7091E-03    -15.4305E-03     9.86654E-03
             428     3.54488E-03     64.2095E-03    -11.6582E+06    -54.1440E+06    -6.99951E+06     -389.22E+03    -15.4812E-03     30.9674E-03    -15.4863E-03     13.2985E-03    -15.4511E-03     30.7241E-03    -15.4258E-03     13.2916E-03
             429     4.43115E-03     64.2235E-03    -10.5715E+06    -51.9761E+06    -4.02477E+06    -571.721E+03    -15.5045E-03     30.9964E-03    -15.4919E-03     16.8538E-03    -15.4767E-03     30.7582E-03    -15.4213E-03     16.8439E-03
             430     5.31738E-03     64.2408E-03    -9.34024E+06    -54.5085E+06    -1.26880E+06    -600.198E+03    -15.5560E-03     31.0612E-03    -15.5052E-03     20.5574E-03    -15.5227E-03     30.8049E-03    -15.4190E-03     20.5464E-03
             431     6.20360E-03     64.2618E-03    -7.78694E+06    -52.6304E+06     174.199E+03     48.9832E+03    -15.5950E-03     31.1009E-03    -15.5059E-03     24.4803E-03    -15.5591E-03     30.8501E-03    -15.4175E-03     24.4768E-03
             432     7.08986E-03     64.2864E-03    -6.29363E+06    -49.6767E+06     1.57737E+06     146.809E+03    -15.6359E-03     31.1397E-03    -15.5038E-03     28.5941E-03    -15.5995E-03     30.9001E-03    -15.4148E-03     28.5907E-03
             433     7.97615E-03     64.3148E-03    -5.73067E+06    -51.1326E+06     3.28995E+06    -122.256E+03    -15.7103E-03     31.2213E-03    -15.5110E-03     32.8108E-03    -15.6725E-03     30.9721E-03    -15.4121E-03     32.8023E-03
             434     8.86240E-03     64.3473E-03    -5.81154E+06    -47.9107E+06     4.43013E+06     101.885E+03    -15.7881E-03     31.2988E-03    -15.5107E-03     37.1201E-03    -15.7587E-03     31.0658E-03    -15.4106E-03     37.1122E-03
             435     9.74855E-03     64.3839E-03    -4.58372E+06    -47.7621E+06     4.75635E+06    -18.7584E+03    -15.8716E-03     31.3808E-03    -15.5092E-03     41.4492E-03    -15.8393E-03     31.1489E-03    -15.4096E-03     41.4367E-03
             436     10.6349E-03     64.4243E-03    -2.87378E+06    -47.8086E+06     2.34150E+06    -481.126E+03    -15.9664E-03     31.4596E-03    -15.4932E-03     45.7100E-03    -15.9260E-03     31.2325E-03    -15.4080E-03     45.6874E-03
             437     11.5211E-03     64.4686E-03    -2.75069E+06    -40.0972E+06     2.04752E+06    -1.40535E+06    -16.0382E-03     31.5161E-03    -15.4779E-03     50.1841E-03    -16.0143E-03     31.3342E-03    -15.4055E-03     50.1445E-03
             438     12.4075E-03     64.5173E-03    -2.97069E+06    -38.6336E+06     539.642E+03    -841.247E+03    -16.2260E-03     31.6920E-03    -15.4659E-03     56.9867E-03    -16.2157E-03     31.5323E-03    -15.4029E-03     56.9473E-03
             439     13.2937E-03     64.5744E-03    -2.52765E+06    -36.5898E+06    -8.24182E+06     295.732E+03    -16.3650E-03     31.7814E-03    -15.4164E-03     62.0354E-03    -16.3627E-03     31.6641E-03    -15.4009E-03     62.0027E-03
             440     14.1802E-03     64.6325E-03    -2.17889E+06    -13.2752E+06    -7.09427E+06    -418.059E+03    -16.3936E-03     31.7784E-03    -15.3848E-03     65.9154E-03    -16.4551E-03     31.8056E-03    -15.3978E-03     65.8702E-03
             441     15.0664E-03     64.6966E-03    -2.76259E+06     21.4120E+06    -5.95719E+06    -231.996E+03    -17.2588E-03     32.5941E-03    -15.3352E-03     91.0432E-03    -17.5296E-03     32.9483E-03    -15.3921E-03     91.0206E-03
             442     15.9525E-03     64.8018E-03    -2.96240E+06     69.2199E+06    -10.9370E+06     1.50835E+06    -19.1667E-03     34.3944E-03    -15.2277E-03     141.790E-03    -20.4801E-03     35.9748E-03    -15.3785E-03     142.201E-03
             443     16.8396E-03     64.9626E-03    -968.592E+03     131.717E+06     23.7175E+06     1.41311E+06    -19.5736E-03     34.8586E-03    -15.2849E-03     166.367E-03    -22.2246E-03     37.9049E-03    -15.3559E-03     168.433E-03
             444     886.190E-06     65.1644E-03    -14.3120E+06    -59.8767E+06    -14.1789E+06     510.757E+03    -15.4854E-03     30.9658E-03    -15.4805E-03     3.53105E-03    -15.4494E-03     30.7084E-03    -15.4438E-03     3.53710E-03
             445     1.77242E-03     65.1690E-03    -14.1630E+06    -57.0906E+06    -13.0097E+06     98.7354E+03    -15.4713E-03     30.9510E-03    -15.4798E-03     6.57625E-03    -15.4404E-03     30.7050E-03    -15.4415E-03     6.57661E-03
             446     2.65864E-03     65.1766E-03    -13.3757E+06    -55.5988E+06    -9.94791E+06    -530.764E+03    -15.4762E-03     30.9625E-03    -15.4863E-03     9.87687E-03    -15.4482E-03     30.7184E-03    -15.4360E-03     9.86865E-03
             447     3.54488E-03     65.1874E-03    -12.0653E+06    -54.1883E+06    -6.65822E+06    -439.089E+03    -15.4915E-03     30.9862E-03    -15.4947E-03     13.3001E-03    -15.4639E-03     30.7427E-03    -15.4319E-03     13.2925E-03
             448     4.43110E-03     65.2013E-03    -10.7217E+06    -51.5871E+06    -4.12592E+06    -389.801E+03    -15.5102E-03     31.0082E-03    -15.4980E-03     16.8598E-03    -15.4836E-03     30.7723E-03    -15.4282E-03     16.8522E-03
             449     5.31734E-03     65.2187E-03    -9.36663E+06    -54.2634E+06    -1.66705E+06    -721.701E+03    -15.5507E-03     31.0595E-03    -15.5088E-03     20.5689E-03    -15.5172E-03     30.8050E-03    -15.4249E-03     20.5563E-03
             450     6.20359E-03     65.2395E-03    -7.57115E+06    -53.2528E+06    -173.784E+03    -834.715E+03    -15.5903E-03     31.0993E-03    -15.5090E-03     24.4902E-03    -15.5520E-03     30.8455E-03    -15.4216E-03     24.4753E-03
             451     7.08987E-03     65.2642E-03    -5.74196E+06    -49.6923E+06     2.27863E+06    -320.631E+03    -15.6444E-03     31.1545E-03    -15.5101E-03     28.5875E-03    -15.6063E-03     30.9130E-03    -15.4183E-03     28.5781E-03
             452     7.97608E-03     65.2927E-03    -4.47782E+06    -51.8241E+06     4.82417E+06     588.808E+03    -15.7205E-03     31.2422E-03    -15.5217E-03     32.7826E-03    -15.6777E-03     30.9855E-03    -15.4159E-03     32.7832E-03
             453     8.86229E-03     65.3252E-03    -3.14808E+06    -47.2480E+06     5.38222E+06     338.517E+03    -15.7718E-03     31.2849E-03    -15.5131E-03     37.1420E-03    -15.7314E-03     31.0499E-03    -15.4131E-03     37.1373E-03
             454     9.74866E-03     65.3617E-03    -1.86189E+06    -46.8809E+06     5.41515E+06    -938.593E+03    -15.8543E-03     31.3612E-03    -15.5070E-03     41.4687E-03    -15.8106E-03     31.1288E-03    -15.4092E-03     41.4444E-03
             455     10.6349E-03     65.4021E-03    -1.31900E+06    -48.4238E+06     3.08520E+06    -627.000E+03    -15.9709E-03     31.4648E-03    -15.4939E-03     45.6731E-03    -15.9230E-03     31.2313E-03    -15.4063E-03     45.6486E-03
             456     11.5212E-03     65.4465E-03    -1.93748E+06    -39.2873E+06     3.86815E+06     273.425E+03    -16.0614E-03     31.5453E-03    -15.4839E-03     50.0802E-03    -16.0373E-03     31.3637E-03    -15.4048E-03     50.0621E-03
             457     12.4073E-03     65.4952E-03    -2.74325E+06    -38.9908E+06     964.036E+03    -536.465E+03    -16.2423E-03     31.7114E-03    -15.4691E-03     56.9124E-03    -16.2309E-03     31.5491E-03    -15.4038E-03     56.8768E-03
             458     13.2937E-03     65.5523E-03    -2.59032E+06    -37.0136E+06    -8.97812E+06    -905.556E+03    -16.3868E-03     31.8025E-03    -15.4156E-03     61.8917E-03    -16.3833E-03     31.6843E-03    -15.4031E-03     61.8434E-03
             459     14.1799E-03     65.6101E-03    -3.27317E+06    -13.3542E+06    -7.64017E+06     187.761E+03    -16.3274E-03     31.7124E-03    -15.3850E-03     65.7343E-03    -16.3933E-03     31.7414E-03    -15.3990E-03     65.6971E-03
             460     15.0662E-03     65.6748E-03    -4.78809E+06     21.1343E+06    -7.24281E+06     488.798E+03    -17.3792E-03     32.7140E-03    -15.3348E-03     91.3296E-03    -17.6589E-03     33.0727E-03    -15.3947E-03     91.3153E-03
             461     15.9524E-03     65.7796E-03    -3.69682E+06     68.1335E+06    -12.7932E+06     195.952E+03    -19.3648E-03     34.5986E-03    -15.2339E-03     141.159E-03    -20.6787E-03     36.1784E-03    -15.3913E-03     141.550E-03
             462     16.8397E-03     65.9389E-03    -1.98811E+06     131.459E+06     19.9358E+06     260.039E+03    -19.3877E-03     34.6720E-03    -15.2843E-03     165.471E-03    -22.0318E-03     37.7179E-03    -15.3723E-03     167.519E-03
             463     886.192E-06     66.1423E-03    -14.9195E+06    -60.4279E+06    -14.6175E+06     247.531E+03    -15.4855E-03     30.9714E-03    -15.4859E-03     3.52532E-03    -15.4511E-03     30.7126E-03    -15.4497E-03     3.52798E-03
             464     1.77240E-03     66.1468E-03    -14.0195E+06    -56.7620E+06    -12.6536E+06     147.860E+03    -15.4747E-03     30.9594E-03    -15.4847E-03     6.58411E-03    -15.4442E-03     30.7143E-03    -15.4453E-03     6.58511E-03
             465     2.65864E-03     66.1545E-03    -13.5881E+06    -55.0836E+06    -9.57162E+06     27.5786E+03    -15.4840E-03     30.9764E-03    -15.4924E-03     9.87699E-03    -15.4583E-03     30.7347E-03    -15.4407E-03     9.87597E-03
             466     3.54484E-03     66.1652E-03    -12.6332E+06    -53.9775E+06    -6.53734E+06    -495.099E+03    -15.4978E-03     30.9996E-03    -15.5019E-03     13.2984E-03    -15.4735E-03     30.7578E-03    -15.4380E-03     13.2900E-03
             467     4.43108E-03     66.1792E-03    -11.0058E+06    -51.5376E+06    -4.44706E+06    -564.650E+03    -15.5076E-03     31.0101E-03    -15.5024E-03     16.8663E-03    -15.4820E-03     30.7753E-03    -15.4340E-03     16.8565E-03
             468     5.31732E-03     66.1965E-03    -9.64531E+06    -53.5688E+06    -1.90190E+06    -711.925E+03    -15.5456E-03     31.0570E-03    -15.5114E-03     20.5752E-03    -15.5142E-03     30.8067E-03    -15.4293E-03     20.5627E-03
             469     6.20357E-03     66.2174E-03    -8.61695E+06    -52.8610E+06    -225.658E+03    -1.31072E+06    -15.5933E-03     31.1071E-03    -15.5138E-03     24.4913E-03    -15.5607E-03     30.8569E-03    -15.4257E-03     24.4702E-03
             470     7.08978E-03     66.2420E-03    -7.55471E+06    -51.0201E+06     558.928E+03    -728.637E+03    -15.6352E-03     31.1452E-03    -15.5100E-03     28.6117E-03    -15.6018E-03     30.9022E-03    -15.4222E-03     28.5970E-03
             471     7.97604E-03     66.2706E-03    -5.83132E+06    -52.0631E+06     2.27627E+06    -213.358E+03    -15.6922E-03     31.2053E-03    -15.5130E-03     32.8417E-03    -15.6521E-03     30.9530E-03    -15.4177E-03     32.8321E-03
             472     8.86237E-03     66.3029E-03    -3.78633E+06    -46.2702E+06     3.84455E+06    -728.292E+03    -15.7586E-03     31.2632E-03    -15.5045E-03     37.1861E-03    -15.7206E-03     31.0363E-03    -15.4127E-03     37.1676E-03
             473     9.74863E-03     66.3396E-03    -3.14747E+06    -46.6494E+06     4.85438E+06    -458.640E+03    -15.8690E-03     31.3748E-03    -15.5057E-03     41.4452E-03    -15.8313E-03     31.1462E-03    -15.4093E-03     41.4270E-03
             474     10.6349E-03     66.3799E-03    -3.45670E+06    -49.0789E+06     2.61221E+06    -245.404E+03    -15.9864E-03     31.4840E-03    -15.4976E-03     45.6344E-03    -15.9476E-03     31.2511E-03    -15.4083E-03     45.6148E-03
             475     11.5210E-03     66.4244E-03    -1.91480E+06    -39.6305E+06     3.49451E+06    -221.340E+03    -16.0499E-03     31.5348E-03    -15.4849E-03     50.1089E-03    -16.0247E-03     31.3519E-03    -15.4072E-03     50.0844E-03
             476     12.4074E-03     66.4731E-03    -32.8887E+03    -37.5931E+06     2.01370E+06    -379.993E+03    -16.2281E-03     31.6974E-03    -15.4692E-03     56.9540E-03    -16.2068E-03     31.5366E-03    -15.4046E-03     56.9205E-03
             477     13.2936E-03     66.5300E-03    -905.727E+03    -37.9619E+06    -8.61800E+06    -255.922E+03    -16.4217E-03     31.8386E-03    -15.4169E-03     62.0967E-03    -16.4089E-03     31.7128E-03    -15.4036E-03     62.0568E-03
             478     14.1797E-03     66.5883E-03    -2.02585E+06    -14.7873E+06    -7.85035E+06     830.165E+03    -16.3595E-03     31.7456E-03    -15.3861E-03     65.6614E-03    -16.4168E-03     31.7660E-03    -15.4009E-03     65.6324E-03
             479     15.0668E-03     66.6516E-03    -1.72039E+06     22.3603E+06    -5.70603E+06     747.775E+03    -17.1997E-03     32.5322E-03    -15.3325E-03     91.7467E-03    -17.4674E-03     32.8897E-03    -15.3909E-03     91.7371E-03
             480     15.9524E-03     66.7595E-03    -1.95957E+06     68.6307E+06    -11.6680E+06    -766.370E+03    -19.5422E-03     34.7721E-03    -15.2299E-03     142.048E-03    -20.8687E-03     36.3691E-03    -15.3849E-03     142.431E-03
             481     16.8372E-03     66.9153E-03    -2.47861E+06     131.061E+06     21.2899E+06    -332.438E+03    -19.7685E-03     35.0674E-03    -15.2988E-03     166.163E-03    -22.4448E-03     38.1384E-03    -15.3788E-03     168.202E-03
             482     886.218E-06     67.1201E-03    -13.6888E+06    -60.0243E+06    -13.7260E+06    -660.893E+03    -15.4883E-03     30.9765E-03    -15.4882E-03     3.53999E-03    -15.4497E-03     30.7167E-03    -15.4499E-03     3.53094E-03
             483     1.77242E-03     67.1247E-03    -12.9400E+06    -57.4629E+06    -11.1205E+06     59.1294E+03    -15.4923E-03     30.9863E-03    -15.4940E-03     6.57842E-03    -15.4575E-03     30.7339E-03    -15.4475E-03     6.57827E-03
             484     2.65861E-03     67.1323E-03    -11.6097E+06    -54.8597E+06    -7.71015E+06     448.177E+03    -15.4956E-03     30.9990E-03    -15.5035E-03     9.88006E-03    -15.4630E-03     30.7529E-03    -15.4456E-03     9.88445E-03
             485     3.54483E-03     67.1431E-03    -10.5208E+06    -53.2172E+06    -4.76385E+06    -16.6970E+03    -15.5014E-03     31.0120E-03    -15.5105E-03     13.3005E-03    -15.4703E-03     30.7683E-03    -15.4419E-03     13.2984E-03
             486     4.43106E-03     67.1570E-03    -9.98257E+06    -51.6751E+06    -3.25355E+06    -277.552E+03    -15.5125E-03     31.0225E-03    -15.5100E-03     16.8631E-03    -15.4833E-03     30.7839E-03    -15.4369E-03     16.8570E-03
             487     5.31732E-03     67.1744E-03    -9.33778E+06    -53.0608E+06    -1.83552E+06    -317.442E+03    -15.5481E-03     31.0614E-03    -15.5133E-03     20.5833E-03    -15.5161E-03     30.8131E-03    -15.4320E-03     20.5759E-03
             488     6.20352E-03     67.1952E-03    -8.99850E+06    -52.2147E+06    -809.516E+03    -521.572E+03    -15.5825E-03     31.0947E-03    -15.5122E-03     24.5112E-03    -15.5518E-03     30.8491E-03    -15.4275E-03     24.5004E-03
             489     7.08980E-03     67.2199E-03    -8.35436E+06    -51.4296E+06    -519.409E+03    -1.02096E+06    -15.6163E-03     31.1226E-03    -15.5063E-03     28.6277E-03    -15.5847E-03     30.8802E-03    -15.4222E-03     28.6093E-03
             490     7.97613E-03     67.2483E-03    -6.64423E+06    -51.3615E+06     1.10711E+06    -1.65835E+06    -15.6866E-03     31.1928E-03    -15.5062E-03     32.8647E-03    -15.6499E-03     30.9469E-03    -15.4165E-03     32.8365E-03
             491     8.86236E-03     67.2809E-03    -5.31601E+06    -46.7044E+06     3.45573E+06    -1.21770E+06    -15.7744E-03     31.2797E-03    -15.5053E-03     37.1781E-03    -15.7428E-03     31.0535E-03    -15.4126E-03     37.1533E-03
             492     9.74860E-03     67.3174E-03    -4.44203E+06    -47.7152E+06     4.69458E+06     1.15909E+03    -15.8710E-03     31.3806E-03    -15.5096E-03     41.4582E-03    -15.8379E-03     31.1488E-03    -15.4105E-03     41.4460E-03
             493     10.6348E-03     67.3579E-03    -3.19325E+06    -47.8743E+06     2.70992E+06    -337.872E+03    -15.9587E-03     31.4549E-03    -15.4962E-03     45.6991E-03    -15.9204E-03     31.2274E-03    -15.4086E-03     45.6784E-03
             494     11.5211E-03     67.4021E-03    -2.35188E+06    -39.2554E+06     2.69197E+06    -1.76150E+06    -16.0146E-03     31.4934E-03    -15.4787E-03     50.2171E-03    -15.9909E-03     31.3141E-03    -15.4049E-03     50.1729E-03
             495     12.4074E-03     67.4509E-03    -2.03682E+06    -38.7126E+06     632.547E+03    -845.180E+03    -16.1855E-03     31.6476E-03    -15.4621E-03     57.0367E-03    -16.1705E-03     31.4861E-03    -15.3999E-03     56.9974E-03
             496     13.2938E-03     67.5079E-03    -2.01578E+06    -38.6054E+06    -8.67995E+06     669.600E+03    -16.3427E-03     31.7535E-03    -15.4108E-03     62.1899E-03    -16.3343E-03     31.6261E-03    -15.3953E-03     62.1622E-03
             497     14.1802E-03     67.5661E-03    -1.88115E+06    -14.6231E+06    -7.59395E+06     74.4201E+03    -16.4384E-03     31.8172E-03    -15.3788E-03     65.8447E-03    -16.4960E-03     31.8383E-03    -15.3929E-03     65.8057E-03
             498     15.0656E-03     67.6297E-03    -1.01647E+06     22.8329E+06    -4.76024E+06    -491.067E+03    -17.0393E-03     32.3654E-03    -15.3260E-03     91.4999E-03    -17.3051E-03     32.7223E-03    -15.3815E-03     91.4761E-03
             499     15.9540E-03     67.7358E-03    -1.83205E+06     68.6668E+06    -10.7053E+06    -193.541E+03    -19.1034E-03     34.3110E-03    -15.2076E-03     142.751E-03    -20.4288E-03     35.9047E-03    -15.3581E-03     143.151E-03
             500     16.8410E-03     67.8967E-03    -2.53389E+06     130.714E+06     20.7088E+06     501.960E+03    -19.9394E-03     35.2008E-03    -15.2613E-03     166.035E-03    -22.5943E-03     38.2506E-03    -15.3436E-03     168.071E-03
             501     886.188E-06     68.0979E-03    -13.9770E+06    -59.3409E+06    -12.7934E+06    -550.179E+03    -15.5073E-03     30.9886E-03    -15.4813E-03     3.55452E-03    -15.4725E-03     30.7313E-03    -15.4390E-03     3.54693E-03
             502     1.77238E-03     68.1026E-03    -13.2191E+06    -58.1340E+06    -11.2919E+06    -87.3773E+03    -15.4978E-03     30.9982E-03    -15.5004E-03     6.57712E-03    -15.4633E-03     30.7431E-03    -15.4534E-03     6.57508E-03
             503     2.65860E-03     68.1102E-03    -11.8706E+06    -54.8952E+06    -8.96715E+06    -8.53137E+03    -15.4864E-03     30.9876E-03    -15.5012E-03     9.88935E-03    -15.4533E-03     30.7435E-03    -15.4492E-03     9.88786E-03
             504     3.54484E-03     68.1209E-03    -10.2919E+06    -52.9643E+06    -5.20598E+06     175.284E+03    -15.4976E-03     31.0059E-03    -15.5083E-03     13.3060E-03    -15.4650E-03     30.7639E-03    -15.4426E-03     13.3064E-03
             505     4.43107E-03     68.1349E-03    -8.63520E+06    -51.5737E+06    -1.76471E+06     126.158E+03    -15.5240E-03     31.0400E-03    -15.5159E-03     16.8572E-03    -15.4904E-03     30.7977E-03    -15.4375E-03     16.8563E-03
             506     5.31729E-03     68.1522E-03    -7.05541E+06    -52.6901E+06     107.879E+03    -215.969E+03    -15.5534E-03     31.0734E-03    -15.5200E-03     20.5769E-03    -15.5132E-03     30.8209E-03    -15.4329E-03     20.5709E-03
             507     6.20358E-03     68.1731E-03    -5.39336E+06    -52.2661E+06     1.55078E+06    -165.733E+03    -15.5872E-03     31.1061E-03    -15.5188E-03     24.4825E-03    -15.5419E-03     30.8516E-03    -15.4275E-03     24.4762E-03
             508     7.08985E-03     68.1977E-03    -4.36315E+06    -50.0146E+06     3.49102E+06    -748.544E+03    -15.6438E-03     31.1625E-03    -15.5187E-03     28.5677E-03    -15.6001E-03     30.9157E-03    -15.4224E-03     28.5527E-03
             509     7.97606E-03     68.2262E-03    -4.36669E+06    -50.8911E+06     3.83674E+06    -1.53810E+06    -15.7130E-03     31.2311E-03    -15.5181E-03     32.8120E-03    -15.6696E-03     30.9804E-03    -15.4188E-03     32.7852E-03
             510     8.86232E-03     68.2587E-03    -4.18346E+06    -47.8611E+06     3.67298E+06    -986.796E+03    -15.7677E-03     31.2766E-03    -15.5089E-03     37.1742E-03    -15.7291E-03     31.0426E-03    -15.4151E-03     37.1524E-03
             511     9.74859E-03     68.2952E-03    -2.62502E+06    -47.7555E+06     4.73537E+06    -1.01875E+06    -15.8442E-03     31.3515E-03    -15.5073E-03     41.4798E-03    -15.8021E-03     31.1167E-03    -15.4105E-03     41.4545E-03
             512     10.6349E-03     68.3356E-03    -1.06088E+06    -47.4592E+06     3.35225E+06    -973.802E+03    -15.9412E-03     31.4343E-03    -15.4931E-03     45.6862E-03    -15.8937E-03     31.2048E-03    -15.4060E-03     45.6573E-03
             513     11.5212E-03     68.3799E-03    -1.78160E+06    -38.7191E+06     4.07545E+06    -243.050E+03    -16.0060E-03     31.4864E-03    -15.4804E-03     50.1048E-03    -15.9823E-03     31.3070E-03    -15.4013E-03     50.0802E-03
             514     12.4076E-03     68.4287E-03    -3.44426E+06    -40.0182E+06     720.442E+03    -179.192E+03    -16.1941E-03     31.6576E-03    -15.4635E-03     56.8919E-03    -16.1845E-03     31.4915E-03    -15.3968E-03     56.8610E-03
             515     13.2939E-03     68.4856E-03    -3.56460E+06    -38.9579E+06    -9.42795E+06    -234.613E+03    -16.3377E-03     31.7456E-03    -15.4080E-03     61.9107E-03    -16.3355E-03     31.6198E-03    -15.3935E-03     61.8712E-03
             516     14.1802E-03     68.5439E-03    -3.44956E+06    -13.3703E+06    -7.53412E+06    -518.029E+03    -16.2875E-03     31.6616E-03    -15.3741E-03     65.6899E-03    -16.3545E-03     31.6907E-03    -15.3873E-03     65.6438E-03
             517     15.0672E-03     68.6079E-03    -4.11218E+06     22.3817E+06    -6.03128E+06    -771.988E+03    -17.1786E-03     32.4995E-03    -15.3209E-03     90.8618E-03    -17.4576E-03     32.8609E-03    -15.3776E-03     90.8329E-03
             518     15.9526E-03     68.7121E-03    -4.69703E+06     67.7778E+06    -12.4283E+06    -11.0567E+03    -19.1974E-03     34.4077E-03    -15.2102E-03     141.922E-03    -20.5247E-03     35.9949E-03    -15.3638E-03     142.318E-03
             519     16.8394E-03     68.8745E-03    -4.37355E+06     130.985E+06     22.0439E+06    -150.616E+03    -19.7048E-03     34.9802E-03    -15.2754E-03     165.151E-03    -22.3477E-03     38.0087E-03    -15.3488E-03     167.172E-03
             520     886.221E-06     69.0758E-03    -15.7757E+06    -59.4416E+06    -14.2602E+06     674.351E+03    -15.4930E-03     30.9840E-03    -15.4910E-03     3.54436E-03    -15.4649E-03     30.7309E-03    -15.4532E-03     3.55258E-03
             521     1.77238E-03     69.0804E-03    -14.8867E+06    -57.6989E+06    -12.8564E+06    -169.823E+03    -15.4838E-03     30.9793E-03    -15.4955E-03     6.58806E-03    -15.4559E-03     30.7312E-03    -15.4546E-03     6.58496E-03
             522     2.65861E-03     69.0880E-03    -13.8470E+06    -55.0219E+06    -10.7376E+06    -368.460E+03    -15.4837E-03     30.9790E-03    -15.4952E-03     9.89347E-03    -15.4577E-03     30.7396E-03    -15.4491E-03     9.88734E-03
             523     3.54483E-03     69.0988E-03    -12.2379E+06    -52.8178E+06    -7.01648E+06    -476.194E+03    -15.4937E-03     30.9965E-03    -15.5027E-03     13.3120E-03    -15.4684E-03     30.7606E-03    -15.4435E-03     13.3039E-03
             524     4.43106E-03     69.1128E-03    -9.84108E+06    -51.2581E+06    -3.11049E+06    -787.988E+03    -15.5161E-03     31.0274E-03    -15.5113E-03     16.8624E-03    -15.4870E-03     30.7904E-03    -15.4383E-03     16.8498E-03
             525     5.31731E-03     69.1301E-03    -7.56561E+06    -52.5180E+06     285.125E+03    -730.895E+03    -15.5568E-03     31.0791E-03    -15.5223E-03     20.5621E-03    -15.5198E-03     30.8279E-03    -15.4338E-03     20.5494E-03
             526     6.20353E-03     69.1509E-03    -5.81447E+06    -52.1812E+06     1.86941E+06    -899.613E+03    -15.6055E-03     31.1291E-03    -15.5236E-03     24.4614E-03    -15.5629E-03     30.8752E-03    -15.4302E-03     24.4456E-03
             527     7.08975E-03     69.1756E-03    -4.06287E+06    -49.3386E+06     3.59684E+06    -862.084E+03    -15.6560E-03     31.1784E-03    -15.5223E-03     28.5668E-03    -15.6120E-03     30.9343E-03    -15.4269E-03     28.5503E-03
             528     7.97602E-03     69.2040E-03    -3.00256E+06    -50.7646E+06     4.94454E+06    -530.223E+03    -15.7145E-03     31.2405E-03    -15.5260E-03     32.7838E-03    -15.6660E-03     30.9868E-03    -15.4233E-03     32.7701E-03
             529     8.86229E-03     69.2364E-03    -2.22963E+06    -47.6594E+06     4.02867E+06    -1.13856E+06    -15.7591E-03     31.2698E-03    -15.5107E-03     37.1559E-03    -15.7116E-03     31.0334E-03    -15.4182E-03     37.1321E-03
             530     9.74864E-03     69.2731E-03    -1.92985E+06    -47.4524E+06     4.32894E+06    -1.35132E+06    -15.8467E-03     31.3525E-03    -15.5058E-03     41.4273E-03    -15.8010E-03     31.1189E-03    -15.4125E-03     41.3976E-03
             531     10.6349E-03     69.3134E-03    -2.50977E+06    -48.3554E+06     3.08548E+06    -647.802E+03    -15.9662E-03     31.4645E-03    -15.4983E-03     45.5679E-03    -15.9243E-03     31.2331E-03    -15.4092E-03     45.5431E-03
             532     11.5211E-03     69.3579E-03    -1.84322E+06    -39.6532E+06     4.52883E+06     393.700E+03    -16.0322E-03     31.5216E-03    -15.4895E-03     49.9181E-03    -16.0081E-03     31.3371E-03    -15.4066E-03     49.9015E-03
             533     12.4074E-03     69.4063E-03    -703.172E+03    -39.5565E+06     2.61032E+06     786.609E+03    -16.2338E-03     31.7093E-03    -15.4755E-03     56.7542E-03    -16.2139E-03     31.5389E-03    -15.4041E-03     56.7356E-03
             534     13.2936E-03     69.4636E-03    -1.37629E+06    -38.1785E+06    -8.79729E+06    -241.947E+03    -16.3986E-03     31.8151E-03    -15.4165E-03     61.7906E-03    -16.3876E-03     31.6892E-03    -15.4032E-03     61.7507E-03
             535     14.1798E-03     69.5213E-03    -2.12451E+06    -13.5383E+06    -7.76387E+06    -474.742E+03    -16.2672E-03     31.6489E-03    -15.3817E-03     65.2935E-03    -16.3264E-03     31.6750E-03    -15.3978E-03     65.2480E-03
             536     15.0662E-03     69.5852E-03    -2.78437E+06     22.1487E+06    -6.16977E+06     234.785E+03    -17.3004E-03     32.6314E-03    -15.3311E-03     90.8985E-03    -17.5731E-03     32.9908E-03    -15.3900E-03     90.8813E-03
             537     15.9525E-03     69.6914E-03    -2.70646E+06     68.2771E+06    -12.4935E+06     104.010E+03    -19.5619E-03     34.7930E-03    -15.2311E-03     141.930E-03    -20.8896E-03     36.3897E-03    -15.3886E-03     142.323E-03
             538     16.8388E-03     69.8506E-03    -1.88780E+06     131.339E+06     28.4225E+06    -598.150E+03    -19.8092E-03     35.1474E-03    -15.3383E-03     166.005E-03    -22.4813E-03     38.1967E-03    -15.3839E-03     168.029E-03
             539     886.142E-06     70.0537E-03    -14.7962E+06    -59.8914E+06    -15.2801E+06     323.332E+03    -15.4811E-03     30.9867E-03    -15.5056E-03     3.50537E-03    -15.4460E-03     30.7315E-03    -15.4737E-03     3.50905E-03
             540     1.77243E-03     70.0583E-03    -13.9842E+06    -56.8877E+06    -12.2784E+06    -160.983E+03    -15.4804E-03     30.9759E-03    -15.4954E-03     6.58434E-03    -15.4501E-03     30.7296E-03    -15.4540E-03     6.58135E-03
             541     2.65861E-03     70.0659E-03    -12.8187E+06    -54.8719E+06    -8.89294E+06    -474.015E+03    -15.4980E-03     31.0009E-03    -15.5029E-03     9.88136E-03    -15.4698E-03     30.7582E-03    -15.4492E-03     9.87386E-03
             542     3.54481E-03     70.0766E-03    -11.5986E+06    -52.2866E+06    -6.69172E+06    -754.220E+03    -15.4979E-03     31.0027E-03    -15.5048E-03     13.3082E-03    -15.4706E-03     30.7681E-03    -15.4456E-03     13.2966E-03
             543     4.43105E-03     70.0906E-03    -10.8104E+06    -50.5553E+06    -4.59737E+06    -1.21059E+06    -15.5095E-03     31.0155E-03    -15.5060E-03     16.8671E-03    -15.4841E-03     30.7856E-03    -15.4400E-03     16.8490E-03
             544     5.31729E-03     70.1079E-03    -9.81519E+06    -52.9318E+06    -2.15007E+06    -1.12703E+06    -15.5573E-03     31.0730E-03    -15.5157E-03     20.5734E-03    -15.5273E-03     30.8265E-03    -15.4355E-03     20.5556E-03
             545     6.20351E-03     70.1288E-03    -8.73640E+06    -51.3629E+06    -501.342E+03    -1.07289E+06    -15.6019E-03     31.1193E-03    -15.5174E-03     24.4938E-03    -15.5717E-03     30.8772E-03    -15.4328E-03     24.4759E-03
             546     7.08975E-03     70.1534E-03    -7.83407E+06    -49.4692E+06     353.629E+03    -1.46265E+06    -15.6390E-03     31.1534E-03    -15.5144E-03     28.6061E-03    -15.6089E-03     30.9188E-03    -15.4296E-03     28.5820E-03
             547     7.97602E-03     70.1819E-03    -5.80109E+06    -50.7292E+06     2.39878E+06    -1.45483E+06    -15.7043E-03     31.2237E-03    -15.5194E-03     32.8112E-03    -15.6662E-03     30.9780E-03    -15.4254E-03     32.7855E-03
             548     8.86226E-03     70.2143E-03    -4.24040E+06    -47.0846E+06     3.55229E+06    -1.22907E+06    -15.7763E-03     31.2899E-03    -15.5136E-03     37.1293E-03    -15.7389E-03     31.0600E-03    -15.4214E-03     37.1043E-03
             549     9.74853E-03     70.2508E-03    -4.23440E+06    -48.4988E+06     3.46800E+06    -308.325E+03    -15.8673E-03     31.3792E-03    -15.5119E-03     41.4144E-03    -15.8303E-03     31.1450E-03    -15.4181E-03     41.3981E-03
             550     10.6347E-03     70.2913E-03    -3.92678E+06    -47.9500E+06     1.63513E+06    -290.228E+03    -15.9717E-03     31.4710E-03    -15.4993E-03     45.6145E-03    -15.9354E-03     31.2458E-03    -15.4159E-03     45.5943E-03
             551     11.5210E-03     70.3356E-03    -2.66768E+06    -40.2299E+06     2.33559E+06    -1.15157E+06    -16.0458E-03     31.5333E-03    -15.4876E-03     50.0305E-03    -16.0218E-03     31.3503E-03    -15.4137E-03     49.9940E-03
             552     12.4072E-03     70.3843E-03    -777.898E+03    -40.3897E+06     606.572E+03    -403.649E+03    -16.2207E-03     31.6937E-03    -15.4730E-03     56.9502E-03    -16.1970E-03     31.5221E-03    -15.4103E-03     56.9164E-03
             553     13.2936E-03     70.4414E-03     119.460E+03    -37.1604E+06    -8.73962E+06     425.712E+03    -16.3646E-03     31.7812E-03    -15.4167E-03     62.0212E-03    -16.3474E-03     31.6579E-03    -15.4066E-03     61.9904E-03
             554     14.1798E-03     70.4993E-03    -375.564E+03    -13.4031E+06    -7.61665E+06    -329.499E+03    -16.4099E-03     31.7951E-03    -15.3852E-03     65.5870E-03    -16.4612E-03     31.8196E-03    -15.4033E-03     65.5430E-03
             555     15.0661E-03     70.5628E-03     376.584E+03     21.3950E+06    -5.54915E+06    -124.625E+03    -17.2993E-03     32.6375E-03    -15.3382E-03     91.5378E-03    -17.5566E-03     32.9882E-03    -15.3975E-03     91.5169E-03
             556     15.9526E-03     70.6696E-03    -96.5157E+03     68.7614E+06    -10.9594E+06     597.216E+03    -19.5992E-03     34.8389E-03    -15.2398E-03     142.478E-03    -20.9182E-03     36.4335E-03    -15.3941E-03     142.883E-03
             557     16.8386E-03     70.8289E-03    -261.202E+03     131.456E+06     25.3988E+06     548.733E+03    -19.8518E-03     35.1777E-03    -15.3259E-03     166.197E-03    -22.5136E-03     38.2316E-03    -15.3892E-03     168.244E-03
             558     886.220E-06     71.0315E-03    -13.2080E+06    -59.6840E+06    -13.3078E+06    -728.691E+03    -15.5009E-03     31.0038E-03    -15.5030E-03     3.49310E-03    -15.4610E-03     30.7445E-03    -15.4638E-03     3.48317E-03
             559     1.77237E-03     71.0361E-03    -12.8722E+06    -56.5893E+06    -12.0791E+06    -281.107E+03    -15.4957E-03     30.9942E-03    -15.4985E-03     6.58861E-03    -15.4605E-03     30.7475E-03    -15.4582E-03     6.58405E-03
             560     2.65860E-03     71.0438E-03    -12.1309E+06    -54.2800E+06    -9.33134E+06    -536.986E+03    -15.4921E-03     30.9945E-03    -15.5024E-03     9.87818E-03    -15.4606E-03     30.7544E-03    -15.4528E-03     9.86987E-03
             561     3.54481E-03     71.0545E-03    -11.1435E+06    -52.0335E+06    -6.77144E+06    -632.346E+03    -15.4982E-03     31.0028E-03    -15.5045E-03     13.2978E-03    -15.4690E-03     30.7689E-03    -15.4468E-03     13.2877E-03
             562     4.43105E-03     71.0685E-03    -10.2027E+06    -49.8821E+06    -4.64869E+06    -669.596E+03    -15.5157E-03     31.0206E-03    -15.5049E-03     16.8666E-03    -15.4882E-03     30.7933E-03    -15.4411E-03     16.8555E-03
             563     5.31728E-03     71.0858E-03    -9.27055E+06    -52.7597E+06    -2.41673E+06    -1.11817E+06    -15.5586E-03     31.0731E-03    -15.5145E-03     20.5838E-03    -15.5258E-03     30.8271E-03    -15.4366E-03     20.5662E-03
             564     6.20352E-03     71.1066E-03    -7.91386E+06    -51.1439E+06    -591.088E+03    -1.16778E+06    -15.5976E-03     31.1134E-03    -15.5158E-03     24.4994E-03    -15.5635E-03     30.8713E-03    -15.4331E-03     24.4802E-03
             565     7.08977E-03     71.1313E-03    -6.56583E+06    -48.5891E+06     1.49218E+06    -1.44323E+06    -15.6485E-03     31.1656E-03    -15.5171E-03     28.5877E-03    -15.6150E-03     30.9320E-03    -15.4296E-03     28.5638E-03
             566     7.97600E-03     71.1596E-03    -6.30450E+06    -50.8119E+06     2.56972E+06    -1.80707E+06    -15.7213E-03     31.2439E-03    -15.5226E-03     32.8017E-03    -15.6859E-03     30.9982E-03    -15.4269E-03     32.7714E-03
             567     8.86227E-03     71.1922E-03    -5.98405E+06    -47.7264E+06     3.24823E+06    -1.04547E+06    -15.7848E-03     31.3035E-03    -15.5187E-03     37.1324E-03    -15.7548E-03     31.0734E-03    -15.4246E-03     37.1098E-03
             568     9.74846E-03     71.2286E-03    -3.93604E+06    -48.7007E+06     3.62099E+06    -1.07755E+06    -15.8582E-03     31.3738E-03    -15.5156E-03     41.4674E-03    -15.8196E-03     31.1379E-03    -15.4212E-03     41.4413E-03
             569     10.6348E-03     71.2692E-03    -1.78517E+06    -47.8024E+06     1.21917E+06    -964.533E+03    -15.9483E-03     31.4431E-03    -15.4948E-03     45.7353E-03    -15.9008E-03     31.2160E-03    -15.4168E-03     45.7065E-03
             570     11.5211E-03     71.3135E-03    -2.12753E+06    -39.6732E+06     2.43301E+06    -615.412E+03    -16.0357E-03     31.5209E-03    -15.4852E-03     50.1153E-03    -16.0099E-03     31.3397E-03    -15.4125E-03     50.0859E-03
             571     12.4074E-03     71.3620E-03    -3.40481E+06    -41.0264E+06    -566.244E+03    -1.18008E+06    -16.2164E-03     31.6868E-03    -15.4704E-03     56.9488E-03    -16.2032E-03     31.5175E-03    -15.4088E-03     56.9051E-03
             572     13.2937E-03     71.4191E-03    -3.06940E+06    -37.8141E+06    -10.1935E+06    -934.166E+03    -16.3207E-03     31.7337E-03    -15.4130E-03     61.9151E-03    -16.3163E-03     31.6137E-03    -15.4047E-03     61.8668E-03
             573     14.1802E-03     71.4771E-03    -2.55626E+06    -12.4244E+06    -7.39139E+06    -373.386E+03    -16.4233E-03     31.8094E-03    -15.3861E-03     65.6065E-03    -16.4875E-03     31.8418E-03    -15.4013E-03     65.5617E-03
             574     15.0662E-03     71.5411E-03    -3.47399E+06     21.0446E+06    -6.94292E+06    -917.255E+03    -17.3602E-03     32.6994E-03    -15.3392E-03     91.1499E-03    -17.6340E-03     33.0557E-03    -15.3994E-03     91.1180E-03
             575     15.9529E-03     71.6467E-03    -4.12732E+06     66.1571E+06    -13.3978E+06    -235.354E+03    -19.2723E-03     34.5044E-03    -15.2321E-03     142.809E-03    -20.5976E-03     36.0888E-03    -15.3891E-03     143.202E-03
             576     16.8387E-03     71.8088E-03    -1.60912E+06     131.497E+06     18.5650E+06     975.298E+03    -19.5263E-03     34.7958E-03    -15.2695E-03     166.546E-03    -22.1687E-03     37.8455E-03    -15.3650E-03     168.605E-03
             577     886.184E-06     72.0094E-03    -13.4224E+06    -59.0150E+06    -12.4590E+06    -342.450E+03    -15.5143E-03     31.0057E-03    -15.4913E-03     3.51423E-03    -15.4777E-03     30.7487E-03    -15.4486E-03     3.50928E-03
             578     1.77238E-03     72.0140E-03    -12.9988E+06    -56.4462E+06    -12.3020E+06    -442.428E+03    -15.5028E-03     31.0022E-03    -15.4995E-03     6.58159E-03    -15.4681E-03     30.7568E-03    -15.4603E-03     6.57496E-03
             579     2.65859E-03     72.0216E-03    -12.3783E+06    -53.6025E+06    -10.6711E+06    -662.938E+03    -15.4845E-03     30.9815E-03    -15.4970E-03     9.88166E-03    -15.4533E-03     30.7471E-03    -15.4547E-03     9.87173E-03
             580     3.54483E-03     72.0324E-03    -11.3385E+06    -52.0255E+06    -7.22121E+06    -730.486E+03    -15.4965E-03     30.9992E-03    -15.5027E-03     13.3009E-03    -15.4675E-03     30.7663E-03    -15.4470E-03     13.2896E-03
             581     4.43104E-03     72.0463E-03    -9.96815E+06    -49.5454E+06    -4.39302E+06    -722.086E+03    -15.5186E-03     31.0242E-03    -15.5056E-03     16.8683E-03    -15.4908E-03     30.7978E-03    -15.4413E-03     16.8565E-03
             582     5.31729E-03     72.0636E-03    -8.68502E+06    -51.9429E+06    -1.66467E+06    -1.00932E+06    -15.5607E-03     31.0775E-03    -15.5167E-03     20.5791E-03    -15.5273E-03     30.8336E-03    -15.4372E-03     20.5629E-03
             583     6.20350E-03     72.0845E-03    -7.59377E+06    -50.9355E+06    -178.316E+03    -1.50617E+06    -15.6039E-03     31.1219E-03    -15.5180E-03     24.4912E-03    -15.5691E-03     30.8798E-03    -15.4340E-03     24.4677E-03
             584     7.08976E-03     72.1091E-03    -6.40062E+06    -47.9720E+06     1.90370E+06    -1.60800E+06    -15.6592E-03     31.1791E-03    -15.5199E-03     28.5836E-03    -15.6264E-03     30.9477E-03    -15.4315E-03     28.5575E-03
             585     7.97598E-03     72.1376E-03    -4.99069E+06    -51.0259E+06     4.11577E+06    -1.21697E+06    -15.7329E-03     31.2644E-03    -15.5315E-03     32.7713E-03    -15.6928E-03     31.0135E-03    -15.4297E-03     32.7487E-03
             586     8.86217E-03     72.1700E-03    -3.37446E+06    -47.6396E+06     4.02127E+06    -1.57609E+06    -15.7773E-03     31.2979E-03    -15.5206E-03     37.1399E-03    -15.7355E-03     31.0633E-03    -15.4265E-03     37.1104E-03
             587     9.74854E-03     72.2066E-03    -2.30179E+06    -47.7991E+06     4.15663E+06    -2.21529E+06    -15.8560E-03     31.3711E-03    -15.5151E-03     41.4472E-03    -15.8113E-03     31.1366E-03    -15.4217E-03     41.4064E-03
             588     10.6348E-03     72.2468E-03    -1.99853E+06    -49.3705E+06     1.89786E+06    -1.50602E+06    -15.9588E-03     31.4602E-03    -15.5014E-03     45.6426E-03    -15.9111E-03     31.2246E-03    -15.4174E-03     45.6068E-03
             589     11.5211E-03     72.2914E-03    -1.31838E+06    -40.3232E+06     4.10004E+06     310.577E+03    -16.0433E-03     31.5380E-03    -15.4948E-03     49.9829E-03    -16.0150E-03     31.3500E-03    -15.4139E-03     49.9653E-03
             590     12.4073E-03     72.3399E-03    -1.10410E+06    -39.2529E+06     2.15029E+06    -61.7515E+03    -16.2398E-03     31.7203E-03    -15.4805E-03     56.7605E-03    -16.2216E-03     31.5527E-03    -15.4113E-03     56.7310E-03
             591     13.2935E-03     72.3970E-03    -2.26023E+06    -38.1755E+06    -10.0152E+06    -1.38125E+06    -16.4291E-03     31.8490E-03    -15.4198E-03     61.7688E-03    -16.4207E-03     31.7261E-03    -15.4113E-03     61.7142E-03
             592     14.1797E-03     72.4547E-03    -3.06077E+06    -13.6203E+06    -8.42190E+06    -502.543E+03    -16.4007E-03     31.7932E-03    -15.3925E-03     65.4991E-03    -16.4642E-03     31.8219E-03    -15.4104E-03     65.4526E-03
             593     15.0660E-03     72.5194E-03    -3.54547E+06     22.1734E+06    -7.04470E+06     30.8937E+03    -17.3285E-03     32.6726E-03    -15.3441E-03     91.2506E-03    -17.6047E-03     33.0353E-03    -15.4063E-03     91.2311E-03
             594     15.9517E-03     72.6243E-03    -3.41256E+06     65.5675E+06    -14.4482E+06    -817.393E+03    -19.1243E-03     34.3545E-03    -15.2302E-03     141.941E-03    -20.4406E-03     35.9333E-03    -15.3926E-03     142.328E-03
             595     16.8411E-03     72.7847E-03    -3.19284E+06     130.506E+06     20.2436E+06    -678.181E+03    -19.4730E-03     34.7569E-03    -15.2839E-03     165.629E-03    -22.1208E-03     37.7980E-03    -15.3673E-03     167.655E-03
             596     886.214E-06     72.9873E-03    -14.6344E+06    -58.3362E+06    -14.4572E+06    -201.611E+03    -15.4950E-03     30.9875E-03    -15.4925E-03     3.54225E-03    -15.4625E-03     30.7386E-03    -15.4590E-03     3.53916E-03
             597     1.77238E-03     72.9919E-03    -13.7079E+06    -55.8338E+06    -12.4708E+06    -796.599E+03    -15.4916E-03     30.9870E-03    -15.4954E-03     6.57455E-03    -15.4611E-03     30.7459E-03    -15.4570E-03     6.56335E-03
             598     2.65860E-03     72.9995E-03    -12.7289E+06    -53.2998E+06    -10.1219E+06    -779.244E+03    -15.4900E-03     30.9874E-03    -15.4974E-03     9.88123E-03    -15.4618E-03     30.7542E-03    -15.4523E-03     9.86979E-03
             599     3.54481E-03     73.0102E-03    -11.7053E+06    -51.6259E+06    -7.27454E+06    -924.463E+03    -15.4986E-03     31.0010E-03    -15.5024E-03     13.3080E-03    -15.4720E-03     30.7707E-03    -15.4469E-03     13.2942E-03
             600     4.43106E-03     73.0242E-03    -10.3335E+06     -49.312E+06    -4.33872E+06    -1.09091E+06    -15.5195E-03     31.0263E-03    -15.5068E-03     16.8686E-03    -15.4939E-03     30.8015E-03    -15.4420E-03     16.8520E-03
             601     5.31726E-03     73.0415E-03    -8.90584E+06    -51.5185E+06    -1.54783E+06    -1.05909E+06    -15.5649E-03     31.0833E-03    -15.5184E-03     20.5728E-03    -15.5333E-03     30.8417E-03    -15.4386E-03     20.5559E-03
             602     6.20351E-03     73.0624E-03    -7.91022E+06    -50.1980E+06     210.141E+03    -1.24334E+06    -15.6103E-03     31.1320E-03    -15.5217E-03     24.4871E-03    -15.5787E-03     30.8934E-03    -15.4364E-03     24.4669E-03
             603     7.08971E-03     73.0870E-03    -7.34874E+06    -47.9250E+06     1.14009E+06    -1.45159E+06    -15.6506E-03     31.1704E-03    -15.5198E-03     28.5972E-03    -15.6215E-03     30.9417E-03    -15.4339E-03     28.5732E-03
             604     7.97594E-03     73.1155E-03    -6.16953E+06    -50.4620E+06     2.39496E+06    -2.03235E+06    -15.7146E-03     31.2394E-03    -15.5248E-03     32.8057E-03    -15.6787E-03     30.9956E-03    -15.4307E-03     32.7726E-03
             605     8.86225E-03     73.1478E-03    -4.78877E+06    -47.1686E+06     3.02565E+06    -2.27775E+06    -15.7858E-03     31.3037E-03    -15.5179E-03     37.1334E-03    -15.7503E-03     31.0749E-03    -15.4274E-03     37.0949E-03
             606     9.74848E-03     73.1843E-03    -4.52216E+06    -47.8951E+06     3.50641E+06    -1.60125E+06    -15.8781E-03     31.3963E-03    -15.5182E-03     41.4022E-03    -15.8435E-03     31.1654E-03    -15.4247E-03     41.3692E-03
             607     10.6347E-03     73.2248E-03    -4.57875E+06    -49.8883E+06     934.975E+03    -1.42122E+06    -15.9751E-03     31.4814E-03    -15.5063E-03     45.6047E-03    -15.9382E-03     31.2485E-03    -15.4227E-03     45.5699E-03
             608     11.5209E-03     73.2691E-03    -3.15946E+06    -41.7403E+06     1.39192E+06    -1.40537E+06    -16.0273E-03     31.5187E-03    -15.4914E-03     50.0775E-03    -16.0022E-03     31.3302E-03    -15.4193E-03     50.0378E-03
             609     12.4073E-03     73.3179E-03    -710.740E+03    -38.1785E+06     894.386E+03    -788.058E+03    -16.2147E-03     31.6903E-03    -15.4756E-03     56.8879E-03    -16.1943E-03     31.5292E-03    -15.4147E-03     56.8492E-03
             610     13.2935E-03     73.3746E-03     572.229E+03    -37.3110E+06    -8.85313E+06    -998.615E+03    -16.4619E-03     31.8846E-03    -15.4227E-03     62.1316E-03    -16.4424E-03     31.7604E-03    -15.4137E-03     62.0820E-03
             611     14.1794E-03     73.4332E-03     553.974E+03    -15.5339E+06    -8.45972E+06    -770.916E+03    -16.4389E-03     31.8318E-03    -15.3928E-03     65.6992E-03    -16.4814E-03     31.8456E-03    -15.4134E-03     65.6493E-03
             612     15.0663E-03     73.4960E-03     857.800E+03     21.9730E+06    -5.47722E+06     386.733E+03    -17.0872E-03     32.4281E-03    -15.3408E-03     91.5513E-03    -17.3414E-03     32.7792E-03    -15.4013E-03     91.5383E-03
             613     15.9531E-03     73.6037E-03     3.77645E+03     67.6308E+06    -11.5410E+06     272.317E+03    -19.5226E-03     34.7563E-03    -15.2337E-03     142.518E-03    -20.8431E-03     36.3503E-03    -15.3894E-03     142.917E-03
             614     16.8365E-03     73.7604E-03    -1.85375E+06     130.309E+06     25.0049E+06    -66.4398E+03    -19.9146E-03     35.2379E-03    -15.3233E-03     166.348E-03    -22.5957E-03     38.3025E-03    -15.3845E-03     168.394E-03
             615     886.162E-06     73.9652E-03    -15.4509E+06    -57.1602E+06    -15.3325E+06    -777.185E+03    -15.4826E-03     30.9727E-03    -15.4901E-03     3.53349E-03    -15.4546E-03     30.7322E-03    -15.4615E-03     3.52300E-03
             616     1.77242E-03     73.9698E-03    -14.9775E+06    -55.1486E+06    -13.3864E+06    -960.759E+03    -15.4784E-03     30.9665E-03    -15.4881E-03     6.57586E-03    -15.4539E-03     30.7320E-03    -15.4534E-03     6.56255E-03
             617     2.65860E-03     73.9774E-03    -13.9011E+06    -53.1183E+06    -10.0949E+06    -945.174E+03    -15.4923E-03     30.9887E-03    -15.4964E-03     9.87502E-03    -15.4702E-03     30.7580E-03    -15.4497E-03     9.86145E-03
             618     3.54483E-03     73.9881E-03    -12.4089E+06    -51.0012E+06    -7.05770E+06    -1.04063E+06    -15.5039E-03     31.0080E-03    -15.5040E-03     13.3038E-03    -15.4821E-03     30.7815E-03    -15.4474E-03     13.2885E-03
             619     4.43102E-03     74.0020E-03    -11.0532E+06    -48.9325E+06    -4.67040E+06    -1.28947E+06    -15.5216E-03     31.0292E-03    -15.5077E-03     16.8685E-03    -15.4996E-03     30.8079E-03    -15.4441E-03     16.8494E-03
             620     5.31728E-03     74.0194E-03     -9.5735E+06    -51.3729E+06    -2.14308E+06    -1.35003E+06    -15.5656E-03     31.0843E-03    -15.5187E-03     20.5766E-03    -15.5367E-03     30.8452E-03    -15.4410E-03     20.5560E-03
             621     6.20346E-03     74.0403E-03    -8.11346E+06    -50.0149E+06    -476.464E+03    -1.09503E+06    -15.6016E-03     31.1217E-03    -15.5201E-03     24.4964E-03    -15.5702E-03     30.8853E-03    -15.4382E-03     24.4782E-03
             622     7.08972E-03     74.0649E-03    -6.72260E+06    -47.1618E+06     1.09667E+06    -1.39311E+06    -15.6408E-03     31.1586E-03    -15.5178E-03     28.5984E-03    -15.6096E-03     30.9329E-03    -15.4342E-03     28.5751E-03
             623     7.97602E-03     74.0933E-03    -5.91269E+06    -49.3917E+06     2.83496E+06    -2.07595E+06    -15.7241E-03     31.2493E-03    -15.5252E-03     32.7952E-03    -15.6891E-03     31.0098E-03    -15.4308E-03     32.7615E-03
             624     8.86220E-03     74.1257E-03    -5.96195E+06    -47.8076E+06     3.12451E+06    -1.72544E+06    -15.8026E-03     31.3254E-03    -15.5227E-03     37.1046E-03    -15.7723E-03     31.0950E-03    -15.4291E-03     37.0732E-03
             625     9.74840E-03     74.1622E-03    -5.58861E+06    -48.2113E+06     2.88336E+06    -1.18309E+06    -15.8706E-03     31.3901E-03    -15.5195E-03     41.4331E-03    -15.8399E-03     31.1601E-03    -15.4271E-03     41.4055E-03
             626     10.6347E-03     74.2026E-03    -4.49781E+06    -48.8994E+06     306.527E+03    -1.72164E+06    -15.9503E-03     31.4530E-03    -15.5026E-03     45.6953E-03    -15.9135E-03     31.2257E-03    -15.4237E-03     45.6566E-03
             627     11.5210E-03     74.2469E-03    -3.47993E+06    -41.1059E+06     127.777E+03    -2.99332E+06    -16.0105E-03     31.4942E-03    -15.4838E-03     50.1651E-03    -15.9860E-03     31.3111E-03    -15.4185E-03     50.1050E-03
             628     12.4073E-03     74.2955E-03    -1.95927E+06    -39.0136E+06    -1.29185E+06    -3.24330E+06    -16.2072E-03     31.6732E-03    -15.4660E-03     56.9970E-03    -16.1886E-03     31.5129E-03    -15.4130E-03     56.9267E-03
             629     13.2936E-03     74.3527E-03    -783.235E+03    -37.8013E+06    -9.88662E+06    -1.93565E+06    -16.3066E-03     31.7202E-03    -15.4135E-03     62.1187E-03    -16.2914E-03     31.5966E-03    -15.4070E-03     62.0575E-03
             630     14.1802E-03     74.4108E-03    -727.715E+03    -15.6552E+06    -8.57051E+06    -1.33213E+06    -16.3591E-03     31.7399E-03    -15.3807E-03     65.8976E-03    -16.4075E-03     31.7549E-03    -15.3998E-03     65.8408E-03
             631     15.0658E-03     74.4744E-03    -939.478E+03     19.8427E+06    -6.79532E+06    -272.332E+03    -17.1033E-03     32.4295E-03    -15.3262E-03     91.0978E-03    -17.3611E-03     32.7742E-03    -15.3876E-03     91.0762E-03
             632     15.9534E-03     74.5792E-03    -3.68469E+06     67.1322E+06    -13.1342E+06     1.76702E+06    -19.2997E-03     34.5115E-03    -15.2119E-03     143.454E-03    -20.6350E-03     36.1102E-03    -15.3695E-03     143.874E-03
             633     16.8406E-03     74.7439E-03    -2.98290E+06     131.563E+06     22.2996E+06     843.203E+03    -19.8810E-03     35.1609E-03    -15.2799E-03     166.785E-03    -22.5490E-03     38.2207E-03    -15.3548E-03     168.842E-03
             634     886.216E-06     74.9430E-03    -16.7158E+06    -55.6908E+06    -15.7656E+06    -894.891E+03    -15.4811E-03     30.9571E-03    -15.4760E-03     3.50384E-03    -15.4610E-03     30.7264E-03    -15.4498E-03     3.49179E-03
             635     1.77238E-03     74.9476E-03    -15.6743E+06    -54.6448E+06    -13.1969E+06    -881.148E+03    -15.4804E-03     30.9689E-03    -15.4885E-03     6.58156E-03    -15.4604E-03     30.7376E-03    -15.4525E-03     6.56929E-03
             636     2.65861E-03     74.9552E-03    -14.3963E+06    -52.6359E+06    -10.2388E+06    -1.00613E+06    -15.4917E-03     30.9886E-03    -15.4969E-03     9.87438E-03    -15.4727E-03     30.7613E-03    -15.4509E-03     9.86002E-03
             637     3.54480E-03     74.9660E-03    -12.9654E+06    -50.4965E+06    -7.18125E+06    -1.19684E+06    -15.5065E-03     31.0119E-03    -15.5054E-03     13.3006E-03    -15.4880E-03     30.7889E-03    -15.4493E-03     13.2833E-03
             638     4.43104E-03     74.9799E-03    -11.4152E+06    -48.3497E+06    -4.75855E+06    -1.39497E+06    -15.5239E-03     31.0335E-03    -15.5096E-03     16.8661E-03    -15.5045E-03     30.8157E-03    -15.4467E-03     16.8456E-03
             639     5.31723E-03     74.9973E-03    -9.95723E+06    -50.9810E+06    -2.64557E+06    -1.69443E+06    -15.5588E-03     31.0772E-03    -15.5184E-03     20.5817E-03    -15.5316E-03     30.8414E-03    -15.4433E-03     20.5566E-03
             640     6.20349E-03     75.0181E-03    -8.11252E+06    -49.9716E+06    -953.504E+03    -1.87282E+06    -15.5956E-03     31.1143E-03    -15.5187E-03     24.4940E-03    -15.5636E-03     30.8789E-03    -15.4393E-03     24.4657E-03
             641     7.08976E-03     75.0427E-03    -6.34457E+06    -46.4957E+06     1.59674E+06    -1.84365E+06    -15.6530E-03     31.1731E-03    -15.5201E-03     28.5856E-03    -15.6216E-03     30.9495E-03    -15.4355E-03     28.5565E-03
             642     7.97592E-03     75.0712E-03    -5.45763E+06    -49.4414E+06     3.79644E+06    -1.30604E+06    -15.7333E-03     31.2650E-03    -15.5317E-03     32.7744E-03    -15.6974E-03     31.0232E-03    -15.4331E-03     32.7506E-03
             643     8.86216E-03     75.1036E-03    -4.58255E+06    -47.7639E+06     3.91620E+06    -1.26538E+06    -15.7865E-03     31.3125E-03    -15.5261E-03     37.1061E-03    -15.7504E-03     31.0792E-03    -15.4306E-03     37.0806E-03
             644     9.74848E-03     75.1401E-03    -2.89629E+06    -47.7317E+06     3.59277E+06    -1.99517E+06    -15.8576E-03     31.3753E-03    -15.5177E-03     41.4320E-03    -15.8152E-03     31.1428E-03    -15.4263E-03     41.3940E-03
             645     10.6348E-03     75.1804E-03    -1.63523E+06    -48.3385E+06     1.47156E+06    -2.15118E+06    -15.9528E-03     31.4541E-03    -15.5014E-03     45.6433E-03    -15.9042E-03     31.2239E-03    -15.4216E-03     45.5992E-03
             646     11.5210E-03     75.2247E-03    -1.66469E+06    -39.1690E+06     1.77983E+06    -2.77707E+06    -16.0320E-03     31.5171E-03    -15.4851E-03     50.0762E-03    -16.0037E-03     31.3386E-03    -15.4170E-03     50.0188E-03
             647     12.4073E-03     75.2734E-03    -2.79708E+06    -39.3878E+06    -1.38846E+06    -3.44048E+06    -16.2225E-03     31.6898E-03    -15.4673E-03     56.9327E-03    -16.2075E-03     31.5290E-03    -15.4130E-03     56.8597E-03
             648     13.2936E-03     75.3305E-03    -4.14872E+06    -39.5839E+06    -11.4661E+06    -2.45118E+06    -16.3154E-03     31.7303E-03    -15.4149E-03     61.7270E-03    -16.3121E-03     31.6050E-03    -15.4088E-03     61.6589E-03
             649     14.1800E-03     75.3880E-03    -4.80140E+06    -15.4637E+06    -9.88035E+06    -1.58381E+06    -16.1797E-03     31.5579E-03    -15.3782E-03     65.4428E-03    -16.2463E-03     31.5812E-03    -15.3982E-03     65.3833E-03
             650     15.0671E-03     75.4528E-03    -5.18769E+06     17.8375E+06    -9.25116E+06    -1.09133E+06    -17.4959E-03     32.8252E-03    -15.3293E-03     90.7005E-03    -17.7712E-03     33.1723E-03    -15.3939E-03     90.6648E-03
             651     15.9522E-03     75.5566E-03    -2.50366E+06     66.6758E+06    -13.7921E+06     808.642E+03    -19.3027E-03     34.5328E-03    -15.2301E-03     141.402E-03    -20.6179E-03     36.1159E-03    -15.3921E-03     141.809E-03
             652     16.8400E-03     75.7196E-03    -976.810E+03     133.063E+06     25.2627E+06     1.10228E+06    -19.4309E-03     34.7379E-03    -15.3070E-03     165.162E-03    -22.0753E-03     37.7779E-03    -15.3722E-03     167.210E-03
             653     886.197E-06     75.9209E-03    -17.2986E+06    -54.4639E+06    -15.9847E+06    -582.936E+03    -15.4760E-03     30.9477E-03    -15.4718E-03     3.52412E-03    -15.4602E-03     30.7243E-03    -15.4476E-03     3.51613E-03
             654     1.77241E-03     75.9255E-03    -16.1668E+06    -54.0901E+06    -13.2998E+06    -800.034E+03    -15.4912E-03     30.9807E-03    -15.4895E-03     6.57993E-03    -15.4743E-03     30.7531E-03    -15.4541E-03     6.56870E-03
             655     2.65858E-03     75.9331E-03    -14.7600E+06    -51.9621E+06    -10.5211E+06    -1.03143E+06    -15.4923E-03     30.9918E-03    -15.4995E-03     9.87536E-03    -15.4756E-03     30.7688E-03    -15.4553E-03     9.86065E-03
             656     3.54481E-03     75.9439E-03    -13.1844E+06    -49.8664E+06    -7.57155E+06    -1.35973E+06    -15.5026E-03     31.0089E-03    -15.5063E-03     13.2996E-03    -15.4856E-03     30.7900E-03    -15.4527E-03     13.2801E-03
             657     4.43099E-03     75.9578E-03    -11.6248E+06    -47.7733E+06    -5.01530E+06    -1.62619E+06    -15.5188E-03     31.0287E-03    -15.5099E-03     16.8695E-03    -15.5009E-03     30.8145E-03    -15.4489E-03     16.8460E-03
             658     5.31725E-03     75.9751E-03    -10.0937E+06    -50.2035E+06    -2.55286E+06    -1.94946E+06    -15.5585E-03     31.0780E-03    -15.5195E-03     20.5758E-03    -15.5333E-03     30.8462E-03    -15.4449E-03     20.5474E-03
             659     6.20347E-03     75.9959E-03    -8.88132E+06    -49.3523E+06    -1.03771E+06    -2.44320E+06    -15.6056E-03     31.1266E-03    -15.5210E-03     24.4893E-03    -15.5782E-03     30.8955E-03    -15.4417E-03     24.4536E-03
             660     7.08966E-03     76.0206E-03    -7.64937E+06    -46.6561E+06     416.266E+03    -2.32904E+06    -15.6511E-03     31.1707E-03    -15.5196E-03     28.6019E-03    -15.6243E-03     30.9499E-03    -15.4388E-03     28.5665E-03
             661     7.97595E-03     76.0491E-03    -5.78703E+06    -50.0346E+06     2.61465E+06    -1.73997E+06    -15.7143E-03     31.2435E-03    -15.5292E-03     32.7860E-03    -15.6775E-03     31.0009E-03    -15.4352E-03     32.7566E-03
             662     8.86221E-03     76.0814E-03    -3.72062E+06    -46.5339E+06     3.85971E+06    -2.09309E+06    -15.7789E-03     31.3019E-03    -15.5230E-03     37.1005E-03    -15.7402E-03     31.0736E-03    -15.4309E-03     37.0643E-03
             663     9.74845E-03     76.1179E-03    -2.48479E+06    -47.0094E+06     3.78960E+06    -2.80417E+06    -15.8779E-03     31.3956E-03    -15.5177E-03     41.3843E-03    -15.8348E-03     31.1658E-03    -15.4270E-03     41.3358E-03
             664     10.6347E-03     76.1583E-03    -1.73708E+06    -48.6685E+06     1.63128E+06    -2.60353E+06    -15.9888E-03     31.4947E-03    -15.5059E-03     45.5624E-03    -15.9405E-03     31.2627E-03    -15.4246E-03     45.5122E-03
             665     11.5210E-03     76.2026E-03    -1.60096E+06    -38.5710E+06     2.89552E+06    -1.83266E+06    -16.0557E-03     31.5508E-03    -15.4951E-03     49.9799E-03    -16.0296E-03     31.3737E-03    -15.4224E-03     49.9345E-03
             666     12.4073E-03     76.2512E-03    -2.47119E+06    -38.8580E+06     134.572E+03    -1.68603E+06    -16.2295E-03     31.7097E-03    -15.4801E-03     56.7830E-03    -16.2159E-03     31.5489E-03    -15.4195E-03     56.7325E-03
             667     13.2935E-03     76.3082E-03    -3.04877E+06    -39.7143E+06    -10.4947E+06    -2.36012E+06    -16.4383E-03     31.8670E-03    -15.4287E-03     61.7167E-03    -16.4310E-03     31.7383E-03    -15.4192E-03     61.6495E-03
             668     14.1794E-03     76.3661E-03    -3.25199E+06    -16.5854E+06    -9.67942E+06    -1.79197E+06    -16.4838E-03     31.8853E-03    -15.4015E-03     65.0374E-03    -16.5419E-03     31.9010E-03    -15.4211E-03     64.9741E-03
             669     15.0659E-03     76.4292E-03    -2.59751E+06     18.2789E+06    -8.01161E+06    -1.49795E+06    -17.5099E-03     32.8708E-03    -15.3610E-03     91.2649E-03    -17.7744E-03     33.2143E-03    -15.4238E-03     91.2243E-03
             670     15.9509E-03     76.5385E-03    -1.96412E+06     64.7148E+06    -13.9411E+06    -1.90020E+06    -19.5644E-03     34.8304E-03    -15.2660E-03     141.541E-03    -20.8787E-03     36.4079E-03    -15.4267E-03     141.913E-03
             671     16.8370E-03     76.6919E-03    -1.30035E+06     131.524E+06     24.1134E+06     885.514E+03    -19.5997E-03     34.9457E-03    -15.3460E-03     166.938E-03    -22.2976E-03     38.0360E-03    -15.4143E-03     169.014E-03
             672     886.224E-06     76.8988E-03    -17.1979E+06    -53.6758E+06    -16.3512E+06    -121.612E+03    -15.4837E-03     30.9640E-03    -15.4804E-03     3.54062E-03    -15.4680E-03     30.7450E-03    -15.4594E-03     3.53859E-03
             673     1.77237E-03     76.9034E-03    -16.3915E+06    -53.2569E+06    -13.9735E+06    -698.384E+03    -15.4907E-03     30.9839E-03    -15.4933E-03     6.56620E-03    -15.4752E-03     30.7618E-03    -15.4621E-03     6.55627E-03
             674     2.65858E-03     76.9110E-03    -14.9797E+06    -51.1263E+06    -10.9824E+06    -1.22962E+06    -15.4894E-03     30.9909E-03    -15.5014E-03     9.87927E-03    -15.4744E-03     30.7730E-03    -15.4605E-03     9.86200E-03
             675     3.54476E-03     76.9217E-03    -13.4283E+06    -49.1124E+06    -7.98744E+06    -1.58560E+06    -15.4955E-03     31.0020E-03    -15.5065E-03     13.3080E-03    -15.4802E-03     30.7878E-03    -15.4558E-03     13.2855E-03
             676     4.43103E-03     76.9357E-03    -11.8615E+06    -47.1092E+06    -5.32470E+06    -1.87173E+06    -15.5153E-03     31.0247E-03    -15.5094E-03     16.8700E-03    -15.4991E-03     30.8146E-03    -15.4505E-03     16.8433E-03
             677     5.31723E-03     76.9530E-03    -10.5117E+06    -49.5715E+06    -2.82776E+06    -2.04280E+06    -15.5648E-03     31.0845E-03    -15.5197E-03     20.5762E-03    -15.5422E-03     30.8569E-03    -15.4468E-03     20.5466E-03
             678     6.20343E-03     76.9739E-03    -9.44109E+06    -48.4711E+06    -1.55077E+06    -2.26053E+06    -15.6046E-03     31.1250E-03    -15.5204E-03     24.5016E-03    -15.5806E-03     30.8999E-03    -15.4442E-03     24.4683E-03
             679     7.08969E-03     76.9984E-03    -8.48026E+06    -46.4953E+06    -740.873E+03    -2.64154E+06    -15.6369E-03     31.1533E-03    -15.5164E-03     28.6117E-03    -15.6128E-03     30.9362E-03    -15.4404E-03     28.5723E-03
             680     7.97593E-03     77.0269E-03    -6.78186E+06    -49.5366E+06     1.02521E+06    -3.28314E+06    -15.7117E-03     31.2345E-03    -15.5227E-03     32.8039E-03    -15.6783E-03     30.9981E-03    -15.4360E-03     32.7546E-03
             681     8.86216E-03     77.0593E-03    -4.96493E+06    -46.3530E+06     2.86944E+06    -3.07724E+06    -15.7962E-03     31.3177E-03    -15.5215E-03     37.0994E-03    -15.7626E-03     31.0936E-03    -15.4327E-03     37.0505E-03
             682     9.74843E-03     77.0958E-03    -4.45992E+06    -46.6677E+06     3.64709E+06    -2.35364E+06    -15.8976E-03     31.4211E-03    -15.5235E-03     41.3643E-03    -15.8647E-03     31.1961E-03    -15.4311E-03     41.3215E-03
             683     10.6346E-03     77.1361E-03    -4.59553E+06    -48.2117E+06     686.636E+03    -2.81427E+06    -16.0027E-03     31.5135E-03    -15.5108E-03     45.5664E-03    -15.9680E-03     31.2894E-03    -15.4308E-03     45.5135E-03
             684     11.5208E-03     77.1805E-03    -3.19549E+06    -39.5281E+06     1.35104E+06    -2.72361E+06    -16.0711E-03     31.5697E-03    -15.4986E-03     50.0320E-03    -16.0493E-03     31.3923E-03    -15.4299E-03     49.9752E-03
             685     12.4070E-03     77.2291E-03    -678.397E+03    -38.5060E+06     422.630E+03    -2.06209E+06    -16.2500E-03     31.7365E-03    -15.4865E-03     56.8133E-03    -16.2283E-03     31.5745E-03    -15.4276E-03     56.7581E-03
             686     13.2933E-03     77.2861E-03    -319.275E+03    -39.2675E+06    -9.82657E+06    -1.86631E+06    -16.4395E-03     31.8743E-03    -15.4348E-03     61.8909E-03    -16.4199E-03     31.7427E-03    -15.4265E-03     61.8302E-03
             687     14.1797E-03     77.3442E-03    -1.10364E+06    -17.1813E+06    -9.25354E+06    -1.80486E+06    -16.7046E-03     32.1178E-03    -15.4133E-03     65.8351E-03    -16.7529E-03     32.1281E-03    -15.4330E-03     65.7707E-03
             688     15.0645E-03     77.4082E-03    -1.68946E+06     18.5227E+06    -7.59423E+06    -1.77863E+06    -17.1663E-03     32.5342E-03    -15.3679E-03     91.6664E-03    -17.4251E-03     32.8749E-03    -15.4303E-03     91.6255E-03
             689     15.9538E-03     77.5137E-03    -4.31525E+06     61.4276E+06    -15.6148E+06    -919.412E+03    -19.1945E-03     34.4428E-03    -15.2483E-03     142.879E-03    -20.5067E-03     36.0030E-03    -15.4092E-03     143.266E-03
             690     16.8390E-03     77.6749E-03    -4.69556E+06     130.060E+06     19.3391E+06     61.7331E+03    -19.7965E-03     35.0996E-03    -15.3031E-03     167.190E-03    -22.4757E-03     38.1678E-03    -15.3882E-03     169.252E-03
             691     886.139E-06     77.8766E-03    -16.9507E+06    -53.3372E+06    -16.3812E+06    -100.590E+03    -15.4793E-03     30.9904E-03    -15.5111E-03     3.52996E-03    -15.4628E-03     30.7727E-03    -15.4911E-03     3.52818E-03
             692     1.77237E-03     77.8813E-03    -15.9197E+06    -51.9285E+06    -14.1910E+06    -782.630E+03    -15.4843E-03     30.9830E-03    -15.4988E-03     6.57938E-03    -15.4680E-03     30.7671E-03    -15.4713E-03     6.56833E-03
             693     2.65856E-03     77.8889E-03    -14.7504E+06    -50.1853E+06    -11.3729E+06    -1.45908E+06    -15.4865E-03     30.9882E-03    -15.5017E-03     9.87779E-03    -15.4711E-03     30.7753E-03    -15.4644E-03     9.85754E-03
             694     3.54480E-03     77.8996E-03    -13.3896E+06    -48.3478E+06    -8.19460E+06    -1.75557E+06    -15.4960E-03     31.0028E-03    -15.5068E-03     13.3025E-03    -15.4812E-03     30.7927E-03    -15.4583E-03     13.2779E-03
             695     4.43098E-03     77.9135E-03    -12.0452E+06    -46.3823E+06    -5.65144E+06    -2.02058E+06    -15.5174E-03     31.0269E-03    -15.5094E-03     16.8656E-03    -15.5028E-03     30.8212E-03    -15.4530E-03     16.8370E-03
             696     5.31722E-03     77.9309E-03    -10.5696E+06    -49.0455E+06    -3.44030E+06    -2.23107E+06    -15.5579E-03     31.0758E-03    -15.5179E-03     20.5844E-03    -15.5355E-03     30.8517E-03    -15.4486E-03     20.5524E-03
             697     6.20345E-03     77.9517E-03    -9.10561E+06    -47.8789E+06    -1.92223E+06    -2.33180E+06    -15.5943E-03     31.1119E-03    -15.5175E-03     24.5050E-03    -15.5689E-03     30.8897E-03    -15.4445E-03     24.4708E-03
             698     7.08968E-03     77.9764E-03    -7.76114E+06    -45.3808E+06    -175.476E+03    -2.83452E+06    -15.6454E-03     31.1619E-03    -15.5165E-03     28.6043E-03    -15.6201E-03     30.9485E-03    -15.4403E-03     28.5624E-03
             699     7.97594E-03     78.0047E-03    -7.10330E+06    -48.3196E+06     1.43456E+06    -3.61029E+06    -15.7289E-03     31.2538E-03    -15.5250E-03     32.8067E-03    -15.6994E-03     31.0235E-03    -15.4374E-03     32.7532E-03
             700     8.86216E-03     78.0372E-03    -6.66929E+06    -47.2073E+06     1.91323E+06    -3.39746E+06    -15.8057E-03     31.3293E-03    -15.5236E-03     37.1143E-03    -15.7780E-03     31.1047E-03    -15.4359E-03     37.0613E-03
             701     9.74833E-03     78.0737E-03    -5.29612E+06    -47.0377E+06     2.73607E+06    -2.48890E+06    -15.8913E-03     31.4153E-03    -15.5240E-03     41.4091E-03    -15.8607E-03     31.1910E-03    -15.4345E-03     41.3646E-03
             702     10.6346E-03     78.1141E-03    -3.86590E+06    -46.4788E+06     622.880E+03    -2.85360E+06    -15.9873E-03     31.4964E-03    -15.5091E-03     45.6380E-03    -15.9513E-03     31.2799E-03    -15.4329E-03     45.5847E-03
             703     11.5208E-03     78.1583E-03    -3.10180E+06    -39.3191E+06     139.769E+03    -4.24246E+06    -16.0654E-03     31.5583E-03    -15.4929E-03     50.1706E-03    -16.0416E-03     31.3836E-03    -15.4307E-03     50.0943E-03
             704     12.4071E-03     78.2071E-03    -2.61137E+06    -39.8533E+06    -1.67035E+06    -3.52119E+06    -16.2530E-03     31.7344E-03    -15.4813E-03     56.9686E-03    -16.2359E-03     31.5714E-03    -15.4281E-03     56.8946E-03
             705     13.2933E-03     78.2638E-03    -2.54418E+06    -39.9137E+06    -11.0302E+06    -1.74912E+06    -16.4289E-03     31.8623E-03    -15.4333E-03     62.0353E-03    -16.4180E-03     31.7326E-03    -15.4269E-03     61.9761E-03
             706     14.1794E-03     78.3221E-03    -3.03311E+06    -16.6719E+06    -10.0010E+06    -1.72830E+06    -16.3177E-03     31.7177E-03    -15.4000E-03     66.1103E-03    -16.3745E-03     31.7335E-03    -15.4214E-03     66.0484E-03
             707     15.0668E-03     78.3867E-03    -4.19480E+06     17.6918E+06    -8.84434E+06    -1.43922E+06    -17.1595E-03     32.5044E-03    -15.3449E-03     91.1161E-03    -17.4274E-03     32.8459E-03    -15.4087E-03     91.0783E-03
             708     15.9515E-03     78.4896E-03    -4.29796E+06     60.6081E+06    -15.3846E+06    -194.502E+03    -19.2572E-03     34.4906E-03    -15.2333E-03     142.532E-03    -20.5690E-03     36.0469E-03    -15.3919E-03     142.922E-03
             709     16.8397E-03     78.6540E-03    -2.29309E+06     130.169E+06     19.8513E+06    -544.356E+03    -19.5804E-03     34.8637E-03    -15.2833E-03     166.115E-03    -22.2128E-03     37.8925E-03    -15.3694E-03     168.141E-03
             710     886.192E-06     78.8546E-03    -15.8941E+06    -52.6481E+06    -15.8294E+06    -453.108E+03    -15.4709E-03     31.0016E-03    -15.5307E-03     3.52140E-03    -15.4510E-03     30.7850E-03    -15.5104E-03     3.51502E-03
             711     1.77236E-03     78.8592E-03    -15.3355E+06    -50.6667E+06    -14.4066E+06    -1.03957E+06    -15.4890E-03     30.9877E-03    -15.4987E-03     6.58065E-03    -15.4714E-03     30.7776E-03    -15.4750E-03     6.56629E-03
             712     2.65856E-03     78.8668E-03    -14.5916E+06    -49.1369E+06    -11.6426E+06    -1.45989E+06    -15.4901E-03     30.9923E-03    -15.5022E-03     9.86684E-03    -15.4750E-03     30.7848E-03    -15.4680E-03     9.84660E-03
             713     3.54474E-03     78.8775E-03    -13.4961E+06    -47.5287E+06    -8.59915E+06    -1.89993E+06    -15.4986E-03     31.0061E-03    -15.5075E-03     13.2997E-03    -15.4850E-03     30.8008E-03    -15.4620E-03     13.2732E-03
             714     4.43099E-03     78.8915E-03    -12.0096E+06    -45.5483E+06    -5.99213E+06    -2.24020E+06    -15.5124E-03     31.0218E-03    -15.5094E-03     16.8664E-03    -15.4982E-03     30.8207E-03    -15.4559E-03     16.8350E-03
             715     5.31721E-03     78.9087E-03    -10.4054E+06    -48.1687E+06    -3.47130E+06    -2.74314E+06    -15.5490E-03     31.0666E-03    -15.5176E-03     20.5815E-03    -15.5270E-03     30.8467E-03    -15.4500E-03     20.5428E-03
             716     6.20345E-03     78.9296E-03    -8.58354E+06    -47.4599E+06    -1.64422E+06    -3.00918E+06    -15.5971E-03     31.1152E-03    -15.5182E-03     24.4990E-03    -15.5701E-03     30.8941E-03    -15.4451E-03     24.4561E-03
             717     7.08970E-03     78.9542E-03    -7.05443E+06    -44.3292E+06     649.366E+03    -3.12570E+06    -15.6577E-03     31.1770E-03    -15.5194E-03     28.6040E-03    -15.6316E-03     30.9666E-03    -15.4416E-03     28.5583E-03
             718     7.97588E-03     78.9827E-03    -6.07112E+06    -47.8237E+06     2.69051E+06    -2.99005E+06    -15.7350E-03     31.2660E-03    -15.5311E-03     32.7968E-03    -15.7029E-03     31.0348E-03    -15.4395E-03     32.7513E-03
             719     8.86209E-03     79.0150E-03    -5.29949E+06    -46.8108E+06     2.52084E+06    -3.28223E+06    -15.7948E-03     31.3201E-03    -15.5253E-03     37.1415E-03    -15.7617E-03     31.0946E-03    -15.4371E-03     37.0900E-03
             720     9.74839E-03     79.0516E-03    -3.67930E+06    -46.8668E+06     2.22890E+06    -4.12533E+06    -15.8707E-03     31.3886E-03    -15.5179E-03     41.4790E-03    -15.8315E-03     31.1635E-03    -15.4335E-03     41.4135E-03
             721     10.6346E-03     79.0919E-03    -1.71282E+06    -46.0661E+06     1.11556E+06    -3.79236E+06    -15.9812E-03     31.4861E-03    -15.5049E-03     45.6981E-03    -15.9358E-03     31.2679E-03    -15.4300E-03     45.6327E-03
             722     11.5209E-03     79.1363E-03    -1.97759E+06    -38.3808E+06     2.19521E+06    -3.09544E+06    -16.0572E-03     31.5537E-03    -15.4965E-03     50.1263E-03    -16.0322E-03     31.3791E-03    -15.4270E-03     50.0647E-03
             723     12.4072E-03     79.1848E-03    -3.66782E+06    -41.1094E+06    -1.20099E+06    -2.90259E+06    -16.2381E-03     31.7210E-03    -15.4829E-03     56.9376E-03    -16.2252E-03     31.5526E-03    -15.4240E-03     56.8715E-03
             724     13.2934E-03     79.2418E-03    -3.98187E+06    -40.4215E+06    -11.6422E+06    -2.68166E+06    -16.3948E-03     31.8228E-03    -15.4280E-03     62.1036E-03    -16.3897E-03     31.6937E-03    -15.4218E-03     62.0323E-03
             725     14.1797E-03     79.3000E-03    -3.51953E+06    -16.6921E+06    -10.2955E+06    -2.20253E+06    -16.2504E-03     31.6425E-03    -15.3921E-03     65.5410E-03    -16.3085E-03     31.6587E-03    -15.4143E-03     65.4733E-03
             726     15.0663E-03     79.3630E-03    -2.79191E+06     17.1122E+06    -8.73586E+06    -1.29033E+06    -17.2445E-03     32.5828E-03    -15.3383E-03     90.9609E-03    -17.5061E-03     32.9205E-03    -15.4027E-03     90.9245E-03
             727     15.9530E-03     79.4704E-03    -2.12919E+06     60.7130E+06    -14.9401E+06    -1.20211E+06    -19.1898E-03     34.4176E-03    -15.2278E-03     142.267E-03    -20.4984E-03     35.9775E-03    -15.3874E-03     142.653E-03
             728     16.8385E-03     79.6279E-03    -1.84625E+06     129.409E+06     17.4282E+06    -1.34097E+06    -19.6135E-03     34.8790E-03    -15.2655E-03     167.446E-03    -22.2822E-03     37.9499E-03    -15.3633E-03     169.470E-03
             729     886.161E-06     79.8325E-03    -15.7909E+06    -51.4774E+06    -15.7541E+06    -758.495E+03    -15.5083E-03     31.0021E-03    -15.4938E-03     3.52612E-03    -15.4896E-03     30.7911E-03    -15.4750E-03     3.51580E-03
             730     1.77234E-03     79.8371E-03    -15.6066E+06    -49.6469E+06    -14.3796E+06    -1.01861E+06    -15.4941E-03     30.9947E-03    -15.5006E-03     6.56458E-03    -15.4793E-03     30.7900E-03    -15.4779E-03     6.55051E-03
             731     2.65855E-03     79.8446E-03    -14.8815E+06    -48.1338E+06    -11.8021E+06    -1.40935E+06    -15.4922E-03     30.9968E-03    -15.5046E-03     9.86098E-03    -15.4798E-03     30.7950E-03    -15.4723E-03     9.84140E-03
             732     3.54476E-03     79.8554E-03    -13.6578E+06    -46.2823E+06    -8.80708E+06    -2.05756E+06    -15.4955E-03     31.0041E-03    -15.5087E-03     13.2950E-03    -15.4842E-03     30.8056E-03    -15.4658E-03     13.2665E-03
             733     4.43096E-03     79.8693E-03    -12.1721E+06    -44.6085E+06    -6.13465E+06    -2.69144E+06    -15.5068E-03     31.0170E-03    -15.5102E-03     16.8603E-03    -15.4946E-03     30.8210E-03    -15.4585E-03     16.8230E-03
             734     5.31721E-03     79.8867E-03    -10.6683E+06    -47.0565E+06    -3.38182E+06    -3.08000E+06    -15.5506E-03     31.0697E-03    -15.5190E-03     20.5742E-03    -15.5317E-03     30.8556E-03    -15.4522E-03     20.5312E-03
             735     6.20342E-03     79.9074E-03    -9.34534E+06    -46.5692E+06    -1.72791E+06    -3.68906E+06    -15.6003E-03     31.1207E-03    -15.5204E-03     24.5020E-03    -15.5783E-03     30.9052E-03    -15.4479E-03     24.4503E-03
             736     7.08964E-03     79.9322E-03    -7.80917E+06    -44.1090E+06    -206.846E+03    -3.67066E+06    -15.6445E-03     31.1627E-03    -15.5183E-03     28.6213E-03    -15.6212E-03     30.9558E-03    -15.4440E-03     28.5686E-03
             737     7.97590E-03     79.9605E-03    -6.09618E+06    -47.6784E+06     2.04934E+06    -3.36527E+06    -15.7137E-03     31.2417E-03    -15.5280E-03     32.8168E-03    -15.6810E-03     31.0122E-03    -15.4398E-03     32.7664E-03
             738     8.86216E-03     79.9930E-03    -4.04256E+06    -45.1167E+06     3.18301E+06    -4.10005E+06    -15.7764E-03     31.2988E-03    -15.5224E-03     37.1560E-03    -15.7403E-03     31.0790E-03    -15.4352E-03     37.0939E-03
             739     9.74842E-03     80.0294E-03    -2.75233E+06    -45.7851E+06     2.99630E+06    -5.02570E+06    -15.8696E-03     31.3855E-03    -15.5160E-03     41.4667E-03    -15.8284E-03     31.1634E-03    -15.4306E-03     41.3896E-03
             740     10.6347E-03     80.0698E-03    -2.66913E+06    -47.4883E+06     671.111E+03    -4.28986E+06    -15.9869E-03     31.4906E-03    -15.5037E-03     45.6813E-03    -15.9436E-03     31.2673E-03    -15.4276E-03     45.6095E-03
             741     11.5209E-03     80.1141E-03    -2.07674E+06    -39.2255E+06     2.63038E+06    -2.35550E+06    -16.0500E-03     31.5479E-03    -15.4980E-03     50.0597E-03    -16.0249E-03     31.3686E-03    -15.4249E-03     50.0077E-03
             742     12.4072E-03     80.1627E-03    -1.04040E+06    -40.1302E+06     522.986E+03    -2.23091E+06    -16.2207E-03     31.7040E-03    -15.4833E-03     56.9082E-03    -16.1986E-03     31.5342E-03    -15.4210E-03     56.8508E-03
             743     13.2934E-03     80.2197E-03    -838.430E+03    -39.9883E+06    -10.6475E+06    -3.32231E+06    -16.3414E-03     31.7633E-03    -15.4219E-03     62.0380E-03    -16.3222E-03     31.6301E-03    -15.4159E-03     61.9588E-03
             744     14.1799E-03     80.2776E-03    -792.515E+03    -17.6731E+06    -9.67738E+06    -2.84619E+06    -16.4325E-03     31.8226E-03    -15.3901E-03     65.6412E-03    -16.4770E-03     31.8296E-03    -15.4117E-03     65.5645E-03
             745     15.0656E-03     80.3414E-03    -621.008E+03     16.3054E+06    -8.05297E+06    -1.84113E+06    -17.2672E-03     32.6095E-03    -15.3422E-03     91.2810E-03    -17.5172E-03     32.9384E-03    -15.4052E-03     91.2385E-03
             746     15.9523E-03     80.4469E-03    -957.404E+03     60.7737E+06    -14.2685E+06    -1.52433E+06    -19.2735E-03     34.5094E-03    -15.2360E-03     141.307E-03    -20.5694E-03     36.0591E-03    -15.3941E-03     141.686E-03
             747     16.8410E-03     80.6060E-03    -1.05679E+06     129.000E+06     22.7522E+06    -872.053E+03    -19.6121E-03     34.9168E-03    -15.3046E-03     166.237E-03    -22.2754E-03     37.9683E-03    -15.3764E-03     168.277E-03
             748     886.177E-06     80.8105E-03    -17.0212E+06    -50.2150E+06    -15.9803E+06    -788.514E+03    -15.5399E-03     30.9902E-03    -15.4503E-03     3.53742E-03    -15.5290E-03     30.7876E-03    -15.4327E-03     3.52673E-03
             749     1.77236E-03     80.8150E-03    -15.9322E+06    -48.8455E+06    -13.5659E+06    -865.142E+03    -15.5004E-03     31.0052E-03    -15.5048E-03     6.56388E-03    -15.4895E-03     30.8038E-03    -15.4787E-03     6.55178E-03
             750     2.65853E-03     80.8226E-03    -14.6891E+06    -46.8767E+06    -11.0153E+06    -1.47817E+06    -15.4955E-03     31.0054E-03    -15.5100E-03     9.85407E-03    -15.4851E-03     30.8084E-03    -15.4758E-03     9.83361E-03
             751     3.54473E-03     80.8332E-03    -13.3937E+06    -44.9541E+06    -8.31810E+06    -2.14256E+06    -15.4931E-03     31.0052E-03    -15.5121E-03     13.2806E-03    -15.4832E-03     30.8122E-03    -15.4690E-03     13.2510E-03
             752     4.43097E-03     80.8473E-03    -12.1507E+06    -43.2534E+06    -5.74683E+06    -2.86564E+06    -15.5078E-03     31.0208E-03    -15.5129E-03     16.8533E-03    -15.4981E-03     30.8310E-03    -15.4613E-03     16.8137E-03
             753     5.31718E-03     80.8645E-03    -10.8472E+06    -46.3084E+06    -3.50246E+06    -3.27392E+06    -15.5512E-03     31.0716E-03    -15.5204E-03     20.5800E-03    -15.5340E-03     30.8617E-03    -15.4551E-03     20.5345E-03
             754     6.20340E-03     80.8855E-03    -9.82411E+06    -45.2053E+06    -2.16504E+06    -3.55774E+06    -15.5866E-03     31.1055E-03    -15.5188E-03     24.5205E-03    -15.5684E-03     30.8981E-03    -15.4499E-03     24.4704E-03
             755     7.08965E-03     80.9099E-03    -9.04763E+06    -43.7188E+06    -1.30577E+06    -4.13866E+06    -15.6211E-03     31.1350E-03    -15.5139E-03     28.6391E-03    -15.6030E-03     30.9334E-03    -15.4439E-03     28.5804E-03
             756     7.97592E-03     80.9385E-03    -7.35255E+06    -46.8315E+06     500.892E+03    -4.66975E+06    -15.6899E-03     31.2087E-03    -15.5187E-03     32.8489E-03    -15.6625E-03     30.9874E-03    -15.4377E-03     32.7818E-03
             757     8.86215E-03     80.9708E-03    -6.00157E+06    -44.0408E+06     2.12301E+06    -4.85573E+06    -15.7667E-03     31.2822E-03    -15.5155E-03     37.1605E-03    -15.7405E-03     31.0722E-03    -15.4323E-03     37.0887E-03
             758     9.74845E-03     81.0073E-03    -5.95036E+06    -45.2935E+06     2.09272E+06    -4.45684E+06    -15.8631E-03     31.3763E-03    -15.5131E-03     41.4696E-03    -15.8374E-03     31.1625E-03    -15.4284E-03     41.3998E-03
             759     10.6346E-03     81.0476E-03    -5.40770E+06    -47.5623E+06    -1.27871E+06    -4.75243E+06    -15.9589E-03     31.4545E-03    -15.4957E-03     45.7228E-03    -15.9263E-03     31.2376E-03    -15.4252E-03     45.6450E-03
             760     11.5209E-03     81.0920E-03    -2.93525E+06    -40.6590E+06    -168.423E+03    -4.74259E+06    -16.0297E-03     31.5132E-03    -15.4835E-03     50.1581E-03    -16.0028E-03     31.3320E-03    -15.4211E-03     50.0754E-03
             761     12.4072E-03     81.1405E-03     39.2347E+03    -39.5101E+06    -429.069E+03    -3.88136E+06    -16.2154E-03     31.6866E-03    -15.4712E-03     56.9595E-03    -16.1874E-03     31.5197E-03    -15.4161E-03     56.8809E-03
             762     13.2936E-03     81.1975E-03     693.143E+03    -39.7397E+06    -10.6340E+06    -3.22458E+06    -16.3724E-03     31.7877E-03    -15.4153E-03     61.9611E-03    -16.3459E-03     31.6534E-03    -15.4118E-03     61.8831E-03
             763     14.1798E-03     81.2553E-03    -346.380E+03    -18.2250E+06    -9.98566E+06    -3.05125E+06    -16.4025E-03     31.7871E-03    -15.3846E-03     65.7069E-03    -16.4435E-03     31.7911E-03    -15.4076E-03     65.6278E-03
             764     15.0666E-03     81.3196E-03    -589.336E+03     15.3303E+06    -8.30801E+06    -2.88373E+06    -17.2323E-03     32.5691E-03    -15.3367E-03     91.0652E-03    -17.4787E-03     32.8918E-03    -15.3997E-03     91.0086E-03
             765     15.9528E-03     81.4244E-03    -707.518E+03     59.0350E+06    -14.5023E+06    -1.31734E+06    -19.6158E-03     34.8530E-03    -15.2372E-03     142.647E-03    -20.9294E-03     36.4157E-03    -15.3943E-03     143.020E-03
             766     16.8352E-03     81.5852E-03    -928.701E+03     128.896E+06     22.9610E+06     392.342E+03    -19.7174E-03     35.0305E-03    -15.3131E-03     167.007E-03    -22.3870E-03     38.0878E-03    -15.3838E-03     169.069E-03
             767     886.202E-06     81.7883E-03    -17.6003E+06    -49.1451E+06    -16.3319E+06    -436.663E+03    -15.5179E-03     30.9845E-03    -15.4667E-03     3.51855E-03    -15.5109E-03     30.7887E-03    -15.4515E-03     3.51240E-03
             768     1.77234E-03     81.7930E-03    -16.3872E+06    -47.9018E+06    -13.7720E+06    -977.736E+03    -15.4957E-03     30.9988E-03    -15.5031E-03     6.56130E-03    -15.4882E-03     30.8031E-03    -15.4788E-03     6.54776E-03
             769     2.65854E-03     81.8005E-03    -14.8639E+06    -45.4584E+06    -10.7925E+06    -1.60417E+06    -15.4930E-03     31.0022E-03    -15.5091E-03     9.85939E-03    -15.4859E-03     30.8122E-03    -15.4756E-03     9.83730E-03
             770     3.54473E-03     81.8112E-03    -13.3722E+06    -43.7704E+06    -7.80188E+06    -2.20235E+06    -15.4963E-03     31.0098E-03    -15.5135E-03     13.2838E-03    -15.4887E-03     30.8220E-03    -15.4697E-03     13.2534E-03
             771     4.43095E-03     81.8251E-03    -11.9571E+06    -41.7279E+06    -5.45578E+06    -2.83692E+06    -15.5084E-03     31.0216E-03    -15.5132E-03     16.8632E-03    -15.5003E-03     30.8387E-03    -15.4627E-03     16.8241E-03
             772     5.31717E-03     81.8425E-03    -10.5023E+06    -45.3185E+06    -3.30758E+06    -3.55616E+06    -15.5442E-03     31.0645E-03    -15.5202E-03     20.5886E-03    -15.5271E-03     30.8587E-03    -15.4558E-03     20.5395E-03
             773     6.20342E-03     81.8632E-03    -8.89243E+06    -44.5246E+06    -2.03796E+06    -3.67894E+06    -15.5724E-03     31.0885E-03    -15.5161E-03     24.5218E-03    -15.5506E-03     30.8830E-03    -15.4488E-03     24.4702E-03
             774     7.08969E-03     81.8879E-03    -7.56886E+06    -42.1919E+06    -206.406E+03    -4.08712E+06    -15.6142E-03     31.1265E-03    -15.5123E-03     28.6288E-03    -15.5925E-03     30.9288E-03    -15.4412E-03     28.5708E-03
             775     7.97593E-03     81.9162E-03    -7.20766E+06    -45.7226E+06     1.02480E+06    -4.90681E+06    -15.6852E-03     31.2015E-03    -15.5163E-03     32.8461E-03    -15.6594E-03     30.9848E-03    -15.4345E-03     32.7759E-03
             776     8.86224E-03     81.9487E-03    -6.94714E+06    -44.1897E+06     1.51326E+06    -4.52845E+06    -15.7512E-03     31.2616E-03    -15.5104E-03     37.1793E-03    -15.7287E-03     31.0531E-03    -15.4287E-03     37.1118E-03
             777     9.74843E-03     81.9850E-03    -5.62170E+06    -44.5524E+06     1.92981E+06    -4.60116E+06    -15.8290E-03     31.3343E-03    -15.5053E-03     41.5185E-03    -15.8024E-03     31.1240E-03    -15.4229E-03     41.4470E-03
             778     10.6348E-03     82.0256E-03    -4.25598E+06    -46.0492E+06    -1.55294E+06    -5.54446E+06    -15.9236E-03     31.4058E-03    -15.4822E-03     45.7929E-03    -15.8870E-03     31.1952E-03    -15.4170E-03     45.7051E-03
             779     11.5210E-03     82.0697E-03    -3.87408E+06    -40.2329E+06    -1.72870E+06    -6.53791E+06    -16.0107E-03     31.4773E-03    -15.4666E-03     50.2673E-03    -15.9868E-03     31.3018E-03    -15.4113E-03     50.1615E-03
             780     12.4074E-03     82.1184E-03    -3.42533E+06    -40.8885E+06    -3.04716E+06    -5.91614E+06    -16.2106E-03     31.6660E-03    -15.4554E-03     57.0586E-03    -16.1940E-03     31.5010E-03    -15.4064E-03     56.9538E-03
             781     13.2936E-03     82.1752E-03    -2.37563E+06    -40.4454E+06    -12.2375E+06    -4.25737E+06    -16.4155E-03     31.8210E-03    -15.4055E-03     62.1094E-03    -16.4012E-03     31.6902E-03    -15.4046E-03     62.0178E-03
             782     14.1798E-03     82.2333E-03    -1.52046E+06    -18.1470E+06    -10.6675E+06    -3.55813E+06    -16.3414E-03     31.7173E-03    -15.3759E-03     65.7836E-03    -16.3871E-03     31.7241E-03    -15.4007E-03     65.6981E-03
             783     15.0658E-03     82.2970E-03    -2.01051E+06     14.9006E+06    -9.24661E+06    -3.03010E+06    -17.1518E-03     32.4759E-03    -15.3241E-03     91.2035E-03    -17.4047E-03     32.8014E-03    -15.3890E-03     91.1456E-03
             784     15.9527E-03     82.4022E-03    -2.78142E+06     56.7581E+06    -16.2410E+06    -1.70473E+06    -19.3219E-03     34.5361E-03    -15.2142E-03     142.925E-03    -20.6411E-03     36.0939E-03    -15.3737E-03     143.307E-03
             785     16.8432E-03     82.5646E-03    -2.47317E+06     127.370E+06     13.9963E+06     227.063E+03    -19.7174E-03     34.9634E-03    -15.2460E-03     166.261E-03    -22.3605E-03     38.0093E-03    -15.3571E-03     168.301E-03
             786     886.135E-06     82.7663E-03    -16.7612E+06    -48.4784E+06    -15.8981E+06     121.911E+03    -15.4881E-03     30.9977E-03    -15.5096E-03     3.52465E-03    -15.4785E-03     30.8033E-03    -15.4945E-03     3.52572E-03
             787     1.77236E-03     82.7708E-03    -15.9932E+06    -46.3232E+06    -13.9085E+06    -1.05350E+06    -15.4853E-03     30.9871E-03    -15.5018E-03     6.55529E-03    -15.4780E-03     30.7990E-03    -15.4810E-03     6.54079E-03
             788     2.65855E-03     82.7785E-03    -14.6468E+06    -44.1730E+06    -10.8211E+06    -1.90308E+06    -15.4878E-03     30.9932E-03    -15.5054E-03     9.85108E-03    -15.4814E-03     30.8094E-03    -15.4742E-03     9.82515E-03
             789     3.54475E-03     82.7891E-03    -12.9893E+06    -42.5477E+06    -7.51890E+06    -2.41784E+06    -15.4981E-03     31.0092E-03    -15.5111E-03     13.2735E-03    -15.4908E-03     30.8266E-03    -15.4682E-03     13.2404E-03
             790     4.43095E-03     82.8031E-03    -11.5089E+06    -40.4662E+06    -5.12680E+06    -2.88269E+06    -15.5047E-03     31.0158E-03    -15.5112E-03     16.8549E-03    -15.4966E-03     30.8382E-03    -15.4614E-03     16.8151E-03
             791     5.31720E-03     82.8203E-03    -10.2753E+06    -43.6020E+06    -2.82920E+06    -3.69763E+06    -15.5344E-03     31.0522E-03    -15.5179E-03     20.5800E-03    -15.5193E-03     30.8541E-03    -15.4539E-03     20.5290E-03
             792     6.20342E-03     82.8412E-03    -8.70335E+06    -43.8230E+06    -1.71041E+06    -4.55958E+06    -15.5667E-03     31.0805E-03    -15.5138E-03     24.5116E-03    -15.5455E-03     30.8778E-03    -15.4462E-03     24.4487E-03
             793     7.08970E-03     82.8656E-03    -6.98669E+06    -41.3239E+06     62.0923E+03    -4.46677E+06    -15.6066E-03     31.1150E-03    -15.5084E-03     28.6326E-03    -15.5837E-03     30.9204E-03    -15.4381E-03     28.5697E-03
             794     7.97598E-03     82.8942E-03    -5.87505E+06    -44.9186E+06     2.43999E+06    -4.10658E+06    -15.6748E-03     31.1911E-03    -15.5163E-03     32.8264E-03    -15.6455E-03     30.9744E-03    -15.4304E-03     32.7665E-03
             795     8.86220E-03     82.9264E-03    -4.58804E+06    -43.3500E+06     2.22895E+06    -4.99901E+06    -15.7235E-03     31.2268E-03    -15.5032E-03     37.1957E-03    -15.6914E-03     31.0180E-03    -15.4226E-03     37.1221E-03
             796     9.74862E-03     82.9630E-03    -3.03164E+06    -43.6299E+06     2.38625E+06    -5.61803E+06    -15.8025E-03     31.2960E-03    -15.4935E-03     41.5319E-03    -15.7650E-03     31.0859E-03    -15.4139E-03     41.4473E-03
             797     10.6349E-03     83.0032E-03    -2.38304E+06    -44.9406E+06     647.664E+03    -5.64832E+06    -15.9188E-03     31.3975E-03    -15.4787E-03     45.7496E-03    -15.8776E-03     31.1865E-03    -15.4069E-03     45.6604E-03
             798     11.5212E-03     83.0477E-03    -2.49190E+06    -38.7232E+06     990.482E+03    -6.06477E+06    -15.9928E-03     31.4584E-03    -15.4656E-03     50.1901E-03    -15.9681E-03     31.2845E-03    -15.4009E-03     50.0904E-03
             799     12.4075E-03     83.0961E-03    -2.59625E+06    -41.6284E+06    -2.33908E+06    -6.36308E+06    -16.1948E-03     31.6428E-03    -15.4479E-03     57.0405E-03    -16.1741E-03     31.4719E-03    -15.3955E-03     56.9299E-03
             800     13.2939E-03     83.1532E-03    -2.27447E+06    -41.1842E+06    -12.7792E+06    -6.00221E+06    -16.3710E-03     31.7623E-03    -15.3913E-03     62.2115E-03    -16.3544E-03     31.6284E-03    -15.3922E-03     62.0977E-03
             801     14.1800E-03     83.2112E-03    -2.23023E+06    -19.3232E+06    -11.3055E+06    -4.41117E+06    -16.3159E-03     31.6775E-03    -15.3616E-03     65.6485E-03    -16.3623E-03     31.6801E-03    -15.3868E-03     65.5523E-03
             802     15.0672E-03     83.2743E-03    -2.37599E+06     13.8292E+06    -9.77625E+06    -2.42987E+06    -17.2502E-03     32.5629E-03    -15.3126E-03     91.1824E-03    -17.5038E-03     32.8854E-03    -15.3781E-03     91.1321E-03
             803     15.9531E-03     83.3806E-03    -3.60986E+06     55.4973E+06    -17.1564E+06    -1.37449E+06    -19.3685E-03     34.5759E-03    -15.2074E-03     142.446E-03    -20.6788E-03     36.1201E-03    -15.3684E-03     142.831E-03
             804     16.8359E-03     83.5399E-03    -3.28175E+06     125.955E+06     13.5357E+06    -993.475E+03    -19.7083E-03     34.9529E-03    -15.2447E-03     166.022E-03    -22.3539E-03     37.9948E-03    -15.3549E-03     168.050E-03
             805     886.196E-06     83.7442E-03    -15.6512E+06    -48.2163E+06    -15.3883E+06     305.068E+03    -15.4901E-03     31.0057E-03    -15.5157E-03     3.53718E-03    -15.4760E-03     30.8103E-03    -15.5000E-03     3.54060E-03
             806     1.77233E-03     83.7488E-03    -14.9427E+06    -44.1147E+06    -13.4441E+06    -1.16387E+06    -15.4915E-03     30.9930E-03    -15.5016E-03     6.54104E-03    -15.4828E-03     30.8137E-03    -15.4831E-03     6.52513E-03
             807     2.65854E-03     83.7563E-03    -13.6720E+06    -42.6235E+06    -10.5530E+06    -2.35457E+06    -15.4868E-03     30.9919E-03    -15.5051E-03     9.83995E-03    -15.4782E-03     30.8140E-03    -15.4762E-03     9.80821E-03
             808     3.54473E-03     83.7671E-03    -12.0295E+06    -41.3628E+06    -7.47147E+06    -2.93953E+06    -15.4885E-03     30.9964E-03    -15.5079E-03     13.2629E-03    -15.4782E-03     30.8182E-03    -15.4678E-03     13.2231E-03
             809     4.43097E-03     83.7809E-03    -10.4820E+06    -39.6714E+06    -4.61589E+06    -2.96877E+06    -15.4954E-03     31.0036E-03    -15.5082E-03     16.8417E-03    -15.4841E-03     30.8277E-03    -15.4586E-03     16.8009E-03
             810     5.31720E-03     83.7982E-03    -9.47526E+06    -41.8156E+06    -2.10900E+06    -3.35479E+06    -15.5244E-03     31.0378E-03    -15.5134E-03     20.5763E-03    -15.5089E-03     30.8464E-03    -15.4496E-03     20.5298E-03
             811     6.20346E-03     83.8189E-03    -9.08023E+06    -42.0055E+06    -1.16315E+06    -4.51587E+06    -15.5568E-03     31.0665E-03    -15.5097E-03     24.5105E-03    -15.5409E-03     30.8726E-03    -15.4414E-03     24.4481E-03
             812     7.08971E-03     83.8436E-03    -8.65788E+06    -41.5869E+06    -1.13198E+06    -4.73573E+06    -15.5824E-03     31.0821E-03    -15.4997E-03     28.6474E-03    -15.5656E-03     30.8903E-03    -15.4325E-03     28.5811E-03
             813     7.97600E-03     83.8719E-03    -6.87962E+06    -43.5104E+06     655.309E+03    -5.10503E+06    -15.6352E-03     31.1341E-03    -15.4989E-03     32.8824E-03    -15.6104E-03     30.9285E-03    -15.4225E-03     32.8097E-03
             814     8.86237E-03     83.9043E-03    -4.81266E+06    -41.6638E+06     2.19163E+06    -6.02588E+06    -15.7048E-03     31.1960E-03    -15.4912E-03     37.2132E-03    -15.6762E-03     30.9960E-03    -15.4128E-03     37.1264E-03
             815     9.74865E-03     83.9406E-03    -4.05769E+06    -43.6222E+06     2.16115E+06    -5.86245E+06    -15.7952E-03     31.2794E-03    -15.4842E-03     41.5367E-03    -15.7624E-03     31.0711E-03    -15.4042E-03     41.4490E-03
             816     10.6350E-03     83.9811E-03    -3.50257E+06    -43.8295E+06     264.156E+03    -5.89729E+06    -15.8997E-03     31.3670E-03    -15.4673E-03     45.7843E-03    -15.8652E-03     31.1637E-03    -15.3973E-03     45.6919E-03
             817     11.5212E-03     84.0253E-03    -2.41602E+06    -37.8539E+06     887.859E+03    -6.35955E+06    -15.9675E-03     31.4209E-03    -15.4535E-03     50.2187E-03    -15.9435E-03     31.2514E-03    -15.3906E-03     50.1152E-03
             818     12.4077E-03     84.0739E-03    -1.48532E+06    -40.8041E+06    -2.56122E+06    -6.65670E+06    -16.1838E-03     31.6168E-03    -15.4330E-03     57.1274E-03    -16.1584E-03     31.4487E-03    -15.3844E-03     57.0131E-03
             819     13.2938E-03     84.1309E-03    -2.22551E+06    -42.1001E+06    -13.2023E+06    -6.06820E+06    -16.3260E-03     31.7041E-03    -15.3780E-03     62.1129E-03    -16.3069E-03     31.5658E-03    -15.3798E-03     61.9984E-03
             820     14.1805E-03     84.1888E-03    -3.04904E+06    -20.5150E+06    -11.7375E+06    -4.97467E+06    -16.3540E-03     31.7046E-03    -15.3506E-03     65.5636E-03    -16.4021E-03     31.7031E-03    -15.3751E-03     65.4599E-03
             821     15.0659E-03     84.2522E-03    -2.49792E+06     11.6151E+06    -10.4044E+06    -3.62951E+06    -17.3773E-03     32.6838E-03    -15.3065E-03     91.3255E-03    -17.6277E-03     32.9967E-03    -15.3717E-03     91.2589E-03
             822     15.9526E-03     84.3583E-03    -992.600E+03     54.5977E+06    -15.9596E+06    -1.61539E+06    -19.5177E-03     34.7295E-03    -15.2118E-03     142.498E-03    -20.8159E-03     36.2642E-03    -15.3694E-03     142.874E-03
             823     16.8426E-03     84.5191E-03    -523.327E+03     126.250E+06     21.1683E+06    -448.487E+03    -19.7727E-03     35.0567E-03    -15.2840E-03     166.339E-03    -22.4263E-03     38.0952E-03    -15.3604E-03     168.381E-03
             824     886.144E-06     84.7222E-03    -13.9422E+06    -47.6651E+06    -14.7281E+06    -496.474E+03    -15.5087E-03     31.0201E-03    -15.5114E-03     3.51933E-03    -15.4878E-03     30.8240E-03    -15.4957E-03     3.51242E-03
             825     1.77235E-03     84.7267E-03    -13.5525E+06    -41.6896E+06    -13.4930E+06    -1.52142E+06    -15.4898E-03     30.9876E-03    -15.4978E-03     6.54195E-03    -15.4776E-03     30.8184E-03    -15.4851E-03     6.52143E-03
             826     2.65851E-03     84.7343E-03    -12.7983E+06    -40.5954E+06    -10.4890E+06    -2.77701E+06    -15.4813E-03     30.9817E-03    -15.5004E-03     9.84858E-03    -15.4713E-03     30.8126E-03    -15.4754E-03     9.81138E-03
             827     3.54475E-03     84.7449E-03    -11.5805E+06    -40.0810E+06    -7.48679E+06    -3.46718E+06    -15.4749E-03     30.9771E-03    -15.5021E-03     13.2718E-03    -15.4642E-03     30.8046E-03    -15.4647E-03     13.2251E-03
             828     4.43099E-03     84.7588E-03    -9.99573E+06    -39.2922E+06    -4.66658E+06    -3.45124E+06    -15.4833E-03     30.9846E-03    -15.5013E-03     16.8454E-03    -15.4701E-03     30.8100E-03    -15.4532E-03     16.7984E-03
             829     5.31727E-03     84.7760E-03    -7.99393E+06    -40.2892E+06    -1.42676E+06    -3.63099E+06    -15.5139E-03     31.0194E-03    -15.5055E-03     20.5804E-03    -15.4942E-03     30.8325E-03    -15.4427E-03     20.5303E-03
             830     6.20350E-03     84.7969E-03    -6.41072E+06    -40.6703E+06     1.03727E+06    -3.86663E+06    -15.5458E-03     31.0524E-03    -15.5065E-03     24.4979E-03    -15.5217E-03     30.8581E-03    -15.4331E-03     24.4439E-03
             831     7.08980E-03     84.8213E-03    -5.26248E+06    -40.3674E+06     1.63900E+06    -4.73401E+06    -15.5726E-03     31.0697E-03    -15.4971E-03     28.6202E-03    -15.5447E-03     30.8751E-03    -15.4227E-03     28.5538E-03
             832     7.97616E-03     84.8497E-03    -4.28814E+06    -41.5811E+06     2.14054E+06    -6.07458E+06    -15.6239E-03     31.1128E-03    -15.4889E-03     32.8813E-03    -15.5911E-03     30.9109E-03    -15.4116E-03     32.7961E-03
             833     8.86244E-03     84.8821E-03    -3.91360E+06    -41.2854E+06     3.48478E+06    -5.98057E+06    -15.6970E-03     31.1815E-03    -15.4845E-03     37.1974E-03    -15.6663E-03     30.9802E-03    -15.4016E-03     37.1111E-03
             834     9.74877E-03     84.9185E-03    -3.37209E+06    -43.1065E+06     3.26954E+06    -5.82846E+06    -15.7795E-03     31.2560E-03    -15.4765E-03     41.5497E-03    -15.7457E-03     31.0478E-03    -15.3928E-03     41.4624E-03
             835     10.6351E-03     84.9588E-03    -2.72968E+06    -42.7095E+06     494.939E+03    -6.24235E+06    -15.8677E-03     31.3208E-03    -15.4531E-03     45.8376E-03    -15.8313E-03     31.1216E-03    -15.3847E-03     45.7409E-03
             836     11.5216E-03     85.0031E-03    -2.52331E+06    -36.7285E+06     1.46189E+06    -6.79953E+06    -15.9660E-03     31.4079E-03    -15.4419E-03     50.2252E-03    -15.9450E-03     31.2433E-03    -15.3776E-03     50.1161E-03
             837     12.4078E-03     85.0515E-03    -2.95997E+06    -40.8299E+06    -2.33952E+06    -6.55932E+06    -16.1794E-03     31.6037E-03    -15.4243E-03     57.1130E-03    -16.1616E-03     31.4373E-03    -15.3725E-03     57.0000E-03
             838     13.2942E-03     85.1088E-03    -3.42170E+06    -42.6108E+06    -13.1053E+06    -5.73041E+06    -16.3435E-03     31.7143E-03    -15.3708E-03     62.0352E-03    -16.3297E-03     31.5751E-03    -15.3696E-03     61.9250E-03
             839     14.1803E-03     85.1662E-03    -3.53650E+06    -20.4797E+06    -11.4197E+06    -5.72402E+06    -16.3879E-03     31.7330E-03    -15.3451E-03     65.6585E-03    -16.4392E-03     31.7321E-03    -15.3674E-03     65.5451E-03
             840     15.0674E-03     85.2305E-03    -3.37830E+06     10.2167E+06    -10.9093E+06    -5.19479E+06    -17.3885E-03     32.6899E-03    -15.3013E-03     91.4502E-03    -17.6408E-03     32.9981E-03    -15.3658E-03     91.3633E-03
             841     15.9532E-03     85.3360E-03    -3.89116E+06     52.0183E+06    -17.6610E+06    -2.97387E+06    -19.5315E-03     34.7380E-03    -15.2065E-03     142.555E-03    -20.8387E-03     36.2672E-03    -15.3646E-03     142.914E-03
             842     16.8359E-03     85.4962E-03    -3.04403E+06     124.752E+06     17.8409E+06    -803.164E+03    -19.7416E-03     35.0099E-03    -15.2683E-03     166.415E-03    -22.3984E-03     38.0470E-03    -15.3555E-03     168.449E-03
             843     886.150E-06     85.7001E-03    -10.0301E+06    -45.8505E+06    -10.9213E+06    -1.26771E+06    -15.5130E-03     31.0470E-03    -15.5340E-03     3.46807E-03    -15.4808E-03     30.8487E-03    -15.5075E-03     3.45123E-03
             844     1.77233E-03     85.7047E-03    -10.5619E+06    -39.8480E+06    -11.6481E+06    -1.84697E+06    -15.4764E-03     30.9737E-03    -15.4973E-03     6.54360E-03    -15.4545E-03     30.8067E-03    -15.4825E-03     6.51887E-03
             845     2.65857E-03     85.7122E-03    -10.7781E+06    -38.3211E+06    -9.12518E+06    -2.59851E+06    -15.4726E-03     30.9650E-03    -15.4924E-03     9.84215E-03    -15.4578E-03     30.8024E-03    -15.4668E-03     9.80727E-03
             846     3.54478E-03     85.7229E-03    -10.3480E+06    -38.6074E+06    -5.96221E+06    -3.49138E+06    -15.4743E-03     30.9715E-03    -15.4972E-03     13.2570E-03    -15.4617E-03     30.8024E-03    -15.4560E-03     13.2101E-03
             847     4.43103E-03     85.7366E-03    -9.05344E+06    -38.1956E+06    -3.81781E+06    -4.19010E+06    -15.4754E-03     30.9700E-03    -15.4946E-03     16.8343E-03    -15.4603E-03     30.7983E-03    -15.4452E-03     16.7777E-03
             848     5.31728E-03     85.7540E-03     -7.3534E+06    -39.1214E+06    -1.82128E+06    -4.64191E+06    -15.4900E-03     30.9814E-03    -15.4914E-03     20.5903E-03    -15.4682E-03     30.8000E-03    -15.4332E-03     20.5272E-03
             849     6.20358E-03     85.7747E-03    -5.34238E+06    -40.1403E+06     674.484E+03    -4.62620E+06    -15.5230E-03     31.0134E-03    -15.4904E-03     24.5117E-03    -15.4938E-03     30.8207E-03    -15.4211E-03     24.4479E-03
             850     7.08990E-03     85.7992E-03    -3.47311E+06    -37.9974E+06     3.25098E+06    -5.23377E+06    -15.5697E-03     31.0561E-03    -15.4864E-03     28.6203E-03    -15.5387E-03     30.8684E-03    -15.4100E-03     28.5475E-03
             851     7.97617E-03     85.8275E-03    -2.77363E+06    -40.6528E+06     4.06587E+06    -5.58647E+06    -15.6249E-03     31.1081E-03    -15.4832E-03     32.8560E-03    -15.5887E-03     30.9059E-03    -15.3999E-03     32.7771E-03
             852     8.86254E-03     85.8598E-03    -2.45495E+06    -40.9612E+06     4.21600E+06    -5.53494E+06    -15.6731E-03     31.1466E-03    -15.4735E-03     37.2051E-03    -15.6367E-03     30.9438E-03    -15.3894E-03     37.1247E-03
             853     9.74892E-03     85.8962E-03    -1.98837E+06    -42.0250E+06     4.32056E+06    -5.84675E+06    -15.7604E-03     31.2252E-03    -15.4648E-03     41.5373E-03    -15.7228E-03     31.0188E-03    -15.3794E-03     41.4498E-03
             854     10.6353E-03     85.9365E-03    -1.65858E+06    -41.6899E+06     1.49816E+06    -6.26157E+06    -15.8782E-03     31.3203E-03    -15.4421E-03     45.8023E-03    -15.8393E-03     31.1232E-03    -15.3718E-03     45.7053E-03
             855     11.5215E-03     85.9808E-03    -1.41434E+06    -35.6968E+06     2.70138E+06    -6.50829E+06    -15.9789E-03     31.4127E-03    -15.4338E-03     50.1948E-03    -15.9557E-03     31.2499E-03    -15.3665E-03     50.0893E-03
             856     12.4079E-03     86.0294E-03     -975.23E+03    -41.1905E+06    -949.585E+03    -6.32115E+06    -16.1904E-03     31.6095E-03    -15.4192E-03     57.0460E-03    -16.1642E-03     31.4364E-03    -15.3628E-03     56.9360E-03
             857     13.2942E-03     86.0863E-03    -910.553E+03    -42.5842E+06    -12.6268E+06    -5.99504E+06    -16.3923E-03     31.7541E-03    -15.3618E-03     62.0406E-03    -16.3669E-03     31.6108E-03    -15.3618E-03     61.9269E-03
             858     14.1806E-03     86.1444E-03    -1.70061E+06    -20.2074E+06    -10.7912E+06    -5.57737E+06    -16.4656E-03     31.8069E-03    -15.3413E-03     65.6118E-03    -16.5093E-03     31.8041E-03    -15.3635E-03     65.4998E-03
             859     15.0661E-03     86.2078E-03    -2.95374E+06     9.88110E+06    -10.7008E+06    -5.10276E+06    -17.4045E-03     32.7057E-03    -15.3012E-03     91.3685E-03    -17.6546E-03     33.0115E-03    -15.3648E-03     91.2827E-03
             860     15.9528E-03     86.3144E-03    -2.64520E+06     48.7567E+06    -18.9903E+06    -3.82770E+06    -19.4644E-03     34.6649E-03    -15.2005E-03     142.413E-03    -20.7596E-03     36.1788E-03    -15.3623E-03     142.761E-03
             861     16.8429E-03     86.4747E-03    -1.97867E+06     122.357E+06     19.6242E+06    -1.43690E+06    -19.8362E-03     35.1142E-03    -15.2779E-03     166.223E-03    -22.4878E-03     38.1362E-03    -15.3544E-03     168.241E-03
             862     886.137E-06     86.6782E-03    -7.32521E+06    -43.0170E+06    -7.89208E+06    -1.54248E+06    -15.5021E-03     31.0337E-03    -15.5316E-03     3.40125E-03    -15.4648E-03     30.8413E-03    -15.4981E-03     3.38091E-03
             863     1.77237E-03     86.6826E-03    -7.54047E+06    -38.6000E+06    -7.50390E+06    -1.95694E+06    -15.4737E-03     30.9735E-03    -15.4997E-03     6.52986E-03    -15.4446E-03     30.8024E-03    -15.4703E-03     6.50371E-03
             864     2.65859E-03     86.6902E-03    -7.39960E+06    -36.6992E+06    -5.75685E+06    -2.06377E+06    -15.4640E-03     30.9535E-03    -15.4895E-03     9.82104E-03    -15.4396E-03     30.7892E-03    -15.4543E-03     9.79306E-03
             865     3.54482E-03     86.7007E-03    -7.15988E+06    -36.5473E+06    -3.38605E+06    -2.98344E+06    -15.4673E-03     30.9561E-03    -15.4887E-03     13.2539E-03    -15.4455E-03     30.7889E-03    -15.4423E-03     13.2135E-03
             866     4.43105E-03     86.7146E-03    -6.81733E+06    -36.3211E+06    -2.29904E+06    -4.17180E+06    -15.4660E-03     30.9480E-03    -15.4820E-03     16.8396E-03    -15.4446E-03     30.7802E-03    -15.4310E-03     16.7832E-03
             867     5.31737E-03     86.7317E-03    -6.53303E+06    -38.0184E+06    -1.96690E+06    -4.77075E+06    -15.4697E-03     30.9425E-03    -15.4729E-03     20.5948E-03    -15.4452E-03     30.7656E-03    -15.4181E-03     20.5301E-03
             868     6.20370E-03     86.7525E-03    -6.01082E+06    -38.8529E+06    -826.714E+03    -5.45340E+06    -15.5004E-03     30.9664E-03    -15.4660E-03     24.5352E-03    -15.4742E-03     30.7833E-03    -15.4051E-03     24.4608E-03
             869     7.09000E-03     86.7769E-03    -5.10948E+06    -36.8092E+06     1.55502E+06    -5.71779E+06    -15.5416E-03     31.0037E-03    -15.4620E-03     28.6598E-03    -15.5180E-03     30.8267E-03    -15.3935E-03     28.5808E-03
             870     7.97636E-03     86.8053E-03    -4.02189E+06      -40.33E+06     3.66084E+06    -5.39324E+06    -15.6018E-03     31.0675E-03    -15.4656E-03     32.8781E-03    -15.5717E-03     30.8693E-03    -15.3830E-03     32.8017E-03
             871     8.86268E-03     86.8375E-03    -3.19964E+06    -40.0132E+06     3.66847E+06    -5.44375E+06    -15.6606E-03     31.1146E-03    -15.4539E-03     37.2353E-03    -15.6284E-03     30.9183E-03    -15.3729E-03     37.1561E-03
             872     9.74907E-03     86.8739E-03    -2.46799E+06    -40.9049E+06     3.77108E+06    -5.90245E+06    -15.7537E-03     31.1992E-03    -15.4455E-03     41.5855E-03    -15.7193E-03     30.9999E-03    -15.3638E-03     41.4972E-03
             873     10.6353E-03     86.9142E-03    -1.80328E+06    -40.6378E+06     544.607E+03    -6.40599E+06    -15.8761E-03     31.2975E-03    -15.4214E-03     45.9002E-03    -15.8381E-03     31.1073E-03    -15.3571E-03     45.8014E-03
             874     11.5217E-03     86.9587E-03    -1.25840E+06    -35.0037E+06     1.63522E+06    -6.71517E+06    -15.9687E-03     31.3818E-03    -15.4130E-03     50.3430E-03    -15.9442E-03     31.2237E-03    -15.3523E-03     50.2350E-03
             875     12.4081E-03     87.0070E-03    -618.965E+03    -40.7154E+06    -1.07258E+06    -6.98940E+06    -16.1895E-03     31.5928E-03    -15.4034E-03     57.1858E-03    -16.1620E-03     31.4218E-03    -15.3488E-03     57.0672E-03
             876     13.2944E-03     87.0642E-03    -105.533E+03    -42.7344E+06    -12.4914E+06    -6.80186E+06    -16.4618E-03     31.8119E-03    -15.3501E-03     62.3310E-03    -16.4324E-03     31.6666E-03    -15.3504E-03     62.2068E-03
             877     14.1803E-03     87.1220E-03     289.336E+03    -21.2215E+06    -10.2692E+06    -5.53152E+06    -16.5408E-03     31.8761E-03    -15.3354E-03     65.8244E-03    -16.5739E-03     31.8647E-03    -15.3563E-03     65.7129E-03
             878     15.0672E-03     87.1862E-03     374.006E+03     9.68865E+06    -8.88282E+06    -4.46130E+06    -17.3193E-03     32.6168E-03    -15.2975E-03     91.6436E-03    -17.5541E-03     32.9130E-03    -15.3565E-03     91.5668E-03
             879     15.9532E-03     87.2918E-03    -1.37344E+06     47.4924E+06    -17.2265E+06    -3.71892E+06    -19.7138E-03     34.9174E-03    -15.2036E-03     142.951E-03    -21.0072E-03     36.4245E-03    -15.3566E-03     143.298E-03
             880     16.8360E-03     87.4516E-03    -2.23832E+06     119.785E+06     17.4470E+06    -1.57313E+06    -20.0050E-03     35.2807E-03    -15.2758E-03     166.058E-03    -22.6506E-03     38.2931E-03    -15.3590E-03     168.077E-03
             881     886.210E-06     87.6560E-03    -10.9700E+06    -40.1185E+06    -10.5861E+06    -1.84271E+06    -15.4682E-03     30.9332E-03    -15.4649E-03     3.38774E-03    -15.4495E-03     30.7645E-03    -15.4438E-03     3.36356E-03
             882     1.77239E-03     87.6606E-03    -10.1940E+06    -37.2828E+06    -8.13304E+06    -1.96130E+06    -15.4581E-03     30.9285E-03    -15.4704E-03     6.54978E-03    -15.4432E-03     30.7687E-03    -15.4422E-03     6.52359E-03
             883     2.65862E-03     87.6680E-03    -8.70181E+06    -35.5197E+06    -5.74875E+06    -2.41916E+06    -15.4382E-03     30.9070E-03    -15.4688E-03     9.82811E-03    -15.4220E-03     30.7505E-03    -15.4334E-03     9.79553E-03
             884     3.54491E-03     87.6787E-03    -6.74720E+06    -34.1671E+06    -3.87262E+06    -3.29186E+06    -15.4310E-03     30.8912E-03    -15.4602E-03     13.2777E-03    -15.4099E-03     30.7360E-03    -15.4202E-03     13.2333E-03
             885     4.43121E-03     87.6924E-03    -5.38624E+06    -34.7732E+06    -1.56046E+06    -4.01133E+06    -15.4478E-03     30.9056E-03    -15.4578E-03     16.8360E-03    -15.4226E-03     30.7423E-03    -15.4074E-03     16.7818E-03
             886     5.31749E-03     87.7095E-03    -4.43493E+06    -36.5848E+06     170.731E+03    -4.48251E+06    -15.4695E-03     30.9258E-03    -15.4564E-03     20.5826E-03    -15.4397E-03     30.7499E-03    -15.3960E-03     20.5215E-03
             887     6.20379E-03     87.7302E-03    -3.65713E+06    -36.8401E+06     913.446E+03    -5.39998E+06    -15.4833E-03     30.9308E-03    -15.4475E-03     24.5437E-03    -15.4508E-03     30.7519E-03    -15.3842E-03     24.4700E-03
             888     7.09016E-03     87.7547E-03    -3.18001E+06    -36.5950E+06     2.01716E+06    -5.58900E+06    -15.5084E-03     30.9473E-03    -15.4389E-03     28.6872E-03    -15.4761E-03     30.7680E-03    -15.3711E-03     28.6099E-03
             889     7.97653E-03     87.7829E-03    -2.92470E+06    -39.9189E+06     4.04934E+06    -5.17002E+06    -15.5796E-03     31.0212E-03    -15.4416E-03     32.9130E-03    -15.5451E-03     30.8229E-03    -15.3593E-03     32.8395E-03
             890     8.86289E-03     87.8153E-03    -2.30749E+06    -38.7663E+06     4.81741E+06    -5.49709E+06    -15.6522E-03     31.0854E-03    -15.4333E-03     37.2842E-03    -15.6190E-03     30.8925E-03    -15.3496E-03     37.2044E-03
             891     9.74923E-03     87.8515E-03    -1.34487E+06    -39.6543E+06     4.69442E+06    -6.23432E+06    -15.7291E-03     31.1528E-03    -15.4237E-03     41.7022E-03    -15.6922E-03     30.9567E-03    -15.3408E-03     41.6098E-03
             892     10.6357E-03     87.8920E-03    -655.463E+03    -39.6688E+06     1.67273E+06    -6.64535E+06    -15.8442E-03     31.2443E-03    -15.4001E-03     46.0569E-03    -15.8034E-03     31.0555E-03    -15.3333E-03     45.9551E-03
             893     11.5220E-03     87.9362E-03    -282.471E+03    -34.1943E+06     2.96193E+06    -6.90035E+06    -15.9589E-03     31.3519E-03    -15.3930E-03     50.4821E-03    -15.9325E-03     31.1945E-03    -15.3282E-03     50.3718E-03
             894     12.4083E-03     87.9849E-03    -327.604E+03    -39.8307E+06     334.223E+03    -7.16334E+06    -16.2072E-03     31.5935E-03    -15.3863E-03     57.2931E-03    -16.1816E-03     31.4244E-03    -15.3264E-03     57.1723E-03
             895     13.2947E-03     88.0417E-03    -831.214E+03    -42.4563E+06    -12.0714E+06    -7.47512E+06    -16.4369E-03     31.7685E-03    -15.3316E-03     62.5937E-03    -16.4121E-03     31.6250E-03    -15.3292E-03     62.4610E-03
             896     14.1808E-03     88.1006E-03    -688.673E+03    -22.4913E+06    -10.4866E+06    -6.99287E+06    -16.5428E-03     31.8593E-03    -15.3165E-03     66.1456E-03    -16.5786E-03     31.8432E-03    -15.3354E-03     66.0153E-03
             897     15.0667E-03     88.1632E-03     52.7967E+03     8.30266E+06    -8.66083E+06    -5.14692E+06    -17.4008E-03     32.6849E-03    -15.2841E-03     91.2991E-03    -17.6358E-03     32.9747E-03    -15.3395E-03     91.2128E-03
             898     15.9539E-03     88.2697E-03    -1.53820E+06     45.3666E+06    -16.9942E+06    -2.00807E+06    -19.5770E-03     34.7661E-03    -15.1891E-03     143.719E-03    -20.8672E-03     36.2612E-03    -15.3376E-03     144.090E-03
             899     16.8416E-03     88.4329E-03    -1.79119E+06     118.094E+06     15.2759E+06    -707.683E+03    -19.9171E-03     35.1551E-03    -15.2381E-03     166.966E-03    -22.5541E-03     38.1608E-03    -15.3303E-03     169.006E-03
             900     886.262E-06     88.6339E-03    -11.8035E+06    -37.3943E+06    -10.6223E+06    -1.52740E+06    -15.4271E-03     30.8291E-03    -15.4020E-03     3.43347E-03    -15.4164E-03     30.6753E-03    -15.3838E-03     3.41338E-03
             901     1.77250E-03     88.6384E-03    -10.5757E+06    -35.6182E+06    -8.30924E+06    -2.19844E+06    -15.4271E-03     30.8521E-03    -15.4250E-03     6.55311E-03    -15.4163E-03     30.7015E-03    -15.3996E-03     6.52387E-03
             902     2.65874E-03     88.6459E-03    -8.66800E+06    -33.0161E+06    -5.86122E+06    -3.60856E+06    -15.4166E-03     30.8454E-03    -15.4287E-03     9.85632E-03    -15.4037E-03     30.7015E-03    -15.3976E-03     9.80839E-03
             903     3.54500E-03     88.6564E-03    -6.73257E+06    -32.4985E+06    -3.64557E+06    -4.47654E+06    -15.4111E-03     30.8389E-03    -15.4277E-03     13.2816E-03    -15.3927E-03     30.6917E-03    -15.3891E-03     13.2220E-03
             904     4.43132E-03     88.6702E-03    -5.20502E+06    -33.7317E+06    -1.10457E+06    -4.36466E+06    -15.4162E-03     30.8450E-03    -15.4288E-03     16.8413E-03    -15.3922E-03     30.6860E-03    -15.3779E-03     16.7825E-03
             905     5.31763E-03     88.6873E-03    -3.92870E+06    -34.8578E+06     975.990E+03    -4.81929E+06    -15.4357E-03     30.8631E-03    -15.4273E-03     20.6063E-03    -15.4071E-03     30.6939E-03    -15.3662E-03     20.5410E-03
             906     6.20398E-03     88.7080E-03    -3.10134E+06    -35.3474E+06     1.56308E+06    -5.26506E+06    -15.4492E-03     30.8666E-03    -15.4174E-03     24.5751E-03    -15.4170E-03     30.6934E-03    -15.3539E-03     24.5032E-03
             907     7.09037E-03     88.7323E-03    -2.81877E+06    -36.3106E+06     2.36476E+06    -5.14043E+06    -15.4777E-03     30.8867E-03    -15.4090E-03     28.7292E-03    -15.4445E-03     30.7077E-03    -15.3404E-03     28.6578E-03
             908     7.97678E-03     88.7607E-03    -2.00456E+06    -39.2475E+06     4.37339E+06    -5.19579E+06    -15.5390E-03     30.9484E-03    -15.4094E-03     32.9976E-03    -15.5014E-03     30.7516E-03    -15.3277E-03     32.9239E-03
             909     8.86315E-03     88.7928E-03    -929.678E+03    -37.3932E+06     5.95396E+06    -5.65718E+06    -15.6044E-03     31.0060E-03    -15.4017E-03     37.3927E-03    -15.5679E-03     30.8162E-03    -15.3163E-03     37.3109E-03
             910     9.74961E-03     88.8293E-03    -410.158E+03    -38.3268E+06     6.22447E+06    -6.24874E+06    -15.6900E-03     31.0835E-03    -15.3935E-03     41.8135E-03    -15.6525E-03     30.8904E-03    -15.3062E-03     41.7210E-03
             911     10.6360E-03     88.8695E-03        -178.563    -38.6029E+06     2.85917E+06    -6.87967E+06    -15.8162E-03     31.1849E-03    -15.3687E-03     46.2174E-03    -15.7754E-03     30.9987E-03    -15.2984E-03     46.1128E-03
             912     11.5224E-03     88.9141E-03     504.424E+03    -33.6070E+06     3.94890E+06    -7.02103E+06    -15.9518E-03     31.3138E-03    -15.3620E-03     50.6637E-03    -15.9238E-03     31.1568E-03    -15.2942E-03     50.5519E-03
             913     12.4088E-03     88.9624E-03     1.01450E+06    -38.9602E+06     1.59505E+06    -7.06741E+06    -16.2531E-03     31.6117E-03    -15.3586E-03     57.5225E-03    -16.2240E-03     31.4433E-03    -15.2956E-03     57.4029E-03
             914     13.2948E-03     89.0199E-03     404.816E+03    -41.7969E+06    -10.6558E+06    -7.09934E+06    -16.4543E-03     31.7632E-03    -15.3089E-03     62.6041E-03    -16.4264E-03     31.6192E-03    -15.3022E-03     62.4761E-03
             915     14.1814E-03     89.0776E-03    -1.30237E+06    -22.3314E+06    -9.80349E+06    -7.16158E+06    -16.4920E-03     31.7862E-03    -15.2942E-03     66.2455E-03    -16.5319E-03     31.7706E-03    -15.3089E-03     66.1133E-03
             916     15.0677E-03     89.1424E-03    -2.04266E+06     6.66462E+06    -9.28947E+06    -6.48500E+06    -17.9913E-03     33.2681E-03    -15.2769E-03     91.5546E-03    -18.2384E-03     33.5586E-03    -15.3300E-03     91.4474E-03
             917     15.9526E-03     89.2465E-03    -579.293E+03     42.0701E+06    -16.3324E+06    -2.94501E+06    -19.6725E-03     34.8838E-03    -15.2113E-03     141.378E-03    -20.9372E-03     36.3432E-03    -15.3531E-03     141.738E-03
             918     16.8400E-03     89.4088E-03     293.402E+03     116.293E+06     14.4369E+06     304.462E+03    -19.2000E-03     34.4409E-03    -15.2409E-03     164.944E-03    -21.7947E-03     37.4076E-03    -15.3378E-03     166.998E-03
             919     886.300E-06     89.6117E-03    -7.46481E+06    -34.8228E+06    -7.10886E+06    -1.08414E+06    -15.4075E-03     30.7792E-03    -15.3718E-03     3.50027E-03    -15.3839E-03     30.6269E-03    -15.3460E-03     3.48586E-03
             920     1.77255E-03     89.6162E-03    -6.75185E+06    -32.8461E+06    -6.50671E+06    -2.85919E+06    -15.3896E-03     30.7760E-03    -15.3864E-03     6.50201E-03    -15.3663E-03     30.6311E-03    -15.3615E-03     6.46426E-03
             921     2.65888E-03     89.6236E-03    -6.28127E+06    -29.9593E+06    -5.18864E+06    -4.18617E+06    -15.3784E-03     30.7611E-03    -15.3827E-03     9.85703E-03    -15.3590E-03     30.6281E-03    -15.3561E-03     9.80167E-03
             922     3.54515E-03     89.6342E-03    -6.06436E+06    -31.2074E+06    -2.36460E+06    -4.61510E+06    -15.3817E-03     30.7724E-03    -15.3907E-03     13.2859E-03    -15.3636E-03     30.6289E-03    -15.3485E-03     13.2245E-03
             923     4.43146E-03     89.6478E-03    -5.20487E+06    -32.6349E+06    -744.842E+03    -4.81834E+06    -15.3734E-03     30.7631E-03    -15.3897E-03     16.8851E-03    -15.3515E-03     30.6090E-03    -15.3385E-03     16.8205E-03
             924     5.31786E-03     89.6650E-03    -3.93509E+06    -32.9714E+06     651.134E+03    -5.36787E+06    -15.3765E-03     30.7587E-03    -15.3821E-03     20.6500E-03    -15.3502E-03     30.5994E-03    -15.3254E-03     20.5776E-03
             925     6.20426E-03     89.6855E-03    -2.88700E+06    -35.1702E+06     2.61715E+06    -5.14885E+06    -15.4078E-03     30.7877E-03    -15.3800E-03     24.6045E-03    -15.3762E-03     30.6135E-03    -15.3117E-03     24.5342E-03
             926     7.09066E-03     89.7100E-03    -2.03442E+06    -35.3687E+06     3.68569E+06    -4.92286E+06    -15.4322E-03     30.8029E-03    -15.3707E-03     28.7834E-03    -15.3983E-03     30.6255E-03    -15.2981E-03     28.7149E-03
             927     7.97709E-03     89.7382E-03    -1.32073E+06    -38.0799E+06     4.64928E+06    -5.55917E+06    -15.4670E-03     30.8307E-03    -15.3637E-03     33.1093E-03    -15.4280E-03     30.6383E-03    -15.2833E-03     33.0311E-03
             928     8.86361E-03     89.7705E-03    -781.048E+03    -36.7267E+06     5.59880E+06    -5.58146E+06    -15.5313E-03     30.8825E-03    -15.3512E-03     37.5471E-03    -15.4944E-03     30.6962E-03    -15.2688E-03     37.4664E-03
             929     9.75006E-03     89.8067E-03    -331.786E+03    -36.6981E+06     6.46226E+06    -5.96917E+06    -15.6443E-03     30.9876E-03    -15.3433E-03     41.9905E-03    -15.6090E-03     30.8021E-03    -15.2573E-03     41.9018E-03
             930     10.6365E-03     89.8472E-03    -257.040E+03    -37.4046E+06     2.88926E+06    -6.77348E+06    -15.7834E-03     31.1026E-03    -15.3192E-03     46.4353E-03    -15.7455E-03     30.9227E-03    -15.2502E-03     46.3322E-03
             931     11.5230E-03     89.8915E-03    -214.578E+03    -32.8530E+06     3.49255E+06    -7.22775E+06    -15.9404E-03     31.2535E-03    -15.3132E-03     50.9473E-03    -15.9163E-03     31.1019E-03    -15.2477E-03     50.8331E-03
             932     12.4092E-03     89.9404E-03     38.9770E+03    -38.3261E+06     1.46223E+06    -7.40322E+06    -16.2829E-03     31.5986E-03    -15.3157E-03     57.8531E-03    -16.2595E-03     31.4350E-03    -15.2528E-03     57.7292E-03
             933     13.2955E-03     89.9975E-03     17.7978E+03    -41.7205E+06    -10.1768E+06    -6.91184E+06    -16.6149E-03     31.8927E-03    -15.2777E-03     62.8024E-03    -16.5901E-03     31.7493E-03    -15.2682E-03     62.6764E-03
             934     14.1812E-03     90.0557E-03    -580.020E+03    -21.8462E+06    -8.57247E+06    -6.45482E+06    -16.7796E-03     32.0602E-03    -15.2806E-03     66.1553E-03    -16.8193E-03     32.0452E-03    -15.2909E-03     66.0311E-03
             935     15.0678E-03     90.1195E-03    -1.74974E+06     6.13550E+06    -8.05164E+06    -6.33629E+06    -18.0288E-03     33.3034E-03    -15.2746E-03     92.5362E-03    -18.2766E-03     33.5901E-03    -15.3212E-03     92.4312E-03
             936     15.9518E-03     90.2291E-03    -2.66828E+06     36.5428E+06    -16.9852E+06    -4.52309E+06    -19.7725E-03     34.9848E-03    -15.2123E-03     142.137E-03    -21.0496E-03     36.4314E-03    -15.3464E-03     142.479E-03
             937     16.8374E-03     90.3813E-03    -1.73565E+06     113.450E+06     5.38724E+06    -531.096E+03    -19.3151E-03     34.5124E-03    -15.1973E-03     167.480E-03    -21.9621E-03     37.5404E-03    -15.3324E-03     169.550E-03
             938     886.269E-06     90.5896E-03    -6.83823E+06    -32.0560E+06    -7.78115E+06    -1.33648E+06    -15.3708E-03     30.6746E-03    -15.3038E-03     3.58812E-03    -15.3471E-03     30.5362E-03    -15.2863E-03     3.57047E-03
             939     1.77262E-03     90.5939E-03    -7.52523E+06    -29.2038E+06    -8.12881E+06    -3.04777E+06    -15.3365E-03     30.6627E-03    -15.3262E-03     6.54484E-03    -15.3200E-03     30.5394E-03    -15.3136E-03     6.50467E-03
             940     2.65893E-03     90.6014E-03    -7.85054E+06    -28.0066E+06    -5.91997E+06    -3.73902E+06    -15.3134E-03     30.6432E-03    -15.3298E-03     9.87185E-03    -15.3036E-03     30.5232E-03    -15.3074E-03     9.82231E-03
             941     3.54536E-03     90.6118E-03    -7.13296E+06    -29.2783E+06    -2.68926E+06    -4.38758E+06    -15.3062E-03     30.6421E-03    -15.3360E-03     13.3006E-03    -15.2958E-03     30.5103E-03    -15.2966E-03     13.2421E-03
             942     4.43173E-03     90.6256E-03    -5.71534E+06    -30.8786E+06    -444.103E+03    -5.38732E+06    -15.3141E-03     30.6497E-03    -15.3355E-03     16.9028E-03    -15.2978E-03     30.5047E-03    -15.2847E-03     16.8309E-03
             943     5.31814E-03     90.6425E-03    -4.66844E+06    -31.9458E+06     790.394E+03    -5.42647E+06    -15.3166E-03     30.6450E-03    -15.3285E-03     20.6866E-03    -15.2955E-03     30.4917E-03    -15.2714E-03     20.6136E-03
             944     6.20457E-03     90.6632E-03    -3.75751E+06    -34.6099E+06     2.15296E+06    -5.41659E+06    -15.3312E-03     30.6540E-03    -15.3228E-03     24.6740E-03    -15.3041E-03     30.4845E-03    -15.2564E-03     24.6003E-03
             945     7.09105E-03     90.6874E-03    -2.25927E+06    -34.5289E+06     3.20074E+06    -5.55736E+06    -15.3411E-03     30.6500E-03    -15.3089E-03     28.8780E-03    -15.3088E-03     30.4778E-03    -15.2395E-03     28.8015E-03
             946     7.97762E-03     90.7158E-03    -1.21253E+06    -36.9935E+06     4.59033E+06    -5.40437E+06    -15.3788E-03     30.6784E-03    -15.2996E-03     33.2360E-03    -15.3407E-03     30.4913E-03    -15.2212E-03     33.1599E-03
             947     8.86414E-03     90.7478E-03    -557.082E+03    -36.1903E+06     5.58088E+06    -5.61557E+06    -15.4498E-03     30.7352E-03    -15.2853E-03     37.7332E-03    -15.4126E-03     30.5513E-03    -15.2042E-03     37.6524E-03
             948     9.75073E-03     90.7844E-03     198.855E+03    -35.3228E+06     6.76268E+06    -5.87482E+06    -15.5730E-03     30.8489E-03    -15.2759E-03     42.2348E-03    -15.5374E-03     30.6690E-03    -15.1911E-03     42.1476E-03
             949     10.6372E-03     90.8245E-03     506.985E+03    -36.1932E+06     4.45991E+06    -6.27319E+06    -15.7504E-03     31.0091E-03    -15.2587E-03     46.6882E-03    -15.7127E-03     30.8317E-03    -15.1846E-03     46.5918E-03
             950     11.5236E-03     90.8693E-03     154.282E+03    -31.8627E+06     4.67897E+06    -6.66281E+06    -15.9349E-03     31.1895E-03    -15.2546E-03     51.2840E-03    -15.9121E-03     31.0406E-03    -15.1852E-03     51.1772E-03
             951     12.4101E-03     90.9179E-03    -523.998E+03    -37.4882E+06     2.02559E+06    -7.05229E+06    -16.2900E-03     31.5495E-03    -15.2595E-03     58.2751E-03    -16.2714E-03     31.3901E-03    -15.1943E-03     58.1559E-03
             952     13.2960E-03     90.9757E-03    -975.787E+03    -41.8026E+06    -10.5421E+06    -7.25700E+06    -16.7190E-03     31.9447E-03    -15.2257E-03     63.4167E-03    -16.6988E-03     31.8032E-03    -15.2164E-03     63.2862E-03
             953     14.1821E-03     91.0337E-03    -801.314E+03    -21.9265E+06    -8.74312E+06    -6.72070E+06    -17.0419E-03     32.2833E-03    -15.2414E-03     67.2498E-03    -17.0843E-03     32.2703E-03    -15.2521E-03     67.1212E-03
             954     15.0665E-03     91.0988E-03    -911.807E+03     5.03699E+06    -6.99958E+06    -5.16436E+06    -17.4535E-03     32.6867E-03    -15.2332E-03     93.3330E-03    -17.6938E-03     32.9619E-03    -15.2742E-03     93.2482E-03
             955     15.9560E-03     91.2047E-03    -1.48067E+06     32.5250E+06    -17.2690E+06    -3.90185E+06    -19.2681E-03     34.4064E-03    -15.1383E-03     142.515E-03    -20.5292E-03     35.8277E-03    -15.2696E-03     142.870E-03
             956     16.8436E-03     91.3624E-03    -2.25400E+06     111.345E+06     9.81746E+06    -2.03930E+06    -20.1206E-03     35.2794E-03    -15.1588E-03     166.187E-03    -22.7501E-03     38.2678E-03    -15.2679E-03     168.194E-03
             957     886.452E-06     91.5670E-03    -9.92541E+06    -28.8183E+06    -9.81509E+06    -1.83862E+06    -15.2682E-03     30.4990E-03    -15.2308E-03     3.57434E-03    -15.2617E-03     30.3842E-03    -15.2237E-03     3.55026E-03
             958     1.77278E-03     91.5716E-03    -9.37883E+06    -26.2829E+06    -7.29853E+06    -2.68939E+06    -15.2519E-03     30.5075E-03    -15.2556E-03     6.57643E-03    -15.2501E-03     30.4003E-03    -15.2404E-03     6.54091E-03
             959     2.65917E-03     91.5789E-03    -8.22416E+06    -26.1695E+06    -4.15569E+06    -3.45611E+06    -15.2475E-03     30.5134E-03    -15.2660E-03     9.90480E-03    -15.2447E-03     30.4007E-03    -15.2369E-03     9.85893E-03
             960     3.54554E-03     91.5895E-03    -6.85509E+06    -26.7842E+06    -1.68828E+06    -4.51639E+06    -15.2364E-03     30.5050E-03    -15.2686E-03     13.3511E-03    -15.2297E-03     30.3838E-03    -15.2283E-03     13.2910E-03
             961     4.43203E-03     91.6030E-03    -5.98473E+06    -29.1113E+06     571.128E+03    -5.16635E+06    -15.2321E-03     30.5016E-03    -15.2695E-03     16.9354E-03    -15.2211E-03     30.3644E-03    -15.2158E-03     16.8664E-03
             962     5.31848E-03     91.6201E-03    -5.07997E+06    -31.2168E+06     1.28145E+06    -5.37896E+06    -15.2267E-03     30.4861E-03    -15.2595E-03     20.7425E-03    -15.2094E-03     30.3363E-03    -15.2004E-03     20.6701E-03
             963     6.20504E-03     91.6405E-03    -3.85822E+06    -32.9743E+06     1.45467E+06    -5.86475E+06    -15.2220E-03     30.4644E-03    -15.2424E-03     24.7730E-03    -15.1968E-03     30.3042E-03    -15.1817E-03     24.6936E-03
             964     7.09163E-03     91.6649E-03    -2.98565E+06    -34.0252E+06     2.73554E+06    -6.09913E+06    -15.2314E-03     30.4594E-03    -15.2280E-03     28.9847E-03    -15.2027E-03     30.2914E-03    -15.1606E-03     28.9013E-03
             965     7.97825E-03     91.6929E-03    -1.73783E+06    -36.4570E+06     4.71032E+06    -5.89132E+06    -15.2780E-03     30.4965E-03    -15.2185E-03     33.3822E-03    -15.2434E-03     30.3126E-03    -15.1396E-03     33.3001E-03
             966     8.86490E-03     91.7253E-03    -402.261E+03    -35.1809E+06     6.14885E+06    -5.89694E+06    -15.3521E-03     30.5551E-03    -15.2030E-03     37.9277E-03    -15.3162E-03     30.3751E-03    -15.1207E-03     37.8435E-03
             967     9.75155E-03     91.7614E-03     413.959E+03    -34.7187E+06     7.39294E+06    -5.96156E+06    -15.4785E-03     30.6714E-03    -15.1929E-03     42.5098E-03    -15.4435E-03     30.4932E-03    -15.1062E-03     42.4218E-03
             968     10.6381E-03     91.8022E-03     569.885E+03    -35.5677E+06     5.70812E+06    -5.58102E+06    -15.6847E-03     30.8635E-03    -15.1789E-03     47.0340E-03    -15.6493E-03     30.6873E-03    -15.0996E-03     46.9467E-03
             969     11.5246E-03     91.8465E-03     185.329E+03    -30.8073E+06     6.50383E+06    -5.67297E+06    -15.8977E-03     31.0768E-03    -15.1791E-03     51.7059E-03    -15.8788E-03     30.9303E-03    -15.1022E-03     51.6122E-03
             970     12.4109E-03     91.8959E-03     414.742E+03    -35.7986E+06     4.01402E+06    -6.75259E+06    -16.2366E-03     31.4212E-03    -15.1845E-03     58.8175E-03    -16.2185E-03     31.2658E-03    -15.1132E-03     58.7025E-03
             971     13.2973E-03     91.9532E-03     670.257E+03    -41.3944E+06    -8.46685E+06    -7.52196E+06    -16.6712E-03     31.8236E-03    -15.1524E-03     64.2789E-03    -16.6465E-03     31.6789E-03    -15.1357E-03     64.1453E-03
             972     14.1828E-03     92.0125E-03    -94.6117E+03    -22.9228E+06    -7.80538E+06    -6.71732E+06    -16.7657E-03     31.9248E-03    -15.1590E-03     68.0497E-03    -16.8040E-03     31.9040E-03    -15.1647E-03     67.9226E-03
             973     15.0703E-03     92.0766E-03    -225.607E+03     3.57177E+06    -5.61823E+06    -5.53863E+06    -17.4187E-03     32.5681E-03    -15.1494E-03     92.8438E-03    -17.6521E-03     32.8296E-03    -15.1824E-03     92.7537E-03
             974     15.9551E-03     92.1809E-03     -70.294E+03     31.7758E+06    -14.2900E+06    -3.91732E+06    -20.1067E-03     35.1931E-03    -15.0864E-03     142.976E-03    -21.3823E-03     36.6227E-03    -15.2038E-03     143.311E-03
             975     16.8389E-03     92.3420E-03    -973.738E+03     109.562E+06     7.88501E+06    -1.47652E+06    -20.5984E-03     35.7204E-03    -15.1220E-03     165.253E-03    -23.1984E-03     38.6831E-03    -15.2400E-03     167.238E-03
             976     886.376E-06     92.5446E-03    -11.3282E+06    -25.4793E+06    -9.69835E+06    -1.78699E+06    -15.1359E-03     30.3220E-03    -15.1861E-03     3.56199E-03    -15.1415E-03     30.2258E-03    -15.1812E-03     3.53854E-03
             977     1.77291E-03     92.5490E-03    -9.72826E+06    -24.0814E+06    -5.92559E+06    -2.50215E+06    -15.1437E-03     30.3180E-03    -15.1744E-03     6.60109E-03    -15.1488E-03     30.2204E-03    -15.1550E-03     6.56799E-03
             978     2.65939E-03     92.5564E-03    -8.02576E+06    -23.8020E+06    -3.02473E+06    -3.45912E+06    -15.1538E-03     30.3322E-03    -15.1785E-03     9.92012E-03    -15.1551E-03     30.2294E-03    -15.1474E-03     9.87425E-03
             979     3.54592E-03     92.5668E-03    -6.80537E+06    -24.6408E+06    -342.601E+03    -4.18216E+06    -15.1441E-03     30.3270E-03    -15.1829E-03     13.3796E-03    -15.1422E-03     30.2144E-03    -15.1390E-03     13.3240E-03
             980     4.43239E-03     92.5805E-03    -5.41406E+06    -27.4474E+06     1.72156E+06    -4.87327E+06    -15.1237E-03     30.3050E-03    -15.1813E-03     16.9965E-03    -15.1139E-03     30.1735E-03    -15.1250E-03     16.9314E-03
             981     5.31901E-03     92.5973E-03    -3.88984E+06    -29.6868E+06     2.45328E+06    -5.61497E+06    -15.1090E-03     30.2758E-03    -15.1667E-03     20.8218E-03    -15.0897E-03     30.1302E-03    -15.1058E-03     20.7466E-03
             982     6.20563E-03     92.6178E-03    -2.99187E+06    -31.7658E+06     2.76891E+06    -5.86497E+06    -15.1023E-03     30.2498E-03    -15.1475E-03     24.8539E-03    -15.0763E-03     30.0924E-03    -15.0833E-03     24.7747E-03
             983     7.09234E-03     92.6419E-03    -2.47280E+06    -33.1366E+06     3.70401E+06    -5.92217E+06    -15.1153E-03     30.2450E-03    -15.1297E-03     29.1083E-03    -15.0867E-03     30.0792E-03    -15.0595E-03     29.0274E-03
             984     7.97905E-03     92.6701E-03    -2.10340E+06    -35.7000E+06     5.10452E+06    -6.18361E+06    -15.1567E-03     30.2735E-03    -15.1168E-03     33.5497E-03    -15.1255E-03     30.0933E-03    -15.0365E-03     33.4641E-03
             985     8.86582E-03     92.7022E-03    -1.45345E+06    -34.5002E+06     6.23791E+06    -6.21488E+06    -15.2229E-03     30.3217E-03    -15.0988E-03     38.1724E-03    -15.1933E-03     30.1464E-03    -15.0155E-03     38.0843E-03
             986     9.75254E-03     92.7388E-03    -741.944E+03    -34.4231E+06     7.59677E+06    -5.88351E+06    -15.3562E-03     30.4443E-03    -15.0881E-03     42.8438E-03    -15.3276E-03     30.2688E-03    -14.9991E-03     42.7571E-03
             987     10.6393E-03     92.7791E-03    -197.886E+03    -35.8680E+06     6.26819E+06    -5.23444E+06    -15.5771E-03     30.6523E-03    -15.0752E-03     47.4745E-03    -15.5457E-03     30.4747E-03    -14.9916E-03     47.3922E-03
             988     11.5258E-03     92.8242E-03     653.445E+03    -29.2029E+06     7.81676E+06    -5.42856E+06    -15.8126E-03     30.8875E-03    -15.0749E-03     52.1895E-03    -15.7955E-03     30.7463E-03    -14.9944E-03     52.0992E-03
             989     12.4124E-03     92.8730E-03     1.41386E+06    -33.3702E+06     6.01855E+06    -7.11860E+06    -16.1880E-03     31.2719E-03    -15.0838E-03     59.3070E-03    -16.1713E-03     31.1242E-03    -15.0074E-03     59.1876E-03
             990     13.2985E-03     92.9312E-03     785.075E+03    -41.9707E+06    -7.32947E+06    -7.03264E+06    -16.5760E-03     31.6304E-03    -15.0544E-03     64.7778E-03    -16.5514E-03     31.4808E-03    -15.0313E-03     64.6511E-03
             991     14.1850E-03     92.9903E-03    -1.05379E+06    -23.5503E+06    -6.64903E+06    -5.73745E+06    -16.7377E-03     31.8029E-03    -15.0652E-03     67.8406E-03    -16.7808E-03     31.7779E-03    -15.0627E-03     67.7266E-03
             992     15.0705E-03     93.0539E-03    -2.89865E+06     3.93552E+06    -4.48010E+06    -5.60772E+06    -17.9778E-03     33.0570E-03    -15.0792E-03     92.2429E-03    -18.2299E-03     33.3258E-03    -15.1031E-03     92.1476E-03
             993     15.9573E-03     93.1603E-03    -4.90981E+06     29.1362E+06    -15.0071E+06    -4.63173E+06    -20.3835E-03     35.4255E-03    -15.0420E-03     143.860E-03    -21.6869E-03     36.8585E-03    -15.1522E-03     144.187E-03
             994     16.8429E-03     93.3227E-03    -3.30689E+06     106.645E+06     5.29061E+06    -2.47543E+06    -20.5944E-03     35.6661E-03    -15.0717E-03     166.156E-03    -23.2022E-03     38.6255E-03    -15.1951E-03     168.131E-03
             995     886.594E-06     93.5217E-03    -10.1505E+06    -22.7551E+06    -9.49058E+06    -989.021E+03    -15.0278E-03     30.1093E-03    -15.0816E-03     3.57889E-03    -15.0317E-03     30.0247E-03    -15.0813E-03     3.56572E-03
             996     1.77310E-03     93.5263E-03    -9.75056E+06    -21.4362E+06    -7.48346E+06    -2.36504E+06    -15.0399E-03     30.0983E-03    -15.0584E-03     6.64440E-03    -15.0467E-03     30.0162E-03    -15.0506E-03     6.61309E-03
             997     2.65968E-03     93.5336E-03    -8.44238E+06    -21.6618E+06    -3.26584E+06    -3.36323E+06    -15.0219E-03     30.0895E-03    -15.0676E-03     9.96216E-03    -15.0280E-03     29.9982E-03    -15.0403E-03     9.91759E-03
             998     3.54623E-03     93.5441E-03     -6.7728E+06    -23.1198E+06     245.569E+03    -3.76810E+06    -14.9995E-03     30.0690E-03    -15.0695E-03     13.4298E-03    -15.0004E-03     29.9631E-03    -15.0250E-03     13.3796E-03
             999     4.43296E-03     93.5575E-03    -5.47411E+06    -25.0240E+06     2.00483E+06    -4.76795E+06    -14.9840E-03     30.0441E-03    -15.0600E-03     17.0664E-03    -14.9785E-03     29.9244E-03    -15.0058E-03     17.0029E-03
            1000     5.31963E-03     93.5745E-03    -4.54955E+06    -28.2910E+06     3.01825E+06    -5.54952E+06    -14.9699E-03     30.0165E-03    -15.0466E-03     20.8964E-03    -14.9567E-03     29.8780E-03    -14.9839E-03     20.8221E-03
            1001     6.20642E-03     93.5947E-03     -3.4201E+06    -30.5278E+06     3.61673E+06    -5.90418E+06    -14.9613E-03     29.9881E-03    -15.0268E-03     24.9534E-03    -14.9404E-03     29.8362E-03    -14.9595E-03     24.8739E-03
            1002     7.09321E-03     93.6189E-03    -2.32525E+06    -32.6701E+06     4.34110E+06    -5.79730E+06    -14.9680E-03     29.9738E-03    -15.0058E-03     29.2511E-03    -14.9402E-03     29.8092E-03    -14.9334E-03     29.1720E-03
            1003     7.98010E-03     93.6469E-03    -1.66511E+06    -34.4779E+06     6.15400E+06    -5.63603E+06    -15.0023E-03     29.9928E-03    -14.9906E-03     33.7541E-03    -14.9720E-03     29.8164E-03    -14.9074E-03     33.6758E-03
            1004     8.86695E-03     93.6791E-03    -1.47539E+06    -34.0223E+06     7.18355E+06    -5.84935E+06    -15.0728E-03     30.0439E-03    -14.9712E-03     38.4469E-03    -15.0452E-03     29.8695E-03    -14.8838E-03     38.3639E-03
            1005     9.75392E-03     93.7155E-03    -1.24398E+06    -34.2873E+06     8.12560E+06    -5.52783E+06    -15.2178E-03     30.1758E-03    -14.9581E-03     43.2257E-03    -15.1924E-03     30.0008E-03    -14.8659E-03     43.1440E-03
            1006     10.6406E-03     93.7563E-03    -284.827E+03    -35.4125E+06     6.99324E+06    -5.76915E+06    -15.4557E-03     30.4004E-03    -14.9448E-03     47.9506E-03    -15.4263E-03     30.2240E-03    -14.8580E-03     47.8617E-03
            1007     11.5274E-03     93.8011E-03     1.28015E+06    -27.8762E+06      8.6107E+06    -6.31685E+06    -15.7450E-03     30.6895E-03    -14.9445E-03     52.7167E-03    -15.7276E-03     30.5527E-03    -14.8629E-03     52.6155E-03
            1008     12.4138E-03     93.8507E-03     1.80635E+06    -31.5439E+06     7.35000E+06    -6.58225E+06    -16.2218E-03     31.1848E-03    -14.9630E-03     59.7647E-03    -16.2078E-03     31.0439E-03    -14.8831E-03     59.6523E-03
            1009     13.3002E-03     93.9086E-03     714.098E+03    -43.5403E+06    -6.56798E+06    -5.89671E+06    -16.7183E-03     31.6679E-03    -14.9497E-03     65.0025E-03    -16.6929E-03     31.5096E-03    -14.9204E-03     64.8903E-03
            1010     14.1860E-03     93.9681E-03    -280.543E+03    -23.6210E+06    -5.48159E+06    -4.61913E+06    -17.0924E-03     32.0732E-03    -14.9808E-03     68.0061E-03    -17.1337E-03     32.0455E-03    -14.9735E-03     67.9055E-03
            1011     15.0719E-03     94.0326E-03    -1.03110E+06     4.80413E+06    -2.04700E+06    -4.16006E+06    -18.5701E-03     33.5998E-03    -15.0297E-03     92.9405E-03    -18.8225E-03     33.8715E-03    -15.0454E-03     92.8610E-03
            1012     15.9556E-03     94.1389E-03    -1.12812E+06     28.6580E+06    -12.3668E+06    -4.17879E+06    -20.6827E-03     35.7054E-03    -15.0227E-03     142.467E-03    -21.9568E-03     37.1131E-03    -15.1244E-03     142.796E-03
            1013     16.8435E-03     94.2981E-03    -2.08721E+06     103.804E+06     17.9654E+06    -3.25556E+06    -20.6179E-03     35.7455E-03    -15.1276E-03     163.966E-03    -23.2158E-03     38.6524E-03    -15.1852E-03     165.917E-03
            1014     886.628E-06     94.4990E-03    -9.41253E+06    -20.7304E+06    -9.43442E+06    -662.921E+03    -14.9197E-03     29.8528E-03    -14.9332E-03     3.55937E-03    -14.9229E-03     29.7772E-03    -14.9366E-03     3.55043E-03
            1015     1.77331E-03     94.5033E-03    -9.24151E+06    -18.7744E+06    -7.43979E+06    -1.86987E+06    -14.8951E-03     29.8191E-03    -14.9240E-03     6.65862E-03    -14.9033E-03     29.7495E-03    -14.9206E-03     6.63373E-03
            1016     2.66000E-03     94.5107E-03    -8.94424E+06    -19.8117E+06    -4.25400E+06    -2.77741E+06    -14.8531E-03     29.7759E-03    -14.9228E-03     10.0021E-03    -14.8630E-03     29.6960E-03    -14.9023E-03     9.96514E-03
            1017     3.54685E-03     94.5210E-03    -7.81397E+06    -21.3649E+06    -967.729E+03    -3.69240E+06    -14.8283E-03     29.7456E-03    -14.9174E-03     13.4980E-03    -14.8352E-03     29.6518E-03    -14.8799E-03     13.4489E-03
            1018     4.43358E-03     94.5345E-03    -6.22834E+06    -22.9099E+06     2.18746E+06    -4.35156E+06    -14.8156E-03     29.7257E-03    -14.9101E-03     17.1357E-03    -14.8171E-03     29.6174E-03    -14.8569E-03     17.0776E-03
            1019     5.32046E-03     94.5512E-03    -4.91824E+06    -26.6457E+06     3.99872E+06    -5.17432E+06    -14.8003E-03     29.6987E-03    -14.8983E-03     20.9784E-03    -14.7928E-03     29.5675E-03    -14.8326E-03     20.9092E-03
            1020     6.20732E-03     94.5715E-03    -4.03912E+06    -29.1283E+06     4.12897E+06    -5.82690E+06    -14.7836E-03     29.6580E-03    -14.8744E-03     25.0929E-03    -14.7686E-03     29.5132E-03    -14.8056E-03     25.0146E-03
            1021     7.09432E-03     94.5955E-03    -3.40899E+06    -32.6317E+06     4.43304E+06    -5.61428E+06    -14.7810E-03     29.6318E-03    -14.8509E-03     29.4280E-03    -14.7587E-03     29.4688E-03    -14.7764E-03     29.3515E-03
            1022     7.98133E-03     94.6235E-03    -2.70424E+06    -33.5336E+06     5.75009E+06    -5.38681E+06    -14.8050E-03     29.6331E-03    -14.8281E-03     34.0174E-03    -14.7806E-03     29.4634E-03    -14.7468E-03     33.9426E-03
            1023     8.86844E-03     94.6556E-03    -2.04990E+06    -33.6249E+06     6.99785E+06    -5.15014E+06    -14.8968E-03     29.7041E-03    -14.8072E-03     38.7835E-03    -14.8723E-03     29.5326E-03    -14.7205E-03     38.7099E-03
            1024     9.75539E-03     94.6921E-03    -1.58795E+06    -33.8787E+06     7.91669E+06    -5.09687E+06    -15.0640E-03     29.8569E-03    -14.7929E-03     43.6909E-03    -15.0404E-03     29.6845E-03    -14.7019E-03     43.6153E-03
            1025     10.6425E-03     94.7330E-03    -1.19392E+06    -33.4241E+06     7.03787E+06    -6.07372E+06    -15.3383E-03     30.1194E-03    -14.7811E-03     48.5291E-03    -15.3162E-03     29.9540E-03    -14.6957E-03     48.4368E-03
            1026     11.5291E-03     94.7781E-03    -819.343E+03    -27.2613E+06     7.91561E+06    -6.91424E+06    -15.7072E-03     30.4940E-03    -14.7868E-03     53.4120E-03    -15.7000E-03     30.3642E-03    -14.7065E-03     53.3034E-03
            1027     12.4157E-03     94.8280E-03    -85.1261E+03    -31.2245E+06     7.09891E+06    -6.46499E+06    -16.3075E-03     31.1271E-03    -14.8196E-03     60.5301E-03    -16.3031E-03     30.9909E-03    -14.7387E-03     60.4193E-03
            1028     13.3016E-03     94.8863E-03     889.275E+03    -44.2302E+06    -5.38242E+06    -5.91151E+06    -16.9901E-03     31.8220E-03    -14.8319E-03     65.8114E-03    -16.9650E-03     31.6587E-03    -14.7960E-03     65.6986E-03
            1029     14.1872E-03     94.9464E-03     2.05020E+06    -24.2391E+06    -4.02837E+06    -5.50072E+06    -17.4839E-03     32.3713E-03    -14.8874E-03     69.0427E-03    -17.5158E-03     32.3361E-03    -14.8753E-03     68.9296E-03
            1030     15.0725E-03     95.0111E-03     3.84172E+06     4.39976E+06     1.14043E+06    -4.53633E+06    -18.8524E-03     33.8154E-03    -14.9630E-03     94.1882E-03    -19.0860E-03     34.0750E-03    -14.9692E-03     94.1028E-03
            1031     15.9582E-03     95.1194E-03     3.12947E+06     28.9025E+06    -7.13702E+06    -2.69545E+06    -21.3968E-03     36.3887E-03    -14.9919E-03     144.116E-03    -22.6721E-03     37.7983E-03    -15.0740E-03     144.455E-03
            1032     16.8390E-03     95.2771E-03     1.97980E+06     102.465E+06     13.2438E+06    -656.739E+03    -21.0299E-03     36.1039E-03    -15.0740E-03     166.131E-03    -23.6392E-03     39.0456E-03    -15.1592E-03     168.136E-03
            1033     886.787E-06     95.4757E-03    -11.5224E+06    -18.8768E+06    -11.0750E+06    -1.04916E+06    -14.7568E-03     29.4984E-03    -14.7416E-03     3.60650E-03    -14.7708E-03     29.4374E-03    -14.7529E-03     3.59258E-03
            1034     1.77361E-03     95.4802E-03    -10.8510E+06    -17.1450E+06    -8.71873E+06    -1.34418E+06    -14.6992E-03     29.4449E-03    -14.7457E-03     6.70484E-03    -14.7160E-03     29.3877E-03    -14.7487E-03     6.68678E-03
            1035     2.66053E-03     95.4873E-03    -9.85718E+06    -18.0244E+06    -5.27745E+06    -2.03788E+06    -14.6698E-03     29.4101E-03    -14.7403E-03     10.0293E-03    -14.6853E-03     29.3420E-03    -14.7263E-03     10.0019E-03
            1036     3.54738E-03     95.4976E-03    -8.77151E+06    -19.1520E+06    -1.12067E+06    -3.14297E+06    -14.6322E-03     29.3692E-03    -14.7371E-03     13.5513E-03    -14.6468E-03     29.2881E-03    -14.7022E-03     13.5093E-03
            1037     4.43440E-03     95.5110E-03    -7.75871E+06    -21.6623E+06     1.63886E+06    -3.83935E+06    -14.5953E-03     29.3209E-03    -14.7256E-03     17.2278E-03    -14.6054E-03     29.2218E-03    -14.6748E-03     17.1765E-03
            1038     5.32140E-03     95.5277E-03    -7.04724E+06    -24.6406E+06     2.81942E+06    -4.34539E+06    -14.5715E-03     29.2764E-03    -14.7049E-03     21.1182E-03    -14.5757E-03     29.1600E-03    -14.6449E-03     21.0598E-03
            1039     6.20853E-03     95.5479E-03    -6.91373E+06    -28.1986E+06     2.90812E+06    -4.73262E+06    -14.5515E-03     29.2303E-03    -14.6788E-03     25.2657E-03    -14.5503E-03     29.0961E-03    -14.6134E-03     25.2017E-03
            1040     7.09569E-03     95.5718E-03    -6.80627E+06    -31.8403E+06     2.59447E+06    -5.04963E+06    -14.5456E-03     29.1951E-03    -14.6495E-03     29.6664E-03    -14.5387E-03     29.0435E-03    -14.5805E-03     29.5975E-03
            1041     7.98293E-03     95.5997E-03    -6.15442E+06    -32.8541E+06     3.06202E+06    -5.36242E+06    -14.5717E-03     29.1913E-03    -14.6196E-03     34.3435E-03    -14.5615E-03     29.0338E-03    -14.5478E-03     34.2694E-03
            1042     8.87017E-03     95.6318E-03    -5.33499E+06    -33.7354E+06     4.34811E+06    -4.94364E+06    -14.6748E-03     29.2724E-03    -14.5976E-03     39.2359E-03    -14.6624E-03     29.1087E-03    -14.5192E-03     39.1655E-03
            1043     9.75745E-03     95.6683E-03    -4.42603E+06    -32.6916E+06     6.34021E+06    -5.03078E+06    -14.8852E-03     29.4715E-03    -14.5864E-03     44.2655E-03    -14.8751E-03     29.3113E-03    -14.5009E-03     44.1912E-03
            1044     10.6445E-03     95.7094E-03    -3.69255E+06    -31.6992E+06     6.60039E+06    -5.74814E+06    -15.2184E-03     29.8015E-03    -14.5832E-03     49.2567E-03    -15.2104E-03     29.6488E-03    -14.4988E-03     49.1691E-03
            1045     11.5314E-03     95.7550E-03    -3.38027E+06     -25.877E+06     7.66047E+06    -6.58264E+06    -15.6832E-03     30.2825E-03    -14.5993E-03     54.2886E-03    -15.6904E-03     30.1636E-03    -14.5186E-03     54.1847E-03
            1046     12.4178E-03     95.8051E-03    -2.65111E+06    -31.2789E+06     6.32042E+06    -7.22528E+06    -16.3993E-03     31.0456E-03    -14.6463E-03     61.5547E-03    -16.4066E-03     30.9141E-03    -14.5655E-03     61.4343E-03
            1047     13.3038E-03     95.8644E-03    -1.94565E+06    -43.9285E+06    -6.66477E+06    -7.17900E+06    -17.1928E-03     31.8688E-03    -14.6759E-03     66.8679E-03    -17.1812E-03     31.7136E-03    -14.6427E-03     66.7383E-03
            1048     14.1894E-03     95.9245E-03    -1.49939E+06    -23.9113E+06    -5.04347E+06    -7.29961E+06    -17.8007E-03     32.5588E-03    -14.7580E-03     70.2367E-03    -17.8511E-03     32.5336E-03    -14.7464E-03     70.0992E-03
            1049     15.0742E-03     95.9908E-03    -1.06676E+06     2.47861E+06    -299.053E+03    -6.10182E+06    -19.1767E-03     34.0388E-03    -14.8622E-03     95.0332E-03    -19.4340E-03     34.3020E-03    -14.8657E-03     94.9257E-03
            1050     15.9588E-03     96.0974E-03    -917.376E+03     23.5204E+06    -9.57256E+06    -1.92724E+06    -20.8180E-03     35.7067E-03    -14.8887E-03     144.245E-03    -22.0845E-03     37.0811E-03    -14.9693E-03     144.603E-03
            1051     16.8477E-03     96.2593E-03    -705.728E+03     101.253E+06     6.95504E+06     334.357E+03    -21.2855E-03     36.2243E-03    -14.9389E-03     166.226E-03    -23.8762E-03     39.1519E-03    -15.0499E-03     168.217E-03
            1052     886.990E-06     96.4521E-03    -14.2299E+06    -17.1240E+06    -13.7553E+06    -1.06018E+06    -14.5124E-03     29.0241E-03    -14.5117E-03     3.57015E-03    -14.5387E-03     28.9797E-03    -14.5350E-03     3.55615E-03
            1053     1.77404E-03     96.4564E-03    -13.4164E+06    -16.0293E+06    -11.2592E+06    -1.37568E+06    -14.4762E-03     28.9888E-03    -14.5127E-03     6.73618E-03    -14.5037E-03     28.9445E-03    -14.5263E-03     6.71778E-03
            1054     2.66103E-03     96.4637E-03    -12.0667E+06    -16.7578E+06    -6.57385E+06    -1.62179E+06    -14.4446E-03     28.9607E-03    -14.5160E-03     10.1059E-03    -14.4712E-03     28.9040E-03    -14.5071E-03     10.0840E-03
            1055     3.54820E-03     96.4739E-03    -11.1122E+06    -17.6475E+06    -2.53210E+06    -1.78594E+06    -14.3852E-03     28.8961E-03    -14.5109E-03     13.6331E-03    -14.4117E-03     28.8279E-03    -14.4819E-03     13.6088E-03
            1056     4.43536E-03     96.4872E-03    -10.7745E+06    -20.4048E+06    -246.462E+03    -2.34156E+06    -14.3261E-03     28.8195E-03    -14.4934E-03     17.3406E-03    -14.3503E-03     28.7338E-03    -14.4495E-03     17.3087E-03
            1057     5.32268E-03     96.5037E-03    -10.6661E+06    -23.4318E+06     619.509E+03    -2.77491E+06    -14.2909E-03     28.7572E-03    -14.4662E-03     21.2635E-03    -14.3118E-03     28.6551E-03    -14.4137E-03     21.2257E-03
            1058     6.20998E-03     96.5238E-03    -10.6089E+06    -27.2219E+06     565.593E+03    -3.12548E+06    -14.2683E-03     28.7029E-03    -14.4347E-03     25.4340E-03    -14.2835E-03     28.5823E-03    -14.3770E-03     25.3911E-03
            1059     7.09741E-03     96.5476E-03    -10.5292E+06    -30.1955E+06     305.969E+03    -4.03558E+06    -14.2608E-03     28.6613E-03    -14.4005E-03     29.9193E-03    -14.2714E-03     28.5265E-03    -14.3399E-03     29.8639E-03
            1060     7.98486E-03     96.5755E-03    -10.3034E+06    -31.8371E+06     714.046E+03    -4.94547E+06    -14.3011E-03     28.6703E-03    -14.3692E-03     34.7013E-03    -14.3096E-03     28.5271E-03    -14.3045E-03     34.6330E-03
            1061     8.87238E-03     96.6075E-03    -9.37927E+06    -33.7569E+06     2.24335E+06    -5.12431E+06    -14.4362E-03     28.7858E-03    -14.3496E-03     39.7282E-03    -14.4408E-03     28.6308E-03    -14.2758E-03     39.6559E-03
            1062     9.75976E-03     96.6442E-03    -7.96496E+06    -31.2826E+06     4.87200E+06    -5.34744E+06    -14.6848E-03     29.0262E-03    -14.3414E-03     44.9098E-03    -14.6921E-03     28.8800E-03    -14.2601E-03     44.8320E-03
            1063     10.6470E-03     96.6855E-03    -6.57537E+06    -30.6964E+06     5.77157E+06    -5.86637E+06    -15.1080E-03     29.4560E-03    -14.3479E-03     50.0590E-03    -15.1145E-03     29.3134E-03    -14.2650E-03     49.9704E-03
            1064     11.5339E-03     96.7314E-03    -5.27311E+06    -24.1862E+06     7.50761E+06    -6.42998E+06    -15.6753E-03     30.0530E-03    -14.3777E-03     55.2628E-03    -15.6941E-03     29.9454E-03    -14.2974E-03     55.1612E-03
            1065     12.4204E-03     96.7825E-03    -4.40727E+06    -29.8825E+06     6.05517E+06    -7.56712E+06    -16.5052E-03     30.9473E-03    -14.4421E-03     62.6492E-03    -16.5232E-03     30.8260E-03    -14.3621E-03     62.5244E-03
            1066     13.3063E-03     96.8420E-03    -3.83246E+06    -43.5587E+06    -7.69801E+06    -8.17664E+06    -17.4786E-03     31.9728E-03    -14.4943E-03     67.9968E-03    -17.4763E-03     31.8247E-03    -14.4641E-03     67.8536E-03
            1067     14.1912E-03     96.9035E-03    -3.98337E+06    -23.5399E+06    -5.94612E+06    -7.52629E+06    -18.1406E-03     32.7477E-03    -14.6071E-03     71.0831E-03    -18.2043E-03     32.7310E-03    -14.5969E-03     70.9415E-03
            1068     15.0763E-03     96.9695E-03    -4.49752E+06    -313.356E+03    -2.34911E+06    -5.92109E+06    -19.5903E-03     34.3312E-03    -14.7409E-03     95.8555E-03    -19.8592E-03     34.5898E-03    -14.7457E-03     95.7479E-03
            1069     15.9601E-03     97.0784E-03    -2.82378E+06     18.6837E+06    -12.1792E+06    -4.05663E+06    -21.6060E-03     36.4149E-03    -14.8089E-03     142.273E-03    -22.8644E-03     37.7649E-03    -14.8928E-03     142.578E-03
            1070     16.8452E-03     97.2317E-03    -1.68388E+06     99.9129E+06     12.2812E+06    -1.08968E+06    -21.9371E-03     36.8806E-03    -14.9435E-03     164.327E-03    -24.5418E-03     39.7985E-03    -15.0246E-03     166.256E-03
            1071     887.244E-06     97.4280E-03    -16.4646E+06    -16.0446E+06    -15.2329E+06    -249.685E+03    -14.2219E-03     28.4641E-03    -14.2422E-03     3.61701E-03    -14.2587E-03     28.4305E-03    -14.2713E-03     3.61348E-03
            1072     1.77445E-03     97.4324E-03    -16.6982E+06    -15.2951E+06    -13.0157E+06    -336.136E+03    -14.1972E-03     28.4344E-03    -14.2372E-03     6.77686E-03    -14.2396E-03     28.4010E-03    -14.2559E-03     6.77193E-03
            1073     2.66183E-03     97.4395E-03    -16.6951E+06    -16.2235E+06    -10.2244E+06    -366.702E+03    -14.1467E-03     28.3801E-03    -14.2334E-03     10.1749E-03    -14.1919E-03     28.3381E-03    -14.2368E-03     10.1693E-03
            1074     3.54912E-03     97.4496E-03    -15.9860E+06    -17.2592E+06    -6.53905E+06    -344.838E+03    -14.0860E-03     28.3106E-03    -14.2246E-03     13.6993E-03    -14.1316E-03     28.2571E-03    -14.2091E-03     13.6937E-03
            1075     4.43662E-03     97.4627E-03    -14.9877E+06    -19.4909E+06    -2.76547E+06    -465.685E+03    -14.0239E-03     28.2348E-03    -14.2109E-03     17.4374E-03    -14.0669E-03     28.1634E-03    -14.1747E-03     17.4299E-03
            1076     5.32409E-03     97.4793E-03    -14.5100E+06    -22.9172E+06    -1.13101E+06    -688.353E+03    -13.9722E-03     28.1567E-03    -14.1845E-03     21.3963E-03    -14.0104E-03     28.0653E-03    -14.1359E-03     21.3856E-03
            1077     6.21176E-03     97.4991E-03    -14.3967E+06    -25.8325E+06    -1.53499E+06    -1.43584E+06    -13.9345E-03     28.0798E-03    -14.1453E-03     25.6135E-03    -13.9676E-03     27.9746E-03    -14.0946E-03     25.5927E-03
            1078     7.09942E-03     97.5229E-03    -14.0412E+06    -28.1311E+06    -1.40874E+06    -2.86375E+06    -13.9339E-03     28.0414E-03    -14.1075E-03     30.1843E-03    -13.9625E-03     27.9244E-03    -14.0534E-03     30.1443E-03
            1079     7.98721E-03     97.5506E-03    -13.5977E+06    -30.4924E+06    -60.7012E+03    -3.99296E+06    -14.0130E-03     28.0936E-03    -14.0806E-03     35.0701E-03    -14.0386E-03     27.9629E-03    -14.0170E-03     35.0145E-03
            1080     8.87488E-03     97.5828E-03    -12.8542E+06    -32.4412E+06     1.34580E+06    -5.20240E+06    -14.1851E-03     28.2485E-03    -14.0634E-03     40.2321E-03    -14.2075E-03     28.1062E-03    -13.9910E-03     40.1593E-03
            1081     9.76252E-03     97.6196E-03    -11.0701E+06    -30.0787E+06     3.13875E+06    -6.24391E+06    -14.4860E-03     28.5424E-03    -14.0564E-03     45.6154E-03    -14.5078E-03     28.4090E-03    -13.9810E-03     45.5266E-03
            1082     10.6499E-03     97.6613E-03    -9.03339E+06    -29.9922E+06     4.41298E+06    -6.42826E+06    -15.0043E-03     29.0789E-03    -14.0747E-03     50.9887E-03    -15.0219E-03     28.9452E-03    -13.9960E-03     50.8934E-03
            1083     11.5368E-03     97.7078E-03    -7.65173E+06    -22.8425E+06     6.59539E+06    -6.71857E+06    -15.6654E-03     29.7860E-03    -14.1206E-03     56.3708E-03    -15.6966E-03     29.6899E-03    -14.0434E-03     56.2658E-03
            1084     12.4234E-03     97.7593E-03    -6.20754E+06    -27.4680E+06     5.81663E+06    -7.99166E+06    -16.5993E-03     30.8047E-03    -14.2054E-03     63.9854E-03    -16.6297E-03     30.6987E-03    -14.1275E-03     63.8552E-03
            1085     13.3088E-03     97.8202E-03    -4.88916E+06    -42.7467E+06    -7.45101E+06    -9.24904E+06    -17.7363E-03     32.0221E-03    -14.2858E-03     69.6717E-03    -17.7416E-03     31.8799E-03    -14.2540E-03     69.5144E-03
            1086     14.1938E-03     97.8823E-03    -3.41389E+06    -25.2822E+06    -5.88154E+06    -8.08851E+06    -18.6225E-03     33.0542E-03    -14.4317E-03     72.6291E-03    -18.6830E-03     33.0299E-03    -14.4195E-03     72.4787E-03
            1087     15.0777E-03     97.9492E-03    -2.14796E+06    -1.47472E+06    -902.202E+03    -6.32195E+06    -20.0131E-03     34.6155E-03    -14.6024E-03     96.9727E-03    -20.2714E-03     34.8636E-03    -14.6017E-03     96.8576E-03
            1088     15.9626E-03     98.0580E-03    -2.51091E+06     17.5102E+06    -10.7679E+06    -4.85814E+06    -23.2339E-03     37.9648E-03    -14.7309E-03     144.621E-03    -24.5318E-03     39.3472E-03    -14.8065E-03     144.885E-03
            1089     16.8420E-03     98.2159E-03    -2.93245E+06     96.8020E+06     11.0139E+06    -1.91973E+06    -23.0466E-03     37.9738E-03    -14.9272E-03     165.663E-03    -25.6846E-03     40.9132E-03    -15.0082E-03     167.567E-03
            1090     887.525E-06     98.4034E-03    -21.0796E+06    -17.1876E+06    -19.3725E+06     1.36784E+06    -13.8802E-03     27.7725E-03    -13.8923E-03     3.65368E-03    -13.9324E-03     27.7458E-03    -13.9337E-03     3.67094E-03
            1091     1.77510E-03     98.4076E-03    -21.2921E+06    -16.0587E+06    -16.5395E+06     2.16455E+06    -13.8563E-03     27.7532E-03    -13.8969E-03     6.82284E-03    -13.9155E-03     27.7279E-03    -13.9255E-03     6.85025E-03
            1092     2.66261E-03     98.4147E-03    -21.0137E+06    -15.8344E+06    -12.8910E+06     1.77723E+06    -13.8038E-03     27.7012E-03    -13.8974E-03     10.2347E-03    -13.8672E-03     27.6712E-03    -13.9084E-03     10.2569E-03
            1093     3.55033E-03     98.4247E-03    -20.2705E+06    -17.5569E+06    -9.00702E+06     1.38925E+06    -13.7417E-03     27.6328E-03    -13.8911E-03     13.7928E-03    -13.8047E-03     27.5876E-03    -13.8813E-03     13.8097E-03
            1094     4.43800E-03     98.4378E-03    -19.6311E+06    -19.4508E+06    -5.62935E+06     1.54814E+06    -13.6755E-03     27.5509E-03    -13.8753E-03     17.5594E-03    -13.7376E-03     27.4905E-03    -13.8468E-03     17.5781E-03
            1095     5.32589E-03     98.4541E-03    -18.7332E+06    -22.4311E+06    -3.25839E+06     1.16909E+06    -13.6133E-03     27.4634E-03    -13.8501E-03     21.5581E-03    -13.6702E-03     27.3836E-03    -13.8067E-03     21.5716E-03
            1096     6.21377E-03     98.4740E-03    -17.5310E+06    -24.0851E+06    -2.28389E+06    -12.0431E+03    -13.5765E-03     27.3890E-03    -13.8125E-03     25.8223E-03    -13.6267E-03     27.2980E-03    -13.7636E-03     25.8201E-03
            1097     7.10184E-03     98.4975E-03    -16.8423E+06    -26.2371E+06    -2.00847E+06    -1.47577E+06    -13.6023E-03     27.3770E-03    -13.7746E-03     30.4520E-03    -13.6467E-03     27.2742E-03    -13.7222E-03     30.4303E-03
            1098     7.98981E-03     98.5253E-03    -16.3367E+06    -28.7441E+06    -910.928E+03    -2.92865E+06    -13.7054E-03     27.4544E-03    -13.7490E-03     35.4500E-03    -13.7459E-03     27.3375E-03    -13.6882E-03     35.4086E-03
            1099     8.87779E-03     98.5575E-03    -15.1862E+06    -29.4754E+06     622.916E+03    -5.11363E+06    -13.9143E-03     27.6489E-03    -13.7347E-03     40.7669E-03    -13.9514E-03     27.5257E-03    -13.6668E-03     40.6957E-03
            1100     9.76564E-03     98.5945E-03    -13.7483E+06    -28.6239E+06     1.69360E+06    -6.94020E+06    -14.2893E-03     28.0242E-03    -13.7349E-03     46.3881E-03    -14.3242E-03     27.9038E-03    -13.6650E-03     46.2908E-03
            1101     10.6531E-03     98.6367E-03    -12.0240E+06    -29.5064E+06     2.69039E+06    -7.36243E+06    -14.8648E-03     28.6300E-03    -13.7652E-03     52.0313E-03    -14.8953E-03     28.5053E-03    -13.6916E-03     51.9245E-03
            1102     11.5403E-03     98.6838E-03    -9.47311E+06    -21.3459E+06     5.88467E+06    -7.76088E+06    -15.6304E-03     29.4586E-03    -13.8282E-03     57.6858E-03    -15.6717E-03     29.3735E-03    -13.7541E-03     57.5680E-03
            1103     12.4265E-03     98.7363E-03    -6.98040E+06    -24.8519E+06     6.12181E+06    -9.20709E+06    -16.6681E-03     30.6025E-03    -13.9344E-03     65.4740E-03    -16.7068E-03     30.5104E-03    -13.8576E-03     65.3285E-03
            1104     13.3125E-03     98.7979E-03    -5.47600E+06    -41.7451E+06    -6.85278E+06    -10.3023E+06    -17.8895E-03     31.9300E-03    -14.0405E-03     71.4060E-03    -17.9007E-03     31.7934E-03    -14.0063E-03     71.2351E-03
            1105     14.1970E-03     98.8617E-03    -4.94195E+06    -26.8918E+06    -6.28450E+06    -9.70320E+06    -18.9709E-03     33.1848E-03    -14.2139E-03     74.4082E-03    -19.0376E-03     33.1567E-03    -14.1991E-03     74.2360E-03
            1106     15.0811E-03     98.9291E-03    -3.51090E+06    -2.97384E+06    -933.128E+03    -7.59589E+06    -20.7884E-03     35.2169E-03    -14.4285E-03     98.2043E-03    -21.0574E-03     35.4656E-03    -14.4238E-03     98.0670E-03
            1107     15.9640E-03     99.0381E-03    -3.31715E+06     15.1847E+06    -10.7555E+06    -4.81671E+06    -23.6179E-03     38.2115E-03    -14.5936E-03     146.943E-03    -24.9271E-03     39.5941E-03    -14.6646E-03     147.208E-03
            1108     16.8488E-03     99.2013E-03    -1.81237E+06     93.7123E+06     10.5214E+06    -2.40297E+06    -23.8117E-03     38.6300E-03    -14.8183E-03     164.810E-03    -26.3909E-03     41.5050E-03    -14.8990E-03     166.639E-03
            1109     887.892E-06     99.3779E-03    -26.2428E+06    -21.2446E+06    -24.9188E+06     2.90594E+06    -13.4590E-03     26.9718E-03    -13.5128E-03     3.64923E-03    -13.5232E-03     26.9404E-03    -13.5686E-03     3.68634E-03
            1110     1.77575E-03     99.3823E-03    -25.5589E+06    -18.6994E+06    -21.0617E+06     4.15831E+06    -13.4493E-03     26.9446E-03    -13.4953E-03     6.87255E-03    -13.5194E-03     26.9188E-03    -13.5364E-03     6.92574E-03
            1111     2.66374E-03     99.3893E-03    -25.1064E+06    -16.3406E+06    -15.7595E+06     4.50449E+06    -13.3997E-03     26.8989E-03    -13.4992E-03     10.3042E-03    -13.4787E-03     26.8765E-03    -13.5179E-03     10.3617E-03
            1112     3.55165E-03     99.3992E-03    -24.8386E+06    -17.9496E+06    -11.3153E+06     4.01690E+06    -13.3490E-03     26.8473E-03    -13.4983E-03     13.9099E-03    -13.4309E-03     26.8101E-03    -13.4928E-03     13.9609E-03
            1113     4.43979E-03     99.4121E-03    -23.6839E+06    -19.8582E+06    -7.66436E+06     3.56936E+06    -13.2913E-03     26.7778E-03    -13.4865E-03     17.6846E-03    -13.3700E-03     26.7242E-03    -13.4617E-03     17.7296E-03
            1114     5.32788E-03     99.4283E-03    -22.1460E+06    -21.5297E+06    -4.86682E+06     2.65011E+06    -13.2337E-03     26.6974E-03    -13.4637E-03     21.7036E-03    -13.3065E-03     26.6293E-03    -13.4247E-03     21.7364E-03
            1115     6.21621E-03     99.4480E-03    -20.9975E+06    -22.6835E+06    -3.37751E+06     1.34414E+06    -13.2158E-03     26.6476E-03    -13.4318E-03     26.0204E-03    -13.2836E-03     26.5702E-03    -13.3854E-03     26.0360E-03
            1116     7.10444E-03     99.4715E-03    -20.0900E+06    -24.4487E+06    -3.09356E+06    -47.1991E+03    -13.2565E-03     26.6545E-03    -13.3981E-03     30.7276E-03    -13.3180E-03     26.5669E-03    -13.3489E-03     30.7247E-03
            1117     7.99276E-03     99.4992E-03    -18.8318E+06    -26.0359E+06    -2.34138E+06    -2.30104E+06    -13.3740E-03     26.7474E-03    -13.3733E-03     35.8583E-03    -13.4287E-03     26.6495E-03    -13.3200E-03     35.8254E-03
            1118     8.88104E-03     99.5316E-03    -17.2535E+06    -25.8277E+06    -267.744E+03    -5.10667E+06    -13.6375E-03     27.0040E-03    -13.3665E-03     41.3684E-03    -13.6888E-03     26.9031E-03    -13.3054E-03     41.2978E-03
            1119     9.76903E-03     99.5689E-03    -15.5901E+06    -26.7491E+06     1.30634E+06    -7.11401E+06    -14.0735E-03     27.4553E-03    -13.3818E-03     47.1850E-03    -14.1196E-03     27.3473E-03    -13.3138E-03     47.0860E-03
            1120     10.6568E-03     99.6116E-03    -13.3580E+06    -27.8546E+06     2.26285E+06    -8.66060E+06    -14.7094E-03     28.1336E-03    -13.4242E-03     53.1103E-03    -14.7481E-03     28.0194E-03    -13.3531E-03     52.9874E-03
            1121     11.5439E-03     99.6595E-03    -10.1683E+06    -19.5557E+06     5.24442E+06    -10.1917E+06    -15.5627E-03     29.0630E-03    -13.5003E-03     59.0841E-03    -15.6090E-03     28.9886E-03    -13.4309E-03     58.9355E-03
            1122     12.4306E-03     99.7130E-03    -7.12553E+06    -23.1974E+06     5.91591E+06    -10.6452E+06    -16.7846E-03     30.4142E-03    -13.6297E-03     67.0247E-03    -16.8263E-03     30.3312E-03    -13.5561E-03     66.8607E-03
            1123     13.3158E-03     99.7756E-03    -6.17831E+06    -40.6678E+06    -6.10581E+06    -10.9041E+06    -18.1948E-03     31.9676E-03    -13.7729E-03     72.9490E-03    -18.2130E-03     31.8373E-03    -13.7355E-03     72.7697E-03
            1124     14.2007E-03     99.8408E-03    -5.80296E+06    -27.5591E+06    -5.82081E+06    -10.4875E+06    -19.3538E-03     33.3368E-03    -13.9830E-03     75.6374E-03    -19.4257E-03     33.3072E-03    -13.9638E-03     75.4537E-03
            1125     15.0841E-03     99.9095E-03    -5.13786E+06    -5.28377E+06    -2.19452E+06    -9.26829E+06    -21.7981E-03     36.0417E-03    -14.2435E-03     99.5084E-03    -22.0774E-03     36.2904E-03    -14.2394E-03     99.3418E-03
            1126     15.9663E-03     100.021E-03    -3.07693E+06     12.1712E+06    -11.3163E+06    -6.56609E+06    -24.4430E-03     38.9146E-03    -14.4716E-03     146.064E-03    -25.7204E-03     40.2571E-03    -14.5414E-03     146.285E-03
            1127     16.8482E-03     100.180E-03    -1.89076E+06     90.9417E+06     13.6680E+06    -3.07998E+06    -24.4993E-03     39.2648E-03    -14.7655E-03     163.353E-03    -27.0492E-03     42.0912E-03    -14.8263E-03     165.116E-03
            1128     888.232E-06     100.352E-03    -30.6664E+06    -27.7717E+06    -29.5499E+06      3.9777E+06    -13.0178E-03     26.0736E-03    -13.0558E-03     3.71353E-03    -13.0878E-03     26.0226E-03    -13.1188E-03     3.76457E-03
            1129     1.77657E-03     100.356E-03    -31.0108E+06    -23.2219E+06    -26.3449E+06     6.31192E+06    -12.9858E-03     26.0249E-03    -13.0391E-03     6.91689E-03    -13.0689E-03     25.9920E-03    -13.0922E-03     6.99793E-03
            1130     2.66487E-03     100.363E-03    -30.7175E+06    -18.5442E+06    -21.2335E+06     7.30798E+06    -12.9338E-03     25.9706E-03    -13.0368E-03     10.3531E-03    -13.0297E-03     25.9533E-03    -13.0716E-03     10.4469E-03
            1131     3.55334E-03     100.373E-03    -29.5184E+06    -18.2756E+06    -14.9422E+06     6.70186E+06    -12.9022E-03     25.9447E-03    -13.0425E-03     14.0004E-03    -13.0017E-03     25.9179E-03    -13.0479E-03     14.0862E-03
            1132     4.44166E-03     100.386E-03    -27.9264E+06    -19.9928E+06    -9.77744E+06     5.39164E+06    -12.8723E-03     25.9153E-03    -13.0430E-03     17.8111E-03    -12.9689E-03     25.8702E-03    -13.0225E-03     17.8797E-03
            1133     5.33025E-03     100.402E-03    -26.2047E+06    -20.7085E+06    -6.76934E+06     4.22957E+06    -12.8401E-03     25.8681E-03    -13.0280E-03     21.8590E-03    -12.9316E-03     25.8127E-03    -12.9938E-03     21.9125E-03
            1134     6.21874E-03     100.421E-03    -24.4848E+06    -21.3991E+06    -5.20349E+06     2.73017E+06    -12.8379E-03     25.8416E-03    -13.0037E-03     26.2501E-03    -12.9223E-03     25.7782E-03    -12.9632E-03     26.2839E-03
            1135     7.10742E-03     100.445E-03    -22.6247E+06    -22.3408E+06    -4.55905E+06     691.412E+03    -12.8964E-03     25.8737E-03    -12.9773E-03     31.0327E-03    -12.9714E-03     25.8023E-03    -12.9349E-03     31.0396E-03
            1136     7.99604E-03     100.473E-03    -20.4105E+06    -21.9519E+06    -3.12523E+06    -2.50454E+06    -13.0550E-03     26.0158E-03    -12.9608E-03     36.2887E-03    -13.1222E-03     25.9416E-03    -12.9150E-03     36.2536E-03
            1137     8.88454E-03     100.505E-03    -18.2074E+06    -23.0271E+06    -707.880E+03    -5.19867E+06    -13.3573E-03     26.3246E-03    -12.9673E-03     41.9730E-03    -13.4165E-03     26.2395E-03    -12.9110E-03     41.9017E-03
            1138     9.77285E-03     100.543E-03    -16.5695E+06    -23.9643E+06     1.22551E+06    -7.11655E+06    -13.8373E-03     26.8334E-03    -12.9961E-03     48.0012E-03    -13.8920E-03     26.7406E-03    -12.9312E-03     47.9028E-03
            1139     10.6607E-03     100.586E-03    -14.1624E+06    -23.6574E+06     2.40444E+06    -10.6262E+06    -14.5439E-03     27.5950E-03    -13.0512E-03     54.2511E-03    -14.5926E-03     27.5025E-03    -12.9843E-03     54.1034E-03
            1140     11.5481E-03     100.635E-03    -10.8851E+06    -18.0022E+06     4.35102E+06    -12.7068E+06    -15.5046E-03     28.6478E-03    -13.1432E-03     60.5453E-03    -15.5553E-03     28.5834E-03    -13.0796E-03     60.3648E-03
            1141     12.4345E-03     100.689E-03    -8.33129E+06    -23.2145E+06     4.59378E+06    -12.1716E+06    -16.9379E-03     30.2362E-03    -13.2983E-03     68.8502E-03    -16.9840E-03     30.1571E-03    -13.2296E-03     68.6666E-03
            1142     13.3200E-03     100.754E-03    -6.66923E+06    -39.6471E+06    -5.71543E+06    -11.3985E+06    -18.6393E-03     32.1240E-03    -13.4847E-03     74.9136E-03    -18.6631E-03     32.0000E-03    -13.4461E-03     74.7269E-03
            1143     14.2035E-03     100.820E-03    -5.62463E+06    -27.3181E+06    -5.40612E+06    -11.5218E+06    -20.1797E-03     33.9279E-03    -13.7482E-03     77.4248E-03    -20.2546E-03     33.9016E-03    -13.7274E-03     77.2244E-03
            1144     15.0868E-03     100.890E-03    -4.01726E+06    -5.97091E+06    -1.86819E+06    -10.8937E+06    -22.8116E-03     36.8819E-03    -14.0703E-03     101.727E-03    -23.0917E-03     37.1320E-03    -14.0651E-03     101.533E-03
            1145     15.9671E-03     101.005E-03    -3.07711E+06     9.09988E+06    -11.2418E+06    -8.20878E+06    -25.6163E-03     39.9841E-03    -14.3678E-03     146.584E-03    -26.8783E-03     41.3002E-03    -14.4328E-03     146.749E-03
            1146     16.8485E-03     101.161E-03    -2.86914E+06     85.8835E+06     13.4121E+06    -4.03063E+06    -25.5546E-03     40.2798E-03    -14.7252E-03     164.857E-03    -28.1303E-03     43.1113E-03    -14.7785E-03     166.569E-03
            1147     888.755E-06     101.325E-03    -36.0487E+06    -36.1642E+06    -35.0610E+06     4.47924E+06    -12.5356E-03     25.0635E-03    -12.5279E-03     3.74584E-03    -12.6124E-03     24.9864E-03    -12.5985E-03     3.80337E-03
            1148     1.77742E-03     101.329E-03    -34.7330E+06    -29.8254E+06    -30.7450E+06     7.89239E+06    -12.4968E-03     25.0333E-03    -12.5365E-03     6.94506E-03    -12.5826E-03     24.9791E-03    -12.5966E-03     7.04656E-03
            1149     2.66625E-03     101.336E-03    -33.3707E+06    -22.1105E+06    -24.3701E+06     9.61644E+06    -12.4466E-03     24.9848E-03    -12.5382E-03     10.4160E-03    -12.5461E-03     24.9580E-03    -12.5796E-03     10.5397E-03
            1150     3.55498E-03     101.345E-03    -32.2345E+06    -18.9505E+06    -17.8262E+06     9.09850E+06    -12.4152E-03     24.9589E-03    -12.5437E-03     14.0867E-03    -12.5232E-03     24.9368E-03    -12.5586E-03     14.2035E-03
            1151     4.44396E-03     101.358E-03    -30.7335E+06    -19.7442E+06    -12.2585E+06     7.45795E+06    -12.4126E-03     24.9623E-03    -12.5498E-03     17.9382E-03    -12.5200E-03     24.9261E-03    -12.5379E-03     18.0337E-03
            1152     5.33272E-03     101.374E-03    -28.6985E+06    -20.0115E+06    -8.36656E+06     5.67451E+06    -12.4287E-03     24.9763E-03    -12.5476E-03     22.0327E-03    -12.5314E-03     24.9303E-03    -12.5188E-03     22.1050E-03
            1153     6.22173E-03     101.394E-03    -26.3512E+06    -19.4447E+06    -6.30539E+06     3.49170E+06    -12.4604E-03     24.9962E-03    -12.5358E-03     26.4620E-03    -12.5553E-03     24.9468E-03    -12.5009E-03     26.5058E-03
            1154     7.11063E-03     101.417E-03    -23.6225E+06    -19.3105E+06    -5.25280E+06     432.485E+03    -12.5552E-03     25.0775E-03    -12.5223E-03     31.3129E-03    -12.6385E-03     25.0236E-03    -12.4863E-03     31.3168E-03
            1155     7.99952E-03     101.445E-03    -21.2528E+06    -17.8588E+06    -3.51834E+06    -2.70200E+06    -12.7388E-03     25.2580E-03    -12.5193E-03     36.6952E-03    -12.8154E-03     25.2060E-03    -12.4802E-03     36.6579E-03
            1156     8.88830E-03     101.478E-03    -19.4172E+06    -20.2131E+06    -1.54642E+06    -5.48844E+06    -13.0581E-03     25.5968E-03    -12.5387E-03     42.5587E-03    -13.1261E-03     25.5285E-03    -12.4890E-03     42.4841E-03
            1157     9.77683E-03     101.516E-03    -16.7912E+06    -20.7758E+06     594.522E+03    -7.88111E+06    -13.5745E-03     26.1531E-03    -12.5785E-03     48.8745E-03    -13.6337E-03     26.0771E-03    -12.5211E-03     48.7668E-03
            1158     10.6650E-03     101.560E-03    -15.0464E+06    -17.6889E+06     2.76389E+06    -11.1963E+06    -14.3525E-03     27.0017E-03    -12.6492E-03     55.4578E-03    -14.4146E-03     26.9395E-03    -12.5879E-03     55.3034E-03
            1159     11.5524E-03     101.609E-03    -13.9564E+06    -16.1819E+06     3.42456E+06    -14.2555E+06    -15.4571E-03     28.2203E-03    -12.7632E-03     62.1405E-03    -15.5242E-03     28.1705E-03    -12.7024E-03     61.9406E-03
            1160     12.4391E-03     101.666E-03    -10.9656E+06    -23.2302E+06     3.14931E+06    -14.6342E+06    -17.0404E-03     29.9836E-03    -12.9431E-03     70.9803E-03    -17.0977E-03     29.9104E-03    -12.8778E-03     70.7652E-03
            1161     13.3240E-03     101.732E-03    -6.93592E+06    -39.4343E+06    -6.32129E+06    -14.1449E+06    -18.9892E-03     32.1520E-03    -13.1629E-03     77.4554E-03    -19.0145E-03     32.0312E-03    -13.1273E-03     77.2328E-03
            1162     14.2080E-03     101.800E-03    -4.05640E+06    -27.1524E+06    -5.07995E+06    -12.7717E+06    -21.0752E-03     34.5549E-03    -13.4796E-03     80.5272E-03    -21.1469E-03     34.5305E-03    -13.4598E-03     80.3071E-03
            1163     15.0887E-03     101.873E-03    -2.81724E+06    -5.34167E+06    -722.158E+03    -12.1438E+06    -23.8108E-03     37.6796E-03    -13.8688E-03     104.652E-03    -24.0930E-03     37.9350E-03    -13.8605E-03     104.434E-03
            1164     15.9707E-03     101.988E-03    -1.41334E+06     3.17631E+06    -11.7697E+06    -9.21785E+06    -26.5471E-03     40.7710E-03    -14.2239E-03     147.918E-03    -27.7727E-03     42.0371E-03    -14.2853E-03     148.040E-03
            1165     16.8507E-03     102.145E-03     11.6568E+03     80.1961E+06     17.1887E+06    -3.59833E+06    -26.8402E-03     41.5005E-03    -14.6603E-03     165.384E-03    -29.3745E-03     44.2697E-03    -14.6907E-03     167.025E-03
            1166     889.160E-06     102.296E-03    -43.5378E+06    -43.3779E+06    -43.3381E+06     2.93743E+06    -11.9896E-03     23.9957E-03    -12.0062E-03     3.74021E-03    -12.0813E-03     23.9054E-03    -12.0969E-03     3.77786E-03
            1167     1.77842E-03     102.301E-03    -39.6303E+06    -37.4779E+06    -37.4740E+06     6.11586E+06    -11.9600E-03     23.9614E-03    -12.0014E-03     6.96486E-03    -12.0494E-03     23.8858E-03    -12.0769E-03     7.04351E-03
            1168     2.66760E-03     102.307E-03    -35.7467E+06    -28.0292E+06    -29.3395E+06     9.85020E+06    -11.9275E-03     23.9298E-03    -12.0023E-03     10.4645E-03    -12.0231E-03     23.8841E-03    -12.0565E-03     10.5912E-03
            1169     3.55697E-03     102.317E-03    -33.1825E+06    -20.6285E+06    -20.7823E+06     11.1332E+06    -11.9108E-03     23.9222E-03    -12.0114E-03     14.1474E-03    -12.0167E-03     23.8974E-03    -12.0373E-03     14.2905E-03
            1170     4.44615E-03     102.330E-03    -31.2057E+06    -18.8516E+06    -13.9602E+06     9.14363E+06    -11.9388E-03     23.9642E-03    -12.0254E-03     18.0430E-03    -12.0474E-03     23.9355E-03    -12.0226E-03     18.1603E-03
            1171     5.33557E-03     102.346E-03    -28.3360E+06    -18.5766E+06    -9.16107E+06     6.18066E+06    -12.0077E-03     24.0443E-03    -12.0367E-03     22.1653E-03    -12.1094E-03     24.0060E-03    -12.0144E-03     22.2442E-03
            1172     6.22472E-03     102.366E-03    -25.0763E+06    -17.2125E+06    -6.19870E+06     3.54707E+06    -12.0999E-03     24.1424E-03    -12.0425E-03     26.6237E-03    -12.1918E-03     24.1021E-03    -12.0122E-03     26.6684E-03
            1173     7.11401E-03     102.389E-03    -22.7720E+06    -15.4061E+06    -4.64812E+06     437.968E+03    -12.2226E-03     24.2697E-03    -12.0471E-03     31.5544E-03    -12.3081E-03     24.2331E-03    -12.0150E-03     31.5586E-03
            1174     8.00318E-03     102.417E-03    -20.9028E+06    -14.6033E+06    -3.58647E+06    -2.71917E+06    -12.4118E-03     24.4697E-03    -12.0580E-03     37.0373E-03    -12.4911E-03     24.4334E-03    -12.0244E-03     37.0001E-03
            1175     8.89228E-03     102.450E-03    -18.8318E+06    -16.2768E+06    -1.86361E+06    -5.68092E+06    -12.7480E-03     24.8359E-03    -12.0879E-03     43.0908E-03    -12.8180E-03     24.7867E-03    -12.0464E-03     43.0142E-03
            1176     9.78111E-03     102.488E-03    -16.3836E+06    -16.4753E+06     591.257E+03    -9.56848E+06    -13.2966E-03     25.4381E-03    -12.1415E-03     49.6932E-03    -13.3596E-03     25.3828E-03    -12.0909E-03     49.5644E-03
            1177     10.6695E-03     102.533E-03    -13.1062E+06    -14.2176E+06     3.67078E+06    -11.6135E+06    -14.1343E-03     26.3630E-03    -12.2287E-03     56.6485E-03    -14.1925E-03     26.3135E-03    -12.1707E-03     56.4896E-03
            1178     11.5572E-03     102.584E-03    -12.3402E+06    -12.8363E+06     5.12380E+06    -12.6545E+06    -15.3646E-03     27.7284E-03    -12.3638E-03     63.8263E-03    -15.4305E-03     27.6901E-03    -12.3016E-03     63.6478E-03
            1179     12.4436E-03     102.641E-03    -12.6546E+06    -19.7637E+06     3.69632E+06    -16.4807E+06    -17.0696E-03     29.6340E-03    -12.5644E-03     73.2249E-03    -17.1409E-03     29.5796E-03    -12.4989E-03     72.9867E-03
            1180     13.3291E-03     102.710E-03    -9.54851E+06    -38.7414E+06    -7.00186E+06    -19.1139E+06    -19.2585E-03     32.0713E-03    -12.8128E-03     80.3256E-03    -19.2974E-03     31.9591E-03    -12.7777E-03     80.0387E-03
            1181     14.2120E-03     102.780E-03    -3.44218E+06    -29.1018E+06    -5.74773E+06    -17.8690E+06    -21.6450E-03     34.8138E-03    -13.1687E-03     83.9391E-03    -21.7122E-03     34.7822E-03    -13.1503E-03     83.6511E-03
            1182     15.0940E-03     102.856E-03     406.706E+03    -8.85297E+06    -480.982E+03    -12.4591E+06    -24.7359E-03     38.3494E-03    -13.6135E-03     107.423E-03    -25.0005E-03     38.5855E-03    -13.6036E-03     107.193E-03
            1183     15.9724E-03     102.972E-03    -3.80540E+06    -1.56835E+06    -12.7087E+06    -7.30039E+06    -27.8694E-03     41.9096E-03    -14.0401E-03     149.539E-03    -29.0791E-03     43.1370E-03    -14.0959E-03     149.640E-03
            1184     16.8521E-03     103.130E-03    -5.23211E+06     76.7937E+06     17.7488E+06    -4.95546E+06    -28.4624E-03     43.0290E-03    -14.5666E-03     166.386E-03    -30.9936E-03     45.7629E-03    -14.5816E-03     167.903E-03
            1185     889.625E-06     103.267E-03    -56.3161E+06    -46.2255E+06    -56.4676E+06    -76.7773E+03    -11.4293E-03     22.8843E-03    -11.4551E-03     3.73466E-03    -11.5618E-03     22.8173E-03    -11.5887E-03     3.73350E-03
            1186     1.77929E-03     103.271E-03    -51.8017E+06    -42.7090E+06    -50.7831E+06     1.16899E+06    -11.4005E-03     22.8445E-03    -11.4440E-03     6.98637E-03    -11.5239E-03     22.7797E-03    -11.5608E-03     7.00120E-03
            1187     2.66911E-03     103.278E-03    -43.8468E+06    -34.8108E+06    -41.0158E+06     4.35213E+06    -11.3895E-03     22.8357E-03    -11.4463E-03     10.4694E-03    -11.4987E-03     22.7847E-03    -11.5373E-03     10.5253E-03
            1188     3.55878E-03     103.288E-03    -34.7930E+06    -24.6906E+06    -28.0838E+06     8.01906E+06    -11.3965E-03     22.8592E-03    -11.4628E-03     14.1341E-03    -11.4940E-03     22.8270E-03    -11.5170E-03     14.2372E-03
            1189     4.44866E-03     103.301E-03    -28.6721E+06    -18.7125E+06    -16.5680E+06     9.11255E+06    -11.4623E-03     22.9526E-03    -11.4903E-03     18.0632E-03    -11.5546E-03     22.9248E-03    -11.5045E-03     18.1803E-03
            1190     5.33820E-03     103.317E-03    -26.1993E+06    -16.2073E+06    -9.59949E+06     6.78825E+06    -11.5815E-03     23.1001E-03    -11.5185E-03     22.2329E-03    -11.6753E-03     23.0712E-03    -11.5050E-03     22.3198E-03
            1191     6.22796E-03     103.336E-03    -24.0085E+06    -14.4611E+06    -6.01659E+06     3.19342E+06    -11.7228E-03     23.2657E-03    -11.5429E-03     26.7223E-03    -11.8136E-03     23.2374E-03    -11.5172E-03     26.7625E-03
            1192     7.11744E-03     103.360E-03    -20.9355E+06    -12.1472E+06    -3.77855E+06     264.925E+03    -11.8778E-03     23.4432E-03    -11.5654E-03     31.6867E-03    -11.9600E-03     23.4189E-03    -11.5363E-03     31.6888E-03
            1193     8.00696E-03     103.388E-03    -18.6627E+06    -11.0681E+06    -2.52556E+06    -2.54392E+06    -12.0965E-03     23.6885E-03    -11.5920E-03     37.2468E-03    -12.1712E-03     23.6650E-03    -11.5615E-03     37.2121E-03
            1194     8.89629E-03     103.421E-03    -16.8699E+06    -11.7861E+06    -1.00644E+06    -6.09627E+06    -12.4495E-03     24.0842E-03    -11.6347E-03     43.4666E-03    -12.5173E-03     24.0531E-03    -11.5982E-03     43.3851E-03
            1195     9.78542E-03     103.460E-03    -15.1903E+06    -10.8300E+06     1.77647E+06    -10.0645E+06    -12.9981E-03     24.7000E-03    -11.7019E-03     50.3353E-03    -13.0647E-03     24.6691E-03    -11.6553E-03     50.2007E-03
            1196     10.6741E-03     103.506E-03    -14.1378E+06    -12.7094E+06     3.18876E+06    -12.6415E+06    -13.8436E-03     25.6438E-03    -11.8002E-03     57.7205E-03    -13.9079E-03     25.6035E-03    -11.7453E-03     57.5492E-03
            1197     11.5620E-03     103.558E-03    -11.9989E+06    -11.8201E+06     5.04512E+06    -11.8439E+06    -15.1332E-03     27.0787E-03    -11.9455E-03     65.5381E-03    -15.1980E-03     27.0443E-03    -11.8857E-03     65.3712E-03
            1198     12.4489E-03     103.617E-03    -11.9147E+06    -11.6163E+06     6.47092E+06    -14.2440E+06    -17.0468E-03     29.2118E-03    -12.1650E-03     75.5056E-03    -17.1297E-03     29.1924E-03    -12.0986E-03     75.2970E-03
            1199     13.3338E-03     103.687E-03    -13.2815E+06    -33.2309E+06    -5.83759E+06    -21.8457E+06    -19.4949E-03     31.9383E-03    -12.4434E-03     83.3501E-03    -19.5624E-03     31.8576E-03    -12.4051E-03     83.0280E-03
            1200     14.2172E-03     103.761E-03    -11.6563E+06    -30.6140E+06    -8.88692E+06    -24.5144E+06    -22.1142E-03     34.9471E-03    -12.8329E-03     87.4294E-03    -22.2172E-03     34.9259E-03    -12.8160E-03     87.0539E-03
            1201     15.0974E-03     103.839E-03    -5.36080E+06    -18.4019E+06    -4.53431E+06    -18.6951E+06    -25.8270E-03     39.1653E-03    -13.3383E-03     110.264E-03    -26.1048E-03     39.3721E-03    -13.3265E-03     109.942E-03
            1202     15.9776E-03     103.958E-03     4.90980E+06    -9.16888E+06    -10.8021E+06    -7.66203E+06    -29.3324E-03     43.1812E-03    -13.8487E-03     150.303E-03    -30.4590E-03     44.3241E-03    -13.8966E-03     150.346E-03
            1203     16.8548E-03     104.116E-03     6.66146E+06     75.8989E+06     28.3200E+06    -157.395E+03    -30.5400E-03     45.0391E-03    -14.4992E-03     167.238E-03    -33.0062E-03     47.7164E-03    -14.4773E-03     168.685E-03
            1204     890.089E-06     104.236E-03    -67.0819E+06    -43.9806E+06    -66.8162E+06    -2.53436E+06    -10.9186E-03     21.8034E-03    -10.8849E-03     3.72992E-03    -11.0932E-03     21.7783E-03    -11.0579E-03     3.69700E-03
            1205     1.78024E-03     104.241E-03    -63.3337E+06    -42.0577E+06    -62.2695E+06    -4.17639E+06    -10.9080E-03     21.8205E-03    -10.9125E-03     6.95668E-03    -11.0733E-03     21.7923E-03    -11.0710E-03     6.90255E-03
            1206     2.67028E-03     104.248E-03    -56.4916E+06    -37.1291E+06    -54.7935E+06    -4.72216E+06    -10.8935E-03     21.8161E-03    -10.9227E-03     10.4267E-03    -11.0427E-03     21.7919E-03    -11.0609E-03     10.3654E-03
            1207     3.56059E-03     104.257E-03    -45.7959E+06    -29.5630E+06    -42.9300E+06    -2.33773E+06    -10.9154E-03     21.8562E-03    -10.9408E-03     14.0545E-03    -11.0393E-03     21.8371E-03    -11.0462E-03     14.0240E-03
            1208     4.45070E-03     104.270E-03    -33.4708E+06    -22.1737E+06    -28.2795E+06     2.13855E+06    -10.9885E-03     21.9635E-03    -10.9750E-03     17.8892E-03    -11.0828E-03     21.9423E-03    -11.0357E-03     17.9164E-03
            1209     5.34102E-03     104.287E-03    -23.9722E+06    -15.5521E+06    -14.4987E+06     4.68546E+06    -11.1181E-03     22.1383E-03    -11.0202E-03     22.0492E-03    -11.1946E-03     22.1165E-03    -11.0354E-03     22.1090E-03
            1210     6.23085E-03     104.306E-03    -19.9194E+06    -11.4558E+06    -5.71752E+06     3.36854E+06    -11.3095E-03     22.3760E-03    -11.0665E-03     26.6015E-03    -11.3846E-03     22.3562E-03    -11.0496E-03     26.6441E-03
            1211     7.12082E-03     104.330E-03    -18.6561E+06    -9.13416E+06    -2.37647E+06     256.010E+03    -11.5302E-03     22.6367E-03    -11.1065E-03     31.6037E-03    -11.6074E-03     22.6221E-03    -11.0781E-03     31.6058E-03
            1212     8.01058E-03     104.358E-03    -16.5588E+06    -7.26158E+06    -790.563E+03    -2.94887E+06    -11.7908E-03     22.9388E-03    -11.1480E-03     37.2273E-03    -11.8629E-03     22.9286E-03    -11.1174E-03     37.1875E-03
            1213     8.90022E-03     104.392E-03    -14.2352E+06    -6.99831E+06      966.69E+03    -6.40594E+06    -12.1494E-03     23.3528E-03    -11.2033E-03     43.5934E-03    -12.2136E-03     23.3388E-03    -11.1677E-03     43.5082E-03
            1214     9.78956E-03     104.431E-03    -13.5308E+06    -6.86865E+06     3.10243E+06    -8.89324E+06    -12.6675E-03     23.9472E-03    -11.2797E-03     50.7019E-03    -12.7330E-03     23.9313E-03    -11.2346E-03     50.5830E-03
            1215     10.6786E-03     104.477E-03    -13.8570E+06    -9.10142E+06     4.51497E+06    -11.2441E+06    -13.5082E-03     24.8947E-03    -11.3865E-03     58.4988E-03    -13.5775E-03     24.8693E-03    -11.3306E-03     58.3466E-03
            1216     11.5669E-03     104.531E-03    -13.3163E+06    -12.0352E+06     4.76943E+06    -13.1216E+06    -14.8463E-03     26.3834E-03    -11.5371E-03     66.9500E-03    -14.9159E-03     26.3492E-03    -11.4765E-03     66.7680E-03
            1217     12.4540E-03     104.592E-03    -10.6681E+06     -6.7035E+06     8.54640E+06    -12.9872E+06    -16.8910E-03     28.6569E-03    -11.7659E-03     77.7152E-03    -16.9763E-03     28.6558E-03    -11.6980E-03     77.5244E-03
            1218     13.3393E-03     104.664E-03    -11.6502E+06    -21.3626E+06     300.255E+03    -18.1484E+06    -19.6543E-03     31.7279E-03    -12.0736E-03     86.2957E-03    -19.7389E-03     31.6945E-03    -12.0243E-03     86.0218E-03
            1219     14.2220E-03     104.741E-03    -14.8572E+06    -27.8623E+06    -8.68556E+06    -25.5787E+06    -22.6705E-03     35.1620E-03    -12.4914E-03     90.8814E-03    -22.7942E-03     35.1593E-03    -12.4729E-03     90.4902E-03
            1220     15.1028E-03     104.823E-03    -14.1701E+06    -24.8996E+06    -9.24516E+06    -26.0288E+06    -26.5866E-03     39.6284E-03    -13.0418E-03     114.460E-03    -26.8901E-03     39.8201E-03    -13.0313E-03     114.037E-03
            1221     15.9780E-03     104.945E-03    -9.93759E+06    -23.3732E+06    -23.0961E+06    -18.8399E+06    -31.6490E-03     45.2697E-03    -13.6207E-03     153.660E-03    -32.7725E-03     46.3423E-03    -13.6879E-03     153.487E-03
            1222     16.8562E-03     105.102E-03    -1.54157E+06     67.0939E+06     26.8810E+06    -1.99164E+06    -33.1858E-03     47.6245E-03    -14.4387E-03     167.967E-03    -35.6514E-03     50.2451E-03    -14.3993E-03     169.240E-03
            1223     890.569E-06     105.205E-03    -60.4960E+06    -38.0203E+06    -60.1360E+06    -3.61795E+06    -10.5432E-03     21.0086E-03    -10.4654E-03     3.63925E-03    -10.7032E-03     20.9940E-03    -10.6232E-03     3.59225E-03
            1224     1.78093E-03     105.209E-03    -59.4491E+06    -36.2860E+06    -58.2508E+06    -6.89338E+06    -10.5256E-03     21.0371E-03    -10.5114E-03     6.76331E-03    -10.6858E-03     21.0263E-03    -10.6639E-03     6.67406E-03
            1225     2.67150E-03     105.216E-03    -57.4120E+06    -33.1025E+06    -54.7357E+06    -9.94624E+06    -10.5388E-03     21.0636E-03    -10.5248E-03     10.2131E-03    -10.6985E-03     21.0607E-03    -10.6672E-03     10.0845E-03
            1226     3.56187E-03     105.226E-03    -53.4861E+06    -30.1844E+06    -49.3458E+06    -11.0854E+06    -10.5808E-03     21.1253E-03    -10.5446E-03     13.7921E-03    -10.7330E-03     21.1236E-03    -10.6700E-03     13.6487E-03
            1227     4.45242E-03     105.239E-03    -45.4548E+06    -25.6609E+06    -41.3966E+06    -9.43064E+06    -10.6181E-03     21.1861E-03    -10.5680E-03     17.5132E-03    -10.7483E-03     21.1838E-03    -10.6718E-03     17.3910E-03
            1228     5.34281E-03     105.255E-03    -33.2768E+06    -18.5147E+06    -30.2235E+06    -5.62947E+06    -10.6800E-03     21.2747E-03    -10.5947E-03     21.5524E-03    -10.7760E-03     21.2744E-03    -10.6707E-03     21.4791E-03
            1229     6.23355E-03     105.276E-03    -21.3223E+06    -12.0889E+06    -15.4560E+06    -1.42987E+06    -10.8497E-03     21.4956E-03    -10.6459E-03     26.0364E-03    -10.9167E-03     21.4888E-03    -10.6747E-03     26.0172E-03
            1230     7.12373E-03     105.300E-03    -14.4926E+06    -6.67679E+06    -2.76204E+06    -297.735E+03    -11.1312E-03     21.8434E-03    -10.7122E-03     31.0763E-03    -11.1905E-03     21.8356E-03    -10.6953E-03     31.0714E-03
            1231     8.01378E-03     105.328E-03    -12.6233E+06    -3.23560E+06     2.22734E+06    -2.79775E+06    -11.4648E-03     22.2348E-03    -10.7699E-03     36.7941E-03    -11.5274E-03     22.2346E-03    -10.7358E-03     36.7564E-03
            1232     8.90366E-03     105.362E-03    -12.0752E+06    -2.73762E+06     3.40207E+06    -6.02084E+06    -11.8319E-03     22.6626E-03    -10.8306E-03     43.2419E-03    -11.8948E-03     22.6630E-03    -10.7921E-03     43.1620E-03
            1233     9.79338E-03     105.402E-03    -10.4430E+06    -4.28060E+06     5.50532E+06    -8.31725E+06    -12.3437E-03     23.2564E-03    -10.9128E-03     50.5379E-03    -12.4005E-03     23.2450E-03    -10.8639E-03     50.4271E-03
            1234     10.6827E-03     105.448E-03    -8.63180E+06    -5.62438E+06     8.39764E+06    -9.79605E+06    -13.1869E-03     24.2121E-03    -11.0252E-03     58.7350E-03    -13.2398E-03     24.1900E-03    -10.9625E-03     58.6025E-03
            1235     11.5712E-03     105.503E-03    -8.19655E+06    -8.98052E+06     9.42997E+06    -11.8807E+06    -14.5572E-03     25.7395E-03    -11.1823E-03     67.8355E-03    -14.6109E-03     25.7049E-03    -11.1102E-03     67.6710E-03
            1236     12.4586E-03     105.566E-03    -8.80366E+06    -6.44405E+06     10.2123E+06    -12.9972E+06    -16.6199E-03     28.0261E-03    -11.4062E-03     79.4874E-03    -16.6962E-03     28.0188E-03    -11.3331E-03     79.2985E-03
            1237     13.3443E-03     105.641E-03    -7.76696E+06    -11.2534E+06     8.06377E+06    -15.0630E+06    -19.5558E-03     31.2876E-03    -11.7318E-03     89.2410E-03    -19.6436E-03     31.2846E-03    -11.6639E-03     89.0089E-03
            1238     14.2270E-03     105.722E-03    -8.44918E+06    -18.5601E+06     412.495E+03    -22.0696E+06    -23.0996E-03     35.2753E-03    -12.1758E-03     94.6271E-03    -23.2159E-03     35.2948E-03    -12.1346E-03     94.2803E-03
            1239     15.1064E-03     105.807E-03    -10.3522E+06    -24.7147E+06    -4.42770E+06    -27.0301E+06    -27.1345E-03     39.8936E-03    -12.7591E-03     117.269E-03    -27.4184E-03     40.0659E-03    -12.7304E-03     116.826E-03
            1240     15.9881E-03     105.932E-03    -22.4024E+06    -29.3868E+06    -26.5410E+06    -21.3633E+06    -33.0095E-03     46.3870E-03    -13.3774E-03     159.745E-03    -34.1092E-03     47.3800E-03    -13.4350E-03     159.482E-03
            1241     16.8540E-03     106.101E-03    -25.1595E+06     52.0010E+06     10.5913E+06    -10.1304E+06    -35.4933E-03     49.7352E-03    -14.2418E-03     172.890E-03    -37.9587E-03     52.2653E-03    -14.2278E-03     173.917E-03
            1242     890.637E-06     106.173E-03    -43.4221E+06    -30.9157E+06    -42.9919E+06    -3.53843E+06    -10.3214E-03     20.6002E-03    -10.2788E-03     3.47585E-03    -10.4312E-03     20.5716E-03    -10.3860E-03     3.42985E-03
            1243     1.78151E-03     106.178E-03    -43.0591E+06    -28.5368E+06    -41.8758E+06    -7.07193E+06    -10.3182E-03     20.6223E-03    -10.3040E-03     6.44322E-03    -10.4314E-03     20.6028E-03    -10.4096E-03     6.35158E-03
            1244     2.67213E-03     106.184E-03    -42.9267E+06    -26.5184E+06    -39.9851E+06    -10.2700E+06    -10.3849E-03     20.7075E-03    -10.3226E-03     9.75234E-03    -10.5031E-03     20.6952E-03    -10.4219E-03     9.61937E-03
            1245     3.56285E-03     106.195E-03    -42.6880E+06    -25.5585E+06    -37.8115E+06    -12.7935E+06    -10.4467E-03     20.7984E-03    -10.3516E-03     13.1908E-03    -10.5684E-03     20.7874E-03    -10.4417E-03     13.0251E-03
            1246     4.45335E-03     106.207E-03    -41.5252E+06    -23.7096E+06    -35.7291E+06    -14.9528E+06    -10.4795E-03     20.8547E-03    -10.3751E-03     16.7789E-03    -10.6012E-03     20.8483E-03    -10.4592E-03     16.5853E-03
            1247     5.34412E-03     106.224E-03    -38.0874E+06    -20.0145E+06    -32.9958E+06    -15.1226E+06    -10.5046E-03     20.8936E-03    -10.3890E-03     20.6529E-03    -10.6185E-03     20.8969E-03    -10.4697E-03     20.4569E-03
            1248     6.23462E-03     106.244E-03     -30.203E+06    -15.7488E+06    -25.9834E+06    -12.2427E+06    -10.5528E-03     20.9635E-03    -10.4107E-03     24.9208E-03    -10.6437E-03     20.9667E-03    -10.4740E-03     24.7618E-03
            1249     7.12553E-03     106.268E-03    -18.8372E+06    -8.05591E+06    -13.8784E+06    -7.73831E+06    -10.7118E-03     21.1606E-03    -10.4488E-03     29.8193E-03    -10.7748E-03     21.1684E-03    -10.4792E-03     29.7183E-03
            1250     8.01604E-03     106.297E-03    -9.87116E+06    -1.74881E+06    -1.14266E+06    -4.71808E+06    -11.0420E-03     21.5515E-03    -10.5095E-03     35.5236E-03    -11.0880E-03     21.5596E-03    -10.4983E-03     35.4613E-03
            1251     8.90619E-03     106.331E-03    -6.54024E+06     705.552E+03     7.00421E+06    -5.10885E+06    -11.4864E-03     22.0701E-03    -10.5836E-03     42.0630E-03    -11.5317E-03     22.0743E-03    -10.5401E-03     41.9951E-03
            1252     9.79610E-03     106.371E-03    -6.59111E+06    -1.24865E+06     9.49585E+06    -7.45635E+06    -12.0409E-03     22.7057E-03    -10.6648E-03     49.5312E-03    -12.0882E-03     22.6977E-03    -10.6060E-03     49.4321E-03
            1253     10.6857E-03     106.419E-03    -6.55116E+06    -3.39105E+06     11.1573E+06    -9.22152E+06    -12.8386E-03     23.6087E-03    -10.7701E-03     58.1245E-03    -12.8873E-03     23.5898E-03    -10.6999E-03     58.0006E-03
            1254     11.5746E-03     106.474E-03    -5.65998E+06    -5.62737E+06     12.9620E+06    -10.5140E+06    -14.1597E-03     25.0799E-03    -10.9203E-03     67.9240E-03    -14.2086E-03     25.0513E-03    -10.8391E-03     67.7791E-03
            1255     12.4624E-03     106.539E-03    -4.01944E+06    -4.91197E+06     15.0966E+06    -11.8496E+06    -16.2652E-03     27.4052E-03    -11.1401E-03     80.4681E-03    -16.3234E-03     27.3880E-03    -11.0516E-03     80.2967E-03
            1256     13.3483E-03     106.617E-03    -3.45064E+06    -5.72435E+06     14.8786E+06    -14.4582E+06    -19.0588E-03     30.5134E-03    -11.4546E-03     91.5542E-03    -19.1370E-03     30.5159E-03    -11.3669E-03     91.3341E-03
            1257     14.2320E-03     106.702E-03    -3.32707E+06    -7.47581E+06     12.6883E+06    -19.1997E+06    -23.1742E-03     35.0854E-03    -11.9112E-03     98.6793E-03    -23.2929E-03     35.1292E-03    -11.8321E-03     98.3712E-03
            1258     15.1117E-03     106.792E-03    -5.55865E+06    -20.8794E+06     5.30931E+06    -23.2868E+06    -28.8984E-03     41.4503E-03    -12.5520E-03     119.679E-03    -29.1758E-03     41.6188E-03    -12.4871E-03     119.265E-03
            1259     15.9847E-03     106.918E-03    -5.85021E+06    -41.8874E+06    -17.4312E+06    -17.4044E+06    -32.9511E-03     46.1767E-03    -13.2256E-03     159.819E-03    -33.8440E-03     46.9505E-03    -13.2435E-03     159.571E-03
            1260     16.8693E-03     107.094E-03    -1.61263E+06     39.3862E+06     20.2618E+06    -9.82218E+06    -35.9608E-03     50.0468E-03    -14.0859E-03     175.170E-03    -38.1630E-03     52.3249E-03    -14.0394E-03     176.009E-03
            1261     890.868E-06     107.141E-03    -26.0699E+06    -23.7754E+06    -26.0651E+06    -3.47647E+06    -10.3175E-03     20.6217E-03    -10.3042E-03     3.20021E-03    -10.3754E-03     20.5790E-03    -10.3623E-03     3.15501E-03
            1262     1.78153E-03     107.145E-03    -26.3682E+06    -21.3390E+06    -25.4992E+06    -6.43362E+06    -10.3674E-03     20.6873E-03    -10.3199E-03     6.01243E-03    -10.4313E-03     20.6559E-03    -10.3782E-03     5.92896E-03
            1263     2.67230E-03     107.153E-03    -26.6843E+06    -20.0638E+06    -24.2780E+06    -9.09789E+06    -10.4477E-03     20.7985E-03    -10.3508E-03     9.07628E-03    -10.5169E-03     20.7721E-03    -10.4044E-03     8.95826E-03
            1264     3.56286E-03     107.162E-03    -26.5713E+06    -19.4025E+06    -22.2077E+06    -11.7639E+06    -10.5257E-03     20.9166E-03    -10.3909E-03     12.2537E-03    -10.5984E-03     20.8905E-03    -10.4353E-03     12.1011E-03
            1265     4.45356E-03     107.176E-03    -26.4270E+06    -18.2318E+06    -19.6985E+06    -14.2639E+06    -10.6051E-03     21.0378E-03    -10.4327E-03     15.5667E-03    -10.6825E-03     21.0138E-03    -10.4665E-03     15.3816E-03
            1266     5.34396E-03     107.192E-03    -26.5732E+06    -16.9975E+06    -18.0644E+06    -16.2473E+06    -10.6600E-03     21.1278E-03    -10.4678E-03     19.1747E-03    -10.7425E-03     21.1080E-03    -10.4949E-03     18.9638E-03
            1267     6.23463E-03     107.212E-03    -26.0057E+06    -15.2637E+06    -17.6301E+06    -17.6586E+06    -10.6702E-03     21.1572E-03    -10.4870E-03     23.1669E-03    -10.7531E-03     21.1447E-03    -10.5153E-03     22.9376E-03
            1268     7.12511E-03     107.236E-03    -22.4916E+06    -10.9354E+06    -15.7002E+06    -16.6557E+06    -10.6509E-03     21.1441E-03    -10.4932E-03     27.7264E-03    -10.7255E-03     21.1455E-03    -10.5232E-03     27.5099E-03
            1269     8.01600E-03     107.266E-03    -14.5837E+06    -4.25939E+06    -8.01939E+06    -12.7108E+06    -10.7296E-03     21.2398E-03    -10.5102E-03     33.1097E-03    -10.7857E-03     21.2522E-03    -10.5229E-03     32.9441E-03
            1270     8.90676E-03     107.300E-03    -5.72481E+06     295.719E+03     3.08827E+06    -8.36116E+06    -11.0616E-03     21.6154E-03    -10.5538E-03     39.5634E-03    -11.0964E-03     21.6220E-03    -10.5305E-03     39.4537E-03
            1271     9.79695E-03     107.341E-03    -760.212E+03     1.14006E+06     11.9571E+06    -6.63152E+06    -11.6405E-03     22.2628E-03    -10.6222E-03     47.2100E-03    -11.6653E-03     22.2542E-03    -10.5630E-03     47.1219E-03
            1272     10.6867E-03     107.388E-03     554.598E+03    -893.336E+03     16.2613E+06    -7.95006E+06    -12.4636E-03     23.1762E-03    -10.7125E-03     56.1891E-03    -12.4867E-03     23.1509E-03    -10.6307E-03     56.0826E-03
            1273     11.5760E-03     107.445E-03     542.453E+03    -3.89533E+06     18.6569E+06    -8.89662E+06    -13.7400E-03     24.5847E-03    -10.8447E-03     66.6074E-03    -13.7663E-03     24.5450E-03    -10.7465E-03     66.4853E-03
            1274     12.4642E-03     107.512E-03    -570.442E+03    -2.01811E+06     21.4291E+06    -10.1470E+06    -15.6675E-03     26.7089E-03    -11.0414E-03     79.9624E-03    -15.7168E-03     26.6870E-03    -10.9305E-03     79.8165E-03
            1275     13.3508E-03     107.593E-03    -1.65260E+06    -1.00666E+06     21.4965E+06    -12.3270E+06    -18.4164E-03     29.7396E-03    -11.3232E-03     92.1300E-03    -18.4939E-03     29.7454E-03    -11.2118E-03     91.9423E-03
            1276     14.2354E-03     107.680E-03    -4.17919E+06    -528.878E+03     18.7253E+06    -15.5281E+06    -22.7759E-03     34.5244E-03    -11.7485E-03     101.862E-03    -22.9071E-03     34.5849E-03    -11.6480E-03     101.606E-03
            1277     15.1139E-03     107.780E-03    -5.31268E+06    -15.5026E+06     13.0753E+06    -19.4108E+06    -29.4634E-03     41.8612E-03    -12.3978E-03     125.252E-03    -29.7375E-03     42.0238E-03    -12.3022E-03     124.884E-03
            1278     15.9884E-03     107.909E-03     1.16245E+06    -51.9888E+06    -10.5907E+06    -17.6985E+06    -33.5368E-03     46.6427E-03    -13.1059E-03     160.887E-03    -34.2689E-03     47.2248E-03    -13.0851E-03     160.583E-03
            1279     16.8592E-03     108.072E-03     6.75071E+06     25.3635E+06     20.9522E+06    -11.8598E+06    -37.6805E-03     51.6565E-03    -13.9760E-03     185.208E-03    -39.8734E-03     53.9036E-03    -13.9178E-03     185.793E-03
            1280     890.519E-06     108.109E-03    -12.0477E+06    -17.1599E+06    -12.0196E+06    -3.29970E+06    -10.6106E-03     21.2384E-03    -10.6278E-03     2.89243E-03    -10.6282E-03     21.1881E-03    -10.6455E-03     2.84947E-03
            1281     1.78114E-03     108.114E-03    -12.4421E+06    -15.2277E+06    -11.7205E+06    -5.62062E+06    -10.7117E-03     21.3473E-03    -10.6356E-03     5.43634E-03    -10.7349E-03     21.3063E-03    -10.6541E-03     5.36322E-03
            1282     2.67151E-03     108.121E-03    -12.6220E+06    -14.2640E+06    -10.1859E+06    -7.94633E+06    -10.8115E-03     21.4935E-03    -10.6820E-03     8.18748E-03    -10.8392E-03     21.4553E-03    -10.6940E-03     8.08409E-03
            1283     3.56198E-03     108.131E-03    -12.9942E+06    -13.6798E+06    -8.48837E+06    -10.2318E+06    -10.9270E-03     21.6627E-03    -10.7357E-03     10.9815E-03    -10.9600E-03     21.6256E-03    -10.7395E-03     10.8483E-03
            1284     4.45213E-03     108.144E-03    -13.6070E+06    -13.0313E+06    -7.06039E+06    -12.2924E+06    -11.0380E-03     21.8291E-03    -10.7911E-03     13.9157E-03    -11.0772E-03     21.7942E-03    -10.7878E-03     13.7557E-03
            1285     5.34244E-03     108.161E-03    -13.8893E+06    -12.1104E+06    -5.27283E+06    -14.3118E+06    -11.1333E-03     21.9796E-03    -10.8463E-03     17.1003E-03    -11.1781E-03     21.9474E-03    -10.8350E-03     16.9138E-03
            1286     6.23245E-03     108.181E-03    -14.1632E+06    -10.9452E+06    -3.17905E+06    -16.3092E+06    -11.1787E-03     22.0752E-03    -10.8965E-03     20.6517E-03    -11.2298E-03     22.0463E-03    -10.8759E-03     20.4392E-03
            1287     7.12267E-03     108.205E-03    -14.8254E+06    -9.69396E+06    -2.02891E+06    -17.7529E+06    -11.1449E-03     22.0740E-03    -10.9291E-03     24.7458E-03    -11.2030E-03     22.0509E-03    -10.9037E-03     24.5145E-03
            1288     8.01285E-03     108.234E-03    -14.7289E+06    -6.02131E+06    -1.86880E+06    -17.5918E+06    -11.0246E-03     21.9569E-03    -10.9323E-03     29.6047E-03    -11.0880E-03     21.9520E-03    -10.9115E-03     29.3754E-03
            1289     8.90345E-03     108.268E-03    -11.4900E+06    -3.28943E+06     789.143E+03    -14.5928E+06    -10.9816E-03     21.9083E-03    -10.9267E-03     35.5316E-03    -11.0369E-03     21.9087E-03    -10.9013E-03     35.3411E-03
            1290     9.79430E-03     108.309E-03    -5.41357E+06    -75.7638E+03     7.14188E+06    -10.3968E+06    -11.2376E-03     22.1712E-03    -10.9335E-03     42.8673E-03    -11.2766E-03     22.1700E-03    -10.8899E-03     42.7308E-03
            1291     10.6846E-03     108.358E-03    -725.873E+03     805.471E+03     15.2395E+06    -8.26297E+06    -11.9539E-03     22.9337E-03    -10.9797E-03     52.0232E-03    -11.9834E-03     22.9192E-03    -10.9037E-03     51.9136E-03
            1292     11.5741E-03     108.415E-03     1.38462E+06    -3.52736E+06     21.9130E+06    -7.85738E+06    -13.2034E-03     24.2846E-03    -11.0812E-03     63.0481E-03    -13.2283E-03     24.2384E-03    -10.9685E-03     62.9415E-03
            1293     12.4625E-03     108.484E-03     1.62990E+06    -476.128E+03     26.1877E+06    -6.83791E+06    -15.0327E-03     26.2663E-03    -11.2336E-03     76.8226E-03    -15.0746E-03     26.2364E-03    -11.1043E-03     76.7234E-03
            1294     13.3502E-03     108.566E-03    -1.09397E+06     2.48898E+06     26.9599E+06    -7.32403E+06    -17.6092E-03     29.0760E-03    -11.4668E-03     90.1566E-03    -17.6866E-03     29.0803E-03    -11.3340E-03     90.0396E-03
            1295     14.2341E-03     108.659E-03    -3.75010E+06     5.85519E+06     24.6536E+06    -10.8472E+06    -21.6826E-03     33.5084E-03    -11.8258E-03     102.785E-03    -21.8132E-03     33.5751E-03    -11.7056E-03     102.599E-03
            1296     15.1165E-03     108.763E-03    -4.90910E+06    -7.78778E+06     20.1969E+06    -17.1867E+06    -26.9196E-03     39.2845E-03    -12.3649E-03     127.593E-03    -27.1574E-03     39.4188E-03    -12.2455E-03     127.276E-03
            1297     15.9936E-03     108.902E-03    -2.34103E+06    -51.9744E+06    -5.08145E+06    -22.1158E+06    -32.7080E-03     45.6903E-03    -12.9823E-03     161.247E-03    -33.3038E-03     46.1082E-03    -12.9289E-03     160.846E-03
            1298     16.8736E-03     109.059E-03    -1.89204E+06     12.5861E+06     10.0665E+06    -15.5274E+06    -40.4001E-03     54.2233E-03    -13.8232E-03     194.389E-03    -42.5834E-03     56.4162E-03    -13.7884E-03     194.679E-03
            1299     890.104E-06     109.079E-03    -1.21472E+06    -11.1445E+06    -779.204E+03    -2.94287E+06    -11.2957E-03     22.6276E-03    -11.3319E-03     2.59959E-03    -11.2842E-03     22.5755E-03    -11.3179E-03     2.56119E-03
            1300     1.77991E-03     109.083E-03    -1.11245E+06    -10.1573E+06     336.552E+03    -4.77585E+06    -11.4522E-03     22.7984E-03    -11.3462E-03     4.69740E-03    -11.4436E-03     22.7488E-03    -11.3282E-03     4.63504E-03
            1301     2.66987E-03     109.090E-03    -1.55775E+06    -9.35452E+06     1.22960E+06    -6.55710E+06    -11.5882E-03     22.9976E-03    -11.4093E-03     7.01481E-03    -11.5844E-03     22.9513E-03    -11.3874E-03     6.92908E-03
            1302     3.55941E-03     109.100E-03    -2.13278E+06    -8.93686E+06     2.12956E+06    -8.35070E+06    -11.7385E-03     23.2178E-03    -11.4794E-03     9.36116E-03    -11.7395E-03     23.1733E-03    -11.4527E-03     9.25188E-03
            1303     4.44909E-03     109.114E-03    -2.63626E+06    -8.43084E+06     3.38802E+06    -10.1720E+06    -11.8919E-03     23.4467E-03    -11.5548E-03     11.8304E-03    -11.8982E-03     23.4038E-03    -11.5218E-03     11.6972E-03
            1304     5.33840E-03     109.130E-03    -3.50382E+06    -7.76235E+06     5.10648E+06    -11.8569E+06    -12.0199E-03     23.6527E-03    -11.6328E-03     14.4897E-03    -12.0342E-03     23.6121E-03    -11.5909E-03     14.3343E-03
            1305     6.22783E-03     109.151E-03    -4.88194E+06    -6.82349E+06     6.70669E+06    -13.2244E+06    -12.0987E-03     23.8037E-03    -11.7050E-03     17.4748E-03    -12.1239E-03     23.7678E-03    -11.6545E-03     17.3013E-03
            1306     7.11710E-03     109.175E-03    -6.31238E+06    -6.11307E+06     8.32585E+06    -14.5146E+06    -12.1212E-03     23.8882E-03    -11.7670E-03     20.9494E-03    -12.1572E-03     23.8558E-03    -11.7074E-03     20.7590E-03
            1307     8.00647E-03     109.204E-03    -7.84761E+06    -4.76086E+06     10.0383E+06    -15.0707E+06    -12.0549E-03     23.8674E-03    -11.8125E-03     25.0878E-03    -12.1033E-03     23.8418E-03    -11.7441E-03     24.8899E-03
            1308     8.89598E-03     109.237E-03    -9.65868E+06    -4.47854E+06     10.1636E+06    -14.8538E+06    -11.8673E-03     23.6959E-03    -11.8286E-03     30.1499E-03    -11.9256E-03     23.6744E-03    -11.7573E-03     29.9548E-03
            1309     9.78579E-03     109.278E-03    -10.2189E+06    -2.78618E+06     9.77779E+06    -13.1491E+06    -11.7135E-03     23.5276E-03    -11.8141E-03     36.5107E-03    -11.7767E-03     23.5161E-03    -11.7464E-03     36.3378E-03
            1310     10.6763E-03     109.327E-03    -8.02276E+06    -269.466E+03     14.6031E+06    -10.3272E+06    -11.8801E-03     23.6921E-03    -11.8120E-03     44.8270E-03    -11.9433E-03     23.6834E-03    -11.7269E-03     44.6906E-03
            1311     11.5662E-03     109.386E-03    -4.33286E+06    -2.82228E+06     22.2522E+06    -9.05188E+06    -12.7231E-03     24.5762E-03    -11.8531E-03     55.6511E-03    -12.7764E-03     24.5395E-03    -11.7315E-03     55.5303E-03
            1312     12.4554E-03     109.454E-03     135.809E+03    -3.35737E+06     27.9793E+06    -6.98220E+06    -14.2823E-03     26.2205E-03    -11.9382E-03     69.7232E-03    -14.3247E-03     26.1704E-03    -11.7936E-03     69.6260E-03
            1313     13.3421E-03     109.540E-03     3.72653E+06     3.50494E+06     32.6915E+06    -3.80940E+06    -16.5131E-03     28.6047E-03    -12.0916E-03     84.1586E-03    -16.5648E-03     28.5873E-03    -11.9386E-03     84.0943E-03
            1314     14.2295E-03     109.634E-03     3.19683E+06     11.7134E+06     34.4337E+06    -5.16364E+06    -19.8792E-03     32.2303E-03    -12.3511E-03     98.7727E-03    -19.9754E-03     32.2797E-03    -12.2005E-03     98.6725E-03
            1315     15.1104E-03     109.747E-03    -2.89880E+06     2.72553E+06     30.4285E+06    -10.2130E+06    -23.9006E-03     36.6439E-03    -12.7432E-03     121.883E-03    -24.0950E-03     36.7495E-03    -12.5908E-03     121.681E-03
            1316     15.9949E-03     109.879E-03    -9.23692E+06    -44.9535E+06     1.28513E+06    -21.9083E+06    -30.9675E-03     44.1938E-03    -13.2262E-03     157.087E-03    -31.4477E-03     44.4783E-03    -13.1412E-03     156.670E-03
            1317     16.8629E-03     110.058E-03    -13.2364E+06    -1.94773E+06    -6.60581E+06    -22.9011E+06    -38.5379E-03     52.4206E-03    -13.8827E-03     195.002E-03    -40.3838E-03     54.2323E-03    -13.8937E-03     195.026E-03
            1318     888.954E-06     110.049E-03     7.49068E+06    -6.16898E+06     8.47633E+06    -2.19441E+06    -12.5254E-03     25.0423E-03    -12.5169E-03     2.06771E-03    -12.4910E-03     24.9891E-03    -12.4764E-03     2.03901E-03
            1319     1.77800E-03     110.054E-03     6.84464E+06    -6.07146E+06     8.50351E+06    -3.55913E+06    -12.6778E-03     25.2358E-03    -12.5580E-03     3.77861E-03    -12.6472E-03     25.1832E-03    -12.5166E-03     3.73181E-03
            1320     2.66654E-03     110.061E-03     6.35305E+06    -5.54787E+06     8.97888E+06    -4.96899E+06    -12.8626E-03     25.4969E-03    -12.6343E-03     5.58701E-03    -12.8360E-03     25.4469E-03    -12.5906E-03     5.52149E-03
            1321     3.55530E-03     110.072E-03     5.74178E+06    -5.06349E+06     9.91264E+06    -6.39193E+06    -13.0466E-03     25.7710E-03    -12.7244E-03     7.40433E-03    -13.0253E-03     25.7231E-03    -12.6758E-03     7.31999E-03
            1322     4.44356E-03     110.085E-03     4.61484E+06    -4.84694E+06     11.0733E+06    -7.70243E+06    -13.2294E-03     26.0505E-03    -12.8211E-03     9.31824E-03    -13.2158E-03     26.0038E-03    -12.7654E-03     9.21647E-03
            1323     5.33187E-03     110.102E-03     3.32722E+06    -4.32904E+06     12.2245E+06    -8.78978E+06    -13.4006E-03     26.3196E-03    -12.9191E-03     11.4146E-03    -13.3960E-03     26.2759E-03    -12.8565E-03     11.2983E-03
            1324     6.21990E-03     110.122E-03     2.15179E+06    -3.82013E+06     14.1558E+06    -9.74928E+06    -13.5779E-03     26.5991E-03    -13.0212E-03     13.7501E-03    -13.5830E-03     26.5570E-03    -12.9480E-03     13.6207E-03
            1325     7.10787E-03     110.147E-03     653.625E+03    -3.14064E+06     16.6113E+06    -10.5188E+06    -13.7365E-03     26.8624E-03    -13.1259E-03     16.4043E-03    -13.7540E-03     26.8226E-03    -13.0392E-03     16.2645E-03
            1326     7.99576E-03     110.175E-03    -1.03495E+06    -3.16602E+06     18.6005E+06    -10.8338E+06    -13.8385E-03     27.0639E-03    -13.2253E-03     19.5395E-03    -13.8677E-03     27.0238E-03    -13.1262E-03     19.3951E-03
            1327     8.88352E-03     110.209E-03    -2.09604E+06    -2.86873E+06     20.7954E+06    -10.9213E+06    -13.8528E-03     27.1667E-03    -13.3139E-03     23.3931E-03    -13.8913E-03     27.1268E-03    -13.2027E-03     23.2471E-03
            1328     9.77156E-03     110.249E-03    -2.37353E+06    -3.34763E+06     22.7496E+06    -11.0833E+06    -13.7302E-03     27.1125E-03    -13.3823E-03     28.3447E-03    -13.7727E-03     27.0682E-03    -13.2603E-03     28.1965E-03
            1329     10.6595E-03     110.298E-03    -2.36754E+06    -1.97749E+06     24.7054E+06    -9.96130E+06    -13.5361E-03     26.9589E-03    -13.4228E-03     34.8988E-03    -13.5837E-03     26.9189E-03    -13.2930E-03     34.7651E-03
            1330     11.5484E-03     110.355E-03    -1.55795E+06    -1.88970E+06     28.3106E+06    -9.24278E+06    -13.5733E-03     27.0283E-03    -13.4550E-03     43.9906E-03    -13.6227E-03     26.9828E-03    -13.3084E-03     43.8664E-03
            1331     12.4369E-03     110.427E-03     346.363E+03    -5.93442E+06     30.8611E+06    -8.67922E+06    -13.9549E-03     27.4394E-03    -13.4845E-03     56.4300E-03    -13.9936E-03     27.3684E-03    -13.3221E-03     56.3128E-03
            1332     13.3264E-03     110.510E-03     5.60974E+06     718.732E+03     35.9559E+06    -6.61551E+06    -15.1336E-03     28.6640E-03    -13.5304E-03     71.2935E-03    -15.1668E-03     28.6155E-03    -13.3598E-03     71.1999E-03
            1333     14.2109E-03     110.611E-03     10.2858E+06     10.5909E+06     42.9424E+06    -1.58252E+06    -17.3358E-03     30.9821E-03    -13.6463E-03     87.0923E-03    -17.3840E-03     30.9802E-03    -13.4619E-03     87.0534E-03
            1334     15.0985E-03     110.721E-03     8.54644E+06     9.13073E+06     43.9101E+06     1.63670E+06    -21.3202E-03     35.1912E-03    -13.8710E-03     110.414E-03    -21.4310E-03     35.2378E-03    -13.6771E-03     110.387E-03
            1335     15.9764E-03     110.863E-03     2.76354E+06    -21.3851E+06     24.9331E+06    -9.25973E+06    -27.9822E-03     42.1883E-03    -14.2060E-03     150.157E-03    -28.3015E-03     42.3696E-03    -14.0544E-03     149.924E-03
            1336     16.8589E-03     111.047E-03     1.87042E+06    -7.46439E+06     4.30102E+06    -21.9820E+06    -28.9757E-03     43.4602E-03    -14.4846E-03     189.361E-03    -30.1191E-03     44.5722E-03    -14.4549E-03     189.331E-03
            1337     887.438E-06     111.023E-03     12.1996E+06    -3.06483E+06     12.8989E+06    -790.467E+03    -14.4066E-03     28.6578E-03    -14.2512E-03     1.58998E-03    -14.3593E-03     28.6069E-03    -14.1999E-03     1.57939E-03
            1338     1.77466E-03     111.027E-03     11.7721E+06    -2.92543E+06     13.1550E+06    -2.27486E+06    -14.5407E-03     28.9191E-03    -14.3784E-03     2.72228E-03    -14.4969E-03     28.8682E-03    -14.3254E-03     2.69193E-03
            1339     2.66201E-03     111.036E-03     11.3870E+06    -2.60885E+06     14.1713E+06    -3.43601E+06    -14.7525E-03     29.2321E-03    -14.4796E-03     3.80959E-03    -14.7126E-03     29.1819E-03    -14.4215E-03     3.76377E-03
            1340     3.54871E-03     111.046E-03     10.7408E+06    -2.45243E+06     15.5224E+06    -4.27101E+06    -14.9428E-03     29.5330E-03    -14.5901E-03     4.95254E-03    -14.9084E-03     29.4826E-03    -14.5245E-03     4.89542E-03
            1341     4.43556E-03     111.060E-03     10.0045E+06    -2.24841E+06     16.9947E+06    -5.02159E+06    -15.1589E-03     29.8635E-03    -14.7047E-03     6.23898E-03    -15.1307E-03     29.8132E-03    -14.6309E-03     6.17158E-03
            1342     5.32202E-03     111.077E-03     9.25733E+06    -2.03045E+06     19.2292E+06    -5.81283E+06    -15.4532E-03     30.2873E-03    -14.8341E-03     7.61295E-03    -15.4325E-03     30.2360E-03    -14.7484E-03     7.53469E-03
            1343     6.20830E-03     111.098E-03     8.26389E+06    -1.58030E+06     22.0152E+06    -6.40675E+06    -15.8164E-03     30.8009E-03    -14.9844E-03     9.12452E-03    -15.8056E-03     30.7494E-03    -14.8841E-03     9.03784E-03
            1344     7.09414E-03     111.122E-03     7.29964E+06    -1.58707E+06     24.8607E+06    -6.61907E+06    -16.2218E-03     31.3772E-03    -15.1554E-03     10.7869E-03    -16.2202E-03     31.3231E-03    -15.0393E-03     10.6966E-03
            1345     7.97950E-03     111.151E-03     6.60930E+06    -1.40291E+06     27.8886E+06    -6.97669E+06    -16.6367E-03     31.9803E-03    -15.3437E-03     12.7418E-03    -16.6435E-03     31.9240E-03    -15.2118E-03     12.6460E-03
            1346     8.86471E-03     111.185E-03     6.01309E+06    -1.69768E+06     30.4945E+06    -7.33573E+06    -17.0242E-03     32.5672E-03    -15.5430E-03     15.1373E-03    -17.0379E-03     32.5068E-03    -15.3968E-03     15.0358E-03
            1347     9.74921E-03     111.225E-03     5.04209E+06    -1.83155E+06     32.4954E+06    -7.51539E+06    -17.2959E-03     33.0399E-03    -15.7439E-03     18.2402E-03    -17.3177E-03     32.9776E-03    -15.5861E-03     18.1354E-03
            1348     10.6342E-03     111.272E-03     4.91187E+06    -2.57608E+06     34.2959E+06    -7.60818E+06    -17.3841E-03     33.3201E-03    -15.9360E-03     22.5684E-03    -17.4087E-03     33.2521E-03    -15.7679E-03     22.4617E-03
            1349     11.5183E-03     111.330E-03     5.31744E+06    -1.07612E+06     36.6517E+06    -7.34952E+06    -17.1302E-03     33.2322E-03    -16.1020E-03     28.6423E-03    -17.1590E-03     33.1681E-03    -15.9249E-03     28.5389E-03
            1350     12.4041E-03     111.398E-03     6.28688E+06    -4.99407E+06     37.4941E+06    -8.20563E+06    -16.4352E-03     32.6546E-03    -16.2194E-03     36.8922E-03    -16.4551E-03     32.5686E-03    -16.0338E-03     36.7784E-03
            1351     13.2896E-03     111.483E-03     7.08304E+06    -2.34687E+06     39.8579E+06    -8.43125E+06    -15.3655E-03     31.6304E-03    -16.2649E-03     48.1169E-03    -15.3891E-03     31.5536E-03    -16.0725E-03     48.0013E-03
            1352     14.1799E-03     111.582E-03     10.9205E+06     2.81234E+06     45.0307E+06    -3.76705E+06    -14.6469E-03     30.8932E-03    -16.2462E-03     62.0799E-03    -14.6692E-03     30.8333E-03    -16.0410E-03     62.0228E-03
            1353     15.0643E-03     111.697E-03     19.1035E+06     5.68305E+06     52.2187E+06     3.63603E+06    -17.3825E-03     33.6379E-03    -16.2554E-03     87.6149E-03    -17.4037E-03     33.5961E-03    -16.0303E-03     87.6361E-03
            1354     15.9514E-03     111.840E-03     24.6950E+06     2.21910E+06     52.8460E+06    -1.82183E+06    -21.5767E-03     37.9226E-03    -16.3459E-03     126.558E-03    -21.6824E-03     37.9715E-03    -16.1207E-03     126.471E-03
            1355     16.8305E-03     112.025E-03     18.2337E+06    -2.72518E+06     27.0900E+06    -9.84979E+06    -11.4332E-03     27.4804E-03    -16.0473E-03     154.889E-03    -11.7980E-03     27.8264E-03    -15.9343E-03     154.874E-03
            1356     885.323E-06     112.000E-03     16.7035E+06    -1.19537E+06     16.4475E+06    -719.841E+03    -17.0017E-03     33.9861E-03    -16.9844E-03     454.224E-06    -16.9398E-03     33.9329E-03    -16.9246E-03     445.279E-06
            1357     1.77040E-03     112.006E-03     16.3680E+06    -917.712E+03     17.6234E+06    -1.27885E+06    -17.1807E-03     34.2237E-03    -17.0430E-03     1.02129E-03    -17.1235E-03     34.1695E-03    -16.9772E-03     1.00404E-03
            1358     2.65492E-03     112.014E-03     15.9692E+06    -812.906E+03     19.2387E+06    -1.73494E+06    -17.3511E-03     34.4898E-03    -17.1388E-03     1.34989E-03    -17.2983E-03     34.4344E-03    -17.0646E-03     1.32638E-03
            1359     3.53972E-03     112.025E-03     15.4635E+06    -870.889E+03     20.8870E+06    -2.22285E+06    -17.5753E-03     34.8232E-03    -17.2478E-03     1.77901E-03    -17.5275E-03     34.7657E-03    -17.1645E-03     1.74876E-03
            1360     4.42405E-03     112.039E-03     15.0618E+06    -739.186E+03     23.5536E+06    -2.58145E+06    -17.9261E-03     35.3125E-03    -17.3864E-03     2.24843E-03    -17.8844E-03     35.2525E-03    -17.2894E-03     2.21305E-03
            1361     5.30808E-03     112.057E-03     14.4285E+06    -493.530E+03     26.6750E+06    -2.91730E+06    -18.4195E-03     35.9843E-03    -17.5648E-03     2.74537E-03    -18.3859E-03     35.9219E-03    -17.4517E-03     2.70506E-03
            1362     6.19149E-03     112.078E-03     13.7790E+06    -573.884E+03     29.6441E+06    -3.02843E+06    -19.0573E-03     36.8447E-03    -17.7874E-03     3.24189E-03    -19.0313E-03     36.7785E-03    -17.6583E-03     3.19944E-03
            1363     7.07424E-03     112.103E-03     13.2880E+06    -446.781E+03     32.9914E+06    -3.23543E+06    -19.8206E-03     37.8791E-03    -18.0585E-03     3.73052E-03    -19.8023E-03     37.8095E-03    -17.9122E-03     3.68458E-03
            1364     7.95640E-03     112.132E-03     12.7373E+06    -449.477E+03     36.0451E+06    -3.31927E+06    -20.7024E-03     39.0790E-03    -18.3766E-03     4.28171E-03    -20.6915E-03     39.0057E-03    -18.2142E-03     4.23365E-03
            1365     8.83726E-03     112.167E-03     11.8515E+06    -440.334E+03     38.2946E+06    -3.49448E+06    -21.6394E-03     40.3769E-03    -18.7375E-03     4.96435E-03    -21.6365E-03     40.3017E-03    -18.5626E-03     4.91281E-03
            1366     9.71772E-03     112.207E-03     11.2900E+06    -1.07691E+06     40.2293E+06    -3.59457E+06    -22.6032E-03     41.7425E-03    -19.1393E-03     5.92398E-03    -22.6054E-03     41.6621E-03    -18.9530E-03     5.86974E-03
            1367     10.5964E-03     112.256E-03     10.4212E+06    -932.813E+03     41.7805E+06    -4.27124E+06    -23.4171E-03     42.9884E-03    -19.5714E-03     7.41045E-03    -23.4267E-03     42.9078E-03    -19.3762E-03     7.34609E-03
            1368     11.4753E-03     112.312E-03     9.60703E+06    -1.54433E+06     42.4395E+06    -4.29842E+06    -23.6874E-03     43.6939E-03    -20.0064E-03     9.64556E-03    -23.7019E-03     43.6103E-03    -19.8059E-03     9.57989E-03
            1369     12.3526E-03     112.380E-03     8.19749E+06    -1.41347E+06     43.7762E+06    -5.19972E+06    -22.8808E-03     43.2811E-03    -20.4003E-03     12.9827E-03    -22.9052E-03     43.1983E-03    -20.1913E-03     12.9053E-03
            1370     13.2323E-03     112.459E-03     6.62451E+06    -4.16908E+06     45.0339E+06    -5.82754E+06    -20.2164E-03     40.8882E-03    -20.6718E-03     17.8549E-03    -20.2468E-03     40.7921E-03    -20.4502E-03     17.7707E-03
            1371     14.1123E-03     112.555E-03     4.73717E+06    -345.445E+03     44.3032E+06    -6.00893E+06    -17.1364E-03     37.8912E-03    -20.7547E-03     25.2350E-03    -17.1816E-03     37.8173E-03    -20.5396E-03     25.1501E-03
            1372     15.0032E-03     112.664E-03     6.98351E+06    -2.59263E+06     49.0250E+06    -4.48384E+06    -17.6860E-03     38.5104E-03    -20.8244E-03     42.8534E-03    -17.7307E-03     38.4205E-03    -20.5856E-03     42.7829E-03
            1373     15.8845E-03     112.816E-03     11.2312E+06     6.20129E+06     57.0052E+06    -2.02525E+06    -12.9207E-03     33.7122E-03    -20.7916E-03     65.9020E-03    -12.9918E-03     33.6780E-03    -20.5318E-03     65.8530E-03
            1374     16.7774E-03     112.986E-03     1.40988E+06     7.67033E+06     31.9827E+06    -124.644E+03     3.58976E-03     16.4846E-03    -20.0744E-03     71.0284E-03     3.48362E-03     16.5240E-03    -19.9276E-03     71.0325E-03
            1375     16.8410E-03     56.1621E-03    -755.667E+03     129.518E+06     25.4395E+06     259.971E+03    -19.7445E-03     35.0485E-03    -15.3040E-03     165.908E-03    -22.3990E-03     38.0864E-03    -15.3636E-03     167.956E-03
            1376     15.9530E-03     56.0009E-03    -2.58510E+06     68.3026E+06    -10.9445E+06     473.675E+03    -19.6523E-03     34.8688E-03    -15.2165E-03     141.899E-03    -20.9786E-03     36.4602E-03    -15.3665E-03     142.291E-03
            1377     15.0659E-03     55.8954E-03    -3.06762E+06     22.6109E+06    -5.15610E+06     553.265E+03    -17.3747E-03     32.6823E-03    -15.3076E-03     91.0003E-03    -17.6502E-03     33.0422E-03    -15.3617E-03     90.9869E-03
            1378     14.1806E-03     55.8315E-03    -2.32642E+06    -13.2800E+06    -6.73448E+06     679.069E+03    -16.3695E-03     31.7207E-03    -15.3512E-03     65.3159E-03    -16.4314E-03     31.7468E-03    -15.3622E-03     65.2850E-03
            1379     13.2940E-03     55.7738E-03    -1.70625E+06    -36.0922E+06    -6.88040E+06     412.211E+03    -16.3532E-03     31.7368E-03    -15.3836E-03     61.7273E-03    -16.3492E-03     31.6185E-03    -15.3631E-03     61.6963E-03
            1380     12.4080E-03     55.7168E-03    -1.38587E+06    -36.0347E+06     2.41299E+06     250.561E+03    -16.2133E-03     31.6426E-03    -15.4293E-03     56.8323E-03    -16.2013E-03     31.4908E-03    -15.3630E-03     56.8071E-03
            1381     11.5216E-03     55.6682E-03    -1.48695E+06    -39.6311E+06     3.65839E+06     219.066E+03    -16.0471E-03     31.4876E-03    -15.4404E-03     50.0041E-03    -16.0199E-03     31.3037E-03    -15.3625E-03     49.9855E-03
            1382     10.6354E-03     55.6238E-03    -1.19105E+06    -49.6037E+06     3.72145E+06    -389.361E+03    -15.9689E-03     31.4223E-03    -15.4534E-03     45.5244E-03    -15.9194E-03     31.1817E-03    -15.3611E-03     45.5030E-03
            1383     9.74909E-03     55.5835E-03    -1.42602E+06    -46.9706E+06     5.74743E+06    -583.864E+03    -15.8471E-03     31.3062E-03    -15.4591E-03     41.3335E-03    -15.8016E-03     31.0722E-03    -15.3602E-03     41.3139E-03
            1384     8.86280E-03     55.5470E-03    -2.84306E+06    -47.5304E+06     5.96471E+06     523.751E+03    -15.7622E-03     31.2249E-03    -15.4627E-03     37.0020E-03    -15.7207E-03     30.9873E-03    -15.3598E-03     36.9997E-03
            1385     7.97653E-03     55.5146E-03    -4.24121E+06    -51.4026E+06     5.94161E+06     791.533E+03    -15.6985E-03     31.1672E-03    -15.4687E-03     32.6402E-03    -15.6567E-03     30.9106E-03    -15.3583E-03     32.6436E-03
            1386     7.09030E-03     55.4862E-03    -5.23595E+06    -49.2204E+06     3.57448E+06    -198.709E+03    -15.6101E-03     31.0636E-03    -15.4535E-03     28.4556E-03    -15.5720E-03     30.8218E-03    -15.3567E-03     28.4478E-03
            1387     6.20400E-03     55.4617E-03    -6.59074E+06    -52.7279E+06     987.963E+03    -546.911E+03    -15.5461E-03     30.9938E-03    -15.4477E-03     24.3758E-03    -15.5053E-03     30.7396E-03    -15.3567E-03     24.3647E-03
            1388     5.31770E-03     55.4409E-03    -7.83139E+06    -53.5403E+06    -429.888E+03    -251.055E+03    -15.4967E-03     30.9414E-03    -15.4447E-03     20.4739E-03    -15.4584E-03     30.6865E-03    -15.3578E-03     20.4674E-03
            1389     4.43140E-03     55.4236E-03    -9.07029E+06    -52.3084E+06    -2.18454E+06     76.1732E+03    -15.4545E-03     30.8922E-03    -15.4378E-03     16.7743E-03    -15.4213E-03     30.6475E-03    -15.3597E-03     16.7729E-03
            1390     3.54512E-03     55.4097E-03    -10.8684E+06    -54.8779E+06    -4.74967E+06     285.669E+03    -15.4334E-03     30.8666E-03    -15.4332E-03     13.2275E-03    -15.4015E-03     30.6151E-03    -15.3616E-03     13.2293E-03
            1391     2.65883E-03     55.3990E-03    -12.7302E+06    -56.2002E+06    -8.40814E+06     246.706E+03    -15.4155E-03     30.8363E-03    -15.4208E-03     9.83710E-03    -15.3856E-03     30.5860E-03    -15.3628E-03     9.83898E-03
            1392     1.77257E-03     55.3914E-03    -14.3513E+06    -58.0619E+06    -11.9775E+06     229.834E+03    -15.4014E-03     30.8110E-03    -15.4097E-03     6.57071E-03    -15.3715E-03     30.5589E-03    -15.3645E-03     6.57281E-03
            1393     886.257E-06     55.3867E-03    -15.5655E+06    -59.0559E+06    -14.7453E+06     85.0481E+03    -15.4090E-03     30.7991E-03    -15.3901E-03     3.55859E-03    -15.3796E-03     30.5484E-03    -15.3557E-03     3.55919E-03
            1394     16.8380E-03     55.1828E-03    -2.73930E+06     128.725E+06     20.0900E+06     22.6542E+03    -19.9117E-03     35.1618E-03    -15.2502E-03     165.951E-03    -22.5624E-03     38.2016E-03    -15.3324E-03     167.977E-03
            1395     15.9535E-03     55.0236E-03    -2.51258E+06     68.2382E+06    -10.8844E+06     1.03380E+06    -19.2716E-03     34.4625E-03    -15.1908E-03     141.995E-03    -20.5922E-03     36.0479E-03    -15.3406E-03     142.404E-03
            1396     15.0678E-03     54.9174E-03    -2.04711E+06     23.0425E+06    -4.88092E+06     616.808E+03    -17.2056E-03     32.5014E-03    -15.2958E-03     90.9572E-03    -17.4759E-03     32.8605E-03    -15.3507E-03     90.9459E-03
            1397     14.1804E-03     54.8540E-03    -2.10324E+06    -13.4856E+06    -6.91896E+06     216.225E+03    -16.3208E-03     31.6663E-03    -15.3455E-03     65.4356E-03    -16.3810E-03     31.6912E-03    -15.3574E-03     65.3990E-03
            1398     13.2945E-03     54.7959E-03    -1.58668E+06    -35.8012E+06    -6.84000E+06     327.701E+03    -16.3633E-03     31.7429E-03    -15.3796E-03     61.8644E-03    -16.3593E-03     31.6260E-03    -15.3596E-03     61.8323E-03
            1399     12.4078E-03     54.7391E-03    -1.55706E+06    -35.7309E+06     2.50385E+06     13.6967E+03    -16.2254E-03     31.6505E-03    -15.4251E-03     56.8499E-03    -16.2150E-03     31.5004E-03    -15.3585E-03     56.8216E-03
            1400     11.5218E-03     54.6902E-03    -1.41890E+06    -39.5438E+06     3.78153E+06    -310.854E+03    -16.0428E-03     31.4785E-03    -15.4357E-03     50.0234E-03    -16.0155E-03     31.2948E-03    -15.3574E-03     49.9979E-03
            1401     10.6354E-03     54.6461E-03    -2.14994E+06    -49.0380E+06     3.72930E+06    -344.580E+03    -15.9618E-03     31.4104E-03    -15.4487E-03     45.5222E-03    -15.9179E-03     31.1741E-03    -15.3558E-03     45.5014E-03
            1402     9.74915E-03     54.6057E-03    -3.90376E+06    -47.9102E+06     5.50538E+06     110.637E+03    -15.8510E-03     31.3073E-03    -15.4564E-03     41.3074E-03    -15.8161E-03     31.0725E-03    -15.3537E-03     41.2967E-03
            1403     8.86289E-03     54.5693E-03    -4.84044E+06    -48.0329E+06     5.15102E+06     373.836E+03    -15.7595E-03     31.2136E-03    -15.4541E-03     36.9930E-03    -15.7260E-03     30.9775E-03    -15.3517E-03     36.9888E-03
            1404     7.97665E-03     54.5368E-03    -4.58844E+06    -50.5203E+06     4.92594E+06    -156.955E+03    -15.6823E-03     31.1367E-03    -15.4544E-03     32.6664E-03    -15.6421E-03     30.8865E-03    -15.3498E-03     32.6576E-03
            1405     7.09035E-03     54.5085E-03    -5.04425E+06    -49.2144E+06     3.05109E+06     1.06476E+03    -15.5990E-03     31.0418E-03    -15.4428E-03     28.4563E-03    -15.5592E-03     30.8006E-03    -15.3489E-03     28.4511E-03
            1406     6.20402E-03     54.4840E-03    -6.50844E+06    -52.4403E+06     788.629E+03     46.7541E+03    -15.5391E-03     30.9778E-03    -15.4387E-03     24.3618E-03    -15.4980E-03     30.7251E-03    -15.3492E-03     24.3584E-03
            1407     5.31775E-03     54.4632E-03    -8.13869E+06    -53.9665E+06    -896.132E+03    -212.020E+03    -15.4883E-03     30.9243E-03    -15.4359E-03     20.4586E-03    -15.4503E-03     30.6684E-03    -15.3504E-03     20.4527E-03
            1408     4.43143E-03     54.4459E-03    -9.64898E+06    -52.6559E+06    -2.45342E+06     159.918E+03    -15.4491E-03     30.8790E-03    -15.4299E-03     16.7609E-03    -15.4179E-03     30.6337E-03    -15.3518E-03     16.7605E-03
            1409     3.54516E-03     54.4319E-03    -10.9998E+06    -54.8353E+06    -4.40422E+06     350.456E+03    -15.4288E-03     30.8548E-03    -15.4260E-03     13.2132E-03    -15.3982E-03     30.6032E-03    -15.3526E-03     13.2159E-03
            1410     2.65887E-03     54.4213E-03    -12.4387E+06    -56.1067E+06    -7.98520E+06     460.174E+03    -15.4069E-03     30.8193E-03    -15.4124E-03     9.82943E-03    -15.3762E-03     30.5685E-03    -15.3530E-03     9.83405E-03
            1411     1.77257E-03     54.4137E-03    -13.6909E+06    -57.6788E+06    -11.6543E+06     344.198E+03    -15.3953E-03     30.7945E-03    -15.3993E-03     6.56700E-03    -15.3631E-03     30.5429E-03    -15.3541E-03     6.57057E-03
            1412     886.298E-06     54.4091E-03    -14.2943E+06    -58.8372E+06    -13.8777E+06     73.2194E+03    -15.4013E-03     30.7841E-03    -15.3828E-03     3.57958E-03    -15.3672E-03     30.5314E-03    -15.3461E-03     3.58002E-03
            1413     16.8427E-03     54.2073E-03    -1.65159E+06     128.398E+06     20.7033E+06     382.126E+03    -20.0095E-03     35.2628E-03    -15.2533E-03     166.358E-03    -22.6550E-03     38.2983E-03    -15.3336E-03     168.378E-03
            1414     15.9535E-03     54.0454E-03    -2.77832E+06     67.7944E+06    -11.2446E+06     452.363E+03    -19.3779E-03     34.5664E-03    -15.1885E-03     142.792E-03    -20.7089E-03     36.1608E-03    -15.3390E-03     143.193E-03
            1415     15.0663E-03     53.9400E-03    -1.67620E+06     23.5434E+06    -4.63532E+06     350.541E+03    -17.1510E-03     32.4457E-03    -15.2947E-03     91.1284E-03    -17.4204E-03     32.8061E-03    -15.3496E-03     91.1137E-03
            1416     14.1805E-03     53.8762E-03    -1.15867E+06    -13.6821E+06    -6.88772E+06     390.527E+03    -16.3094E-03     31.6554E-03    -15.3460E-03     65.6605E-03    -16.3649E-03     31.6781E-03    -15.3589E-03     65.6262E-03
            1417     13.2940E-03     53.8182E-03    -1.13808E+06    -35.6753E+06    -7.22759E+06     453.306E+03    -16.4216E-03     31.7989E-03    -15.3773E-03     61.9369E-03    -16.4151E-03     31.6827E-03    -15.3601E-03     61.9062E-03
            1418     12.4081E-03     53.7612E-03    -1.34406E+06    -35.1659E+06     2.41887E+06     250.275E+03    -16.2463E-03     31.6677E-03    -15.4214E-03     56.8460E-03    -16.2354E-03     31.5202E-03    -15.3564E-03     56.8208E-03
            1419     11.5217E-03     53.7126E-03    -2.78615E+06    -39.5279E+06     2.80266E+06     67.2965E+03    -16.0488E-03     31.4781E-03    -15.4293E-03     50.0410E-03    -16.0269E-03     31.2979E-03    -15.3539E-03     50.0204E-03
            1420     10.6355E-03     53.6682E-03    -4.19168E+06    -49.3874E+06      2.7278E+06     449.018E+03    -15.9760E-03     31.4179E-03    -15.4420E-03     45.4936E-03    -15.9403E-03     31.1842E-03    -15.3506E-03     45.4831E-03
            1421     9.74924E-03     53.6280E-03    -5.03703E+06    -48.0302E+06     4.76537E+06     510.326E+03    -15.8526E-03     31.3001E-03    -15.4475E-03     41.2783E-03    -15.8221E-03     31.0674E-03    -15.3468E-03     41.2728E-03
            1422     8.86297E-03     53.5915E-03    -5.47944E+06    -46.8788E+06     3.47520E+06    -655.926E+03    -15.7404E-03     31.1783E-03    -15.4380E-03     37.0235E-03    -15.7093E-03     30.9513E-03    -15.3447E-03     37.0061E-03
            1423     7.97664E-03     53.5591E-03    -6.07969E+06    -50.9213E+06     2.69415E+06    -1.00493E+06    -15.6669E-03     31.1066E-03    -15.4397E-03     32.6795E-03    -15.6303E-03     30.8599E-03    -15.3436E-03     32.6598E-03
            1424     7.09035E-03     53.5308E-03    -6.82533E+06    -50.0516E+06     1.81724E+06    -158.580E+03    -15.5942E-03     31.0282E-03    -15.4340E-03     28.4319E-03    -15.5603E-03     30.7871E-03    -15.3425E-03     28.4247E-03
            1425     6.20410E-03     53.5062E-03    -7.60628E+06    -52.0243E+06     839.851E+03     228.010E+03    -15.5347E-03     30.9671E-03    -15.4323E-03     24.3297E-03    -15.4998E-03     30.7180E-03    -15.3417E-03     24.3286E-03
            1426     5.31778E-03     53.4855E-03    -9.07596E+06    -54.2034E+06    -985.361E+03     333.813E+03    -15.4852E-03     30.9133E-03    -15.4280E-03     20.4376E-03    -15.4514E-03     30.6577E-03    -15.3412E-03     20.4387E-03
            1427     4.43150E-03     53.4682E-03    -10.8036E+06    -52.5486E+06    -3.74486E+06     142.834E+03    -15.4368E-03     30.8515E-03    -15.4147E-03     16.7490E-03    -15.4097E-03     30.6104E-03    -15.3416E-03     16.7484E-03
            1428     3.54518E-03     53.4543E-03    -12.0807E+06    -54.8473E+06    -6.06023E+06    -103.446E+03    -15.4106E-03     30.8201E-03    -15.4095E-03     13.2055E-03    -15.3829E-03     30.5724E-03    -15.3428E-03     13.2023E-03
            1429     2.65888E-03     53.4436E-03    -12.9929E+06    -56.3357E+06    -8.58281E+06     130.251E+03    -15.3934E-03     30.7954E-03    -15.4020E-03     9.81871E-03    -15.3643E-03     30.5451E-03    -15.3444E-03     9.81906E-03
            1430     1.77258E-03     53.4360E-03    -13.8931E+06    -57.0533E+06    -11.3655E+06     171.823E+03    -15.3884E-03     30.7793E-03    -15.3909E-03     6.56667E-03    -15.3586E-03     30.5307E-03    -15.3449E-03     6.56802E-03
            1431     886.290E-06     53.4313E-03    -14.8640E+06    -58.8436E+06    -13.7140E+06    -224.604E+03    -15.3752E-03     30.7619E-03    -15.3867E-03     3.55258E-03    -15.3441E-03     30.5097E-03    -15.3484E-03     3.54920E-03
            1432     16.8361E-03     53.2273E-03    -2.24080E+06     128.611E+06     20.8449E+06     247.487E+03    -19.9832E-03     35.2620E-03    -15.2788E-03     166.078E-03    -22.6333E-03     38.3002E-03    -15.3578E-03     168.105E-03
            1433     15.9531E-03     53.0675E-03    -1.95743E+06     68.1302E+06    -11.1914E+06    -164.317E+03    -19.6442E-03     34.8480E-03    -15.2038E-03     142.172E-03    -20.9685E-03     36.4396E-03    -15.3557E-03     142.554E-03
            1434     15.0676E-03     52.9624E-03    -1.48469E+06     22.9836E+06    -4.84606E+06     189.908E+03    -17.2274E-03     32.5281E-03    -15.3006E-03     91.0178E-03    -17.4935E-03     32.8845E-03    -15.3560E-03     91.0005E-03
            1435     14.1803E-03     52.8986E-03    -1.23456E+06    -13.4168E+06    -6.57107E+06     477.491E+03    -16.4135E-03     31.7618E-03    -15.3483E-03     65.7199E-03    -16.4706E-03     31.7860E-03    -15.3599E-03     65.6862E-03
            1436     13.2944E-03     52.8401E-03    -403.248E+03    -35.7426E+06    -7.05711E+06     377.382E+03    -16.4294E-03     31.8041E-03    -15.3747E-03     61.8199E-03    -16.4192E-03     31.6860E-03    -15.3575E-03     61.7882E-03
            1437     12.4079E-03     52.7835E-03    -772.041E+03    -35.6612E+06     3.49633E+06     1.21364E+06    -16.2548E-03     31.6782E-03    -15.4234E-03     56.7354E-03    -16.2418E-03     31.5258E-03    -15.3531E-03     56.7225E-03
            1438     11.5218E-03     52.7347E-03    -2.13651E+06    -38.8658E+06     4.35678E+06     1.45296E+06    -16.0740E-03     31.5041E-03    -15.4301E-03     49.9311E-03    -16.0521E-03     31.3240E-03    -15.3489E-03     49.9284E-03
            1439     10.6356E-03     52.6905E-03    -3.00401E+06    -49.2345E+06     3.20144E+06     518.627E+03    -15.9796E-03     31.4155E-03    -15.4359E-03     45.4576E-03    -15.9389E-03     31.1801E-03    -15.3441E-03     45.4480E-03
            1440     9.74930E-03     52.6502E-03    -2.75549E+06    -47.2613E+06     5.55247E+06    -331.709E+03    -15.8553E-03     31.2955E-03    -15.4402E-03     41.2552E-03    -15.8156E-03     31.0622E-03    -15.3400E-03     41.2387E-03
            1441     8.86297E-03     52.6138E-03    -3.14523E+06    -46.2564E+06     4.87830E+06    -524.179E+03    -15.7490E-03     31.1825E-03    -15.4334E-03     36.9684E-03    -15.7092E-03     30.9531E-03    -15.3374E-03     36.9526E-03
            1442     7.97672E-03     52.5814E-03    -5.01731E+06    -51.6326E+06     3.90830E+06    -248.714E+03    -15.6725E-03     31.1095E-03    -15.4370E-03     32.6087E-03    -15.6313E-03     30.8558E-03    -15.3353E-03     32.5987E-03
            1443     7.09047E-03     52.5530E-03    -6.90469E+06    -50.2940E+06     1.87337E+06    -294.122E+03    -15.5854E-03     31.0113E-03    -15.4259E-03     28.3959E-03    -15.5516E-03     30.7691E-03    -15.3336E-03     28.3870E-03
            1444     6.20411E-03     52.5286E-03    -8.11758E+06    -52.5348E+06     575.902E+03    -20.2429E+03    -15.5320E-03     30.9549E-03    -15.4229E-03     24.3067E-03    -15.4985E-03     30.7045E-03    -15.3321E-03     24.3024E-03
            1445     5.31786E-03     52.5078E-03    -9.04695E+06    -54.1540E+06    -625.149E+03     366.297E+03    -15.4860E-03     30.9045E-03    -15.4185E-03     20.4038E-03    -15.4526E-03     30.6485E-03    -15.3300E-03     20.4054E-03
            1446     4.43154E-03     52.4905E-03    -10.1416E+06    -52.0593E+06    -3.27668E+06     175.017E+03    -15.4277E-03     30.8306E-03    -15.4029E-03     16.7176E-03    -15.3987E-03     30.5903E-03    -15.3291E-03     16.7174E-03
            1447     3.54523E-03     52.4766E-03    -11.6461E+06    -54.7034E+06    -6.09195E+06    -185.555E+03    -15.3974E-03     30.7936E-03    -15.3962E-03     13.1831E-03    -15.3678E-03     30.5461E-03    -15.3305E-03     13.1788E-03
            1448     2.65892E-03     52.4660E-03    -13.2404E+06    -56.8411E+06    -9.09917E+06    -192.200E+03    -15.3844E-03     30.7724E-03    -15.3880E-03     9.80080E-03    -15.3551E-03     30.5207E-03    -15.3319E-03     9.79698E-03
            1449     1.77261E-03     52.4583E-03    -14.4228E+06    -56.5960E+06    -12.4287E+06    -16.5446E+03    -15.3719E-03     30.7450E-03    -15.3731E-03     6.55383E-03    -15.3439E-03     30.5010E-03    -15.3322E-03     6.55275E-03
            1450     886.324E-06     52.4537E-03    -14.9388E+06    -59.1450E+06    -14.6788E+06    -469.432E+03    -15.3512E-03     30.7348E-03    -15.3836E-03     3.52607E-03    -15.3187E-03     30.4826E-03    -15.3495E-03     3.51953E-03
            1451     16.8419E-03     52.2495E-03    -2.62367E+06     128.811E+06     20.9342E+06    -79.2921E+03    -19.9335E-03     35.2130E-03    -15.2795E-03     165.950E-03    -22.5949E-03     38.2616E-03    -15.3578E-03     167.981E-03
            1452     15.9533E-03     52.0894E-03    -3.15192E+06     67.9656E+06    -12.0410E+06    -239.611E+03    -19.3733E-03     34.5809E-03    -15.2075E-03     141.312E-03    -20.6899E-03     36.1624E-03    -15.3617E-03     141.702E-03
            1453     15.0660E-03     51.9849E-03    -3.17131E+06     22.5790E+06    -5.80763E+06     294.711E+03    -17.3447E-03     32.6522E-03    -15.3075E-03     91.3993E-03    -17.6188E-03     33.0120E-03    -15.3647E-03     91.3834E-03
            1454     14.1807E-03     51.9202E-03    -2.46288E+06    -12.7981E+06    -6.80453E+06     151.026E+03    -16.5872E-03     31.9354E-03    -15.3482E-03     65.6391E-03    -16.6513E-03     31.9651E-03    -15.3601E-03     65.6005E-03
            1455     13.2942E-03     51.8627E-03    -2.47420E+06    -36.3182E+06    -8.23858E+06     319.675E+03    -16.4186E-03     31.7856E-03    -15.3670E-03     61.8400E-03    -16.4161E-03     31.6693E-03    -15.3520E-03     61.8077E-03
            1456     12.4082E-03     51.8054E-03    -1.94793E+06    -36.7105E+06     2.58769E+06     1.01980E+06    -16.2667E-03     31.6824E-03    -15.4157E-03     56.7415E-03    -16.2569E-03     31.5278E-03    -15.3467E-03     56.7261E-03
            1457     11.5219E-03     51.7570E-03    -1.09671E+06    -38.1712E+06     4.57862E+06     1.31386E+06    -16.0661E-03     31.4879E-03    -15.4217E-03     49.9019E-03    -16.0403E-03     31.3094E-03    -15.3419E-03     49.8974E-03
            1458     10.6356E-03     51.7127E-03    -819.802E+03    -47.7680E+06     3.70733E+06     415.711E+03    -15.9832E-03     31.4094E-03    -15.4262E-03     45.4618E-03    -15.9345E-03     31.1774E-03    -15.3372E-03     45.4509E-03
            1459     9.74937E-03     51.6724E-03    -2.08027E+06    -47.0578E+06     6.30060E+06    -281.933E+03    -15.8661E-03     31.3010E-03    -15.4348E-03     41.2015E-03    -15.8244E-03     31.0666E-03    -15.3321E-03     41.1857E-03
            1460     8.86313E-03     51.6360E-03    -3.97753E+06    -46.8378E+06     5.06256E+06     208.643E+03    -15.7509E-03     31.1779E-03    -15.4269E-03     36.9240E-03    -15.7147E-03     30.9466E-03    -15.3279E-03     36.9177E-03
            1461     7.97685E-03     51.6037E-03    -5.21713E+06    -51.4185E+06     3.96984E+06     339.664E+03    -15.6636E-03     31.0904E-03    -15.4269E-03     32.5883E-03    -15.6237E-03     30.8381E-03    -15.3249E-03     32.5859E-03
            1462     7.09048E-03     51.5754E-03    -6.29339E+06    -50.1334E+06     2.45042E+06     53.0185E+03    -15.5857E-03     31.0021E-03    -15.4165E-03     28.3726E-03    -15.5499E-03     30.7589E-03    -15.3224E-03     28.3682E-03
            1463     6.20424E-03     51.5508E-03    -7.62314E+06    -52.9017E+06     762.437E+03    -86.5831E+03    -15.5342E-03     30.9452E-03    -15.4110E-03     24.2727E-03    -15.4979E-03     30.6918E-03    -15.3194E-03     24.2676E-03
            1464     5.31791E-03     51.5301E-03    -8.86332E+06    -54.2407E+06    -725.281E+03    -30.1419E+03    -15.4764E-03     30.8804E-03    -15.4040E-03     20.3699E-03    -15.4418E-03     30.6239E-03    -15.3161E-03     20.3663E-03
            1465     4.43162E-03     51.5129E-03    -10.0987E+06    -51.8443E+06    -3.16837E+06     110.078E+03    -15.4166E-03     30.8051E-03    -15.3885E-03     16.6894E-03    -15.3878E-03     30.5656E-03    -15.3146E-03     16.6884E-03
            1466     3.54528E-03     51.4990E-03    -11.5132E+06    -54.4497E+06    -5.91311E+06     60.5299E+03    -15.3883E-03     30.7691E-03    -15.3808E-03     13.1592E-03    -15.3586E-03     30.5224E-03    -15.3147E-03     13.1581E-03
            1467     2.65896E-03     51.4883E-03    -12.9243E+06    -57.0024E+06    -9.08821E+06    -134.537E+03    -15.3734E-03     30.7438E-03    -15.3704E-03     9.78550E-03    -15.3422E-03     30.4908E-03    -15.3144E-03     9.78242E-03
            1468     1.77266E-03     51.4807E-03    -13.6720E+06    -56.5547E+06    -12.7680E+06    -250.467E+03    -15.3522E-03     30.7061E-03    -15.3539E-03     6.53617E-03    -15.3200E-03     30.4617E-03    -15.3159E-03     6.53208E-03
            1469     886.283E-06     51.4761E-03    -13.5831E+06    -59.5356E+06    -14.2684E+06    -77.8855E+03    -15.3462E-03     30.7134E-03    -15.3672E-03     3.52859E-03    -15.3069E-03     30.4567E-03    -15.3325E-03     3.52713E-03
            1470     16.8371E-03     51.2680E-03    -1.79464E+06     128.495E+06     24.8298E+06     551.809E+03    -19.7532E-03     35.0517E-03    -15.2985E-03     166.702E-03    -22.4299E-03     38.1062E-03    -15.3581E-03     168.740E-03
            1471     15.9530E-03     51.1141E-03    -2.52976E+06      68.574E+06    -10.8442E+06     218.032E+03    -19.4829E-03     34.6979E-03    -15.2150E-03     141.306E-03    -20.8052E-03     36.2861E-03    -15.3650E-03     141.700E-03
            1472     15.0668E-03     51.0054E-03    -2.78761E+06     22.9553E+06    -4.98279E+06     436.068E+03    -17.4888E-03     32.7947E-03    -15.3059E-03     90.9309E-03    -17.7635E-03     33.1554E-03    -15.3600E-03     90.9146E-03
            1473     14.1805E-03     50.9429E-03    -3.49092E+06    -12.5570E+06    -6.94616E+06     87.6484E+03    -16.4314E-03     31.7746E-03    -15.3433E-03     65.2670E-03    -16.5000E-03     31.8064E-03    -15.3547E-03     65.2282E-03
            1474     13.2944E-03     50.8846E-03    -2.37546E+06    -36.4712E+06    -8.58576E+06    -437.510E+03    -16.4798E-03     31.8418E-03    -15.3620E-03     61.8784E-03    -16.4764E-03     31.7254E-03    -15.3486E-03     61.8360E-03
            1475     12.4082E-03     50.8277E-03    -1.10718E+06    -37.7733E+06     2.07468E+06    -61.7396E+03    -16.2818E-03     31.6893E-03    -15.4075E-03     56.7365E-03    -16.2654E-03     31.5288E-03    -15.3407E-03     56.7071E-03
            1476     11.5218E-03     50.7792E-03    -923.793E+03    -38.0834E+06     4.60139E+06     536.095E+03    -16.0685E-03     31.4831E-03    -15.4146E-03     49.8750E-03    -16.0419E-03     31.3047E-03    -15.3351E-03     49.8605E-03
            1477     10.6357E-03     50.7349E-03    -1.33323E+06    -46.7522E+06     3.86225E+06     472.398E+03    -15.9856E-03     31.4039E-03    -15.4183E-03     45.4128E-03    -15.9411E-03     31.1775E-03    -15.3293E-03     45.4026E-03
            1478     9.74947E-03     50.6947E-03    -2.18814E+06    -47.4361E+06     6.81044E+06     657.597E+03    -15.8625E-03     31.2918E-03    -15.4293E-03     41.1616E-03    -15.8216E-03     31.0550E-03    -15.3233E-03     41.1579E-03
            1479     8.86317E-03     50.6583E-03    -3.41917E+06    -47.0290E+06     5.82563E+06     819.045E+03    -15.7508E-03     31.1715E-03    -15.4207E-03     36.8823E-03    -15.7126E-03     30.9373E-03    -15.3184E-03     36.8839E-03
            1480     7.97685E-03     50.6260E-03    -4.75994E+06    -50.8066E+06     4.46635E+06     454.007E+03    -15.6729E-03     31.0896E-03    -15.4168E-03     32.5532E-03    -15.6324E-03     30.8389E-03    -15.3139E-03     32.5523E-03
            1481     7.09064E-03     50.5976E-03    -5.92006E+06    -50.0311E+06     2.81058E+06     125.813E+03    -15.5963E-03     31.0002E-03    -15.4040E-03     28.3281E-03    -15.5593E-03     30.7565E-03    -15.3088E-03     28.3246E-03
            1482     6.20430E-03     50.5732E-03    -7.10277E+06    -52.8449E+06     1.03347E+06     138.024E+03    -15.5255E-03     30.9215E-03    -15.3960E-03     24.2263E-03    -15.4871E-03     30.6673E-03    -15.3039E-03     24.2240E-03
            1483     5.31802E-03     50.5525E-03    -8.65801E+06    -54.2628E+06    -904.030E+03     63.2177E+03    -15.4620E-03     30.8489E-03    -15.3869E-03     20.3366E-03    -15.4261E-03     30.5923E-03    -15.3002E-03     20.3342E-03
            1484     4.43167E-03     50.5353E-03    -10.1500E+06    -51.9365E+06    -3.33708E+06     45.6722E+03    -15.4083E-03     30.7794E-03    -15.3710E-03     16.6587E-03    -15.3795E-03     30.5398E-03    -15.2977E-03     16.6568E-03
            1485     3.54536E-03     50.5214E-03    -11.4651E+06    -54.2849E+06    -5.74596E+06     73.9484E+03    -15.3782E-03     30.7406E-03    -15.3624E-03     13.1285E-03    -15.3487E-03     30.4944E-03    -15.2958E-03     13.1275E-03
            1486     2.65903E-03     50.5107E-03    -12.6917E+06    -56.6244E+06    -8.77690E+06    -256.444E+03    -15.3533E-03     30.7044E-03    -15.3511E-03     9.76336E-03    -15.3220E-03     30.4525E-03    -15.2945E-03     9.75871E-03
            1487     1.77266E-03     50.5032E-03    -13.6894E+06    -57.1537E+06    -12.0124E+06    -304.992E+03    -15.3374E-03     30.6742E-03    -15.3368E-03     6.51203E-03    -15.3055E-03     30.4257E-03    -15.2941E-03     6.50725E-03
            1488     886.354E-06     50.4986E-03    -14.4746E+06    -59.5364E+06    -14.1960E+06     433.430E+03    -15.3322E-03     30.6631E-03    -15.3308E-03     3.51685E-03    -15.2975E-03     30.4076E-03    -15.2945E-03     3.52202E-03
            1489     16.8413E-03     50.2954E-03    -952.047E+03     128.081E+06     25.1805E+06     629.277E+03    -19.7140E-03     34.9958E-03    -15.2818E-03     165.170E-03    -22.3375E-03     37.9975E-03    -15.3402E-03     167.190E-03
            1490     15.9522E-03     50.1319E-03    -1.86264E+06     69.0303E+06    -10.1587E+06     1.47473E+06    -19.4025E-03     34.6022E-03    -15.1997E-03     141.010E-03    -20.7084E-03     36.1760E-03    -15.3478E-03     141.410E-03
            1491     15.0679E-03     50.0295E-03    -2.50521E+06     23.2319E+06    -4.74756E+06     540.695E+03    -17.3497E-03     32.6440E-03    -15.2943E-03     90.6939E-03    -17.6219E-03     33.0035E-03    -15.3481E-03     90.6798E-03
            1492     14.1804E-03     49.9645E-03    -1.42808E+06    -12.0814E+06    -6.32836E+06    -153.573E+03    -16.3735E-03     31.7096E-03    -15.3361E-03     65.7162E-03    -16.4335E-03     31.7400E-03    -15.3482E-03     65.6745E-03
            1493     13.2945E-03     49.9068E-03    -1.01142E+06    -36.0826E+06    -8.05303E+06    -529.288E+03    -16.4853E-03     31.8430E-03    -15.3577E-03     61.7474E-03    -16.4762E-03     31.7255E-03    -15.3442E-03     61.7039E-03
            1494     12.4082E-03     49.8499E-03    -1.54107E+06    -38.8499E+06     1.94250E+06    -490.763E+03    -16.2935E-03     31.6971E-03    -15.4036E-03     56.7048E-03    -16.2775E-03     31.5321E-03    -15.3353E-03     56.6700E-03
            1495     11.5222E-03     49.8014E-03    -1.71078E+06    -38.4432E+06     4.49278E+06     187.505E+03    -16.0743E-03     31.4834E-03    -15.4090E-03     49.8592E-03    -16.0510E-03     31.3045E-03    -15.3284E-03     49.8402E-03
            1496     10.6358E-03     49.7572E-03    -2.14659E+06    -46.7288E+06     3.60201E+06     649.739E+03    -15.9756E-03     31.3864E-03    -15.4108E-03     45.4366E-03    -15.9348E-03     31.1617E-03    -15.3219E-03     45.4288E-03
            1497     9.74953E-03     49.7169E-03    -2.95800E+06    -47.7097E+06     6.48138E+06     808.535E+03    -15.8724E-03     31.2932E-03    -15.4208E-03     41.1487E-03    -15.8344E-03     31.0565E-03    -15.3149E-03     41.1470E-03
            1498     8.86328E-03     49.6806E-03    -3.62518E+06    -46.7049E+06     6.23060E+06     752.557E+03    -15.7717E-03     31.1832E-03    -15.4115E-03     36.8159E-03    -15.7356E-03     30.9503E-03    -15.3074E-03     36.8166E-03
            1499     7.97705E-03     49.6483E-03    -4.23969E+06    -50.3638E+06     4.80627E+06     540.700E+03    -15.6867E-03     31.0894E-03    -15.4027E-03     32.4913E-03    -15.6447E-03     30.8396E-03    -15.2995E-03     32.4915E-03
            1500     7.09072E-03     49.6200E-03    -5.52581E+06    -49.9444E+06     2.69613E+06     490.080E+03    -15.5870E-03     30.9734E-03    -15.3864E-03     28.2710E-03    -15.5480E-03     30.7296E-03    -15.2925E-03     28.2722E-03
            1501     6.20444E-03     49.5955E-03    -7.18033E+06    -52.7799E+06     952.900E+03     446.915E+03    -15.5126E-03     30.8912E-03    -15.3786E-03     24.1830E-03    -15.4746E-03     30.6376E-03    -15.2869E-03     24.1847E-03
            1502     5.31809E-03     49.5749E-03    -8.58971E+06    -53.9897E+06    -590.468E+03     295.883E+03    -15.4563E-03     30.8257E-03    -15.3695E-03     20.2937E-03    -15.4209E-03     30.5699E-03    -15.2817E-03     20.2944E-03
            1503     4.43178E-03     49.5577E-03    -9.97354E+06    -51.8637E+06    -2.98328E+06     18.6320E+03    -15.3979E-03     30.7497E-03    -15.3518E-03     16.6150E-03    -15.3688E-03     30.5097E-03    -15.2770E-03     16.6128E-03
            1504     3.54543E-03     49.5438E-03    -11.2660E+06    -54.2138E+06    -5.52223E+06    -142.068E+03    -15.3588E-03     30.6999E-03    -15.3411E-03     13.0935E-03    -15.3288E-03     30.4535E-03    -15.2738E-03     13.0898E-03
            1505     2.65907E-03     49.5332E-03    -12.5849E+06    -56.2362E+06    -8.33138E+06    -305.992E+03    -15.3324E-03     30.6623E-03    -15.3298E-03     9.73751E-03    -15.3018E-03     30.4116E-03    -15.2717E-03     9.73222E-03
            1506     1.77274E-03     49.5256E-03    -14.0424E+06    -58.0235E+06    -11.1842E+06    -273.443E+03    -15.3177E-03     30.6354E-03    -15.3177E-03     6.50103E-03    -15.2875E-03     30.3819E-03    -15.2692E-03     6.49664E-03
            1507     886.371E-06     49.5210E-03    -15.0956E+06    -59.2567E+06    -13.8764E+06     302.472E+03    -15.3145E-03     30.6078E-03    -15.2933E-03     3.50285E-03    -15.2838E-03     30.3541E-03    -15.2549E-03     3.50631E-03
            1508     16.8393E-03     49.3162E-03    -2.24918E+06     127.449E+06     19.2185E+06    -110.682E+03    -20.1018E-03     35.3524E-03    -15.2506E-03     166.618E-03    -22.7508E-03     38.3902E-03    -15.3360E-03     168.647E-03
            1509     15.9551E-03     49.1561E-03    -1.91365E+06     68.1584E+06    -10.1762E+06     989.860E+03    -19.2837E-03     34.4779E-03    -15.1942E-03     141.984E-03    -20.5857E-03     36.0446E-03    -15.3411E-03     142.385E-03
            1510     15.0657E-03     49.0509E-03     720.488E+03     23.9728E+06    -3.31069E+06     417.776E+03    -17.2074E-03     32.5072E-03    -15.2998E-03     91.2311E-03    -17.4662E-03     32.8633E-03    -15.3521E-03     91.2178E-03
            1511     14.1810E-03     48.9869E-03     699.100E+03    -11.9446E+06    -5.52626E+06     207.644E+03    -16.6373E-03     31.9759E-03    -15.3386E-03     65.6486E-03    -16.6885E-03     32.0032E-03    -15.3500E-03     65.6107E-03
            1512     13.2944E-03     48.9289E-03    -196.425E+03    -36.1150E+06    -7.39983E+06     675.608E+03    -16.4553E-03     31.8099E-03    -15.3546E-03     61.7921E-03    -16.4428E-03     31.6900E-03    -15.3390E-03     61.7644E-03
            1513     12.4084E-03     48.8720E-03    -1.18490E+06    -38.5777E+06     2.16732E+06     433.978E+03    -16.2954E-03     31.6948E-03    -15.3994E-03     56.6589E-03    -16.2784E-03     31.5303E-03    -15.3309E-03     56.6360E-03
            1514     11.5220E-03     48.8236E-03    -2.61072E+06    -39.0423E+06     3.30443E+06     150.336E+03    -16.0755E-03     31.4758E-03    -15.4003E-03     49.8668E-03    -16.0540E-03     31.2969E-03    -15.3234E-03     49.8474E-03
            1515     10.6358E-03     48.7794E-03    -3.22424E+06    -47.1438E+06     2.89440E+06     682.673E+03    -16.0114E-03     31.4136E-03    -15.4022E-03     45.3827E-03    -15.9744E-03     31.1894E-03    -15.3147E-03     45.3752E-03
            1516     9.74962E-03     48.7391E-03    -3.64973E+06    -47.2350E+06     6.00264E+06     592.867E+03    -15.8988E-03     31.3064E-03    -15.4075E-03     41.0636E-03    -15.8643E-03     31.0738E-03    -15.3037E-03     41.0591E-03
            1517     8.86340E-03     48.7028E-03    -4.15549E+06    -46.5884E+06     5.77370E+06     167.160E+03    -15.7853E-03     31.1803E-03    -15.3950E-03     36.7444E-03    -15.7513E-03     30.9495E-03    -15.2926E-03     36.7375E-03
            1518     7.97714E-03     48.6706E-03    -5.10526E+06    -50.6362E+06     4.16818E+06     599.971E+03    -15.6750E-03     31.0593E-03    -15.3843E-03     32.4272E-03    -15.6360E-03     30.8103E-03    -15.2826E-03     32.4282E-03
            1519     7.09088E-03     48.6423E-03    -6.31199E+06    -49.6668E+06     2.31874E+06     832.758E+03    -15.5721E-03     30.9395E-03    -15.3674E-03     28.2241E-03    -15.5369E-03     30.6988E-03    -15.2747E-03     28.2297E-03
            1520     6.20451E-03     48.6179E-03    -7.28259E+06    -52.4648E+06     1.37960E+06     482.621E+03    -15.5121E-03     30.8727E-03    -15.3606E-03     24.1260E-03    -15.4757E-03     30.6202E-03    -15.2671E-03     24.1282E-03
            1521     5.31824E-03     48.5973E-03    -8.36374E+06    -53.7171E+06     25.7191E+03     198.203E+03    -15.4472E-03     30.7965E-03    -15.3492E-03     20.2356E-03    -15.4120E-03     30.5408E-03    -15.2591E-03     20.2350E-03
            1522     4.43188E-03     48.5801E-03    -9.66369E+06    -51.5873E+06    -2.52405E+06     21.2057E+03    -15.3761E-03     30.7053E-03    -15.3292E-03     16.5697E-03    -15.3464E-03     30.4655E-03    -15.2530E-03     16.5675E-03
            1523     3.54552E-03     48.5663E-03    -11.2673E+06    -54.2256E+06    -5.48298E+06    -100.962E+03    -15.3369E-03     30.6537E-03    -15.3168E-03     13.0589E-03    -15.3069E-03     30.4071E-03    -15.2492E-03     13.0557E-03
            1524     2.65915E-03     48.5557E-03    -12.9411E+06    -56.1212E+06    -8.86512E+06    -130.350E+03    -15.3057E-03     30.6084E-03    -15.3027E-03     9.70613E-03    -15.2763E-03     30.3595E-03    -15.2469E-03     9.70312E-03
            1525     1.77276E-03     48.5482E-03    -14.5309E+06    -58.4085E+06    -11.9190E+06    -189.127E+03    -15.2885E-03     30.5802E-03    -15.2918E-03     6.49079E-03    -15.2591E-03     30.3266E-03    -15.2456E-03     6.48749E-03
            1526     886.375E-06     48.5436E-03    -15.8864E+06    -59.3291E+06    -14.6038E+06    -198.051E+03    -15.2833E-03     30.5578E-03    -15.2745E-03     3.48588E-03    -15.2554E-03     30.3060E-03    -15.2385E-03     3.48284E-03
            1527     16.8388E-03     48.3333E-03    -2.27064E+06     126.780E+06     19.9904E+06    -1.10208E+06    -19.9614E-03     35.2426E-03    -15.2813E-03     166.024E-03    -22.6187E-03     38.2841E-03    -15.3618E-03     168.024E-03
            1528     15.9519E-03     48.1807E-03    -369.536E+03     68.1406E+06    -10.1821E+06    -1.46045E+06    -19.6315E-03     34.8402E-03    -15.2087E-03     141.113E-03    -20.9373E-03     36.4162E-03    -15.3579E-03     141.483E-03
            1529     15.0673E-03     48.0717E-03    -175.765E+03     24.4164E+06    -3.83206E+06     858.807E+03    -17.5018E-03     32.7956E-03    -15.2938E-03     90.9365E-03    -17.7666E-03     33.1576E-03    -15.3481E-03     90.9256E-03
            1530     14.1804E-03     48.0093E-03    -1.09456E+06    -11.8378E+06    -6.25121E+06     915.124E+03    -16.4377E-03     31.7674E-03    -15.3296E-03     65.1712E-03    -16.4960E-03     31.7979E-03    -15.3422E-03     65.1431E-03
            1531     13.2946E-03     47.9509E-03    -289.031E+03    -36.6527E+06    -7.27065E+06     684.977E+03    -16.5089E-03     31.8605E-03    -15.3516E-03     61.7633E-03    -16.4965E-03     31.7381E-03    -15.3344E-03     61.7354E-03
            1532     12.4084E-03     47.8943E-03    -51.6465E+03    -38.4008E+06     3.45923E+06     1.54765E+06    -16.3154E-03     31.7118E-03    -15.3964E-03     56.4805E-03    -16.2947E-03     31.5446E-03    -15.3234E-03     56.4719E-03
            1533     11.5222E-03     47.8458E-03    -1.13455E+06    -38.3059E+06     5.36785E+06     1.17575E+06    -16.1270E-03     31.5234E-03    -15.3964E-03     49.6739E-03    -16.1023E-03     31.3431E-03    -15.3124E-03     49.6675E-03
            1534     10.6360E-03     47.8015E-03    -1.83137E+06    -47.2566E+06     4.07836E+06     185.754E+03    -16.0375E-03     31.4286E-03    -15.3912E-03     45.2152E-03    -15.9951E-03     31.2001E-03    -15.2996E-03     45.2012E-03
            1535     9.74983E-03     47.7614E-03    -1.63543E+06    -46.7938E+06     6.68471E+06     11.8925E+03    -15.8991E-03     31.2892E-03    -15.3901E-03     40.9702E-03    -15.8561E-03     31.0549E-03    -15.2864E-03     40.9582E-03
            1536     8.86359E-03     47.7250E-03    -2.63981E+06    -47.1916E+06     6.48488E+06     624.932E+03    -15.7740E-03     31.1535E-03    -15.3794E-03     36.6641E-03    -15.7327E-03     30.9164E-03    -15.2748E-03     36.6632E-03
            1537     7.97732E-03     47.6930E-03    -4.63745E+06    -50.9577E+06     5.45016E+06     1.22122E+06    -15.6746E-03     31.0462E-03    -15.3716E-03     32.3315E-03    -15.6347E-03     30.7931E-03    -15.2637E-03     32.3405E-03
            1538     7.09096E-03     47.6647E-03    -6.02244E+06    -48.7281E+06     3.30425E+06     651.144E+03    -15.5765E-03     30.9253E-03    -15.3488E-03     28.1489E-03    -15.5426E-03     30.6875E-03    -15.2529E-03     28.1521E-03
            1539     6.20472E-03     47.6403E-03    -6.88365E+06    -52.3106E+06     1.86509E+06     101.627E+03    -15.5031E-03     30.8407E-03    -15.3375E-03     24.0549E-03    -15.4656E-03     30.5876E-03    -15.2424E-03     24.0522E-03
            1540     5.31837E-03     47.6197E-03    -8.00950E+06    -53.5298E+06     123.277E+03     142.902E+03    -15.4232E-03     30.7463E-03    -15.3231E-03     20.1771E-03    -15.3866E-03     30.4909E-03    -15.2332E-03     20.1758E-03
            1541     4.43200E-03     47.6026E-03    -9.53705E+06    -51.5296E+06    -2.58420E+06     135.179E+03    -15.3514E-03     30.6540E-03    -15.3026E-03     16.5239E-03    -15.3211E-03     30.4144E-03    -15.2269E-03     16.5232E-03
            1542     3.54561E-03     47.5888E-03    -11.0563E+06    -54.1288E+06    -5.37614E+06     130.468E+03    -15.3119E-03     30.6024E-03    -15.2905E-03     13.0207E-03    -15.2811E-03     30.3559E-03    -15.2229E-03     13.0206E-03
            1543     2.65922E-03     47.5783E-03    -12.4670E+06    -56.1438E+06    -8.96773E+06     85.1330E+03    -15.2822E-03     30.5572E-03    -15.2750E-03     9.67069E-03    -15.2502E-03     30.3077E-03    -15.2203E-03     9.67047E-03
            1544     1.77280E-03     47.5707E-03    -13.5340E+06    -58.2010E+06    -11.9752E+06    -24.9461E+03    -15.2675E-03     30.5303E-03    -15.2628E-03     6.46753E-03    -15.2333E-03     30.2763E-03    -15.2187E-03     6.46632E-03
            1545     886.427E-06     47.5661E-03    -14.2770E+06    -59.7777E+06    -13.7521E+06    -333.955E+03    -15.2440E-03     30.5133E-03    -15.2693E-03     3.44924E-03    -15.2086E-03     30.2557E-03    -15.2307E-03     3.44441E-03
            1546     16.8403E-03     47.3620E-03    -1.81233E+06     127.842E+06     22.8913E+06    -469.755E+03    -19.9006E-03     35.1741E-03    -15.2735E-03     164.621E-03    -22.5131E-03     38.1676E-03    -15.3418E-03     166.609E-03
            1547     15.9531E-03     47.1978E-03    -4.57352E+06     66.2446E+06    -13.3744E+06    -408.914E+03    -19.5028E-03     34.6866E-03    -15.1838E-03     140.788E-03    -20.8127E-03     36.2542E-03    -15.3401E-03     141.161E-03
            1548     15.0679E-03     47.0960E-03    -5.95090E+06     22.9232E+06    -6.62424E+06    -370.905E+03    -17.4225E-03     32.6982E-03    -15.2757E-03     90.4525E-03    -17.7086E-03     33.0637E-03    -15.3334E-03     90.4258E-03
            1549     14.1809E-03     47.0309E-03    -3.94122E+06    -11.4444E+06    -6.99543E+06     379.447E+03    -16.3729E-03     31.6893E-03    -15.3164E-03     65.6206E-03    -16.4450E-03     31.7271E-03    -15.3291E-03     65.5857E-03
            1550     13.2947E-03     46.9733E-03    -3.58181E+06    -36.9097E+06    -8.32978E+06     625.400E+03    -16.4960E-03     31.8354E-03    -15.3394E-03     61.5290E-03    -16.4981E-03     31.7179E-03    -15.3223E-03     61.5003E-03
            1551     12.4085E-03     46.9163E-03    -2.99152E+06    -38.7601E+06     2.04535E+06     343.286E+03    -16.3463E-03     31.7255E-03    -15.3792E-03     56.4098E-03    -16.3377E-03     31.5627E-03    -15.3084E-03     56.3856E-03
            1552     11.5225E-03     46.8679E-03    -1.14521E+06    -37.6334E+06     4.88207E+06     481.198E+03    -16.1357E-03     31.5105E-03    -15.3748E-03     49.6214E-03    -16.1112E-03     31.3342E-03    -15.2942E-03     49.6061E-03
            1553     10.6362E-03     46.8238E-03    -741.454E+03    -46.4748E+06     3.85287E+06     213.164E+03    -16.0165E-03     31.3848E-03    -15.3683E-03     45.2183E-03    -15.9694E-03     31.1588E-03    -15.2805E-03     45.2049E-03
            1554     9.75004E-03     46.7836E-03    -2.38278E+06    -47.4527E+06     6.01943E+06     280.116E+03    -15.8841E-03     31.2539E-03    -15.3698E-03     40.9415E-03    -15.8429E-03     31.0183E-03    -15.2674E-03     40.9331E-03
            1555     8.86371E-03     46.7474E-03    -3.87258E+06    -48.0011E+06     6.20136E+06     1.12908E+06    -15.7730E-03     31.1334E-03    -15.3604E-03     36.5891E-03    -15.7362E-03     30.8944E-03    -15.2542E-03     36.5947E-03
            1556     7.97745E-03     46.7153E-03    -4.31274E+06    -50.4302E+06     6.25388E+06     1.05040E+06    -15.6843E-03     31.0348E-03    -15.3505E-03     32.2375E-03    -15.6447E-03     30.7827E-03    -15.2399E-03     32.2442E-03
            1557     7.09126E-03     46.6871E-03    -4.93943E+06    -47.8869E+06     4.22996E+06     556.748E+03    -15.5680E-03     30.8918E-03    -15.3238E-03     28.0568E-03    -15.5313E-03     30.6553E-03    -15.2260E-03     28.0588E-03
            1558     6.20486E-03     46.6627E-03    -6.49790E+06    -52.1556E+06     1.49490E+06     302.565E+03    -15.4744E-03     30.7816E-03    -15.3072E-03     23.9923E-03    -15.4347E-03     30.5293E-03    -15.2146E-03     23.9923E-03
            1559     5.31851E-03     46.6422E-03    -8.16782E+06    -53.5727E+06    -233.551E+03     221.057E+03    -15.4004E-03     30.6939E-03    -15.2935E-03     20.1174E-03    -15.3640E-03     30.4390E-03    -15.2051E-03     20.1172E-03
            1560     4.43213E-03     46.6251E-03    -9.50300E+06    -51.4389E+06    -2.65845E+06     239.201E+03    -15.3279E-03     30.6007E-03    -15.2728E-03     16.4639E-03    -15.2975E-03     30.3617E-03    -15.1978E-03     16.4645E-03
            1561     3.54572E-03     46.6114E-03    -10.8569E+06    -54.0125E+06    -5.39592E+06     123.563E+03    -15.2834E-03     30.5435E-03    -15.2601E-03     12.9697E-03    -15.2518E-03     30.2973E-03    -15.1930E-03     12.9694E-03
            1562     2.65928E-03     46.6008E-03    -11.9686E+06    -56.0830E+06    -8.48157E+06     55.5081E+03    -15.2600E-03     30.5053E-03    -15.2454E-03     9.62819E-03    -15.2263E-03     30.2547E-03    -15.1891E-03     9.62760E-03
            1563     1.77289E-03     46.5933E-03    -12.7399E+06    -58.0059E+06    -11.4032E+06    -8.76150E+03    -15.2384E-03     30.4699E-03    -15.2315E-03     6.43311E-03    -15.2014E-03     30.2149E-03    -15.1860E-03     6.43211E-03
            1564     886.412E-06     46.5887E-03    -13.2019E+06    -60.0213E+06    -13.1470E+06    -69.9779E+03    -15.2188E-03     30.4541E-03    -15.2354E-03     3.43528E-03    -15.1785E-03     30.1928E-03    -15.1949E-03     3.43383E-03
            1565     16.8397E-03     46.3815E-03    -3.52454E+06     128.238E+06     20.0701E+06     560.540E+03    -20.2127E-03     35.4758E-03    -15.2631E-03     166.185E-03    -22.8643E-03     38.5120E-03    -15.3436E-03     168.211E-03
            1566     15.9547E-03     46.2223E-03    -5.00452E+06     66.4127E+06    -12.5222E+06     503.175E+03    -19.5464E-03     34.7314E-03    -15.1850E-03     141.683E-03    -20.8584E-03     36.2978E-03    -15.3367E-03     142.068E-03
            1567     15.0661E-03     46.1170E-03    -2.52425E+06     22.2623E+06    -5.27272E+06    -793.510E+03    -17.2792E-03     32.5604E-03    -15.2813E-03     91.0663E-03    -17.5473E-03     32.9139E-03    -15.3362E-03     91.0363E-03
            1568     14.1812E-03     46.0534E-03    -2.65008E+06    -12.8777E+06    -6.74475E+06     155.114E+03    -16.7184E-03     32.0344E-03    -15.3161E-03     65.6931E-03    -16.7831E-03     32.0636E-03    -15.3273E-03     65.6542E-03
            1569     13.2949E-03     45.9952E-03    -2.47833E+06    -36.3259E+06    -7.81553E+06     939.202E+03    -16.5355E-03     31.8611E-03    -15.3257E-03     61.6468E-03    -16.5334E-03     31.7440E-03    -15.3085E-03     61.6223E-03
            1570     12.4089E-03     45.9385E-03    -2.39998E+06    -37.2970E+06     1.26653E+06    -557.768E+03    -16.3344E-03     31.6913E-03    -15.3569E-03     56.4499E-03    -16.3237E-03     31.5361E-03    -15.2930E-03     56.4143E-03
            1571     11.5225E-03     45.8901E-03    -2.93317E+06    -38.8761E+06     2.50699E+06    -1.02014E+06    -16.1200E-03     31.4719E-03    -15.3518E-03     49.6679E-03    -16.0992E-03     31.2953E-03    -15.2787E-03     49.6334E-03
            1572     10.6364E-03     45.8460E-03    -3.38044E+06    -46.8275E+06     2.50414E+06     635.651E+03    -16.0238E-03     31.3725E-03    -15.3487E-03     45.1483E-03    -15.9873E-03     31.1505E-03    -15.2634E-03     45.1403E-03
            1573     9.75013E-03     45.8059E-03    -4.29502E+06    -47.5051E+06     5.71088E+06     1.09550E+06    -15.8979E-03     31.2482E-03    -15.3503E-03     40.8450E-03    -15.8657E-03     31.0155E-03    -15.2466E-03     40.8471E-03
            1574     8.86399E-03     45.7697E-03    -4.84556E+06    -47.9284E+06     5.77393E+06     355.425E+03    -15.7845E-03     31.1191E-03    -15.3346E-03     36.4865E-03    -15.7521E-03     30.8826E-03    -15.2292E-03     36.4822E-03
            1575     7.97777E-03     45.7376E-03    -5.00184E+06    -49.9851E+06     4.59304E+06     48.2685E+03    -15.6607E-03     30.9758E-03    -15.3151E-03     32.1859E-03    -15.6227E-03     30.7293E-03    -15.2124E-03     32.1798E-03
            1576     7.09138E-03     45.7095E-03    -5.75921E+06    -48.2527E+06     3.16477E+06     571.547E+03    -15.5417E-03     30.8337E-03    -15.2920E-03     27.9911E-03    -15.5070E-03     30.5980E-03    -15.1979E-03     27.9933E-03
            1577     6.20506E-03     45.6853E-03    -6.92916E+06    -51.4827E+06     1.67384E+06     720.062E+03    -15.4565E-03     30.7347E-03    -15.2781E-03     23.9157E-03    -15.4202E-03     30.4861E-03    -15.1851E-03     23.9210E-03
            1578     5.31868E-03     45.6647E-03    -8.17769E+06    -53.5311E+06    -153.637E+03     233.967E+03    -15.3790E-03     30.6412E-03    -15.2622E-03     20.0427E-03    -15.3428E-03     30.3864E-03    -15.1735E-03     20.0426E-03
            1579     4.43228E-03     45.6477E-03    -9.52471E+06    -51.3728E+06    -2.79483E+06     208.272E+03    -15.3035E-03     30.5420E-03    -15.2385E-03     16.3969E-03    -15.2731E-03     30.3035E-03    -15.1642E-03     16.3972E-03
            1580     3.54583E-03     45.6340E-03    -10.8959E+06    -53.7940E+06     -5.4379E+06     150.442E+03    -15.2579E-03     30.4816E-03    -15.2237E-03     12.9116E-03    -15.2268E-03     30.2366E-03    -15.1570E-03     12.9117E-03
            1581     2.65942E-03     45.6235E-03    -12.3186E+06    -56.0344E+06    -8.63587E+06    -5.16738E+03    -15.2214E-03     30.4289E-03    -15.2075E-03     9.58501E-03    -15.1894E-03     30.1793E-03    -15.1516E-03     9.58365E-03
            1582     1.77292E-03     45.6160E-03    -13.6231E+06    -58.1650E+06    -11.7352E+06     168.836E+03    -15.1983E-03     30.3915E-03    -15.1932E-03     6.39124E-03    -15.1651E-03     30.1375E-03    -15.1478E-03     6.39255E-03
            1583     886.487E-06     45.6115E-03    -14.7999E+06    -59.6947E+06    -14.2384E+06     420.344E+03    -15.1781E-03     30.3662E-03    -15.1881E-03     3.42832E-03    -15.1447E-03     30.1105E-03    -15.1513E-03     3.43319E-03
            1584     16.8379E-03     45.3988E-03    -1.75252E+06     127.326E+06     21.5576E+06     120.175E+03    -20.0137E-03     35.2983E-03    -15.2846E-03     165.376E-03    -22.6610E-03     38.3289E-03    -15.3589E-03     167.385E-03
            1585     15.9524E-03     45.2459E-03     639.480E+03     68.3593E+06    -10.2744E+06    -326.491E+03    -19.6418E-03     34.8406E-03    -15.1988E-03     140.214E-03    -20.9310E-03     36.4046E-03    -15.3503E-03     140.590E-03
            1586     15.0675E-03     45.1384E-03    -497.843E+03     23.3728E+06    -4.60132E+06     707.463E+03    -17.6084E-03     32.8870E-03    -15.2786E-03     90.8116E-03    -17.8704E-03     33.2435E-03    -15.3347E-03     90.7979E-03
            1587     14.1807E-03     45.0754E-03    -1.26104E+06    -14.0195E+06    -7.47900E+06     237.836E+03    -16.6686E-03     31.9704E-03    -15.3018E-03     65.1107E-03    -16.7230E-03     31.9923E-03    -15.3171E-03     65.0731E-03
            1588     13.2951E-03     45.0171E-03    -59.6418E+03    -36.2556E+06    -7.56503E+06     320.059E+03    -16.6054E-03     31.9169E-03    -15.3115E-03     61.4560E-03    -16.5917E-03     31.7962E-03    -15.2967E-03     61.4233E-03
            1589     12.4088E-03     44.9609E-03    -355.711E+03    -35.9480E+06     3.02096E+06     726.983E+03    -16.3480E-03     31.6934E-03    -15.3454E-03     56.3091E-03    -16.3315E-03     31.5393E-03    -15.2777E-03     56.2900E-03
            1590     11.5228E-03     44.9122E-03    -2.86212E+06    -39.3867E+06     3.93385E+06     442.793E+03    -16.1500E-03     31.4912E-03    -15.3412E-03     49.4703E-03    -16.1301E-03     31.3100E-03    -15.2603E-03     49.4545E-03
            1591     10.6366E-03     44.8684E-03    -4.39456E+06    -47.7528E+06     2.84409E+06     186.609E+03    -16.0428E-03     31.3735E-03    -15.3307E-03     44.9856E-03    -16.0105E-03     31.1479E-03    -15.2409E-03     44.9718E-03
            1592     9.75050E-03     44.8281E-03    -3.57255E+06    -46.9031E+06     5.47801E+06     50.7504E+03    -15.9057E-03     31.2269E-03    -15.3212E-03     40.7550E-03    -15.8704E-03     30.9965E-03    -15.2206E-03     40.7437E-03
            1593     8.86424E-03     44.7921E-03    -3.47291E+06    -47.5841E+06     5.38750E+06    -42.3106E+03    -15.7667E-03     31.0691E-03    -15.3024E-03     36.4145E-03    -15.7272E-03     30.8328E-03    -15.2014E-03     36.4050E-03
            1594     7.97790E-03     44.7601E-03    -5.09352E+06    -50.2804E+06     4.21331E+06     208.470E+03    -15.6422E-03     30.9273E-03    -15.2851E-03     32.0956E-03    -15.6037E-03     30.6800E-03    -15.1838E-03     32.0917E-03
            1595     7.09161E-03     44.7321E-03    -6.44450E+06    -48.5570E+06     2.82558E+06     303.476E+03    -15.5281E-03     30.7894E-03    -15.2612E-03     27.9017E-03    -15.4959E-03     30.5537E-03    -15.1674E-03     27.9005E-03
            1596     6.20526E-03     44.7078E-03    -7.08223E+06    -51.2218E+06     2.09065E+06     314.626E+03    -15.4422E-03     30.6889E-03    -15.2467E-03     23.8184E-03    -15.4076E-03     30.4412E-03    -15.1517E-03     23.8185E-03
            1597     5.31889E-03     44.6874E-03    -8.17281E+06    -53.1460E+06     38.8627E+03     331.868E+03    -15.3560E-03     30.5824E-03    -15.2264E-03     19.9594E-03    -15.3207E-03     30.3292E-03    -15.1373E-03     19.9606E-03
            1598     4.43243E-03     44.6704E-03    -9.52453E+06    -51.4230E+06    -2.82510E+06     105.353E+03    -15.2780E-03     30.4776E-03    -15.1996E-03     16.3229E-03    -15.2475E-03     30.2389E-03    -15.1253E-03     16.3218E-03
            1599     3.54601E-03     44.6567E-03    -10.7676E+06    -53.7180E+06    -5.66221E+06     234.906E+03    -15.2222E-03     30.4036E-03    -15.1814E-03     12.8492E-03    -15.1902E-03     30.1591E-03    -15.1162E-03     12.8505E-03
            1600     2.65949E-03     44.6462E-03    -12.2819E+06    -55.9726E+06    -8.76916E+06     384.542E+03    -15.1811E-03     30.3462E-03    -15.1651E-03     9.53880E-03    -15.1487E-03     30.0970E-03    -15.1099E-03     9.54249E-03
            1601     1.77303E-03     44.6388E-03    -13.8311E+06    -58.3132E+06    -11.6938E+06     469.960E+03    -15.1600E-03     30.3107E-03    -15.1506E-03     6.35673E-03    -15.1277E-03     30.0561E-03    -15.1045E-03     6.36193E-03
            1602     886.510E-06     44.6342E-03    -14.8182E+06    -58.8930E+06    -14.0650E+06     661.762E+03    -15.1426E-03     30.2748E-03    -15.1322E-03     3.38222E-03    -15.1107E-03     30.0228E-03    -15.0956E-03     3.39026E-03
            1603     16.8418E-03     44.4263E-03    -1.48656E+06     128.139E+06     25.5187E+06     161.518E+03    -19.9383E-03     35.2129E-03    -15.2745E-03     164.754E-03    -22.5594E-03     38.2095E-03    -15.3306E-03     166.747E-03
            1604     15.9534E-03     44.2646E-03    -3.91924E+06     67.1837E+06    -12.4470E+06     179.237E+03    -19.5291E-03     34.7000E-03    -15.1709E-03     140.017E-03    -20.8288E-03     36.2604E-03    -15.3249E-03     140.395E-03
            1605     15.0677E-03     44.1619E-03    -4.18383E+06     22.9559E+06    -5.82962E+06     359.699E+03    -17.6143E-03     32.8670E-03    -15.2527E-03     90.1812E-03    -17.8919E-03     33.2281E-03    -15.3091E-03     90.1628E-03
            1606     14.1816E-03     44.0967E-03    -3.05455E+06    -12.5682E+06    -6.84548E+06    -69.1510E+03    -16.5213E-03     31.8020E-03    -15.2807E-03     65.1578E-03    -16.5873E-03     31.8323E-03    -15.2922E-03     65.1168E-03
            1607     13.2953E-03     44.0398E-03    -2.25664E+06    -37.1102E+06    -8.23583E+06    -723.519E+03    -16.5409E-03     31.8331E-03    -15.2922E-03     61.2032E-03    -16.5356E-03     31.7119E-03    -15.2763E-03     61.1571E-03
            1608     12.4093E-03     43.9825E-03    -1.24872E+06    -37.6217E+06     3.48606E+06     1.01241E+06    -16.3847E-03     31.7144E-03    -15.3297E-03     56.1863E-03    -16.3709E-03     31.5525E-03    -15.2559E-03     56.1708E-03
            1609     11.5232E-03     43.9347E-03    -1.04510E+06    -38.0178E+06     5.99515E+06     1.85901E+06    -16.1572E-03     31.4788E-03    -15.3216E-03     49.3288E-03    -16.1331E-03     31.2987E-03    -15.2350E-03     49.3314E-03
            1610     10.6369E-03     43.8904E-03    -1.35903E+06    -46.3976E+06     3.99661E+06    -204.090E+03    -16.0407E-03     31.3438E-03    -15.3030E-03     44.9614E-03    -15.9969E-03     31.1188E-03    -15.2138E-03     44.9427E-03
            1611     9.75075E-03     43.8506E-03    -2.02027E+06    -47.4375E+06     5.52398E+06    -955.475E+03    -15.8974E-03     31.1890E-03    -15.2916E-03     40.6841E-03    -15.8536E-03     30.9536E-03    -15.1923E-03     40.6598E-03
            1612     8.86444E-03     43.8144E-03    -2.89111E+06    -48.2343E+06     5.80104E+06     134.855E+03    -15.7585E-03     31.0332E-03    -15.2747E-03     36.3111E-03    -15.7158E-03     30.7921E-03    -15.1715E-03     36.3040E-03
            1613     7.97823E-03     43.7826E-03    -3.71092E+06    -50.4113E+06     6.13440E+06     688.542E+03    -15.6479E-03     30.9079E-03    -15.2600E-03     31.9501E-03    -15.6051E-03     30.6551E-03    -15.1508E-03     31.9524E-03
            1614     7.09188E-03     43.7545E-03    -4.91334E+06    -48.0229E+06     3.48967E+06     318.072E+03    -15.5173E-03     30.7426E-03    -15.2252E-03     27.7837E-03    -15.4792E-03     30.5063E-03    -15.1310E-03     27.7827E-03
            1615     6.20550E-03     43.7304E-03    -6.53871E+06    -51.6355E+06     1.37422E+06     280.703E+03    -15.4199E-03     30.6242E-03    -15.2043E-03     23.7199E-03    -15.3809E-03     30.3747E-03    -15.1131E-03     23.7196E-03
            1616     5.31907E-03     43.7100E-03    -8.08232E+06    -52.7703E+06     358.511E+03     421.559E+03    -15.3351E-03     30.5210E-03    -15.1859E-03     19.8560E-03    -15.3003E-03     30.2691E-03    -15.0959E-03     19.8584E-03
            1617     4.43267E-03     43.6931E-03    -9.64824E+06    -51.2250E+06    -2.70757E+06     204.075E+03    -15.2414E-03     30.3973E-03    -15.1559E-03     16.2319E-03    -15.2119E-03     30.1596E-03    -15.0812E-03     16.2322E-03
            1618     3.54613E-03     43.6795E-03    -11.2137E+06    -54.0567E+06    -5.95880E+06     277.869E+03    -15.1795E-03     30.3148E-03    -15.1354E-03     12.7729E-03    -15.1488E-03     30.0697E-03    -15.0705E-03     12.7747E-03
            1619     2.65964E-03     43.6691E-03    -12.2342E+06    -55.6737E+06    -8.86583E+06     425.993E+03    -15.1388E-03     30.2557E-03    -15.1170E-03     9.48093E-03    -15.1064E-03     30.0080E-03    -15.0628E-03     9.48516E-03
            1620     1.77309E-03     43.6616E-03    -12.7401E+06    -58.2026E+06    -10.5199E+06     219.308E+03    -15.1156E-03     30.2223E-03    -15.1067E-03     6.32276E-03    -15.0796E-03     29.9650E-03    -15.0565E-03     6.32475E-03
            1621     886.562E-06     43.6572E-03    -13.2883E+06    -58.2603E+06    -11.9957E+06     214.852E+03    -15.1161E-03     30.1896E-03    -15.0735E-03     3.36478E-03    -15.0805E-03     29.9357E-03    -15.0297E-03     3.36705E-03
            1622     16.8385E-03     43.4461E-03    -1.09310E+06     127.605E+06     23.6996E+06     724.985E+03    -20.1987E-03     35.4566E-03    -15.2579E-03     165.230E-03    -22.8176E-03     38.4558E-03    -15.3228E-03     167.224E-03
            1623     15.9547E-03     43.2882E-03    -3.19522E+06     67.6821E+06    -10.8675E+06     1.70811E+06    -19.6451E-03     34.8072E-03    -15.1621E-03     141.126E-03    -20.9472E-03     36.3698E-03    -15.3100E-03     141.525E-03
            1624     15.0678E-03     43.1829E-03    -2.72234E+06     22.9415E+06    -4.81212E+06     127.454E+03    -17.5260E-03     32.7687E-03    -15.2427E-03     90.6557E-03    -17.7976E-03     33.1260E-03    -15.2961E-03     90.6359E-03
            1625     14.1817E-03     43.1196E-03    -2.56736E+06    -11.5223E+06    -6.07402E+06    -176.685E+03    -16.6336E-03     31.9024E-03    -15.2688E-03     65.3860E-03    -16.6997E-03     31.9361E-03    -15.2788E-03     65.3433E-03
            1626     13.2957E-03     43.0615E-03    -2.91831E+06    -37.1275E+06    -8.41268E+06    -360.054E+03    -16.5527E-03     31.8269E-03    -15.2743E-03     61.4800E-03    -16.5503E-03     31.7068E-03    -15.2583E-03     61.4388E-03
            1627     12.4095E-03     43.0051E-03    -2.97432E+06    -39.6730E+06     769.746E+03    -414.987E+03    -16.4073E-03     31.7086E-03    -15.3013E-03     56.2757E-03    -16.3951E-03     31.5428E-03    -15.2356E-03     56.2419E-03
            1628     11.5233E-03     42.9566E-03    -1.13945E+06    -37.3199E+06     4.59342E+06     7.90244E+03    -16.1688E-03     31.4595E-03    -15.2907E-03     49.3774E-03    -16.1441E-03     31.2849E-03    -15.2119E-03     49.3562E-03
            1629     10.6372E-03     42.9129E-03    -420.643E+03    -45.1617E+06     4.36217E+06     287.446E+03    -16.0540E-03     31.3298E-03    -15.2758E-03     44.8935E-03    -16.0077E-03     31.1090E-03    -15.1879E-03     44.8811E-03
            1630     9.75099E-03     42.8727E-03    -2.64579E+06    -48.0683E+06     6.01667E+06     529.624E+03    -15.9033E-03     31.1699E-03    -15.2666E-03     40.5588E-03    -15.8624E-03     30.9315E-03    -15.1629E-03     40.5538E-03
            1631     8.86483E-03     42.8370E-03    -4.91945E+06    -48.3477E+06     4.90885E+06     156.338E+03    -15.7615E-03     31.0012E-03    -15.2397E-03     36.1980E-03    -15.7274E-03     30.7638E-03    -15.1380E-03     36.1912E-03
            1632     7.97848E-03     42.8049E-03    -5.39103E+06    -50.4223E+06     3.70975E+06    -261.270E+03    -15.6313E-03     30.8442E-03    -15.2129E-03     31.8773E-03    -15.5933E-03     30.5973E-03    -15.1134E-03     31.8673E-03
            1633     7.09219E-03     42.7772E-03    -5.62780E+06    -48.3695E+06     2.80150E+06     485.911E+03    -15.5057E-03     30.6880E-03    -15.1823E-03     27.6590E-03    -15.4696E-03     30.4521E-03    -15.0900E-03     27.6602E-03
            1634     6.20575E-03     42.7530E-03    -6.63530E+06    -51.2348E+06     1.34168E+06     597.102E+03    -15.3991E-03     30.5577E-03    -15.1587E-03     23.5960E-03    -15.3611E-03     30.3104E-03    -15.0681E-03     23.5998E-03
            1635     5.31938E-03     42.7328E-03    -7.65354E+06    -52.7088E+06     364.498E+03     156.288E+03    -15.2976E-03     30.4351E-03    -15.1375E-03     19.7432E-03    -15.2607E-03     30.1829E-03    -15.0482E-03     19.7422E-03
            1636     4.43283E-03     42.7159E-03    -8.77795E+06    -51.1728E+06    -1.29424E+06     366.971E+03    -15.2040E-03     30.3161E-03    -15.1121E-03     16.1275E-03    -15.1723E-03     30.0753E-03    -15.0316E-03     16.1299E-03
            1637     3.54636E-03     42.7024E-03    -10.3207E+06    -54.0761E+06    -4.11393E+06     395.143E+03    -15.1414E-03     30.2325E-03    -15.0911E-03     12.6886E-03    -15.1089E-03     29.9834E-03    -15.0183E-03     12.6919E-03
            1638     2.65978E-03     42.6919E-03    -11.9060E+06    -55.4199E+06    -7.95735E+06     239.834E+03    -15.0899E-03     30.1556E-03    -15.0657E-03     9.41862E-03    -15.0576E-03     29.9074E-03    -15.0079E-03     9.42046E-03
            1639     1.77320E-03     42.6846E-03    -13.4036E+06    -57.7841E+06    -11.1612E+06     62.4294E+03    -15.0546E-03     30.1031E-03    -15.0484E-03     6.27545E-03    -15.0217E-03     29.8498E-03    -15.0010E-03     6.27544E-03
            1640     886.601E-06     42.6800E-03    -14.5424E+06    -58.3645E+06    -13.3925E+06    -526.060E+03    -15.0413E-03     30.0707E-03    -15.0294E-03     3.36648E-03    -15.0098E-03     29.8201E-03    -14.9906E-03     3.35921E-03
            1641     16.8410E-03     42.4676E-03    -2.23251E+06     125.943E+06     20.0678E+06    -153.598E+03    -20.1954E-03     35.4505E-03    -15.2551E-03     164.748E-03    -22.8080E-03     38.4441E-03    -15.3341E-03     166.725E-03
            1642     15.9530E-03     42.3101E-03    -1.20777E+06     67.8567E+06    -10.5669E+06     940.498E+03    -19.7873E-03     34.9537E-03    -15.1664E-03     140.634E-03    -21.0795E-03     36.5131E-03    -15.3159E-03     141.023E-03
            1643     15.0675E-03     42.2046E-03    -360.000E+03     24.6840E+06    -3.82098E+06     913.467E+03    -17.6392E-03     32.8785E-03    -15.2393E-03     90.2749E-03    -17.9030E-03     33.2397E-03    -15.2937E-03     90.2637E-03
            1644     14.1816E-03     42.1415E-03    -932.945E+03    -12.1802E+06    -6.77206E+06     320.845E+03    -16.6469E-03     31.9043E-03    -15.2574E-03     65.0531E-03    -16.7025E-03     31.9330E-03    -15.2722E-03     65.0168E-03
            1645     13.2956E-03     42.0836E-03    -1.26870E+06    -36.6352E+06    -8.12203E+06     660.515E+03    -16.6586E-03     31.9204E-03    -15.2618E-03     61.4675E-03    -16.6494E-03     31.8001E-03    -15.2474E-03     61.4392E-03
            1646     12.4097E-03     42.0271E-03    -1.41615E+06    -38.4002E+06     1.21317E+06    -853.485E+03    -16.4597E-03     31.7422E-03    -15.2824E-03     56.1032E-03    -16.4422E-03     31.5797E-03    -15.2186E-03     56.0637E-03
            1647     11.5236E-03     41.9790E-03    -2.11024E+06    -38.6732E+06     3.07921E+06    -1.44950E+06    -16.2114E-03     31.4757E-03    -15.2644E-03     49.2885E-03    -16.1873E-03     31.2979E-03    -15.1899E-03     49.2486E-03
            1648     10.6375E-03     41.9350E-03    -3.03218E+06    -46.7212E+06     3.32413E+06     886.248E+03    -16.0854E-03     31.3343E-03    -15.2489E-03     44.7189E-03    -16.0483E-03     31.1110E-03    -15.1602E-03     44.7142E-03
            1649     9.75136E-03     41.8953E-03    -3.57379E+06    -47.1058E+06     5.09558E+06     1.43531E+06    -15.9151E-03     31.1439E-03    -15.2288E-03     40.4138E-03    -15.8788E-03     30.9129E-03    -15.1298E-03     40.4205E-03
            1650     8.86507E-03     41.8593E-03    -3.96786E+06    -47.4153E+06     4.71397E+06     261.194E+03    -15.7693E-03     30.9676E-03    -15.1983E-03     36.0528E-03    -15.7315E-03     30.7338E-03    -15.1003E-03     36.0474E-03
            1651     7.97884E-03     41.8277E-03    -5.70391E+06    -50.5957E+06     3.60210E+06    -60.3351E+03    -15.6327E-03     30.8032E-03    -15.1704E-03     31.7013E-03    -15.5959E-03     30.5560E-03    -15.0708E-03     31.6939E-03
            1652     7.09245E-03     41.7997E-03    -7.20184E+06    -48.8570E+06     2.32072E+06    -219.436E+03    -15.4882E-03     30.6234E-03    -15.1352E-03     27.5069E-03    -15.4585E-03     30.3880E-03    -15.0423E-03     27.4991E-03
            1653     6.20616E-03     41.7758E-03    -7.30941E+06    -50.9571E+06     1.69763E+06    -106.800E+03    -15.3659E-03     30.4751E-03    -15.1091E-03     23.4523E-03    -15.3322E-03     30.2296E-03    -15.0162E-03     23.4471E-03
            1654     5.31960E-03     41.7555E-03    -8.09143E+06    -52.5976E+06         301.900     5.61098E+03    -15.2501E-03     30.3318E-03    -15.0817E-03     19.6252E-03    -15.2151E-03     30.0813E-03    -14.9937E-03     19.6223E-03
            1655     4.43314E-03     41.7388E-03    -9.42763E+06    -51.5205E+06    -1.52153E+06     41.9332E+03    -15.1551E-03     30.2111E-03    -15.0560E-03     16.0223E-03    -15.1258E-03     29.9698E-03    -14.9752E-03     16.0205E-03
            1656     3.54653E-03     41.7253E-03    -10.6493E+06    -53.8513E+06    -3.71076E+06     263.298E+03    -15.0878E-03     30.1225E-03    -15.0347E-03     12.6009E-03    -15.0578E-03     29.8743E-03    -14.9598E-03     12.6025E-03
            1657     2.65995E-03     41.7150E-03    -12.2193E+06    -55.5312E+06    -7.54881E+06     475.036E+03    -15.0330E-03     30.0409E-03    -15.0078E-03     9.34790E-03    -15.0027E-03     29.7920E-03    -14.9473E-03     9.35280E-03
            1658     1.77332E-03     41.7076E-03    -13.7622E+06    -56.9435E+06    -11.8042E+06     391.264E+03    -14.9915E-03     29.9743E-03    -14.9828E-03     6.22239E-03    -14.9606E-03     29.7267E-03    -14.9393E-03     6.22666E-03
            1659     886.653E-06     41.7032E-03    -14.6672E+06    -58.7036E+06    -14.7476E+06    -292.854E+03    -14.9560E-03     29.9426E-03    -14.9865E-03     3.35328E-03    -14.9227E-03     29.6924E-03    -14.9539E-03     3.34905E-03
            1660     16.8385E-03     41.4898E-03    -3.15938E+06     126.856E+06     19.7907E+06    -50.3951E+03    -20.2962E-03     35.5402E-03    -15.2440E-03     164.199E-03    -22.9008E-03     38.5265E-03    -15.3245E-03     166.166E-03
            1661     15.9544E-03     41.3313E-03    -3.09082E+06     66.5605E+06    -11.9837E+06    -908.105E+03    -19.8590E-03     35.0058E-03    -15.1468E-03     140.037E-03    -21.1534E-03     36.5603E-03    -15.2988E-03     140.392E-03
            1662     15.0685E-03     41.2267E-03    -1.47191E+06     24.0929E+06    -4.34458E+06     181.878E+03    -17.5310E-03     32.7511E-03    -15.2201E-03     89.6453E-03    -17.7953E-03     33.1083E-03    -15.2746E-03     89.6243E-03
            1663     14.1819E-03     41.1638E-03    -640.874E+03    -12.0998E+06    -6.17036E+06     1.01961E+06    -16.5976E-03     31.8408E-03    -15.2432E-03     65.0185E-03    -16.6527E-03     31.8686E-03    -15.2556E-03     64.9913E-03
            1664     13.2960E-03     41.1054E-03     36.2217E+03    -36.4835E+06    -7.47671E+06     505.203E+03    -16.7162E-03     31.9609E-03    -15.2447E-03     61.2613E-03    -16.7015E-03     31.8386E-03    -15.2293E-03     61.2307E-03
            1665     12.4100E-03     41.0493E-03    -254.393E+03    -36.5166E+06     3.04463E+06     290.233E+03    -16.4949E-03     31.7590E-03    -15.2642E-03     55.8558E-03    -16.4767E-03     31.6015E-03    -15.1956E-03     55.8310E-03
            1666     11.5239E-03     41.0011E-03    -2.59639E+06    -39.7417E+06     3.13519E+06     107.375E+03    -16.2580E-03     31.4965E-03    -15.2385E-03     49.0939E-03    -16.2348E-03     31.3139E-03    -15.1615E-03     49.0739E-03
            1667     10.6379E-03     40.9574E-03    -3.46979E+06    -48.2742E+06     2.56854E+06     190.257E+03    -16.1201E-03     31.3336E-03    -15.2135E-03     44.5246E-03    -16.0818E-03     31.1042E-03    -15.1256E-03     44.5109E-03
            1668     9.75171E-03     40.9176E-03    -2.51458E+06    -46.0943E+06     6.20687E+06     225.930E+03    -15.9397E-03     31.1304E-03    -15.1907E-03     40.2042E-03    -15.9012E-03     30.9013E-03    -15.0892E-03     40.1953E-03
            1669     8.86551E-03     40.8818E-03    -2.74790E+06    -47.3418E+06     6.43737E+06     449.027E+03    -15.7796E-03     30.9382E-03    -15.1585E-03     35.8329E-03    -15.7383E-03     30.7004E-03    -15.0537E-03     35.8299E-03
            1670     7.97924E-03     40.8502E-03    -3.66385E+06    -50.4136E+06     6.46167E+06     652.781E+03    -15.6285E-03     30.7581E-03    -15.1295E-03     31.4732E-03    -15.5859E-03     30.5047E-03    -15.0188E-03     31.4750E-03
            1671     7.09297E-03     40.8225E-03    -5.08104E+06    -48.0192E+06     3.71869E+06    -87.1874E+03    -15.4552E-03     30.5375E-03    -15.0823E-03     27.3386E-03    -15.4182E-03     30.3012E-03    -14.9867E-03     27.3325E-03
            1672     6.20641E-03     40.7986E-03    -7.14510E+06    -51.5969E+06     1.55865E+06    -459.524E+03    -15.3235E-03     30.3749E-03    -15.0513E-03     23.3093E-03    -15.2879E-03     30.1261E-03    -14.9584E-03     23.2995E-03
            1673     5.32001E-03     40.7785E-03    -8.76456E+06    -52.7281E+06     36.9717E+03     84.0201E+03    -15.2062E-03     30.2286E-03    -15.0223E-03     19.4900E-03    -15.1744E-03     29.9783E-03    -14.9330E-03     19.4881E-03
            1674     4.43337E-03     40.7618E-03    -10.5144E+06    -51.3837E+06    -3.14337E+06     84.2840E+03    -15.0949E-03     30.0809E-03    -14.9861E-03     15.9173E-03    -15.0688E-03     29.8443E-03    -14.9120E-03     15.9161E-03
            1675     3.54679E-03     40.7484E-03    -12.3868E+06    -54.1233E+06    -5.68625E+06     6.42387E+03    -15.0230E-03     29.9862E-03    -14.9631E-03     12.5095E-03    -14.9985E-03     29.7420E-03    -14.8951E-03     12.5078E-03
            1676     2.66011E-03     40.7381E-03    -13.7171E+06    -55.6017E+06    -8.95428E+06     287.229E+03    -14.9649E-03     29.9020E-03    -14.9371E-03     9.26776E-03    -14.9399E-03     29.6569E-03    -14.8814E-03     9.27026E-03
            1677     1.77342E-03     40.7308E-03    -14.4647E+06    -56.4174E+06    -12.5623E+06     314.786E+03    -14.9251E-03     29.8366E-03    -14.9115E-03     6.16386E-03    -14.8974E-03     29.5937E-03    -14.8715E-03     6.16716E-03
            1678     886.720E-06     40.7264E-03    -15.0455E+06    -58.4671E+06    -14.8075E+06     515.930E+03    -14.8896E-03     29.8024E-03    -14.9128E-03     3.30434E-03    -14.8584E-03     29.5540E-03    -14.8802E-03     3.31062E-03
            1679     16.8416E-03     40.5120E-03    -2.01352E+06     127.594E+06     20.9519E+06     197.401E+03    -20.5403E-03     35.7777E-03    -15.2374E-03     164.516E-03    -23.1514E-03     38.7738E-03    -15.3147E-03     166.482E-03
            1680     15.9544E-03     40.3523E-03    -2.05043E+06     66.9896E+06    -11.1807E+06    -481.642E+03    -19.7990E-03     34.9334E-03    -15.1344E-03     140.090E-03    -21.0887E-03     36.4861E-03    -15.2845E-03     140.445E-03
            1681     15.0682E-03     40.2496E-03    -2.41400E+06     22.2911E+06    -5.14683E+06    -485.471E+03    -17.4709E-03     32.6801E-03    -15.2092E-03     90.0915E-03    -17.7335E-03     33.0282E-03    -15.2638E-03     90.0623E-03
            1682     14.1822E-03     40.1855E-03    -1.38974E+06    -11.9562E+06    -5.95793E+06     193.133E+03    -16.8131E-03     32.0424E-03    -15.2293E-03     65.3231E-03    -16.8731E-03     32.0723E-03    -15.2397E-03     65.2843E-03
            1683     13.2963E-03     40.1276E-03    -451.925E+03    -36.1775E+06    -7.11477E+06     392.678E+03    -16.7570E-03     31.9784E-03    -15.2214E-03     61.1014E-03    -16.7453E-03     31.8573E-03    -15.2038E-03     61.0694E-03
            1684     12.4103E-03     40.0713E-03    -952.446E+03    -37.5767E+06     3.28461E+06     1.46828E+06    -16.5242E-03     31.7619E-03    -15.2377E-03     55.6987E-03    -16.5082E-03     31.5996E-03    -15.1654E-03     55.6892E-03
            1685     11.5244E-03     40.0233E-03    -1.82193E+06    -38.3466E+06     5.30291E+06     1.63064E+06    -16.3031E-03     31.5134E-03    -15.2102E-03     48.8496E-03    -16.2812E-03     31.3335E-03    -15.1255E-03     48.8493E-03
            1686     10.6383E-03     39.9797E-03    -2.61146E+06    -47.2336E+06     3.31065E+06    -585.784E+03    -16.1447E-03     31.3169E-03    -15.1722E-03     44.3410E-03    -16.1047E-03     31.0903E-03    -15.0834E-03     44.3174E-03
            1687     9.75224E-03     39.9400E-03    -3.52490E+06    -47.4253E+06     6.10968E+06    -502.977E+03    -15.9553E-03     31.1005E-03    -15.1453E-03     40.0275E-03    -15.9197E-03     30.8663E-03    -15.0408E-03     40.0092E-03
            1688     8.86604E-03     39.9044E-03    -4.49306E+06    -47.2715E+06     5.62352E+06     432.852E+03    -15.7584E-03     30.8615E-03    -15.1031E-03     35.6712E-03    -15.7247E-03     30.6277E-03    -14.9999E-03     35.6681E-03
            1689     7.97976E-03     39.8728E-03    -5.11703E+06    -50.0573E+06     4.60424E+06    -69.6330E+03    -15.5837E-03     30.6485E-03    -15.0649E-03     31.3552E-03    -15.5460E-03     30.4017E-03    -14.9619E-03     31.3478E-03
            1690     7.09329E-03     39.8453E-03    -5.62577E+06    -47.8951E+06     3.70654E+06     260.280E+03    -15.4196E-03     30.4426E-03    -15.0230E-03     27.1727E-03    -15.3854E-03     30.2077E-03    -14.9268E-03     27.1712E-03
            1691     6.20690E-03     39.8216E-03    -6.93063E+06    -51.3575E+06     1.63257E+06     307.115E+03    -15.2811E-03     30.2688E-03    -14.9878E-03     23.1498E-03    -15.2448E-03     30.0209E-03    -14.8951E-03     23.1500E-03
            1692     5.32028E-03     39.8015E-03    -8.70637E+06    -53.3197E+06    -307.805E+03     95.3414E+03    -15.1587E-03     30.1137E-03    -14.9550E-03     19.3436E-03    -15.1252E-03     29.8609E-03    -14.8666E-03     19.3419E-03
            1693     4.43373E-03     39.7849E-03    -10.1220E+06    -51.0396E+06    -3.04087E+06     414.555E+03    -15.0430E-03     29.9587E-03    -14.9157E-03     15.7810E-03    -15.0156E-03     29.7231E-03    -14.8423E-03     15.7841E-03
            1694     3.54701E-03     39.7716E-03    -11.7249E+06    -54.0748E+06    -6.03207E+06     207.419E+03    -14.9612E-03     29.8491E-03    -14.8879E-03     12.3967E-03    -14.9329E-03     29.6048E-03    -14.8227E-03     12.3977E-03
            1695     2.66032E-03     39.7614E-03    -13.3591E+06    -55.6012E+06    -9.07557E+06    -28.2940E+03    -14.8983E-03     29.7598E-03    -14.8615E-03     9.17816E-03    -14.8714E-03     29.5144E-03    -14.8069E-03     9.17659E-03
            1696     1.77357E-03     39.7541E-03    -14.8012E+06    -56.5735E+06    -12.3127E+06     197.986E+03    -14.8543E-03     29.6899E-03    -14.8357E-03     6.10294E-03    -14.8283E-03     29.4464E-03    -14.7937E-03     6.10473E-03
            1697     886.796E-06     39.7498E-03    -15.8549E+06    -57.7930E+06    -14.7632E+06     458.711E+03    -14.8383E-03     29.6376E-03    -14.7993E-03     3.23749E-03    -14.8122E-03     29.3937E-03    -14.7663E-03     3.24306E-03
            1698     16.8383E-03     39.5303E-03    -2.25991E+06     127.015E+06     19.9266E+06    -146.759E+03    -20.5307E-03     35.7815E-03    -15.2507E-03     165.795E-03    -23.1807E-03     38.8165E-03    -15.3320E-03     167.782E-03
            1699     15.9546E-03     39.3757E-03    -2.13542E+06     67.7601E+06    -10.6658E+06    -313.198E+03    -19.9727E-03     35.1218E-03    -15.1492E-03     139.082E-03    -21.2515E-03     36.6646E-03    -15.2977E-03     139.432E-03
            1700     15.0678E-03     39.2710E-03    -1.70471E+06     22.3661E+06    -4.89940E+06     60.1869E+03    -17.7150E-03     32.9241E-03    -15.2091E-03     90.3841E-03    -17.9750E-03     33.2717E-03    -15.2636E-03     90.3610E-03
            1701     14.1824E-03     39.2072E-03    -2.51085E+06    -12.5398E+06    -6.72501E+06     25.5279E+03    -17.0787E-03     32.2907E-03    -15.2119E-03     64.9719E-03    -17.1424E-03     32.3204E-03    -15.2237E-03     64.9300E-03
            1702     13.2967E-03     39.1497E-03    -3.18437E+06    -36.3873E+06    -7.86544E+06     623.030E+03    -16.8291E-03     32.0217E-03    -15.1926E-03     60.7879E-03    -16.8293E-03     31.9043E-03    -15.1745E-03     60.7588E-03
            1703     12.4109E-03     39.0934E-03    -2.67446E+06    -38.7149E+06     1.86312E+06     909.332E+03    -16.5585E-03     31.7570E-03    -15.1985E-03     55.5859E-03    -16.5473E-03     31.5934E-03    -15.1292E-03     55.5691E-03
            1704     11.5248E-03     39.0454E-03    -1.43029E+06    -36.9680E+06     5.54842E+06     727.267E+03    -16.3205E-03     31.4879E-03    -15.1674E-03     48.6910E-03    -16.2988E-03     31.3138E-03    -15.0840E-03     48.6791E-03
            1705     10.6388E-03     39.0020E-03    -1.76994E+06    -45.8165E+06     4.47271E+06     493.518E+03    -16.1605E-03     31.2886E-03    -15.1281E-03     44.1513E-03    -16.1199E-03     31.0661E-03    -15.0367E-03     44.1417E-03
            1706     9.75272E-03     38.9624E-03    -3.53740E+06    -48.3285E+06     5.05549E+06    -75.1833E+03    -15.9484E-03     31.0383E-03    -15.0899E-03     39.8543E-03    -15.9100E-03     30.8011E-03    -14.9894E-03     39.8416E-03
            1707     8.86650E-03     38.9270E-03    -4.22869E+06    -47.2448E+06     5.13392E+06    -187.220E+03    -15.7403E-03     30.7851E-03    -15.0448E-03     35.4966E-03    -15.7045E-03     30.5517E-03    -14.9445E-03     35.4856E-03
            1708     7.98014E-03     38.8956E-03    -5.06043E+06    -49.7005E+06     4.50240E+06    -64.4840E+03    -15.5630E-03     30.5671E-03    -15.0041E-03     31.1648E-03    -15.5254E-03     30.3221E-03    -14.9022E-03     31.1576E-03
            1709     7.09382E-03     38.8681E-03    -6.47836E+06    -48.6109E+06     2.93099E+06    -104.844E+03    -15.3893E-03     30.3462E-03    -14.9569E-03     26.9834E-03    -15.3572E-03     30.1100E-03    -14.8624E-03     26.9772E-03
            1710     6.20725E-03     38.8446E-03    -7.40182E+06    -51.1995E+06     1.37017E+06     446.106E+03    -15.2439E-03     30.1613E-03    -14.9174E-03     22.9603E-03    -15.2098E-03     29.9151E-03    -14.8255E-03     22.9624E-03
            1711     5.32073E-03     38.8247E-03    -8.73505E+06    -53.1908E+06    -609.912E+03     492.794E+03    -15.1100E-03     29.9888E-03    -14.8789E-03     19.1655E-03    -15.0763E-03     29.7372E-03    -14.7921E-03     19.1689E-03
            1712     4.43403E-03     38.8082E-03    -10.4114E+06    -51.1629E+06    -3.06952E+06     293.675E+03    -14.9833E-03     29.8206E-03    -14.8373E-03     15.6186E-03    -14.9571E-03     29.5848E-03    -14.7634E-03     15.6201E-03
            1713     3.54734E-03     38.7950E-03    -11.5638E+06    -53.4491E+06    -5.76170E+06     202.107E+03    -14.8900E-03     29.6955E-03    -14.8055E-03     12.2642E-03    -14.8622E-03     29.4536E-03    -14.7400E-03     12.2651E-03
            1714     2.66053E-03     38.7848E-03    -12.6628E+06    -55.6435E+06    -8.64201E+06    -115.183E+03    -14.8229E-03     29.6001E-03    -14.7772E-03     9.07761E-03    -14.7931E-03     29.3528E-03    -14.7213E-03     9.07490E-03
            1715     1.77372E-03     38.7776E-03    -13.6247E+06    -56.8847E+06    -10.9687E+06    -21.0326E+03    -14.7749E-03     29.5281E-03    -14.7532E-03     6.03246E-03    -14.7446E-03     29.2793E-03    -14.7058E-03     6.03141E-03
            1716     886.881E-06     38.7732E-03    -14.4984E+06    -57.3332E+06    -13.4007E+06     74.3952E+03    -14.7570E-03     29.4678E-03    -14.7108E-03     3.21048E-03    -14.7266E-03     29.2223E-03    -14.6737E-03     3.21106E-03
            1717     16.8396E-03     38.5488E-03    -1.52896E+06     126.619E+06     19.2407E+06        -475.762    -20.2023E-03     35.4279E-03    -15.2256E-03     164.362E-03    -22.8188E-03     38.4327E-03    -15.3108E-03     166.325E-03
            1718     15.9538E-03     38.3980E-03    -1.45466E+06     67.9058E+06    -10.4518E+06    -127.128E+03    -19.7124E-03     34.8495E-03    -15.1371E-03     137.507E-03    -20.9646E-03     36.3679E-03    -15.2857E-03     137.865E-03
            1719     15.0685E-03     38.2924E-03    -3.04434E+06     23.0874E+06    -5.06550E+06     798.564E+03    -18.0926E-03     33.2813E-03    -15.1886E-03     90.0248E-03    -18.3640E-03     33.6384E-03    -15.2430E-03     90.0088E-03
            1720     14.1828E-03     38.2287E-03    -3.63631E+06    -12.4720E+06    -6.94835E+06     727.285E+03    -17.0022E-03     32.1822E-03    -15.1801E-03     64.3539E-03    -17.0700E-03     32.2131E-03    -15.1915E-03     64.3215E-03
            1721     13.2972E-03     38.1717E-03    -3.22110E+06    -36.7957E+06    -7.94922E+06     621.107E+03    -16.8555E-03     32.0144E-03    -15.1589E-03     60.5236E-03    -16.8551E-03     31.8950E-03    -15.1406E-03     60.4945E-03
            1722     12.4113E-03     38.1155E-03    -2.72784E+06    -37.5937E+06     1.26427E+06    -311.623E+03    -16.6007E-03     31.7554E-03    -15.1547E-03     55.4776E-03    -16.5904E-03     31.5982E-03    -15.0899E-03     55.4451E-03
            1723     11.5253E-03     38.0677E-03    -2.48987E+06    -37.6608E+06     3.82850E+06    -651.438E+03    -16.3278E-03     31.4447E-03    -15.1168E-03     48.5568E-03    -16.3078E-03     31.2710E-03    -15.0395E-03     48.5273E-03
            1724     10.6393E-03     38.0243E-03    -2.11912E+06    -46.3159E+06     4.50208E+06     669.146E+03    -16.1613E-03     31.2417E-03    -15.0804E-03     43.9413E-03    -16.1216E-03     31.0170E-03    -14.9877E-03     43.9341E-03
            1725     9.75326E-03     37.9850E-03    -2.43057E+06    -46.9686E+06     6.44283E+06     600.049E+03    -15.9456E-03     30.9850E-03    -15.0394E-03     39.6254E-03    -15.9055E-03     30.7509E-03    -14.9356E-03     39.6216E-03
            1726     8.86701E-03     37.9496E-03    -3.88374E+06    -47.4554E+06     5.51513E+06    -361.589E+03    -15.7413E-03     30.7284E-03    -14.9871E-03     35.2721E-03    -15.7040E-03     30.4928E-03    -14.8851E-03     35.2589E-03
            1727     7.98078E-03     37.9184E-03    -4.83886E+06    -49.9996E+06     4.31513E+06    -62.1999E+03    -15.5540E-03     30.4914E-03    -14.9374E-03     30.9362E-03    -15.5146E-03     30.2448E-03    -14.8363E-03     30.9291E-03
            1728     7.09425E-03     37.8912E-03    -5.98242E+06    -48.7217E+06     2.40412E+06     369.274E+03    -15.3674E-03     30.2489E-03    -14.8815E-03     26.7579E-03    -15.3318E-03     30.0121E-03    -14.7901E-03     26.7578E-03
            1729     6.20779E-03     37.8677E-03    -7.77631E+06    -51.5945E+06     1.05523E+06     358.643E+03    -15.2091E-03     30.0472E-03    -14.8381E-03     22.7321E-03    -15.1758E-03     29.8001E-03    -14.7468E-03     22.7330E-03
            1730     5.32115E-03     37.8479E-03    -9.07463E+06    -52.8448E+06    -169.376E+03     523.874E+03    -15.0548E-03     29.8508E-03    -14.7960E-03     18.9545E-03    -15.0240E-03     29.6007E-03    -14.7071E-03     18.9584E-03
            1731     4.43446E-03     37.8316E-03    -10.3232E+06    -50.8328E+06    -2.65219E+06     245.733E+03    -14.9110E-03     29.6599E-03    -14.7489E-03     15.4435E-03    -14.8855E-03     29.4250E-03    -14.6735E-03     15.4444E-03
            1732     3.54765E-03     37.8184E-03    -11.9106E+06    -53.2241E+06    -5.36863E+06    -102.861E+03    -14.8089E-03     29.5225E-03    -14.7136E-03     12.1169E-03    -14.7837E-03     29.2817E-03    -14.6460E-03     12.1139E-03
            1733     2.66081E-03     37.8084E-03    -13.4291E+06    -55.5486E+06    -9.09544E+06    -140.867E+03    -14.7280E-03     29.4068E-03    -14.6788E-03     8.96656E-03    -14.7015E-03     29.1619E-03    -14.6243E-03     8.96353E-03
            1734     1.77391E-03     37.8013E-03    -14.8454E+06    -57.1142E+06    -12.8198E+06    -228.977E+03    -14.6685E-03     29.3182E-03    -14.6497E-03     5.95823E-03    -14.6412E-03     29.0727E-03    -14.6095E-03     5.95449E-03
            1735     886.949E-06     37.7970E-03    -15.5726E+06    -57.3902E+06    -15.0098E+06    -160.164E+03    -14.6294E-03     29.2691E-03    -14.6397E-03     3.17702E-03    -14.6019E-03     29.0271E-03    -14.6090E-03     3.17454E-03
            1736     16.8434E-03     37.5761E-03    -1.37051E+06     126.285E+06     18.6418E+06     1.03127E+06    -20.2452E-03     35.4294E-03    -15.1842E-03     164.310E-03    -22.8103E-03     38.3838E-03    -15.2721E-03     166.254E-03
            1737     15.9541E-03     37.4182E-03    -3.96931E+06     67.2607E+06    -10.9534E+06     2.07785E+06    -19.7529E-03     34.8547E-03    -15.1019E-03     139.247E-03    -21.0214E-03     36.3797E-03    -15.2484E-03     139.634E-03
            1738     15.0696E-03     37.3139E-03    -4.39125E+06     23.7181E+06    -4.59437E+06     311.068E+03    -18.1577E-03     33.3099E-03    -15.1522E-03     89.0550E-03    -18.4369E-03     33.6711E-03    -15.2032E-03     89.0309E-03
            1739     14.1836E-03     37.2509E-03    -3.04938E+06    -12.8844E+06    -6.41293E+06     40.4418E+03    -16.7924E-03     31.9357E-03    -15.1433E-03     64.4271E-03    -16.8564E-03     31.9617E-03    -15.1522E-03     64.3868E-03
            1740     13.2975E-03     37.1935E-03    -1.81364E+06    -36.3914E+06    -6.98156E+06     194.997E+03    -16.8746E-03     32.0002E-03    -15.1256E-03     60.4785E-03    -16.8690E-03     31.8792E-03    -15.1051E-03     60.4439E-03
            1741     12.4119E-03     37.1377E-03    -1.41269E+06    -36.1672E+06     2.61694E+06    -628.580E+03    -16.6580E-03     31.7747E-03    -15.1167E-03     55.2412E-03    -16.6449E-03     31.6205E-03    -15.0491E-03     55.2046E-03
            1742     11.5259E-03     37.0898E-03    -1.83370E+06    -38.6983E+06     3.83578E+06    -814.128E+03    -16.3481E-03     31.4185E-03    -15.0704E-03     48.3946E-03    -16.3230E-03     31.2384E-03    -14.9925E-03     48.3631E-03
            1743     10.6399E-03     37.0467E-03    -2.42383E+06    -47.6589E+06     3.88893E+06    -32.8204E+03    -16.1693E-03     31.1969E-03    -15.0275E-03     43.7398E-03    -16.1282E-03     30.9667E-03    -14.9355E-03     43.7237E-03
            1744     9.75377E-03     37.0075E-03    -2.80792E+06    -46.1134E+06     6.16520E+06     585.099E+03    -15.9600E-03     30.9388E-03    -14.9789E-03     39.3956E-03    -15.9225E-03     30.7098E-03    -14.8771E-03     39.3916E-03
            1745     8.86764E-03     36.9724E-03    -3.70124E+06    -46.9300E+06     5.23684E+06     337.997E+03    -15.7548E-03     30.6732E-03    -14.9184E-03     34.9963E-03    -15.7169E-03     30.4404E-03    -14.8188E-03     34.9922E-03
            1746     7.98123E-03     36.9413E-03    -5.62829E+06    -50.7535E+06     3.39207E+06     258.172E+03    -15.5507E-03     30.4109E-03    -14.8602E-03     30.6459E-03    -15.5127E-03     30.1629E-03    -14.7615E-03     30.6430E-03
            1747     7.09491E-03     36.9142E-03    -7.07307E+06    -48.6323E+06     2.21254E+06     535.300E+03    -15.3428E-03     30.1414E-03    -14.7985E-03     26.4693E-03    -15.3125E-03     29.9069E-03    -14.7067E-03     26.4715E-03
            1748     6.20832E-03     36.8909E-03    -7.87560E+06    -51.3525E+06     1.57865E+06     356.973E+03    -15.1579E-03     29.9076E-03    -14.7497E-03     22.4659E-03    -15.1262E-03     29.6611E-03    -14.6559E-03     22.4669E-03
            1749     5.32169E-03     36.8714E-03    -9.02372E+06    -52.8384E+06     440.311E+03     69.8745E+03    -14.9859E-03     29.6883E-03    -14.7024E-03     18.7252E-03    -14.9557E-03     29.4373E-03    -14.6105E-03     18.7232E-03
            1750     4.43490E-03     36.8551E-03    -10.2336E+06    -50.3570E+06    -1.98419E+06    -20.2670E+03    -14.8290E-03     29.4791E-03    -14.6501E-03     15.2500E-03    -14.8047E-03     29.2454E-03    -14.5721E-03     15.2475E-03
            1751     3.54804E-03     36.8421E-03    -11.5549E+06    -53.2112E+06    -5.09163E+06    -163.819E+03    -14.7133E-03     29.3232E-03    -14.6099E-03     11.9575E-03    -14.6868E-03     29.0815E-03    -14.5414E-03     11.9537E-03
            1752     2.66109E-03     36.8322E-03    -13.0688E+06    -55.6627E+06    -8.74004E+06    -97.5921E+03    -14.6249E-03     29.1991E-03    -14.5742E-03     8.84806E-03    -14.5969E-03     28.9525E-03    -14.5182E-03     8.84558E-03
            1753     1.77407E-03     36.8252E-03    -14.3209E+06    -57.0917E+06    -12.1936E+06    -42.7274E+03    -14.5647E-03     29.1099E-03    -14.5452E-03     5.87257E-03    -14.5358E-03     28.8629E-03    -14.5026E-03     5.87124E-03
            1754     887.047E-06     36.8209E-03    -15.4305E+06    -57.6717E+06    -14.7596E+06    -148.636E+03    -14.5293E-03     29.0567E-03    -14.5274E-03     3.11982E-03    -14.5011E-03     28.8128E-03    -14.4952E-03     3.11746E-03
            1755     16.8386E-03     36.6003E-03    -1.62035E+06     126.215E+06     22.7190E+06     1.09299E+06    -20.9741E-03     36.1940E-03    -15.2199E-03     163.450E-03    -23.5225E-03     39.1189E-03    -15.2870E-03     165.370E-03
            1756     15.9553E-03     36.4375E-03    -2.21632E+06     68.4429E+06    -9.08883E+06     1.57785E+06    -20.2688E-03     35.3580E-03    -15.0892E-03     140.120E-03    -21.5402E-03     36.8909E-03    -15.2307E-03     140.486E-03
            1757     15.0700E-03     36.3363E-03     819.893E+03     23.6864E+06    -2.53679E+06     510.084E+03    -17.8537E-03     32.9876E-03    -15.1339E-03     89.2072E-03    -18.1050E-03     33.3332E-03    -15.1821E-03     89.1881E-03
            1758     14.1836E-03     36.2730E-03     531.817E+03    -13.1644E+06    -5.34452E+06     357.479E+03    -17.0700E-03     32.1936E-03    -15.1236E-03     64.8670E-03    -17.1178E-03     32.2120E-03    -15.1320E-03     64.8300E-03
            1759     13.2981E-03     36.2153E-03     355.130E+03    -35.9227E+06    -6.43533E+06     49.2221E+03    -17.0036E-03     32.0945E-03    -15.0909E-03     60.4624E-03    -16.9882E-03     31.9715E-03    -15.0715E-03     60.4259E-03
            1760     12.4123E-03     36.1597E-03     193.695E+03    -35.5192E+06     2.76836E+06    -208.300E+03    -16.7148E-03     31.7867E-03    -15.0719E-03     54.9752E-03    -16.6945E-03     31.6329E-03    -15.0068E-03     54.9441E-03
            1761     11.5264E-03     36.1121E-03    -768.169E+03    -39.1658E+06     3.12458E+06    -233.081E+03    -16.4092E-03     31.4252E-03    -15.0160E-03     48.1717E-03    -16.3770E-03     31.2421E-03    -14.9424E-03     48.1478E-03
            1762     10.6405E-03     36.0691E-03    -1.61517E+06    -48.4882E+06     3.08240E+06     155.758E+03    -16.2280E-03     31.1924E-03    -14.9644E-03     43.4356E-03    -16.1804E-03     30.9580E-03    -14.8763E-03     43.4220E-03
            1763     9.75447E-03     36.0301E-03    -2.30361E+06    -46.0454E+06     5.75564E+06     279.193E+03    -15.9957E-03     30.9027E-03    -14.9070E-03     39.0510E-03    -15.9552E-03     30.6738E-03    -14.8081E-03     39.0431E-03
            1764     8.86823E-03     35.9951E-03    -3.23751E+06    -47.2707E+06     6.16911E+06     873.131E+03    -15.7751E-03     30.6188E-03    -14.8437E-03     34.5967E-03    -15.7357E-03     30.3822E-03    -14.7396E-03     34.5995E-03
            1765     7.98208E-03     35.9643E-03    -4.60772E+06    -50.5184E+06     5.77171E+06     1.23953E+06    -15.5441E-03     30.3251E-03    -14.7810E-03     30.2480E-03    -15.5048E-03     30.0733E-03    -14.6722E-03     30.2577E-03
            1766     7.09555E-03     35.9374E-03    -6.15121E+06    -48.0037E+06     3.59496E+06     357.509E+03    -15.2938E-03     29.9997E-03    -14.7058E-03     26.1435E-03    -15.2618E-03     29.7650E-03    -14.6093E-03     26.1434E-03
            1767     6.20901E-03     35.9144E-03    -7.31745E+06    -51.2260E+06     2.31084E+06    -90.3105E+03    -15.0891E-03     29.7383E-03    -14.6492E-03     22.1855E-03    -15.0558E-03     29.4905E-03    -14.5528E-03     22.1807E-03
            1768     5.32225E-03     35.8949E-03    -8.50070E+06    -52.6362E+06     832.268E+03    -102.018E+03    -14.9054E-03     29.5006E-03    -14.5953E-03     18.4799E-03    -14.8734E-03     29.2492E-03    -14.5024E-03     18.4758E-03
            1769     4.43541E-03     35.8789E-03    -10.0856E+06    -50.3292E+06    -2.04673E+06    -269.041E+03    -14.7318E-03     29.2693E-03    -14.5375E-03     15.0394E-03    -14.7067E-03     29.0357E-03    -14.4601E-03     15.0337E-03
            1770     3.54844E-03     35.8660E-03    -11.7182E+06    -53.2437E+06    -5.40765E+06    -201.146E+03    -14.6052E-03     29.0992E-03    -14.4940E-03     11.7879E-03    -14.5790E-03     28.8581E-03    -14.4269E-03     11.7836E-03
            1771     2.66138E-03     35.8562E-03    -13.1842E+06    -55.8649E+06    -8.80861E+06    -149.576E+03    -14.5154E-03     28.9728E-03    -14.4574E-03     8.71171E-03    -14.4876E-03     28.7255E-03    -14.4014E-03     8.70859E-03
            1772     1.77431E-03     35.8492E-03    -14.4688E+06    -57.0599E+06    -11.7859E+06    -105.458E+03    -14.4516E-03     28.8785E-03    -14.4269E-03     5.77941E-03    -14.4240E-03     28.6313E-03    -14.3821E-03     5.77727E-03
            1773     887.167E-06     35.8451E-03    -15.3076E+06    -57.8546E+06    -14.3733E+06    -136.606E+03    -14.4181E-03     28.8134E-03    -14.3953E-03     3.08335E-03    -14.3896E-03     28.5678E-03    -14.3610E-03     3.08113E-03
            1774     16.8415E-03     35.6162E-03    -1.61751E+06     126.365E+06     27.5622E+06    -1.12338E+06    -21.4743E-03     36.7453E-03    -15.2710E-03     163.339E-03    -24.0651E-03     39.6990E-03    -15.3141E-03     165.226E-03
            1775     15.9562E-03     35.4620E-03     517.251E+03     67.5174E+06    -10.6270E+06    -628.159E+03    -20.5050E-03     35.5878E-03    -15.0828E-03     138.931E-03    -21.7569E-03     37.1120E-03    -15.2345E-03     139.259E-03
            1776     15.0682E-03     35.3570E-03     882.518E+03     23.0044E+06    -3.73952E+06     1.45303E+06    -17.9545E-03     33.0753E-03    -15.1207E-03     89.3382E-03    -18.2008E-03     33.4171E-03    -15.1741E-03     89.3305E-03
            1777     14.1840E-03     35.2946E-03     820.557E+03    -11.9007E+06    -5.54136E+06     1.07403E+06    -17.4073E-03     32.5050E-03    -15.0977E-03     64.0330E-03    -17.4553E-03     32.5297E-03    -15.1093E-03     64.0038E-03
            1778     13.2985E-03     35.2370E-03     1.06815E+06    -35.8523E+06    -6.93267E+06     198.061E+03    -17.1209E-03     32.1678E-03    -15.0469E-03     59.9780E-03    -17.1009E-03     32.0445E-03    -15.0312E-03     59.9432E-03
            1779     12.4129E-03     35.1818E-03     594.199E+03    -35.8856E+06     3.03666E+06     827.527E+03    -16.7848E-03     31.8074E-03    -15.0226E-03     54.5469E-03    -16.7622E-03     31.6507E-03    -14.9562E-03     54.5292E-03
            1780     11.5271E-03     35.1344E-03    -871.288E+03    -38.6784E+06     3.94195E+06     870.031E+03    -16.5036E-03     31.4613E-03    -14.9577E-03     47.7015E-03    -16.4737E-03     31.2796E-03    -14.8807E-03     47.6917E-03
            1781     10.6413E-03     35.0915E-03    -1.61802E+06    -48.3059E+06     3.51077E+06    -22.9319E+03    -16.2874E-03     31.1794E-03    -14.8920E-03     43.0097E-03    -16.2406E-03     30.9452E-03    -14.8020E-03     42.9937E-03
            1782     9.75528E-03     35.0527E-03    -1.96388E+06    -46.7650E+06     7.07723E+06     310.675E+03    -16.0214E-03     30.8498E-03    -14.8284E-03     38.6188E-03    -15.9800E-03     30.6149E-03    -14.7224E-03     38.6113E-03
            1783     8.86921E-03     35.0180E-03    -2.99274E+06    -47.9439E+06     7.10800E+06     1.12200E+06    -15.7534E-03     30.5073E-03    -14.7539E-03     34.2205E-03    -15.7131E-03     30.2655E-03    -14.6445E-03     34.2266E-03
            1784     7.98282E-03     34.9874E-03    -3.82287E+06    -49.8508E+06     6.86690E+06     1.05038E+06    -15.4970E-03     30.1790E-03    -14.6820E-03     29.9075E-03    -15.4563E-03     29.9279E-03    -14.5698E-03     29.9148E-03
            1785     7.09640E-03     34.9608E-03    -4.61866E+06    -46.9732E+06     4.85742E+06     573.716E+03    -15.2322E-03     29.8321E-03    -14.5999E-03     25.8207E-03    -15.1958E-03     29.5985E-03    -14.5008E-03     25.8234E-03
            1786     6.20967E-03     34.9379E-03    -6.25146E+06    -51.1894E+06     2.48355E+06     86.5920E+03    -15.0132E-03     29.5476E-03    -14.5344E-03     21.8906E-03    -14.9748E-03     29.2981E-03    -14.4387E-03     21.8881E-03
            1787     5.32291E-03     34.9187E-03    -8.10722E+06    -52.5890E+06     478.418E+03     20.7509E+03    -14.8105E-03     29.2846E-03    -14.4741E-03     18.2106E-03    -14.7762E-03     29.0334E-03    -14.3837E-03     18.2081E-03
            1788     4.43594E-03     34.9028E-03    -9.97948E+06    -50.2787E+06    -2.54566E+06     84.8065E+03    -14.6250E-03     29.0374E-03    -14.4124E-03     14.8047E-03    -14.5987E-03     28.8046E-03    -14.3378E-03     14.8037E-03
            1789     3.54887E-03     34.8902E-03    -11.9831E+06    -53.3118E+06    -5.59159E+06    -12.1116E+03    -14.4946E-03     28.8620E-03    -14.3674E-03     11.5939E-03    -14.4693E-03     28.6212E-03    -14.3007E-03     11.5921E-03
            1790     2.66177E-03     34.8804E-03    -13.8971E+06    -55.9315E+06    -9.44816E+06     4.89236E+03    -14.3930E-03     28.7181E-03    -14.3251E-03     8.56100E-03    -14.3677E-03     28.4724E-03    -14.2711E-03     8.55989E-03
            1791     1.77452E-03     34.8736E-03    -15.5114E+06    -56.9561E+06    -13.2910E+06    -97.3039E+03    -14.3151E-03     28.6040E-03    -14.2890E-03     5.68677E-03    -14.2907E-03     28.3610E-03    -14.2503E-03     5.68473E-03
            1792     887.280E-06     34.8694E-03    -16.5954E+06    -58.1811E+06    -15.7854E+06    -368.729E+03    -14.2673E-03     28.5417E-03    -14.2744E-03     3.03864E-03    -14.2427E-03     28.2984E-03    -14.2449E-03     3.03343E-03
            1793     16.8378E-03     34.6343E-03    -4.90477E+06     126.341E+06     21.9604E+06    -1.42956E+06    -21.0472E-03     36.2919E-03    -15.2447E-03     163.151E-03    -23.6494E-03     39.2615E-03    -15.3110E-03     165.031E-03
            1794     15.9542E-03     34.4831E-03    -6.22628E+06     65.3969E+06    -14.3554E+06    -1.98718E+06    -20.7419E-03     35.8144E-03    -15.0725E-03     136.947E-03    -22.0081E-03     37.3322E-03    -15.2300E-03     137.251E-03
            1795     15.0711E-03     34.3789E-03    -5.26097E+06     22.5383E+06    -6.30449E+06    -61.5925E+03    -18.4910E-03     33.5741E-03    -15.0830E-03     88.8172E-03    -18.7655E-03     33.9282E-03    -15.1396E-03     88.7857E-03
            1796     14.1847E-03     34.3155E-03    -3.76784E+06    -10.8195E+06    -6.46268E+06     401.587E+03    -17.2750E-03     32.3217E-03    -15.0466E-03     63.4244E-03    -17.3450E-03     32.3586E-03    -15.0578E-03     63.3870E-03
            1797     13.2995E-03     34.2593E-03    -3.24844E+06    -35.7301E+06    -7.95136E+06     126.414E+03    -17.1546E-03     32.1481E-03    -14.9935E-03     59.5184E-03    -17.1547E-03     32.0329E-03    -14.9767E-03     59.4825E-03
            1798     12.4137E-03     34.2036E-03    -2.66310E+06    -36.9790E+06     2.22904E+06     433.864E+03    -16.8787E-03     31.8385E-03    -14.9599E-03     54.2138E-03    -16.8694E-03     31.6821E-03    -14.8912E-03     54.1909E-03
            1799     11.5282E-03     34.1567E-03    -1.68520E+06    -37.9219E+06     4.78096E+06     840.785E+03    -16.5509E-03     31.4360E-03    -14.8852E-03     47.2907E-03    -16.5272E-03     31.2579E-03    -14.8038E-03     47.2806E-03
            1800     10.6422E-03     34.1139E-03    -2.02685E+06    -47.2372E+06     3.50004E+06     167.588E+03    -16.3008E-03     31.1050E-03    -14.8041E-03     42.7049E-03    -16.2575E-03     30.8765E-03    -14.7152E-03     42.6915E-03
            1801     9.75635E-03     34.0754E-03    -3.21434E+06    -48.4225E+06     5.67680E+06     342.749E+03    -16.0064E-03     30.7366E-03    -14.7302E-03     38.3016E-03    -15.9666E-03     30.4970E-03    -14.6269E-03     38.2948E-03
            1802     8.87006E-03     34.0410E-03    -3.90433E+06    -47.5687E+06     5.53726E+06     884.697E+03    -15.7075E-03     30.3516E-03    -14.6441E-03     33.9297E-03    -15.6699E-03     30.1152E-03    -14.5417E-03     33.9329E-03
            1803     7.98376E-03     34.0107E-03    -4.24295E+06    -49.2027E+06     5.55814E+06     178.391E+03    -15.4439E-03     30.0096E-03    -14.5657E-03     29.5965E-03    -15.4043E-03     29.7641E-03    -14.4604E-03     29.5928E-03
            1804     7.09716E-03     33.9843E-03    -4.81580E+06    -47.3272E+06     4.28541E+06     444.918E+03    -15.1759E-03     29.6568E-03    -14.4809E-03     25.4697E-03    -15.1392E-03     29.4225E-03    -14.3838E-03     25.4709E-03
            1805     6.21049E-03     33.9617E-03    -6.13276E+06    -50.6136E+06     1.93043E+06     908.278E+03    -14.9301E-03     29.3366E-03    -14.4065E-03     21.5572E-03    -14.8912E-03     29.0906E-03    -14.3145E-03     21.5654E-03
            1806     5.32358E-03     33.9427E-03    -8.07727E+06    -52.5106E+06     9.62988E+03     513.843E+03    -14.7104E-03     29.0520E-03    -14.3416E-03     17.9071E-03    -14.6753E-03     28.8018E-03    -14.2537E-03     17.9110E-03
            1807     4.43653E-03     33.9271E-03    -9.76749E+06    -50.1717E+06    -2.68826E+06     377.624E+03    -14.5161E-03     28.7920E-03    -14.2758E-03     14.5375E-03    -14.4887E-03     28.5596E-03    -14.2024E-03     14.5402E-03
            1808     3.54940E-03     33.9145E-03    -11.3343E+06    -53.2187E+06    -5.65454E+06     390.864E+03    -14.3700E-03     28.5962E-03    -14.2262E-03     11.3765E-03    -14.3415E-03     28.3550E-03    -14.1609E-03     11.3800E-03
            1809     2.66210E-03     33.9050E-03    -13.0182E+06    -55.8918E+06    -9.13134E+06     375.312E+03    -14.2587E-03     28.4418E-03    -14.1831E-03     8.39871E-03    -14.2296E-03     28.1945E-03    -14.1288E-03     8.40240E-03
            1810     1.77481E-03     33.8981E-03    -14.3943E+06    -56.5738E+06    -12.7985E+06     252.532E+03    -14.1773E-03     28.3230E-03    -14.1457E-03     5.57183E-03    -14.1486E-03     28.0795E-03    -14.1068E-03     5.57433E-03
            1811     887.389E-06     33.8941E-03    -15.3417E+06    -58.3755E+06    -15.2854E+06    -6.71551E+03    -14.1258E-03     28.2604E-03    -14.1346E-03     2.97266E-03    -14.0954E-03     28.0136E-03    -14.1041E-03     2.97210E-03
            1812     16.8427E-03     33.6579E-03    -1.66645E+06     127.448E+06     21.3230E+06     1.66470E+06    -21.0394E-03     36.2326E-03    -15.1932E-03     162.695E-03    -23.5952E-03     39.1731E-03    -15.2689E-03     164.584E-03
            1813     15.9560E-03     33.5023E-03    -4.00664E+06     66.4182E+06    -12.3050E+06    -91.0259E+03    -20.6839E-03     35.7197E-03    -15.0359E-03     136.472E-03    -21.9337E-03     37.2268E-03    -15.1879E-03     136.795E-03
            1814     15.0705E-03     33.4001E-03    -5.62665E+06     21.3500E+06    -6.85402E+06    -1.59208E+06    -18.5796E-03     33.6152E-03    -15.0356E-03     87.9674E-03    -18.8519E-03     33.9632E-03    -15.0926E-03     87.9151E-03
            1815     14.1858E-03     33.3377E-03    -5.22702E+06    -11.3324E+06    -7.24406E+06    -426.308E+03    -17.2352E-03     32.2281E-03    -14.9928E-03     63.6352E-03    -17.3099E-03     32.2649E-03    -15.0051E-03     63.5874E-03
            1816     13.2999E-03     33.2808E-03    -4.30544E+06    -35.1396E+06    -8.62555E+06    -166.526E+03    -17.2334E-03     32.1663E-03    -14.9329E-03     59.4282E-03    -17.2384E-03     32.0563E-03    -14.9188E-03     59.3884E-03
            1817     12.4148E-03     33.2257E-03    -3.71218E+06    -37.3271E+06     264.870E+03    -769.931E+03    -16.9599E-03     31.8437E-03    -14.8838E-03     54.0328E-03    -16.9521E-03     31.6894E-03    -14.8230E-03     53.9945E-03
            1818     11.5290E-03     33.1789E-03    -3.25897E+06    -38.3753E+06     2.05878E+06    -582.804E+03    -16.5839E-03     31.3800E-03    -14.7961E-03     47.1187E-03    -16.5632E-03     31.2055E-03    -14.7254E-03     47.0904E-03
            1819     10.6432E-03     33.1365E-03    -2.83859E+06    -47.2405E+06     1.64271E+06     473.664E+03    -16.3163E-03     31.0247E-03    -14.7085E-03     42.4423E-03    -16.2740E-03     30.7999E-03    -14.6276E-03     42.4331E-03
            1820     9.75714E-03     33.0982E-03    -3.80854E+06    -49.0499E+06     4.45447E+06     1.02832E+06    -16.0086E-03     30.6375E-03    -14.6289E-03     37.9720E-03    -15.9690E-03     30.3973E-03    -14.5300E-03     37.9742E-03
            1821     8.87105E-03     33.0641E-03    -4.91064E+06    -46.4614E+06     4.09904E+06     207.510E+03    -15.7021E-03     30.2315E-03    -14.5294E-03     33.5494E-03    -15.6689E-03     30.0041E-03    -14.4344E-03     33.5440E-03
            1822     7.98462E-03     33.0340E-03    -5.27289E+06    -48.7075E+06     3.56358E+06    -581.329E+03    -15.4076E-03     29.8460E-03    -14.4384E-03     29.2064E-03    -15.3709E-03     29.6073E-03    -14.3423E-03     29.1929E-03
            1823     7.09812E-03     33.0080E-03    -5.93219E+06    -49.0255E+06     2.67957E+06     163.385E+03    -15.1143E-03     29.4636E-03    -14.3493E-03     25.0571E-03    -15.0782E-03     29.2247E-03    -14.2562E-03     25.0548E-03
            1824     6.21129E-03     32.9857E-03    -6.91853E+06    -50.2501E+06     1.30924E+06     1.19183E+06    -14.8434E-03     29.1112E-03    -14.2678E-03     21.1744E-03    -14.8080E-03     28.8690E-03    -14.1783E-03     21.1864E-03
            1825     5.32434E-03     32.9670E-03    -8.06706E+06    -51.7546E+06     62.6754E+03     856.310E+03    -14.6087E-03     28.8053E-03    -14.1966E-03     17.5632E-03    -14.5747E-03     28.5588E-03    -14.1095E-03     17.5716E-03
            1826     4.43724E-03     32.9515E-03    -9.48453E+06    -50.1539E+06    -2.75028E+06     444.889E+03    -14.3918E-03     28.5161E-03    -14.1243E-03     14.2406E-03    -14.3629E-03     28.2835E-03    -14.0516E-03     14.2443E-03
            1827     3.54991E-03     32.9392E-03    -10.8084E+06    -53.0922E+06    -5.86189E+06     520.722E+03    -14.2279E-03     28.2971E-03    -14.0692E-03     11.1385E-03    -14.1967E-03     28.0560E-03    -14.0059E-03     11.1437E-03
            1828     2.66256E-03     32.9297E-03    -11.8000E+06    -55.6334E+06    -8.52252E+06     434.627E+03    -14.1098E-03     28.1366E-03    -14.0268E-03     8.21846E-03    -14.0758E-03     27.8880E-03    -13.9717E-03     8.22295E-03
            1829     1.77505E-03     32.9231E-03    -12.5251E+06    -56.3088E+06    -11.0808E+06     388.530E+03    -14.0273E-03     28.0200E-03    -13.9928E-03     5.45366E-03    -13.9922E-03     27.7728E-03    -13.9483E-03     5.45793E-03
            1830     887.566E-06     32.9190E-03    -12.8944E+06    -57.9503E+06    -12.6767E+06     448.045E+03    -13.9796E-03     27.9590E-03    -13.9794E-03     2.92760E-03    -13.9414E-03     27.7069E-03    -13.9400E-03     2.93290E-03
            1831     16.8403E-03     32.6797E-03    -982.120E+03     126.639E+06     21.1831E+06     1.24402E+06    -21.5769E-03     36.7363E-03    -15.1594E-03     162.636E-03    -24.1007E-03     39.6448E-03    -15.2357E-03     164.489E-03
            1832     15.9563E-03     32.5224E-03    -223.163E+03     67.7797E+06    -10.2125E+06     2.53748E+06    -20.5381E-03     35.5350E-03    -14.9970E-03     137.197E-03    -21.7618E-03     37.0282E-03    -15.1460E-03     137.548E-03
            1833     15.0720E-03     32.4218E-03    -606.517E+03     22.4771E+06    -4.98752E+06     346.190E+03    -18.3917E-03     33.3963E-03    -15.0046E-03     87.7294E-03    -18.6385E-03     33.7352E-03    -15.0612E-03     87.7033E-03
            1834     14.1858E-03     32.3593E-03    -1.41115E+06    -12.5959E+06    -7.33640E+06    -818.338E+03    -17.5460E-03     32.4980E-03    -14.9521E-03     63.6433E-03    -17.5995E-03     32.5231E-03    -14.9685E-03     63.5896E-03
            1835     13.3010E-03     32.3024E-03    -1.02269E+06    -35.0560E+06    -8.17152E+06     118.529E+03    -17.3812E-03     32.2585E-03    -14.8773E-03     59.3076E-03    -17.3700E-03     32.1429E-03    -14.8658E-03     59.2715E-03
            1836     12.4153E-03     32.2478E-03    -2.05373E+06    -36.4570E+06     685.246E+03    -149.012E+03    -17.0460E-03     31.8635E-03    -14.8175E-03     53.7012E-03    -17.0314E-03     31.7102E-03    -14.7582E-03     53.6710E-03
            1837     11.5299E-03     32.2010E-03    -3.68275E+06    -39.1493E+06     1.40197E+06    -516.619E+03    -16.6665E-03     31.3844E-03    -14.7179E-03     46.7582E-03    -16.6456E-03     31.2074E-03    -14.6488E-03     46.7309E-03
            1838     10.6441E-03     32.1591E-03    -5.10208E+06    -48.6784E+06     481.188E+03     469.291E+03    -16.3801E-03     30.9979E-03    -14.6178E-03     41.9924E-03    -16.3452E-03     30.7707E-03    -14.5374E-03     41.9833E-03
            1839     9.75823E-03     32.1211E-03    -4.94443E+06    -48.0760E+06     3.46985E+06     484.522E+03    -16.0541E-03     30.5735E-03    -14.5194E-03     37.4989E-03    -16.0200E-03     30.3411E-03    -14.4252E-03     37.4942E-03
            1840     8.87206E-03     32.0873E-03    -4.38550E+06    -45.5151E+06     3.75953E+06    -438.795E+03    -15.7104E-03     30.1169E-03    -14.4065E-03     33.0338E-03    -15.6755E-03     29.8939E-03    -14.3153E-03     33.0202E-03
            1841     7.98575E-03     32.0576E-03    -5.55786E+06    -49.1983E+06     2.52856E+06    -171.612E+03    -15.3690E-03     29.6721E-03    -14.3031E-03     28.7079E-03    -15.3314E-03     29.4327E-03    -14.2110E-03     28.6999E-03
            1842     7.09908E-03     32.0319E-03    -7.70490E+06    -50.1103E+06     1.17679E+06     543.928E+03    -15.0438E-03     29.2477E-03    -14.2040E-03     24.5897E-03    -15.0128E-03     29.0081E-03    -14.1142E-03     24.5924E-03
            1843     6.21226E-03     32.0099E-03    -8.91965E+06    -50.0624E+06     138.797E+03     538.290E+03    -14.7487E-03     28.8610E-03    -14.1123E-03     20.7456E-03    -14.7218E-03     28.6244E-03    -14.0261E-03     20.7492E-03
            1844     5.32523E-03     31.9914E-03    -9.34879E+06    -51.1075E+06    -1.13465E+06     335.610E+03    -14.4804E-03     28.5112E-03    -14.0308E-03     17.1883E-03    -14.4520E-03     28.2715E-03    -13.9488E-03     17.1900E-03
            1845     4.43794E-03     31.9763E-03    -10.1143E+06    -50.1770E+06    -3.09682E+06     327.435E+03    -14.2482E-03     28.2047E-03    -13.9564E-03     13.9184E-03    -14.2219E-03     27.9733E-03    -13.8845E-03     13.9207E-03
            1846     3.55057E-03     31.9641E-03    -11.1417E+06    -52.9025E+06    -5.78541E+06     271.965E+03    -14.0697E-03     27.9675E-03    -13.8977E-03     10.8789E-03    -14.0405E-03     27.7277E-03    -13.8338E-03     10.8810E-03
            1847     2.66300E-03     31.9549E-03    -12.1389E+06    -55.4702E+06    -8.88574E+06     267.590E+03    -13.9364E-03     27.7868E-03    -13.8504E-03     8.03543E-03    -13.9039E-03     27.5400E-03    -13.7968E-03     8.03781E-03
            1848     1.77540E-03     31.9482E-03    -13.0020E+06    -56.1217E+06    -11.3128E+06     256.084E+03    -13.8501E-03     27.6662E-03    -13.8161E-03     5.33739E-03    -13.8173E-03     27.4209E-03    -13.7725E-03     5.33997E-03
            1849     887.676E-06     31.9443E-03    -13.6051E+06    -57.4569E+06    -12.8540E+06     214.587E+03    -13.7976E-03     27.6018E-03    -13.8042E-03     2.86365E-03    -13.7633E-03     27.3535E-03    -13.7655E-03     2.86595E-03
            1850     16.8428E-03     31.6984E-03    -1.88116E+06     125.028E+06     19.8530E+06    -256.706E+03    -21.8281E-03     36.9979E-03    -15.1697E-03     162.921E-03    -24.3548E-03     39.9041E-03    -15.2490E-03     164.748E-03
            1851     15.9575E-03     31.5451E-03    -1.56119E+06     66.9946E+06    -11.0849E+06     1.18868E+06    -20.9452E-03     35.9363E-03    -14.9911E-03     136.988E-03    -22.1637E-03     37.4193E-03    -15.1414E-03     137.312E-03
            1852     15.0704E-03     31.4423E-03      411.59E+03     25.0403E+06    -3.96157E+06     1.36362E+06    -18.6302E-03     33.6105E-03    -14.9803E-03     87.5643E-03    -18.8753E-03     33.9574E-03    -15.0370E-03     87.5496E-03
            1853     14.1868E-03     31.3806E-03     507.803E+03    -12.6993E+06    -6.85390E+06     297.205E+03    -17.7591E-03     32.6710E-03    -14.9119E-03     62.9505E-03    -17.8029E-03     32.6913E-03    -14.9285E-03     62.9105E-03
            1854     13.3012E-03     31.3241E-03    -381.741E+03    -36.0720E+06    -8.15850E+06     516.159E+03    -17.5672E-03     32.3885E-03    -14.8213E-03     58.9113E-03    -17.5507E-03     32.2663E-03    -14.8092E-03     58.8802E-03
            1855     12.4164E-03     31.2696E-03    -541.413E+03    -35.7950E+06     2.55756E+06     1.20507E+06    -17.2061E-03     31.9561E-03    -14.7500E-03     53.0265E-03    -17.1871E-03     31.8008E-03    -14.6845E-03     53.0137E-03
            1856     11.5308E-03     31.2234E-03    -2.23632E+06    -39.3112E+06     2.81008E+06     1.36118E+06    -16.7760E-03     31.4085E-03    -14.6325E-03     46.0889E-03    -16.7494E-03     31.2262E-03    -14.5582E-03     46.0859E-03
            1857     10.6452E-03     31.1817E-03    -3.33432E+06    -48.5508E+06     1.28040E+06     597.699E+03    -16.4736E-03     30.9854E-03    -14.5118E-03     41.3291E-03    -16.4311E-03     30.7549E-03    -14.4301E-03     41.3217E-03
            1858     9.75939E-03     31.1441E-03    -3.53475E+06    -46.8010E+06     3.11621E+06    -695.567E+03    -16.0823E-03     30.4729E-03    -14.3906E-03     36.8703E-03    -16.0424E-03     30.2453E-03    -14.3021E-03     36.8505E-03
            1859     8.87330E-03     31.1106E-03    -4.32865E+06    -46.1161E+06     2.92251E+06    -526.562E+03    -15.6870E-03     29.9538E-03    -14.2668E-03     32.4416E-03    -15.6496E-03     29.7288E-03    -14.1790E-03     32.4270E-03
            1860     7.98687E-03     31.0814E-03    -5.76549E+06    -50.4806E+06     2.92189E+06     930.925E+03    -15.3264E-03     29.4849E-03    -14.1585E-03     28.1047E-03    -15.2885E-03     29.2388E-03    -14.0623E-03     28.1110E-03
            1861     7.10022E-03     31.0560E-03    -6.96647E+06    -49.2934E+06     2.01874E+06     870.226E+03    -14.9681E-03     29.0133E-03    -14.0451E-03     24.0470E-03    -14.9358E-03     28.7754E-03    -13.9535E-03     24.0540E-03
            1862     6.21334E-03     31.0343E-03    -7.89254E+06     -49.736E+06     951.503E+03    -59.3992E+03    -14.6372E-03     28.5808E-03    -13.9436E-03     20.2553E-03    -14.6068E-03     28.3431E-03    -13.8553E-03     20.2513E-03
            1863     5.32614E-03     31.0163E-03    -9.21976E+06    -51.1994E+06    -863.489E+03    -41.7544E+03    -14.3385E-03     28.1920E-03    -13.8536E-03     16.7680E-03    -14.3097E-03     27.9512E-03    -13.7703E-03     16.7650E-03
            1864     4.43880E-03     31.0013E-03    -10.5699E+06    -50.0079E+06    -3.33790E+06    -44.3943E+03    -14.0827E-03     27.8541E-03    -13.7715E-03     13.5768E-03    -14.0585E-03     27.6246E-03    -13.7003E-03     13.5744E-03
            1865     3.55121E-03     30.9894E-03    -11.7982E+06    -53.0312E+06    -5.97350E+06     16.7454E+03    -13.8932E-03     27.6025E-03    -13.7093E-03     10.6103E-03    -13.8668E-03     27.3633E-03    -13.6452E-03     10.6091E-03
            1866     2.66354E-03     30.9803E-03    -13.1949E+06    -55.5197E+06    -9.37723E+06     344.054E+03    -13.7524E-03     27.4089E-03    -13.6565E-03     7.83249E-03    -13.7243E-03     27.1641E-03    -13.6038E-03     7.83591E-03
            1867     1.77570E-03     30.9739E-03    -14.5230E+06    -55.7301E+06    -12.7883E+06     323.728E+03    -13.6540E-03     27.2671E-03    -13.6131E-03     5.20426E-03    -13.6272E-03     27.0280E-03    -13.5752E-03     5.20775E-03
            1868     887.911E-06     30.9699E-03    -15.4231E+06    -57.2187E+06    -14.9534E+06     71.4971E+03    -13.5968E-03     27.1888E-03    -13.5919E-03     2.78367E-03    -13.5690E-03     26.9473E-03    -13.5614E-03     2.78412E-03
            1869     16.8385E-03     30.7164E-03    -2.94908E+06     124.913E+06     18.5278E+06    -205.904E+03    -21.8652E-03     37.0425E-03    -15.1773E-03     162.107E-03    -24.3851E-03     39.9417E-03    -15.2615E-03     163.905E-03
            1870     15.9556E-03     30.5656E-03    -2.89957E+06     66.9053E+06    -12.6105E+06    -1.10255E+06    -21.5127E-03     36.4893E-03    -14.9766E-03     135.465E-03    -22.7316E-03     37.9720E-03    -15.1325E-03     135.744E-03
            1871     15.0734E-03     30.4630E-03    -2.59828E+06     24.5072E+06    -5.69532E+06     705.605E+03    -19.1014E-03     34.0331E-03    -14.9318E-03     86.3947E-03    -19.3562E-03     34.3822E-03    -14.9920E-03     86.3669E-03
            1872     14.1871E-03     30.4023E-03    -2.38895E+06    -11.1722E+06    -7.31490E+06     1.15788E+06    -17.8306E-03     32.6745E-03    -14.8439E-03     62.1328E-03    -17.8884E-03     32.7053E-03    -14.8608E-03     62.1037E-03
            1873     13.3026E-03     30.3452E-03    -1.10188E+06    -36.4802E+06     -9.3022E+06    -26.0393E+03    -17.7662E-03     32.4998E-03    -14.7336E-03     58.0359E-03    -17.7502E-03     32.3774E-03    -14.7256E-03     57.9975E-03
            1874     12.4175E-03     30.2915E-03    -353.140E+03    -37.7494E+06     2.19552E+06     1.50822E+06    -17.3238E-03     31.9720E-03    -14.6482E-03     52.0295E-03    -17.2998E-03     31.8064E-03    -14.5820E-03     52.0207E-03
            1875     11.5322E-03     30.2457E-03    -167.176E+03    -37.9147E+06     4.34351E+06     2.19502E+06    -16.8460E-03     31.3621E-03    -14.5161E-03     45.2646E-03    -16.8129E-03     31.1812E-03    -14.4392E-03     45.2725E-03
            1876     10.6467E-03     30.2042E-03    -124.694E+03    -46.9248E+06     2.42242E+06     439.918E+03    -16.4889E-03     30.8663E-03    -14.3774E-03     40.5994E-03    -16.4340E-03     30.6374E-03    -14.2970E-03     40.5902E-03
            1877     9.76086E-03     30.1672E-03    -1.08699E+06    -46.5472E+06     4.71696E+06     20.9050E+03    -16.0650E-03     30.3143E-03    -14.2493E-03     36.1409E-03    -16.0153E-03     30.0818E-03    -14.1566E-03     36.1305E-03
            1878     8.87464E-03     30.1341E-03    -3.28300E+06    -47.3784E+06     4.08037E+06     772.618E+03    -15.6493E-03     29.7645E-03    -14.1151E-03     31.7481E-03    -15.6064E-03     29.5298E-03    -14.0213E-03     31.7504E-03
            1879     7.98826E-03     30.1053E-03    -4.84874E+06    -50.9448E+06     4.21626E+06     1.09870E+06    -15.2625E-03     29.2565E-03    -13.9940E-03     27.4518E-03    -15.2211E-03     29.0048E-03    -13.8920E-03     27.4603E-03
            1880     7.10157E-03     30.0803E-03    -5.43879E+06    -47.7572E+06     3.13562E+06     417.027E+03    -14.8579E-03     28.7230E-03    -13.8651E-03     23.4684E-03    -14.8218E-03     28.4890E-03    -13.7723E-03     23.4696E-03
            1881     6.21449E-03     30.0591E-03    -6.41051E+06    -49.7685E+06     1.93506E+06     7.29219E+03    -14.4988E-03     28.2558E-03    -13.7570E-03     19.7374E-03    -14.4623E-03     28.0143E-03    -13.6659E-03     19.7344E-03
            1882     5.32725E-03     30.0413E-03    -7.91791E+06    -51.3905E+06     504.863E+03     195.289E+03    -14.1816E-03     27.8442E-03    -13.6625E-03     16.3110E-03    -14.1480E-03     27.5985E-03    -13.5740E-03     16.3111E-03
            1883     4.43966E-03     30.0268E-03    -9.72613E+06    -49.6975E+06    -2.96490E+06     140.253E+03    -13.9041E-03     27.4741E-03    -13.5699E-03     13.2069E-03    -13.8767E-03     27.2443E-03    -13.4986E-03     13.2069E-03
            1884     3.55194E-03     30.0150E-03    -11.5818E+06    -53.3992E+06    -5.93646E+06     128.961E+03    -13.7079E-03     27.2110E-03    -13.5031E-03     10.3085E-03    -13.6800E-03     26.9696E-03    -13.4385E-03     10.3088E-03
            1885     2.66408E-03     30.0062E-03    -13.1097E+06    -55.6329E+06      -9.022E+06     419.914E+03    -13.5578E-03     27.0036E-03    -13.4458E-03     7.60276E-03    -13.5296E-03     26.7576E-03    -13.3912E-03     7.60720E-03
            1886     1.77615E-03     29.9998E-03    -14.1999E+06    -55.2612E+06    -12.5613E+06     522.365E+03    -13.4437E-03     26.8394E-03    -13.3957E-03     5.05959E-03    -13.4163E-03     26.6019E-03    -13.3578E-03     5.06570E-03
            1887     888.047E-06     29.9960E-03    -14.8890E+06    -56.7755E+06    -14.5681E+06     282.000E+03    -13.3905E-03     26.7523E-03    -13.3619E-03     2.70690E-03    -13.3611E-03     26.5118E-03    -13.3308E-03     2.71011E-03
            1888     16.8436E-03     29.7402E-03    -2.68063E+06     125.876E+06     18.7288E+06     828.245E+03    -22.1350E-03     37.2885E-03    -15.1535E-03     161.286E-03    -24.6144E-03     40.1509E-03    -15.2385E-03     163.046E-03
            1889     15.9580E-03     29.5829E-03    -4.57694E+06     66.5848E+06    -14.2608E+06     402.015E+03    -21.9080E-03     36.8372E-03    -14.9292E-03     135.568E-03    -23.1321E-03     38.3227E-03    -15.0904E-03     135.849E-03
            1890     15.0728E-03     29.4849E-03    -5.34494E+06     23.4007E+06    -7.24329E+06    -217.480E+03    -19.7533E-03     34.6058E-03    -14.8525E-03     84.3369E-03    -20.0098E-03     34.9474E-03    -14.9149E-03     84.2899E-03
            1891     14.1890E-03     29.4230E-03    -2.92176E+06    -9.79594E+06    -6.87660E+06    -324.682E+03    -18.0187E-03     32.7514E-03    -14.7328E-03     60.9861E-03    -18.0791E-03     32.7866E-03    -14.7487E-03     60.9376E-03
            1892     13.3042E-03     29.3668E-03    -2.06940E+06    -36.8377E+06    -10.0107E+06     130.925E+03    -17.7139E-03     32.3197E-03    -14.6058E-03     57.0755E-03    -17.7002E-03     32.1969E-03    -14.5994E-03     57.0397E-03
            1893     12.4193E-03     29.3133E-03    -1.88135E+06    -39.6412E+06    -209.154E+03     578.965E+03    -17.3010E-03     31.8075E-03    -14.5065E-03     51.2267E-03    -17.2776E-03     31.6374E-03    -14.4474E-03     51.2065E-03
            1894     11.5340E-03     29.2680E-03    -850.390E+03    -37.0586E+06     3.36905E+06     1.03566E+06    -16.8125E-03     31.1791E-03    -14.3666E-03     44.6074E-03    -16.7822E-03     31.0044E-03    -14.2948E-03     44.6008E-03
            1895     10.6483E-03     29.2271E-03    -1.06226E+06    -45.7101E+06     2.05404E+06     1.08807E+06    -16.4371E-03     30.6578E-03    -14.2207E-03     39.9387E-03    -16.3879E-03     30.4366E-03    -14.1426E-03     39.9382E-03
            1896     9.76244E-03     29.1903E-03    -2.94379E+06    -47.5886E+06     4.46197E+06     1.52394E+06    -16.0157E-03     30.1022E-03    -14.0865E-03     35.4369E-03    -15.9732E-03     29.8674E-03    -13.9909E-03     35.4461E-03
            1897     8.87632E-03     29.1579E-03    -4.48108E+06    -47.0689E+06     3.94023E+06     1.72846E+06    -15.5801E-03     29.5176E-03    -13.9375E-03     31.0691E-03    -15.5433E-03     29.2863E-03    -13.8430E-03     31.0839E-03
            1898     7.98981E-03     29.1294E-03    -5.15719E+06    -50.0415E+06     3.16209E+06     578.898E+03    -15.1456E-03     28.9444E-03    -13.7988E-03     26.8379E-03    -15.1055E-03     28.6991E-03    -13.7029E-03     26.8399E-03
            1899     7.10293E-03     29.1051E-03    -5.99209E+06    -47.4312E+06     2.60115E+06     246.182E+03    -14.7165E-03     28.3815E-03    -13.6650E-03     22.8825E-03    -14.6828E-03     28.1505E-03    -13.5745E-03     22.8817E-03
            1900     6.21582E-03     29.0841E-03    -7.38476E+06    -49.6244E+06     1.14643E+06     265.584E+03    -14.3352E-03     27.8839E-03    -13.5487E-03     19.2067E-03    -14.3027E-03     27.6456E-03    -13.4603E-03     19.2071E-03
            1901     5.32833E-03     29.0669E-03    -8.76619E+06    -51.5964E+06    -531.710E+03     206.556E+03    -14.0043E-03     27.4504E-03    -13.4461E-03     15.8463E-03    -13.9730E-03     27.2065E-03    -13.3613E-03     15.8466E-03
            1902     4.44066E-03     29.0525E-03    -9.99486E+06    -49.5862E+06    -3.08181E+06     437.860E+03    -13.7211E-03     27.0703E-03    -13.3492E-03     12.8010E-03    -13.6950E-03     26.8417E-03    -13.2782E-03     12.8048E-03
            1903     3.55276E-03     29.0412E-03    -11.4806E+06    -53.4007E+06    -6.12215E+06     483.670E+03    -13.5048E-03     26.7791E-03    -13.2743E-03     9.97974E-03    -13.4761E-03     26.5378E-03    -13.2108E-03     9.98466E-03
            1904     2.66472E-03     29.0323E-03    -13.0555E+06    -55.6797E+06    -9.23065E+06     472.696E+03    -13.3364E-03     26.5482E-03    -13.2118E-03     7.35644E-03    -13.3076E-03     26.3022E-03    -13.1583E-03     7.36160E-03
            1905     1.77651E-03     29.0262E-03    -14.2697E+06    -54.8678E+06    -12.2337E+06     545.653E+03    -13.2111E-03     26.3717E-03    -13.1606E-03     4.89637E-03    -13.1851E-03     26.1358E-03    -13.1215E-03     4.90281E-03
            1906     888.317E-06     29.0224E-03    -15.0479E+06    -56.0525E+06    -14.4717E+06     406.705E+03    -13.1579E-03     26.2745E-03    -13.1166E-03     2.62938E-03    -13.1306E-03     26.0377E-03    -13.0859E-03     2.63420E-03
            1907     16.8404E-03     28.7614E-03    -4.79926E+06     125.016E+06     20.7974E+06     2.60954E+06    -23.8771E-03     39.0676E-03    -15.1906E-03     165.274E-03    -26.4406E-03     41.9978E-03    -15.2609E-03     167.039E-03
            1908     15.9566E-03     28.6017E-03    -5.44587E+06     68.9239E+06    -13.3413E+06     1.12010E+06    -24.3417E-03     39.1855E-03    -14.8438E-03     132.461E-03    -25.5529E-03     40.6608E-03    -15.0025E-03     132.653E-03
            1909     15.0762E-03     28.5036E-03    -1.04046E+06     24.5795E+06    -4.77244E+06    -2.21801E+06    -19.2728E-03     33.9732E-03    -14.7004E-03     80.1029E-03    -19.4933E-03     34.2911E-03    -14.7584E-03     80.0318E-03
            1910     14.1917E-03     28.4452E-03    -832.504E+03    -11.8670E+06    -6.65663E+06    -1.03418E+06    -17.5903E-03     32.1808E-03    -14.5905E-03     60.6438E-03    -17.6365E-03     32.2012E-03    -14.6054E-03     60.5884E-03
            1911     13.3063E-03     28.3883E-03    -550.605E+03    -37.0063E+06    -9.52103E+06     240.098E+03    -17.6832E-03     32.1518E-03    -14.4686E-03     57.0702E-03    -17.6622E-03     32.0251E-03    -14.4617E-03     57.0360E-03
            1912     12.4212E-03     28.3356E-03     4.36922E+03    -40.0582E+06    -177.913E+03     443.465E+03    -17.2676E-03     31.6271E-03    -14.3596E-03     50.7936E-03    -17.2336E-03     31.4515E-03    -14.3024E-03     50.7721E-03
            1913     11.5357E-03     28.2905E-03    -1.25385E+06    -37.7466E+06     2.91535E+06     1.09331E+06    -16.7930E-03     31.0044E-03    -14.2113E-03     44.1461E-03    -16.7627E-03     30.8271E-03    -14.1402E-03     44.1406E-03
            1914     10.6502E-03     28.2500E-03    -2.60422E+06    -45.7984E+06     2.13247E+06     2.01427E+06    -16.4194E-03     30.4756E-03    -14.0562E-03     39.3008E-03    -16.3776E-03     30.2557E-03    -13.9753E-03     39.3126E-03
            1915     9.76425E-03     28.2139E-03    -3.06167E+06    -47.5913E+06     4.32587E+06     1.99834E+06    -15.9640E-03     29.8692E-03    -13.9052E-03     34.7884E-03    -15.9217E-03     29.6346E-03    -13.8102E-03     34.8041E-03
            1916     8.87800E-03     28.1818E-03    -3.04891E+06    -46.1884E+06     4.30171E+06     1.34895E+06    -15.4911E-03     29.2345E-03    -13.7434E-03     30.3981E-03    -15.4487E-03     29.0048E-03    -13.6505E-03     30.4083E-03
            1917     7.99139E-03     28.1541E-03    -4.04024E+06    -49.0518E+06     3.61368E+06     1.04762E+06    -15.0224E-03     28.6176E-03    -13.5952E-03     26.1771E-03    -14.9787E-03     28.3749E-03    -13.5002E-03     26.1853E-03
            1918     7.10449E-03     28.1299E-03    -5.81165E+06    -47.3965E+06     2.08568E+06     578.848E+03    -14.5703E-03     28.0204E-03    -13.4502E-03     22.2667E-03    -14.5349E-03     27.7901E-03    -13.3626E-03     22.2703E-03
            1919     6.21714E-03     28.1097E-03    -7.17648E+06    -49.4603E+06     1.02456E+06     513.388E+03    -14.1765E-03     27.5029E-03    -13.3263E-03     18.6300E-03    -14.1430E-03     27.2653E-03    -13.2391E-03     18.6336E-03
            1920     5.32958E-03     28.0926E-03    -8.77624E+06    -51.5077E+06    -797.634E+03     450.083E+03    -13.8286E-03     27.0424E-03    -13.2138E-03     15.3316E-03    -13.7972E-03     26.7993E-03    -13.1304E-03     15.3351E-03
            1921     4.44172E-03     28.0788E-03    -10.5046E+06    -49.7811E+06    -3.79524E+06     451.019E+03    -13.5188E-03     26.6254E-03    -13.1066E-03     12.3675E-03    -13.4939E-03     26.3975E-03    -13.0382E-03     12.3716E-03
            1922     3.55365E-03     28.0676E-03    -11.9221E+06    -53.1964E+06    -6.51512E+06     668.501E+03    -13.2811E-03     26.3060E-03    -13.0250E-03     9.63322E-03    -13.2543E-03     26.0670E-03    -12.9631E-03     9.64056E-03
            1923     2.66538E-03     28.0592E-03    -13.2252E+06    -55.3798E+06    -9.34700E+06     537.056E+03    -13.0976E-03     26.0546E-03    -12.9570E-03     7.09120E-03    -13.0699E-03     25.8105E-03    -12.9043E-03     7.09722E-03
            1924     1.77703E-03     28.0530E-03    -14.2732E+06    -54.6492E+06    -12.1609E+06     403.426E+03    -12.9585E-03     25.8604E-03    -12.9019E-03     4.71289E-03    -12.9329E-03     25.6255E-03    -12.8628E-03     4.71749E-03
            1925     888.490E-06     28.0495E-03    -15.0437E+06    -55.2748E+06    -14.4388E+06     518.904E+03    -12.8906E-03     25.7513E-03    -12.8607E-03     2.54987E-03    -12.8644E-03     25.5183E-03    -12.8310E-03     2.55613E-03
            1926     16.8341E-03     27.7678E-03    -3.40026E+06     127.390E+06     26.1180E+06      1.5133E+06    -26.0899E-03     41.0658E-03    -14.9760E-03     155.159E-03    -28.5039E-03     43.8447E-03    -15.0252E-03     156.652E-03
            1927     15.9666E-03     27.6168E-03     3.27655E+06     73.2618E+06    -8.83016E+06    -2.49225E+06    -21.1501E-03     35.7417E-03    -14.5916E-03     123.302E-03    -22.2025E-03     37.0906E-03    -14.7468E-03     123.460E-03
            1928     15.0804E-03     27.5288E-03     1.99633E+06     22.2969E+06    -5.55261E+06    -641.600E+03    -17.2652E-03     31.8265E-03    -14.5613E-03     82.5921E-03    -17.4620E-03     32.1257E-03    -14.6243E-03     82.5568E-03
            1929     14.1919E-03     27.4665E-03    -1.34170E+06    -12.5891E+06    -8.44413E+06     347.462E+03    -17.8962E-03     32.3939E-03    -14.4977E-03     63.0580E-03    -17.9449E-03     32.4176E-03    -14.5197E-03     63.0185E-03
            1930     13.3078E-03     27.4100E-03    -1.05085E+06    -37.3442E+06    -10.1588E+06    -62.7849E+03    -17.9975E-03     32.3547E-03    -14.3571E-03     56.9864E-03    -17.9772E-03     32.2275E-03    -14.3522E-03     56.9476E-03
            1931     12.4228E-03     27.3579E-03    -1.20602E+06    -40.6658E+06    -691.611E+03     875.080E+03    -17.3785E-03     31.6055E-03    -14.2270E-03     50.5758E-03    -17.3486E-03     31.4289E-03    -14.1697E-03     50.5600E-03
            1932     11.5376E-03     27.3130E-03    -1.16001E+06    -38.5635E+06     2.81929E+06     1.63803E+06    -16.9028E-03     30.9628E-03    -14.0600E-03     43.7546E-03    -16.8704E-03     30.7812E-03    -13.9883E-03     43.7563E-03
            1933     10.6520E-03     27.2732E-03    -1.03411E+06    -46.1596E+06     2.38819E+06     2.16962E+06    -16.4578E-03     30.3425E-03    -13.8847E-03     38.7480E-03    -16.4077E-03     30.1179E-03    -13.8043E-03     38.7621E-03
            1934     9.76614E-03     27.2375E-03    -1.41370E+06    -46.4367E+06     4.71161E+06     1.83332E+06    -15.9361E-03     29.6519E-03    -13.7158E-03     34.1750E-03    -15.8876E-03     29.4199E-03    -13.6229E-03     34.1888E-03
            1935     8.87982E-03     27.2062E-03    -2.65784E+06    -45.9639E+06     3.76172E+06     1.53384E+06    -15.4070E-03     28.9458E-03    -13.5388E-03     29.7420E-03    -15.3621E-03     28.7174E-03    -13.4495E-03     29.7548E-03
            1936     7.99317E-03     27.1787E-03    -3.83458E+06    -48.6937E+06     3.25034E+06     1.63538E+06    -14.9174E-03     28.2963E-03    -13.3790E-03     25.5073E-03    -14.8725E-03     28.0556E-03    -13.2865E-03     25.5233E-03
            1937     7.10604E-03     27.1555E-03    -5.04959E+06    -46.6016E+06     2.24174E+06     1.35549E+06    -14.4422E-03     27.6643E-03    -13.2221E-03     21.6003E-03    -14.4043E-03     27.4365E-03    -13.1360E-03     21.6140E-03
            1938     6.21866E-03     27.1354E-03    -6.69360E+06    -49.3085E+06     1.15691E+06     774.987E+03    -14.0188E-03     27.1057E-03    -13.0870E-03     18.0043E-03    -13.9832E-03     26.8680E-03    -13.0000E-03     18.0115E-03
            1939     5.33093E-03     27.1190E-03    -8.08265E+06    -51.3909E+06    -385.748E+03     805.059E+03    -13.6366E-03     26.6011E-03    -12.9645E-03     14.7775E-03    -13.6024E-03     26.3569E-03    -12.8802E-03     14.7856E-03
            1940     4.44288E-03     27.1054E-03    -9.63635E+06    -49.6759E+06    -3.42011E+06     852.455E+03    -13.3010E-03     26.1488E-03    -12.8478E-03     11.9048E-03    -13.2725E-03     25.9196E-03    -12.7789E-03     11.9141E-03
            1941     3.55459E-03     27.0946E-03    -11.2295E+06    -52.9845E+06    -5.80155E+06     662.072E+03    -13.0454E-03     25.8053E-03    -12.7599E-03     9.25691E-03    -13.0165E-03     25.5653E-03    -12.6958E-03     9.26421E-03
            1942     2.66614E-03     27.0863E-03    -12.5398E+06    -54.9094E+06    -8.70501E+06     535.910E+03    -12.8417E-03     25.5261E-03    -12.6844E-03     6.80733E-03    -12.8122E-03     25.2824E-03    -12.6301E-03     6.81335E-03
            1943     1.77748E-03     27.0805E-03    -13.7700E+06    -54.4750E+06    -11.9589E+06     419.266E+03    -12.6910E-03     25.3131E-03    -12.6221E-03     4.52684E-03    -12.6634E-03     25.0781E-03    -12.5830E-03     4.53166E-03
            1944     888.800E-06     27.0769E-03    -14.5516E+06    -54.5605E+06    -13.8804E+06     404.241E+03    -12.5988E-03     25.1877E-03    -12.5890E-03     2.45773E-03    -12.5720E-03     24.9568E-03    -12.5581E-03     2.46252E-03
            1945     16.8726E-03     26.7879E-03    -1.44693E+06     129.580E+06     27.5536E+06    -1.74813E+06    -25.6335E-03     40.4444E-03    -14.8108E-03     160.190E-03    -28.0070E-03     43.1935E-03    -14.8589E-03     161.602E-03
            1946     15.9672E-03     26.6489E-03     4.35411E+06     71.4462E+06    -10.8404E+06     1.90844E+06    -17.9206E-03     32.4538E-03    -14.5332E-03     132.740E-03    -18.9619E-03     33.7930E-03    -14.6973E-03     133.069E-03
            1947     15.0732E-03     26.5500E-03    -1.89740E+06     20.9830E+06    -7.72665E+06     2.78375E+06    -18.3617E-03     32.9481E-03    -14.5865E-03     87.6231E-03    -18.5882E-03     33.2647E-03    -14.6528E-03     87.6261E-03
            1948     14.1931E-03     26.4862E-03    -2.60019E+06    -10.3219E+06    -8.26247E+06     1.20675E+06    -19.0467E-03     33.5104E-03    -14.4637E-03     62.4560E-03    -19.1056E-03     33.5473E-03    -14.4862E-03     62.4231E-03
            1949     13.3089E-03     26.4319E-03    -4.00742E+06    -38.0606E+06    -11.9117E+06     841.984E+03    -18.3113E-03     32.5794E-03    -14.2681E-03     56.2677E-03    -18.3011E-03     32.4544E-03    -14.2667E-03     56.2403E-03
            1950     12.4242E-03     26.3798E-03    -4.06311E+06    -40.2981E+06    -2.50949E+06     239.562E+03    -17.6723E-03     31.7788E-03    -14.1064E-03     50.2435E-03    -17.6543E-03     31.6105E-03    -14.0547E-03     50.2193E-03
            1951     11.5391E-03     26.3358E-03    -2.72908E+06    -39.6899E+06    -332.818E+03     168.943E+03    -17.0916E-03     30.9962E-03    -13.9045E-03     43.2456E-03    -17.0604E-03     30.8153E-03    -13.8447E-03     43.2286E-03
            1952     10.6538E-03     26.2963E-03    -1.23470E+06    -46.6491E+06     90.6146E+03     1.27525E+06    -16.5441E-03     30.2506E-03    -13.7064E-03     38.1513E-03    -16.4906E-03     30.0269E-03    -13.6366E-03     38.1542E-03
            1953     9.76793E-03     26.2615E-03    -1.27670E+06    -46.4657E+06     3.95318E+06     2.44994E+06    -15.9535E-03     29.4769E-03    -13.5234E-03     33.4637E-03    -15.9030E-03     29.2454E-03    -13.4344E-03     33.4857E-03
            1954     8.88164E-03     26.2306E-03    -2.67220E+06    -45.2340E+06     3.54140E+06     2.56917E+06    -15.3763E-03     28.7053E-03    -13.3290E-03     28.9813E-03    -15.3321E-03     28.4807E-03    -13.2418E-03     29.0077E-03
            1955     7.99487E-03     26.2040E-03    -4.00165E+06    -48.1973E+06     2.86281E+06     1.78830E+06    -14.8408E-03     27.9913E-03    -13.1505E-03     24.7381E-03    -14.7969E-03     27.7537E-03    -13.0605E-03     24.7563E-03
            1956     7.10783E-03     26.1810E-03    -4.75795E+06    -46.1271E+06     2.61731E+06     1.55237E+06    -14.3149E-03     27.2951E-03    -12.9802E-03     20.8602E-03    -14.2767E-03     27.0687E-03    -12.8933E-03     20.8766E-03
            1957     6.22027E-03     26.1618E-03    -5.85856E+06    -48.6014E+06     1.48075E+06     1.42843E+06    -13.8401E-03     26.6702E-03    -12.8302E-03     17.3463E-03    -13.8017E-03     26.4343E-03    -12.7438E-03     17.3619E-03
            1958     5.33234E-03     26.1456E-03    -7.70322E+06    -51.4178E+06    -61.3059E+03     1.10149E+06    -13.4284E-03     26.1269E-03    -12.6985E-03     14.2050E-03    -13.3927E-03     25.8815E-03    -12.6131E-03     14.2171E-03
            1959     4.44412E-03     26.1326E-03    -9.07637E+06    -49.1733E+06    -2.57753E+06     985.068E+03    -13.0687E-03     25.6422E-03    -12.5736E-03     11.4220E-03    -13.0393E-03     25.4135E-03    -12.5020E-03     11.4331E-03
            1960     3.55562E-03     26.1220E-03    -10.2074E+06    -52.6154E+06    -5.33364E+06     731.509E+03    -12.7861E-03     25.2619E-03    -12.4758E-03     8.87205E-03    -12.7532E-03     25.0215E-03    -12.4113E-03     8.88031E-03
            1961     2.66690E-03     26.1141E-03    -11.6346E+06    -54.7383E+06    -8.32648E+06     778.303E+03    -12.5667E-03     24.9622E-03    -12.3954E-03     6.52233E-03    -12.5335E-03     24.7174E-03    -12.3408E-03     6.53154E-03
            1962     1.77804E-03     26.1084E-03    -13.0295E+06    -53.8204E+06    -10.9649E+06     687.062E+03    -12.4117E-03     24.7419E-03    -12.3302E-03     4.33941E-03    -12.3828E-03     24.5076E-03    -12.2881E-03     4.34774E-03
            1963     889.034E-06     26.1050E-03    -14.1917E+06    -54.0300E+06    -13.1674E+06     122.805E+03    -12.3032E-03     24.5928E-03    -12.2895E-03     2.32792E-03    -12.2765E-03     24.3630E-03    -12.2565E-03     2.32913E-03
            1964     16.8245E-03     25.8061E-03    -361.973E+03     123.486E+06     12.7702E+06    -816.204E+03    -22.4162E-03     37.5245E-03    -15.1083E-03     159.638E-03    -24.7612E-03     40.2700E-03    -15.2230E-03     161.223E-03
            1965     15.9533E-03     25.6703E-03    -10.0682E+06     69.3342E+06    -14.3606E+06     1.59621E+06    -23.7717E-03     38.6146E-03    -14.8429E-03     132.513E-03    -24.9486E-03     40.0416E-03    -15.0006E-03     132.766E-03
            1966     15.0795E-03     25.5676E-03    -4.30947E+06     25.1658E+06    -6.93697E+06     1.97482E+06    -21.6797E-03     36.3163E-03    -14.6367E-03     85.5697E-03    -21.9346E-03     36.6654E-03    -14.7016E-03     85.5402E-03
            1967     14.1938E-03     25.5073E-03    -1.66675E+06    -11.0429E+06    -8.61143E+06     1.85488E+06    -19.2195E-03     33.6225E-03    -14.4031E-03     60.8643E-03    -19.2673E-03     33.6502E-03    -14.4277E-03     60.8411E-03
            1968     13.3097E-03     25.4529E-03    -1.09486E+06    -36.7413E+06    -10.7040E+06     2.05230E+06    -18.6618E-03     32.8482E-03    -14.1864E-03     55.5177E-03    -18.6397E-03     32.7228E-03    -14.1850E-03     55.5058E-03
            1969     12.4255E-03     25.4018E-03    -1.54908E+06    -39.2696E+06    -2.03382E+06     502.198E+03    -18.0561E-03     32.0452E-03    -13.9891E-03     49.2469E-03    -18.0271E-03     31.8772E-03    -13.9401E-03     49.2258E-03
            1970     11.5409E-03     25.3582E-03    -3.17235E+06    -40.1718E+06    -1.44956E+06     162.505E+03    -17.2780E-03     31.0319E-03    -13.7539E-03     42.2917E-03    -17.2462E-03     30.8505E-03    -13.6983E-03     42.2748E-03
            1971     10.6555E-03     25.3198E-03    -4.63027E+06    -47.8940E+06    -2.52265E+06     725.593E+03    -16.6490E-03     30.1764E-03    -13.5274E-03     37.2234E-03    -16.6066E-03     29.9549E-03    -13.4638E-03     37.2194E-03
            1972     9.76984E-03     25.2853E-03    -4.28819E+06    -47.3112E+06     1.57382E+06     1.68816E+06    -16.0047E-03     29.3237E-03    -13.3191E-03     32.5272E-03    -15.9643E-03     29.0957E-03    -13.2364E-03     32.5396E-03
            1973     8.88360E-03     25.2554E-03    -3.31433E+06    -44.8744E+06     3.38672E+06     2.44371E+06    -15.3663E-03     28.4729E-03    -13.1066E-03     28.0350E-03    -15.3254E-03     28.2512E-03    -13.0198E-03     28.0600E-03
            1974     7.99694E-03     25.2292E-03    -3.55559E+06    -46.7764E+06     3.49658E+06     2.10102E+06    -14.7463E-03     27.6550E-03    -12.9086E-03     23.8646E-03    -14.7030E-03     27.4229E-03    -12.8182E-03     23.8869E-03
            1975     7.10965E-03     25.2072E-03    -4.77469E+06    -46.2708E+06     2.29045E+06     1.55616E+06    -14.1548E-03     26.8758E-03    -12.7211E-03     20.0820E-03    -14.1159E-03     26.6491E-03    -12.6356E-03     20.0986E-03
            1976     6.22193E-03     25.1883E-03    -5.90005E+06    -47.9691E+06     1.66442E+06     1.71244E+06    -13.6427E-03     26.2029E-03    -12.5602E-03     16.6621E-03    -13.6057E-03     25.9698E-03    -12.4738E-03     16.6815E-03
            1977     5.33387E-03     25.1729E-03    -6.83031E+06    -50.7763E+06     937.674E+03     1.29952E+06    -13.2056E-03     25.6261E-03    -12.4205E-03     13.6128E-03    -13.1679E-03     25.3812E-03    -12.3323E-03     13.6275E-03
            1978     4.44543E-03     25.1601E-03    -8.15397E+06    -48.9341E+06    -2.20769E+06     994.722E+03    -12.8140E-03     25.0986E-03    -12.2846E-03     10.9361E-03    -12.7809E-03     24.8692E-03    -12.2128E-03     10.9474E-03
            1979     3.55668E-03     25.1501E-03    -9.78274E+06    -52.2301E+06    -5.26975E+06     1.13345E+06    -12.5111E-03     24.6910E-03    -12.1798E-03     8.48412E-03    -12.4768E-03     24.4518E-03    -12.1163E-03     8.49763E-03
            1980     2.66770E-03     25.1424E-03    -11.2490E+06    -54.4159E+06    -7.71824E+06     984.324E+03    -12.2842E-03     24.3809E-03    -12.0967E-03     6.23031E-03    -12.2504E-03     24.1364E-03    -12.0401E-03     6.24224E-03
            1981     1.77856E-03     25.1370E-03    -12.0868E+06    -52.8365E+06    -10.2974E+06     599.985E+03    -12.1128E-03     24.1386E-03    -12.0258E-03     4.14219E-03    -12.0816E-03     23.9069E-03    -11.9832E-03     4.14945E-03
            1982     889.350E-06     25.1336E-03    -12.3762E+06    -53.6498E+06    -12.0392E+06     19.3125E+03    -12.0074E-03     23.9900E-03    -11.9826E-03     2.21027E-03    -11.9738E-03     23.7578E-03    -11.9471E-03     2.21023E-03
            1983     16.8427E-03     24.8251E-03     5.11547E+06     124.748E+06     15.1796E+06     1.98327E+06    -22.6341E-03     37.8239E-03    -15.1897E-03     148.343E-03    -24.8460E-03     40.4528E-03    -15.3021E-03     149.877E-03
            1984     15.9597E-03     24.6788E-03    -420.133E+03     70.0680E+06    -11.2644E+06     321.756E+03    -25.0291E-03     39.8799E-03    -14.8509E-03     121.506E-03    -26.1151E-03     41.2457E-03    -15.0082E-03     121.677E-03
            1985     15.0765E-03     24.5873E-03    -1.07173E+06     23.6074E+06    -6.90335E+06     571.484E+03    -21.9353E-03     36.5107E-03    -14.5754E-03     80.5546E-03    -22.1652E-03     36.8407E-03    -14.6426E-03     80.5036E-03
            1986     14.1946E-03     24.5280E-03    -383.185E+03    -11.5151E+06    -9.06622E+06     1.83974E+06    -19.4907E-03     33.8034E-03    -14.3126E-03     59.3967E-03    -19.5289E-03     33.8256E-03    -14.3407E-03     59.3730E-03
            1987     13.3111E-03     24.4734E-03     841.870E+03    -36.1739E+06    -9.81076E+06     2.11240E+06    -18.9738E-03     33.0465E-03    -14.0727E-03     54.0705E-03    -18.9431E-03     32.9188E-03    -14.0705E-03     54.0590E-03
            1988     12.4274E-03     24.4234E-03     311.864E+03    -38.2474E+06    -574.671E+03     2.60057E+06    -18.2638E-03     32.1124E-03    -13.8486E-03     47.5940E-03    -18.2285E-03     31.9441E-03    -13.7965E-03     47.5998E-03
            1989     11.5427E-03     24.3809E-03    -2.06670E+06    -40.2102E+06    -103.420E+03     2.43450E+06    -17.4214E-03     31.0101E-03    -13.5887E-03     40.9625E-03    -17.3856E-03     30.8246E-03    -13.5279E-03     40.9750E-03
            1990     10.6577E-03     24.3430E-03    -4.07781E+06    -47.5081E+06    -1.33311E+06     1.95680E+06    -16.7261E-03     30.0624E-03    -13.3364E-03     35.9835E-03    -16.6829E-03     29.8400E-03    -13.2682E-03     35.9954E-03
            1991     9.77199E-03     24.3096E-03    -5.74504E+06    -47.4908E+06     446.159E+03     1.03997E+06    -16.0022E-03     29.0992E-03    -13.0970E-03     31.4274E-03    -15.9670E-03     28.8738E-03    -13.0176E-03     31.4316E-03
            1992     8.88581E-03     24.2802E-03    -6.10780E+06    -45.0960E+06     857.236E+03     877.263E+03    -15.2822E-03     28.1420E-03    -12.8597E-03     27.0758E-03    -15.2512E-03     27.9267E-03    -12.7812E-03     27.0807E-03
            1993     7.99891E-03     24.2551E-03    -5.51072E+06    -46.4715E+06     1.97749E+06     1.48683E+06    -14.6047E-03     27.2533E-03    -12.6486E-03     22.9879E-03    -14.5693E-03     27.0277E-03    -12.5633E-03     23.0025E-03
            1994     7.11158E-03     24.2336E-03    -5.88593E+06    -46.0168E+06     2.40242E+06     1.93121E+06    -13.9758E-03     26.4300E-03    -12.4542E-03     19.2721E-03    -13.9430E-03     26.2059E-03    -12.3669E-03     19.2936E-03
            1995     6.22372E-03     24.2156E-03    -6.83600E+06    -47.1803E+06     1.25370E+06     1.27560E+06    -13.4204E-03     25.6987E-03    -12.2783E-03     15.9722E-03    -13.3886E-03     25.4715E-03    -12.1937E-03     15.9861E-03
            1996     5.33542E-03     24.2005E-03    -7.43912E+06    -50.1667E+06    -247.749E+03     796.754E+03    -12.9498E-03     25.0762E-03    -12.1264E-03     13.0425E-03    -12.9143E-03     24.8369E-03    -12.0441E-03     13.0509E-03
            1997     4.44674E-03     24.1884E-03    -8.28109E+06    -49.2937E+06    -2.34705E+06     1.21680E+06    -12.5487E-03     24.5386E-03    -11.9899E-03     10.4482E-03    -12.5154E-03     24.3078E-03    -11.9182E-03     10.4625E-03
            1998     3.55774E-03     24.1786E-03    -9.50303E+06    -51.5507E+06    -4.37024E+06     1.41221E+06    -12.2367E-03     24.1182E-03    -11.8814E-03     8.09368E-03    -12.2033E-03     23.8806E-03    -11.8147E-03     8.11087E-03
            1999     2.66855E-03     24.1713E-03    -10.5690E+06    -53.5823E+06    -6.70597E+06     777.107E+03    -11.9928E-03     23.7844E-03    -11.7915E-03     5.93417E-03    -11.9583E-03     23.5415E-03    -11.7320E-03     5.94347E-03
            2000     1.77915E-03     24.1660E-03    -11.3047E+06    -52.2749E+06    -10.2867E+06     436.597E+03    -11.7994E-03     23.5142E-03    -11.7148E-03     3.94276E-03    -11.7651E-03     23.2842E-03    -11.6741E-03     3.94793E-03
            2001     889.555E-06     24.1630E-03    -11.7615E+06    -53.1167E+06    -12.1809E+06     472.812E+03    -11.7008E-03     23.3753E-03    -11.6745E-03     2.11755E-03    -11.6646E-03     23.1451E-03    -11.6414E-03     2.12338E-03
            2002     16.8453E-03     23.8432E-03    -3.38906E+06     125.234E+06     18.7292E+06    -969.171E+03    -25.0849E-03     40.0787E-03    -14.9939E-03     154.098E-03    -27.3700E-03     42.7422E-03    -15.0769E-03     155.530E-03
            2003     15.9621E-03     23.6989E-03     622.020E+03     68.7887E+06    -13.6682E+06     2.91371E+06    -22.8948E-03     37.5095E-03    -14.6147E-03     124.177E-03    -23.9276E-03     38.8283E-03    -14.7837E-03     124.389E-03
            2004     15.0802E-03     23.6050E-03    -804.464E+03     22.5786E+06    -7.58732E+06     2.23084E+06    -20.9540E-03     35.3849E-03    -14.4309E-03     77.8428E-03    -21.1678E-03     35.6980E-03    -14.5004E-03     77.8182E-03
            2005     14.1971E-03     23.5483E-03    -1.84303E+06    -11.3783E+06    -8.72861E+06     1.26356E+06    -19.8476E-03     34.0254E-03    -14.1778E-03     57.0566E-03    -19.8929E-03     34.0492E-03    -14.2023E-03     57.0235E-03
            2006     13.3137E-03     23.4940E-03    -1.37055E+06    -36.9287E+06    -10.7158E+06     1.70627E+06    -19.0480E-03     32.9546E-03    -13.9066E-03     52.7025E-03    -19.0247E-03     32.8264E-03    -13.9046E-03     52.6859E-03
            2007     12.4296E-03     23.4452E-03    -517.465E+03    -39.1702E+06    -23.7437E+03     3.29190E+06    -18.2653E-03     31.9358E-03    -13.6706E-03     46.1314E-03    -18.2327E-03     31.7625E-03    -13.6131E-03     46.1465E-03
            2008     11.5452E-03     23.4034E-03    -136.928E+03    -39.1893E+06     2.40965E+06     3.84231E+06    -17.4682E-03     30.8635E-03    -13.3952E-03     39.5951E-03    -17.4275E-03     30.6762E-03    -13.3262E-03     39.6259E-03
            2009     10.6601E-03     23.3666E-03    -395.404E+03    -46.2809E+06     1.40308E+06     2.86873E+06    -16.7078E-03     29.8297E-03    -13.1219E-03     34.7997E-03    -16.6517E-03     29.6039E-03    -13.0472E-03     34.8236E-03
            2010     9.77439E-03     23.3339E-03    -773.246E+03    -46.2238E+06     3.62978E+06     1.91893E+06    -15.9289E-03     28.7955E-03    -12.8667E-03     30.3158E-03    -15.8751E-03     28.5644E-03    -12.7804E-03     30.3316E-03
            2011     8.88795E-03     23.3056E-03    -2.15510E+06    -44.8774E+06     3.37037E+06     958.780E+03    -15.1617E-03     27.7769E-03    -12.6152E-03     26.0451E-03    -15.1148E-03     27.5532E-03    -12.5301E-03     26.0513E-03
            2012     8.00109E-03     23.2812E-03    -3.93806E+06    -47.4741E+06     3.52938E+06     1.27905E+06    -14.4476E-03     26.8395E-03    -12.3919E-03     22.0382E-03    -14.4051E-03     26.6042E-03    -12.2997E-03     22.0502E-03
            2013     7.11355E-03     23.2606E-03    -4.79752E+06    -45.3253E+06     3.19925E+06     1.52576E+06    -13.7717E-03     25.9529E-03    -12.1811E-03     18.4663E-03    -13.7356E-03     25.7295E-03    -12.0925E-03     18.4827E-03
            2014     6.22550E-03     23.2431E-03    -5.50013E+06    -46.3928E+06     1.56471E+06     1.23484E+06    -13.1859E-03     25.1800E-03    -11.9942E-03     15.2859E-03    -13.1489E-03     24.9543E-03    -11.9111E-03     15.2995E-03
            2015     5.33695E-03     23.2289E-03    -7.39464E+06    -49.9681E+06    -485.199E+03     1.13723E+06    -12.6947E-03     24.5303E-03    -11.8356E-03     12.4600E-03    -12.6588E-03     24.2922E-03    -11.7549E-03     12.4729E-03
            2016     4.44805E-03     23.2171E-03    -9.31952E+06    -49.5749E+06    -2.34329E+06     1.17619E+06    -12.2819E-03     23.9778E-03    -11.6959E-03     9.96187E-03    -12.2534E-03     23.7470E-03    -11.6222E-03     9.97572E-03
            2017     3.55886E-03     23.2079E-03    -10.3106E+06    -50.5793E+06    -4.87175E+06     970.435E+03    -11.9456E-03     23.5225E-03    -11.5769E-03     7.71791E-03    -11.9169E-03     23.2918E-03    -11.5130E-03     7.72947E-03
            2018     2.66936E-03     23.2007E-03    -11.1001E+06    -52.8488E+06    -7.88948E+06     526.560E+03    -11.6853E-03     23.1669E-03    -11.4816E-03     5.66317E-03    -11.6528E-03     22.9302E-03    -11.4283E-03     5.66928E-03
            2019     1.77966E-03     23.1959E-03    -12.2071E+06    -52.4084E+06    -10.5830E+06     761.695E+03    -11.4977E-03     22.9069E-03    -11.4093E-03     3.75136E-03    -11.4673E-03     22.6780E-03    -11.3685E-03     3.76074E-03
            2020     889.892E-06     23.1927E-03    -13.2792E+06    -51.7889E+06    -12.8179E+06     1.13005E+06    -11.3944E-03     22.7484E-03    -11.3540E-03     2.02602E-03    -11.3668E-03     22.5279E-03    -11.3238E-03     2.04025E-03
            2021     16.8450E-03     22.8596E-03    -3.30228E+06     122.519E+06     14.8890E+06    -714.036E+03    -26.0619E-03     40.9874E-03    -14.9254E-03     153.425E-03    -28.3182E-03     43.6237E-03    -15.0239E-03     154.806E-03
            2022     15.9652E-03     22.7174E-03    -5.71337E+06     65.9093E+06    -14.6186E+06    -448.235E+03    -23.9096E-03     38.4194E-03    -14.5099E-03     123.488E-03    -24.9465E-03     39.7125E-03    -14.6702E-03     123.629E-03
            2023     15.0819E-03     22.6246E-03    -2.12202E+06     23.9020E+06    -7.17515E+06     2.22877E+06    -21.0174E-03     35.2980E-03    -14.2807E-03     78.0770E-03    -21.2333E-03     35.6121E-03    -14.3481E-03     78.0521E-03
            2024     14.1994E-03     22.5677E-03    -1.33879E+06    -10.9103E+06    -7.83193E+06     2.49506E+06    -19.8640E-03     33.8806E-03    -14.0166E-03     56.2170E-03    -19.9066E-03     33.9024E-03    -14.0380E-03     56.2002E-03
            2025     13.3161E-03     22.5156E-03    -2.14080E+06    -37.1516E+06    -10.8071E+06     1.98916E+06    -19.1430E-03     32.8700E-03    -13.7270E-03     51.8311E-03    -19.1216E-03     32.7405E-03    -13.7241E-03     51.8187E-03
            2026     12.4323E-03     22.4667E-03    -1.65790E+06    -40.4792E+06    -1.77405E+06     2.08630E+06    -18.2757E-03     31.7424E-03    -13.4667E-03     45.2792E-03    -18.2434E-03     31.5656E-03    -13.4145E-03     45.2796E-03
            2027     11.5478E-03     22.4264E-03    -327.768E+03    -38.9337E+06     1.47875E+06     2.92772E+06    -17.4327E-03     30.6088E-03    -13.1761E-03     38.6055E-03    -17.3914E-03     30.4238E-03    -13.1117E-03     38.6250E-03
            2028     10.6626E-03     22.3902E-03     477.591E+03    -44.8884E+06     739.734E+03     2.91411E+06    -16.6420E-03     29.5279E-03    -12.8859E-03     33.8212E-03    -16.5821E-03     29.3083E-03    -12.8178E-03     33.8463E-03
            2029     9.77677E-03     22.3588E-03     149.233E+03    -45.3460E+06     4.48277E+06     2.22999E+06    -15.8221E-03     28.4469E-03    -12.6248E-03     29.2940E-03    -15.7660E-03     28.2174E-03    -12.5368E-03     29.3141E-03
            2030     8.89039E-03     22.3312E-03    -960.702E+03    -44.5564E+06     4.57369E+06     2.47360E+06    -15.0095E-03     27.3726E-03    -12.3630E-03     25.0519E-03    -14.9587E-03     27.1469E-03    -12.2742E-03     25.0779E-03
            2031     8.00323E-03     22.3078E-03    -2.26445E+06    -46.8840E+06     4.08262E+06     1.75306E+06    -14.2495E-03     26.3753E-03    -12.1259E-03     21.1580E-03    -14.2001E-03     26.1397E-03    -12.0342E-03     21.1764E-03
            2032     7.11553E-03     22.2879E-03    -3.16517E+06    -45.2055E+06     3.34898E+06     1.17500E+06    -13.5502E-03     25.4570E-03    -11.9068E-03     17.6847E-03    -13.5062E-03     25.2316E-03    -11.8199E-03     17.6969E-03
            2033     6.22721E-03     22.2713E-03    -4.43107E+06    -46.4210E+06     2.18986E+06     1.77984E+06    -12.9512E-03     24.6680E-03    -11.7169E-03     14.5967E-03    -12.9097E-03     24.4397E-03    -11.6322E-03     14.6174E-03
            2034     5.33852E-03     22.2575E-03    -6.01353E+06    -49.5945E+06     1.35498E+06     2.09512E+06    -12.4497E-03     24.0065E-03    -11.5568E-03     11.8682E-03    -12.4101E-03     23.7656E-03    -11.4694E-03     11.8936E-03
            2035     4.44937E-03     22.2464E-03    -7.74701E+06    -48.7336E+06    -1.73443E+06     1.50388E+06    -12.0078E-03     23.4132E-03    -11.4054E-03     9.49666E-03    -11.9736E-03     23.1835E-03    -11.3321E-03     9.51483E-03
            2036     3.55989E-03     22.2375E-03    -9.62108E+06    -50.1312E+06    -5.46870E+06     1.05121E+06    -11.6553E-03     22.9365E-03    -11.2811E-03     7.35635E-03    -11.6229E-03     22.7078E-03    -11.2218E-03     7.36902E-03
            2037     2.67012E-03     22.2309E-03    -11.6262E+06    -52.2826E+06    -8.59095E+06     1.08292E+06    -11.3940E-03     22.5805E-03    -11.1865E-03     5.39041E-03    -11.3638E-03     22.3484E-03    -11.1368E-03     5.40375E-03
            2038     1.78022E-03     22.2260E-03    -13.3729E+06    -52.4310E+06    -10.8015E+06     983.087E+03    -11.2094E-03     22.3240E-03    -11.1146E-03     3.56464E-03    -11.1845E-03     22.0969E-03    -11.0732E-03     3.57689E-03
            2039     890.133E-06     22.2233E-03    -14.5647E+06    -49.9701E+06    -13.0765E+06     1.00159E+06    -11.0842E-03     22.1405E-03    -11.0563E-03     1.94526E-03    -11.0653E-03     21.9314E-03    -11.0281E-03     1.95791E-03
            2040     16.8448E-03     21.8709E-03    -1.43559E+06     123.698E+06     20.6757E+06     481.487E+03    -26.8269E-03     41.7444E-03    -14.9175E-03     151.121E-03    -29.0432E-03     44.3349E-03    -14.9914E-03     152.446E-03
            2041     15.9654E-03     21.7362E-03    -313.897E+03     64.6259E+06    -13.3252E+06     132.006E+03    -24.5854E-03     39.0142E-03    -14.4288E-03     120.620E-03    -25.5592E-03     40.2550E-03    -14.5887E-03     120.745E-03
            2042     15.0843E-03     21.6431E-03    -1.05623E+06     21.6211E+06    -6.63462E+06     1.24635E+06    -21.4566E-03     35.6183E-03    -14.1617E-03     77.2414E-03    -21.6588E-03     35.9128E-03    -14.2247E-03     77.2013E-03
            2043     14.2014E-03     21.5881E-03    -601.353E+03    -9.85732E+06    -7.04727E+06     2.74493E+06    -19.9934E-03     33.8615E-03    -13.8681E-03     55.2833E-03    -20.0325E-03     33.8839E-03    -13.8881E-03     55.2702E-03
            2044     13.3184E-03     21.5361E-03     880.972E+03    -36.5828E+06    -10.6997E+06     2.30690E+06    -19.3051E-03     32.8567E-03    -13.5516E-03     50.7698E-03    -19.2682E-03     32.7242E-03    -13.5534E-03     50.7618E-03
            2045     12.4346E-03     21.4891E-03     856.530E+03    -40.9761E+06    -2.26485E+06     2.35764E+06    -18.3393E-03     31.6091E-03    -13.2699E-03     44.3282E-03    -18.2919E-03     31.4259E-03    -13.2230E-03     44.3328E-03
            2046     11.5500E-03     21.4491E-03    -599.521E+03    -39.4894E+06     509.902E+03     2.89141E+06    -17.4082E-03     30.3721E-03    -12.9640E-03     37.6258E-03    -17.3653E-03     30.1855E-03    -12.9033E-03     37.6455E-03
            2047     10.6650E-03     21.4145E-03    -1.43192E+06    -43.6218E+06    -820.827E+03     2.77046E+06    -16.5736E-03     29.2289E-03    -12.6553E-03     32.8277E-03    -16.5225E-03     29.0203E-03    -12.5941E-03     32.8514E-03
            2048     9.77914E-03     21.3836E-03    -2.04744E+06    -45.4154E+06     2.62180E+06     2.80044E+06    -15.6963E-03     28.0778E-03    -12.3815E-03     28.3259E-03    -15.6481E-03     27.8536E-03    -12.2996E-03     28.3538E-03
            2049     8.89254E-03     21.3574E-03    -2.83934E+06    -44.1301E+06     2.93007E+06     2.77621E+06    -14.8362E-03     26.9452E-03    -12.1090E-03     24.1277E-03    -14.7928E-03     26.7266E-03    -12.0262E-03     24.1578E-03
            2050     8.00529E-03     21.3347E-03    -3.31694E+06    -44.9836E+06     3.26080E+06     1.89786E+06    -14.0447E-03     25.9089E-03    -11.8642E-03     20.3101E-03    -14.0021E-03     25.6854E-03    -11.7779E-03     20.3306E-03
            2051     7.11738E-03     21.3159E-03    -4.53874E+06    -45.7819E+06     3.14371E+06     1.57354E+06    -13.3309E-03     24.9759E-03    -11.6450E-03     16.8961E-03    -13.2926E-03     24.7498E-03    -11.5563E-03     16.9135E-03
            2052     6.22895E-03     21.2999E-03    -5.73952E+06    -46.4457E+06     1.34387E+06     1.98689E+06    -12.7066E-03     24.1515E-03    -11.4449E-03     13.9390E-03    -12.6704E-03     23.9262E-03    -11.3625E-03     13.9625E-03
            2053     5.33997E-03     21.2869E-03    -6.24519E+06    -49.0513E+06    -174.100E+03     1.84116E+06    -12.1821E-03     23.4580E-03    -11.2759E-03     11.3365E-03    -12.1422E-03     23.2223E-03    -11.1966E-03     11.3587E-03
            2054     4.45061E-03     21.2762E-03    -6.88913E+06    -48.0945E+06    -2.60317E+06     2.04978E+06    -11.7360E-03     22.8615E-03    -11.1255E-03     9.05369E-03    -11.6971E-03     22.6350E-03    -11.0587E-03     9.07899E-03
            2055     3.56084E-03     21.2679E-03    -8.49253E+06    -49.6229E+06    -5.12672E+06     2.20190E+06    -11.3883E-03     22.3951E-03    -11.0068E-03     6.99832E-03    -11.3515E-03     22.1668E-03    -10.9481E-03     7.02590E-03
            2056     2.67090E-03     21.2614E-03    -10.2940E+06    -51.4507E+06    -7.01686E+06     1.91230E+06    -11.1287E-03     22.0445E-03    -10.9158E-03     5.12597E-03    -11.0953E-03     21.8123E-03    -10.8614E-03     5.15004E-03
            2057     1.78069E-03     21.2570E-03    -11.9372E+06    -51.2788E+06    -9.34316E+06     1.20122E+06    -10.9336E-03     21.7758E-03    -10.8422E-03     3.39521E-03    -10.9053E-03     21.5503E-03    -10.7973E-03     3.41030E-03
            2058     890.411E-06     21.2541E-03    -13.3239E+06    -48.7323E+06    -12.2188E+06     674.848E+03    -10.8118E-03     21.5940E-03    -10.7822E-03     1.84348E-03    -10.7897E-03     21.3880E-03    -10.7533E-03     1.85192E-03
            2059     16.8478E-03     20.8877E-03    -2.69372E+06     123.885E+06     19.5944E+06     118.030E+03    -27.3448E-03     42.2015E-03    -14.8567E-03     149.196E-03    -29.5021E-03     44.7322E-03    -14.9344E-03     150.439E-03
            2060     15.9671E-03     20.7516E-03    -4.01250E+06     64.1155E+06    -15.0163E+06     311.690E+03    -24.8151E-03     39.1545E-03    -14.3393E-03     117.991E-03    -25.7648E-03     40.3611E-03    -14.5015E-03     118.099E-03
            2061     15.0858E-03     20.6629E-03    -3.01771E+06     19.7777E+06    -8.30251E+06     1.00256E+06    -21.8361E-03     35.8786E-03    -14.0424E-03     75.5334E-03    -22.0372E-03     36.1632E-03    -14.1082E-03     75.4877E-03
            2062     14.2035E-03     20.6074E-03    -1.71396E+06    -9.72744E+06    -7.32841E+06     1.32336E+06    -20.1670E-03     33.8912E-03    -13.7242E-03     54.3573E-03    -20.2091E-03     33.9140E-03    -13.7442E-03     54.3261E-03
            2063     13.3206E-03     20.5575E-03    -439.568E+03    -36.4016E+06    -11.3036E+06     1.85785E+06    -19.4136E-03     32.7989E-03    -13.3854E-03     49.6045E-03    -19.3813E-03     32.6687E-03    -13.3885E-03     49.5912E-03
            2064     12.4369E-03     20.5109E-03     128.352E+03    -42.3688E+06    -2.61290E+06     3.16762E+06    -18.4016E-03     31.4879E-03    -13.0863E-03     43.1301E-03    -18.3544E-03     31.2984E-03    -13.0381E-03     43.1458E-03
            2065     11.5525E-03     20.4727E-03     417.425E+03    -38.4858E+06     1.92191E+06     3.50558E+06    -17.3791E-03     30.1452E-03    -12.7661E-03     36.5407E-03    -17.3341E-03     29.9595E-03    -12.7013E-03     36.5689E-03
            2066     10.6672E-03     20.4385E-03     513.641E+03    -43.2854E+06     579.144E+03     2.91631E+06    -16.4937E-03     28.9374E-03    -12.4437E-03     31.7570E-03    -16.4351E-03     28.7253E-03    -12.3788E-03     31.7830E-03
            2067     9.78134E-03     20.4092E-03     324.066E+03    -45.5369E+06     4.05448E+06     3.23089E+06    -15.5774E-03     27.7364E-03    -12.1590E-03     27.2636E-03    -15.5191E-03     27.5058E-03    -12.0731E-03     27.2974E-03
            2068     8.89464E-03     20.3837E-03    -245.139E+03    -42.9937E+06     5.29572E+06     2.93454E+06    -14.6822E-03     26.5618E-03    -11.8796E-03     23.1275E-03    -14.6308E-03     26.3415E-03    -11.7904E-03     23.1599E-03
            2069     8.00726E-03     20.3623E-03    -1.65191E+06    -44.1162E+06     5.18575E+06     2.51675E+06    -13.8564E-03     25.4832E-03    -11.6267E-03     19.3999E-03    -13.8095E-03     25.2587E-03    -11.5344E-03     19.4285E-03
            2070     7.11919E-03     20.3441E-03    -3.52825E+06    -45.7971E+06     3.78139E+06     2.57744E+06    -13.1113E-03     24.5093E-03    -11.3980E-03     16.1239E-03    -13.0688E-03     24.2808E-03    -11.3076E-03     16.1544E-03
            2071     6.23052E-03     20.3291E-03    -5.25217E+06    -45.7351E+06     533.053E+03     2.13322E+06    -12.4629E-03     23.6508E-03    -11.1878E-03     13.3080E-03    -12.4241E-03     23.4294E-03    -11.1112E-03     13.3336E-03
            2072     5.34133E-03     20.3166E-03    -6.64975E+06    -48.5885E+06    -2.20322E+06     1.79337E+06    -11.9264E-03     22.9402E-03    -11.0138E-03     10.8207E-03    -11.8862E-03     22.7104E-03    -10.9448E-03     10.8424E-03
            2073     4.45169E-03     20.3066E-03    -7.80228E+06    -48.4418E+06    -3.65523E+06     2.18472E+06    -11.4884E-03     22.3578E-03    -10.8694E-03     8.61843E-03    -11.4520E-03     22.1323E-03    -10.8061E-03     8.64554E-03
            2074     3.56179E-03     20.2985E-03    -8.32181E+06    -48.6165E+06    -4.66357E+06     2.51649E+06    -11.1405E-03     21.8931E-03    -10.7526E-03     6.65115E-03    -11.1049E-03     21.6689E-03    -10.6934E-03     6.68284E-03
            2075     2.67154E-03     20.2926E-03    -8.76380E+06    -50.2228E+06    -6.26449E+06     2.02672E+06    -10.8719E-03     21.5326E-03    -10.6607E-03     4.86791E-03    -10.8338E-03     21.3033E-03    -10.6065E-03     4.89349E-03
            2076     1.78117E-03     20.2882E-03    -9.44325E+06    -49.6319E+06    -7.82573E+06     1.49554E+06    -10.6826E-03     21.2740E-03    -10.5914E-03     3.22704E-03    -10.6464E-03     21.0509E-03    -10.5449E-03     3.24595E-03
            2077     890.576E-06     20.2859E-03    -10.4211E+06    -47.5251E+06    -9.37660E+06     495.878E+03    -10.5838E-03     21.1092E-03    -10.5255E-03     1.75048E-03    -10.5530E-03     20.9009E-03    -10.4883E-03     1.75665E-03
            2078     16.8467E-03     19.9003E-03    -1.15386E+06     124.014E+06     19.5609E+06     1.20611E+06    -28.0922E-03     42.9098E-03    -14.8176E-03     147.479E-03    -30.1883E-03     45.3855E-03    -14.8980E-03     148.661E-03
            2079     15.9686E-03     19.7691E-03    -2.32006E+06     64.6143E+06    -13.9885E+06     1.29828E+06    -25.3172E-03     39.5815E-03    -14.2642E-03     115.832E-03    -26.2258E-03     40.7518E-03    -14.4245E-03     115.929E-03
            2080     15.0876E-03     19.6808E-03    -2.72154E+06     19.4140E+06    -8.74663E+06     567.672E+03    -22.0983E-03     36.0308E-03    -13.9325E-03     73.9828E-03    -22.2893E-03     36.3065E-03    -14.0004E-03     73.9298E-03
            2081     14.2056E-03     19.6279E-03    -2.66425E+06    -10.1596E+06    -8.36416E+06     1.15919E+06    -20.4139E-03     34.0020E-03    -13.5881E-03     53.3670E-03    -20.4564E-03     34.0233E-03    -13.6113E-03     53.3337E-03
            2082     13.3226E-03     19.5779E-03    -3.35473E+06    -37.2780E+06    -12.7178E+06     2.24343E+06    -19.5300E-03     32.7580E-03    -13.2280E-03     48.5207E-03    -19.5075E-03     32.6282E-03    -13.2327E-03     48.5130E-03
            2083     12.4393E-03     19.5336E-03    -2.76689E+06    -42.5048E+06    -5.01042E+06     2.15598E+06    -18.4317E-03     31.3360E-03    -12.9043E-03     42.0066E-03    -18.3944E-03     31.1525E-03    -12.8637E-03     42.0099E-03
            2084     11.5546E-03     19.4958E-03    -896.189E+03    -38.1557E+06      -373.8E+03     1.99116E+06    -17.3523E-03     29.9184E-03    -12.5660E-03     35.5876E-03    -17.3104E-03     29.7390E-03    -12.5113E-03     35.5969E-03
            2085     10.6695E-03     19.4633E-03     343.124E+03    -43.5285E+06    -247.887E+03     2.88657E+06    -16.4145E-03     28.6518E-03    -12.2373E-03     30.7054E-03    -16.3548E-03     28.4395E-03    -12.1759E-03     30.7315E-03
            2086     9.78346E-03     19.4347E-03     289.717E+03    -45.3654E+06     3.41863E+06     3.21160E+06    -15.4490E-03     27.3916E-03    -11.9425E-03     26.2448E-03    -15.3900E-03     27.1626E-03    -11.8601E-03     26.2786E-03
            2087     8.89669E-03     19.4107E-03    -1.57553E+03    -41.9453E+06     5.23611E+06     2.98689E+06    -14.5133E-03     26.1701E-03    -11.6568E-03     22.1770E-03    -14.4620E-03     25.9547E-03    -11.5698E-03     22.2103E-03
            2088     8.00909E-03     19.3900E-03    -281.401E+03    -44.0942E+06     5.25959E+06     3.02025E+06    -13.6574E-03     25.0572E-03    -11.3998E-03     18.5388E-03    -13.6036E-03     24.8307E-03    -11.3092E-03     18.5741E-03
            2089     7.12081E-03     19.3730E-03    -876.341E+03    -45.3688E+06     4.11919E+06     3.26902E+06    -12.8972E-03     24.0653E-03    -11.1681E-03     15.3768E-03    -12.8425E-03     23.8345E-03    -11.0805E-03     15.4164E-03
            2090     6.23192E-03     19.3586E-03    -2.27190E+06    -44.8619E+06     2.14062E+06     3.32497E+06    -12.2477E-03     23.2100E-03    -10.9623E-03     12.6583E-03    -12.1975E-03     22.9864E-03    -10.8833E-03     12.6993E-03
            2091     5.34253E-03     19.3470E-03    -4.61756E+06    -48.0043E+06     84.5236E+03     3.14402E+06    -11.7164E-03     22.5082E-03    -10.7918E-03     10.2635E-03    -11.6703E-03     22.2750E-03    -10.7150E-03     10.3027E-03
            2092     4.45278E-03     19.3373E-03    -6.83235E+06    -48.0569E+06    -2.67922E+06     2.76335E+06    -11.2651E-03     21.9055E-03    -10.6404E-03     8.17935E-03    -11.2258E-03     21.6792E-03    -10.5742E-03     8.21399E-03
            2093     3.56259E-03     19.3299E-03    -8.38143E+06    -47.6233E+06    -5.44285E+06     2.34622E+06    -10.9040E-03     21.4191E-03    -10.5151E-03     6.32291E-03    -10.8690E-03     21.2011E-03    -10.4611E-03     6.35243E-03
            2094     2.67222E-03     19.3240E-03    -9.32915E+06    -48.9499E+06    -7.38007E+06     2.02550E+06    -10.6367E-03     21.0587E-03    -10.4221E-03     4.62288E-03    -10.6016E-03     20.8382E-03    -10.3744E-03     4.64850E-03
            2095     1.78153E-03     19.3202E-03    -10.1470E+06    -48.0548E+06    -8.87202E+06     1.47438E+06    -10.4468E-03     20.7994E-03    -10.3526E-03     3.06853E-03    -10.4149E-03     20.5867E-03    -10.3126E-03     3.08721E-03
            2096     890.862E-06     19.3175E-03    -10.3299E+06    -46.0461E+06    -10.2174E+06     524.625E+03    -10.3384E-03     20.6370E-03    -10.2986E-03     1.66122E-03    -10.3080E-03     20.4372E-03    -10.2680E-03     1.66771E-03
            2097     16.8481E-03     18.9130E-03    -2.21239E+06     122.336E+06     19.2379E+06     676.656E+03    -28.7576E-03     43.5598E-03    -14.8022E-03     145.267E-03    -30.8018E-03     45.9748E-03    -14.8802E-03     146.370E-03
            2098     15.9694E-03     18.7847E-03    -1.67909E+06     65.2058E+06    -14.1699E+06     1.85720E+06    -25.8939E-03     40.0950E-03    -14.2011E-03     112.538E-03    -26.7566E-03     41.2244E-03    -14.3641E-03     112.615E-03
            2099     15.0889E-03     18.6995E-03    -1.52761E+06     20.4501E+06    -8.65637E+06     1.82684E+06    -22.4272E-03     36.2603E-03    -13.8331E-03     72.1103E-03    -22.6061E-03     36.5315E-03    -13.9038E-03     72.0715E-03
            2100     14.2070E-03     18.6472E-03    -2.67463E+06    -11.5338E+06    -10.1022E+06     1.93384E+06    -20.6478E-03     34.1064E-03    -13.4586E-03     52.0001E-03    -20.6833E-03     34.1209E-03    -13.4885E-03     51.9769E-03
            2101     13.3247E-03     18.5991E-03    -1.85930E+06    -37.3014E+06    -13.5397E+06     2.56911E+06    -19.6286E-03     32.7069E-03    -13.0783E-03     47.2361E-03    -19.5958E-03     32.5744E-03    -13.0892E-03     47.2333E-03
            2102     12.4410E-03     18.5557E-03    -1.45770E+06    -41.1709E+06    -5.48234E+06     1.86911E+06    -18.4500E-03     31.1888E-03    -12.7388E-03     40.7434E-03    -18.4064E-03     31.0098E-03    -12.7044E-03     40.7437E-03
            2103     11.5567E-03     18.5196E-03    -2.26728E+06    -38.5672E+06    -3.33128E+06     1.40533E+06    -17.3219E-03     29.7032E-03    -12.3813E-03     34.4947E-03    -17.2814E-03     29.5274E-03    -12.3387E-03     34.4970E-03
            2104     10.6714E-03     18.4879E-03    -2.46091E+06    -44.6603E+06    -3.66563E+06     2.25954E+06    -16.3265E-03     28.3687E-03    -12.0422E-03     29.6583E-03    -16.2739E-03     28.1595E-03    -11.9922E-03     29.6768E-03
            2105     9.78536E-03     18.4610E-03    -1.76513E+06    -44.6068E+06     818.809E+03     2.75043E+06    -15.3125E-03     27.0518E-03    -11.7393E-03     25.2416E-03    -15.2609E-03     26.8332E-03    -11.6680E-03     25.2698E-03
            2106     8.89840E-03     18.4377E-03    -1.46477E+06    -41.6574E+06     2.71784E+06     2.54128E+06    -14.3380E-03     25.7866E-03    -11.4486E-03     21.2468E-03    -14.2906E-03     25.5782E-03    -11.3724E-03     21.2746E-03
            2107     8.01068E-03     18.4184E-03    -1.70826E+06    -44.0721E+06     3.57484E+06     2.80147E+06    -13.4679E-03     24.6609E-03    -11.1930E-03     17.6798E-03    -13.4188E-03     24.4389E-03    -11.1088E-03     17.7125E-03
            2108     7.12226E-03     18.4020E-03    -2.29765E+06    -45.4826E+06     2.97390E+06     3.38181E+06    -12.7007E-03     23.6625E-03    -10.9618E-03     14.6271E-03    -12.6512E-03     23.4348E-03    -10.8777E-03     14.6682E-03
            2109     6.23320E-03     18.3887E-03    -3.03442E+06    -44.5325E+06     2.13927E+06     4.09626E+06    -12.0524E-03     22.8102E-03    -10.7578E-03     12.0133E-03    -12.0064E-03     22.5892E-03    -10.6781E-03     12.0643E-03
            2110     5.34368E-03     18.3774E-03    -3.77761E+06    -46.8867E+06     1.15522E+06     4.13869E+06    -11.5168E-03     22.1039E-03    -10.5871E-03     9.71837E-03    -11.4696E-03     21.8735E-03    -10.5079E-03     9.77048E-03
            2111     4.45367E-03     18.3687E-03    -4.93491E+06    -46.9183E+06    -1.31403E+06     3.73346E+06    -11.0623E-03     21.4972E-03    -10.4348E-03     7.73499E-03    -11.0172E-03     21.2718E-03    -10.3662E-03     7.78224E-03
            2112     3.56336E-03     18.3614E-03    -6.44864E+06    -46.2171E+06    -4.20985E+06     3.18174E+06    -10.7002E-03     21.0086E-03    -10.3084E-03     5.97689E-03    -10.6594E-03     20.7930E-03    -10.2530E-03     6.01727E-03
            2113     2.67269E-03     18.3563E-03    -7.88253E+06    -47.5379E+06    -5.81917E+06     2.33217E+06    -10.4378E-03     20.6542E-03    -10.2164E-03     4.36354E-03    -10.3998E-03     20.4363E-03    -10.1651E-03     4.39315E-03
            2114     1.78199E-03     18.3522E-03    -8.68977E+06    -46.3914E+06    -7.53730E+06     1.53645E+06    -10.2404E-03     20.3839E-03    -10.1435E-03     2.89981E-03    -10.2055E-03     20.1754E-03    -10.1013E-03     2.91936E-03
            2115     890.949E-06     18.3502E-03    -9.74971E+06    -44.4869E+06    -9.43636E+06     1.09933E+06    -10.1115E-03     20.2137E-03    -10.1022E-03     1.56993E-03    -10.0816E-03     20.0197E-03    -10.0708E-03     1.58386E-03
            2116     16.8471E-03     17.9232E-03    -2.52831E+06     121.846E+06     17.9911E+06     858.381E+03    -29.3758E-03     44.1559E-03    -14.7801E-03     143.688E-03    -31.3763E-03     46.5279E-03    -14.8632E-03     144.727E-03
            2117     15.9706E-03     17.8007E-03    -2.90534E+06     64.0752E+06    -15.9190E+06     885.730E+03    -26.5195E-03     40.6564E-03    -14.1368E-03     108.746E-03    -27.3395E-03     41.7398E-03    -14.3051E-03     108.782E-03
            2118     15.0905E-03     17.7173E-03    -1.76793E+06     20.1888E+06    -9.64123E+06     2.36645E+06    -22.7861E-03     36.5162E-03    -13.7301E-03     69.6239E-03    -22.9557E-03     36.7792E-03    -13.8050E-03     69.5896E-03
            2119     14.2092E-03     17.6670E-03    -1.11186E+06    -11.3204E+06    -10.0984E+06     2.77290E+06    -20.7150E-03     34.0495E-03    -13.3346E-03     50.4013E-03    -20.7400E-03     34.0598E-03    -13.3670E-03     50.3896E-03
            2120     13.3263E-03     17.6200E-03    -1.23114E+06    -37.2839E+06    -14.1431E+06     2.44844E+06    -19.6614E-03     32.6009E-03    -12.9395E-03     45.8576E-03    -19.6231E-03     32.4669E-03    -12.9544E-03     45.8540E-03
            2121     12.4431E-03     17.5782E-03    -1.07808E+06    -40.2532E+06    -5.59255E+06     2.67528E+06    -18.4406E-03     31.0299E-03    -12.5892E-03     39.3574E-03    -18.3953E-03     30.8541E-03    -12.5573E-03     39.3687E-03
            2122     11.5585E-03     17.5433E-03    -1.43137E+06    -38.3041E+06    -3.84458E+06     2.41936E+06    -17.2546E-03     29.4747E-03    -12.2201E-03     33.2846E-03    -17.2090E-03     29.2993E-03    -12.1817E-03     33.3006E-03
            2123     10.6732E-03     17.5131E-03    -1.70200E+06    -45.1097E+06    -4.73476E+06     2.11136E+06    -16.2321E-03     28.1041E-03    -11.8720E-03     28.5207E-03    -16.1731E-03     27.8927E-03    -11.8278E-03     28.5377E-03
            2124     9.78703E-03     17.4871E-03    -1.75926E+06    -44.3141E+06     252.701E+03     2.17445E+06    -15.1863E-03     26.7520E-03    -11.5657E-03     24.1251E-03    -15.1340E-03     26.5355E-03    -11.4977E-03     24.1462E-03
            2125     8.89995E-03     17.4653E-03    -1.97425E+06    -41.4415E+06     1.90007E+06     2.34091E+06    -14.1888E-03     25.4589E-03    -11.2701E-03     20.2170E-03    -14.1429E-03     25.2534E-03    -11.1977E-03     20.2425E-03
            2126     8.01210E-03     17.4468E-03    -2.64132E+06    -44.5373E+06     3.06808E+06     2.87713E+06    -13.3072E-03     24.3215E-03    -11.0143E-03     16.7394E-03    -13.2612E-03     24.0991E-03    -10.9305E-03     16.7732E-03
            2127     7.12351E-03     17.4317E-03    -3.79956E+06    -45.7635E+06     2.46982E+06     3.72890E+06    -12.5367E-03     23.3169E-03    -10.7802E-03     13.8140E-03    -12.4935E-03     23.0906E-03    -10.6960E-03     13.8597E-03
            2128     6.23437E-03     17.4188E-03    -4.74452E+06    -44.0882E+06     532.694E+03     3.91433E+06    -11.8720E-03     22.4390E-03    -10.5670E-03     11.3402E-03    -11.8329E-03     22.2250E-03    -10.4935E-03     11.3890E-03
            2129     5.34461E-03     17.4086E-03    -4.99170E+06    -45.7281E+06    -325.295E+03     3.65818E+06    -11.3298E-03     21.7233E-03    -10.3934E-03     9.15321E-03    -11.2882E-03     21.5025E-03    -10.3215E-03     9.19920E-03
            2130     4.45452E-03     17.4000E-03    -4.90843E+06    -46.1985E+06    -890.102E+03     3.70742E+06    -10.8871E-03     21.1343E-03    -10.2472E-03     7.24663E-03    -10.8435E-03     20.9118E-03    -10.1775E-03     7.29360E-03
            2131     3.56398E-03     17.3936E-03    -5.15644E+06    -44.4607E+06    -2.19387E+06     3.64135E+06    -10.5264E-03     20.6476E-03    -10.1212E-03     5.57119E-03    -10.4846E-03     20.4361E-03    -10.0603E-03     5.61755E-03
            2132     2.67330E-03     17.3884E-03    -5.64709E+06    -45.3797E+06    -3.87149E+06     2.55626E+06    -10.2503E-03     20.2743E-03    -10.0240E-03     4.05543E-03    -10.2071E-03     20.0611E-03    -9.96933E-03     4.08798E-03
            2133     1.78223E-03     17.3851E-03    -6.54730E+06    -45.1650E+06    -4.93293E+06     1.78492E+06    -10.0539E-03     20.0075E-03    -9.95354E-03     2.68802E-03    -10.0139E-03     19.7983E-03    -9.90322E-03     2.71079E-03
            2134     891.229E-06     17.3826E-03    -7.54732E+06    -42.2090E+06    -6.55155E+06     1.48080E+06    -9.91846E-03     19.8254E-03    -9.90696E-03     1.44546E-03    -9.88510E-03     19.6355E-03    -9.86757E-03     1.46439E-03
            2135     16.8484E-03     16.9343E-03    -1.96943E+06     121.618E+06     18.4481E+06     1.22877E+06    -30.0440E-03     44.7918E-03    -14.7478E-03     141.214E-03    -31.9731E-03     47.0922E-03    -14.8290E-03     142.177E-03
            2136     15.9712E-03     16.8146E-03    -2.37887E+06     63.3722E+06    -17.0219E+06     1.57349E+06    -26.9184E-03     40.9769E-03    -14.0585E-03     104.450E-03    -27.6827E-03     42.0072E-03    -14.2320E-03     104.472E-03
            2137     15.0925E-03     16.7353E-03    -2.41371E+06     18.9631E+06    -11.2336E+06     2.12877E+06    -22.9581E-03     36.5808E-03    -13.6227E-03     66.6449E-03    -23.1159E-03     36.8300E-03    -13.7029E-03     66.6065E-03
            2138     14.2104E-03     16.6869E-03    -1.84028E+06    -11.0281E+06    -10.9557E+06     2.99026E+06    -20.6764E-03     33.8906E-03    -13.2142E-03     49.0385E-03    -20.7012E-03     33.9015E-03    -13.2503E-03     49.0310E-03
            2139     13.3282E-03     16.6409E-03    -1.17348E+06    -36.9722E+06    -14.6400E+06     3.14939E+06    -19.6484E-03     32.4600E-03    -12.8116E-03     44.4838E-03    -19.6078E-03     32.3265E-03    -12.8295E-03     44.4900E-03
            2140     12.4446E-03     16.6009E-03    -1.16303E+06    -40.2850E+06    -6.23869E+06     3.11754E+06    -18.3874E-03     30.8403E-03    -12.4528E-03     37.9921E-03    -18.3405E-03     30.6643E-03    -12.4239E-03     38.0099E-03
            2141     11.5602E-03     16.5673E-03    -1.14422E+06    -37.3248E+06    -3.65216E+06     2.93034E+06    -17.1990E-03     29.2772E-03    -12.0781E-03     32.0619E-03    -17.1531E-03     29.1053E-03    -12.0406E-03     32.0851E-03
            2142     10.6748E-03     16.5383E-03    -993.666E+03    -44.5614E+06     -4.7153E+06     2.28406E+06    -16.1505E-03     27.8723E-03    -11.7218E-03     27.2977E-03    -16.0885E-03     27.6623E-03    -11.6793E-03     27.3174E-03
            2143     9.78847E-03     16.5138E-03    -1.08361E+06    -44.5549E+06     621.218E+03     2.32524E+06    -15.0923E-03     26.5041E-03    -11.4118E-03     22.9022E-03    -15.0365E-03     26.2846E-03    -11.3425E-03     22.9255E-03
            2144     8.90138E-03     16.4930E-03    -1.84921E+06    -41.2423E+06     2.56705E+06     2.65983E+06    -14.0817E-03     25.1929E-03    -11.1112E-03     19.0220E-03    -14.0363E-03     24.9872E-03    -11.0359E-03     19.0518E-03
            2145     8.01336E-03     16.4759E-03    -2.49098E+06    -44.9150E+06     3.07038E+06     2.84346E+06    -13.1899E-03     24.0361E-03    -10.8462E-03     15.6510E-03    -13.1425E-03     23.8116E-03    -10.7621E-03     15.6845E-03
            2146     7.12475E-03     16.4614E-03    -2.43607E+06    -46.1843E+06     3.21830E+06     3.49840E+06    -12.4098E-03     23.0177E-03    -10.6079E-03     12.8189E-03    -12.3601E-03     22.7861E-03    -10.5213E-03     12.8618E-03
            2147     6.23537E-03     16.4497E-03    -2.64741E+06    -43.1502E+06     1.87015E+06     3.88898E+06    -11.7279E-03     22.1171E-03    -10.3892E-03     10.4602E-03    -11.6816E-03     21.9028E-03    -10.3135E-03     10.5088E-03
            2148     5.34559E-03     16.4398E-03    -3.67117E+06    -44.7288E+06     807.025E+03     3.52689E+06    -11.1781E-03     21.3886E-03    -10.2105E-03     8.39635E-03    -11.1329E-03     21.1692E-03    -10.1363E-03     8.44072E-03
            2149     4.45527E-03     16.4322E-03    -4.85579E+06    -45.6335E+06    -259.981E+03     3.28985E+06    -10.7243E-03     20.7825E-03    -10.0582E-03     6.60780E-03    -10.6821E-03     20.5618E-03    -9.98633E-03     6.64942E-03
            2150     3.56473E-03     16.4257E-03    -5.24717E+06    -42.9132E+06    -2.42398E+06     3.02056E+06    -10.3400E-03     20.2619E-03    -9.92187E-03     5.07114E-03    -10.3005E-03     20.0585E-03    -9.86416E-03     5.10951E-03
            2151     2.67371E-03     16.4214E-03    -5.57376E+06    -43.4225E+06    -3.43303E+06     2.60116E+06    -10.0600E-03     19.8832E-03    -9.82312E-03     3.68645E-03    -10.0199E-03     19.6791E-03    -9.76924E-03     3.71961E-03
            2152     1.78268E-03     16.4178E-03    -6.59971E+06    -43.5921E+06    -3.67496E+06     1.82568E+06    -9.85590E-03     19.6081E-03    -9.75224E-03     2.42287E-03    -9.82023E-03     19.4051E-03    -9.69783E-03     2.44614E-03
            2153     891.326E-06     16.4162E-03    -7.94893E+06    -39.9818E+06    -6.06183E+06     1.09246E+06    -9.71515E-03     19.4024E-03    -9.68730E-03     1.30619E-03    -9.68762E-03     19.2236E-03    -9.64811E-03     1.32001E-03
            2154     16.8495E-03     15.9460E-03    -1.87239E+06     120.561E+06     17.9918E+06     1.43631E+06    -30.8868E-03     45.5782E-03    -14.6914E-03     138.445E-03    -32.7299E-03     47.7906E-03    -14.7735E-03     139.316E-03
            2155     15.9734E-03     15.8275E-03    -2.37103E+06     63.0056E+06    -17.5842E+06     2.17742E+06    -26.8779E-03     40.8469E-03    -13.9689E-03     100.500E-03    -27.5887E-03     41.8241E-03    -14.1448E-03     100.512E-03
            2156     15.0937E-03     15.7540E-03    -2.46407E+06     18.6953E+06    -11.9810E+06     2.81124E+06    -22.8623E-03     36.3861E-03    -13.5237E-03     63.5773E-03    -23.0069E-03     36.6231E-03    -13.6072E-03     63.5489E-03
            2157     14.2122E-03     15.7064E-03    -2.40214E+06    -11.2444E+06    -11.9689E+06     3.11833E+06    -20.6864E-03     33.7935E-03    -13.1070E-03     47.7180E-03    -20.7096E-03     33.8029E-03    -13.1471E-03     47.7131E-03
            2158     13.3296E-03     15.6622E-03    -2.08057E+06    -36.9085E+06    -15.6777E+06     3.49661E+06    -19.5980E-03     32.2948E-03    -12.6969E-03     43.1285E-03    -19.5587E-03     32.1627E-03    -12.7187E-03     43.1403E-03
            2159     12.4461E-03     15.6236E-03    -1.72338E+06    -40.0198E+06    -6.83450E+06     3.68405E+06    -18.3719E-03     30.7037E-03    -12.3318E-03     36.5920E-03    -18.3262E-03     30.5297E-03    -12.3055E-03     36.6179E-03
            2160     11.5616E-03     15.5914E-03    -1.93351E+06    -36.1869E+06    -3.75162E+06     3.12415E+06    -17.2008E-03     29.1489E-03    -11.9480E-03     30.7036E-03    -17.1597E-03     28.9834E-03    -11.9115E-03     30.7299E-03
            2161     10.6762E-03     15.5639E-03    -1.92789E+06    -43.6598E+06    -4.61987E+06     2.33053E+06    -16.1570E-03     27.7369E-03    -11.5800E-03     25.8467E-03    -16.1006E-03     27.5322E-03    -11.5370E-03     25.8674E-03
            2162     9.79000E-03     15.5404E-03    -1.56691E+06    -44.8204E+06     483.152E+03     2.06992E+06    -15.0716E-03     26.3272E-03    -11.2556E-03     21.3761E-03    -15.0174E-03     26.1069E-03    -11.1859E-03     21.3965E-03
            2163     8.90273E-03     15.5211E-03    -928.967E+03    -41.2349E+06     3.16619E+06     2.42800E+06    -14.0370E-03     24.9794E-03    -10.9424E-03     17.5147E-03    -13.9877E-03     24.7713E-03    -10.8654E-03     17.5418E-03
            2164     8.01483E-03     15.5048E-03    -879.739E+03    -44.8024E+06     4.04948E+06     2.68594E+06    -13.1231E-03     23.7878E-03    -10.6646E-03     14.2236E-03    -13.0692E-03     23.5599E-03    -10.5781E-03     14.2553E-03
            2165     7.12601E-03     15.4917E-03    -1.45248E+06    -46.4462E+06     3.90455E+06     2.86744E+06    -12.3034E-03     22.7170E-03    -10.4136E-03     11.5174E-03    -12.2494E-03     22.4817E-03    -10.3247E-03     11.5523E-03
            2166     6.23669E-03     15.4805E-03    -1.49618E+06    -42.8625E+06     3.34619E+06     3.37299E+06    -11.5872E-03     21.7742E-03    -10.1869E-03     9.30872E-03    -11.5377E-03     21.5574E-03    -10.1059E-03     9.35077E-03
            2167     5.34665E-03     15.4716E-03    -1.51752E+06    -43.7679E+06     2.77757E+06     3.73516E+06    -11.0062E-03     21.0060E-03    -9.99978E-03     7.43025E-03    -10.9545E-03     20.7855E-03    -9.92023E-03     7.47739E-03
            2168     4.45633E-03     15.4642E-03    -1.89382E+06    -44.2087E+06     2.09962E+06     3.06555E+06    -10.5288E-03     20.3709E-03    -9.84218E-03     5.81820E-03    -10.4772E-03     20.1497E-03    -9.76483E-03     5.85697E-03
            2169     3.56542E-03     15.4588E-03    -2.45257E+06    -42.0941E+06     796.721E+03     2.53582E+06    -10.1396E-03     19.8465E-03    -9.70693E-03     4.44692E-03    -10.0919E-03     19.6384E-03    -9.63836E-03     4.47906E-03
            2170     2.67440E-03     15.4542E-03    -3.13538E+06    -41.9248E+06    -60.1203E+03     2.39237E+06    -9.84501E-03     19.4493E-03    -9.60433E-03     3.21882E-03    -9.79972E-03     19.2443E-03    -9.53930E-03     3.24927E-03
            2171     1.78302E-03     15.4515E-03    -4.01410E+06    -41.4541E+06    -1.02536E+06     1.52414E+06    -9.63190E-03     19.1581E-03    -9.52620E-03     2.11125E-03    -9.59021E-03     18.9581E-03    -9.46540E-03     2.13059E-03
            2172     891.595E-06     15.4494E-03    -4.51177E+06    -38.4894E+06    -3.45197E+06     389.553E+03    -9.50541E-03     18.9533E-03    -9.44788E-03     1.13514E-03    -9.46651E-03     18.7732E-03    -9.40279E-03     1.13985E-03
            2173     16.8509E-03     14.9550E-03    -2.59635E+06     118.671E+06     16.8580E+06     1.44087E+06    -31.8261E-03     46.4781E-03    -14.6521E-03     135.504E-03    -33.5933E-03     48.6087E-03    -14.7361E-03     136.283E-03
            2174     15.9744E-03     14.8426E-03    -2.59840E+06     62.2332E+06    -18.5026E+06     2.93005E+06    -26.9476E-03     40.8387E-03    -13.8911E-03     96.0852E-03    -27.6024E-03     41.7592E-03    -14.0701E-03     96.0883E-03
            2175     15.0948E-03     14.7716E-03    -1.92756E+06     19.3115E+06    -12.1755E+06     3.56251E+06    -22.5923E-03     36.0332E-03    -13.4409E-03     61.0217E-03    -22.7230E-03     36.2610E-03    -13.5270E-03     61.0056E-03
            2176     14.2134E-03     14.7266E-03    -2.26442E+06    -11.2921E+06    -12.7663E+06     3.85598E+06    -20.7383E-03     33.7595E-03    -13.0212E-03     46.5090E-03    -20.7567E-03     33.7668E-03    -13.0653E-03     46.5146E-03
            2177     13.3307E-03     14.6834E-03    -2.32184E+06    -37.1175E+06    -16.5238E+06     4.23048E+06    -19.7145E-03     32.3133E-03    -12.5988E-03     41.8095E-03    -19.6731E-03     32.1798E-03    -12.6242E-03     41.8316E-03
            2178     12.4475E-03     14.6464E-03    -2.53298E+06    -39.3219E+06    -7.55771E+06     4.22004E+06    -18.5044E-03     30.7206E-03    -12.2162E-03     34.9881E-03    -18.4615E-03     30.5511E-03    -12.1933E-03     35.0217E-03
            2179     11.5630E-03     14.6157E-03    -2.79267E+06    -34.9587E+06    -4.23891E+06     3.60339E+06    -17.3494E-03     29.1605E-03    -11.8111E-03     29.0477E-03    -17.3129E-03     29.0024E-03    -11.7776E-03     29.0808E-03
            2180     10.6779E-03     14.5892E-03    -3.07454E+06    -42.2513E+06    -4.77049E+06     2.48205E+06    -16.2933E-03     27.7126E-03    -11.4194E-03     23.9881E-03    -16.2440E-03     27.5163E-03    -11.3775E-03     24.0112E-03
            2181     9.79166E-03     14.5675E-03    -2.78880E+06    -44.0834E+06    -46.7162E+03     1.09017E+06    -15.1457E-03     26.2132E-03    -11.0676E-03     19.4422E-03    -15.0975E-03     25.9989E-03    -10.9998E-03     19.4504E-03
            2182     8.90467E-03     14.5491E-03    -1.78966E+06    -41.9523E+06     1.70115E+06     940.634E+03    -14.0428E-03     24.7694E-03    -10.7266E-03     15.6564E-03    -13.9944E-03     24.5609E-03    -10.6547E-03     15.6646E-03
            2183     8.01656E-03     14.5344E-03    -780.721E+03    -45.0811E+06     4.11709E+06     2.03714E+06    -13.0658E-03     23.4982E-03    -10.4323E-03     12.4586E-03    -13.0110E-03     23.2686E-03    -10.3453E-03     12.4821E-03
            2184     7.12788E-03     14.5219E-03    -437.002E+03    -46.1607E+06     5.56367E+06     2.43524E+06    -12.1798E-03     22.3481E-03    -10.1683E-03     9.91241E-03    -12.1235E-03     22.1102E-03    -10.0729E-03     9.94189E-03
            2185     6.23824E-03     14.5120E-03    -651.195E+03    -43.0155E+06     4.60607E+06     2.53664E+06    -11.4027E-03     21.3286E-03    -9.92589E-03     7.93637E-03    -11.3505E-03     21.1080E-03    -9.83955E-03     7.96775E-03
            2186     5.34820E-03     14.5035E-03    -230.210E+03    -42.9872E+06     3.98321E+06     2.58239E+06    -10.7684E-03     20.4955E-03    -9.72705E-03     6.27957E-03    -10.7131E-03     20.2752E-03    -9.64447E-03     6.31192E-03
            2187     4.45741E-03     14.4971E-03     445.422E+03    -42.7551E+06     4.46271E+06     2.29501E+06    -10.2650E-03     19.8332E-03    -9.56812E-03     4.88180E-03    -10.2073E-03     19.6123E-03    -9.48445E-03     4.91068E-03
            2188     3.56650E-03     14.4917E-03     610.821E+03    -41.4365E+06     4.81534E+06     1.88953E+06    -9.87555E-03     19.3139E-03    -9.43832E-03     3.71402E-03    -9.81939E-03     19.0988E-03    -9.35505E-03     3.73785E-03
            2189     2.67510E-03     14.4881E-03     677.149E+03    -40.6161E+06     4.14781E+06     1.47733E+06    -9.56895E-03     18.9022E-03    -9.33330E-03     2.68487E-03    -9.51259E-03     18.6921E-03    -9.25465E-03     2.70350E-03
            2190     1.78354E-03     14.4850E-03     882.475E+03    -39.6331E+06     3.18999E+06     650.205E+03    -9.35956E-03     18.6138E-03    -9.25421E-03     1.76740E-03    -9.30215E-03     18.4097E-03    -9.18207E-03     1.77545E-03
            2191     891.807E-06     14.4837E-03     413.997E+03    -37.8890E+06     1.43657E+06    -48.4323E+03    -9.25698E-03     18.4218E-03    -9.16482E-03     899.900E-06    -9.20133E-03     18.2305E-03    -9.10330E-03     898.755E-06
            2192     16.8497E-03     13.9613E-03    -2.25789E+06     116.773E+06     16.6302E+06     1.50638E+06    -32.4604E-03     47.0999E-03    -14.6395E-03     131.917E-03    -34.1522E-03     49.1502E-03    -14.7224E-03     132.612E-03
            2193     15.9761E-03     13.8575E-03    -2.00645E+06     61.3682E+06    -19.6202E+06     3.07753E+06    -27.1044E-03     40.9446E-03    -13.8401E-03     90.5180E-03    -27.6959E-03     41.8040E-03    -14.0243E-03     90.5061E-03
            2194     15.0958E-03     13.7903E-03    -1.96932E+06     18.5567E+06    -13.8441E+06     4.87205E+06    -22.4266E-03     35.8040E-03    -13.3774E-03     58.7573E-03    -22.5424E-03     36.0189E-03    -13.4707E-03     58.7597E-03
            2195     14.2138E-03     13.7463E-03    -2.97214E+06    -11.1133E+06    -14.0514E+06     5.69840E+06    -20.8574E-03     33.8115E-03    -12.9541E-03     45.4019E-03    -20.8745E-03     33.8195E-03    -13.0040E-03     45.4322E-03
            2196     13.3320E-03     13.7044E-03    -3.78471E+06    -36.3182E+06    -17.3081E+06     5.12428E+06    -20.1323E-03     32.6425E-03    -12.5102E-03     40.2554E-03    -20.0964E-03     32.5145E-03    -12.5386E-03     40.2893E-03
            2197     12.4488E-03     13.6692E-03    -3.49510E+06    -38.6080E+06    -7.88708E+06     4.53530E+06    -18.9159E-03     31.0069E-03    -12.0911E-03     33.0208E-03    -18.8771E-03     30.8416E-03    -12.0695E-03     33.0589E-03
            2198     11.5650E-03     13.6395E-03    -3.20740E+06    -33.4259E+06    -3.56736E+06     3.72940E+06    -17.6895E-03     29.3374E-03    -11.6479E-03     26.9654E-03    -17.6575E-03     29.1858E-03    -11.6126E-03     27.0007E-03
            2199     10.6799E-03     13.6148E-03    -2.42804E+06    -40.1082E+06    -3.42229E+06     2.02326E+06    -16.5361E-03     27.7527E-03    -11.2166E-03     21.7005E-03    -16.4881E-03     27.5638E-03    -11.1721E-03     21.7182E-03
            2200     9.79414E-03     13.5942E-03    -1.80888E+06    -42.6907E+06     1.92217E+06     425.841E+03    -15.2881E-03     26.1183E-03    -10.8302E-03     17.0922E-03    -15.2397E-03     25.9064E-03    -10.7561E-03     17.0921E-03
            2201     8.90700E-03     13.5778E-03    -1.94159E+06    -42.6159E+06     2.21349E+06    -67.3618E+03    -14.0769E-03     24.5284E-03    -10.4515E-03     13.4271E-03    -14.0289E-03     24.3158E-03    -10.3758E-03     13.4225E-03
            2202     8.01914E-03     13.5638E-03    -1.40045E+06    -45.8521E+06     3.69320E+06     313.630E+03    -12.9814E-03     23.1050E-03    -10.1236E-03     10.4108E-03    -12.9278E-03     22.8729E-03    -10.0366E-03     10.4123E-03
            2203     7.13011E-03     13.5530E-03    -308.074E+03    -46.2635E+06     6.95277E+06     1.08103E+06    -12.0093E-03     21.8517E-03    -9.84241E-03     8.06032E-03    -11.9541E-03     21.6110E-03    -9.74011E-03     8.07251E-03
            2204     6.24050E-03     13.5436E-03     613.805E+03    -42.7934E+06     7.02966E+06     1.32318E+06    -11.1666E-03     20.7502E-03    -9.58356E-03     6.29692E-03    -11.1118E-03     20.5253E-03    -9.48725E-03     6.31278E-03
            2205     5.34999E-03     13.5364E-03     1.02595E+06    -42.3722E+06     6.53512E+06     1.11252E+06    -10.4746E-03     19.8443E-03    -9.36973E-03     4.86554E-03    -10.4176E-03     19.6216E-03    -9.27710E-03     4.87903E-03
            2206     4.45919E-03     13.5302E-03     1.38335E+06    -42.1111E+06     6.21444E+06     821.763E+03    -9.92324E-03     19.1202E-03    -9.19696E-03     3.70595E-03    -9.86428E-03     18.8986E-03    -9.10683E-03     3.71591E-03
            2207     3.56770E-03     13.5257E-03     1.92811E+06    -40.6606E+06     5.54352E+06     570.807E+03    -9.49493E-03     18.5526E-03    -9.05766E-03     2.76885E-03    -9.43435E-03     18.3384E-03    -8.97378E-03     2.77572E-03
            2208     2.67608E-03     13.5220E-03     2.42501E+06    -39.8254E+06     5.17170E+06     116.318E+03    -9.18980E-03     18.1440E-03    -8.95423E-03     1.98028E-03    -9.12733E-03     17.9338E-03    -8.87414E-03     1.98139E-03
            2209     1.78417E-03     13.5198E-03     2.13034E+06    -38.9462E+06     4.29349E+06    -105.686E+03    -8.97550E-03     17.8549E-03    -8.87937E-03     1.30747E-03    -8.91448E-03     17.6508E-03    -8.80452E-03     1.30575E-03
            2210     892.128E-06     13.5179E-03     1.23725E+06    -37.8974E+06     2.26958E+06    -248.531E+03    -8.86922E-03     17.6774E-03    -8.80818E-03     663.125E-06    -8.81045E-03     17.4836E-03    -8.74367E-03     659.418E-06
            2211     16.8514E-03     12.9681E-03    -1.33115E+06     115.287E+06     17.3799E+06     817.983E+03    -32.4432E-03     47.0809E-03    -14.6377E-03     128.158E-03    -34.0432E-03     49.0353E-03    -14.7160E-03     128.764E-03
            2212     15.9753E-03     12.8713E-03    -1.63431E+06     57.2950E+06    -21.4732E+06     4.08791E+06    -27.0476E-03     40.8695E-03    -13.8220E-03     84.8334E-03    -27.5733E-03     41.6554E-03    -14.0100E-03     84.8176E-03
            2213     15.0962E-03     12.8094E-03    -3.80624E+06     17.5196E+06    -15.3978E+06     8.05986E+06    -22.6581E-03     36.0033E-03    -13.3452E-03     56.2071E-03    -22.7672E-03     36.2059E-03    -13.4421E-03     56.2498E-03
            2214     14.2147E-03     12.7656E-03    -5.94848E+06      -9.217E+06    -14.6723E+06     7.60832E+06    -21.3265E-03     34.2234E-03    -12.8968E-03     44.6796E-03    -21.3580E-03     34.2436E-03    -12.9482E-03     44.7343E-03
            2215     13.3328E-03     12.7249E-03    -6.36966E+06    -34.8474E+06    -17.5020E+06     5.81183E+06    -20.8773E-03     33.2854E-03    -12.4080E-03     38.0767E-03    -20.8543E-03     33.1669E-03    -12.4358E-03     38.1190E-03
            2216     12.4510E-03     12.6912E-03    -5.89421E+06    -36.6873E+06    -8.04153E+06     4.06886E+06    -19.5526E-03     31.4805E-03    -11.9279E-03     30.4674E-03    -19.5271E-03     31.3272E-03    -11.9063E-03     30.4998E-03
            2217     11.5673E-03     12.6635E-03    -4.23006E+06    -31.7617E+06    -2.80772E+06     2.07963E+06    -18.1811E-03     29.6093E-03    -11.4283E-03     24.3909E-03    -18.1570E-03     29.4657E-03    -11.3901E-03     24.4052E-03
            2218     10.6830E-03     12.6399E-03    -2.27060E+06    -37.9932E+06    -1.80034E+06     677.543E+03    -16.8238E-03     27.7689E-03    -10.9451E-03     18.9556E-03    -16.7800E-03     27.5875E-03    -10.8957E-03     18.9562E-03
            2219     9.79713E-03     12.6216E-03    -1.21307E+06    -41.6801E+06     4.22971E+06    -453.818E+03    -15.4261E-03     25.9422E-03    -10.5162E-03     14.4131E-03    -15.3791E-03     25.7308E-03    -10.4328E-03     14.4019E-03
            2220     8.91042E-03     12.6061E-03    -391.825E+03    -42.7501E+06     5.18724E+06    -886.353E+03    -14.0851E-03     24.1848E-03    -10.0997E-03     10.8771E-03    -14.0333E-03     23.9648E-03    -10.0112E-03     10.8622E-03
            2221     8.02224E-03     12.5942E-03    -223.458E+03    -46.2802E+06     5.20831E+06    -798.801E+03    -12.8610E-03     22.5911E-03    -9.73009E-03     8.14125E-03    -12.8029E-03     22.3528E-03    -9.63662E-03     8.12862E-03
            2222     7.13331E-03     12.5840E-03    -80.3424E+03    -46.6709E+06     7.94458E+06    -836.558E+03    -11.7970E-03     21.2145E-03    -9.41749E-03     6.03779E-03    -11.7414E-03     20.9699E-03    -9.30998E-03     6.02542E-03
            2223     6.24328E-03     12.5763E-03     347.669E+03    -43.0225E+06     9.01643E+06    -443.872E+03    -10.8736E-03     20.0111E-03    -9.13744E-03     4.51087E-03    -10.8226E-03     19.7825E-03    -9.03048E-03     4.50407E-03
            2224     5.35274E-03     12.5695E-03     770.124E+03    -41.9091E+06     7.81514E+06    -323.851E+03    -10.1108E-03     19.0070E-03    -8.89622E-03     3.34862E-03    -10.0575E-03     18.7851E-03    -8.79749E-03     3.34370E-03
            2225     4.46134E-03     12.5645E-03     931.236E+03    -41.9095E+06     5.92486E+06    -535.363E+03    -9.49618E-03     18.1945E-03    -8.69830E-03     2.44853E-03    -9.43934E-03     17.9750E-03    -8.60925E-03     2.44109E-03
            2226     3.56968E-03     12.5601E-03     918.204E+03    -40.4775E+06     4.34262E+06    -681.565E+03    -9.01482E-03     17.5581E-03    -8.54329E-03     1.76401E-03    -8.95780E-03     17.3481E-03    -8.46421E-03     1.75484E-03
            2227     2.67748E-03     12.5573E-03     544.640E+03    -39.7664E+06     2.78988E+06    -548.894E+03    -8.67177E-03     17.1021E-03    -8.43036E-03     1.22733E-03    -8.61533E-03     16.8984E-03    -8.35954E-03     1.21992E-03
            2228     1.78511E-03     12.5548E-03     19.1859E+03    -39.0764E+06     1.64162E+06    -348.090E+03    -8.44680E-03     16.8030E-03    -8.35621E-03     785.671E-06    -8.39234E-03     16.6052E-03    -8.29137E-03     780.907E-06
            2229     892.568E-06     12.5538E-03    -468.599E+03    -38.3249E+06    -8.54255E+03    -251.903E+03    -8.34820E-03     16.6423E-03    -8.29408E-03     397.523E-06    -8.29395E-03     16.4522E-03    -8.23787E-03     393.654E-06
            2230     16.8502E-03     11.9777E-03     2.78785E+06     109.968E+06     15.1363E+06     2.34971E+06    -32.6547E-03     47.2902E-03    -14.6355E-03     125.420E-03    -34.1597E-03     49.1519E-03    -14.7233E-03     125.979E-03
            2231     15.9754E-03     11.8834E-03    -3.37605E+06     52.9927E+06     -22.124E+06     8.95612E+06    -26.9600E-03     40.7855E-03    -13.8256E-03     77.5878E-03    -27.4094E-03     41.4758E-03    -14.0082E-03     77.6081E-03
            2232     15.0964E-03     11.8289E-03    -7.03768E+06     18.0712E+06    -14.9050E+06     10.8048E+06    -22.8277E-03     36.1655E-03    -13.3379E-03     54.3200E-03    -22.9442E-03     36.3645E-03    -13.4284E-03     54.3989E-03
            2233     14.2150E-03     11.7840E-03    -8.62010E+06    -6.87352E+06    -13.7364E+06     9.35369E+06    -22.7041E-03     35.5392E-03    -12.8351E-03     43.8625E-03    -22.7528E-03     35.5728E-03    -12.8813E-03     43.9364E-03
            2234     13.3355E-03     11.7442E-03    -9.00506E+06    -30.5394E+06    -15.4509E+06     6.16822E+06    -21.9074E-03     34.1689E-03    -12.2615E-03     35.0453E-03    -21.9044E-03     34.0705E-03    -12.2814E-03     35.0918E-03
            2235     12.4534E-03     11.7134E-03    -7.28733E+06    -33.5363E+06    -6.43910E+06     1.77803E+06    -20.2976E-03     31.9980E-03    -11.7004E-03     27.3687E-03    -20.2847E-03     31.8590E-03    -11.6734E-03     27.3717E-03
            2236     11.5711E-03     11.6863E-03    -4.87747E+06    -30.3862E+06    -613.617E+03    -296.943E+03    -18.6907E-03     29.8262E-03    -11.1355E-03     21.2007E-03    -18.6742E-03     29.6864E-03    -11.0874E-03     21.1846E-03
            2237     10.6867E-03     11.6658E-03    -3.08692E+06    -36.4079E+06    -17.8457E+03    -1.50415E+06    -17.0525E-03     27.6437E-03    -10.5912E-03     15.8772E-03    -17.0172E-03     27.4683E-03    -10.5340E-03     15.8501E-03
            2238     9.80140E-03     11.6483E-03    -925.362E+03    -41.1279E+06     5.67992E+06    -2.56737E+06    -15.4671E-03     25.5799E-03    -10.1129E-03     11.5850E-03    -15.4213E-03     25.3685E-03    -10.0235E-03     11.5468E-03
            2239     8.91436E-03     11.6356E-03    -24.7829E+03    -43.7948E+06     7.91251E+06    -1.97514E+06    -13.9767E-03     23.6425E-03    -9.66574E-03     8.29578E-03    -13.9254E-03     23.4127E-03    -9.56264E-03     8.26700E-03
            2240     8.02634E-03     11.6245E-03     64.9439E+03    -46.1342E+06     7.29813E+06    -1.48686E+06    -12.6462E-03     21.9044E-03    -9.25816E-03     5.95456E-03    -12.5898E-03     21.6633E-03    -9.15486E-03     5.93321E-03
            2241     7.13701E-03     11.6164E-03    -333.007E+03    -46.7899E+06     8.16766E+06    -1.76576E+06    -11.4922E-03     20.4009E-03    -8.90861E-03     4.21469E-03    -11.4381E-03     20.1557E-03    -8.79944E-03     4.19045E-03
            2242     6.24690E-03     11.6093E-03    -832.466E+03    -43.5441E+06     7.69405E+06    -1.94752E+06    -10.5020E-03     19.0992E-03    -8.59717E-03     3.01307E-03    -10.4543E-03     18.8716E-03    -8.49435E-03     2.98696E-03
            2243     5.35577E-03     11.6041E-03    -1.07640E+06    -42.2229E+06     5.86605E+06    -1.64273E+06    -9.67808E-03     18.0080E-03    -8.32994E-03     2.12246E-03    -9.63076E-03     17.7900E-03    -8.23782E-03     2.10059E-03
            2244     4.46417E-03     11.5993E-03    -1.21714E+06    -41.8547E+06     3.34247E+06    -1.55989E+06    -9.00790E-03     17.1152E-03    -8.10733E-03     1.45454E-03    -8.95813E-03     16.9029E-03    -8.02817E-03     1.43396E-03
            2245     3.57183E-03     11.5961E-03    -1.46619E+06    -41.2556E+06     1.36309E+06    -1.27067E+06    -8.48021E-03     16.4128E-03    -7.93259E-03     989.616E-06    -8.42968E-03     16.2066E-03    -7.86383E-03     972.889E-06
            2246     2.67922E-03     11.5932E-03    -1.86744E+06    -40.1167E+06     325.271E+03    -826.930E+03    -8.08784E-03     15.8935E-03    -7.80567E-03     649.252E-06    -8.03938E-03     15.6951E-03    -7.74316E-03     638.353E-06
            2247     1.78627E-03     11.5915E-03    -2.26098E+06    -39.5478E+06    -1.05726E+06    -581.249E+03    -7.83252E-03     15.5507E-03    -7.71814E-03     391.164E-06    -7.78491E-03     15.3578E-03    -7.66280E-03     383.534E-06
            2248     893.170E-06     11.5901E-03    -2.91692E+06    -38.8429E+06    -2.48030E+06     88.0757E+03    -7.72897E-03     15.3584E-03    -7.62945E-03     201.558E-06    -7.68255E-03     15.1730E-03    -7.58130E-03     202.640E-06
            2249     16.8485E-03     10.9741E-03    -127.760E+03     105.812E+06     15.1625E+06     3.23501E+06    -32.3426E-03     46.9747E-03    -14.6321E-03     120.195E-03    -33.7903E-03     48.7540E-03    -14.7096E-03     120.661E-03
            2250     15.9781E-03     10.9027E-03    -6.26442E+06     46.7206E+06    -23.4604E+06     10.1312E+06    -25.6705E-03     39.5250E-03    -13.8545E-03     71.6136E-03    -26.0442E-03     40.1107E-03    -14.0305E-03     71.6588E-03
            2251     15.0943E-03     10.8464E-03    -9.41022E+06     18.3219E+06    -15.9990E+06     15.5499E+06    -24.4282E-03     37.7710E-03    -13.3428E-03     55.7967E-03    -24.5565E-03     37.9772E-03    -13.4357E-03     55.9304E-03
            2252     14.2174E-03     10.7993E-03    -12.3049E+06     469.099E+03    -11.3962E+06     10.7907E+06    -24.8856E-03     37.6158E-03    -12.7302E-03     41.1520E-03    -24.9652E-03     37.6866E-03    -12.7700E-03     41.2390E-03
            2253     13.3379E-03     10.7640E-03    -9.94741E+06    -23.9597E+06    -11.7432E+06     3.04604E+06    -23.0556E-03     35.0942E-03    -12.0385E-03     31.1915E-03    -23.0698E-03     35.0222E-03    -12.0481E-03     31.1973E-03
            2254     12.4579E-03     10.7336E-03    -6.09171E+06    -30.5986E+06    -2.66075E+06    -1.06600E+06    -21.0288E-03     32.4210E-03    -11.3922E-03     23.7316E-03    -21.0184E-03     32.2882E-03    -11.3523E-03     23.6980E-03
            2255     11.5755E-03     10.7104E-03    -3.98772E+06    -29.1276E+06     2.59333E+06    -2.96084E+06    -19.0119E-03     29.7713E-03    -10.7594E-03     17.7082E-03    -18.9967E-03     29.6312E-03    -10.6984E-03     17.6583E-03
            2256     10.6918E-03     10.6908E-03    -1.33349E+06    -35.1339E+06     3.17205E+06    -4.48826E+06    -17.0863E-03     27.2508E-03    -10.1645E-03     12.7852E-03    -17.0483E-03     27.0743E-03    -10.0958E-03     12.7200E-03
            2257     9.80607E-03     10.6766E-03    -253.844E+03    -42.2403E+06     7.36171E+06    -4.12551E+06    -15.2824E-03     24.9319E-03    -9.64952E-03     8.95511E-03    -15.2340E-03     24.7114E-03    -9.55109E-03     8.89713E-03
            2258     8.91911E-03     10.6648E-03    -576.325E+03    -45.3682E+06     10.3554E+06    -2.79519E+06    -13.6644E-03     22.8496E-03    -9.18523E-03     6.13233E-03    -13.6169E-03     22.6091E-03    -9.06684E-03     6.09312E-03
            2259     8.03058E-03     10.6564E-03    -1.30537E+06    -46.3085E+06     9.03203E+06    -2.09354E+06    -12.2494E-03     21.0058E-03    -8.75630E-03     4.26745E-03    -12.2022E-03     20.7633E-03    -8.64210E-03     4.23837E-03
            2260     7.14101E-03     10.6490E-03    -1.87277E+06    -46.4174E+06     6.62806E+06    -2.41988E+06    -11.0558E-03     19.4324E-03    -8.37661E-03     2.96720E-03    -11.0076E-03     19.1935E-03    -8.27344E-03     2.93457E-03
            2261     6.25032E-03     10.6438E-03    -2.35856E+06    -44.1500E+06     4.64965E+06    -2.63314E+06    -10.0567E-03     18.1028E-03    -8.04612E-03     2.06729E-03    -10.0113E-03     17.8788E-03    -7.95543E-03     2.03235E-03
            2262     5.35897E-03     10.6390E-03    -2.93809E+06    -42.9300E+06     2.57218E+06    -2.41488E+06    -9.21355E-03     16.9773E-03    -7.76374E-03     1.41688E-03    -9.16972E-03     16.7632E-03    -7.68438E-03     1.38506E-03
            2263     4.46677E-03     10.6358E-03    -3.60120E+06    -42.6226E+06     16.2890E+03    -1.90665E+06    -8.52235E-03     16.0475E-03    -7.52516E-03     940.431E-06    -8.47854E-03     15.8396E-03    -7.45806E-03     915.363E-06
            2264     3.57414E-03     10.6327E-03    -4.35845E+06    -42.0595E+06    -2.00067E+06    -1.39704E+06    -7.97094E-03     15.3019E-03    -7.33092E-03     609.159E-06    -7.92880E-03     15.1007E-03    -7.27361E-03     590.792E-06
            2265     2.68098E-03     10.6308E-03    -5.06617E+06    -40.8268E+06    -2.86486E+06    -989.886E+03    -7.53672E-03     14.7187E-03    -7.18201E-03     369.468E-06    -7.49857E-03     14.5260E-03    -7.12979E-03     356.433E-06
            2266     1.78749E-03     10.6290E-03    -6.27747E+06     -40.304E+06    -3.86618E+06    -554.644E+03    -7.22839E-03     14.3020E-03    -7.07358E-03     218.112E-06    -7.19563E-03     14.1152E-03    -7.02537E-03     210.837E-06
            2267     893.834E-06     10.6283E-03    -6.99618E+06    -39.1411E+06    -6.11474E+06    -104.669E+03    -7.05517E-03     14.0332E-03    -6.97803E-03     108.231E-06    -7.02332E-03     13.8573E-03    -6.94170E-03     107.154E-06
            2268     16.8574E-03     9.98337E-03     8.98604E+06     96.6570E+06     11.4548E+06     9.88071E+06    -29.8876E-03     44.6738E-03    -14.7863E-03     121.812E-03    -31.1860E-03     46.3144E-03    -14.8822E-03     122.332E-03
            2269     15.9694E-03     9.92388E-03    -11.4146E+06     43.2116E+06    -23.9685E+06     16.4496E+06    -28.0831E-03     42.1336E-03    -14.0505E-03     75.8762E-03    -28.4832E-03     42.7155E-03    -14.2164E-03     76.0007E-03
            2270     15.0950E-03     9.85611E-03    -15.2819E+06     25.1835E+06    -9.73656E+06     14.9456E+06    -29.4077E-03     42.7612E-03    -13.3535E-03     53.3385E-03    -29.5904E-03     43.0077E-03    -13.4166E-03     53.4365E-03
            2271     14.2200E-03     9.81549E-03    -9.33462E+06     11.5414E+06    -2.71818E+06     6.35133E+06    -26.5147E-03     39.0395E-03    -12.5248E-03     35.4611E-03    -26.6037E-03     39.1444E-03    -12.5416E-03     35.4883E-03
            2272     13.3430E-03     9.78079E-03    -4.78551E+06    -18.0225E+06    -5.11381E+06    -449.648E+03    -23.9362E-03     35.6597E-03    -11.7235E-03     26.5561E-03    -23.9405E-03     35.5981E-03    -11.7160E-03     26.5166E-03
            2273     12.4629E-03     9.75523E-03    -2.96549E+06    -28.3950E+06     1.66659E+06    -3.80109E+06    -21.4188E-03     32.4211E-03    -11.0022E-03     19.7421E-03    -21.4012E-03     32.2875E-03    -10.9484E-03     19.6736E-03
            2274     11.5811E-03     9.73315E-03    -591.176E+03    -27.5959E+06     6.22732E+06    -5.92160E+06    -18.9603E-03     29.2813E-03    -10.3210E-03     14.3436E-03    -18.9352E-03     29.1382E-03    -10.2490E-03     14.2560E-03
            2275     10.6969E-03     9.71762E-03    -35.7912E+03    -35.6801E+06     6.18621E+06    -6.01003E+06    -16.7381E-03     26.4455E-03    -9.70741E-03     10.1069E-03    -16.6969E-03     26.2597E-03    -9.62469E-03     10.0224E-03
            2276     9.81110E-03     9.70466E-03    -473.971E+03    -44.4091E+06     9.30633E+06    -4.69025E+06    -14.7830E-03     23.9697E-03    -9.18671E-03     6.95193E-03    -14.7353E-03     23.7357E-03    -9.07510E-03     6.88686E-03
            2277     8.92343E-03     9.69591E-03    -1.27535E+06    -46.9108E+06     12.0720E+06    -3.23959E+06    -13.0950E-03     21.8214E-03    -8.72645E-03     4.73689E-03    -13.0512E-03     21.5717E-03    -8.59622E-03     4.69204E-03
            2278     8.03452E-03     9.68845E-03    -2.07728E+06    -46.6966E+06     9.65446E+06    -2.71431E+06    -11.6839E-03     19.9847E-03    -8.30080E-03     3.34390E-03    -11.6408E-03     19.7405E-03    -8.18180E-03     3.30682E-03
            2279     7.14433E-03     9.68334E-03    -2.92795E+06    -46.3324E+06     4.88429E+06    -2.72053E+06    -10.5227E-03     18.4425E-03    -7.91982E-03     2.46227E-03    -10.4774E-03     18.2082E-03    -7.82397E-03     2.42574E-03
            2280     6.25334E-03     9.67867E-03    -3.94819E+06    -44.7457E+06     2.04274E+06    -2.82373E+06    -9.56003E-03     17.1559E-03    -7.59591E-03     1.83468E-03    -9.51795E-03     16.9351E-03    -7.51509E-03     1.79725E-03
            2281     5.36141E-03     9.67558E-03    -5.07055E+06    -43.9429E+06    -1.13647E+06    -2.26966E+06    -8.75493E-03     16.0702E-03    -7.31525E-03     1.38636E-03    -8.71495E-03     15.8595E-03    -7.24986E-03     1.35637E-03
            2282     4.46891E-03     9.67267E-03    -6.29449E+06    -43.6779E+06    -3.35345E+06    -1.59304E+06    -8.09497E-03     15.1749E-03    -7.07995E-03     1.05003E-03    -8.05825E-03     14.9705E-03    -7.02426E-03     1.02896E-03
            2283     3.57582E-03     9.67078E-03    -7.21436E+06    -42.7693E+06    -4.81487E+06    -1.20306E+06    -7.55551E-03     14.4387E-03    -6.88315E-03     794.613E-06    -7.52259E-03     14.2423E-03    -6.83475E-03     778.696E-06
            2284     2.68232E-03     9.66904E-03    -8.23238E+06    -41.6077E+06    -5.75684E+06    -811.951E+03    -7.11719E-03     13.8411E-03    -6.72394E-03     571.910E-06    -7.08960E-03     13.6533E-03    -6.68046E-03     561.091E-06
            2285     1.78847E-03     9.66808E-03     -9.4536E+06    -40.8596E+06    -6.75548E+06    -521.956E+03    -6.77797E-03     13.3813E-03    -6.60331E-03     393.758E-06    -6.75620E-03     13.2006E-03    -6.56413E-03     386.840E-06
            2286     894.285E-06     9.66718E-03    -10.7530E+06    -39.6776E+06    -9.28393E+06    -614.127E+03    -6.57245E-03     13.0770E-03    -6.50453E-03     212.767E-06    -6.55423E-03     12.9085E-03    -6.47783E-03     204.499E-06
            2287     16.8312E-03     9.01469E-03    -2.07768E+06     87.3585E+06     14.2083E+06     15.6351E+06    -31.6359E-03     46.7008E-03    -15.0648E-03     111.844E-03    -32.8229E-03     48.1478E-03    -15.1174E-03     112.477E-03
            2288     15.9624E-03     8.91695E-03    -7.43425E+06     47.1914E+06    -8.61738E+06     18.3169E+06    -33.6844E-03     47.8165E-03    -14.1321E-03     69.8531E-03    -34.1067E-03     48.4041E-03    -14.2328E-03     69.9648E-03
            2289     15.1014E-03     8.86835E-03    -3.68079E+06     34.7085E+06     10.7141E+06     7.94315E+06    -32.4413E-03     45.6190E-03    -13.1777E-03     40.9261E-03    -32.6021E-03     45.8593E-03    -13.1691E-03     40.9139E-03
            2290     14.2262E-03     8.82804E-03     743.937E+03     18.1388E+06     7.24282E+06     1.39728E+06    -26.9799E-03     39.1496E-03    -12.1698E-03     29.2144E-03    -27.0373E-03     39.2534E-03    -12.1609E-03     29.1791E-03
            2291     13.3485E-03     8.79976E-03     2.01064E+06    -13.1048E+06     2.49738E+06    -1.62028E+06    -23.9638E-03     35.2824E-03    -11.3186E-03     21.8954E-03    -23.9502E-03     35.2224E-03    -11.2900E-03     21.8420E-03
            2292     12.4690E-03     8.77508E-03     2.70811E+06    -25.5908E+06     8.26259E+06    -5.63884E+06    -21.1383E-03     31.7120E-03    -10.5736E-03     15.9158E-03    -21.1050E-03     31.5736E-03    -10.4991E-03     15.8246E-03
            2293     11.5866E-03     8.75842E-03     1.98491E+06    -27.5814E+06     10.9300E+06    -6.80290E+06    -18.3224E-03     28.2139E-03    -9.89147E-03     11.5974E-03    -18.2908E-03     28.0598E-03    -9.79971E-03     11.4992E-03
            2294     10.7019E-03     8.74404E-03     953.886E+03    -37.4493E+06     10.4823E+06    -6.03443E+06    -15.9695E-03     25.2710E-03    -9.30149E-03     8.28510E-03    -15.9270E-03     25.0686E-03    -9.19616E-03     8.20069E-03
            2295     9.81516E-03     8.73496E-03    -412.928E+03    -46.6435E+06     11.8797E+06    -4.53819E+06    -13.9658E-03     22.7731E-03    -8.80725E-03     5.83240E-03    -13.9182E-03     22.5240E-03    -8.67962E-03     5.76949E-03
            2296     8.92685E-03     8.72709E-03    -1.71286E+06    -47.9684E+06     10.9660E+06    -3.68683E+06    -12.3041E-03     20.6727E-03    -8.36867E-03     4.29527E-03    -12.2594E-03     20.4200E-03    -8.24181E-03     4.24475E-03
            2297     8.03718E-03     8.72234E-03    -2.83305E+06    -47.6346E+06     7.50103E+06    -2.95616E+06    -10.9921E-03     18.9735E-03    -7.98138E-03     3.37509E-03    -10.9484E-03     18.7289E-03    -7.87070E-03     3.33488E-03
            2298     7.14650E-03     8.71779E-03    -3.99187E+06    -46.4345E+06     3.14973E+06    -2.63720E+06    -9.92624E-03     17.5698E-03    -7.64355E-03     2.85909E-03    -9.88363E-03     17.3391E-03    -7.55469E-03     2.82360E-03
            2299     6.25488E-03     8.71502E-03    -5.27077E+06    -45.8190E+06    -642.883E+03    -2.23492E+06    -9.05424E-03     16.4113E-03    -7.35702E-03     2.46457E-03    -9.01335E-03     16.1909E-03    -7.28615E-03     2.43469E-03
            2300     5.36261E-03     8.71231E-03    -6.84809E+06    -45.0252E+06    -3.05943E+06    -1.50878E+06    -8.35465E-03     15.4725E-03    -7.11789E-03     2.16425E-03    -8.31924E-03     15.2619E-03    -7.05797E-03     2.14403E-03
            2301     4.46976E-03     8.71070E-03    -7.98893E+06    -44.2011E+06    -5.15270E+06    -1.14653E+06    -7.78005E-03     14.6947E-03    -6.91462E-03     1.88172E-03    -7.74846E-03     14.4928E-03    -6.86471E-03     1.86638E-03
            2302     3.57641E-03     8.70910E-03    -8.95792E+06    -43.5010E+06    -6.80126E+06    -893.246E+03    -7.30928E-03     14.0557E-03    -6.74645E-03     1.61230E-03    -7.28115E-03     13.8611E-03    -6.70440E-03     1.60036E-03
            2303     2.68270E-03     8.70823E-03    -9.74894E+06    -42.1604E+06    -7.00273E+06    -789.388E+03    -6.93698E-03     13.5532E-03    -6.61627E-03     1.28970E-03    -6.91437E-03     13.3667E-03    -6.57602E-03     1.27917E-03
            2304     1.78863E-03     8.70742E-03    -10.7018E+06    -41.3146E+06    -7.84140E+06    -643.088E+03    -6.65791E-03     13.1737E-03    -6.51578E-03     925.374E-06    -6.64009E-03     12.9941E-03    -6.47956E-03     916.783E-06
            2305     894.394E-06     8.70714E-03    -12.1057E+06    -40.4219E+06    -11.0306E+06    -411.661E+03    -6.48972E-03     12.9149E-03    -6.42521E-03     520.068E-06    -6.47474E-03     12.7472E-03    -6.40419E-03     515.092E-06
            2306     16.8527E-03     8.02109E-03    -14.0496E+06     72.1059E+06     31.5259E+06     6.88483E+06    -39.6556E-03     54.6593E-03    -15.0037E-03     99.3109E-03    -40.7147E-03     55.8249E-03    -14.9303E-03     99.6886E-03
            2307     15.9840E-03     7.92144E-03     20.1326E+06     50.5311E+06     29.4244E+06     15.5625E+06    -35.5727E-03     49.3684E-03    -13.7957E-03     62.1349E-03    -35.8377E-03     49.7972E-03    -13.7510E-03     62.1974E-03
            2308     15.1069E-03     7.87436E-03     21.1075E+06     47.7258E+06     29.1232E+06     11.3282E+06    -30.1572E-03     42.8721E-03    -12.7149E-03     32.0535E-03    -30.2210E-03     43.0958E-03    -12.6691E-03     32.1014E-03
            2309     14.2335E-03     7.84553E-03     12.6487E+06     21.1886E+06     18.0256E+06     3.00309E+06    -26.5482E-03     38.2967E-03    -11.7486E-03     24.3845E-03    -26.5621E-03     38.3788E-03    -11.7075E-03     24.3733E-03
            2310     13.3553E-03     7.81630E-03     9.34931E+06    -7.52354E+06     12.1318E+06    -1.17437E+06    -23.1819E-03     34.0856E-03    -10.9037E-03     18.7361E-03    -23.1516E-03     34.0269E-03    -10.8457E-03     18.6919E-03
            2311     12.4747E-03     7.79849E-03     7.05412E+06    -23.2689E+06     14.5935E+06    -4.46818E+06    -20.0582E-03     30.2437E-03    -10.1855E-03     13.2631E-03    -20.0148E-03     30.1006E-03    -10.0890E-03     13.1891E-03
            2312     11.5910E-03     7.78317E-03     4.63596E+06    -27.8778E+06     16.3375E+06    -5.93993E+06    -17.1888E-03     26.7471E-03    -9.55831E-03     10.0809E-03    -17.1510E-03     26.5796E-03    -9.44292E-03     9.99494E-03
            2313     10.7053E-03     7.77325E-03     2.37982E+06    -39.9029E+06     14.5870E+06    -5.07971E+06    -14.8402E-03     23.8718E-03    -9.03154E-03     7.59771E-03    -14.7929E-03     23.6490E-03    -8.90420E-03     7.52615E-03
            2314     9.81757E-03     7.76524E-03     213.780E+03    -47.9125E+06     12.4718E+06    -3.89043E+06    -12.9055E-03     21.4982E-03    -8.59268E-03     5.87154E-03    -12.8538E-03     21.2410E-03    -8.46116E-03     5.81728E-03
            2315     8.92833E-03     7.76051E-03    -1.85784E+06    -49.2612E+06     7.82459E+06    -3.12115E+06    -11.3821E-03     19.5966E-03    -8.21451E-03     4.96264E-03    -11.3318E-03     19.3422E-03    -8.10127E-03     4.91955E-03
            2316     8.03783E-03     7.75623E-03    -3.70041E+06    -48.3616E+06     4.06414E+06    -2.64301E+06    -10.2355E-03     18.1396E-03    -7.90414E-03     4.47518E-03    -10.1900E-03     17.8976E-03    -7.80833E-03     4.43907E-03
            2317     7.14652E-03     7.75374E-03    -5.19150E+06     -47.334E+06     975.473E+03    -2.09757E+06    -9.34020E-03     16.9897E-03    -7.64954E-03     4.15906E-03    -9.29913E-03     16.7594E-03    -7.56850E-03     4.13054E-03
            2318     6.25443E-03     7.75134E-03    -6.77123E+06    -46.6828E+06    -1.83278E+06    -1.36073E+06    -8.63963E-03     16.0809E-03    -7.44124E-03     3.91157E-03    -8.60326E-03     15.8601E-03    -7.37289E-03     3.89298E-03
            2319     5.36183E-03     7.74992E-03    -7.69507E+06    -45.6874E+06    -3.68951E+06    -1.16405E+06    -8.10212E-03     15.3751E-03    -7.27300E-03     3.61119E-03    -8.06906E-03     15.1633E-03    -7.21404E-03     3.59543E-03
            2320     4.46874E-03     7.74855E-03    -8.32284E+06    -44.6521E+06    -5.02234E+06    -971.518E+03    -7.68005E-03     14.8184E-03    -7.13833E-03     3.24556E-03    -7.64965E-03     14.6145E-03    -7.08663E-03     3.23249E-03
            2321     3.57538E-03     7.74783E-03    -8.68757E+06    -43.6566E+06    -5.91801E+06    -956.423E+03    -7.35824E-03     14.3921E-03    -7.03391E-03     2.80471E-03    -7.32977E-03     14.1950E-03    -6.98760E-03     2.79197E-03
            2322     2.68168E-03     7.74707E-03    -9.25415E+06    -42.7298E+06    -6.41250E+06    -908.606E+03    -7.11878E-03     14.0771E-03    -6.95835E-03     2.24345E-03    -7.09369E-03     13.8861E-03    -6.91503E-03     2.23141E-03
            2323     1.78791E-03     7.74677E-03    -10.6327E+06    -42.3140E+06    -7.44521E+06    -451.992E+03    -6.96502E-03     13.8696E-03    -6.90454E-03     1.58499E-03    -6.94584E-03     13.6842E-03    -6.86499E-03     1.57893E-03
            2324     893.975E-06     7.74644E-03    -12.7106E+06    -40.6535E+06    -11.4357E+06     477.520E+03    -6.87240E-03     13.7225E-03    -6.85014E-03     872.294E-06    -6.85948E-03     13.5549E-03    -6.82994E-03     878.449E-06
            2325     16.8492E-03     7.00924E-03    -10.8303E+06     64.9644E+06     34.0945E+06    -3.72679E+06    -43.6507E-03     58.3623E-03    -14.7116E-03     101.205E-03    -44.6517E-03     59.4498E-03    -14.6196E-03     101.120E-03
            2326     15.9889E-03     6.93099E-03     6.70769E+06     39.1072E+06     29.9396E+06     2.35325E+06    -36.3109E-03     49.6995E-03    -13.3886E-03     60.8243E-03    -36.5852E-03     50.0488E-03    -13.3053E-03     60.6460E-03
            2327     15.1165E-03     6.88827E-03     22.5390E+06     53.0789E+06     36.3755E+06     11.7093E+06    -28.6170E-03     40.9135E-03    -12.2965E-03     31.8158E-03    -28.6769E-03     41.1368E-03    -12.2243E-03     31.8913E-03
            2328     14.2387E-03     6.85909E-03     22.4568E+06     30.4564E+06     27.9232E+06     10.4315E+06    -25.3817E-03     36.7642E-03    -11.3825E-03     22.0204E-03    -25.3709E-03     36.8604E-03    -11.3196E-03     22.1118E-03
            2329     13.3605E-03     6.83771E-03     15.6148E+06    -2.96625E+06     19.7614E+06     2.60173E+06    -21.9775E-03     32.5688E-03    -10.5914E-03     16.7197E-03    -21.9319E-03     32.5111E-03    -10.5109E-03     16.7283E-03
            2330     12.4778E-03     6.82132E-03     10.9290E+06    -19.5552E+06     21.1610E+06    -1.18752E+06    -18.4881E-03     28.4362E-03    -9.94809E-03     12.1250E-03    -18.4395E-03     28.2958E-03    -9.82978E-03     12.0960E-03
            2331     11.5933E-03     6.81110E-03     6.46650E+06    -28.3309E+06     21.3768E+06    -3.29982E+06    -15.6989E-03     25.1188E-03    -9.41988E-03     9.82508E-03    -15.6585E-03     24.9389E-03    -9.28129E-03     9.77436E-03
            2332     10.7061E-03     6.80257E-03     2.59411E+06    -40.9780E+06     16.6654E+06    -3.38964E+06    -13.4422E-03     22.4306E-03    -8.98835E-03     8.22954E-03    -13.3953E-03     22.1991E-03    -8.84937E-03     8.18047E-03
            2333     9.81723E-03     6.79787E-03    -150.622E+03    -49.5965E+06     11.4241E+06    -2.64307E+06    -11.7286E-03     20.3761E-03    -8.64745E-03     7.18505E-03    -11.6748E-03     20.1126E-03    -8.51820E-03     7.14729E-03
            2334     8.92690E-03     6.79392E-03    -2.41119E+06    -49.8120E+06     6.22485E+06    -1.89402E+06    -10.4743E-03     18.8491E-03    -8.37480E-03     6.75335E-03    -10.4237E-03     18.5951E-03    -8.26795E-03     6.72634E-03
            2335     8.03579E-03     6.79156E-03    -4.27055E+06    -49.1614E+06     1.51215E+06    -1.73899E+06    -9.58138E-03     17.7464E-03    -8.16499E-03     6.49140E-03    -9.53400E-03     17.5049E-03    -8.07995E-03     6.46712E-03
            2336     7.14384E-03     6.78942E-03    -5.94679E+06    -48.1381E+06    -251.105E+03    -1.22995E+06    -8.94869E-03     16.9646E-03    -8.01594E-03     6.17725E-03    -8.90850E-03     16.7332E-03    -7.93878E-03     6.16006E-03
            2337     6.25151E-03     6.78820E-03    -6.65027E+06    -46.8973E+06    -1.28666E+06    -1.35019E+06    -8.49561E-03     16.4002E-03    -7.90464E-03     5.82410E-03    -8.45915E-03     16.1774E-03    -7.83343E-03     5.80574E-03
            2338     5.35877E-03     6.78690E-03    -6.87361E+06    -45.9496E+06    -2.70918E+06    -1.46108E+06    -8.16875E-03     15.9890E-03    -7.82027E-03     5.30757E-03    -8.13267E-03     15.7733E-03    -7.75722E-03     5.28806E-03
            2339     4.46587E-03     6.78629E-03    -6.79906E+06    -45.0030E+06    -2.79937E+06    -1.61576E+06    -7.94821E-03     15.7141E-03    -7.76588E-03     4.67692E-03    -7.91295E-03     15.5030E-03    -7.70477E-03     4.65559E-03
            2340     3.57274E-03     6.78550E-03    -6.85944E+06    -44.1409E+06    -2.98703E+06    -1.47128E+06    -7.80931E-03     15.5388E-03    -7.72947E-03     3.91939E-03    -7.77532E-03     15.3324E-03    -7.67045E-03     3.90004E-03
            2341     2.67964E-03     6.78523E-03    -7.32221E+06    -43.5374E+06    -4.74027E+06    -1.02213E+06    -7.72151E-03     15.4223E-03    -7.70078E-03     3.03730E-03    -7.68808E-03     15.2220E-03    -7.65074E-03     3.02377E-03
            2342     1.78636E-03     6.78478E-03    -8.22157E+06    -43.5582E+06    -6.31967E+06    -141.518E+03    -7.67423E-03     15.3623E-03    -7.68810E-03     2.10697E-03    -7.64293E-03     15.1656E-03    -7.64462E-03     2.10486E-03
            2343     893.187E-06     6.78474E-03    -8.91261E+06    -40.1473E+06    -7.83880E+06     756.869E+03    -7.66695E-03     15.3473E-03    -7.68032E-03     1.14343E-03    -7.64123E-03     15.1715E-03    -7.64838E-03     1.15278E-03
            2344     16.8566E-03     6.00142E-03    -1.79350E+06     76.7181E+06     27.0070E+06    -4.18181E+06    -43.6959E-03     58.1212E-03    -14.4253E-03     94.0161E-03    -44.6321E-03     59.2456E-03    -14.3990E-03     93.7637E-03
            2345     15.9900E-03     5.93538E-03    -7.69172E+06     28.9769E+06    -763.145E+03    -14.2125E+06    -35.7772E-03     48.8120E-03    -13.0348E-03     49.3632E-03    -36.0564E-03     49.1698E-03    -13.0695E-03     48.9466E-03
            2346     15.1187E-03     5.90139E-03     1.57487E+06     33.4376E+06     24.5541E+06    -3.52057E+06    -28.6194E-03     40.6667E-03    -12.0473E-03     28.7603E-03    -28.7300E-03     40.8309E-03    -11.9753E-03     28.6457E-03
            2347     14.2425E-03     5.87653E-03     14.4965E+06     36.7478E+06     29.8782E+06     11.2891E+06    -23.9649E-03     35.1358E-03    -11.1709E-03     20.5048E-03    -24.0028E-03     35.2693E-03    -11.0958E-03     20.6144E-03
            2348     13.3620E-03     5.85835E-03     14.8988E+06     4.70181E+06     23.6674E+06     8.24470E+06    -20.0671E-03     30.5372E-03    -10.4700E-03     15.0935E-03    -20.0407E-03     30.5119E-03    -10.3801E-03     15.1792E-03
            2349     12.4788E-03     5.84782E-03     9.56913E+06    -16.1175E+06     23.7600E+06     2.58714E+06    -16.5048E-03     26.4595E-03    -9.95472E-03     12.4029E-03    -16.4713E-03     26.3341E-03    -9.82642E-03     12.4252E-03
            2350     11.5918E-03     5.83923E-03     5.18490E+06    -26.5659E+06     24.1080E+06     113.329E+03    -13.8724E-03     23.4463E-03    -9.57388E-03     11.3372E-03    -13.8449E-03     23.2731E-03    -9.42233E-03     11.3319E-03
            2351     10.7034E-03     5.83442E-03     1.15284E+06    -41.6722E+06     18.3916E+06    -1.22066E+06    -12.0209E-03     21.3070E-03    -9.28619E-03     10.4545E-03    -11.9826E-03     21.0717E-03    -9.13548E-03     10.4343E-03
            2352     9.81312E-03     5.83056E-03    -1.96444E+06    -50.1716E+06     11.5202E+06    -1.22568E+06    -10.7285E-03     19.8000E-03    -9.07152E-03     9.84294E-03    -10.6830E-03     19.5361E-03    -8.93832E-03     9.82405E-03
            2353     8.92218E-03     5.82847E-03    -3.54051E+06    -50.3225E+06     5.83419E+06    -1.41779E+06    -9.88936E-03     18.8039E-03    -8.91455E-03     9.41953E-03    -9.84307E-03     18.5495E-03    -8.80727E-03     9.39903E-03
            2354     8.03038E-03     5.82643E-03    -4.43494E+06    -49.6028E+06     2.29469E+06    -980.576E+03    -9.34223E-03     18.1553E-03    -8.81308E-03     8.95138E-03    -9.29615E-03     17.9107E-03    -8.72325E-03     8.93717E-03
            2355     7.13843E-03     5.82522E-03    -4.60346E+06    -47.9383E+06     1.34449E+06    -1.50819E+06    -9.01412E-03     17.7692E-03    -8.75505E-03     8.32983E-03    -8.96980E-03     17.5344E-03    -8.67214E-03     8.30925E-03
            2356     6.24618E-03     5.82396E-03    -4.40304E+06    -46.8125E+06     823.676E+03    -2.08848E+06    -8.81562E-03     17.5376E-03    -8.72197E-03     7.57524E-03    -8.77111E-03     17.3088E-03    -8.64359E-03     7.54749E-03
            2357     5.35390E-03     5.82325E-03    -3.87948E+06    -46.1194E+06     386.193E+03    -2.56414E+06    -8.70475E-03     17.4105E-03    -8.70579E-03     6.70678E-03    -8.65794E-03     17.1851E-03    -8.63136E-03     6.67311E-03
            2358     4.46148E-03     5.82243E-03    -3.64220E+06    -45.7283E+06     349.138E+03    -2.40499E+06    -8.66269E-03     17.3658E-03    -8.70307E-03     5.71456E-03    -8.61515E-03     17.1419E-03    -8.62973E-03     5.68309E-03
            2359     3.56918E-03     5.82198E-03    -4.02140E+06    -45.1797E+06    -789.184E+03    -1.95234E+06    -8.65000E-03     17.3517E-03    -8.70166E-03     4.64481E-03    -8.60349E-03     17.1327E-03    -8.63426E-03     4.61926E-03
            2360     2.67679E-03     5.82145E-03    -4.51553E+06    -44.6923E+06    -1.95326E+06    -1.25764E+06    -8.65905E-03     17.3628E-03    -8.70375E-03     3.51725E-03    -8.61392E-03     17.1486E-03    -8.64217E-03     3.50067E-03
            2361     1.78456E-03     5.82129E-03    -5.16409E+06    -44.6115E+06    -2.10924E+06    -415.982E+03    -8.67721E-03     17.3890E-03    -8.71176E-03     2.39540E-03    -8.63517E-03     17.1764E-03    -8.65013E-03     2.38965E-03
            2362     892.218E-06     5.82088E-03    -6.57109E+06    -39.7578E+06    -4.35271E+06    -79.5984E+03    -8.68107E-03     17.3846E-03    -8.70351E-03     1.29187E-03    -8.64903E-03     17.2023E-03    -8.65809E-03     1.29087E-03
            2363     16.8629E-03     4.99917E-03     1.60545E+06     82.5741E+06     24.5303E+06    -2.04185E+06    -44.7209E-03     58.9135E-03    -14.1927E-03     86.5327E-03    -45.5324E-03     59.9541E-03    -14.1921E-03     86.3060E-03
            2364     15.9960E-03     4.94235E-03    -3.49097E+06     35.5602E+06    -10.5907E+06    -8.92148E+06    -34.0121E-03     46.7777E-03    -12.7655E-03     41.0293E-03    -34.2127E-03     47.1237E-03    -12.8650E-03     40.7366E-03
            2365     15.1215E-03     4.91494E-03    -12.0880E+06     18.4494E+06     6.39515E+06    -11.5162E+06    -26.5829E-03     38.4687E-03    -11.8857E-03     24.5987E-03    -26.7054E-03     38.5956E-03    -11.8630E-03     24.3918E-03
            2366     14.2434E-03     4.89470E-03    -8.81742E+06     24.4416E+06     19.5284E+06    -1.60340E+06    -21.4186E-03     32.6068E-03    -11.1881E-03     19.8507E-03    -21.5378E-03     32.7252E-03    -11.1132E-03     19.8014E-03
            2367     13.3608E-03     4.88271E-03    -629.671E+03     11.5535E+06     21.8854E+06     7.83198E+06    -17.1990E-03     27.8643E-03    -10.6652E-03     16.3547E-03    -17.2565E-03     27.8973E-03    -10.5717E-03     16.4401E-03
            2368     12.4741E-03     4.87520E-03     866.724E+03    -11.9049E+06     21.5025E+06     4.15751E+06    -14.2438E-03     24.5751E-03    -10.3312E-03     15.3078E-03    -14.2564E-03     24.4863E-03    -10.2077E-03     15.3529E-03
            2369     11.5857E-03     4.87002E-03    -388.488E+03    -24.8476E+06     22.3953E+06     1.19995E+06    -12.3180E-03     22.4410E-03    -10.1230E-03     14.8005E-03    -12.3181E-03     22.2867E-03    -9.97448E-03     14.8107E-03
            2370     10.6955E-03     4.86613E-03    -1.91102E+06    -41.1524E+06     17.9844E+06     273.336E+03    -11.1189E-03     21.1031E-03    -9.98415E-03     13.7590E-03    -11.0960E-03     20.8751E-03    -9.83179E-03     13.7590E-03
            2371     9.80489E-03     4.86408E-03    -3.03516E+06    -49.4282E+06     11.9807E+06    -1.26530E+06    -10.4217E-03     20.3072E-03    -9.88545E-03     12.8795E-03    -10.3833E-03     20.0477E-03    -9.74947E-03     12.8608E-03
            2372     8.91358E-03     4.86200E-03    -3.44840E+06    -50.7361E+06     7.48905E+06    -1.71830E+06    -10.0265E-03     19.8481E-03    -9.82155E-03     11.9143E-03    -9.98149E-03     19.5889E-03    -9.70554E-03     11.8903E-03
            2373     8.02237E-03     4.86084E-03    -2.62935E+06     -49.129E+06     5.73838E+06    -2.53348E+06    -9.80754E-03     19.5975E-03    -9.78998E-03     10.9146E-03    -9.75806E-03     19.3476E-03    -9.68624E-03     10.8807E-03
            2374     7.13081E-03     4.85936E-03    -1.11262E+06    -47.8969E+06     4.34448E+06    -3.00734E+06    -9.70276E-03     19.4786E-03    -9.77589E-03     9.78343E-03    -9.64535E-03     19.2346E-03    -9.68310E-03     9.74371E-03
            2375     6.23938E-03     4.85855E-03    -46.7557E+03    -46.7362E+06     3.63295E+06    -3.37388E+06    -9.67114E-03     19.4469E-03    -9.77580E-03     8.56978E-03    -9.60901E-03     19.2081E-03    -9.68980E-03     8.52555E-03
            2376     5.34786E-03     4.85753E-03     167.743E+03    -46.8198E+06     3.16892E+06    -3.33499E+06    -9.68452E-03     19.4690E-03    -9.78450E-03     7.35287E-03    -9.62047E-03     19.2301E-03    -9.70101E-03     7.30931E-03
            2377     4.45652E-03     4.85691E-03    -56.0707E+03    -46.8998E+06     2.35471E+06    -2.85702E+06    -9.71150E-03     19.5046E-03    -9.79310E-03     6.10317E-03    -9.64721E-03     19.2667E-03    -9.71324E-03     6.06591E-03
            2378     3.56511E-03     4.85621E-03    -88.2149E+03    -46.2806E+06     1.51368E+06    -2.27299E+06    -9.73802E-03     19.5383E-03    -9.80024E-03     4.86523E-03    -9.67357E-03     19.3047E-03    -9.72543E-03     4.83561E-03
            2379     2.67384E-03     4.85585E-03    -426.455E+03    -46.1252E+06     1.70276E+06    -1.46376E+06    -9.77095E-03     19.5827E-03    -9.81177E-03     3.65165E-03    -9.70856E-03     19.3501E-03    -9.73576E-03     3.63255E-03
            2380     1.78250E-03     4.85536E-03    -1.74823E+06    -45.6111E+06     1.78186E+06    -770.131E+03    -9.79840E-03     19.6146E-03    -9.81617E-03     2.46797E-03    -9.74342E-03     19.3864E-03    -9.73858E-03     2.45783E-03
            2381     891.344E-06     4.85528E-03    -3.20932E+06    -40.0841E+06    -1.25694E+06    -772.921E+03    -9.77884E-03     19.5757E-03    -9.79689E-03     1.35380E-03    -9.73370E-03     19.3823E-03    -9.74040E-03     1.34360E-03
            2382     16.8611E-03     3.99148E-03    -6.06706E+06     85.5535E+06     29.2381E+06     209.159E+03    -45.0488E-03     59.2908E-03    -14.2420E-03     78.6813E-03    -45.7711E-03     60.2123E-03    -14.2111E-03     78.4298E-03
            2383     15.9966E-03     3.95190E-03    -12.0339E+06     41.9586E+06    -9.33943E+06    -1.79901E+06    -32.1917E-03     45.0199E-03    -12.8281E-03     36.2096E-03    -32.3959E-03     45.3586E-03    -12.9182E-03     36.0430E-03
            2384     15.1206E-03     3.93127E-03    -17.8845E+06     21.4637E+06    -2.16863E+06    -5.49532E+06    -22.9894E-03     35.0466E-03    -12.0571E-03     25.8936E-03    -23.1253E-03     35.2020E-03    -12.0731E-03     25.7826E-03
            2385     14.2378E-03     3.91719E-03    -25.0366E+06     13.9740E+06     4.69413E+06    -8.38274E+06    -17.7279E-03     29.3263E-03    -11.5984E-03     23.5473E-03    -17.8893E-03     29.4352E-03    -11.5589E-03     23.4196E-03
            2386     13.3513E-03     3.90928E-03    -20.7722E+06     6.46963E+06     9.79687E+06    -4.13438E+06    -14.6867E-03     26.0020E-03    -11.3153E-03     20.9580E-03    -14.8189E-03     26.0552E-03    -11.2456E-03     20.8939E-03
            2387     12.4630E-03     3.90462E-03    -11.4257E+06    -8.01709E+06     14.2724E+06     329.473E+03    -12.9696E-03     24.1253E-03    -11.1557E-03     19.5138E-03    -13.0382E-03     24.0836E-03    -11.0562E-03     19.5119E-03
            2388     11.5734E-03     3.90031E-03    -8.44872E+06    -25.1615E+06     13.4383E+06    -425.476E+03    -11.9529E-03     23.0134E-03    -11.0605E-03     18.0288E-03    -11.9795E-03     22.8817E-03    -10.9446E-03     18.0194E-03
            2389     10.6837E-03     3.89805E-03    -6.65844E+06    -38.7603E+06     8.68727E+06    -1.84161E+06    -11.3695E-03     22.3619E-03    -10.9924E-03     16.2297E-03    -11.3600E-03     22.1660E-03    -10.8831E-03     16.2034E-03
            2390     9.79329E-03     3.89572E-03    -4.11804E+06    -49.1118E+06     5.48707E+06    -3.38880E+06    -11.1316E-03     22.0864E-03    -10.9548E-03     14.5988E-03    -11.0895E-03     21.8393E-03    -10.8502E-03     14.5532E-03
            2391     8.90319E-03     3.89443E-03    -1.29758E+06    -50.1817E+06     5.50292E+06    -4.29789E+06    -11.0152E-03     21.9482E-03    -10.9330E-03     12.9706E-03    -10.9573E-03     21.6915E-03    -10.8308E-03     12.9137E-03
            2392     8.01270E-03     3.89284E-03     892.389E+03    -49.1031E+06     4.36322E+06    -4.77340E+06    -10.9425E-03     21.8537E-03    -10.9112E-03     11.4669E-03    -10.8734E-03     21.6007E-03    -10.8195E-03     11.4042E-03
            2393     7.12249E-03     3.89183E-03     2.16079E+06    -48.3703E+06     3.17063E+06    -4.85988E+06    -10.9057E-03     21.8023E-03    -10.8966E-03     9.98056E-03    -10.8295E-03     21.5527E-03    -10.8138E-03     9.91709E-03
            2394     6.23207E-03     3.89062E-03     3.07036E+06    -47.7298E+06     2.73151E+06    -4.25729E+06    -10.8958E-03     21.7852E-03    -10.8894E-03     8.52872E-03    -10.8153E-03     21.5381E-03    -10.8110E-03     8.47319E-03
            2395     5.34186E-03     3.88984E-03     3.36268E+06    -48.0792E+06     3.03990E+06    -3.39953E+06    -10.8940E-03     21.7832E-03    -10.8893E-03     7.15980E-03    -10.8119E-03     21.5335E-03    -10.8092E-03     7.11548E-03
            2396     4.45147E-03     3.88897E-03      3.4001E+06    -47.8150E+06     2.73395E+06    -2.95747E+06    -10.8883E-03     21.7747E-03    -10.8864E-03     5.86474E-03    -10.8059E-03     21.5266E-03    -10.8083E-03     5.82625E-03
            2397     3.56122E-03     3.88844E-03     3.25397E+06    -47.8890E+06     3.26654E+06    -2.32864E+06    -10.8913E-03     21.7797E-03    -10.8884E-03     4.62840E-03    -10.8103E-03     21.5307E-03    -10.8074E-03     4.59818E-03
            2398     2.67087E-03     3.88785E-03     2.64324E+06    -47.7713E+06     3.89245E+06    -1.17222E+06    -10.8915E-03     21.7812E-03    -10.8897E-03     3.44595E-03    -10.8145E-03     21.5327E-03    -10.8048E-03     3.43074E-03
            2399     1.78064E-03     3.88756E-03     2.10219E+06    -45.8781E+06     2.73553E+06    -830.026E+03    -10.8828E-03     21.7605E-03    -10.8777E-03     2.31154E-03    -10.8096E-03     21.5240E-03    -10.8005E-03     2.30075E-03
            2400     890.244E-06     3.88723E-03     2.13915E+06    -41.6059E+06     1.90086E+06    -1.17254E+06    -10.8603E-03     21.7324E-03    -10.8722E-03     1.24959E-03    -10.7905E-03     21.5191E-03    -10.8055E-03     1.23445E-03
            2401     16.8588E-03     2.98652E-03    -2.10616E+06     83.6411E+06     36.1508E+06     4.73569E+06    -42.6865E-03     57.2725E-03    -14.5860E-03     65.0306E-03    -43.2189E-03     57.9925E-03    -14.5235E-03     64.8326E-03
            2402     15.9882E-03     2.96193E-03    -10.5265E+06     46.6424E+06     2.46734E+06     6.04381E+06    -27.1816E-03     40.5773E-03    -13.3958E-03     32.5172E-03    -27.3616E-03     40.8797E-03    -13.4358E-03     32.5031E-03
            2403     15.1082E-03     2.95244E-03    -19.9402E+06      29.755E+06    -914.529E+03     547.495E+03    -19.5137E-03     32.3542E-03    -12.8405E-03     29.6390E-03    -19.6689E-03     32.5473E-03    -12.8593E-03     29.6196E-03
            2404     14.2220E-03     2.94243E-03    -21.4910E+06     17.8631E+06    -68.2747E+03    -8.86010E+06    -15.9538E-03     28.5104E-03    -12.5565E-03     28.1957E-03    -16.0939E-03     28.6377E-03    -12.5516E-03     28.0682E-03
            2405     13.3346E-03     2.93665E-03    -20.6024E+06    -543.427E+03    -1.56149E+06    -12.3929E+06    -14.4598E-03     26.8504E-03    -12.3906E-03     24.0783E-03    -14.5630E-03     26.8829E-03    -12.3678E-03     23.9109E-03
            2406     12.4468E-03     2.93259E-03    -17.6959E+06    -12.4831E+06    -1.15422E+06    -7.79851E+06    -13.6492E-03     25.9272E-03    -12.2779E-03     21.0755E-03    -13.7196E-03     25.8936E-03    -12.2399E-03     20.9703E-03
            2407     11.5587E-03     2.92960E-03    -11.6255E+06    -24.1693E+06    -3.49079E+06    -4.77244E+06    -13.0670E-03     25.2501E-03    -12.1831E-03     18.4026E-03    -13.0860E-03     25.1519E-03    -12.1486E-03     18.3381E-03
            2408     10.6698E-03     2.92727E-03    -7.68964E+06    -38.4608E+06    -8.47975E+06    -5.48951E+06    -12.7693E-03     24.8765E-03    -12.1072E-03     16.0417E-03    -12.7403E-03     24.7081E-03    -12.0827E-03     15.9688E-03
            2409     9.78130E-03     2.92553E-03    -4.65931E+06    -47.8057E+06    -11.2660E+06    -6.51158E+06    -12.6443E-03     24.6918E-03    -12.0476E-03     13.9460E-03    -12.5823E-03     24.4761E-03    -12.0278E-03     13.8606E-03
            2410     8.89233E-03     2.92387E-03    -2.03212E+06    -51.0226E+06    -8.10905E+06    -7.16364E+06    -12.5159E-03     24.5297E-03    -12.0138E-03     12.0195E-03    -12.4406E-03     24.2894E-03    -11.9774E-03     11.9259E-03
            2411     8.00363E-03     2.92278E-03    -282.408E+03    -50.3231E+06    -5.73722E+06    -5.98667E+06    -12.3891E-03     24.3654E-03    -11.9763E-03     10.3547E-03    -12.3094E-03     24.1225E-03    -11.9316E-03     10.2766E-03
            2412     7.11448E-03     2.92151E-03     322.951E+03    -49.3781E+06    -6.46120E+06    -5.08874E+06    -12.2736E-03     24.2029E-03    -11.9293E-03     8.84971E-03    -12.1911E-03     23.9649E-03    -11.8904E-03     8.78340E-03
            2413     6.22551E-03     2.92064E-03     517.501E+03    -49.5196E+06    -5.22114E+06    -4.31650E+06    -12.1680E-03     24.0669E-03    -11.8989E-03     7.47433E-03    -12.0861E-03     23.8260E-03    -11.8540E-03     7.41812E-03
            2414     5.33622E-03     2.91969E-03     1.07505E+06    -49.5340E+06    -3.50824E+06    -3.31329E+06    -12.0737E-03     23.9488E-03    -11.8751E-03     6.21347E-03    -11.9914E-03     23.7046E-03    -11.8224E-03     6.17032E-03
            2415     4.44704E-03     2.91906E-03     1.35966E+06    -48.9089E+06    -1.77664E+06    -2.52961E+06    -11.9977E-03     23.8532E-03    -11.8555E-03     5.04345E-03    -11.9173E-03     23.6091E-03    -11.7954E-03     5.01055E-03
            2416     3.55765E-03     2.91839E-03     717.523E+03    -49.7948E+06     462.867E+03    -1.51215E+06    -11.9364E-03     23.7814E-03    -11.8450E-03     3.94599E-03    -11.8612E-03     23.5306E-03    -11.7715E-03     3.92635E-03
            2417     2.66836E-03     2.91798E-03    -297.751E+03    -48.7792E+06     1.33805E+06    -777.432E+03    -11.8740E-03     23.7025E-03    -11.8285E-03     2.91096E-03    -11.8065E-03     23.4569E-03    -11.7506E-03     2.90098E-03
            2418     1.77887E-03     2.91758E-03    -1.08278E+06    -45.8374E+06    -55.9122E+03    -750.206E+03    -11.8180E-03     23.6216E-03    -11.8036E-03     1.94643E-03    -11.7566E-03     23.3939E-03    -11.7359E-03     1.93692E-03
            2419     889.518E-06     2.91745E-03    -1.68109E+06    -43.3837E+06    -1.89040E+06    -761.852E+03    -11.7877E-03     23.5759E-03    -11.7882E-03     1.05377E-03    -11.7287E-03     23.3647E-03    -11.7323E-03     1.04392E-03
            2420     16.8505E-03     1.99066E-03    -4.29615E+06     77.4730E+06     35.6393E+06     8.51000E+06    -36.5358E-03     51.9752E-03    -15.4394E-03     57.9251E-03    -36.9211E-03     52.5199E-03    -15.3673E-03     57.8494E-03
            2421     15.9704E-03     1.97957E-03    -11.3063E+06     51.1333E+06     18.1177E+06     10.2783E+06    -23.7353E-03     38.3339E-03    -14.5986E-03     35.4150E-03    -23.9242E-03     38.6116E-03    -14.5658E-03     35.4962E-03
            2422     15.0853E-03     1.97401E-03    -6.91724E+06     42.2553E+06     7.61813E+06     212.976E+03    -19.5891E-03     33.7183E-03    -14.1292E-03     31.3011E-03    -19.7048E-03     33.9370E-03    -14.1424E-03     31.2857E-03
            2423     14.2014E-03     1.96594E-03    -5.58095E+06     23.1734E+06    -6.45422E+06    -8.93380E+06    -17.8576E-03     31.6510E-03    -13.7934E-03     27.2788E-03    -17.9135E-03     31.7878E-03    -13.8512E-03     27.1544E-03
            2424     13.3165E-03     1.96136E-03    -8.25149E+06    -2.58383E+06    -16.0265E+06    -10.8691E+06    -16.6092E-03     30.1677E-03    -13.5586E-03     21.6392E-03    -16.6251E-03     30.1914E-03    -13.6230E-03     21.4939E-03
            2425     12.4309E-03     1.95787E-03    -9.45699E+06    -17.0117E+06    -21.8190E+06    -11.2617E+06    -15.6900E-03     29.0603E-03    -13.3703E-03     17.9566E-03    -15.6819E-03     29.0213E-03    -13.4410E-03     17.8080E-03
            2426     11.5445E-03     1.95578E-03    -7.96335E+06    -26.8741E+06    -24.9119E+06    -9.14648E+06    -15.0777E-03     28.2954E-03    -13.2177E-03     15.1169E-03    -15.0430E-03     28.2091E-03    -13.2917E-03     14.9968E-03
            2427     10.6579E-03     1.95384E-03    -5.17582E+06    -39.0846E+06    -26.7563E+06    -6.87856E+06    -14.6638E-03     27.7573E-03    -13.0935E-03     12.7713E-03    -14.5946E-03     27.6084E-03    -13.1631E-03     12.6811E-03
            2428     9.77076E-03     1.95222E-03    -4.23642E+06    -47.5035E+06    -26.1936E+06    -6.84985E+06    -14.3042E-03     27.2971E-03    -12.9929E-03     10.7988E-03    -14.2187E-03     27.1038E-03    -13.0489E-03     10.7093E-03
            2429     8.88362E-03     1.95110E-03    -4.40972E+06    -52.3147E+06    -23.2358E+06    -6.69963E+06    -14.0010E-03     26.9133E-03    -12.9123E-03     9.19015E-03    -13.9137E-03     26.6919E-03    -12.9462E-03     9.10287E-03
            2430     7.99585E-03     1.95000E-03    -4.51759E+06    -52.8956E+06    -18.3885E+06    -5.69674E+06    -13.7290E-03     26.5730E-03    -12.8440E-03     7.80505E-03    -13.6483E-03     26.3417E-03    -12.8527E-03     7.73090E-03
            2431     7.10820E-03     1.94921E-03    -3.95914E+06    -50.7473E+06    -16.0938E+06    -4.15263E+06    -13.4693E-03     26.2369E-03    -12.7676E-03     6.61032E-03    -13.3922E-03     26.0122E-03    -12.7687E-03     6.55625E-03
            2432     6.22003E-03     1.94836E-03    -3.64418E+06    -51.1336E+06    -13.8915E+06    -3.30005E+06    -13.2470E-03     25.9522E-03    -12.7052E-03     5.54154E-03    -13.1710E-03     25.7219E-03    -12.6952E-03     5.49858E-03
            2433     5.33190E-03     1.94777E-03    -3.66958E+06    -50.8696E+06    -10.7672E+06    -2.61927E+06    -13.0554E-03     25.7120E-03    -12.6566E-03     4.57360E-03    -12.9844E-03     25.4785E-03    -12.6313E-03     4.53950E-03
            2434     4.44342E-03     1.94713E-03    -3.77713E+06    -50.5523E+06    -7.63621E+06    -1.58582E+06    -12.8938E-03     25.5107E-03    -12.6170E-03     3.69028E-03    -12.8282E-03     25.2744E-03    -12.5764E-03     3.66962E-03
            2435     3.55499E-03     1.94671E-03    -3.92538E+06    -50.9338E+06    -4.98610E+06    -706.696E+03    -12.7614E-03     25.3457E-03    -12.5842E-03     2.87272E-03    -12.6999E-03     25.1039E-03    -12.5296E-03     2.86356E-03
            2436     2.66628E-03     1.94630E-03    -4.10559E+06    -48.9286E+06    -3.55470E+06    -649.566E+03    -12.6446E-03     25.1957E-03    -12.5511E-03     2.10905E-03    -12.5889E-03     24.9620E-03    -12.4920E-03     2.10082E-03
            2437     1.77763E-03     1.94612E-03    -4.50408E+06    -46.4989E+06    -3.25699E+06    -597.011E+03    -12.5555E-03     25.0789E-03    -12.5234E-03     1.40876E-03    -12.5058E-03     24.8576E-03    -12.4657E-03     1.40149E-03
            2438     888.749E-06     1.94587E-03    -5.53697E+06    -44.1239E+06    -4.91461E+06     94.4180E+03    -12.5039E-03     25.0039E-03    -12.5000E-03     774.494E-06    -12.4586E-03     24.7993E-03    -12.4526E-03     775.609E-06
            2439     16.8120E-03     997.236E-06    -910.138E+03     75.4653E+06     43.5673E+06     9.81903E+06    -35.7278E-03     52.6182E-03    -16.8904E-03     45.9736E-03    -36.0084E-03     53.0375E-03    -16.7807E-03     45.9600E-03
            2440     15.9391E-03     994.344E-06     3.77730E+06     60.8163E+06     27.7701E+06     2.54364E+06    -27.0547E-03     43.0734E-03    -16.0187E-03     27.0918E-03    -27.1784E-03     43.3453E-03    -15.9735E-03     27.0920E-03
            2441     15.0636E-03     990.302E-06     6.94835E+06     48.2804E+06     1.38463E+06    -4.44861E+06    -24.0299E-03     39.3638E-03    -15.3339E-03     21.9461E-03    -24.0703E-03     39.5958E-03    -15.4071E-03     21.8793E-03
            2442     14.1839E-03     984.667E-06     6.29250E+06     25.0253E+06    -20.8175E+06    -3.65119E+06    -21.3619E-03     36.1656E-03    -14.8037E-03     17.2070E-03    -21.3377E-03     36.3128E-03    -14.9532E-03     17.1551E-03
            2443     13.3025E-03     981.909E-06     2.38319E+06    -747.595E+03    -33.1779E+06    -6.30610E+06    -19.2288E-03     33.6621E-03    -14.4334E-03     12.9509E-03    -19.1682E-03     33.7035E-03    -14.6016E-03     12.8667E-03
            2444     12.4191E-03     980.323E-06    -218.814E+03    -18.3391E+06    -40.6884E+06    -8.01436E+06    -17.8583E-03     32.0076E-03    -14.1493E-03     10.4187E-03    -17.7741E-03     31.9754E-03    -14.3259E-03     10.3135E-03
            2445     11.5347E-03     978.727E-06    -2.63683E+06    -30.9359E+06    -41.5678E+06    -6.75614E+06    -16.9084E-03     30.8469E-03    -13.9385E-03     8.50958E-03    -16.8165E-03     30.7564E-03    -14.0977E-03     8.42126E-03
            2446     10.6497E-03     977.619E-06    -4.55011E+06    -40.6801E+06    -39.9178E+06    -5.14268E+06    -16.1626E-03     29.9311E-03    -13.7685E-03     7.04929E-03    -16.0685E-03     29.7922E-03    -13.9025E-03     6.98209E-03
            2447     9.76402E-03     976.846E-06    -5.02585E+06    -48.4263E+06    -36.1188E+06    -3.92673E+06    -15.5407E-03     29.1719E-03    -13.6311E-03     5.90517E-03    -15.4433E-03     28.9894E-03    -13.7342E-03     5.85390E-03
            2448     8.87753E-03     976.059E-06    -5.67116E+06    -53.0514E+06    -32.2487E+06    -3.60358E+06    -15.0553E-03     28.5668E-03    -13.5116E-03     4.96957E-03    -14.9600E-03     28.3565E-03    -13.5876E-03     4.92261E-03
            2449     7.99107E-03     975.531E-06    -6.23264E+06    -54.5038E+06    -27.1101E+06    -3.50536E+06    -14.6445E-03     28.0547E-03    -13.4102E-03     4.19298E-03    -14.5573E-03     27.8305E-03    -13.4577E-03     4.14738E-03
            2450     7.10387E-03     975.033E-06    -6.60332E+06    -52.7844E+06    -21.9359E+06    -2.62386E+06    -14.2824E-03     27.6012E-03    -13.3188E-03     3.53709E-03    -14.2071E-03     27.3786E-03    -13.3424E-03     3.50295E-03
            2451     6.21666E-03     974.643E-06    -6.55282E+06    -51.8756E+06    -18.1824E+06    -1.66674E+06    -13.9746E-03     27.2091E-03    -13.2345E-03     2.95069E-03    -13.9058E-03     26.9855E-03    -13.2407E-03     2.92898E-03
            2452     5.32897E-03     974.240E-06    -6.47942E+06    -52.0526E+06    -14.2770E+06    -1.27760E+06    -13.7096E-03     26.8750E-03    -13.1653E-03     2.42513E-03    -13.6458E-03     26.6447E-03    -13.1519E-03     2.40848E-03
            2453     4.44124E-03     973.957E-06    -6.41992E+06    -51.8044E+06    -11.1949E+06    -622.636E+03    -13.4804E-03     26.5849E-03    -13.1046E-03     1.95227E-03    -13.4210E-03     26.3513E-03    -13.0761E-03     1.94417E-03
            2454     3.55315E-03     973.657E-06    -6.08650E+06    -51.1227E+06    -9.31685E+06    -437.024E+03    -13.2920E-03     26.3423E-03    -13.0503E-03     1.51645E-03    -13.2346E-03     26.1089E-03    -13.0140E-03     1.51082E-03
            2455     2.66506E-03     973.498E-06    -5.47886E+06    -48.9451E+06    -7.11120E+06    -626.885E+03    -13.1443E-03     26.1532E-03    -13.0089E-03     1.11331E-03    -13.0902E-03     25.9265E-03    -12.9656E-03     1.10541E-03
            2456     1.77671E-03     973.336E-06    -5.64666E+06    -47.5912E+06    -5.18591E+06    -275.782E+03    -13.0393E-03     26.0199E-03    -12.9807E-03     735.485E-06    -12.9908E-03     25.7976E-03    -12.9294E-03     732.188E-06
            2457     888.454E-06     973.293E-06    -6.56205E+06    -43.9814E+06    -5.81165E+06     411.866E+03    -12.9642E-03     25.9139E-03    -12.9497E-03     409.715E-06    -12.9226E-03     25.7130E-03    -12.9055E-03     416.120E-06


