********************************************************************************
Field Output Report, written Wed May 29 01:39:23 2024

Source 1
---------

   ODB: G:/Abaqus_calc_2019/1740/Vel_5/odb/zeides_2a_8_red_1500_cal_30_vel_5_fric_0100.odb
   Step: Step-1
   Frame: Increment  22945061: Step Time =    2.537

Loc 1 : Nodal values from source 1

Output sorted by column "Nodal Label".

Field Output reported at nodes for region: DIE_2A_8_D0_36-1.Region_1
   Computation algorithm: EXTRAPOLATE_COMPUTE_AVERAGE
   Averaged at nodes
   Averaging regions: ODB_REGIONS

      Node Label     COORD.COOR1     COORD.COOR2
                          @Loc 1          @Loc 1
-------------------------------------------------
               1     16.3673E-03     159.410E-03


Field Output reported at nodes for region: DIE_2A_8_D0_36-1.Region_2
   Computation algorithm: EXTRAPOLATE_COMPUTE_AVERAGE
   Averaged at nodes
   Averaging regions: ODB_REGIONS

      Node Label     COORD.COOR1     COORD.COOR2
                          @Loc 1          @Loc 1
-------------------------------------------------
               1     16.3673E-03     159.410E-03


Field Output reported at nodes for part: WIRE-1
   Computation algorithm: EXTRAPOLATE_COMPUTE_AVERAGE
   Averaged at nodes
   Averaging regions: ODB_REGIONS

      Node Label     COORD.COOR1     COORD.COOR2           S.S11           S.S22           S.S33           S.S12         PE.PE11         PE.PE22         PE.PE33         PE.PE12         LE.LE11         LE.LE22         LE.LE33         LE.LE12
                          @Loc 1          @Loc 1          @Loc 1          @Loc 1          @Loc 1          @Loc 1          @Loc 1          @Loc 1          @Loc 1          @Loc 1          @Loc 1          @Loc 1          @Loc 1          @Loc 1
-------------------------------------------------------------------------------------------------------------------------------------------------------------------------------------------------------------------------------------------------
               1     237.408E-09     75.6969E-03    -110.183E+06    -215.140E+06    -107.730E+06    -148.741E+03    -163.491E-03     328.126E-03    -164.636E-03     4.11349E-03    -163.483E-03     327.417E-03    -164.702E-03     4.08844E-03
               2     15.2832E-03     76.8465E-03    -2.86335E+06     76.5007E+06     88.3509E+06      877.18E+03    -163.302E-03     327.285E-03    -163.983E-03     55.1622E-03    -163.710E-03     327.698E-03    -163.648E-03     52.9582E-03
               3     15.3023E-03     153.255E-03    -26.2982E+06     26.7379E+06     35.3990E+06    -16.6692E+06    -109.337E-03     272.934E-03    -163.597E-03     37.7113E-03    -109.554E-03     273.066E-03    -163.420E-03     37.4374E-03
               4    -14.9308E-06     151.613E-03     43.0519E+06    -10.2314E+06     32.3787E+06    -3.66144E+06    -176.769E-03     363.273E-03    -186.504E-03    -3.03315E-03    -176.487E-03     363.509E-03    -186.389E-03    -3.15703E-03
               5     2.79360E-06    -319.189E-18    -61.1826E+06    -215.750E+06    -65.1973E+06    -670.594E+03    -144.037E-03     286.665E-03    -142.628E-03    -1.99980E-03    -143.700E-03     285.781E-03    -142.553E-03    -1.98028E-03
               6     15.1736E-03    -319.189E-18    -8.11956E+06     78.4442E+06     88.6827E+06     2.94877E+06    -291.990E-03     458.014E-03    -166.024E-03     84.8306E-03    -292.583E-03     458.619E-03    -165.682E-03     80.6756E-03
               7     765.284E-06     75.7047E-03    -108.323E+06    -206.603E+06    -105.245E+06    -993.092E+03    -164.339E-03     328.856E-03    -164.518E-03     6.55814E-03    -164.372E-03     328.149E-03    -164.587E-03     6.52999E-03
               8     1.52636E-03     75.7171E-03    -107.352E+06    -196.630E+06    -101.289E+06    -2.63909E+06    -165.034E-03     329.560E-03    -164.526E-03     11.0794E-03    -165.114E-03     328.857E-03    -164.592E-03     11.0636E-03
               9     2.28777E-03     75.7335E-03    -103.234E+06    -187.590E+06    -92.4425E+06    -2.90584E+06    -164.289E-03     328.898E-03    -164.609E-03     16.4305E-03    -164.373E-03     328.218E-03    -164.649E-03     16.4151E-03
              10     3.05366E-03     75.7590E-03    -97.3846E+06    -172.145E+06    -78.3198E+06    -1.36832E+06    -163.717E-03     328.198E-03    -164.481E-03     22.5522E-03    -163.821E-03     327.573E-03    -164.482E-03     22.4984E-03
              11     3.81893E-03     75.7901E-03    -90.7808E+06    -154.500E+06    -61.0369E+06    -1.37261E+06    -163.803E-03     328.165E-03    -164.362E-03     27.2333E-03    -163.933E-03     327.602E-03    -164.312E-03     27.1392E-03
              12     4.58272E-03     75.8291E-03    -85.5858E+06    -139.148E+06    -46.2055E+06    -1.36962E+06    -163.918E-03     328.220E-03    -164.301E-03     31.8927E-03    -164.073E-03     327.711E-03    -164.206E-03     31.7437E-03
              13     5.34637E-03     75.8748E-03    -80.3162E+06    -121.858E+06    -32.2648E+06     950.796E+03    -164.162E-03     328.439E-03    -164.276E-03     37.1039E-03    -164.345E-03     327.998E-03    -164.144E-03     36.9175E-03
              14     6.10986E-03     75.9253E-03    -67.5582E+06    -96.5366E+06    -13.0752E+06     1.28756E+06    -164.163E-03     328.436E-03    -164.273E-03     42.3723E-03    -164.357E-03     328.085E-03    -164.100E-03     42.0670E-03
              15     6.87393E-03     75.9836E-03    -65.7963E+06    -80.4695E+06    -6.26863E+06    -430.817E+03    -163.616E-03     327.819E-03    -164.203E-03     47.5839E-03    -163.842E-03     327.544E-03    -164.023E-03     47.0888E-03
              16     7.64068E-03     76.0484E-03    -62.6288E+06    -65.0182E+06     967.425E+03    -2.14447E+06    -163.461E-03     327.563E-03    -164.102E-03     51.9667E-03    -163.722E-03     327.368E-03    -163.912E-03     51.2461E-03
              17     8.40387E-03     76.1130E-03    -50.8486E+06    -30.7675E+06     19.7906E+06     2.10045E+06    -164.402E-03     328.466E-03    -164.064E-03     55.4411E-03    -164.703E-03     328.420E-03    -163.846E-03     54.5516E-03
              18     9.16816E-03     76.1868E-03    -41.8714E+06     6.81950E+06     36.2095E+06     2.16993E+06    -164.914E-03     328.993E-03    -164.079E-03     58.4652E-03    -165.272E-03     329.122E-03    -163.847E-03     57.3028E-03
              19     9.93051E-03     76.2653E-03    -36.5352E+06     27.8091E+06     41.0664E+06    -3.09953E+06    -164.041E-03     328.089E-03    -164.048E-03     62.2593E-03    -164.435E-03     328.333E-03    -163.830E-03     60.7923E-03
              20     10.6981E-03     76.3453E-03    -34.8736E+06     34.3828E+06     44.3736E+06    -2.82622E+06    -163.889E-03     327.883E-03    -163.994E-03     64.9488E-03    -164.318E-03     328.182E-03    -163.771E-03     63.2241E-03
              21     11.4619E-03     76.4246E-03    -31.4619E+06     37.0973E+06     52.8227E+06    -2.07992E+06    -164.702E-03     328.695E-03    -163.992E-03     67.3595E-03    -165.156E-03     329.015E-03    -163.736E-03     65.3957E-03
              22     12.2243E-03     76.5194E-03    -25.2512E+06     45.9627E+06     60.6564E+06    -1.84033E+06    -164.637E-03     328.637E-03    -164.000E-03     68.2798E-03    -165.103E-03     329.000E-03    -163.727E-03     66.1244E-03
              23     12.9890E-03     76.6031E-03    -15.5436E+06     63.4951E+06     73.8075E+06    -1.05630E+06    -164.168E-03     328.171E-03    -164.002E-03     68.7709E-03    -164.653E-03     328.611E-03    -163.703E-03     66.3946E-03
              24     13.7552E-03     76.6912E-03    -10.5052E+06     71.4447E+06     82.0905E+06     150.266E+03    -164.444E-03     328.443E-03    -163.998E-03     68.6585E-03    -164.943E-03     328.920E-03    -163.676E-03     66.1110E-03
              25     14.5172E-03     76.7692E-03    -6.69451E+06     73.1981E+06     85.4889E+06     670.777E+03    -164.052E-03     328.041E-03    -163.989E-03     61.1129E-03    -164.508E-03     328.485E-03    -163.658E-03     58.6796E-03
              26     15.2827E-03     78.1503E-03    -2.20593E+06     78.7130E+06     88.6575E+06     514.759E+03    -164.248E-03     328.247E-03    -163.998E-03     52.2711E-03    -164.663E-03     328.677E-03    -163.666E-03     49.8939E-03
              27     15.2811E-03     79.4749E-03    -3.64079E+06     76.0025E+06     84.8777E+06    -534.326E+03    -165.400E-03     329.435E-03    -164.035E-03     53.6129E-03    -165.816E-03     329.863E-03    -163.716E-03     51.2068E-03
              28     15.2802E-03     80.7975E-03    -402.553E+03     79.0921E+06     88.4959E+06     206.473E+03    -164.123E-03     328.260E-03    -164.137E-03     60.4882E-03    -164.560E-03     328.720E-03    -163.808E-03     58.0380E-03
              29     15.2804E-03     82.1104E-03     302.370E+03     80.6550E+06     86.6931E+06     1.16312E+06    -162.647E-03     326.793E-03    -164.146E-03     62.4292E-03    -163.097E-03     327.279E-03    -163.830E-03     59.8922E-03
              30     15.2819E-03     83.4199E-03    -2.69636E+06     79.5794E+06     84.6514E+06    -421.766E+03    -163.956E-03     328.047E-03    -164.091E-03     60.5078E-03    -164.395E-03     328.513E-03    -163.779E-03     58.1016E-03
              31     15.2797E-03     84.7412E-03    -2.90852E+06     79.3238E+06     84.5731E+06    -1.78976E+06    -165.099E-03     329.158E-03    -164.059E-03     59.2564E-03    -165.523E-03     329.608E-03    -163.747E-03     56.9399E-03
              32     15.2827E-03     86.0542E-03    -1.67062E+06     79.2632E+06     84.0781E+06     148.070E+03    -163.744E-03     327.817E-03    -164.074E-03     58.3495E-03    -164.162E-03     328.268E-03    -163.766E-03     56.0252E-03
              33     15.2797E-03     87.3706E-03    -2.03968E+06     80.2851E+06     87.4108E+06     919.879E+03    -162.728E-03     326.822E-03    -164.094E-03     58.5181E-03    -163.159E-03     327.278E-03    -163.771E-03     56.1744E-03
              34     15.2840E-03     88.6803E-03    -187.995E+03     83.4980E+06     90.0108E+06     1.26189E+06    -163.008E-03     327.035E-03    -164.027E-03     58.2721E-03    -163.440E-03     327.501E-03    -163.697E-03     55.9005E-03
              35     15.2824E-03     89.9966E-03    -4.75779E+06     80.8025E+06     87.4008E+06    -1.32950E+06    -166.128E-03     330.151E-03    -164.023E-03     55.8513E-03    -166.579E-03     330.619E-03    -163.696E-03     53.2990E-03
              36     15.2764E-03     91.3245E-03    -7.30206E+06     78.7568E+06     84.6182E+06     24.9937E+03    -165.345E-03     329.484E-03    -164.140E-03     59.1323E-03    -165.810E-03     329.958E-03    -163.820E-03     56.6185E-03
              37     15.2840E-03     92.6326E-03     806.629E+03     84.6719E+06     88.2228E+06     3.46053E+06    -161.479E-03     325.577E-03    -164.098E-03     63.6440E-03    -161.919E-03     326.066E-03    -163.781E-03     61.3221E-03
              38     15.2833E-03     93.9437E-03     720.846E+03     86.5216E+06     92.0162E+06    -1.12647E+06    -164.099E-03     328.089E-03    -163.990E-03     59.6131E-03    -164.543E-03     328.576E-03    -163.656E-03     57.1375E-03
              39     15.2802E-03     95.2670E-03    -3.38065E+06     85.3726E+06     90.1900E+06    -419.947E+03    -165.281E-03     329.318E-03    -164.038E-03     56.3728E-03    -165.738E-03     329.806E-03    -163.706E-03     53.8440E-03
              40     15.2821E-03     96.5750E-03     636.891E+03     88.8428E+06     89.7101E+06     452.492E+03    -162.755E-03     326.829E-03    -164.075E-03     56.3439E-03    -163.201E-03     327.334E-03    -163.756E-03     53.7964E-03
              41     15.2823E-03     97.8897E-03     1.23156E+06     89.5005E+06     90.7255E+06    -2.16998E+06    -163.811E-03     327.823E-03    -164.012E-03     57.6769E-03    -164.261E-03     328.332E-03    -163.690E-03     55.0704E-03
              42     15.2824E-03     99.2129E-03    -9.46579E+06     82.1878E+06     86.3535E+06     1.50981E+06    -166.091E-03     330.130E-03    -164.038E-03     58.2368E-03    -166.573E-03     330.620E-03    -163.712E-03     55.7327E-03
              43     15.2772E-03     100.532E-03    -10.3457E+06     84.6302E+06     87.7825E+06     5.62469E+06    -164.494E-03     328.677E-03    -164.183E-03     59.5434E-03    -164.979E-03     329.172E-03    -163.852E-03     57.2308E-03
              44     15.2817E-03     101.843E-03     1.76184E+06     95.4372E+06     95.0353E+06     2.44226E+06    -161.311E-03     325.461E-03    -164.150E-03     64.7080E-03    -161.756E-03     325.976E-03    -163.816E-03     62.5651E-03
              45     15.2853E-03     103.155E-03     3.25402E+06     96.4713E+06     95.7707E+06    -2.76798E+06    -162.661E-03     326.605E-03    -163.944E-03     64.1402E-03    -163.091E-03     327.112E-03    -163.610E-03     61.9956E-03
              46     15.2838E-03     104.472E-03     619.209E+03     95.2397E+06     98.0705E+06    -1.69651E+06    -164.248E-03     328.105E-03    -163.857E-03     61.0390E-03    -164.683E-03     328.596E-03    -163.505E-03     58.9185E-03
              47     15.2869E-03     105.786E-03    -3.05716E+06     95.5525E+06     98.5548E+06     1.95121E+06    -163.774E-03     327.610E-03    -163.836E-03     62.1615E-03    -164.234E-03     328.112E-03    -163.477E-03     60.0835E-03
              48     15.2847E-03     107.104E-03    -4.13706E+06     98.9119E+06     99.1429E+06    -1.18570E+06    -164.336E-03     328.178E-03    -163.842E-03     59.8428E-03    -164.811E-03     328.702E-03    -163.484E-03     57.6284E-03
              49     15.2845E-03     108.413E-03    -2.40617E+06     100.072E+06     100.032E+06     431.657E+03    -163.251E-03     327.075E-03    -163.824E-03     59.6623E-03    -163.722E-03     327.603E-03    -163.466E-03     57.4432E-03
              50     15.2898E-03     109.729E-03    -3.24859E+06     99.9198E+06     98.4541E+06     1.76713E+06    -162.759E-03     326.415E-03    -163.657E-03     62.7206E-03    -163.236E-03     326.951E-03    -163.305E-03     60.5457E-03
              51     15.2900E-03     111.046E-03    -2.06354E+06     104.027E+06     100.395E+06    -1.13522E+06    -164.137E-03     327.665E-03    -163.528E-03     61.2166E-03    -164.607E-03     328.206E-03    -163.174E-03     59.0608E-03
              52     15.2899E-03     112.359E-03    -2.25921E+06     106.675E+06     101.677E+06     404.064E+03    -164.015E-03     327.544E-03    -163.529E-03     59.9609E-03    -164.492E-03     328.097E-03    -163.172E-03     57.7991E-03
              53     15.2900E-03     113.676E-03    -3.03045E+06     107.647E+06     101.786E+06     1.21711E+06    -162.947E-03     326.474E-03    -163.528E-03     61.1782E-03    -163.445E-03     327.049E-03    -163.170E-03     58.9151E-03
              54     15.2917E-03     114.986E-03    -2.38200E+06     109.895E+06     102.792E+06     1.34483E+06    -162.221E-03     325.695E-03    -163.474E-03     60.9631E-03    -162.723E-03     326.281E-03    -163.116E-03     58.7026E-03
              55     15.2926E-03     116.298E-03    -2.74439E+06     111.647E+06     103.584E+06     272.827E+03    -162.096E-03     325.508E-03    -163.411E-03     59.6411E-03    -162.597E-03     326.095E-03    -163.051E-03     57.3966E-03
              56     15.2930E-03     117.611E-03    -2.54785E+06     113.822E+06     104.817E+06     568.072E+03    -162.316E-03     325.660E-03    -163.345E-03     59.7472E-03    -162.819E-03     326.255E-03    -162.982E-03     57.5046E-03
              57     15.2951E-03     118.922E-03    -3.00823E+06     116.068E+06     105.666E+06     1.02987E+06    -162.999E-03     326.270E-03    -163.271E-03     59.5286E-03    -163.509E-03     326.874E-03    -162.906E-03     57.3029E-03
              58     15.2940E-03     120.239E-03    -4.44628E+06     117.051E+06     105.611E+06     1.28115E+06    -162.707E-03     325.939E-03    -163.232E-03     59.8721E-03    -163.230E-03     326.555E-03    -162.867E-03     57.6351E-03
              59     15.2969E-03     121.550E-03    -1.27101E+06     120.796E+06     109.054E+06     252.168E+03    -161.864E-03     325.045E-03    -163.181E-03     61.2056E-03    -162.386E-03     325.675E-03    -162.809E-03     58.9451E-03
              60     15.2970E-03     122.861E-03    -1.88891E+06     122.005E+06     110.103E+06    -120.142E+03    -162.470E-03     325.572E-03    -163.102E-03     60.0902E-03    -162.991E-03     326.201E-03    -162.726E-03     57.8596E-03
              61     15.2978E-03     124.176E-03    -3.51559E+06     121.612E+06     109.863E+06     661.875E+03    -162.508E-03     325.569E-03    -163.061E-03     59.9599E-03    -163.038E-03     326.199E-03    -162.683E-03     57.7461E-03
              62     15.2986E-03     125.487E-03    -2.88050E+06     122.445E+06     111.996E+06     13.5804E+03    -162.314E-03     325.342E-03    -163.028E-03     61.0116E-03    -162.850E-03     325.979E-03    -162.642E-03     58.7556E-03
              63     15.2991E-03     126.800E-03    -2.99859E+06     122.309E+06     112.362E+06     94.7010E+03    -162.718E-03     325.701E-03    -162.983E-03     61.6348E-03    -163.256E-03     326.337E-03    -162.594E-03     59.3802E-03
              64     15.2996E-03     128.114E-03    -3.35612E+06     120.745E+06     111.133E+06    -880.878E+03    -163.034E-03     325.972E-03    -162.938E-03     62.8722E-03    -163.574E-03     326.607E-03    -162.552E-03     60.5991E-03
              65     15.3000E-03     129.427E-03    -2.37829E+06     118.807E+06     111.322E+06    -545.671E+03    -163.815E-03     326.701E-03    -162.885E-03     63.3685E-03    -164.347E-03     327.322E-03    -162.497E-03     61.1195E-03
              66     15.3008E-03     130.742E-03    -3.85064E+06     116.687E+06     111.602E+06    -233.066E+03    -164.553E-03     327.372E-03    -162.820E-03     64.1186E-03    -165.088E-03     327.984E-03    -162.425E-03     61.8903E-03
              67     15.3021E-03     132.058E-03    -2.50668E+06     112.887E+06     110.737E+06    -1.58261E+06    -165.239E-03     327.974E-03    -162.735E-03     64.9893E-03    -165.762E-03     328.568E-03    -162.341E-03     62.7393E-03
              68     15.3028E-03     133.373E-03    -2.81691E+06     106.081E+06     107.132E+06    -2.20914E+06    -166.454E-03     329.104E-03    -162.650E-03     65.1906E-03    -166.962E-03     329.668E-03    -162.264E-03     62.9430E-03
              69     15.3029E-03     134.693E-03    -2.53609E+06     98.0930E+06     102.909E+06    -1.96611E+06    -168.039E-03     330.615E-03    -162.576E-03     66.9418E-03    -168.535E-03     331.152E-03    -162.200E-03     64.6587E-03
              70     15.3035E-03     136.013E-03    -2.98862E+06     89.8373E+06     98.0020E+06    -2.57920E+06    -170.358E-03     332.844E-03    -162.486E-03     68.7710E-03    -170.840E-03     333.351E-03    -162.122E-03     66.4626E-03
              71     15.3035E-03     137.337E-03    -1.77578E+06     81.6546E+06     93.6050E+06    -2.04958E+06    -173.429E-03     335.810E-03    -162.381E-03     69.3510E-03    -173.879E-03     336.272E-03    -162.029E-03     67.1146E-03
              72     15.3039E-03     138.666E-03    -2.89799E+06     75.4132E+06     89.4202E+06    -1.75359E+06    -175.837E-03     338.139E-03    -162.302E-03     70.0944E-03    -176.270E-03     338.571E-03    -161.960E-03     67.9271E-03
              73     15.3036E-03     139.996E-03    -1.53776E+06     69.7793E+06     88.0139E+06    -1.29680E+06    -178.173E-03     340.409E-03    -162.235E-03     72.9685E-03    -178.598E-03     340.820E-03    -161.894E-03     70.7623E-03
              74     15.3045E-03     141.331E-03    -3.08524E+06     62.8797E+06     87.4015E+06    -2.29800E+06    -180.794E-03     342.954E-03    -162.160E-03     74.6650E-03    -181.216E-03     343.335E-03    -161.810E-03     72.4472E-03
              75     15.3042E-03     142.667E-03    -869.152E+03     55.6476E+06     87.8374E+06    -1.81312E+06    -182.518E-03     344.617E-03    -162.099E-03     76.0073E-03    -182.920E-03     344.959E-03    -161.740E-03     73.7995E-03
              76     15.3056E-03     144.006E-03    -4.89922E+06      43.753E+06     85.4210E+06    -4.69818E+06    -185.121E-03     347.132E-03    -162.012E-03     78.5415E-03    -185.527E-03     347.429E-03    -161.641E-03     76.2801E-03
              77     15.3054E-03     145.347E-03      317.51E+03     32.0361E+06     87.6875E+06    -3.23098E+06    -187.638E-03     349.557E-03    -161.919E-03     76.9406E-03    -187.979E-03     349.758E-03    -161.527E-03     74.8982E-03
              78     15.3075E-03     146.690E-03    -4.34645E+06     19.6676E+06     87.4998E+06    -3.88038E+06    -188.341E-03     350.207E-03    -161.866E-03     78.2711E-03    -188.678E-03     350.345E-03    -161.451E-03     76.3203E-03
              79     15.3071E-03     148.041E-03     1.80051E+06     11.7553E+06     91.9557E+06    -671.780E+03    -187.447E-03     349.294E-03    -161.846E-03     83.8666E-03    -187.774E-03     349.402E-03    -161.406E-03     81.8339E-03
              80     15.3102E-03     149.382E-03    -2.52648E+06     15.9437E+06     90.1154E+06     1.61179E+06    -183.228E-03     345.106E-03    -161.878E-03     84.0801E-03    -183.566E-03     345.231E-03    -161.447E-03     82.2519E-03
              81     15.3082E-03     150.710E-03     433.614E+03     22.4947E+06     82.7580E+06     2.86450E+06    -171.394E-03     333.463E-03    -162.069E-03     75.8421E-03    -171.634E-03     333.545E-03    -161.689E-03     74.8726E-03
              82     15.3121E-03     152.015E-03     8.04735E+06     26.7568E+06     63.1537E+06    -1.57102E+06    -136.036E-03     298.950E-03    -162.913E-03     53.6299E-03    -136.140E-03     299.003E-03    -162.648E-03     53.3824E-03
              83     14.4684E-03     153.161E-03    -15.6302E+06    -11.2198E+06     41.6955E+06    -8.18542E+06    -112.158E-03     277.156E-03    -164.998E-03     19.1722E-03    -112.272E-03     277.080E-03    -164.750E-03     18.9002E-03
              84     13.6444E-03     153.035E-03    -4.44180E+06    -7.96567E+06     68.3321E+06     2.49980E+06    -116.566E-03     284.190E-03    -167.624E-03    -19.5945E-03    -116.661E-03     284.077E-03    -167.265E-03    -19.7421E-03
              85     12.8402E-03     152.899E-03    -4.54310E+06     9.64328E+06     85.9536E+06     739.454E+03    -120.094E-03     290.034E-03    -169.940E-03    -53.1396E-03    -120.247E-03     289.979E-03    -169.518E-03    -53.1499E-03
              86     12.0493E-03     152.767E-03    -2.39899E+06    -2.28485E+06     90.6747E+06    -4.62944E+06    -124.687E-03     296.704E-03    -172.017E-03    -75.0947E-03    -124.833E-03     296.584E-03    -171.556E-03    -75.0671E-03
              87     11.2661E-03     152.638E-03     2.65620E+06    -407.567E+03     97.9104E+06    -6.02715E+06    -130.325E-03     304.193E-03    -173.869E-03    -88.1689E-03    -130.461E-03     304.061E-03    -173.383E-03    -88.1602E-03
              88     10.4917E-03     152.510E-03     6.09144E+06    -2.62343E+06     100.631E+06    -7.10253E+06    -137.011E-03     312.482E-03    -175.471E-03    -95.2266E-03    -137.133E-03     312.316E-03    -174.973E-03    -95.2884E-03
              89     9.72789E-03     152.395E-03     7.95586E+06    -845.718E+03     101.105E+06    -7.93271E+06    -144.698E-03     321.496E-03    -176.798E-03    -97.8308E-03    -144.815E-03     321.329E-03    -176.303E-03    -97.9257E-03
              90     8.96737E-03     152.287E-03     9.34277E+06    -2.31236E+06     98.8127E+06    -7.88156E+06    -151.508E-03     329.363E-03    -177.855E-03    -96.4952E-03    -151.608E-03     329.186E-03    -177.371E-03    -96.6294E-03
              91     8.21122E-03     152.184E-03     10.8661E+06    -615.012E+03     96.9765E+06    -7.46300E+06    -156.699E-03     335.406E-03    -178.707E-03    -93.2708E-03    -156.791E-03     335.233E-03    -178.237E-03    -93.4187E-03
              92     7.45814E-03     152.091E-03     13.6340E+06    -1.23395E+06     94.2306E+06    -7.42296E+06    -161.340E-03     340.757E-03    -179.417E-03    -88.5939E-03    -161.414E-03     340.578E-03    -178.964E-03    -88.7647E-03
              93     6.70792E-03     152.008E-03     16.4985E+06    -709.677E+03     90.6206E+06    -8.17625E+06    -165.583E-03     345.587E-03    -180.004E-03    -82.4031E-03    -165.633E-03     345.406E-03    -179.574E-03    -82.6427E-03
              94     5.95887E-03     151.933E-03     18.9972E+06    -1.37817E+06     84.8643E+06    -8.80090E+06    -169.265E-03     349.739E-03    -180.474E-03    -76.3304E-03    -169.292E-03     349.559E-03    -180.075E-03    -76.5959E-03
              95     5.21092E-03     151.870E-03     21.0496E+06    -2.41947E+06     77.3956E+06    -9.07040E+06    -172.243E-03     353.080E-03    -180.837E-03    -69.4389E-03    -172.246E-03     352.902E-03    -180.477E-03    -69.7372E-03
              96     4.46333E-03     151.810E-03     24.4895E+06    -2.30913E+06     69.9038E+06    -8.89791E+06    -174.213E-03     355.362E-03    -181.149E-03    -60.7965E-03    -174.189E-03     355.189E-03    -180.832E-03    -61.1324E-03
              97     3.71746E-03     151.758E-03     28.1914E+06    -2.73154E+06     62.2750E+06    -9.19412E+06    -176.192E-03     357.662E-03    -181.470E-03    -52.8515E-03    -176.144E-03     357.490E-03    -181.195E-03    -53.1655E-03
              98     2.97399E-03     151.722E-03     31.6042E+06    -3.26492E+06     56.1915E+06    -8.55054E+06    -178.263E-03     360.052E-03    -181.789E-03    -43.9996E-03    -178.189E-03     359.888E-03    -181.549E-03    -44.2908E-03
              99     2.22758E-03     151.690E-03     37.0387E+06    -2.86788E+06     52.1477E+06    -6.95870E+06    -179.411E-03     361.562E-03    -182.151E-03    -34.7254E-03    -179.304E-03     361.403E-03    -181.940E-03    -34.9824E-03
             100     1.48194E-03     151.666E-03     39.8903E+06    -3.80466E+06     48.9135E+06    -5.77613E+06    -181.446E-03     363.833E-03    -182.387E-03    -25.8428E-03    -181.327E-03     363.670E-03    -182.195E-03    -26.0561E-03
             101     740.836E-06     151.652E-03     41.5025E+06    -6.75053E+06     40.3632E+06    -4.45917E+06    -179.951E-03     364.410E-03    -184.459E-03    -11.9782E-03    -179.753E-03     364.449E-03    -184.308E-03    -12.1447E-03
             102     7.74595E-06     150.262E-03     11.6754E+06    -16.2040E+06     17.2237E+06    -2.60090E+06    -170.896E-03     343.040E-03    -172.145E-03     2.07957E-03    -170.649E-03     343.184E-03    -172.052E-03     1.87285E-03
             103    -2.31270E-06     148.958E-03    -33.1002E+06    -35.1070E+06    -34.1884E+06    -5.11992E+06    -157.605E-03     312.621E-03    -155.016E-03     2.61838E-03    -157.505E-03     312.666E-03    -155.088E-03     2.46936E-03
             104     568.933E-09     147.686E-03    -91.7494E+06    -67.9038E+06    -93.5548E+06    -7.36723E+06    -150.029E-03     300.529E-03    -150.500E-03    -836.941E-06    -150.225E-03     300.561E-03    -150.736E-03    -784.661E-06
             105     391.875E-09     146.401E-03    -152.380E+06    -99.0231E+06    -148.990E+06    -4.90145E+06    -147.483E-03     295.700E-03    -148.216E-03     2.66363E-03    -147.842E-03     295.738E-03    -148.597E-03     2.73183E-03
             106    -2.53113E-06     145.122E-03    -196.172E+06    -119.406E+06    -197.607E+06    -3.46979E+06    -145.999E-03     292.011E-03    -146.012E-03     4.61854E-03    -146.431E-03     292.092E-03    -146.542E-03     4.70658E-03
             107     4.49118E-06     143.870E-03    -197.729E+06    -139.074E+06    -197.578E+06    -4.49823E+06    -149.240E-03     295.816E-03    -146.576E-03     6.91697E-03    -149.667E-03     295.813E-03    -147.076E-03     6.94702E-03
             108    -2.45048E-06     142.570E-03    -157.893E+06    -153.238E+06    -159.298E+06    -1.65680E+06    -151.134E-03     299.941E-03    -148.808E-03     8.38754E-03    -151.408E-03     299.754E-03    -149.153E-03     8.35445E-03
             109     3.88298E-06     141.298E-03    -130.523E+06    -158.703E+06    -130.042E+06    -424.980E+03    -150.157E-03     299.995E-03    -149.838E-03     5.48482E-03    -150.311E-03     299.694E-03    -150.069E-03     5.53628E-03
             110    -4.92975E-06     140.036E-03    -119.753E+06    -163.813E+06    -119.849E+06    -1.54839E+06    -151.133E-03     304.415E-03    -153.283E-03    -1.35583E-03    -151.251E-03     304.067E-03    -153.471E-03    -1.08970E-03
             111     2.55218E-06     138.732E-03    -118.449E+06    -170.801E+06    -118.089E+06    -1.49308E+06    -154.547E-03     309.676E-03    -155.129E-03     581.753E-06    -154.666E-03     309.286E-03    -155.300E-03     763.819E-06
             112    -1.17931E-06     137.433E-03    -118.648E+06    -180.150E+06    -119.678E+06    -2.28957E+06    -154.496E-03     310.763E-03    -156.267E-03     8.77701E-03    -154.593E-03     310.308E-03    -156.432E-03     8.64252E-03
             113    -3.06717E-06     136.141E-03    -123.335E+06    -189.946E+06    -122.277E+06    -1.54163E+06    -155.439E-03     312.228E-03    -156.789E-03     7.52291E-03    -155.547E-03     311.727E-03    -156.946E-03     7.41811E-03
             114     5.12215E-06     134.847E-03    -125.409E+06    -198.736E+06    -125.721E+06    -2.08309E+06    -158.327E-03     314.898E-03    -156.570E-03     6.81293E-03    -158.441E-03     314.361E-03    -156.729E-03     6.72606E-03
             115    -4.56599E-06     133.545E-03    -128.917E+06    -206.947E+06    -128.759E+06    -1.18611E+06    -159.179E-03     316.209E-03    -157.030E-03     4.39749E-03    -159.280E-03     315.642E-03    -157.187E-03     4.41978E-03
             116     7.21375E-06     132.250E-03    -129.408E+06    -212.514E+06    -130.919E+06    -1.09413E+06    -159.147E-03     316.281E-03    -157.134E-03    -177.474E-06    -159.221E-03     315.692E-03    -157.293E-03    -15.9775E-06
             117    -6.89053E-06     130.958E-03    -132.616E+06    -217.787E+06    -131.838E+06    -1.01301E+06    -158.888E-03     319.960E-03    -161.073E-03    -1.42312E-03    -158.984E-03     319.350E-03    -161.224E-03    -1.22245E-03
             118     3.14872E-06     129.640E-03    -134.682E+06    -222.341E+06    -133.936E+06    -515.618E+03    -161.973E-03     325.742E-03    -163.769E-03     3.50746E-03    -162.088E-03     325.109E-03    -163.921E-03     3.55112E-03
             119    -2.23117E-06     128.305E-03    -133.634E+06    -224.957E+06    -133.811E+06    -661.953E+03    -162.627E-03     324.474E-03    -161.847E-03     10.7126E-03    -162.734E-03     323.825E-03    -161.996E-03     10.4482E-03
             120     2.38394E-06     127.016E-03    -132.928E+06    -228.045E+06    -133.863E+06    -426.445E+03    -162.495E-03     323.701E-03    -161.206E-03     6.59679E-03    -162.594E-03     323.032E-03    -161.352E-03     6.49679E-03
             121    -669.922E-09     125.712E-03    -133.798E+06    -231.049E+06    -133.770E+06    -514.067E+03    -165.218E-03     329.245E-03    -164.027E-03     277.607E-06    -165.325E-03     328.553E-03    -164.167E-03     442.061E-06
             122     731.053E-09     124.380E-03    -133.268E+06    -233.078E+06    -133.251E+06    -420.462E+03    -165.563E-03     331.136E-03    -165.574E-03     74.4613E-06    -165.661E-03     330.435E-03    -165.709E-03     267.416E-06
             123    -861.327E-09     123.064E-03    -130.448E+06    -233.613E+06    -130.771E+06     130.034E+03    -164.295E-03     328.687E-03    -164.393E-03     1.65756E-03    -164.360E-03     327.987E-03    -164.519E-03     1.80514E-03
             124     751.501E-09     121.751E-03    -129.155E+06    -234.265E+06    -128.073E+06    -386.568E+03    -164.535E-03     328.788E-03    -164.253E-03     1.88442E-03    -164.587E-03     328.089E-03    -164.367E-03     1.97267E-03
             125    -307.122E-09     120.431E-03    -128.162E+06    -236.528E+06    -128.505E+06    -520.990E+03    -164.884E-03     329.518E-03    -164.634E-03     1.04637E-03    -164.931E-03     328.812E-03    -164.748E-03     1.15043E-03
             126     142.337E-09     119.116E-03    -126.740E+06    -237.437E+06    -126.498E+06     273.858E+03    -162.936E-03     328.375E-03    -165.439E-03     3.33618E-03    -162.967E-03     327.659E-03    -165.544E-03     3.40858E-03
             127    -3.92335E-06     117.794E-03    -124.214E+06    -236.720E+06    -123.914E+06     189.808E+03    -162.616E-03     326.554E-03    -163.938E-03     3.94655E-03    -162.630E-03     325.830E-03    -164.035E-03     3.93239E-03
             128     5.55804E-06     116.486E-03    -123.097E+06    -238.270E+06    -123.253E+06    -634.858E+03    -164.729E-03     326.405E-03    -161.676E-03     4.47217E-03    -164.753E-03     325.667E-03    -161.768E-03     4.39190E-03
             129    -2.62491E-06     115.176E-03    -124.005E+06    -240.686E+06    -124.448E+06    -343.845E+03    -163.743E-03     328.223E-03    -164.480E-03     4.40272E-03    -163.774E-03     327.471E-03    -164.574E-03     4.43726E-03
             130    -1.52881E-06     113.851E-03    -121.011E+06    -239.448E+06    -121.684E+06     786.703E+03    -163.070E-03     328.379E-03    -165.309E-03     3.37581E-03    -163.080E-03     327.622E-03    -165.395E-03     3.44576E-03
             131     2.14387E-06     112.540E-03    -119.810E+06    -237.376E+06    -117.966E+06     396.244E+03    -164.902E-03     327.551E-03    -162.649E-03     3.91370E-03    -164.914E-03     326.798E-03    -162.721E-03     3.93001E-03
             132     584.892E-09     111.227E-03    -116.840E+06    -234.349E+06    -117.099E+06     582.459E+03    -165.549E-03     328.055E-03    -162.506E-03     752.618E-06    -165.555E-03     327.312E-03    -162.582E-03     921.341E-06
             133     1.22368E-06     109.918E-03    -117.949E+06    -235.650E+06    -119.036E+06     671.619E+03    -164.509E-03     329.005E-03    -164.495E-03    -934.758E-06    -164.505E-03     328.257E-03    -164.578E-03    -731.754E-06
             134    -3.14256E-06     108.591E-03    -118.774E+06    -236.227E+06    -117.934E+06     27.9521E+03    -163.910E-03     329.381E-03    -165.471E-03     3.70411E-03    -163.910E-03     328.628E-03    -165.546E-03     3.70445E-03
             135     2.55062E-06     107.266E-03    -115.040E+06    -234.179E+06    -115.040E+06    -1.00712E+06    -164.657E-03     328.864E-03    -164.207E-03     8.61755E-03    -164.657E-03     328.110E-03    -164.276E-03     8.44402E-03
             136    -1.41405E-06     105.958E-03    -110.682E+06    -229.390E+06    -111.874E+06     2.05720E+06    -164.031E-03     327.902E-03    -163.872E-03     5.67745E-03    -164.021E-03     327.148E-03    -163.938E-03     5.65218E-03
             137     377.623E-09     104.649E-03    -101.724E+06    -214.146E+06    -100.610E+06     862.013E+03    -162.856E-03     327.821E-03    -164.965E-03     2.85823E-03    -162.839E-03     327.106E-03    -165.010E-03     2.90858E-03
             138    -2.66308E-06     103.324E-03    -107.365E+06    -221.753E+06    -110.488E+06    -3.97790E+06    -162.474E-03     327.575E-03    -165.101E-03     2.99722E-03    -162.471E-03     326.847E-03    -165.176E-03     2.98265E-03
             139     810.667E-09     102.020E-03    -118.130E+06    -237.895E+06    -118.178E+06    -845.355E+03    -163.915E-03     328.122E-03    -164.207E-03     3.36792E-03    -163.929E-03     327.340E-03    -164.281E-03     3.38531E-03
             140     495.110E-09     100.692E-03    -115.951E+06     -234.49E+06    -111.945E+06     1.30186E+06    -163.766E-03     327.929E-03    -164.162E-03     5.42022E-03    -163.771E-03     327.152E-03    -164.214E-03     5.37391E-03
             141    -2.49464E-06     99.3835E-03    -113.890E+06    -232.742E+06    -113.847E+06     2.82416E+06    -163.048E-03     327.277E-03    -164.229E-03     3.75178E-03    -163.046E-03     326.511E-03    -164.296E-03     3.80513E-03
             142     2.57483E-06     98.0749E-03    -116.266E+06    -231.106E+06    -116.006E+06    -548.103E+03    -164.947E-03     329.265E-03    -164.318E-03     1.36895E-03    -164.957E-03     328.510E-03    -164.394E-03     1.50850E-03
             143    -1.79637E-06     96.7479E-03    -109.810E+06    -227.120E+06    -110.788E+06     159.281E+03    -165.336E-03     329.804E-03    -164.468E-03     2.51320E-03    -165.319E-03     329.043E-03    -164.533E-03     2.57441E-03
             144     2.21269E-06     95.4330E-03    -108.749E+06    -228.483E+06    -108.931E+06     366.926E+03    -165.163E-03     328.833E-03    -163.670E-03     4.82441E-03    -165.148E-03     328.059E-03    -163.726E-03     4.77565E-03
             145    -469.095E-09     94.1144E-03    -114.085E+06    -233.133E+06    -114.225E+06    -2.67148E+06    -164.544E-03     327.625E-03    -163.081E-03     4.86132E-03    -164.549E-03     326.837E-03    -163.149E-03     4.77946E-03
             146     851.765E-09     92.8036E-03    -104.569E+06    -225.038E+06    -102.713E+06     3.78931E+06    -163.900E-03     327.513E-03    -163.613E-03     2.57920E-03    -163.879E-03     326.731E-03    -163.649E-03     2.68050E-03
             147    -883.403E-09     91.4956E-03    -101.422E+06    -219.294E+06    -101.998E+06     493.565E+03    -164.039E-03     329.622E-03    -165.583E-03     1.54660E-03    -164.007E-03     328.870E-03    -165.628E-03     1.68383E-03
             148    -1.55664E-06     90.1632E-03    -102.755E+06    -219.724E+06    -106.774E+06     1.59466E+06    -163.546E-03     329.454E-03    -165.907E-03     3.63197E-03    -163.513E-03     328.713E-03    -165.973E-03     3.71213E-03
             149     233.663E-09     88.8516E-03    -104.238E+06    -216.957E+06    -102.143E+06     64.8495E+03    -163.081E-03     327.156E-03    -164.075E-03     4.22146E-03    -163.064E-03     326.422E-03    -164.120E-03     4.23087E-03
             150    -533.651E-09     87.5430E-03    -104.669E+06    -221.930E+06    -108.105E+06    -3.83946E+06    -163.516E-03     327.392E-03    -163.876E-03     2.36738E-03    -163.485E-03     326.642E-03    -163.943E-03     2.40364E-03
             151     131.474E-09     86.2257E-03    -108.514E+06    -227.847E+06    -112.695E+06     4.32238E+06    -164.447E-03     329.049E-03    -164.601E-03     2.64996E-03    -164.419E-03     328.282E-03    -164.677E-03     2.75144E-03
             152    -127.799E-09     84.9029E-03    -109.902E+06    -221.420E+06    -104.565E+06     1.21907E+06    -164.072E-03     328.455E-03    -164.383E-03     4.89663E-03    -164.067E-03     327.712E-03    -164.426E-03     4.83106E-03
             153    -436.881E-09     83.5907E-03    -107.586E+06    -216.707E+06    -105.519E+06    -6.10260E+06    -163.717E-03     327.688E-03    -163.971E-03     6.77517E-03    -163.710E-03     326.966E-03    -164.028E-03     6.62760E-03
             154     491.854E-09     82.2718E-03    -113.172E+06    -225.748E+06    -112.871E+06    -447.505E+03    -163.936E-03     327.022E-03    -163.086E-03     4.64503E-03    -163.938E-03     326.271E-03    -163.159E-03     4.66418E-03
             155     629.991E-09     80.9676E-03    -104.734E+06    -217.027E+06    -104.608E+06     7.07049E+06    -163.126E-03     326.568E-03    -163.442E-03     2.54465E-03    -163.105E-03     325.835E-03    -163.499E-03     2.71557E-03
             156    -2.35179E-06     79.6519E-03    -106.130E+06    -211.000E+06    -105.187E+06    -1.85938E+06    -163.479E-03     327.697E-03    -164.218E-03     1.75518E-03    -163.469E-03     326.997E-03    -164.284E-03     1.78321E-03
             157     2.83431E-06     78.3305E-03    -108.401E+06    -219.607E+06    -110.400E+06    -2.46100E+06    -165.072E-03     329.117E-03    -164.045E-03     5.40149E-03    -165.054E-03     328.387E-03    -164.122E-03     5.34611E-03
             158    -1.91052E-06     77.0139E-03    -108.637E+06    -221.544E+06    -110.875E+06     2.62889E+06    -164.497E-03     329.373E-03    -164.877E-03     6.26477E-03    -164.474E-03     328.633E-03    -164.952E-03     6.23961E-03
             159    -429.836E-09     74.3858E-03    -119.707E+06    -219.961E+06    -116.273E+06    -923.863E+03    -164.758E-03     328.334E-03    -163.577E-03     2.72062E-03    -164.778E-03     327.632E-03    -163.665E-03     2.78768E-03
             160     2.31284E-06     73.0700E-03    -115.157E+06    -221.282E+06    -116.119E+06     1.03221E+06    -164.866E-03     328.803E-03    -163.937E-03     2.32554E-03    -164.867E-03     328.093E-03    -164.030E-03     2.36839E-03
             161    -2.92321E-06     71.7491E-03    -105.276E+06    -213.982E+06    -104.197E+06    -1.83276E+06    -163.758E-03     328.127E-03    -164.369E-03     3.72021E-03    -163.742E-03     327.424E-03    -164.427E-03     3.69084E-03
             162     2.48321E-06     70.4369E-03    -109.671E+06    -217.508E+06    -111.194E+06    -1.37525E+06    -163.160E-03     327.426E-03    -164.266E-03     3.98091E-03    -163.150E-03     326.724E-03    -164.347E-03     4.00385E-03
             163    -3.87937E-06     69.1204E-03    -107.134E+06    -216.775E+06    -107.753E+06     1.67000E+06    -162.941E-03     327.686E-03    -164.745E-03     4.93601E-03    -162.920E-03     326.977E-03    -164.814E-03     4.91558E-03
             164     2.36879E-06     67.8051E-03    -108.728E+06    -223.352E+06    -109.540E+06    -2.87206E+06    -164.687E-03     328.366E-03    -163.679E-03     4.92021E-03    -164.663E-03     327.621E-03    -163.745E-03     4.81236E-03
             165     531.834E-09     66.4858E-03    -109.295E+06    -223.469E+06    -110.243E+06     1.30410E+06    -163.644E-03     326.770E-03    -163.125E-03     5.96369E-03    -163.622E-03     326.020E-03    -163.194E-03     5.94345E-03
             166    -2.80093E-06     65.1802E-03    -112.871E+06    -218.854E+06    -108.446E+06     1.28573E+06    -162.442E-03     325.904E-03    -163.462E-03     2.60139E-03    -162.444E-03     325.177E-03    -163.523E-03     2.71361E-03
             167     3.41074E-06     63.8680E-03    -109.482E+06    -221.837E+06    -112.543E+06    -2.00120E+06    -164.323E-03     327.526E-03    -163.203E-03     1.42094E-03    -164.304E-03     326.787E-03    -163.285E-03     1.51568E-03
             168    -2.46356E-06     62.5496E-03    -110.623E+06    -226.086E+06    -110.603E+06     248.509E+03    -163.221E-03     328.161E-03    -164.940E-03     3.48044E-03    -163.207E-03     327.400E-03    -165.005E-03     3.50841E-03
             169    -1.23437E-06     61.2317E-03    -113.037E+06    -222.968E+06    -110.402E+06    -244.731E+03    -162.392E-03     326.989E-03    -164.598E-03     3.00489E-03    -162.391E-03     326.241E-03    -164.662E-03     3.02086E-03
             170     1.45796E-06     59.9214E-03    -107.490E+06    -220.781E+06    -110.733E+06    -342.294E+03    -164.078E-03     326.929E-03    -162.850E-03     3.78731E-03    -164.057E-03     326.184E-03    -162.928E-03     3.76964E-03
             171     37.6561E-09     58.6062E-03    -107.268E+06    -221.397E+06    -110.503E+06     2.06412E+06    -163.845E-03     328.100E-03    -164.255E-03     4.60675E-03    -163.827E-03     327.356E-03    -164.331E-03     4.62446E-03
             172    -2.31274E-06     57.2877E-03    -112.805E+06    -221.659E+06    -111.955E+06    -38.2006E+03    -162.900E-03     328.197E-03    -165.297E-03     4.12579E-03    -162.904E-03     327.461E-03    -165.372E-03     4.15298E-03
             173     808.756E-09     55.9745E-03    -115.755E+06    -227.064E+06    -108.751E+06    -1.40383E+06    -164.527E-03     328.853E-03    -164.325E-03     3.35420E-03    -164.542E-03     328.086E-03    -164.372E-03     3.34420E-03
             174     948.028E-09     54.6588E-03    -109.480E+06    -227.042E+06    -110.526E+06      477.45E+03    -165.474E-03     329.783E-03    -164.309E-03     3.26769E-03    -165.457E-03     329.007E-03    -164.373E-03     3.27558E-03
             175    -1.05643E-06     53.3367E-03    -114.876E+06    -226.013E+06    -115.017E+06    -704.433E+03    -164.842E-03     329.675E-03    -164.833E-03     4.07231E-03    -164.841E-03     328.911E-03    -164.914E-03     4.12570E-03
             176     1.04476E-06     52.0217E-03    -113.271E+06    -228.239E+06    -116.271E+06    -912.720E+03    -164.353E-03     329.288E-03    -164.935E-03     3.94132E-03    -164.336E-03     328.504E-03    -165.021E-03     3.93722E-03
             177    -2.08840E-06     50.7053E-03    -106.931E+06    -220.182E+06    -109.856E+06     3.30672E+06    -164.086E-03     328.800E-03    -164.714E-03     2.28072E-03    -164.059E-03     328.038E-03    -164.789E-03     2.32022E-03
             178     2.01476E-06     49.3908E-03    -116.331E+06    -217.121E+06    -108.339E+06    -378.452E+03    -164.876E-03     329.364E-03    -164.489E-03     2.54258E-03    -164.902E-03     328.630E-03    -164.547E-03     2.60399E-03
             179    -1.40356E-06     48.0700E-03    -112.213E+06    -221.084E+06    -113.220E+06    -3.09196E+06    -164.978E-03     330.263E-03    -165.285E-03     4.49410E-03    -164.966E-03     329.511E-03    -165.368E-03     4.45246E-03
             180     169.177E-09     46.7490E-03    -110.103E+06    -222.984E+06    -112.592E+06     2.47653E+06    -164.500E-03     329.829E-03    -165.329E-03     4.62596E-03    -164.477E-03     329.066E-03    -165.409E-03     4.62385E-03
             181    -368.756E-09     45.4355E-03    -113.491E+06    -221.752E+06    -112.067E+06     1.14216E+06    -165.053E-03     329.990E-03    -164.937E-03     4.41347E-03    -165.054E-03     329.244E-03    -165.011E-03     4.39158E-03
             182     625.434E-09     44.1159E-03    -114.220E+06    -222.691E+06    -113.057E+06    -3.38233E+06    -165.792E-03     331.355E-03    -165.563E-03     4.38542E-03    -165.792E-03     330.608E-03    -165.640E-03     4.36658E-03
             183    -659.841E-09     42.7931E-03    -113.219E+06    -228.491E+06    -115.615E+06    -823.626E+03    -165.564E-03     330.714E-03    -165.150E-03     3.19240E-03    -165.545E-03     329.935E-03    -165.233E-03     3.18504E-03
             184     1.16610E-06     41.4805E-03    -110.581E+06    -225.027E+06    -109.275E+06     1.26325E+06    -164.864E-03     329.919E-03    -165.055E-03     2.95435E-03    -164.849E-03     329.139E-03    -165.115E-03     2.98746E-03
             185    -2.08079E-06     40.1606E-03    -102.260E+06    -223.380E+06    -113.959E+06     571.407E+03    -164.845E-03     331.010E-03    -166.166E-03     3.01730E-03    -164.784E-03     330.231E-03    -166.263E-03     3.06483E-03
             186     736.157E-09     38.8380E-03    -112.477E+06    -222.818E+06    -110.191E+06    -159.173E+03    -165.201E-03     330.923E-03    -165.722E-03     3.64165E-03    -165.199E-03     330.162E-03    -165.787E-03     3.58335E-03
             187    -295.299E-09     37.5197E-03    -117.851E+06    -225.212E+06    -107.746E+06    -1.24960E+06    -165.652E-03     330.410E-03    -164.758E-03     5.24388E-03    -165.676E-03     329.645E-03    -164.800E-03     5.21013E-03
             188     1.17669E-06     36.2005E-03    -106.526E+06    -226.847E+06    -112.583E+06     1.13206E+06    -165.762E-03     330.867E-03    -165.105E-03     4.86645E-03    -165.715E-03     330.080E-03    -165.184E-03     4.85795E-03
             189    -1.26121E-06     34.8842E-03    -111.759E+06    -222.681E+06    -107.539E+06     722.414E+03    -165.598E-03     331.670E-03    -166.072E-03     4.34982E-03    -165.586E-03     330.900E-03    -166.125E-03     4.34635E-03
             190     514.386E-09     33.5596E-03    -107.713E+06    -221.136E+06    -110.151E+06    -136.850E+03    -166.414E-03     332.868E-03    -166.454E-03     4.29724E-03    -166.374E-03     332.099E-03    -166.527E-03     4.32166E-03
             191    -12.2318E-09     32.2399E-03    -110.169E+06    -219.777E+06    -108.472E+06     913.402E+03    -166.690E-03     333.008E-03    -166.317E-03     3.91886E-03    -166.659E-03     332.238E-03    -166.381E-03     3.98307E-03
             192    -75.1805E-09     30.9166E-03    -119.089E+06    -227.047E+06    -119.066E+06     2.40492E+06    -166.879E-03     333.493E-03    -166.614E-03     4.28981E-03    -166.862E-03     332.704E-03    -166.707E-03     4.38135E-03
             193     388.673E-09     29.5949E-03    -113.625E+06    -221.318E+06    -112.894E+06    -643.162E+03    -167.492E-03     334.812E-03    -167.319E-03     4.29408E-03    -167.468E-03     334.034E-03    -167.398E-03     4.28493E-03
             194    -605.181E-09     28.2672E-03    -113.189E+06    -223.492E+06    -113.821E+06    -6.72511E+06    -166.930E-03     334.348E-03    -167.419E-03     4.58789E-03    -166.901E-03     333.563E-03    -167.500E-03     4.46378E-03
             195    -100.880E-09     26.9453E-03    -114.800E+06    -232.580E+06    -121.289E+06     1.60956E+06    -166.859E-03     333.929E-03    -167.070E-03     5.02613E-03    -166.816E-03     333.122E-03    -167.173E-03     4.96759E-03
             196     249.639E-09     25.6228E-03    -117.998E+06    -226.631E+06    -113.763E+06     1.51831E+06    -167.650E-03     334.717E-03    -167.068E-03     4.25569E-03    -167.643E-03     333.952E-03    -167.137E-03     4.16875E-03
             197     362.372E-09     24.2983E-03    -117.517E+06    -230.450E+06    -114.151E+06    -514.519E+03    -167.602E-03     334.472E-03    -166.870E-03     4.36914E-03    -167.586E-03     333.694E-03    -166.936E-03     4.29291E-03
             198     4.39658E-09     22.9712E-03    -111.791E+06    -226.606E+06    -112.152E+06     1.78508E+06    -166.279E-03     332.890E-03    -166.611E-03     4.77077E-03    -166.236E-03     332.111E-03    -166.681E-03     4.80015E-03
             199    -1.06263E-06     21.6571E-03    -106.368E+06    -218.946E+06    -109.313E+06    -219.753E+03    -165.201E-03     331.425E-03    -166.223E-03     3.98424E-03    -165.140E-03     330.662E-03    -166.298E-03     3.97136E-03
             200     345.639E-09     20.3314E-03    -109.516E+06    -216.129E+06    -108.871E+06     1.03248E+06    -165.151E-03     329.949E-03    -164.798E-03     3.78740E-03    -165.112E-03     329.208E-03    -164.871E-03     3.73298E-03
             201     733.713E-09     19.0204E-03    -114.917E+06    -220.615E+06    -113.283E+06    -2.18545E+06    -163.833E-03     326.715E-03    -162.882E-03     3.02659E-03    -163.814E-03     325.964E-03    -162.962E-03     2.96321E-03
             202    -515.525E-09     17.7062E-03    -110.630E+06    -223.494E+06    -109.569E+06    -972.768E+03    -160.954E-03     321.695E-03    -160.740E-03     2.12546E-03    -160.907E-03     320.909E-03    -160.804E-03     2.07359E-03
             203     455.640E-09     16.4059E-03    -115.973E+06    -226.334E+06    -115.304E+06    -2.28032E+06    -157.968E-03     316.002E-03    -158.034E-03     2.20614E-03    -157.928E-03     315.217E-03    -158.114E-03     2.08483E-03
             204    -681.428E-09     15.1068E-03    -115.614E+06    -233.821E+06    -117.791E+06    -256.324E+03    -154.600E-03     308.863E-03    -154.263E-03     1.53631E-03    -154.545E-03     308.047E-03    -154.345E-03     1.44179E-03
             205     1.22267E-06     13.8242E-03    -106.845E+06    -231.682E+06    -104.735E+06     2.60421E+06    -150.466E-03     300.681E-03    -150.215E-03     1.87398E-03    -150.382E-03     299.839E-03    -150.248E-03     1.82903E-03
             206    -1.55460E-06     12.5483E-03    -98.6182E+06    -222.377E+06    -100.317E+06     157.514E+03    -146.004E-03     292.442E-03    -146.438E-03     1.27881E-03    -145.889E-03     291.633E-03    -146.474E-03     1.17628E-03
             207     981.097E-09     11.2858E-03    -100.350E+06    -225.642E+06    -106.003E+06    -243.490E+03    -142.426E-03     284.781E-03    -142.355E-03     494.811E-06    -142.313E-03     283.988E-03    -142.413E-03     360.984E-06
             208    -554.926E-09     10.0321E-03    -108.871E+06    -230.123E+06    -105.349E+06     193.601E+03    -139.718E-03     278.996E-03    -139.279E-03     274.657E-06    -139.660E-03     278.207E-03    -139.314E-03     161.586E-06
             209     672.298E-09     8.78146E-03    -111.596E+06    -227.906E+06    -107.698E+06     1.54741E+06    -137.797E-03     275.306E-03    -137.509E-03     471.743E-06    -137.762E-03     274.540E-03    -137.556E-03     418.008E-06
             210    -465.453E-09     7.53684E-03    -106.810E+06    -224.996E+06    -104.258E+06    -985.389E+03    -137.608E-03     275.120E-03    -137.512E-03     2.13875E-03    -137.541E-03     274.324E-03    -137.552E-03     2.09744E-03
             211     240.372E-09     6.28552E-03    -96.3778E+06    -227.112E+06    -97.5806E+06    -1.96441E+06    -138.309E-03     277.052E-03    -138.744E-03     2.11790E-03    -138.177E-03     276.180E-03    -138.763E-03     2.02574E-03
             212    -934.799E-09     5.03735E-03    -82.2031E+06    -228.350E+06    -85.4921E+06     1.75319E+06    -139.719E-03     279.507E-03    -139.788E-03     1.42160E-03    -139.532E-03     278.618E-03    -139.765E-03     1.31689E-03
             213     1.26295E-06     3.78232E-03    -76.6466E+06    -227.422E+06    -75.9249E+06     950.534E+03    -141.942E-03     282.909E-03    -140.967E-03     1.23277E-03    -141.724E-03     282.050E-03    -140.906E-03     1.22509E-03
             214    -312.608E-09     2.52087E-03    -76.4666E+06    -227.149E+06    -74.0335E+06     1.12390E+06    -142.253E-03     285.120E-03    -142.867E-03     1.82064E-03    -141.990E-03     284.253E-03    -142.797E-03     1.88644E-03
             215    -1.89818E-06     1.26183E-03    -67.2965E+06    -219.312E+06     -66.567E+06     1.36905E+06    -142.759E-03     286.129E-03    -143.371E-03     278.085E-06    -142.446E-03     285.249E-03    -143.288E-03     312.312E-06
             216     780.118E-06    -319.189E-18    -61.0264E+06    -209.288E+06    -59.3126E+06    -578.780E+03    -143.863E-03     286.872E-03    -143.009E-03    -332.027E-06    -143.635E-03     285.984E-03    -142.913E-03    -301.286E-06
             217     1.55870E-03    -319.189E-18    -60.4177E+06    -194.013E+06    -52.1105E+06     1.78958E+06    -143.919E-03     287.404E-03    -143.485E-03     1.12012E-03    -143.786E-03     286.523E-03    -143.377E-03     1.15407E-03
             218     2.33927E-03    -319.189E-18    -58.8396E+06    -182.436E+06    -49.9995E+06     1.69906E+06    -144.494E-03     288.199E-03    -143.706E-03     815.112E-06    -144.370E-03     287.369E-03    -143.606E-03     785.743E-06
             219     3.11733E-03    -319.189E-18    -57.6589E+06    -174.075E+06    -49.5833E+06     1.05757E+06    -145.410E-03     289.409E-03    -143.999E-03     1.29227E-03    -145.333E-03     288.657E-03    -143.911E-03     1.24399E-03
             220     3.89497E-03    -319.189E-18    -57.3424E+06    -160.907E+06    -49.7944E+06     513.654E+03    -146.567E-03     290.944E-03    -144.377E-03     2.23073E-03    -146.519E-03     290.266E-03    -144.309E-03     2.17363E-03
             221     4.67135E-03    -319.189E-18    -56.3642E+06    -145.620E+06    -49.4097E+06     91.3212E+03    -147.680E-03     292.496E-03    -144.816E-03     3.09094E-03    -147.654E-03     291.896E-03    -144.770E-03     3.00212E-03
             222     5.44708E-03    -319.189E-18    -54.3042E+06    -128.130E+06    -49.0431E+06    -1.68302E+06    -148.630E-03     293.900E-03    -145.270E-03     3.86953E-03    -148.626E-03     293.391E-03    -145.250E-03     3.73407E-03
             223     6.22213E-03    -319.189E-18    -52.0590E+06    -105.463E+06    -48.1571E+06    -1.31483E+06    -149.534E-03     295.251E-03    -145.717E-03     4.40284E-03    -149.548E-03     294.845E-03    -145.729E-03     4.25589E-03
             224     6.99689E-03    -319.189E-18    -49.2258E+06    -78.4552E+06    -45.5260E+06    -2.81022E+06    -150.673E-03     296.847E-03    -146.174E-03     4.43021E-03    -150.710E-03     296.563E-03    -146.217E-03     4.22640E-03
             225     7.77086E-03    -319.189E-18    -45.3236E+06    -45.6862E+06    -42.8878E+06    -2.52931E+06    -152.466E-03     299.138E-03    -146.672E-03     4.32093E-03    -152.544E-03     299.018E-03    -146.754E-03     4.09416E-03
             226     8.54280E-03    -319.189E-18    -45.5613E+06    -14.8797E+06    -38.9517E+06     2.95400E+06    -155.751E-03     303.069E-03    -147.318E-03     4.84449E-03    -155.890E-03     303.108E-03    -147.426E-03     4.68015E-03
             227     9.31138E-03    -319.189E-18    -44.0996E+06     729.406E+03    -33.2475E+06    -4.12489E+06    -159.883E-03     308.075E-03    -148.191E-03     5.27972E-03    -160.047E-03     308.181E-03    -148.295E-03     4.92438E-03
             228     10.0757E-03    -319.189E-18    -35.9420E+06     12.1202E+06    -29.3014E+06    -10.6367E+06    -163.911E-03     313.141E-03    -149.231E-03     4.93724E-03    -164.052E-03     313.284E-03    -149.343E-03     4.40932E-03
             229     10.8409E-03    -319.189E-18    -23.9181E+06     33.4794E+06    -8.44574E+06    -10.0484E+06    -169.477E-03     319.998E-03    -150.521E-03     5.87529E-03    -169.620E-03     320.201E-03    -150.577E-03     5.31666E-03
             230     11.5944E-03    -319.189E-18    -16.9384E+06     51.9494E+06     26.5872E+06    -1.71444E+06    -176.041E-03     328.169E-03    -152.129E-03     8.24432E-03    -176.233E-03     328.410E-03    -152.046E-03     7.62996E-03
             231     12.3463E-03    -319.189E-18    -15.7090E+06     62.0190E+06     59.7738E+06     4.95473E+06    -184.088E-03     338.101E-03    -154.013E-03     11.4621E-03    -184.337E-03     338.343E-03    -153.782E-03     10.8705E-03
             232     13.0932E-03    -319.189E-18    -12.6131E+06     68.6669E+06     82.7383E+06     2.39756E+06    -198.749E-03     355.038E-03    -156.290E-03     15.5278E-03    -199.034E-03     355.288E-03    -155.957E-03     14.5397E-03
             233     13.8220E-03    -319.189E-18    -8.45254E+06     72.6472E+06     90.2774E+06    -880.699E+03    -222.904E-03     382.180E-03    -159.276E-03     20.7671E-03    -223.225E-03     382.477E-03    -158.918E-03     18.8052E-03
             234     14.5345E-03    -319.189E-18    -6.86044E+06     76.7231E+06     90.5552E+06    -6.97963E+03    -264.698E-03     428.211E-03    -163.513E-03     54.4594E-03    -265.165E-03     428.681E-03    -163.162E-03     51.1369E-03
             235     15.2401E-03     1.55937E-03    -1.80432E+06     82.2204E+06     89.0400E+06     3.62620E+06    -262.414E-03     427.622E-03    -165.207E-03     91.5742E-03    -263.021E-03     428.262E-03    -164.879E-03     87.5778E-03
             236     15.2635E-03     2.95761E-03     1.42469E+06     82.7752E+06     90.2322E+06     2.57325E+06    -224.394E-03     388.401E-03    -164.008E-03     90.3655E-03    -225.019E-03     389.060E-03    -163.679E-03     86.3667E-03
             237     15.2751E-03     4.34002E-03    -1.34800E+06     77.0705E+06     83.8538E+06    -3.17609E+06    -211.194E-03     374.639E-03    -163.445E-03     77.1721E-03    -211.777E-03     375.247E-03    -163.135E-03     73.1302E-03
             238     15.2789E-03     5.71206E-03    -7.68073E+06     72.9687E+06     77.6238E+06    -1.66593E+06    -202.690E-03     365.970E-03    -163.280E-03     72.0506E-03    -203.226E-03     366.513E-03    -162.987E-03     68.5276E-03
             239     15.2808E-03     7.07239E-03    -3.14553E+06     77.2374E+06     86.8252E+06     491.894E+03    -196.075E-03     359.456E-03    -163.381E-03     69.1319E-03    -196.573E-03     359.964E-03    -163.054E-03     65.9531E-03
             240     15.2788E-03     8.42271E-03     2.15323E+06     78.7444E+06     87.8749E+06    -1.40246E+06    -189.509E-03     353.088E-03    -163.579E-03     63.7659E-03    -189.950E-03     353.557E-03    -163.257E-03     60.6421E-03
             241     15.2782E-03     9.76200E-03    -1.01182E+06     73.2795E+06     81.8260E+06    -1.03350E+06    -182.435E-03     346.192E-03    -163.757E-03     64.2317E-03    -182.845E-03     346.618E-03    -163.453E-03     61.5472E-03
             242     15.2804E-03     11.1014E-03    -1.14767E+06     69.2918E+06     81.3528E+06     286.437E+03    -176.536E-03     340.350E-03    -163.814E-03     67.2220E-03    -176.935E-03     340.755E-03    -163.506E-03     64.9678E-03
             243     15.2825E-03     12.4248E-03     -2.6198E+06     67.1379E+06     80.1387E+06     2.48873E+06    -172.123E-03     335.941E-03    -163.818E-03     65.3226E-03    -172.487E-03     336.298E-03    -163.511E-03     62.9529E-03
             244     15.2823E-03     13.7480E-03     5.17013E+06     68.1413E+06     82.1505E+06    -4.11154E+06    -171.873E-03     335.835E-03    -163.961E-03     58.1952E-03    -172.039E-03     335.989E-03    -163.657E-03     55.5693E-03
             245     15.2721E-03     15.0710E-03    -9.83065E+06     60.9496E+06     76.0495E+06    -2.13344E+06    -170.091E-03     334.317E-03    -164.226E-03     54.3874E-03    -170.314E-03     334.465E-03    -163.920E-03     52.2100E-03
             246     15.2795E-03     16.3892E-03    -20.9199E+06     59.2150E+06     70.3057E+06     3.01125E+06    -163.101E-03     327.401E-03    -164.300E-03     57.5555E-03    -163.525E-03     327.751E-03    -164.004E-03     55.6866E-03
             247     15.2805E-03     17.6970E-03     3.07337E+06     70.3153E+06     81.8642E+06     652.048E+03    -160.287E-03     324.452E-03    -164.165E-03     57.1196E-03    -160.645E-03     324.834E-03    -163.863E-03     55.0085E-03
             248     15.2839E-03     19.0084E-03     6.05119E+06     75.6645E+06     87.9567E+06     1.03197E+06    -161.617E-03     325.670E-03    -164.052E-03     55.2016E-03    -161.978E-03     326.066E-03    -163.731E-03     53.0079E-03
             249     15.2818E-03     20.3254E-03    -1.21652E+06     72.9340E+06     85.5066E+06    -228.131E+03    -162.183E-03     326.234E-03    -164.051E-03     55.1473E-03    -162.580E-03     326.638E-03    -163.727E-03     52.8679E-03
             250     15.2819E-03     21.6379E-03     262.063E+03     73.1065E+06     86.4714E+06     107.781E+03    -161.819E-03     325.953E-03    -164.134E-03     56.1666E-03    -162.214E-03     326.358E-03    -163.808E-03     53.8920E-03
             251     15.2796E-03     22.9517E-03    -2.96381E+06     69.8127E+06     82.4332E+06     56.4843E+03    -160.947E-03     325.110E-03    -164.163E-03     59.5214E-03    -161.351E-03     325.514E-03    -163.848E-03     57.2909E-03
             252     15.2833E-03     24.2638E-03    -1.59747E+06     68.3727E+06     83.5246E+06    -1.76820E+06    -160.590E-03     324.678E-03    -164.089E-03     63.5105E-03    -160.987E-03     325.071E-03    -163.768E-03     61.3580E-03
             253     15.2838E-03     25.5755E-03     63.9731E+03     70.7823E+06     85.3264E+06    -1.02004E+06    -161.345E-03     325.339E-03    -163.994E-03     62.2753E-03    -161.734E-03     325.732E-03    -163.670E-03     60.1750E-03
             254     15.2836E-03     26.8870E-03    -1.91427E+06     67.0254E+06     81.2617E+06     520.952E+03    -160.902E-03     324.901E-03    -163.999E-03     59.5927E-03    -161.291E-03     325.286E-03    -163.687E-03     57.4470E-03
             255     15.2829E-03     28.1972E-03    -2.47353E+06     68.1848E+06     83.0861E+06     775.825E+03    -160.409E-03     324.429E-03    -164.020E-03     59.7850E-03    -160.797E-03     324.810E-03    -163.700E-03     57.7337E-03
             256     15.2846E-03     29.5031E-03    -1.85200E+06     70.4470E+06     85.0138E+06     87.8186E+03    -161.935E-03     325.889E-03    -163.954E-03     58.8835E-03    -162.326E-03     326.277E-03    -163.629E-03     56.7901E-03
             257     15.2838E-03     30.8249E-03    -1.84814E+06     70.7074E+06     84.0184E+06     119.179E+03    -162.248E-03     326.210E-03    -163.962E-03     58.0219E-03    -162.646E-03     326.609E-03    -163.642E-03     55.8203E-03
             258     15.2823E-03     32.1331E-03    -3.11813E+06     71.5340E+06     83.8809E+06     165.522E+03    -161.662E-03     325.693E-03    -164.031E-03     59.4543E-03    -162.073E-03     326.104E-03    -163.711E-03     57.2444E-03
             259     15.2829E-03     33.4453E-03    -3.41618E+06     69.5040E+06     82.3339E+06    -1.07116E+06    -161.748E-03     325.770E-03    -164.021E-03     58.2773E-03    -162.143E-03     326.160E-03    -163.705E-03     56.1528E-03
             260     15.2834E-03     34.7565E-03    -1.28502E+06     71.0372E+06     83.3722E+06     744.968E+03    -161.826E-03     325.834E-03    -164.008E-03     56.5595E-03    -162.204E-03     326.218E-03    -163.692E-03     54.5141E-03
             261     15.2825E-03     36.0705E-03    -2.09479E+06     75.2831E+06     86.6006E+06     1.43531E+06    -162.298E-03     326.356E-03    -164.059E-03     55.2909E-03    -162.688E-03     326.756E-03    -163.732E-03     53.2630E-03
             262     15.2806E-03     37.3826E-03    -3.89805E+06     74.6965E+06     83.9379E+06     604.255E+03    -163.202E-03     327.332E-03    -164.130E-03     53.5331E-03    -163.588E-03     327.726E-03    -163.813E-03     51.5339E-03
             263     15.2789E-03     38.6974E-03     118.681E+03     76.2874E+06     78.5957E+06     984.731E+03    -162.118E-03     326.256E-03    -164.138E-03     55.2926E-03    -162.483E-03     326.664E-03    -163.855E-03     53.3006E-03
             264     15.2835E-03     40.0110E-03    -45.2406E+03     77.5836E+06     81.4381E+06    -834.008E+03    -161.672E-03     325.739E-03    -164.067E-03     59.8023E-03    -162.063E-03     326.170E-03    -163.772E-03     57.6925E-03
             265     15.2819E-03     41.3256E-03    -2.54598E+06     76.1752E+06     83.8131E+06    -1.48644E+06    -163.408E-03     327.410E-03    -164.002E-03     59.2866E-03    -163.832E-03     327.853E-03    -163.690E-03     56.9439E-03
             266     15.2826E-03     42.6426E-03    -8.70151E+06     69.9603E+06     78.2496E+06    -1.35904E+06    -162.452E-03     326.511E-03    -164.059E-03     56.9474E-03    -162.888E-03     326.939E-03    -163.757E-03     54.5857E-03
             267     15.2801E-03     43.9510E-03    -1.95903E+06     75.7438E+06     86.8738E+06     5.77053E+06    -161.040E-03     325.188E-03    -164.148E-03     60.4207E-03    -161.468E-03     325.626E-03    -163.820E-03     58.2369E-03
             268     15.2831E-03     45.2692E-03     1.33699E+06     77.2405E+06     87.0842E+06     2.51377E+06    -160.262E-03     324.380E-03    -164.117E-03     63.0389E-03    -161.091E-03     325.236E-03    -163.796E-03     60.5563E-03
             269     15.2818E-03     46.5752E-03    -1.32858E+06     72.3204E+06     82.5200E+06    -5.56603E+06    -161.961E-03     325.994E-03    -164.033E-03     61.5824E-03    -162.781E-03     326.827E-03    -163.723E-03     59.0040E-03
             270     15.2830E-03     47.8864E-03    -2.80679E+06     73.5718E+06     85.3667E+06    -2.49824E+06    -165.990E-03     329.978E-03    -163.988E-03     55.6832E-03    -166.879E-03     330.869E-03    -163.664E-03     53.5836E-03
             271     15.2788E-03     49.2142E-03    -7.38929E+06     69.5966E+06     81.9508E+06     576.850E+03    -165.944E-03     329.981E-03    -164.037E-03     56.0123E-03    -166.864E-03     330.883E-03    -163.717E-03     53.7747E-03
             272     15.2829E-03     50.5282E-03    -3.72334E+06     71.1982E+06     80.5853E+06     786.488E+03    -162.833E-03     326.884E-03    -164.051E-03     59.4737E-03    -163.263E-03     327.320E-03    -163.746E-03     57.0289E-03
             273     15.2829E-03     51.8381E-03    -432.086E+03     74.5449E+06     85.2856E+06     1.25446E+06    -162.762E-03     326.764E-03    -164.002E-03     57.9789E-03    -163.162E-03     327.180E-03    -163.683E-03     55.7626E-03
             274     15.2826E-03     53.1561E-03     246.287E+03     76.9139E+06     89.4712E+06    -992.341E+03    -165.127E-03     329.111E-03    -163.984E-03     55.4689E-03    -165.527E-03     329.526E-03    -163.649E-03     53.1681E-03
             275     15.2814E-03     54.4694E-03    -2.25234E+06     73.3421E+06     83.7024E+06    -426.152E+03    -164.838E-03     328.823E-03    -163.985E-03     53.2911E-03    -165.243E-03     329.238E-03    -163.670E-03     50.8682E-03
             276     15.2831E-03     55.7879E-03     1.13646E+06     76.9668E+06     85.8288E+06     2.91739E+06    -163.107E-03     327.100E-03    -163.992E-03     55.5521E-03    -163.515E-03     327.536E-03    -163.676E-03     53.1406E-03
             277     15.2833E-03     57.1027E-03    -3.73534E+06     77.2932E+06     85.9692E+06    -3.17567E+06    -164.941E-03     328.953E-03    -164.012E-03     58.4208E-03    -165.385E-03     329.409E-03    -163.689E-03     55.8654E-03
             278     15.2778E-03     58.4281E-03    -9.38939E+06     70.1506E+06     79.0343E+06    -289.494E+03    -165.573E-03     329.661E-03    -164.088E-03     59.5263E-03    -166.018E-03     330.093E-03    -163.781E-03     57.1037E-03
             279     15.2823E-03     59.7378E-03     555.352E+03     75.5065E+06     84.2162E+06     2.33480E+06    -162.401E-03     326.489E-03    -164.088E-03     61.8804E-03    -162.812E-03     326.926E-03    -163.777E-03     59.5919E-03
             280     15.2841E-03     61.0480E-03     4.14688E+06     79.3047E+06     90.2724E+06    -579.346E+03    -163.500E-03     327.454E-03    -163.954E-03     61.1558E-03    -163.907E-03     327.896E-03    -163.623E-03     58.7993E-03
             281     15.2834E-03     62.3718E-03    -2.74096E+06     76.3735E+06     87.3351E+06     -57.643E+03    -165.619E-03     329.533E-03    -163.914E-03     59.0105E-03    -166.046E-03     329.969E-03    -163.584E-03     56.6447E-03
             282     15.2819E-03     63.6849E-03    -4.77078E+06     74.1066E+06     83.8011E+06     296.907E+03    -164.641E-03     328.634E-03    -163.993E-03     58.3079E-03    -165.083E-03     329.079E-03    -163.674E-03     55.8108E-03
             283     15.2817E-03     64.9998E-03    -3.10060E+06     75.5178E+06     84.5073E+06    -1.53285E+06    -164.524E-03     328.574E-03    -164.050E-03     59.7411E-03    -164.985E-03     329.048E-03    -163.733E-03     57.0134E-03
             284     15.2803E-03     66.3217E-03    -5.45083E+06     75.1575E+06     83.6841E+06    -488.840E+03    -165.986E-03     330.085E-03    -164.099E-03     62.0095E-03    -166.460E-03     330.564E-03    -163.781E-03     59.3260E-03
             285     15.2782E-03     67.6397E-03    -4.65265E+06     75.9891E+06     82.8628E+06     2.13125E+06    -165.197E-03     329.358E-03    -164.161E-03     62.0686E-03    -165.641E-03     329.815E-03    -163.850E-03     59.6916E-03
             286     15.2810E-03     68.9522E-03     1.23111E+06     79.5826E+06     85.6205E+06     575.614E+03    -162.753E-03     326.900E-03    -164.147E-03     61.7821E-03    -163.156E-03     327.342E-03    -163.836E-03     59.5896E-03
             287     15.2822E-03     70.2632E-03     3.27552E+06     78.3963E+06     87.9941E+06     138.905E+03    -162.418E-03     326.472E-03    -164.053E-03     58.2621E-03    -162.815E-03     326.904E-03    -163.732E-03     55.9315E-03
             288     15.2835E-03     71.5736E-03    -171.815E+03     75.1145E+06     87.0706E+06    -639.156E+03    -164.260E-03     328.228E-03    -163.968E-03     54.3031E-03    -164.663E-03     328.645E-03    -163.641E-03     51.8877E-03
             289     15.2820E-03     72.8933E-03    -5.46547E+06     73.0515E+06     84.4057E+06    -966.073E+03    -165.663E-03     329.615E-03    -163.952E-03     52.8847E-03    -166.069E-03     330.017E-03    -163.628E-03     50.6004E-03
             290     15.2823E-03     74.2129E-03    -2.06974E+06     74.6789E+06     84.1501E+06     55.2511E+03    -164.724E-03     328.693E-03    -163.969E-03     55.1174E-03    -165.115E-03     329.098E-03    -163.653E-03     52.9228E-03
             291     15.2833E-03     75.5270E-03    -3.08993E+06     73.0651E+06     82.6725E+06     447.465E+03    -163.766E-03     327.720E-03    -163.955E-03     57.3719E-03    -164.159E-03     328.123E-03    -163.643E-03     55.2291E-03
             292     761.712E-06     77.0211E-03    -107.605E+06    -209.957E+06    -105.904E+06     2.35411E+06    -164.337E-03     329.017E-03    -164.680E-03     7.83604E-03    -164.364E-03     328.292E-03    -164.749E-03     7.84326E-03
             293     1.52714E-03     77.0348E-03    -102.544E+06    -191.379E+06    -93.2031E+06     652.644E+03    -164.033E-03     328.442E-03    -164.409E-03     11.6959E-03    -164.111E-03     327.750E-03    -164.449E-03     11.7273E-03
             294     2.29230E-03     77.0503E-03    -100.902E+06    -184.429E+06    -85.0995E+06    -2.13381E+06    -164.085E-03     328.386E-03    -164.301E-03     17.0310E-03    -164.179E-03     327.715E-03    -164.312E-03     17.0119E-03
             295     3.05500E-03     77.0730E-03    -98.2961E+06    -173.364E+06    -75.2042E+06    -1.56717E+06    -164.279E-03     328.562E-03    -164.283E-03     23.0061E-03    -164.397E-03     327.934E-03    -164.265E-03     22.9353E-03
             296     3.81754E-03     77.1077E-03    -91.3571E+06    -155.759E+06    -58.3555E+06     281.418E+03    -164.343E-03     328.663E-03    -164.320E-03     27.7066E-03    -164.480E-03     328.092E-03    -164.253E-03     27.6218E-03
             297     4.58121E-03     77.1440E-03    -85.4205E+06    -139.076E+06    -43.7170E+06    -1.33625E+06    -164.162E-03     328.494E-03    -164.333E-03     32.1210E-03    -164.318E-03     327.981E-03    -164.226E-03     31.9639E-03
             298     5.34626E-03     77.1899E-03    -75.1405E+06    -120.205E+06    -29.3772E+06    -4.22075E+06    -163.673E-03     327.954E-03    -164.282E-03     37.4968E-03    -163.833E-03     327.507E-03    -164.145E-03     37.2231E-03
             299     6.11077E-03     77.2417E-03    -68.9667E+06    -103.639E+06    -18.4045E+06    -734.185E+03    -163.619E-03     327.809E-03    -164.190E-03     43.3059E-03    -163.800E-03     327.431E-03    -164.032E-03     42.9740E-03
             300     6.87498E-03     77.2986E-03    -62.2284E+06    -77.8525E+06    -2.86955E+06     3.10801E+06    -163.847E-03     327.974E-03    -164.127E-03     47.8971E-03    -164.069E-03     327.707E-03    -163.938E-03     47.4037E-03
             301     7.63927E-03     77.3593E-03    -50.8720E+06    -49.7723E+06     15.7658E+06     99.0999E+03    -164.089E-03     328.193E-03    -164.104E-03     50.9373E-03    -164.339E-03     328.040E-03    -163.879E-03     50.1524E-03
             302     8.40545E-03     77.4313E-03    -48.2907E+06    -33.2966E+06     20.2278E+06    -1.63508E+06    -164.364E-03     328.430E-03    -164.066E-03     54.9966E-03    -164.652E-03     328.369E-03    -163.846E-03     54.0072E-03
             303     9.16626E-03     77.5051E-03    -44.7776E+06    -2.77202E+06     26.6732E+06     1.40778E+06    -164.165E-03     328.182E-03    -164.016E-03     59.4240E-03    -164.508E-03     328.279E-03    -163.814E-03     58.3026E-03
             304     9.93288E-03     77.5778E-03    -38.8964E+06     26.1170E+06     39.3987E+06     2.68919E+06    -164.241E-03     328.231E-03    -163.990E-03     62.6826E-03    -164.641E-03     328.471E-03    -163.774E-03     61.3201E-03
             305     10.6970E-03     77.6582E-03    -35.4907E+06     33.7151E+06     47.2450E+06    -1.61672E+06    -165.262E-03     329.274E-03    -164.012E-03     64.7977E-03    -165.696E-03     329.565E-03    -163.774E-03     63.0871E-03
             306     11.4590E-03     77.7469E-03    -27.6774E+06     40.6355E+06     56.6134E+06    -1.73660E+06    -165.227E-03     329.294E-03    -164.068E-03     66.8337E-03    -165.668E-03     329.618E-03    -163.803E-03     64.8964E-03
             307     12.2240E-03     77.8304E-03    -20.6692E+06     50.1345E+06     65.5708E+06    -2.85347E+06    -163.794E-03     327.860E-03    -164.066E-03     68.7937E-03    -164.256E-03     328.236E-03    -163.781E-03     66.5962E-03
             308     12.9904E-03     77.9188E-03    -14.7431E+06     59.6871E+06     73.9390E+06    -3.78131E+06    -163.440E-03     327.450E-03    -164.011E-03     68.7906E-03    -163.916E-03     327.872E-03    -163.706E-03     66.3775E-03
             309     13.7551E-03     78.0029E-03    -10.8972E+06     67.4410E+06     81.9808E+06    -583.496E+03    -164.469E-03     328.456E-03    -163.987E-03     68.4992E-03    -164.961E-03     328.911E-03    -163.659E-03     65.9701E-03
             310     14.5184E-03     78.0941E-03    -6.51460E+06     74.9324E+06     87.0252E+06     114.892E+03    -164.688E-03     328.683E-03    -163.995E-03     60.5778E-03    -165.152E-03     329.138E-03    -163.659E-03     58.0706E-03
             311     764.604E-06     78.3396E-03    -105.821E+06    -210.780E+06    -105.324E+06    -134.833E+03    -164.242E-03     328.337E-03    -164.094E-03     6.98014E-03    -164.262E-03     327.606E-03    -164.162E-03     6.97969E-03
             312     1.52746E-03     78.3478E-03    -102.300E+06    -194.145E+06    -94.0134E+06     2.56282E+06    -163.556E-03     327.594E-03    -164.038E-03     11.1462E-03    -163.628E-03     326.889E-03    -164.078E-03     11.1931E-03
             313     2.29150E-03     78.3656E-03    -99.8610E+06    -180.456E+06    -80.2570E+06     2.08504E+06    -164.161E-03     328.150E-03    -163.989E-03     16.4308E-03    -164.262E-03     327.490E-03    -163.984E-03     16.4630E-03
             314     3.05493E-03     78.3912E-03    -95.4452E+06    -169.792E+06    -68.0120E+06    -416.674E+03    -164.411E-03     328.506E-03    -164.095E-03     22.3335E-03    -164.527E-03     327.878E-03    -164.050E-03     22.2742E-03
             315     3.81956E-03     78.4222E-03    -89.1855E+06    -155.849E+06    -56.8641E+06    -477.605E+03    -164.187E-03     328.340E-03    -164.153E-03     28.4606E-03    -164.314E-03     327.762E-03    -164.082E-03     28.3604E-03
             316     4.58313E-03     78.4620E-03    -80.7111E+06    -137.318E+06    -42.2874E+06     139.606E+03    -164.184E-03     328.354E-03    -164.170E-03     33.3228E-03    -164.324E-03     327.843E-03    -164.065E-03     33.1866E-03
             317     5.34591E-03     78.5040E-03    -75.1331E+06    -120.992E+06    -28.5970E+06    -1.09774E+06    -163.930E-03     328.094E-03    -164.164E-03     37.9232E-03    -164.096E-03     327.647E-03    -164.023E-03     37.6187E-03
             318     6.11186E-03     78.5548E-03    -68.9588E+06    -102.735E+06    -14.7536E+06    -1.77939E+06    -163.701E-03     327.825E-03    -164.124E-03     42.6575E-03    -163.891E-03     327.448E-03    -163.949E-03     42.2118E-03
             319     6.87711E-03     78.6140E-03    -54.8174E+06    -75.6972E+06     2.85935E+06     94.9751E+03    -164.188E-03     328.281E-03    -164.093E-03     47.0530E-03    -164.384E-03     328.006E-03    -163.890E-03     46.5091E-03
             320     7.63946E-03     78.6782E-03    -51.8674E+06    -55.7949E+06     9.91634E+06     1.89770E+06    -164.640E-03     328.724E-03    -164.084E-03     51.7369E-03    -164.878E-03     328.551E-03    -163.878E-03     51.0256E-03
             321     8.40060E-03     78.7448E-03    -50.1625E+06    -34.6903E+06     18.1767E+06    -1.17345E+06    -163.765E-03     327.822E-03    -164.057E-03     55.6577E-03    -164.060E-03     327.763E-03    -163.843E-03     54.6501E-03
             322     9.17135E-03     78.8171E-03    -46.5385E+06    -4.00129E+06     29.3579E+06    -401.348E+03    -163.444E-03     327.420E-03    -163.977E-03     58.9596E-03    -163.797E-03     327.509E-03    -163.757E-03     57.8095E-03
             323     9.93434E-03     78.8950E-03    -38.6440E+06     24.8540E+06     40.0386E+06     1.55491E+06    -164.937E-03     328.876E-03    -163.939E-03     62.8152E-03    -165.332E-03     329.106E-03    -163.719E-03     61.4768E-03
             324     10.6951E-03     78.9782E-03    -26.3663E+06     40.9156E+06     53.3101E+06     737.235E+03    -165.423E-03     329.418E-03    -163.995E-03     66.8520E-03    -165.837E-03     329.729E-03    -163.750E-03     65.1410E-03
             325     11.4600E-03     79.0611E-03    -25.1823E+06     41.4487E+06     57.7166E+06    -1.94392E+06    -164.585E-03     328.609E-03    -164.024E-03     68.9369E-03    -165.029E-03     328.943E-03    -163.759E-03     66.9330E-03
             326     12.2250E-03     79.1453E-03    -20.0593E+06     50.0908E+06     68.5074E+06    -4.25631E+06    -164.614E-03     328.652E-03    -164.038E-03     69.7557E-03    -165.083E-03     329.030E-03    -163.739E-03     67.4775E-03
             327     12.9890E-03     79.2319E-03    -14.2098E+06     55.9976E+06     76.7901E+06    -1.52720E+06    -165.208E-03     329.274E-03    -164.065E-03     68.5279E-03    -165.685E-03     329.676E-03    -163.742E-03     66.0822E-03
             328     13.7529E-03     79.3207E-03    -7.21894E+06     66.4406E+06     83.9520E+06     533.606E+03    -164.239E-03     328.313E-03    -164.074E-03     66.1956E-03    -164.714E-03     328.754E-03    -163.740E-03     63.6350E-03
             329     14.5195E-03     79.4053E-03    -2.47027E+06     78.0245E+06     88.6770E+06     139.403E+03    -164.242E-03     328.297E-03    -164.055E-03     59.6815E-03    -164.693E-03     328.759E-03    -163.721E-03     57.1578E-03
             330     762.774E-06     79.6527E-03    -105.332E+06    -208.855E+06    -103.731E+06    -2.81390E+06    -163.500E-03     327.464E-03    -163.964E-03     4.98072E-03    -163.523E-03     326.739E-03    -164.027E-03     4.96296E-03
             331     1.52879E-03     79.6629E-03    -103.555E+06    -200.704E+06    -98.8833E+06    -153.012E+03    -163.849E-03     327.584E-03    -163.735E-03     11.3125E-03    -163.910E-03     326.854E-03    -163.788E-03     11.3125E-03
             332     2.29190E-03     79.6818E-03    -98.4559E+06    -183.008E+06    -83.8118E+06     4.52813E+06    -164.150E-03     327.990E-03    -163.841E-03     17.1651E-03    -164.232E-03     327.318E-03    -163.852E-03     17.2447E-03
             333     3.05596E-03     79.7064E-03    -92.6573E+06    -166.561E+06    -65.7128E+06     1.84631E+06    -164.145E-03     328.110E-03    -163.964E-03     22.1511E-03    -164.255E-03     327.491E-03    -163.917E-03     22.1366E-03
             334     3.81937E-03     79.7374E-03    -85.5109E+06    -153.893E+06    -53.0530E+06    -2.10439E+06    -163.853E-03     327.851E-03    -163.998E-03     27.3839E-03    -163.968E-03     327.270E-03    -163.916E-03     27.2515E-03
             335     4.58413E-03     79.7770E-03    -80.0019E+06    -139.148E+06    -42.0331E+06     619.524E+03    -163.733E-03     327.703E-03    -163.971E-03     32.5247E-03    -163.864E-03     327.179E-03    -163.863E-03     32.4204E-03
             336     5.34930E-03     79.8200E-03    -75.1722E+06    -117.969E+06    -26.5718E+06     3.59666E+06    -164.588E-03     328.595E-03    -164.007E-03     37.5388E-03    -164.760E-03     328.159E-03    -163.860E-03     37.3627E-03
             337     6.11056E-03     79.8712E-03    -66.9719E+06    -98.7567E+06    -11.3224E+06     154.046E+03    -164.874E-03     328.979E-03    -164.105E-03     42.1293E-03    -165.069E-03     328.619E-03    -163.922E-03     41.6733E-03
             338     6.87367E-03     79.9282E-03    -62.5638E+06    -84.6530E+06    -3.74518E+06    -2.22176E+06    -163.847E-03     327.962E-03    -164.115E-03     46.8757E-03    -164.058E-03     327.661E-03    -163.920E-03     46.3123E-03
             339     7.64017E-03     79.9934E-03    -58.4493E+06    -65.6853E+06     2.99292E+06     -984.07E+03    -163.321E-03     327.341E-03    -164.020E-03     52.1241E-03    -163.562E-03     327.132E-03    -163.825E-03     51.4737E-03
             340     8.40748E-03     80.0608E-03    -48.3089E+06    -28.3112E+06     22.6148E+06     4.05803E+06    -164.359E-03     328.340E-03    -163.981E-03     55.7517E-03    -164.659E-03     328.303E-03    -163.756E-03     54.8409E-03
             341     9.16650E-03     80.1299E-03    -36.9848E+06     6.88444E+06     42.6282E+06     2.14872E+06    -164.983E-03     329.005E-03    -164.022E-03     58.2840E-03    -165.330E-03     329.122E-03    -163.765E-03     57.0776E-03
             342     9.93202E-03     80.2121E-03    -32.9393E+06     24.0343E+06     42.8364E+06    -3.48097E+06    -163.910E-03     327.890E-03    -163.979E-03     62.1603E-03    -164.284E-03     328.108E-03    -163.752E-03     60.6985E-03
             343     10.6993E-03     80.2933E-03    -29.8930E+06     36.5910E+06     46.9201E+06    -1.79870E+06    -163.542E-03     327.446E-03    -163.903E-03     66.4431E-03    -163.957E-03     327.748E-03    -163.679E-03     64.7339E-03
             344     11.4635E-03     80.3768E-03    -22.0106E+06     48.3118E+06     64.4158E+06    -2.40234E+06    -165.031E-03     328.959E-03    -163.928E-03     68.4722E-03    -165.479E-03     329.313E-03    -163.644E-03     66.4472E-03
             345     12.2270E-03     80.4614E-03    -16.7969E+06     53.3693E+06     74.6353E+06    -1.07405E+06    -166.778E-03     330.811E-03    -164.033E-03     68.8125E-03    -167.245E-03     331.192E-03    -163.713E-03     66.5343E-03
             346     12.9883E-03     80.5526E-03    -14.6969E+06     50.5667E+06     73.7070E+06    -787.883E+03    -166.525E-03     330.665E-03    -164.140E-03     67.1438E-03    -166.997E-03     331.050E-03    -163.823E-03     64.6067E-03
             347     13.7502E-03     80.6359E-03    -9.55941E+06     63.0890E+06     79.0456E+06     9.17478E+03    -164.468E-03     328.650E-03    -164.182E-03     64.5480E-03    -164.939E-03     329.082E-03    -163.865E-03     61.9587E-03
             348     14.5148E-03     80.7166E-03    -3.14578E+06     76.9009E+06     87.2640E+06     1.56992E+06    -163.730E-03     327.892E-03    -164.162E-03     61.9789E-03    -164.184E-03     328.355E-03    -163.832E-03     59.5042E-03
             349     765.692E-06     80.9662E-03    -105.382E+06    -209.886E+06    -100.155E+06     4.23193E+06    -163.731E-03     327.269E-03    -163.538E-03     5.42376E-03    -163.760E-03     326.534E-03    -163.582E-03     5.54099E-03
             350     1.52763E-03     80.9782E-03    -104.496E+06    -199.347E+06    -94.6742E+06    -1.67444E+06    -164.135E-03     327.867E-03    -163.732E-03     10.8935E-03    -164.208E-03     327.138E-03    -163.764E-03     10.9069E-03
             351     2.29234E-03     80.9963E-03    -97.4614E+06    -189.924E+06    -87.7131E+06    -1.78550E+06    -163.789E-03     327.616E-03    -163.826E-03     16.3524E-03    -163.851E-03     326.913E-03    -163.848E-03     16.3459E-03
             352     3.05602E-03     81.0222E-03    -89.5124E+06    -170.510E+06    -71.0406E+06     3.51722E+06    -163.809E-03     327.650E-03    -163.841E-03     22.1410E-03    -163.894E-03     327.019E-03    -163.819E-03     22.1753E-03
             353     3.81980E-03     81.0534E-03    -86.8677E+06    -152.501E+06    -52.4916E+06     3.90059E+06    -164.014E-03     327.912E-03    -163.898E-03     27.0971E-03    -164.143E-03     327.344E-03    -163.813E-03     27.0676E-03
             354     4.58424E-03     81.0894E-03    -82.5645E+06    -140.056E+06    -38.1584E+06     1.82524E+06    -164.115E-03     328.073E-03    -163.958E-03     31.7667E-03    -164.264E-03     327.543E-03    -163.826E-03     31.6566E-03
             355     5.34766E-03     81.1368E-03    -71.3394E+06    -116.389E+06    -22.6853E+06     1.42797E+06    -164.353E-03     328.356E-03    -164.004E-03     37.2630E-03    -164.509E-03     327.912E-03    -163.845E-03     37.0999E-03
             356     6.11201E-03     81.1895E-03    -68.0579E+06    -102.603E+06    -14.5407E+06    -168.052E+03    -164.492E-03     328.535E-03    -164.043E-03     42.2796E-03    -164.680E-03     328.160E-03    -163.868E-03     41.8700E-03
             357     6.87591E-03     81.2429E-03    -63.0180E+06    -84.1249E+06    -2.93999E+06    -679.743E+03    -164.233E-03     328.301E-03    -164.068E-03     47.0624E-03    -164.454E-03     328.008E-03    -163.870E-03     46.4526E-03
             358     7.64046E-03     81.3051E-03    -51.4011E+06    -55.9034E+06     14.7530E+06    -1.72133E+06    -163.915E-03     327.976E-03    -164.060E-03     50.5951E-03    -164.156E-03     327.792E-03    -163.831E-03     49.8375E-03
             359     8.40419E-03     81.3746E-03    -43.0637E+06    -33.9025E+06     23.8345E+06    -1.53686E+06    -164.039E-03     328.049E-03    -164.010E-03     54.6888E-03    -164.303E-03     327.971E-03    -163.780E-03     53.7324E-03
             360     9.16940E-03     81.4541E-03    -31.0572E+06     1.43674E+06     38.1860E+06     2.46038E+06    -164.365E-03     328.342E-03    -163.978E-03     59.7456E-03    -164.666E-03     328.428E-03    -163.744E-03     58.5921E-03
             361     9.93130E-03     81.5215E-03    -28.2545E+06     30.5782E+06     48.0356E+06     3.48140E+06    -164.405E-03     328.361E-03    -163.956E-03     63.5099E-03    -164.778E-03     328.603E-03    -163.719E-03     62.0922E-03
             362     10.6973E-03     81.6061E-03    -27.5840E+06     41.2427E+06     53.5778E+06    -2.63603E+06    -164.568E-03     328.518E-03    -163.950E-03     65.0442E-03    -164.990E-03     328.833E-03    -163.702E-03     63.2553E-03
             363     11.4629E-03     81.6920E-03    -22.1702E+06     49.2513E+06     66.0621E+06    -2.11696E+06    -165.798E-03     329.821E-03    -164.023E-03     66.0436E-03    -166.242E-03     330.169E-03    -163.732E-03     64.0524E-03
             364     12.2236E-03     81.7845E-03    -18.6735E+06     51.5337E+06     71.8174E+06     2.22929E+06    -166.474E-03     330.602E-03    -164.128E-03     67.4052E-03    -166.937E-03     330.973E-03    -163.817E-03     65.2251E-03
             365     12.9852E-03     81.8700E-03    -14.3304E+06     49.9289E+06     71.8672E+06     312.121E+03    -165.399E-03     329.588E-03    -164.189E-03     67.2943E-03    -165.864E-03     329.970E-03    -163.881E-03     64.8145E-03
             366     13.7509E-03     81.9516E-03    -10.8414E+06     61.2848E+06     77.6076E+06    -50.9874E+03    -164.695E-03     328.900E-03    -164.205E-03     66.2543E-03    -165.163E-03     329.322E-03    -163.890E-03     63.7483E-03
             367     14.5153E-03     82.0323E-03    -4.51555E+06     75.8618E+06     84.7562E+06     663.131E+03    -163.693E-03     327.871E-03    -164.178E-03     63.8769E-03    -164.155E-03     328.340E-03    -163.857E-03     61.3726E-03
             368     763.447E-06     82.2834E-03    -106.937E+06    -216.289E+06    -106.407E+06     1.88487E+06    -164.057E-03     327.454E-03    -163.397E-03     6.41142E-03    -164.080E-03     326.700E-03    -163.460E-03     6.47708E-03
             369     1.52783E-03     82.2935E-03    -99.9239E+06    -196.999E+06    -91.8399E+06     3.88372E+06    -164.003E-03     327.786E-03    -163.783E-03     11.1937E-03    -164.060E-03     327.057E-03    -163.811E-03     11.2903E-03
             370     2.29097E-03     82.3113E-03    -99.7370E+06    -186.768E+06    -81.7530E+06    -85.0564E+03    -163.741E-03     327.589E-03    -163.848E-03     16.7989E-03    -163.825E-03     326.895E-03    -163.841E-03     16.8110E-03
             371     3.05633E-03     82.3354E-03    -95.8194E+06    -177.584E+06    -73.4374E+06    -1.10024E+06    -163.703E-03     327.533E-03    -163.830E-03     22.0309E-03    -163.805E-03     326.878E-03    -163.800E-03     21.9840E-03
             372     3.82127E-03     82.3689E-03    -85.7698E+06    -154.030E+06    -53.8536E+06     3.64524E+06    -164.145E-03     328.023E-03    -163.878E-03     26.7002E-03    -164.264E-03     327.447E-03    -163.800E-03     26.6727E-03
             373     4.58339E-03     82.4066E-03    -79.6348E+06    -135.571E+06    -35.4001E+06     1.82675E+06    -164.541E-03     328.536E-03    -163.995E-03     32.0030E-03    -164.691E-03     328.024E-03    -163.860E-03     31.8371E-03
             374     5.34715E-03     82.4516E-03    -76.4224E+06    -122.396E+06    -26.1722E+06    -291.099E+03    -164.095E-03     328.142E-03    -164.048E-03     37.5310E-03    -164.269E-03     327.686E-03    -163.890E-03     37.2501E-03
             375     6.11228E-03     82.5030E-03    -63.1954E+06    -97.8631E+06    -9.61214E+06    -1.77692E+06    -163.839E-03     327.879E-03    -164.040E-03     41.3615E-03    -164.015E-03     327.511E-03    -163.854E-03     40.9272E-03
             376     6.87689E-03     82.5595E-03    -56.1051E+06    -76.9765E+06     3.64804E+06    -745.488E+03    -164.394E-03     328.434E-03    -164.040E-03     45.8430E-03    -164.601E-03     328.158E-03    -163.829E-03     45.2114E-03
             377     7.63866E-03     82.6226E-03    -49.8171E+06    -53.2323E+06     15.9808E+06     808.194E+03    -164.785E-03     328.859E-03    -164.073E-03     51.7659E-03    -165.029E-03     328.690E-03    -163.844E-03     51.0025E-03
             378     8.40192E-03     82.6902E-03    -44.0129E+06    -36.8969E+06     22.2015E+06    -5.43334E+06    -163.869E-03     327.919E-03    -164.051E-03     55.8091E-03    -164.134E-03     327.834E-03    -163.822E-03     54.7734E-03
             379     9.16988E-03     82.7610E-03    -44.4975E+06    -11.0429E+06     26.3167E+06    -1.18660E+06    -163.463E-03     327.416E-03    -163.953E-03     58.5520E-03    -163.792E-03     327.471E-03    -163.741E-03     57.4005E-03
             380     9.93753E-03     82.8439E-03    -31.0310E+06     33.3199E+06     46.8117E+06     3.08358E+06    -165.288E-03     329.239E-03    -163.951E-03     61.3170E-03    -165.670E-03     329.494E-03    -163.721E-03     59.9265E-03
             381     10.6958E-03     82.9226E-03    -23.6912E+06     46.6612E+06     58.5995E+06     2.76047E+06    -166.715E-03     330.789E-03    -164.074E-03     64.6528E-03    -167.130E-03     331.115E-03    -163.814E-03     62.9343E-03
             382     11.4564E-03     83.0101E-03    -23.4884E+06     45.3230E+06     64.1181E+06     3.81506E+06    -165.992E-03     330.195E-03    -164.203E-03     67.9156E-03    -166.434E-03     330.529E-03    -163.914E-03     66.0443E-03
             383     12.2218E-03     83.1011E-03    -17.9845E+06     48.2441E+06     70.9053E+06     1.12872E+06    -163.967E-03     328.190E-03    -164.224E-03     68.4983E-03    -164.420E-03     328.546E-03    -163.913E-03     66.3433E-03
             384     12.9894E-03     83.1843E-03    -12.6441E+06     51.6649E+06     74.5338E+06     2.74223E+06    -163.622E-03     327.779E-03    -164.156E-03     68.8700E-03    -164.074E-03     328.153E-03    -163.840E-03     66.5847E-03
             385     13.7526E-03     83.2688E-03    -7.71971E+06     64.7732E+06     81.1922E+06     2.30931E+06    -164.672E-03     328.791E-03    -164.119E-03     67.8848E-03    -165.135E-03     329.220E-03    -163.795E-03     65.4618E-03
             386     14.5154E-03     83.3495E-03    -4.06984E+06     77.3516E+06     85.4677E+06    -397.214E+03    -164.431E-03     328.537E-03    -164.106E-03     63.3233E-03    -164.891E-03     329.009E-03    -163.785E-03     60.8128E-03
             387     764.280E-06     83.5970E-03    -108.296E+06    -216.420E+06    -107.318E+06    -4.62770E+06    -163.719E-03     327.581E-03    -163.862E-03     7.52867E-03    -163.746E-03     326.831E-03    -163.927E-03     7.41447E-03
             388     1.52844E-03     83.6084E-03    -102.694E+06    -203.329E+06    -98.8555E+06     480.041E+03    -163.762E-03     327.527E-03    -163.765E-03     10.8413E-03    -163.815E-03     326.782E-03    -163.816E-03     10.8374E-03
             389     2.29346E-03     83.6260E-03    -96.7609E+06    -183.119E+06    -79.6103E+06     3.93147E+06    -163.989E-03     327.825E-03    -163.837E-03     16.1078E-03    -164.068E-03     327.144E-03    -163.829E-03     16.1477E-03
             390     3.05569E-03     83.6511E-03    -96.6566E+06    -173.004E+06    -67.3674E+06    -1.04860E+06    -164.158E-03     328.094E-03    -163.936E-03     21.6608E-03    -164.281E-03     327.455E-03    -163.882E-03     21.5768E-03
             391     3.81861E-03     83.6833E-03    -88.7578E+06    -158.392E+06    -57.2326E+06    -2.62978E+06    -163.966E-03     327.941E-03    -163.975E-03     26.9535E-03    -164.087E-03     327.351E-03    -163.903E-03     26.8406E-03
             392     4.58424E-03     83.7230E-03    -79.2648E+06    -136.284E+06    -40.7608E+06     1.41508E+06    -163.977E-03     327.969E-03    -163.993E-03     32.2606E-03    -164.112E-03     327.458E-03    -163.884E-03     32.1389E-03
             393     5.34794E-03     83.7670E-03    -73.4583E+06    -117.971E+06    -23.1408E+06     1.19224E+06    -164.117E-03     328.145E-03    -164.029E-03     37.4109E-03    -164.288E-03     327.705E-03    -163.867E-03     37.1393E-03
             394     6.11103E-03     83.8180E-03    -67.0562E+06    -97.5560E+06    -10.2108E+06     1.39175E+06    -164.208E-03     328.252E-03    -164.044E-03     42.3554E-03    -164.404E-03     327.894E-03    -163.856E-03     41.9980E-03
             395     6.87470E-03     83.8751E-03    -58.0689E+06    -74.3087E+06     3.52526E+06     569.156E+03    -164.169E-03     328.219E-03    -164.049E-03     46.4707E-03    -164.387E-03     327.956E-03    -163.840E-03     45.9213E-03
             396     7.64156E-03     83.9371E-03    -53.2828E+06    -55.7989E+06     12.3098E+06    -397.482E+03    -164.175E-03     328.208E-03    -164.033E-03     51.4386E-03    -164.424E-03     328.034E-03    -163.813E-03     50.7005E-03
             397     8.40670E-03     84.0073E-03    -53.3881E+06    -30.8956E+06     21.0668E+06     2.59578E+06    -165.279E-03     329.339E-03    -164.059E-03     54.2848E-03    -165.598E-03     329.297E-03    -163.832E-03     53.3502E-03
             398     9.16686E-03     84.0752E-03    -44.4924E+06    -3.06403E+06     33.9839E+06    -4.01601E+06    -165.638E-03     329.785E-03    -164.147E-03     56.4243E-03    -165.995E-03     329.874E-03    -163.908E-03     55.1290E-03
             399     9.92772E-03     84.1590E-03    -37.0243E+06     21.1578E+06     39.4256E+06    -5.60997E+06    -164.794E-03     328.963E-03    -164.169E-03     60.6043E-03    -165.175E-03     329.174E-03    -163.949E-03     59.1311E-03
             400     10.6955E-03     84.2420E-03    -32.5985E+06     37.8185E+06     46.8925E+06     3.82128E+06    -165.135E-03     329.316E-03    -164.181E-03     65.2113E-03    -165.554E-03     329.617E-03    -163.954E-03     63.6681E-03
             401     11.4589E-03     84.3305E-03    -24.9634E+06     43.3706E+06     58.9123E+06     3.82275E+06    -164.601E-03     328.812E-03    -164.211E-03     68.5820E-03    -165.045E-03     329.150E-03    -163.943E-03     66.7002E-03
             402     12.2229E-03     84.4117E-03    -17.5887E+06     49.0730E+06     70.7453E+06     3.88093E+06    -163.316E-03     327.498E-03    -164.182E-03     68.9631E-03    -163.771E-03     327.859E-03    -163.874E-03     66.8382E-03
             403     12.9886E-03     84.4972E-03    -13.2766E+06     56.4762E+06     77.1677E+06     4.88086E+06    -163.737E-03     327.846E-03    -164.109E-03     68.9594E-03    -164.196E-03     328.235E-03    -163.786E-03     66.7616E-03
             404     13.7541E-03     84.5869E-03    -10.5400E+06     67.5448E+06     81.1621E+06     2.34632E+06    -164.379E-03     328.444E-03    -164.065E-03     66.0730E-03    -164.860E-03     328.892E-03    -163.742E-03     63.6001E-03
             405     14.5198E-03     84.6637E-03    -5.42751E+06     76.8102E+06     84.6298E+06    -197.680E+03    -164.786E-03     328.845E-03    -164.060E-03     61.3421E-03    -165.242E-03     329.310E-03    -163.740E-03     58.8642E-03
             406     763.887E-06     84.9129E-03    -108.876E+06    -213.677E+06    -102.153E+06     327.788E+03    -163.981E-03     328.223E-03    -164.242E-03     6.14524E-03    -164.019E-03     327.480E-03    -164.286E-03     6.11659E-03
             407     1.52739E-03     84.9227E-03    -107.885E+06    -203.143E+06    -99.1522E+06    -1.97538E+06    -163.900E-03     327.960E-03    -164.060E-03     10.1867E-03    -163.981E-03     327.225E-03    -164.105E-03     10.1641E-03
             408     2.29034E-03     84.9413E-03    -99.4821E+06    -189.724E+06    -88.6571E+06    -816.084E+03    -163.923E-03     327.940E-03    -164.017E-03     16.0406E-03    -163.996E-03     327.246E-03    -164.041E-03     16.0340E-03
             409     3.05551E-03     84.9671E-03    -89.6185E+06    -169.756E+06    -68.7011E+06     3.97347E+06    -163.915E-03     327.945E-03    -164.030E-03     21.7987E-03    -164.007E-03     327.316E-03    -163.997E-03     21.8636E-03
             410     3.82000E-03     84.9989E-03    -90.0817E+06    -156.390E+06    -55.0894E+06     2.61042E+06    -163.873E-03     327.911E-03    -164.038E-03     27.1531E-03    -164.012E-03     327.335E-03    -163.956E-03     27.1343E-03
             411     4.58332E-03     85.0363E-03    -83.8503E+06    -141.107E+06    -42.3208E+06     14.9348E+03    -163.794E-03     327.816E-03    -164.022E-03     32.2677E-03    -163.945E-03     327.291E-03    -163.907E-03     32.1488E-03
             412     5.34799E-03     85.0836E-03    -71.8418E+06    -116.051E+06    -22.9675E+06     1.32240E+06    -163.937E-03     327.957E-03    -164.020E-03     36.8809E-03    -164.101E-03     327.521E-03    -163.862E-03     36.6623E-03
             413     6.11306E-03     85.1323E-03    -67.8635E+06    -98.2600E+06    -9.77394E+06     3.22776E+06    -164.161E-03     328.192E-03    -164.031E-03     41.9049E-03    -164.360E-03     327.830E-03    -163.839E-03     41.5750E-03
             414     6.87705E-03     85.1924E-03    -64.8058E+06    -81.2662E+06    -2.16192E+06     2.26933E+06    -164.611E-03     328.659E-03    -164.048E-03     46.1796E-03    -164.844E-03     328.380E-03    -163.847E-03     45.6578E-03
             415     7.63879E-03     85.2502E-03    -57.1842E+06    -53.9143E+06     12.7195E+06     963.752E+03    -165.427E-03     329.558E-03    -164.132E-03     49.8279E-03    -165.697E-03     329.397E-03    -163.907E-03     49.1133E-03
             416     8.40199E-03     85.3238E-03    -45.9399E+06    -24.9168E+06     27.6208E+06    -277.263E+03    -165.758E-03     330.001E-03    -164.243E-03     53.5021E-03    -166.055E-03     329.966E-03    -164.002E-03     52.5416E-03
             417     9.16436E-03     85.3996E-03    -41.0727E+06    -909.631E+03     33.3598E+06    -2.21599E+06    -165.558E-03     329.864E-03    -164.307E-03     57.6197E-03    -165.904E-03     329.965E-03    -164.079E-03     56.3039E-03
             418     9.92969E-03     85.4707E-03    -44.7243E+06     16.9996E+06     34.3704E+06    -1.37633E+06    -164.691E-03     328.997E-03    -164.306E-03     63.3596E-03    -165.103E-03     329.211E-03    -164.094E-03     61.9258E-03
             419     10.6924E-03     85.5583E-03    -36.7591E+06     33.6653E+06     42.7252E+06     288.399E+03    -163.442E-03     327.679E-03    -164.237E-03     67.4600E-03    -163.871E-03     327.973E-03    -164.019E-03     65.9055E-03
             420     11.4588E-03     85.6435E-03    -25.3073E+06     42.8653E+06     56.0861E+06     2.54672E+06    -163.366E-03     327.525E-03    -164.159E-03     67.5577E-03    -163.804E-03     327.863E-03    -163.904E-03     65.6612E-03
             421     12.2260E-03     85.7259E-03    -22.0472E+06     44.6828E+06     63.7336E+06     3.56646E+06    -164.458E-03     328.579E-03    -164.121E-03     67.3630E-03    -164.915E-03     328.932E-03    -163.836E-03     65.2232E-03
             422     12.9885E-03     85.8154E-03    -16.3737E+06     58.9525E+06     75.2214E+06     3.02839E+06    -164.774E-03     328.908E-03    -164.134E-03     67.6384E-03    -165.259E-03     329.326E-03    -163.820E-03     65.2882E-03
             423     13.7521E-03     85.8989E-03    -10.2129E+06     73.5512E+06     83.9995E+06     1.33188E+06    -164.323E-03     328.458E-03    -164.135E-03     64.9965E-03    -164.819E-03     328.935E-03    -163.807E-03     62.4500E-03
             424     14.5145E-03     85.9831E-03    -4.84735E+06     76.9397E+06     84.0763E+06     223.503E+03    -163.971E-03     328.068E-03    -164.097E-03     60.5910E-03    -164.418E-03     328.527E-03    -163.781E-03     58.1535E-03
             425     762.677E-06     86.2274E-03    -106.519E+06    -216.780E+06    -106.251E+06     2.95223E+06    -164.087E-03     328.506E-03    -164.419E-03     5.79151E-03    -164.105E-03     327.750E-03    -164.481E-03     5.87999E-03
             426     1.52713E-03     86.2393E-03    -103.768E+06    -199.938E+06    -94.8201E+06     1.58530E+06    -163.896E-03     328.074E-03    -164.178E-03     11.5504E-03    -163.967E-03     327.343E-03    -164.211E-03     11.6146E-03
             427     2.29189E-03     86.2561E-03    -102.868E+06    -189.936E+06    -86.8798E+06    -546.871E+03    -164.089E-03     328.208E-03    -164.119E-03     17.0015E-03    -164.180E-03     327.513E-03    -164.129E-03     17.0033E-03
             428     3.05519E-03     86.2820E-03    -95.0716E+06    -177.032E+06    -73.1622E+06    -808.748E+03    -163.972E-03     328.096E-03    -164.125E-03     21.4981E-03    -164.072E-03     327.444E-03    -164.096E-03     21.4969E-03
             429     3.81938E-03     86.3134E-03    -85.3888E+06    -156.261E+06    -54.2047E+06     2.88948E+06    -163.924E-03     328.050E-03    -164.126E-03     26.2443E-03    -164.041E-03     327.467E-03    -164.047E-03     26.2234E-03
             430     4.58349E-03     86.3533E-03    -83.1955E+06    -138.607E+06    -39.7928E+06     2.86397E+06    -164.042E-03     328.172E-03    -164.131E-03     31.3834E-03    -164.199E-03     327.658E-03    -164.008E-03     31.2595E-03
             431     5.34762E-03     86.3961E-03    -77.6881E+06    -119.983E+06    -25.7210E+06     1.57390E+06    -164.089E-03     328.230E-03    -164.141E-03     36.0782E-03    -164.273E-03     327.787E-03    -163.983E-03     35.8686E-03
             432     6.11050E-03     86.4504E-03    -65.8725E+06    -98.9351E+06    -9.00771E+06     279.411E+03    -164.193E-03     328.348E-03    -164.155E-03     40.4857E-03    -164.384E-03     327.980E-03    -163.961E-03     40.0742E-03
             433     6.87526E-03     86.5040E-03    -61.3123E+06    -85.2290E+06    -1.52524E+06     836.567E+03    -164.923E-03     329.103E-03    -164.180E-03     45.7159E-03    -165.133E-03     328.798E-03    -163.976E-03     45.1665E-03
             434     7.63883E-03     86.5740E-03    -55.2378E+06    -55.4411E+06     9.65349E+06     5.24716E+06    -165.517E-03     329.765E-03    -164.248E-03     51.5160E-03    -165.769E-03     329.596E-03    -164.039E-03     50.9246E-03
             435     8.39922E-03     86.6402E-03    -44.9451E+06    -25.1961E+06     25.6171E+06     1.76421E+06    -165.022E-03     329.336E-03    -164.314E-03     56.6990E-03    -165.313E-03     329.304E-03    -164.084E-03     55.8052E-03
             436     9.16681E-03     86.7123E-03    -43.1634E+06    -5.32553E+06     29.7214E+06     984.685E+03    -164.578E-03     328.871E-03    -164.293E-03     59.5475E-03    -164.922E-03     328.957E-03    -164.074E-03     58.3158E-03
             437     9.92905E-03     86.7911E-03    -37.6867E+06     23.7633E+06     39.8083E+06     4.02582E+06    -164.498E-03     328.757E-03    -164.259E-03     63.1141E-03    -164.895E-03     328.988E-03    -164.040E-03     61.7225E-03
             438     10.6947E-03     86.8703E-03    -33.3080E+06     37.1498E+06     49.2649E+06     693.806E+03    -164.195E-03     328.424E-03    -164.229E-03     66.8964E-03    -164.629E-03     328.729E-03    -163.989E-03     65.2435E-03
             439     11.4608E-03     86.9566E-03    -28.4589E+06     40.6304E+06     55.7674E+06    -177.373E+03    -164.274E-03     328.469E-03    -164.194E-03     66.8899E-03    -164.722E-03     328.798E-03    -163.933E-03     64.9490E-03
             440     12.2217E-03     87.0449E-03    -24.6702E+06     42.9707E+06     60.5918E+06     906.182E+03    -164.758E-03     328.938E-03    -164.180E-03     66.9422E-03    -165.218E-03     329.288E-03    -163.904E-03     64.7863E-03
             441     12.9864E-03     87.1293E-03    -18.2781E+06     57.5996E+06     70.9999E+06     208.395E+03    -164.609E-03     328.796E-03    -164.187E-03     67.8652E-03    -165.103E-03     329.223E-03    -163.889E-03     65.4273E-03
             442     13.7506E-03     87.2177E-03    -7.14869E+06     76.3552E+06     84.9129E+06     377.895E+03    -164.096E-03     328.279E-03    -164.183E-03     66.6276E-03    -164.587E-03     328.770E-03    -163.859E-03     64.0597E-03
             443     14.5175E-03     87.2952E-03    -3.56766E+06     78.8075E+06     87.1090E+06     1.22442E+06    -163.318E-03     327.449E-03    -164.131E-03     61.6317E-03    -163.772E-03     327.918E-03    -163.805E-03     59.1922E-03
             444     764.561E-06     87.5431E-03    -104.644E+06    -217.824E+06    -106.120E+06    -1.70863E+06    -163.854E-03     327.701E-03    -163.847E-03     5.75881E-03    -163.862E-03     326.939E-03    -163.910E-03     5.78768E-03
             445     1.52835E-03     87.5537E-03    -102.664E+06    -204.374E+06    -96.7258E+06     1.47182E+06    -164.280E-03     328.202E-03    -163.922E-03     11.5912E-03    -164.338E-03     327.454E-03    -163.960E-03     11.6260E-03
             446     2.29114E-03     87.5727E-03    -98.1334E+06    -186.686E+06    -80.2907E+06     2.77777E+06    -164.373E-03     328.472E-03    -164.098E-03     16.7791E-03    -164.458E-03     327.779E-03    -164.087E-03     16.8018E-03
             447     3.05459E-03     87.5982E-03    -95.9084E+06    -174.780E+06    -67.3865E+06    -33.3606E+03    -164.403E-03     328.614E-03    -164.211E-03     21.8640E-03    -164.521E-03     327.967E-03    -164.156E-03     21.8067E-03
             448     3.81802E-03     87.6288E-03    -88.9208E+06    -161.255E+06    -55.8052E+06    -3.34495E+06    -164.286E-03     328.548E-03    -164.261E-03     26.7934E-03    -164.411E-03     327.946E-03    -164.178E-03     26.6356E-03
             449     4.58239E-03     87.6681E-03    -78.5174E+06    -140.066E+06    -41.0399E+06     152.711E+03    -164.205E-03     328.476E-03    -164.272E-03     31.7331E-03    -164.333E-03     327.949E-03    -164.160E-03     31.5494E-03
             450     5.34541E-03     87.7136E-03    -74.6849E+06    -120.695E+06    -27.7509E+06     2.75112E+06    -164.168E-03     328.438E-03    -164.270E-03     36.6746E-03    -164.335E-03     327.992E-03    -164.126E-03     36.4431E-03
             451     6.11073E-03     87.7640E-03    -70.7555E+06    -100.643E+06    -13.7989E+06     3.80533E+06    -164.517E-03     328.802E-03    -164.286E-03     42.0203E-03    -164.722E-03     328.439E-03    -164.106E-03     41.7136E-03
             452     6.87317E-03     87.8231E-03    -62.0067E+06    -83.0552E+06    -183.789E+03     1.83793E+06    -164.648E-03     328.961E-03    -164.313E-03     47.4137E-03    -164.864E-03     328.663E-03    -164.104E-03     46.9485E-03
             453     7.63682E-03     87.8879E-03    -53.8007E+06    -62.9832E+06     6.77622E+06     1.30137E+06    -164.026E-03     328.294E-03    -164.268E-03     52.0910E-03    -164.255E-03     328.089E-03    -164.065E-03     51.4499E-03
             454     8.40610E-03     87.9556E-03    -49.0901E+06    -30.5245E+06     18.3703E+06     6.47690E+06    -164.422E-03     328.638E-03    -164.216E-03     56.3723E-03    -164.712E-03     328.592E-03    -164.009E-03     55.5849E-03
             455     9.16502E-03     88.0322E-03    -41.6436E+06     1.91807E+06     34.7073E+06     3.90912E+06    -164.857E-03     329.080E-03    -164.223E-03     58.9821E-03    -165.211E-03     329.193E-03    -163.992E-03     57.7877E-03
             456     9.93147E-03     88.1028E-03    -32.0589E+06     29.0998E+06     46.4390E+06     2.61601E+06    -164.750E-03     328.973E-03    -164.223E-03     62.2057E-03    -165.135E-03     329.212E-03    -163.986E-03     60.7809E-03
             457     10.6951E-03     88.1894E-03    -29.0661E+06     40.9313E+06     53.1791E+06     3.77118E+06    -164.995E-03     329.222E-03    -164.227E-03     65.7561E-03    -165.416E-03     329.531E-03    -163.978E-03     64.1463E-03
             458     11.4552E-03     88.2725E-03    -30.7240E+06     37.8386E+06     55.2670E+06     2.97614E+06    -164.993E-03     329.234E-03    -164.241E-03     67.9545E-03    -165.449E-03     329.554E-03    -163.975E-03     66.0655E-03
             459     12.2232E-03     88.3598E-03    -22.7056E+06     44.3214E+06     63.6714E+06     1.44796E+06    -164.514E-03     328.755E-03    -164.241E-03     68.5571E-03    -164.975E-03     329.108E-03    -163.954E-03     66.4083E-03
             460     12.9870E-03     88.4464E-03    -15.1325E+06     60.9933E+06     73.9898E+06    -880.717E+03    -163.601E-03     327.801E-03    -164.200E-03     68.4895E-03    -164.085E-03     328.234E-03    -163.897E-03     66.0848E-03
             461     13.7527E-03     88.5304E-03    -13.2134E+06     70.7341E+06     80.0464E+06    -2.14044E+06    -163.262E-03     327.391E-03    -164.129E-03     68.2912E-03    -163.764E-03     327.865E-03    -163.812E-03     65.7803E-03
             462     14.5151E-03     88.6130E-03    -5.30809E+06     77.9498E+06     86.4670E+06    -1.10467E+06    -163.226E-03     327.286E-03    -164.060E-03     62.7643E-03    -163.689E-03     327.756E-03    -163.733E-03     60.2872E-03
             463     764.551E-06     88.8583E-03    -106.672E+06    -214.761E+06    -102.150E+06     276.115E+03    -163.877E-03     327.877E-03    -163.999E-03     5.82289E-03    -163.905E-03     327.126E-03    -164.044E-03     5.85500E-03
             464     1.52735E-03     88.8698E-03    -107.054E+06    -207.054E+06    -99.0212E+06    -455.092E+03    -164.532E-03     328.579E-03    -164.047E-03     10.7696E-03    -164.605E-03     327.828E-03    -164.086E-03     10.7733E-03
             465     2.29136E-03     88.8888E-03    -98.7124E+06    -190.710E+06    -85.0424E+06     618.040E+03    -164.227E-03     328.427E-03    -164.199E-03     16.3079E-03    -164.303E-03     327.723E-03    -164.205E-03     16.3162E-03
             466     3.05558E-03     88.9136E-03    -90.7580E+06    -173.080E+06    -67.7851E+06     3.12692E+06    -164.141E-03     328.374E-03    -164.233E-03     21.7395E-03    -164.236E-03     327.730E-03    -164.189E-03     21.7571E-03
             467     3.81893E-03     88.9465E-03    -88.8237E+06    -160.236E+06    -55.1633E+06     1.63013E+06    -164.355E-03     328.618E-03    -164.263E-03     27.4326E-03    -164.484E-03     328.023E-03    -164.178E-03     27.3515E-03
             468     4.58167E-03     88.9833E-03    -82.5371E+06    -144.342E+06    -41.9334E+06     376.943E+03    -164.352E-03     328.647E-03    -164.295E-03     32.7516E-03    -164.493E-03     328.105E-03    -164.176E-03     32.6295E-03
             469     5.34699E-03     89.0296E-03    -72.9346E+06    -123.237E+06    -28.2880E+06     1.97840E+06    -164.373E-03     328.677E-03    -164.304E-03     37.3293E-03    -164.525E-03     328.215E-03    -164.161E-03     37.1263E-03
             470     6.10980E-03     89.0793E-03    -67.6867E+06    -98.1107E+06    -13.3024E+06     6.81674E+06    -164.456E-03     328.773E-03    -164.317E-03     42.6394E-03    -164.648E-03     328.415E-03    -164.143E-03     42.4124E-03
             471     6.87419E-03     89.1416E-03    -65.7405E+06    -78.5947E+06    -307.951E+03     6.07402E+06    -164.280E-03     328.600E-03    -164.321E-03     47.3889E-03    -164.522E-03     328.332E-03    -164.113E-03     46.9624E-03
             472     7.63977E-03     89.1995E-03    -59.6487E+06    -64.1877E+06     8.35736E+06    -1.26007E+06    -164.451E-03     328.751E-03    -164.300E-03     51.3372E-03    -164.714E-03     328.550E-03    -164.078E-03     50.5843E-03
             473     8.39950E-03     89.2738E-03    -48.7214E+06    -35.1985E+06     17.8552E+06    -646.643E+03    -164.193E-03     328.440E-03    -164.247E-03     55.1948E-03    -164.474E-03     328.372E-03    -164.036E-03     54.2726E-03
             474     9.16873E-03     89.3455E-03    -44.0185E+06     2.58450E+06     30.9091E+06     5.01434E+06    -164.232E-03     328.432E-03    -164.200E-03     58.1309E-03    -164.591E-03     328.555E-03    -163.985E-03     56.9644E-03
             475     9.92976E-03     89.4227E-03    -40.5485E+06     26.5728E+06     40.3670E+06     4.22541E+06    -164.878E-03     329.063E-03    -164.185E-03     62.3918E-03    -165.292E-03     329.310E-03    -163.962E-03     61.0024E-03
             476     10.6928E-03     89.5039E-03    -31.9611E+06     38.2461E+06     48.2310E+06     3.34027E+06    -164.729E-03     328.912E-03    -164.183E-03     66.8166E-03    -165.147E-03     329.213E-03    -163.951E-03     65.2878E-03
             477     11.4618E-03     89.5892E-03    -26.0501E+06     43.5836E+06     59.1853E+06     6.11783E+06    -164.685E-03     328.880E-03    -164.195E-03     69.3634E-03    -165.123E-03     329.209E-03    -163.925E-03     67.6287E-03
             478     12.2212E-03     89.6771E-03    -20.3420E+06     47.4310E+06     69.0098E+06     836.352E+03    -164.223E-03     328.414E-03    -164.191E-03     69.4934E-03    -164.688E-03     328.775E-03    -163.885E-03     67.3225E-03
             479     12.9872E-03     89.7586E-03    -12.4517E+06     58.8941E+06     79.0198E+06    -2.02878E+06    -163.398E-03     327.540E-03    -164.142E-03     69.2112E-03    -163.874E-03     327.952E-03    -163.815E-03     66.7982E-03
             480     13.7532E-03     89.8444E-03    -7.99067E+06     72.0166E+06     86.3319E+06    -106.871E+03    -163.244E-03     327.310E-03    -164.066E-03     68.1883E-03    -163.727E-03     327.769E-03    -163.727E-03     65.7550E-03
             481     14.5218E-03     89.9270E-03    -5.84043E+06     79.1119E+06     87.9501E+06    -1.18731E+06    -164.701E-03     328.725E-03    -164.024E-03     61.4601E-03    -165.170E-03     329.199E-03    -163.690E-03     58.9380E-03
             482     763.066E-06     90.1759E-03    -104.554E+06    -215.259E+06    -103.939E+06     1.18563E+06    -163.777E-03     328.963E-03    -165.185E-03     5.95893E-03    -163.794E-03     328.211E-03    -165.241E-03     6.01393E-03
             483     1.52693E-03     90.1855E-03    -104.178E+06    -204.469E+06    -96.0322E+06    -281.798E+03    -164.195E-03     328.613E-03    -164.418E-03     11.2939E-03    -164.263E-03     327.866E-03    -164.450E-03     11.2885E-03
             484     2.29039E-03     90.2050E-03    -100.329E+06    -192.889E+06    -87.8633E+06    -1.55799E+06    -164.244E-03     328.598E-03    -164.353E-03     16.2429E-03    -164.320E-03     327.889E-03    -164.367E-03     16.2201E-03
             485     3.05391E-03     90.2288E-03    -93.9934E+06    -178.111E+06    -74.8448E+06     30.7442E+03    -164.016E-03     328.336E-03    -164.320E-03     21.2373E-03    -164.109E-03     327.681E-03    -164.299E-03     21.2541E-03
             486     3.81893E-03     90.2616E-03    -86.8936E+06    -161.165E+06    -57.2723E+06     3.09247E+06    -164.036E-03     328.332E-03    -164.296E-03     26.4992E-03    -164.149E-03     327.731E-03    -164.223E-03     26.5177E-03
             487     4.58355E-03     90.3004E-03    -79.0077E+06    -139.746E+06    -37.0819E+06     5.39432E+06    -164.282E-03     328.594E-03    -164.312E-03     31.5375E-03    -164.419E-03     328.062E-03    -164.180E-03     31.5308E-03
             488     5.34568E-03     90.3447E-03    -76.1780E+06    -125.233E+06    -25.6496E+06     3.41881E+06    -164.485E-03     328.819E-03    -164.334E-03     37.1335E-03    -164.655E-03     328.348E-03    -164.170E-03     36.9732E-03
             489     6.10971E-03     90.3977E-03    -70.4011E+06    -108.127E+06    -16.9940E+06     2.98218E+06    -164.299E-03     328.624E-03    -164.325E-03     42.4269E-03    -164.488E-03     328.229E-03    -164.151E-03     42.0800E-03
             490     6.87447E-03     90.4532E-03    -56.3557E+06    -74.4682E+06     3.63698E+06     5.26336E+06    -164.348E-03     328.669E-03    -164.321E-03     47.3012E-03    -164.556E-03     328.403E-03    -164.113E-03     46.8197E-03
             491     7.63623E-03     90.5205E-03    -56.5553E+06    -55.0083E+06     12.9952E+06     4.78715E+06    -164.625E-03     328.939E-03    -164.314E-03     52.0425E-03    -164.891E-03     328.771E-03    -164.087E-03     51.4041E-03
             492     8.40307E-03     90.5873E-03    -57.8855E+06    -39.0968E+06     15.6975E+06     3.02147E+06    -164.229E-03     328.502E-03    -164.273E-03     56.0164E-03    -164.551E-03     328.434E-03    -164.053E-03     55.1176E-03
             493     9.16459E-03     90.6595E-03    -46.7916E+06    -4.86157E+06     27.3582E+06     2.40548E+06    -163.772E-03     327.965E-03    -164.193E-03     59.8192E-03    -164.125E-03     328.055E-03    -163.981E-03     58.6913E-03
             494     9.93160E-03     90.7407E-03    -38.8471E+06     23.7222E+06     39.3416E+06     4.18789E+06    -164.382E-03     328.517E-03    -164.135E-03     63.5068E-03    -164.777E-03     328.744E-03    -163.916E-03     62.2098E-03
             495     10.6975E-03     90.8173E-03    -33.4922E+06     36.4135E+06     48.7756E+06     4.02464E+06    -165.157E-03     329.300E-03    -164.143E-03     65.7524E-03    -165.584E-03     329.596E-03    -163.904E-03     64.1797E-03
             496     11.4570E-03     90.9073E-03     -23.526E+06     47.4162E+06     61.6342E+06     462.177E+03    -164.049E-03     328.203E-03    -164.154E-03     66.9946E-03    -164.487E-03     328.548E-03    -163.881E-03     65.0995E-03
             497     12.2267E-03     90.9899E-03    -18.8239E+06     55.5603E+06     73.7314E+06    -1.58839E+06    -163.393E-03     327.513E-03    -164.120E-03     68.0929E-03    -163.867E-03     327.903E-03    -163.804E-03     65.8946E-03
             498     12.9910E-03     91.0751E-03    -14.0903E+06     58.7874E+06     79.6887E+06    -2.54511E+06    -164.629E-03     328.717E-03    -164.087E-03     67.5905E-03    -165.121E-03     329.136E-03    -163.754E-03     65.0512E-03
             499     13.7546E-03     91.1582E-03    -5.89550E+06     70.8766E+06     87.3710E+06     939.080E+03    -165.237E-03     329.346E-03    -164.109E-03     64.3085E-03    -165.718E-03     329.804E-03    -163.766E-03     61.6765E-03
             500     14.5157E-03     91.2420E-03    -5.50792E+06     80.2287E+06     88.9265E+06     2.97452E+06    -165.242E-03     329.380E-03    -164.138E-03     60.6493E-03    -165.714E-03     329.859E-03    -163.801E-03     58.1422E-03
             501     762.530E-06     91.4882E-03    -102.669E+06    -216.907E+06    -102.348E+06     18.1266E+03    -164.101E-03     329.168E-03    -165.068E-03     5.71569E-03    -164.109E-03     328.403E-03    -165.116E-03     5.77421E-03
             502     1.52733E-03     91.5034E-03    -99.7864E+06    -205.366E+06    -94.9125E+06     574.746E+03    -164.180E-03     328.666E-03    -164.486E-03     11.9503E-03    -164.228E-03     327.909E-03    -164.518E-03     11.9660E-03
             503     2.29071E-03     91.5207E-03    -96.2296E+06    -191.049E+06    -82.5936E+06     1.33230E+06    -164.269E-03     328.677E-03    -164.408E-03     16.5228E-03    -164.338E-03     327.966E-03    -164.404E-03     16.5705E-03
             504     3.05470E-03     91.5453E-03    -95.2826E+06    -178.218E+06    -71.3983E+06     1.48132E+06    -164.378E-03     328.787E-03    -164.409E-03     21.7774E-03    -164.484E-03     328.130E-03    -164.369E-03     21.8029E-03
             505     3.81734E-03     91.5771E-03    -88.9918E+06    -161.703E+06    -55.8120E+06     575.713E+03    -164.220E-03     328.642E-03    -164.422E-03     26.7935E-03    -164.345E-03     328.039E-03    -164.337E-03     26.7479E-03
             506     4.58089E-03     91.6158E-03    -81.7185E+06    -145.814E+06    -41.6495E+06     1.29304E+06    -163.842E-03     328.222E-03    -164.381E-03     31.8948E-03    -163.979E-03     327.672E-03    -164.259E-03     31.7627E-03
             507     5.34634E-03     91.6617E-03    -74.4561E+06    -124.976E+06    -26.1581E+06     4.10739E+06    -163.848E-03     328.165E-03    -164.316E-03     38.0165E-03    -164.011E-03     327.695E-03    -164.158E-03     37.8103E-03
             508     6.11038E-03     91.7120E-03    -68.9596E+06    -109.476E+06    -15.5407E+06     1.96439E+06    -164.521E-03     328.809E-03    -164.288E-03     43.3112E-03    -164.705E-03     328.405E-03    -164.107E-03     42.9312E-03
             509     6.87341E-03     91.7709E-03    -59.9197E+06    -86.7999E+06    -4.41324E+06     3.50226E+06    -164.640E-03     328.931E-03    -164.290E-03     47.7362E-03    -164.837E-03     328.620E-03    -164.100E-03     47.2492E-03
             510     7.63971E-03     91.8351E-03    -50.0730E+06    -49.8224E+06     16.8229E+06     10.4760E+06    -164.067E-03     328.358E-03    -164.291E-03     51.6609E-03    -164.310E-03     328.197E-03    -164.062E-03     51.1399E-03
             511     8.40216E-03     91.9027E-03    -52.7044E+06    -33.4576E+06     23.9055E+06     7.91283E+06    -163.947E-03     328.183E-03    -164.236E-03     55.4227E-03    -164.263E-03     328.124E-03    -163.992E-03     54.5863E-03
             512     9.16824E-03     91.9769E-03    -49.4877E+06    -7.74987E+06     28.7481E+06     1.25539E+06    -164.186E-03     328.344E-03    -164.157E-03     59.5603E-03    -164.553E-03     328.424E-03    -163.931E-03     58.4005E-03
             513     9.93255E-03     92.0503E-03    -39.2230E+06     25.9137E+06     43.2124E+06     3.32289E+06    -165.168E-03     329.320E-03    -164.152E-03     63.2594E-03    -165.570E-03     329.550E-03    -163.917E-03     61.9739E-03
             514     10.6929E-03     92.1422E-03    -30.6117E+06     40.7619E+06     55.1890E+06     2.49315E+06    -165.314E-03     329.517E-03    -164.204E-03     64.1043E-03    -165.751E-03     329.830E-03    -163.942E-03     62.3747E-03
             515     11.4600E-03     92.2174E-03    -21.5519E+06     49.3250E+06     64.8353E+06    -2.36938E+06    -163.996E-03     328.208E-03    -164.212E-03     64.4350E-03    -164.449E-03     328.571E-03    -163.928E-03     62.2698E-03
             516     12.2234E-03     92.3032E-03    -14.1983E+06     59.4527E+06     77.0423E+06     1.16750E+06    -163.776E-03     327.961E-03    -164.185E-03     66.1468E-03    -164.234E-03     328.357E-03    -163.865E-03     63.9734E-03
             517     12.9877E-03     92.3923E-03    -15.7122E+06     57.9530E+06     76.9832E+06     2.16040E+06    -164.875E-03     329.032E-03    -164.157E-03     66.7328E-03    -165.362E-03     329.445E-03    -163.833E-03     64.3242E-03
             518     13.7489E-03     92.4780E-03    -14.7603E+06     62.4926E+06     77.2296E+06    -695.624E+03    -165.284E-03     329.449E-03    -164.165E-03     66.6667E-03    -165.780E-03     329.890E-03    -163.848E-03     64.0921E-03
             519     14.5124E-03     92.5601E-03    -3.72809E+06     80.6509E+06     87.0323E+06     1.42443E+06    -163.242E-03     327.387E-03    -164.145E-03     65.0333E-03    -163.703E-03     327.869E-03    -163.821E-03     62.6397E-03
             520     764.850E-06     92.8083E-03    -103.243E+06    -218.844E+06    -99.8530E+06     2.66194E+06    -164.397E-03     328.261E-03    -163.864E-03     6.32159E-03    -164.410E-03     327.479E-03    -163.897E-03     6.36260E-03
             521     1.52633E-03     92.8181E-03    -100.772E+06    -207.613E+06    -93.5851E+06     1.35440E+06    -164.549E-03     328.753E-03    -164.204E-03     12.1974E-03    -164.599E-03     327.983E-03    -164.224E-03     12.2056E-03
             522     2.29103E-03     92.8370E-03    -98.2485E+06    -194.026E+06    -83.5064E+06     2.42970E+06    -164.267E-03     328.567E-03    -164.301E-03     16.9466E-03    -164.340E-03     327.847E-03    -164.294E-03     16.9940E-03
             523     3.05409E-03     92.8619E-03    -93.0486E+06    -176.564E+06    -67.9165E+06     4.56240E+06    -164.343E-03     328.676E-03    -164.333E-03     22.3902E-03    -164.446E-03     328.019E-03    -164.282E-03     22.4261E-03
             524     3.81827E-03     92.8940E-03    -89.9817E+06    -161.536E+06    -54.0884E+06     4.54457E+06    -164.145E-03     328.493E-03    -164.349E-03     27.7452E-03    -164.277E-03     327.890E-03    -164.254E-03     27.7304E-03
             525     4.58247E-03     92.9312E-03    -86.3207E+06    -150.802E+06    -43.3759E+06     79.3392E+03    -163.743E-03     328.043E-03    -164.301E-03     32.8237E-03    -163.893E-03     327.478E-03    -164.174E-03     32.6598E-03
             526     5.34681E-03     92.9745E-03    -72.7666E+06    -125.903E+06    -26.4860E+06     744.464E+03    -164.051E-03     328.295E-03    -164.245E-03     38.6134E-03    -164.202E-03     327.818E-03    -164.089E-03     38.3847E-03
             527     6.11134E-03     93.0301E-03    -64.4424E+06    -104.560E+06    -11.7468E+06     2.91680E+06    -164.883E-03     329.149E-03    -164.266E-03     43.0791E-03    -165.054E-03     328.754E-03    -164.079E-03     42.7566E-03
             528     6.87455E-03     93.0874E-03    -67.0375E+06    -95.0972E+06    -7.40618E+06     3.47521E+06    -164.775E-03     329.080E-03    -164.305E-03     46.0982E-03    -164.993E-03     328.744E-03    -164.107E-03     45.5721E-03
             529     7.63688E-03     93.1491E-03    -56.9509E+06    -64.6762E+06     8.34917E+06     7.98417E+06    -164.073E-03     328.374E-03    -164.301E-03     50.4219E-03    -164.321E-03     328.165E-03    -164.083E-03     49.8082E-03
             530     8.40320E-03     93.2193E-03    -39.6783E+06    -24.5054E+06     33.6106E+06     8.02460E+06    -164.220E-03     328.507E-03    -164.287E-03     54.0604E-03    -164.497E-03     328.458E-03    -164.026E-03     53.2123E-03
             531     9.16730E-03     93.2884E-03    -36.5675E+06     6.30810E+06     43.4990E+06     5.71471E+06    -165.289E-03     329.572E-03    -164.283E-03     57.3320E-03    -165.635E-03     329.684E-03    -164.022E-03     56.1649E-03
             532     9.92890E-03     93.3739E-03     -34.506E+06     29.9194E+06     47.2895E+06     5.06657E+06    -164.735E-03     329.012E-03    -164.277E-03     61.8763E-03    -165.135E-03     329.258E-03    -164.034E-03     60.4878E-03
             533     10.6947E-03     93.4542E-03    -31.0720E+06     40.3146E+06     52.4516E+06     806.374E+03    -163.484E-03     327.705E-03    -164.221E-03     65.3238E-03    -163.918E-03     328.020E-03    -163.972E-03     63.6093E-03
             534     11.4574E-03     93.5351E-03    -27.1651E+06     48.0375E+06     61.2544E+06    -1.18148E+06    -164.646E-03     328.829E-03    -164.184E-03     67.4753E-03    -165.113E-03     329.194E-03    -163.908E-03     65.4467E-03
             535     12.2212E-03     93.6191E-03    -19.4358E+06     53.8254E+06     71.4367E+06     2.39486E+06    -164.909E-03     329.110E-03    -164.201E-03     69.0683E-03    -165.378E-03     329.493E-03    -163.893E-03     66.9486E-03
             536     12.9863E-03     93.7066E-03    -14.8007E+06     53.1891E+06     73.6052E+06     5.62663E+06    -163.545E-03     327.702E-03    -164.157E-03     71.0638E-03    -163.999E-03     328.079E-03    -163.845E-03     68.9754E-03
             537     13.7540E-03     93.7950E-03    -10.3905E+06     66.3649E+06     79.8018E+06     3.14978E+06    -163.172E-03     327.241E-03    -164.069E-03     70.0394E-03    -163.641E-03     327.677E-03    -163.751E-03     67.7725E-03
             538     14.5212E-03     93.8725E-03    -3.49732E+06     82.1048E+06     89.1458E+06    -1.09795E+06    -163.665E-03     327.676E-03    -164.011E-03     63.5711E-03    -164.130E-03     328.162E-03    -163.679E-03     61.0944E-03
             539     763.965E-06     94.1229E-03    -108.410E+06    -223.831E+06    -106.613E+06     86.8943E+03    -164.290E-03     327.770E-03    -163.480E-03     6.74257E-03    -164.315E-03     326.982E-03    -163.532E-03     6.71548E-03
             540     1.52892E-03     94.1355E-03    -103.002E+06    -209.614E+06    -94.4214E+06     3.32106E+06    -164.224E-03     328.182E-03    -163.959E-03     11.6493E-03    -164.280E-03     327.407E-03    -163.977E-03     11.6855E-03
             541     2.29103E-03     94.1524E-03    -102.774E+06    -198.542E+06    -85.9167E+06     3.94072E+06    -164.397E-03     328.492E-03    -164.095E-03     17.2578E-03    -164.481E-03     327.757E-03    -164.088E-03     17.2999E-03
             542     3.05553E-03     94.1782E-03    -96.3150E+06    -180.992E+06    -70.6397E+06     3.82915E+06    -164.125E-03     328.300E-03    -164.175E-03     22.1863E-03    -164.233E-03     327.629E-03    -164.126E-03     22.2116E-03
             543     3.81925E-03     94.2091E-03    -84.9573E+06    -160.827E+06    -51.7284E+06     2.27240E+06    -163.906E-03     328.089E-03    -164.182E-03     26.9087E-03    -164.019E-03     327.479E-03    -164.085E-03     26.8752E-03
             544     4.58352E-03     94.2462E-03    -77.1529E+06    -144.016E+06    -36.2782E+06     2.63989E+06    -164.481E-03     328.688E-03    -164.207E-03     31.7043E-03    -164.606E-03     328.132E-03    -164.067E-03     31.6057E-03
             545     5.34711E-03     94.2909E-03    -77.6473E+06    -128.434E+06    -26.8297E+06     3.59645E+06    -165.139E-03     329.435E-03    -164.295E-03     37.5556E-03    -165.311E-03     328.953E-03    -164.131E-03     37.3802E-03
             546     6.10923E-03     94.3469E-03    -71.6026E+06    -109.282E+06    -13.6389E+06     1.45805E+06    -164.753E-03     329.135E-03    -164.382E-03     42.0101E-03    -164.951E-03     328.731E-03    -164.188E-03     41.6524E-03
             547     6.87306E-03     94.4039E-03    -57.6614E+06    -91.1332E+06     1.86494E+06    -2.10675E+06    -164.261E-03     328.658E-03    -164.397E-03     45.7067E-03    -164.453E-03     328.316E-03    -164.172E-03     45.0717E-03
             548     7.63823E-03     94.4652E-03    -53.3564E+06    -72.6729E+06     6.39524E+06     945.481E+03    -164.571E-03     328.921E-03    -164.350E-03     50.6938E-03    -164.791E-03     328.675E-03    -164.136E-03     49.9380E-03
             549     8.40141E-03     94.5326E-03    -43.0292E+06    -32.0435E+06     24.1204E+06     9.84126E+06    -165.106E-03     329.467E-03    -164.362E-03     54.9137E-03    -165.371E-03     329.396E-03    -164.132E-03     54.1633E-03
             550     9.16295E-03     94.6113E-03    -31.4369E+06     8.68920E+06     45.1948E+06     12.7353E+06    -164.780E-03     329.168E-03    -164.389E-03     59.8118E-03    -165.098E-03     329.275E-03    -164.130E-03     58.8808E-03
             551     9.92745E-03     94.6867E-03    -30.6330E+06     31.2874E+06     47.4275E+06     7.26612E+06    -163.254E-03     327.540E-03    -164.286E-03     63.3318E-03    -163.638E-03     327.790E-03    -164.050E-03     61.9751E-03
             552     10.6954E-03     94.7643E-03    -27.0594E+06     43.3482E+06     53.2992E+06     4.71242E+06    -162.638E-03     326.779E-03    -164.141E-03     66.2614E-03    -163.049E-03     327.093E-03    -163.898E-03     64.7302E-03
             553     11.4633E-03     94.8533E-03    -24.7076E+06     49.3545E+06     65.2365E+06     5.93311E+06    -163.558E-03     327.616E-03    -164.058E-03     69.6691E-03    -164.002E-03     327.958E-03    -163.767E-03     68.0105E-03
             554     12.2254E-03     94.9380E-03    -23.2473E+06     51.7490E+06     70.4272E+06     2.46735E+06    -164.501E-03     328.520E-03    -164.018E-03     71.1040E-03    -164.988E-03     328.903E-03    -163.708E-03     69.0051E-03
             555     12.9900E-03     95.0180E-03    -15.5301E+06     54.0767E+06     73.7761E+06     817.883E+03    -164.561E-03     328.558E-03    -163.998E-03     71.1927E-03    -165.033E-03     328.954E-03    -163.685E-03     68.8933E-03
             556     13.7557E-03     95.1075E-03    -7.55556E+06     70.7516E+06     84.2602E+06     1.97808E+06    -164.562E-03     328.563E-03    -164.001E-03     66.7735E-03    -165.041E-03     329.022E-03    -163.671E-03     64.2897E-03
             557     14.5186E-03     95.1883E-03    -4.11062E+06     84.1736E+06     91.2428E+06     892.953E+03    -165.077E-03     329.104E-03    -164.027E-03     59.5329E-03    -165.556E-03     329.603E-03    -163.687E-03     56.9260E-03
             558     763.168E-06     95.4381E-03    -110.431E+06    -224.543E+06    -107.759E+06    -502.935E+03    -164.559E-03     328.514E-03    -163.955E-03     6.23442E-03    -164.587E-03     327.729E-03    -164.008E-03     6.23534E-03
             559     1.52708E-03     95.4490E-03    -106.803E+06    -213.291E+06    -99.1388E+06    -244.484E+03    -163.959E-03     328.156E-03    -164.197E-03     10.5810E-03    -164.022E-03     327.374E-03    -164.228E-03     10.6188E-03
             560     2.29241E-03     95.4696E-03    -100.280E+06    -199.529E+06    -86.6537E+06     773.811E+03    -164.015E-03     328.158E-03    -164.143E-03     15.9263E-03    -164.084E-03     327.415E-03    -164.141E-03     15.9654E-03
             561     3.05477E-03     95.4933E-03    -94.3273E+06    -183.399E+06    -72.7798E+06     1.63630E+06    -164.002E-03     328.137E-03    -164.135E-03     20.9867E-03    -164.093E-03     327.454E-03    -164.096E-03     21.0174E-03
             562     3.81932E-03     95.5241E-03    -85.1295E+06    -162.188E+06    -52.8678E+06     3.46151E+06    -164.374E-03     328.558E-03    -164.184E-03     26.2634E-03    -164.484E-03     327.944E-03    -164.090E-03     26.2626E-03
             563     4.58283E-03     95.5626E-03    -82.8102E+06    -146.476E+06    -39.2873E+06     3.57347E+06    -165.240E-03     329.552E-03    -164.312E-03     31.5927E-03    -165.385E-03     328.997E-03    -164.176E-03     31.5141E-03
             564     5.34451E-03     95.6101E-03    -75.6164E+06    -126.753E+06    -24.8311E+06     3.57132E+06    -165.084E-03     329.534E-03    -164.450E-03     37.4188E-03    -165.253E-03     329.056E-03    -164.281E-03     37.2002E-03
             565     6.10853E-03     95.6627E-03    -66.1725E+06    -104.083E+06    -10.2634E+06     3.40648E+06    -163.947E-03     328.409E-03    -164.462E-03     42.4881E-03    -164.133E-03     328.021E-03    -164.267E-03     42.1219E-03
             566     6.87379E-03     95.7182E-03    -61.7554E+06    -89.6828E+06    -1.18289E+06     144.365E+03    -164.049E-03     328.442E-03    -164.393E-03     47.0836E-03    -164.257E-03     328.116E-03    -164.180E-03     46.5461E-03
             567     7.63760E-03     95.7814E-03    -49.7760E+06    -71.4088E+06     11.2184E+06    -2.04697E+06    -165.100E-03     329.484E-03    -164.384E-03     51.7237E-03    -165.308E-03     329.230E-03    -164.152E-03     50.9704E-03
             568     8.39999E-03     95.8526E-03    -45.7328E+06    -46.9282E+06     15.5149E+06     3.10306E+06    -164.239E-03     328.581E-03    -164.342E-03     56.0705E-03    -164.485E-03     328.453E-03    -164.130E-03     55.2367E-03
             569     9.16674E-03     95.9238E-03    -41.0674E+06    -8.41161E+06     27.9459E+06     8.95087E+06    -162.546E-03     326.751E-03    -164.206E-03     61.6883E-03    -162.857E-03     326.806E-03    -163.994E-03     60.8215E-03
             570     9.93400E-03     96.0015E-03    -30.2724E+06     30.9076E+06     46.6036E+06     8.51642E+06    -163.247E-03     327.307E-03    -164.060E-03     65.4010E-03    -163.620E-03     327.547E-03    -163.828E-03     64.1868E-03
             571     10.6959E-03     96.0794E-03    -25.1347E+06     47.3965E+06     56.9017E+06     10.6550E+06    -164.112E-03     328.102E-03    -163.989E-03     67.0125E-03    -164.527E-03     328.431E-03    -163.737E-03     65.5366E-03
             572     11.4597E-03     96.1642E-03    -22.2662E+06     54.5486E+06     67.3657E+06     10.6178E+06    -163.483E-03     327.441E-03    -163.957E-03     68.1531E-03    -163.931E-03     327.807E-03    -163.667E-03     66.4759E-03
             573     12.2304E-03     96.2509E-03    -18.3174E+06     58.5340E+06     76.9223E+06     5.22316E+06    -164.415E-03     328.358E-03    -163.943E-03     67.5026E-03    -164.898E-03     328.761E-03    -163.616E-03     65.3480E-03
             574     12.9925E-03     96.3398E-03    -12.2304E+06     59.2391E+06     82.1120E+06     1.87701E+06    -166.132E-03     330.127E-03    -163.996E-03     66.4297E-03    -166.617E-03     330.542E-03    -163.653E-03     63.9213E-03
             575     13.7520E-03     96.4225E-03    -10.1180E+06     70.1451E+06     84.7601E+06     1.37922E+06    -166.068E-03     330.141E-03    -164.073E-03     66.0622E-03    -166.564E-03     330.604E-03    -163.736E-03     63.4955E-03
             576     14.5141E-03     96.5101E-03    -4.86817E+06     84.1145E+06     88.3669E+06     1.38038E+06    -164.167E-03     328.260E-03    -164.092E-03     61.2411E-03    -164.645E-03     328.763E-03    -163.765E-03     58.6997E-03
             577     763.849E-06     96.7555E-03    -108.058E+06    -224.141E+06    -107.449E+06     172.533E+03    -164.833E-03     329.411E-03    -164.578E-03     5.19804E-03    -164.847E-03     328.625E-03    -164.633E-03     5.24444E-03
             578     1.52651E-03     96.7655E-03    -106.327E+06    -214.408E+06    -99.8962E+06     327.375E+03    -164.269E-03     328.878E-03    -164.609E-03     10.8865E-03    -164.327E-03     328.091E-03    -164.643E-03     10.9175E-03
             579     2.28938E-03     96.7840E-03    -101.240E+06    -197.338E+06    -86.6071E+06    -146.313E+03    -163.964E-03     328.432E-03    -164.468E-03     15.5949E-03    -164.043E-03     327.704E-03    -164.468E-03     15.6378E-03
             580     3.05552E-03     96.8088E-03    -95.3136E+06    -184.259E+06    -73.4655E+06    -1.67183E+06    -163.985E-03     328.356E-03    -164.371E-03     20.0884E-03    -164.080E-03     327.672E-03    -164.333E-03     20.0746E-03
             581     3.81867E-03     96.8400E-03    -92.7210E+06    -172.521E+06    -62.7208E+06     2.23933E+06    -164.394E-03     328.746E-03    -164.352E-03     26.2889E-03    -164.513E-03     328.105E-03    -164.281E-03     26.2738E-03
             582     4.58093E-03     96.8814E-03    -86.3117E+06    -149.389E+06    -45.0372E+06     5.74392E+06    -164.486E-03     328.879E-03    -164.393E-03     33.3461E-03    -164.637E-03     328.323E-03    -164.276E-03     33.3114E-03
             583     5.34511E-03     96.9268E-03    -75.3479E+06    -125.889E+06    -26.0339E+06     2.55697E+06    -164.211E-03     328.616E-03    -164.406E-03     38.9133E-03    -164.377E-03     328.144E-03    -164.244E-03     38.6983E-03
             584     6.11013E-03     96.9766E-03    -64.8320E+06    -105.487E+06    -12.3922E+06     2.45154E+06    -164.034E-03     328.396E-03    -164.362E-03     42.7241E-03    -164.207E-03     328.001E-03    -164.177E-03     42.3478E-03
             585     6.87460E-03     97.0334E-03    -61.4246E+06    -82.5878E+06    -273.186E+03     6.87063E+06    -164.231E-03     328.551E-03    -164.320E-03     47.8326E-03    -164.447E-03     328.256E-03    -164.113E-03     47.4365E-03
             586     7.63710E-03     97.1007E-03    -57.8886E+06    -70.0115E+06       9.956E+06     1.92818E+06    -164.026E-03     328.309E-03    -164.283E-03     53.5343E-03    -164.273E-03     328.073E-03    -164.048E-03     52.9180E-03
             587     8.40247E-03     97.1663E-03    -52.0232E+06    -56.3571E+06     12.3513E+06    -3.54552E+06    -163.222E-03     327.379E-03    -164.158E-03     56.3643E-03    -163.485E-03     327.222E-03    -163.939E-03     55.3789E-03
             588     9.16877E-03     97.2336E-03    -46.2496E+06    -15.0882E+06     22.0545E+06     2.71972E+06    -162.988E-03     326.984E-03    -163.996E-03     59.7961E-03    -163.311E-03     327.026E-03    -163.797E-03     58.7447E-03
             589     9.93439E-03     97.3151E-03    -39.1395E+06     26.0906E+06     42.2476E+06     7.63440E+06    -163.822E-03     327.746E-03    -163.924E-03     63.0097E-03    -164.222E-03     327.977E-03    -163.694E-03     61.7948E-03
             590     10.7002E-03     97.3985E-03    -31.9984E+06     42.5931E+06     51.8844E+06     9.45593E+06    -164.932E-03     328.849E-03    -163.917E-03     63.6220E-03    -165.370E-03     329.175E-03    -163.673E-03     62.0174E-03
             591     11.4642E-03     97.4779E-03    -24.3304E+06     59.6240E+06     61.9240E+06     9.17538E+06    -165.421E-03     329.389E-03    -163.968E-03     65.5208E-03    -165.891E-03     329.805E-03    -163.710E-03     63.6085E-03
             592     12.2222E-03     97.5676E-03    -19.2604E+06     64.2711E+06     75.4412E+06     6.94584E+06    -165.194E-03     329.253E-03    -164.060E-03     67.3479E-03    -165.688E-03     329.689E-03    -163.748E-03     65.1939E-03
             593     12.9865E-03     97.6562E-03    -16.9190E+06     60.6042E+06     80.1476E+06     6.00995E+06    -164.995E-03     329.100E-03    -164.105E-03     67.4977E-03    -165.489E-03     329.516E-03    -163.767E-03     65.2154E-03
             594     13.7525E-03     97.7424E-03    -11.1045E+06     74.2974E+06     85.6831E+06     4.76180E+06    -164.179E-03     328.273E-03    -164.094E-03     67.1120E-03    -164.668E-03     328.738E-03    -163.757E-03     64.8088E-03
             595     14.5189E-03     97.8225E-03    -2.37138E+06     86.2246E+06     90.6104E+06     689.763E+03    -163.573E-03     327.620E-03    -164.047E-03     62.3323E-03    -164.039E-03     328.120E-03    -163.715E-03     59.8679E-03
             596     761.781E-06     98.0704E-03    -112.607E+06    -226.749E+06    -110.140E+06     459.562E+03    -164.782E-03     329.252E-03    -164.471E-03     5.38027E-03    -164.815E-03     328.469E-03    -164.529E-03     5.44911E-03
             597     1.52693E-03     98.0830E-03    -108.157E+06    -215.089E+06    -100.764E+06     2.23363E+06    -164.568E-03     329.180E-03    -164.613E-03     11.6328E-03    -164.634E-03     328.395E-03    -164.648E-03     11.6625E-03
             598     2.29071E-03     98.1008E-03    -104.252E+06    -198.654E+06    -88.3762E+06     2.89394E+06    -164.493E-03     329.102E-03    -164.609E-03     16.1572E-03    -164.584E-03     328.376E-03    -164.611E-03     16.2073E-03
             599     3.05243E-03     98.1240E-03    -99.8820E+06    -184.559E+06    -73.3500E+06     566.350E+03    -164.286E-03     328.884E-03    -164.598E-03     21.1649E-03    -164.405E-03     328.207E-03    -164.552E-03     21.1520E-03
             600     3.81655E-03     98.1572E-03    -93.8982E+06    -174.117E+06    -62.5392E+06    -2.44010E+06    -163.834E-03     328.350E-03    -164.515E-03     27.1120E-03    -163.959E-03     327.705E-03    -164.440E-03     27.0003E-03
             601     4.58290E-03     98.1948E-03    -83.1634E+06    -152.429E+06    -48.4600E+06     1.32942E+06    -163.460E-03     327.834E-03    -164.375E-03     33.0566E-03    -163.587E-03     327.266E-03    -164.275E-03     32.9508E-03
             602     5.34798E-03     98.2428E-03    -75.7504E+06    -128.232E+06    -30.2400E+06     4.87533E+06    -163.663E-03     327.935E-03    -164.272E-03     37.6529E-03    -163.820E-03     327.456E-03    -164.128E-03     37.5195E-03
             603     6.11070E-03     98.2925E-03    -71.3566E+06    -111.425E+06    -15.4444E+06     2.83944E+06    -164.073E-03     328.304E-03    -164.232E-03     42.4694E-03    -164.263E-03     327.891E-03    -164.044E-03     42.1705E-03
             604     6.87330E-03     98.3507E-03    -61.0292E+06    -86.7571E+06    -1.20617E+06     4.25445E+06    -163.630E-03     327.803E-03    -164.173E-03     48.5434E-03    -163.837E-03     327.489E-03    -163.965E-03     48.1132E-03
             605     7.64083E-03     98.4123E-03    -58.6493E+06    -65.6962E+06     9.20049E+06     7.36320E+06    -162.995E-03     327.055E-03    -164.060E-03     53.0998E-03    -163.252E-03     326.844E-03    -163.834E-03     52.5347E-03
             606     8.40674E-03     98.4808E-03    -57.5981E+06    -52.0429E+06     15.4259E+06     1.34107E+06    -164.075E-03     328.048E-03    -163.973E-03     55.2369E-03    -164.381E-03     327.920E-03    -163.737E-03     54.2552E-03
             607     9.16912E-03     98.5496E-03    -50.3774E+06    -20.2755E+06     22.8423E+06     1.45179E+06    -165.573E-03     329.550E-03    -163.977E-03     58.1664E-03    -165.921E-03     329.581E-03    -163.760E-03     56.9283E-03
             608     9.93158E-03     98.6304E-03    -43.6963E+06     22.0328E+06     36.8319E+06     7.24101E+06    -165.001E-03     329.031E-03    -164.031E-03     60.9044E-03    -165.417E-03     329.264E-03    -163.815E-03     59.5598E-03
             609     10.6950E-03     98.7119E-03    -35.3859E+06     43.3876E+06     50.5646E+06     4.43628E+06    -164.476E-03     328.537E-03    -164.061E-03     62.8640E-03    -164.928E-03     328.871E-03    -163.820E-03     61.2082E-03
             610     11.4572E-03     98.7984E-03    -30.4320E+06     55.8905E+06     55.5857E+06     3.98172E+06    -165.170E-03     329.234E-03    -164.064E-03     66.2563E-03    -165.647E-03     329.641E-03    -163.823E-03     64.3785E-03
             611     12.2247E-03     98.8834E-03    -22.4478E+06     61.5588E+06     66.0411E+06     9.07849E+06    -164.974E-03     329.083E-03    -164.109E-03     68.9463E-03    -165.461E-03     329.518E-03    -163.836E-03     66.9131E-03
             612     12.9896E-03     98.9715E-03    -14.3896E+06     68.5978E+06     81.3163E+06     7.41911E+06    -163.859E-03     327.993E-03    -164.134E-03     68.8942E-03    -164.351E-03     328.442E-03    -163.806E-03     66.6986E-03
             613     13.7536E-03     99.0565E-03    -6.29720E+06     84.8363E+06     93.0405E+06     1.23717E+06    -163.282E-03     327.370E-03    -164.088E-03     65.6871E-03    -163.778E-03     327.875E-03    -163.737E-03     63.2689E-03
             614     14.5193E-03     99.1342E-03    -4.92968E+06     85.8806E+06     92.1866E+06     990.548E+03    -164.699E-03     328.748E-03    -164.049E-03     60.7526E-03    -165.182E-03     329.251E-03    -163.705E-03     58.2283E-03
             615     765.997E-06     99.3889E-03    -114.105E+06    -228.229E+06    -110.870E+06     1.51615E+06    -164.051E-03     328.214E-03    -164.163E-03     6.54081E-03    -164.090E-03     327.429E-03    -164.221E-03     6.56963E-03
             616     1.52655E-03     99.3997E-03    -111.380E+06    -217.000E+06    -103.719E+06     32.2058E+03    -164.673E-03     328.887E-03    -164.214E-03     11.8537E-03    -164.749E-03     328.101E-03    -164.256E-03     11.8539E-03
             617     2.28999E-03     99.4170E-03    -104.707E+06    -202.212E+06    -92.9309E+06     743.177E+03    -164.284E-03     328.615E-03    -164.330E-03     17.5449E-03    -164.364E-03     327.876E-03    -164.350E-03     17.5545E-03
             618     3.05449E-03     99.4426E-03    -98.4935E+06    -184.825E+06    -76.9434E+06     3.61588E+06    -164.256E-03     328.597E-03    -164.342E-03     23.1279E-03    -164.362E-03     327.921E-03    -164.316E-03     23.1612E-03
             619     3.81847E-03     99.4708E-03    -92.4462E+06    -167.878E+06    -57.8105E+06     2.81138E+06    -164.271E-03     328.641E-03    -164.369E-03     28.4321E-03    -164.405E-03     328.018E-03    -164.281E-03     28.3926E-03
             620     4.58094E-03     99.5113E-03    -85.1184E+06    -152.178E+06    -44.2716E+06    -1.23878E+06    -164.032E-03     328.382E-03    -164.351E-03     33.1311E-03    -164.177E-03     327.813E-03    -164.228E-03     32.9486E-03
             621     5.34501E-03     99.5556E-03    -79.0736E+06    -136.528E+06    -35.3522E+06    -106.780E+03    -163.324E-03     327.571E-03    -164.247E-03     37.4541E-03    -163.481E-03     327.065E-03    -164.111E-03     37.2115E-03
             622     6.11125E-03     99.6092E-03    -73.0962E+06    -114.458E+06    -19.3677E+06     5.53412E+06    -163.049E-03     327.171E-03    -164.122E-03     42.4331E-03    -163.238E-03     326.750E-03    -163.947E-03     42.1922E-03
             623     6.87810E-03     99.6631E-03    -66.3858E+06    -91.9512E+06    -3.65561E+06     6.08235E+06    -163.719E-03     327.756E-03    -164.037E-03     47.0246E-03    -163.944E-03     327.430E-03    -163.826E-03     46.5992E-03
             624     7.64101E-03     99.7269E-03     -57.331E+06    -68.7346E+06     8.99636E+06     5.18305E+06    -164.252E-03     328.263E-03    -164.011E-03     49.7510E-03    -164.502E-03     328.039E-03    -163.783E-03     49.0418E-03
             625     8.40486E-03     99.7941E-03    -49.7056E+06    -42.1737E+06     22.3121E+06     5.56358E+06    -164.988E-03     329.031E-03    -164.043E-03     53.3420E-03    -165.275E-03     328.927E-03    -163.798E-03     52.4388E-03
             626     9.16778E-03     99.8716E-03    -47.6848E+06    -19.3714E+06     27.2870E+06     3.76443E+06    -165.725E-03     329.823E-03    -164.099E-03     57.6192E-03    -166.065E-03     329.846E-03    -163.865E-03     56.4433E-03
             627     9.92956E-03     99.9464E-03    -40.0573E+06     16.0846E+06     34.5272E+06     4.62643E+06    -165.010E-03     329.133E-03    -164.123E-03     61.8773E-03    -165.401E-03     329.339E-03    -163.916E-03     60.4556E-03
             628     10.6946E-03     100.028E-03    -33.6929E+06     42.8421E+06     48.5008E+06     6.09174E+06    -164.398E-03     328.530E-03    -164.132E-03     66.4950E-03    -164.836E-03     328.859E-03    -163.902E-03     64.9642E-03
             629     11.4620E-03     100.113E-03    -32.4268E+06     52.0304E+06     56.9680E+06     4.89911E+06    -164.931E-03     329.068E-03    -164.137E-03     68.1259E-03    -165.412E-03     329.454E-03    -163.881E-03     66.3360E-03
             630     12.2231E-03     100.200E-03    -25.0418E+06     61.6162E+06     65.2786E+06     3.53673E+06    -164.939E-03     329.094E-03    -164.155E-03     67.0752E-03    -165.450E-03     329.545E-03    -163.881E-03     64.8251E-03
             631     12.9866E-03     100.286E-03    -13.2308E+06     75.8544E+06     82.9884E+06     1.62684E+06    -164.231E-03     328.423E-03    -164.192E-03     65.7761E-03    -164.748E-03     328.921E-03    -163.867E-03     63.2596E-03
             632     13.7535E-03     100.370E-03    -7.51608E+06     86.3259E+06     94.6801E+06     407.391E+03    -164.445E-03     328.651E-03    -164.205E-03     63.0674E-03    -164.962E-03     329.173E-03    -163.846E-03     60.4564E-03
             633     14.5159E-03     100.453E-03    -9.33390E+06     85.1637E+06     91.2325E+06     3.38896E+06    -164.729E-03     328.922E-03    -164.193E-03     60.0836E-03    -165.231E-03     329.428E-03    -163.847E-03     57.5875E-03
             634     762.713E-06     100.705E-03    -113.250E+06    -228.506E+06    -110.144E+06     937.484E+03    -163.706E-03     327.700E-03    -163.993E-03     7.12827E-03    -163.738E-03     326.910E-03    -164.049E-03     7.11911E-03
             635     1.52857E-03     100.716E-03    -109.365E+06    -215.970E+06    -103.365E+06    -220.039E+03    -163.821E-03     327.650E-03    -163.829E-03     11.5659E-03    -163.889E-03     326.866E-03    -163.874E-03     11.5876E-03
             636     2.29247E-03     100.733E-03    -105.546E+06    -203.351E+06    -92.6545E+06    -860.703E+03    -163.880E-03     327.728E-03    -163.848E-03     17.2754E-03    -163.963E-03     326.985E-03    -163.864E-03     17.2886E-03
             637     3.05658E-03     100.757E-03    -100.414E+06    -188.914E+06    -80.4580E+06     256.177E+03    -164.073E-03     327.967E-03    -163.894E-03     22.7492E-03    -164.177E-03     327.277E-03    -163.876E-03     22.7487E-03
             638     3.81958E-03     100.789E-03    -93.6402E+06    -170.278E+06    -62.8516E+06     3.38462E+06    -164.537E-03     328.540E-03    -164.003E-03     28.5666E-03    -164.666E-03     327.915E-03    -163.935E-03     28.5463E-03
             639     4.58344E-03     100.827E-03    -86.4863E+06    -149.807E+06    -42.6598E+06     4.07929E+06    -164.404E-03     328.525E-03    -164.121E-03     34.0250E-03    -164.563E-03     327.969E-03    -163.992E-03     33.8949E-03
             640     5.34729E-03     100.871E-03    -81.4826E+06    -134.703E+06    -30.6738E+06     656.323E+03    -163.960E-03     328.100E-03    -164.140E-03     38.1131E-03    -164.141E-03     327.603E-03    -163.980E-03     37.8155E-03
             641     6.11216E-03     100.919E-03    -74.2822E+06    -118.091E+06    -20.2675E+06     1.24988E+06    -163.945E-03     328.053E-03    -164.108E-03     41.5914E-03    -164.137E-03     327.621E-03    -163.930E-03     41.1910E-03
             642     6.87529E-03     100.980E-03    -66.0490E+06    -96.0064E+06    -7.08848E+06     3.53449E+06    -164.440E-03     328.547E-03    -164.106E-03     45.5297E-03    -164.653E-03     328.205E-03    -163.907E-03     45.0346E-03
             643     7.63853E-03     101.044E-03    -58.4395E+06    -72.5714E+06     5.22861E+06     3.53983E+06    -165.226E-03     329.384E-03    -164.158E-03     49.6334E-03    -165.470E-03     329.147E-03    -163.942E-03     48.9230E-03
             644     8.40143E-03     101.110E-03    -49.2363E+06    -43.7304E+06     20.0494E+06     6.08846E+06    -165.177E-03     329.406E-03    -164.230E-03     54.2976E-03    -165.450E-03     329.292E-03    -163.995E-03     53.4885E-03
             645     9.16585E-03     101.188E-03    -41.0602E+06    -14.9764E+06     33.0284E+06     6.06701E+06    -164.113E-03     328.344E-03    -164.231E-03     57.9648E-03    -164.431E-03     328.368E-03    -163.985E-03     56.8784E-03
             646     9.93248E-03     101.261E-03    -42.8209E+06     12.6914E+06     34.1937E+06     3.30507E+06    -164.271E-03     328.420E-03    -164.149E-03     61.4375E-03    -164.672E-03     328.615E-03    -163.934E-03     59.9651E-03
             647     10.6967E-03     101.343E-03    -38.9574E+06     37.5952E+06     41.9013E+06     6.23175E+06    -165.484E-03     329.629E-03    -164.145E-03     64.8747E-03    -165.932E-03     329.951E-03    -163.934E-03     63.2836E-03
             648     11.4571E-03     101.430E-03    -24.1697E+06     55.3360E+06     63.5017E+06     7.52038E+06    -165.516E-03     329.760E-03    -164.244E-03     66.0721E-03    -165.977E-03     330.148E-03    -163.972E-03     64.2032E-03
             649     12.2219E-03     101.519E-03    -18.2770E+06     67.1373E+06      76.847E+06     1.03602E+06    -164.878E-03     329.179E-03    -164.301E-03     66.2273E-03    -165.384E-03     329.636E-03    -163.988E-03     63.8721E-03
             650     12.9867E-03     101.600E-03    -18.8626E+06     74.0902E+06     82.7823E+06     308.504E+03    -164.896E-03     329.216E-03    -164.320E-03     66.4526E-03    -165.441E-03     329.717E-03    -163.986E-03     63.9050E-03
             651     13.7473E-03     101.689E-03    -16.5059E+06     80.0128E+06     87.3188E+06     3.95402E+06    -164.172E-03     328.483E-03    -164.311E-03     65.7284E-03    -164.706E-03     328.990E-03    -163.967E-03     63.3039E-03
             652     14.5114E-03     101.769E-03    -5.82472E+06     89.3452E+06     92.0046E+06     3.19137E+06    -162.269E-03     326.490E-03    -164.221E-03     64.5513E-03    -162.750E-03     327.000E-03    -163.882E-03     62.2868E-03
             653     764.089E-06     102.016E-03    -114.411E+06    -228.883E+06    -113.261E+06    -967.042E+03    -163.593E-03     327.585E-03    -163.992E-03     6.02996E-03    -163.634E-03     326.800E-03    -164.060E-03     6.02830E-03
             654     1.52829E-03     102.030E-03    -109.739E+06    -214.622E+06    -103.441E+06    -574.923E+03    -163.401E-03     327.111E-03    -163.710E-03     10.9758E-03    -163.474E-03     326.335E-03    -163.757E-03     10.9769E-03
             655     2.29250E-03     102.047E-03    -106.994E+06    -203.275E+06    -92.0774E+06    -642.933E+03    -163.928E-03     327.628E-03    -163.700E-03     15.9413E-03    -164.020E-03     326.887E-03    -163.711E-03     15.9324E-03
             656     3.05615E-03     102.072E-03    -102.138E+06    -189.845E+06    -79.2697E+06    -1.50593E+06    -164.129E-03     327.940E-03    -163.811E-03     21.1942E-03    -164.244E-03     327.249E-03    -163.784E-03     21.1444E-03
             657     3.82081E-03     102.104E-03    -94.8116E+06    -171.926E+06    -63.9847E+06    -798.036E+03    -163.970E-03     327.860E-03    -163.890E-03     26.9765E-03    -164.103E-03     327.232E-03    -163.823E-03     26.8852E-03
             658     4.58464E-03     102.143E-03    -86.6143E+06    -152.031E+06    -46.0519E+06     2.34830E+06    -164.334E-03     328.298E-03    -163.964E-03     31.6605E-03    -164.485E-03     327.736E-03    -163.848E-03     31.5226E-03
             659     5.34884E-03     102.186E-03    -82.0285E+06    -133.328E+06    -31.5414E+06     4.31520E+06    -164.969E-03     329.051E-03    -164.082E-03     35.6634E-03    -165.153E-03     328.562E-03    -163.927E-03     35.4455E-03
             660     6.11009E-03     102.239E-03    -76.0089E+06    -117.392E+06    -19.5895E+06     864.491E+03    -165.061E-03     329.267E-03    -164.206E-03     40.9282E-03    -165.266E-03     328.842E-03    -164.024E-03     40.5004E-03
             661     6.87358E-03     102.294E-03    -65.3239E+06    -99.9842E+06    -8.08419E+06    -1.35571E+06    -164.575E-03     328.836E-03    -164.261E-03     46.6886E-03    -164.778E-03     328.476E-03    -164.062E-03     46.1200E-03
             662     7.63897E-03     102.360E-03    -55.7560E+06    -71.6588E+06     5.53346E+06     2.85518E+06    -164.668E-03     328.935E-03    -164.267E-03     51.9533E-03    -164.897E-03     328.696E-03    -164.054E-03     51.3180E-03
             663     8.40172E-03     102.430E-03    -54.6481E+06    -49.1682E+06     14.6857E+06     5.90565E+06    -164.825E-03     329.098E-03    -164.273E-03     55.6550E-03    -165.114E-03     328.976E-03    -164.049E-03     54.8092E-03
             664     9.16590E-03     102.499E-03    -49.5560E+06    -29.0041E+06     23.6519E+06     4.67858E+06    -164.528E-03     328.795E-03    -164.267E-03     58.1062E-03    -164.862E-03     328.782E-03    -164.035E-03     56.8996E-03
             665     9.93027E-03     102.577E-03    -36.9085E+06     17.1056E+06     40.4751E+06     6.98699E+06    -165.156E-03     329.417E-03    -164.261E-03     61.2880E-03    -165.543E-03     329.616E-03    -164.030E-03     59.8689E-03
             666     10.6921E-03     102.662E-03    -34.6015E+06     46.7555E+06     48.4945E+06     8.78391E+06    -165.637E-03     329.922E-03    -164.285E-03     64.8260E-03    -166.088E-03     330.275E-03    -164.060E-03     63.2575E-03
             667     11.4565E-03     102.748E-03    -31.3204E+06     55.0894E+06     56.6649E+06     3.84820E+06    -164.664E-03     328.979E-03    -164.316E-03     67.1850E-03    -165.149E-03     329.385E-03    -164.067E-03     65.3070E-03
             668     12.2210E-03     102.831E-03    -23.5260E+06     62.5104E+06     71.4857E+06     1.87164E+06    -164.158E-03     328.482E-03    -164.324E-03     68.8440E-03    -164.665E-03     328.919E-03    -164.023E-03     66.6873E-03
             669     12.9841E-03     102.920E-03    -15.6649E+06     73.6606E+06     86.5794E+06     5.78323E+06    -163.571E-03     327.870E-03    -164.299E-03     69.8702E-03    -164.096E-03     328.349E-03    -163.950E-03     67.5814E-03
             670     13.7509E-03     103.003E-03    -10.5864E+06     86.2504E+06     92.5534E+06     5.23258E+06    -162.083E-03     326.263E-03    -164.181E-03     69.7242E-03    -162.605E-03     326.785E-03    -163.828E-03     67.4409E-03
             671     14.5206E-03     103.079E-03    -3.85349E+06     90.9615E+06     92.7062E+06    -328.390E+03    -162.036E-03     326.053E-03    -164.017E-03     66.6687E-03    -162.506E-03     326.563E-03    -163.680E-03     64.4602E-03
             672     764.267E-06     103.336E-03    -109.241E+06    -221.686E+06    -110.809E+06    -4.04438E+06    -163.216E-03     327.672E-03    -164.455E-03     5.23897E-03    -163.248E-03     326.913E-03    -164.530E-03     5.20478E-03
             673     1.52759E-03     103.342E-03    -108.272E+06    -215.471E+06    -104.624E+06    -2.51582E+06    -164.014E-03     327.874E-03    -163.859E-03     10.6539E-03    -164.078E-03     327.095E-03    -163.913E-03     10.5990E-03
             674     2.29212E-03     103.363E-03    -102.995E+06    -201.617E+06    -90.0940E+06     85.4157E+03    -164.090E-03     328.044E-03    -163.954E-03     16.0328E-03    -164.168E-03     327.303E-03    -163.962E-03     16.0040E-03
             675     3.05524E-03     103.388E-03    -98.8529E+06    -187.854E+06    -76.1144E+06    -793.907E+03    -164.305E-03     328.352E-03    -164.047E-03     20.7396E-03    -164.412E-03     327.663E-03    -164.012E-03     20.6749E-03
             676     3.81884E-03     103.418E-03    -94.4630E+06    -172.701E+06    -63.0815E+06    -365.705E+03    -164.360E-03     328.494E-03    -164.134E-03     25.5568E-03    -164.491E-03     327.860E-03    -164.062E-03     25.4341E-03
             677     4.58330E-03     103.459E-03    -91.1472E+06    -156.534E+06    -50.6299E+06     760.098E+03    -164.341E-03     328.536E-03    -164.195E-03     30.4802E-03    -164.501E-03     327.964E-03    -164.089E-03     30.3060E-03
             678     5.34520E-03     103.504E-03    -82.9873E+06    -136.279E+06    -35.4738E+06     693.910E+03    -164.627E-03     328.881E-03    -164.254E-03     35.7767E-03    -164.804E-03     328.382E-03    -164.113E-03     35.5435E-03
             679     6.11033E-03     103.554E-03    -71.7667E+06    -113.033E+06    -18.3282E+06     1.04885E+06    -164.723E-03     329.041E-03    -164.318E-03     40.8985E-03    -164.915E-03     328.630E-03    -164.142E-03     40.4942E-03
             680     6.87453E-03     103.611E-03     -66.657E+06    -97.7337E+06    -6.61520E+06     1.18910E+06    -164.507E-03     328.856E-03    -164.349E-03     46.2053E-03    -164.723E-03     328.508E-03    -164.144E-03     45.6626E-03
             681     7.63705E-03     103.675E-03    -63.1799E+06    -78.6797E+06     1.59820E+06     3.94346E+06    -163.961E-03     328.268E-03    -164.307E-03     51.6893E-03    -164.207E-03     328.005E-03    -164.093E-03     51.1490E-03
             682     8.40333E-03     103.745E-03    -54.9571E+06    -50.9799E+06     14.4236E+06     4.36505E+06    -164.256E-03     328.508E-03    -164.252E-03     55.7142E-03    -164.539E-03     328.373E-03    -164.027E-03     54.9288E-03
             683     9.16657E-03     103.818E-03    -47.5319E+06    -28.0028E+06     25.7336E+06     2.28310E+06    -165.806E-03     330.082E-03    -164.276E-03     59.0082E-03    -166.132E-03     330.065E-03    -164.038E-03     57.8159E-03
             684     9.92791E-03     103.895E-03    -39.5012E+06     5.94641E+06     35.9388E+06     6.07970E+06    -165.983E-03     330.321E-03    -164.338E-03     63.0397E-03    -166.356E-03     330.471E-03    -164.110E-03     61.6914E-03
             685     10.6928E-03     103.980E-03    -29.4836E+06     45.4098E+06     49.4541E+06     9.52955E+06    -164.230E-03     328.565E-03    -164.334E-03     65.9874E-03    -164.656E-03     328.903E-03    -164.110E-03     64.4609E-03
             686     11.4577E-03     104.061E-03    -27.1308E+06     67.2688E+06     62.5857E+06     6.97782E+06    -163.279E-03     327.549E-03    -164.270E-03     68.5669E-03    -163.770E-03     328.001E-03    -164.015E-03     66.7627E-03
             687     12.2229E-03     104.149E-03    -26.4935E+06     65.3598E+06     71.1701E+06     4.53141E+06    -162.828E-03     327.012E-03    -164.184E-03     70.8791E-03    -163.349E-03     327.465E-03    -163.885E-03     68.8547E-03
             688     12.9895E-03     104.233E-03    -18.8015E+06     69.6711E+06     80.1355E+06     3.40243E+06    -161.877E-03     325.931E-03    -164.055E-03     70.6902E-03    -162.406E-03     326.409E-03    -163.728E-03     68.3752E-03
             689     13.7580E-03     104.311E-03    -8.45754E+06     87.3531E+06     92.9137E+06     1.80721E+06    -162.574E-03     326.509E-03    -163.934E-03     68.0557E-03    -163.098E-03     327.043E-03    -163.584E-03     65.5817E-03
             690     14.5211E-03     104.395E-03    -1.82322E+06     93.4028E+06     97.9538E+06    -626.604E+03    -163.949E-03     327.822E-03    -163.874E-03     63.5885E-03    -164.420E-03     328.335E-03    -163.517E-03     61.2796E-03
             691     763.393E-06     104.646E-03    -105.417E+06    -215.297E+06    -101.297E+06    -256.559E+03    -163.620E-03     328.130E-03    -164.510E-03     5.64962E-03    -163.649E-03     327.381E-03    -164.551E-03     5.67444E-03
             692     1.52801E-03     104.660E-03    -106.557E+06    -212.645E+06    -98.8040E+06    -2.65400E+06    -164.513E-03     328.663E-03    -164.150E-03     11.0787E-03    -164.582E-03     327.888E-03    -164.181E-03     11.0372E-03
             693     2.29001E-03     104.678E-03    -101.970E+06    -203.272E+06    -91.3411E+06    -2.48884E+06    -164.320E-03     328.581E-03    -164.260E-03     15.9142E-03    -164.391E-03     327.834E-03    -164.274E-03     15.8645E-03
             694     3.05532E-03     104.703E-03    -98.7787E+06    -188.435E+06    -78.8659E+06     869.744E+03    -164.350E-03     328.651E-03    -164.301E-03     21.5329E-03    -164.452E-03     327.963E-03    -164.279E-03     21.5017E-03
             695     3.81763E-03     104.737E-03    -96.4284E+06    -175.318E+06    -65.6768E+06     1.24961E+06    -164.706E-03     329.079E-03    -164.373E-03     26.7493E-03    -164.839E-03     328.438E-03    -164.307E-03     26.6634E-03
             696     4.58006E-03     104.773E-03    -87.4717E+06    -154.740E+06    -48.6593E+06     1.91699E+06    -164.224E-03     328.641E-03    -164.418E-03     31.9569E-03    -164.372E-03     328.071E-03    -164.310E-03     31.7996E-03
             697     5.34676E-03     104.820E-03    -77.1640E+06    -128.890E+06    -28.1146E+06     2.79468E+06    -163.889E-03     328.284E-03    -164.395E-03     37.3934E-03    -164.059E-03     327.804E-03    -164.237E-03     37.1953E-03
             698     6.10935E-03     104.870E-03    -74.9598E+06    -116.597E+06    -19.0618E+06    -100.402E+03    -164.505E-03     328.869E-03    -164.365E-03     42.1003E-03    -164.705E-03     328.445E-03    -164.182E-03     41.7230E-03
             699     6.87229E-03     104.928E-03    -72.8636E+06    -102.415E+06    -11.6668E+06     154.364E+03    -164.717E-03     329.090E-03    -164.373E-03     46.4300E-03    -164.951E-03     328.735E-03    -164.177E-03     45.8722E-03
             700     7.63813E-03     104.989E-03    -67.8263E+06    -84.5514E+06    -1.81032E+06     2.06264E+06    -164.262E-03     328.626E-03    -164.364E-03     50.6774E-03    -164.520E-03     328.348E-03    -164.152E-03     50.0465E-03
             701     8.40196E-03     105.059E-03    -53.7684E+06    -54.1327E+06     14.0936E+06     3.17464E+06    -164.331E-03     328.658E-03    -164.327E-03     55.1312E-03    -164.600E-03     328.503E-03    -164.100E-03     54.3647E-03
             702     9.16639E-03     105.136E-03    -43.4416E+06    -19.7396E+06     31.0165E+06     3.57703E+06    -164.898E-03     329.216E-03    -164.319E-03     59.3485E-03    -165.214E-03     329.218E-03    -164.072E-03     58.3016E-03
             703     9.92947E-03     105.215E-03    -43.1860E+06    -1.22422E+06     34.6995E+06     126.326E+03    -164.612E-03     328.902E-03    -164.290E-03     63.5771E-03    -164.991E-03     329.023E-03    -164.052E-03     62.1729E-03
             704     10.6927E-03     105.292E-03    -34.4841E+06     30.8580E+06     40.1012E+06     736.822E+03    -163.393E-03     327.574E-03    -164.181E-03     66.9164E-03    -163.815E-03     327.867E-03    -163.975E-03     65.2314E-03
             705     11.4596E-03     105.376E-03    -22.0750E+06     65.4194E+06     57.4871E+06     11.3270E+06    -162.490E-03     326.545E-03    -164.055E-03     69.9629E-03    -162.947E-03     326.989E-03    -163.831E-03     68.2456E-03
             706     12.2256E-03     105.462E-03    -17.8672E+06     74.8306E+06     75.3367E+06     14.0445E+06    -161.970E-03     325.921E-03    -163.951E-03     70.1136E-03    -162.463E-03     326.398E-03    -163.657E-03     68.2462E-03
             707     12.9936E-03     105.541E-03    -17.0806E+06     79.6218E+06     85.7676E+06     3.03361E+06    -163.028E-03     326.889E-03    -163.861E-03     69.1595E-03    -163.570E-03     327.404E-03    -163.523E-03     66.7988E-03
             708     13.7563E-03     105.630E-03    -11.2164E+06     88.0175E+06     94.0442E+06    -3.12395E+06    -164.502E-03     328.341E-03    -163.839E-03     66.8659E-03    -165.041E-03     328.880E-03    -163.480E-03     64.2927E-03
             709     14.5199E-03     105.710E-03    -5.04064E+06     93.2097E+06     98.3183E+06    -378.821E+03    -164.217E-03     328.060E-03    -163.843E-03     63.1332E-03    -164.704E-03     328.575E-03    -163.480E-03     60.8241E-03
             710     764.654E-06     105.964E-03    -108.002E+06    -221.714E+06    -105.231E+06     3.44231E+06    -164.549E-03     328.645E-03    -164.095E-03     6.96923E-03    -164.576E-03     327.877E-03    -164.144E-03     7.01316E-03
             711     1.52626E-03     105.976E-03    -105.828E+06    -210.048E+06    -94.3358E+06     3.64948E+06    -164.645E-03     329.045E-03    -164.400E-03     10.9471E-03    -164.720E-03     328.275E-03    -164.414E-03     11.0425E-03
             712     2.29124E-03     105.995E-03    -107.966E+06    -204.154E+06    -89.6992E+06     923.270E+03    -164.368E-03     328.836E-03    -164.468E-03     16.1683E-03    -164.471E-03     328.092E-03    -164.464E-03     16.2074E-03
             713     3.05308E-03     106.019E-03    -105.153E+06    -193.344E+06    -81.3408E+06     708.351E+03    -164.216E-03     328.659E-03    -164.443E-03     22.2095E-03    -164.340E-03     327.960E-03    -164.417E-03     22.2015E-03
             714     3.81850E-03     106.053E-03    -93.7269E+06    -172.272E+06    -61.7744E+06     651.518E+03    -164.053E-03     328.472E-03    -164.419E-03     27.5984E-03    -164.182E-03     327.836E-03    -164.342E-03     27.5711E-03
             715     4.58290E-03     106.090E-03    -85.4625E+06    -155.894E+06    -46.5997E+06    -479.249E+03    -164.297E-03     328.694E-03    -164.398E-03     32.2918E-03    -164.436E-03     328.112E-03    -164.281E-03     32.1405E-03
             716     5.34477E-03     106.134E-03    -82.6967E+06    -137.586E+06    -35.4361E+06     4.74818E+06    -164.189E-03     328.568E-03    -164.379E-03     37.3985E-03    -164.365E-03     328.064E-03    -164.236E-03     37.2022E-03
             717     6.11090E-03     106.187E-03    -76.2675E+06    -114.755E+06    -17.8200E+06     5.35224E+06    -164.262E-03     328.639E-03    -164.376E-03     42.2921E-03    -164.471E-03     328.221E-03    -164.188E-03     42.0423E-03
             718     6.87481E-03     106.245E-03    -68.0561E+06    -98.4246E+06    -4.89424E+06    -333.305E+03    -164.937E-03     329.334E-03    -164.396E-03     46.3821E-03    -165.162E-03     328.982E-03    -164.179E-03     45.8299E-03
             719     7.63636E-03     106.305E-03    -59.0616E+06    -78.5189E+06     5.55886E+06    -1.41834E+06    -165.249E-03     329.688E-03    -164.439E-03     50.5861E-03    -165.492E-03     329.426E-03    -164.212E-03     49.7551E-03
             720     8.39992E-03     106.376E-03    -54.1208E+06    -55.4720E+06     14.1517E+06     1.91887E+06    -164.381E-03     328.815E-03    -164.433E-03     55.5767E-03    -164.658E-03     328.661E-03    -164.204E-03     54.6946E-03
             721     9.16404E-03     106.450E-03    -51.0722E+06    -29.5301E+06     22.1352E+06     4.35721E+06    -162.719E-03     327.026E-03    -164.308E-03     60.2729E-03    -163.042E-03     327.000E-03    -164.080E-03     59.3189E-03
             722     9.93126E-03     106.529E-03    -43.7982E+06     4.12336E+06     36.4749E+06     1.97900E+06    -162.180E-03     326.299E-03    -164.119E-03     64.6211E-03    -162.565E-03     326.437E-03    -163.879E-03     63.3623E-03
             723     10.6985E-03     106.607E-03    -40.6778E+06     30.0485E+06     40.3345E+06    -906.461E+03    -162.948E-03     326.872E-03    -163.924E-03     67.7002E-03    -163.398E-03     327.167E-03    -163.707E-03     66.0328E-03
             724     11.4625E-03     106.689E-03    -34.9695E+06     45.5756E+06     40.1261E+06     2.55994E+06    -162.912E-03     326.678E-03    -163.766E-03     69.2718E-03    -163.382E-03     327.069E-03    -163.581E-03     67.4034E-03
             725     12.2302E-03     106.772E-03    -20.7355E+06     72.9217E+06     61.8974E+06     8.52475E+06    -163.185E-03     326.895E-03    -163.710E-03     69.0663E-03    -163.671E-03     327.387E-03    -163.476E-03     67.0905E-03
             726     12.9931E-03     106.858E-03    -10.2409E+06     94.5728E+06      92.173E+06     7.10148E+06    -164.503E-03     328.273E-03    -163.770E-03     69.5393E-03    -165.034E-03     328.837E-03    -163.432E-03     67.3101E-03
             727     13.7569E-03     106.948E-03    -11.8795E+06     92.1707E+06     99.2499E+06     1.87467E+06    -164.979E-03     328.806E-03    -163.827E-03     67.1614E-03    -165.530E-03     329.354E-03    -163.448E-03     64.7062E-03
             728     14.5227E-03     107.023E-03    -9.96990E+06     93.1622E+06     96.8236E+06    -892.860E+03    -164.608E-03     328.445E-03    -163.837E-03     61.7619E-03    -165.121E-03     328.973E-03    -163.474E-03     59.3765E-03
             729     762.859E-06     107.284E-03    -112.689E+06    -229.673E+06    -112.654E+06     771.559E+03    -164.492E-03     328.774E-03    -164.282E-03     8.24854E-03    -164.519E-03     327.990E-03    -164.349E-03     8.21567E-03
             730     1.52714E-03     107.292E-03    -108.162E+06    -216.484E+06    -100.904E+06     5.39996E+06    -164.323E-03     328.695E-03    -164.372E-03     11.3518E-03    -164.392E-03     327.906E-03    -164.406E-03     11.4794E-03
             731     2.28990E-03     107.311E-03    -106.447E+06    -202.664E+06    -85.9108E+06     6.41572E+06    -164.434E-03     328.847E-03    -164.414E-03     17.1748E-03    -164.537E-03     328.104E-03    -164.395E-03     17.2892E-03
             732     3.05482E-03     107.336E-03    -102.867E+06    -189.488E+06    -73.4452E+06     3.44169E+06    -164.379E-03     328.829E-03    -164.450E-03     22.1065E-03    -164.508E-03     328.134E-03    -164.393E-03     22.1531E-03
             733     3.81773E-03     107.367E-03    -97.0003E+06    -174.722E+06    -61.0449E+06     2.11545E+06    -163.966E-03     328.391E-03    -164.425E-03     26.9328E-03    -164.108E-03     327.745E-03    -164.336E-03     26.9283E-03
             734     4.58192E-03     107.407E-03    -92.2811E+06    -162.128E+06    -49.7261E+06    -1.01596E+06    -164.167E-03     328.550E-03    -164.383E-03     31.9098E-03    -164.327E-03     327.951E-03    -164.262E-03     31.7374E-03
             735     5.34661E-03     107.451E-03    -79.8048E+06    -139.836E+06    -33.5885E+06    -526.498E+03    -164.699E-03     329.096E-03    -164.398E-03     36.9989E-03    -164.861E-03     328.576E-03    -164.247E-03     36.7030E-03
             736     6.10838E-03     107.502E-03    -69.0606E+06    -114.070E+06    -17.6739E+06     4.67177E+06    -164.327E-03     328.738E-03    -164.412E-03     41.8016E-03    -164.500E-03     328.313E-03    -164.234E-03     41.5464E-03
             737     6.87290E-03     107.561E-03    -66.4609E+06    -95.4148E+06    -4.96237E+06     5.82557E+06    -164.327E-03     328.726E-03    -164.398E-03     47.1683E-03    -164.544E-03     328.382E-03    -164.188E-03     46.8084E-03
             738     7.63711E-03     107.625E-03    -61.3967E+06    -75.9022E+06     7.35456E+06     4.02396E+06    -164.756E-03     329.151E-03    -164.395E-03     52.3013E-03    -165.013E-03     328.900E-03    -164.160E-03     51.6357E-03
             739     8.40027E-03     107.691E-03    -55.3169E+06    -57.8932E+06     15.5302E+06     1.75362E+06    -163.642E-03     327.979E-03    -164.338E-03     56.9306E-03    -163.923E-03     327.814E-03    -164.096E-03     56.0487E-03
             740     9.16695E-03     107.763E-03    -49.8599E+06    -34.3608E+06     21.6328E+06     2.01329E+06    -161.985E-03     326.132E-03    -164.147E-03     60.9626E-03    -162.296E-03     326.081E-03    -163.916E-03     59.9844E-03
             741     9.93454E-03     107.837E-03    -43.1151E+06     5.32309E+06     35.3318E+06     6.47055E+06    -161.651E-03     325.560E-03    -163.909E-03     64.3863E-03    -162.030E-03     325.702E-03    -163.677E-03     63.2223E-03
             742     10.7002E-03     107.922E-03    -38.4898E+06     38.1120E+06     48.0608E+06     4.56928E+06    -162.812E-03     326.551E-03    -163.739E-03     66.4303E-03    -163.270E-03     326.868E-03    -163.498E-03     64.8600E-03
             743     11.4659E-03     108.002E-03    -34.8829E+06     50.6068E+06     51.3078E+06    -4.90020E+06    -164.375E-03     328.044E-03    -163.669E-03     66.4761E-03    -164.875E-03     328.450E-03    -163.435E-03     64.3687E-03
             744     12.2286E-03     108.086E-03    -26.8145E+06     64.9387E+06     59.5572E+06    -6.16961E+06    -164.808E-03     328.496E-03    -163.688E-03     67.0734E-03    -165.322E-03     328.973E-03    -163.446E-03     64.7113E-03
             745     12.9935E-03     108.176E-03    -16.9391E+06     84.6302E+06     81.8246E+06     3.74923E+06    -164.520E-03     328.291E-03    -163.770E-03     67.8014E-03    -165.058E-03     328.831E-03    -163.460E-03     65.4651E-03
             746     13.7589E-03     108.260E-03    -10.6171E+06     95.4900E+06     99.3010E+06     6.50661E+06    -164.607E-03     328.450E-03    -163.842E-03     65.6745E-03    -165.159E-03     329.015E-03    -163.469E-03     63.2293E-03
             747     14.5188E-03     108.345E-03    -5.61577E+06     98.6966E+06     100.819E+06     1.47826E+06    -164.013E-03     327.854E-03    -163.840E-03     61.6340E-03    -164.523E-03     328.402E-03    -163.471E-03     59.2313E-03
             748     763.713E-06     108.597E-03    -116.769E+06    -231.847E+06    -113.950E+06    -170.507E+03    -163.647E-03     328.501E-03    -164.854E-03     6.38389E-03    -163.683E-03     327.715E-03    -164.918E-03     6.40187E-03
             749     1.52794E-03     108.608E-03    -113.564E+06    -223.558E+06    -107.038E+06     500.235E+03    -163.943E-03     328.122E-03    -164.179E-03     11.7900E-03    -164.018E-03     327.315E-03    -164.226E-03     11.8215E-03
             750     2.29191E-03     108.627E-03    -105.706E+06    -207.001E+06    -91.8472E+06     2.76199E+06    -164.525E-03     328.729E-03    -164.204E-03     17.2866E-03    -164.611E-03     327.972E-03    -164.209E-03     17.3145E-03
             751     3.05406E-03     108.652E-03    -100.401E+06    -189.476E+06    -74.2867E+06     4.83432E+06    -164.433E-03     328.753E-03    -164.320E-03     22.1524E-03    -164.549E-03     328.056E-03    -164.271E-03     22.1930E-03
             752     3.81791E-03     108.684E-03    -95.4962E+06    -173.804E+06    -59.2899E+06     3.59238E+06    -164.230E-03     328.590E-03    -164.361E-03     27.4865E-03    -164.370E-03     327.947E-03    -164.267E-03     27.4554E-03
             753     4.58191E-03     108.721E-03    -85.0864E+06    -153.467E+06    -42.0932E+06     2.02159E+06    -164.296E-03     328.666E-03    -164.370E-03     33.3641E-03    -164.444E-03     328.088E-03    -164.234E-03     33.2365E-03
             754     5.34505E-03     108.769E-03    -78.9740E+06    -137.778E+06    -30.3217E+06    -17.8201E+03    -164.401E-03     328.771E-03    -164.370E-03     38.0595E-03    -164.565E-03     328.254E-03    -164.208E-03     37.8151E-03
             755     6.10963E-03     108.819E-03    -74.5414E+06    -124.378E+06    -23.0359E+06    -539.595E+03    -164.191E-03     328.532E-03    -164.342E-03     43.0339E-03    -164.371E-03     328.073E-03    -164.168E-03     42.6895E-03
             756     6.87406E-03     108.875E-03    -66.2722E+06    -99.7563E+06    -7.65770E+06     5.16789E+06    -163.662E-03     327.945E-03    -164.284E-03     48.9602E-03    -163.866E-03     327.582E-03    -164.081E-03     48.6327E-03
             757     7.63913E-03     108.941E-03    -59.7381E+06    -80.0787E+06     6.34852E+06     4.56172E+06    -162.956E-03     327.127E-03    -164.171E-03     53.2691E-03    -163.197E-03     326.853E-03    -163.936E-03     52.6582E-03
             758     8.40480E-03     109.006E-03    -52.1483E+06    -60.6329E+06     16.4425E+06     2.01829E+06    -162.744E-03     326.755E-03    -164.010E-03     57.0092E-03    -163.008E-03     326.570E-03    -163.765E-03     56.1300E-03
             759     9.17002E-03     109.074E-03    -43.6076E+06    -28.7521E+06     29.8266E+06     5.44303E+06    -163.252E-03     327.129E-03    -163.877E-03     60.8890E-03    -163.550E-03     327.084E-03    -163.623E-03     59.9661E-03
             760     9.93410E-03     109.151E-03    -38.8696E+06     3.60856E+06     40.3281E+06     6.43099E+06    -163.651E-03     327.436E-03    -163.785E-03     63.5555E-03    -164.016E-03     327.559E-03    -163.532E-03     62.3407E-03
             761     10.7008E-03     109.232E-03    -30.5156E+06     42.8869E+06     54.5194E+06     5.08685E+06    -164.116E-03     327.855E-03    -163.739E-03     65.1593E-03    -164.551E-03     328.175E-03    -163.484E-03     63.5646E-03
             762     11.4646E-03     109.321E-03    -24.8900E+06     66.3115E+06     67.8774E+06    -64.0713E+03    -164.938E-03     328.706E-03    -163.768E-03     65.1641E-03    -165.440E-03     329.159E-03    -163.489E-03     63.0274E-03
             763     12.2270E-03     109.404E-03    -24.7898E+06     66.8199E+06     73.6196E+06    -4.15157E+06    -164.926E-03     328.755E-03    -163.829E-03     66.2818E-03    -165.467E-03     329.232E-03    -163.522E-03     63.7962E-03
             764     12.9909E-03     109.488E-03    -22.1542E+06     72.1534E+06     78.5255E+06     116.353E+03    -164.067E-03     327.911E-03    -163.843E-03     68.8100E-03    -164.618E-03     328.411E-03    -163.523E-03     66.3655E-03
             765     13.7535E-03     109.579E-03    -9.86490E+06     91.3661E+06     93.4896E+06     3.21797E+06    -162.668E-03     326.476E-03    -163.809E-03     68.3003E-03    -163.203E-03     327.030E-03    -163.459E-03     65.8815E-03
             766     14.5232E-03     109.655E-03    -1.84047E+06     101.954E+06     101.504E+06     2.03660E+06    -162.251E-03     325.970E-03    -163.719E-03     64.7365E-03    -162.746E-03     326.526E-03    -163.357E-03     62.4491E-03
             767     762.977E-06     109.909E-03    -117.101E+06    -232.228E+06    -115.690E+06    -90.6471E+03    -164.294E-03     328.712E-03    -164.418E-03     4.29149E-03    -164.331E-03     327.930E-03    -164.490E-03     4.36800E-03
             768     1.52748E-03     109.925E-03    -114.030E+06    -224.256E+06    -107.638E+06    -1.42574E+06    -164.087E-03     328.384E-03    -164.297E-03     11.4080E-03    -164.165E-03     327.577E-03    -164.345E-03     11.3713E-03
             769     2.29069E-03     109.942E-03    -110.192E+06    -212.418E+06    -96.7636E+06    -74.2058E+03    -163.940E-03     328.161E-03    -164.221E-03     16.4467E-03    -164.032E-03     327.390E-03    -164.237E-03     16.4544E-03
             770     3.05543E-03     109.970E-03    -101.428E+06    -194.212E+06    -79.0493E+06     1.00877E+06    -163.787E-03     327.955E-03    -164.168E-03     22.0283E-03    -163.894E-03     327.242E-03    -164.134E-03     22.0434E-03
             771     3.81953E-03     109.998E-03    -90.1100E+06    -172.090E+06    -58.5220E+06     1.49857E+06    -164.091E-03     328.247E-03    -164.156E-03     27.8970E-03    -164.208E-03     327.603E-03    -164.068E-03     27.8791E-03
             772     4.58297E-03     110.039E-03      -84.96E+06    -154.210E+06    -43.5337E+06     3.21779E+06    -164.297E-03     328.478E-03    -164.181E-03     34.0108E-03    -164.438E-03     327.896E-03    -164.052E-03     33.9726E-03
             773     5.34703E-03     110.083E-03    -81.9030E+06    -140.708E+06    -32.3884E+06     2.22100E+06    -163.808E-03     327.979E-03    -164.171E-03     38.5355E-03    -163.978E-03     327.452E-03    -164.010E-03     38.3589E-03
             774     6.11169E-03     110.134E-03    -75.0658E+06    -122.374E+06    -18.9162E+06     1.00566E+06    -163.594E-03     327.706E-03    -164.111E-03     43.7342E-03    -163.786E-03     327.251E-03    -163.920E-03     43.4079E-03
             775     6.87537E-03     110.191E-03    -65.1042E+06    -102.653E+06    -4.92390E+06     1.12192E+06    -163.359E-03     327.387E-03    -164.027E-03     49.0924E-03    -163.560E-03     327.006E-03    -163.809E-03     48.6619E-03
             776     7.64088E-03     110.252E-03    -54.4730E+06    -82.3199E+06     7.98222E+06     409.608E+03    -162.676E-03     326.577E-03    -163.901E-03     52.1879E-03    -162.891E-03     326.283E-03    -163.662E-03     51.4788E-03
             777     8.40840E-03     110.317E-03    -48.6275E+06    -59.2092E+06     19.2505E+06     2.01272E+06    -163.076E-03     326.850E-03    -163.774E-03     54.7055E-03    -163.330E-03     326.665E-03    -163.521E-03     53.7737E-03
             778     9.17310E-03     110.390E-03    -44.0600E+06    -30.8154E+06     31.4564E+06     5.99581E+06    -164.335E-03     328.067E-03    -163.732E-03     58.3546E-03    -164.640E-03     328.015E-03    -163.466E-03     57.3270E-03
             779     9.93703E-03     110.466E-03    -36.1335E+06     4.07295E+06     45.1370E+06     4.96286E+06    -165.144E-03     328.909E-03    -163.765E-03     62.0676E-03    -165.504E-03     329.024E-03    -163.493E-03     60.7873E-03
             780     10.6976E-03     110.549E-03    -30.0862E+06     43.1520E+06     55.9009E+06     3.43088E+06    -164.779E-03     328.566E-03    -163.787E-03     66.1138E-03    -165.209E-03     328.880E-03    -163.526E-03     64.5685E-03
             781     11.4611E-03     110.636E-03    -25.2293E+06     67.6264E+06     67.9342E+06     5.35252E+06    -164.106E-03     327.901E-03    -163.795E-03     68.7001E-03    -164.603E-03     328.351E-03    -163.517E-03     66.8167E-03
             782     12.2277E-03     110.719E-03    -21.2021E+06     72.2803E+06     78.5573E+06     5.51531E+06    -164.149E-03     327.955E-03    -163.806E-03     69.3452E-03    -164.679E-03     328.438E-03    -163.487E-03     67.1575E-03
             783     12.9917E-03     110.805E-03    -18.0767E+06     73.5234E+06     82.5903E+06     1.69381E+06    -162.934E-03     326.693E-03    -163.759E-03     70.6148E-03    -163.468E-03     327.184E-03    -163.426E-03     68.2852E-03
             784     13.7612E-03     110.888E-03    -10.8744E+06     86.7666E+06     91.5321E+06     292.966E+03    -161.717E-03     325.369E-03    -163.653E-03     69.5346E-03    -162.246E-03     325.903E-03    -163.305E-03     67.1284E-03
             785     14.5270E-03     110.967E-03    -3.70817E+06     102.283E+06     100.347E+06     520.692E+03    -162.991E-03     326.552E-03    -163.561E-03     64.5073E-03    -163.490E-03     327.110E-03    -163.202E-03     62.2347E-03
             786     764.151E-06     111.230E-03    -115.967E+06    -231.622E+06    -114.320E+06     598.232E+03    -165.248E-03     328.658E-03    -163.410E-03     5.21865E-03    -165.288E-03     327.878E-03    -163.478E-03     5.30032E-03
             787     1.52602E-03     111.239E-03    -115.030E+06    -224.929E+06    -107.518E+06     526.253E+03    -164.346E-03     328.676E-03    -164.330E-03     11.9173E-03    -164.430E-03     327.869E-03    -164.375E-03     11.9240E-03
             788     2.29075E-03     111.259E-03    -110.498E+06    -212.552E+06    -95.3565E+06     322.759E+03    -163.550E-03     327.798E-03    -164.248E-03     16.7429E-03    -163.647E-03     327.026E-03    -164.257E-03     16.7643E-03
             789     3.05536E-03     111.281E-03    -99.5356E+06    -193.388E+06    -77.0629E+06    -754.203E+03    -163.587E-03     327.696E-03    -164.109E-03     21.6736E-03    -163.689E-03     326.982E-03    -164.069E-03     21.6780E-03
             790     3.81974E-03     111.315E-03    -95.0826E+06    -177.668E+06    -63.4697E+06     117.222E+03    -163.745E-03     327.788E-03    -164.043E-03     26.9884E-03    -163.871E-03     327.130E-03    -163.965E-03     27.0015E-03
             791     4.58380E-03     111.353E-03    -90.6331E+06    -161.515E+06    -49.3155E+06     1.43917E+06    -163.425E-03     327.416E-03    -163.991E-03     33.0134E-03    -163.576E-03     326.815E-03    -163.872E-03     32.9710E-03
             792     5.34839E-03     111.399E-03    -79.4267E+06    -140.010E+06    -30.1344E+06     1.34454E+06    -163.291E-03     327.216E-03    -163.924E-03     37.9187E-03    -163.453E-03     326.685E-03    -163.757E-03     37.7431E-03
             793     6.11294E-03     111.446E-03    -72.0568E+06    -119.733E+06    -15.6344E+06     2.67096E+06    -163.190E-03     327.031E-03    -163.841E-03     43.1105E-03    -163.373E-03     326.579E-03    -163.641E-03     42.8420E-03
             794     6.87907E-03     111.506E-03    -64.8254E+06    -101.122E+06    -2.27081E+06     1.25611E+06    -163.189E-03     326.949E-03    -163.760E-03     47.9951E-03    -163.395E-03     326.573E-03    -163.531E-03     47.5317E-03
             795     7.64382E-03     111.564E-03    -57.1772E+06    -81.7784E+06     9.71279E+06    -359.042E+03    -164.100E-03     327.827E-03    -163.726E-03     51.1495E-03    -164.330E-03     327.535E-03    -163.476E-03     50.4373E-03
             796     8.40574E-03     111.633E-03    -52.4817E+06    -61.0139E+06     18.7150E+06     1.14564E+06    -164.859E-03     328.619E-03    -163.760E-03     53.6472E-03    -165.126E-03     328.429E-03    -163.502E-03     52.7150E-03
             797     9.16982E-03     111.703E-03    -45.9149E+06    -33.8092E+06     30.4095E+06     2.18452E+06    -164.764E-03     328.580E-03    -163.816E-03     57.1280E-03    -165.079E-03     328.524E-03    -163.548E-03     55.9441E-03
             798     9.93337E-03     111.785E-03    -38.4814E+06     901.776E+03     42.4901E+06     2.95590E+06    -164.161E-03     327.981E-03    -163.820E-03     61.4802E-03    -164.526E-03     328.089E-03    -163.553E-03     60.1516E-03
             799     10.6998E-03     111.864E-03    -33.5333E+06     41.1892E+06     53.9408E+06     5.08128E+06    -163.129E-03     326.878E-03    -163.749E-03     65.9187E-03    -163.563E-03     327.182E-03    -163.491E-03     64.4933E-03
             800     11.4675E-03     111.948E-03    -29.4208E+06     63.6533E+06     62.1202E+06     8.52717E+06    -162.737E-03     326.377E-03    -163.640E-03     69.9988E-03    -163.222E-03     326.804E-03    -163.379E-03     68.3847E-03
             801     12.2305E-03     112.036E-03    -24.4641E+06     68.9141E+06     70.9427E+06     7.20564E+06    -162.980E-03     326.543E-03    -163.563E-03     71.2277E-03    -163.497E-03     327.012E-03    -163.273E-03     69.2439E-03
             802     12.9964E-03     112.117E-03    -15.9415E+06     78.6415E+06     85.3454E+06     1.48113E+06    -163.278E-03     326.812E-03    -163.533E-03     69.8787E-03    -163.815E-03     327.324E-03    -163.197E-03     67.4933E-03
             803     13.7614E-03     112.197E-03    -9.38294E+06     92.8099E+06     97.7484E+06    -322.885E+03    -163.979E-03     327.510E-03    -163.531E-03     67.7292E-03    -164.524E-03     328.068E-03    -163.164E-03     65.1904E-03
             804     14.5250E-03     112.286E-03    -5.15225E+06     104.715E+06     102.393E+06     416.248E+03    -164.224E-03     327.757E-03    -163.533E-03     63.3559E-03    -164.741E-03     328.331E-03    -163.166E-03     60.9985E-03
             805     763.989E-06     112.545E-03    -117.777E+06    -233.010E+06    -114.148E+06     1.35412E+06    -164.645E-03     327.955E-03    -163.310E-03     6.35479E-03    -164.692E-03     327.170E-03    -163.372E-03     6.41078E-03
             806     1.52821E-03     112.557E-03    -115.813E+06    -225.422E+06    -107.321E+06     1.44338E+06    -164.122E-03     328.132E-03    -164.010E-03     11.1423E-03    -164.212E-03     327.324E-03    -164.051E-03     11.2201E-03
             807     2.29171E-03     112.571E-03    -108.209E+06    -210.792E+06    -93.0532E+06    -44.4523E+03    -163.859E-03     327.903E-03    -164.044E-03     16.6767E-03    -163.953E-03     327.136E-03    -164.047E-03     16.6908E-03
             808     3.05530E-03     112.599E-03    -101.589E+06    -194.770E+06    -77.7292E+06     19.6285E+03    -163.814E-03     327.839E-03    -164.025E-03     22.3804E-03    -163.924E-03     327.124E-03    -163.984E-03     22.3735E-03
             809     3.81877E-03     112.629E-03    -98.2041E+06    -178.941E+06    -63.7378E+06     1.52405E+06    -163.575E-03     327.567E-03    -163.991E-03     27.2991E-03    -163.715E-03     326.908E-03    -163.908E-03     27.3059E-03
             810     4.58421E-03     112.667E-03    -89.4052E+06    -159.272E+06    -45.6857E+06     549.707E+03    -163.121E-03     327.042E-03    -163.921E-03     31.9662E-03    -163.275E-03     326.446E-03    -163.789E-03     31.8707E-03
             811     5.34990E-03     112.711E-03    -82.3164E+06    -141.644E+06    -31.0904E+06    -189.964E+03    -162.908E-03     326.720E-03    -163.811E-03     36.5283E-03    -163.081E-03     326.188E-03    -163.642E-03     36.3183E-03
             812     6.11462E-03     112.762E-03    -74.0575E+06    -122.919E+06    -17.1012E+06     125.883E+03    -163.175E-03     326.897E-03    -163.722E-03     41.1133E-03    -163.365E-03     326.437E-03    -163.522E-03     40.7512E-03
             813     6.87898E-03     112.815E-03    -65.3749E+06    -101.419E+06    -2.60850E+06     942.609E+03    -163.601E-03     327.283E-03    -163.683E-03     45.8426E-03    -163.811E-03     326.909E-03    -163.454E-03     45.3187E-03
             814     7.64320E-03     112.882E-03    -59.7742E+06    -80.0698E+06     10.2972E+06     1.98118E+06    -164.391E-03     328.093E-03    -163.702E-03     50.8014E-03    -164.636E-03     327.811E-03    -163.447E-03     50.1466E-03
             815     8.40708E-03     112.949E-03    -54.0868E+06    -61.0553E+06     19.6065E+06     787.683E+03    -165.179E-03     328.946E-03    -163.767E-03     55.1986E-03    -165.452E-03     328.754E-03    -163.502E-03     54.3323E-03
             816     9.16911E-03     113.022E-03    -47.9403E+06    -38.5060E+06     26.9282E+06    -146.791E+03    -164.568E-03     328.375E-03    -163.807E-03     59.7165E-03    -164.878E-03     328.301E-03    -163.548E-03     58.5873E-03
             817     9.93436E-03     113.096E-03    -42.0086E+06    -4.41475E+06     38.0710E+06     3.18119E+06    -163.311E-03     327.073E-03    -163.763E-03     63.8066E-03    -163.680E-03     327.168E-03    -163.505E-03     62.5174E-03
             818     10.7002E-03     113.176E-03    -36.7801E+06     36.3052E+06     50.2157E+06     8.06731E+06    -162.767E-03     326.417E-03    -163.651E-03     65.6935E-03    -163.207E-03     326.710E-03    -163.399E-03     64.2772E-03
             819     11.4648E-03     113.260E-03    -30.4988E+06     61.1893E+06     58.5582E+06     8.73925E+06    -162.100E-03     325.613E-03    -163.514E-03     67.5674E-03    -162.582E-03     326.035E-03    -163.265E-03     65.9165E-03
             820     12.2347E-03     113.347E-03    -21.9006E+06     73.9294E+06     72.7078E+06     4.69286E+06    -162.205E-03     325.622E-03    -163.417E-03     68.4386E-03    -162.715E-03     326.106E-03    -163.129E-03     66.4133E-03
             821     13.0006E-03     113.431E-03    -15.2733E+06     82.8488E+06     87.5251E+06     437.982E+03    -164.435E-03     327.853E-03    -163.418E-03     67.9085E-03    -164.978E-03     328.382E-03    -163.078E-03     65.4484E-03
             822     13.7614E-03     113.518E-03    -10.1662E+06     95.3553E+06     98.3304E+06     636.392E+03    -165.488E-03     328.986E-03    -163.498E-03     66.6150E-03    -166.048E-03     329.563E-03    -163.130E-03     63.9909E-03
             823     14.5252E-03     113.597E-03    -5.09747E+06     107.005E+06     103.429E+06     1.44376E+06    -163.963E-03     327.503E-03    -163.540E-03     63.2307E-03    -164.495E-03     328.096E-03    -163.170E-03     60.7942E-03
             824     763.909E-06     113.862E-03    -120.815E+06    -236.737E+06    -119.218E+06     874.855E+03    -163.248E-03     327.861E-03    -164.614E-03     5.40392E-03    -163.299E-03     327.070E-03    -164.692E-03     5.48062E-03
             825     1.52773E-03     113.870E-03    -115.313E+06    -224.922E+06    -107.831E+06     760.507E+03    -163.558E-03     327.424E-03    -163.866E-03     10.3045E-03    -163.648E-03     326.621E-03    -163.912E-03     10.3798E-03
             826     2.29180E-03     113.889E-03    -109.848E+06    -210.762E+06    -93.5993E+06     653.852E+03    -163.718E-03     327.533E-03    -163.816E-03     16.5794E-03    -163.820E-03     326.770E-03    -163.819E-03     16.6249E-03
             827     3.05605E-03     113.912E-03    -105.957E+06    -196.026E+06    -79.1674E+06     953.863E+03    -163.732E-03     327.563E-03    -163.830E-03     22.5307E-03    -163.862E-03     326.850E-03    -163.788E-03     22.5423E-03
             828     3.82119E-03     113.944E-03    -97.6832E+06    -177.295E+06    -61.4951E+06     585.062E+03    -163.742E-03     327.593E-03    -163.852E-03     27.3246E-03    -163.887E-03     326.941E-03    -163.761E-03     27.2471E-03
             829     4.58412E-03     113.981E-03    -89.3499E+06    -158.324E+06    -44.5983E+06     287.202E+03    -163.623E-03     327.481E-03    -163.858E-03     31.7254E-03    -163.782E-03     326.891E-03    -163.722E-03     31.5605E-03
             830     5.34789E-03     114.025E-03    -81.9826E+06    -140.469E+06    -29.7256E+06    -674.219E+03    -163.425E-03     327.260E-03    -163.834E-03     36.1353E-03    -163.603E-03     326.734E-03    -163.660E-03     35.8483E-03
             831     6.11361E-03     114.074E-03    -75.7555E+06    -123.488E+06    -17.4271E+06    -1.06756E+06    -163.604E-03     327.406E-03    -163.802E-03     40.5421E-03    -163.803E-03     326.948E-03    -163.600E-03     40.1129E-03
             832     6.87749E-03     114.133E-03    -69.3901E+06    -104.914E+06    -6.00538E+06     301.991E+03    -163.780E-03     327.564E-03    -163.784E-03     45.3364E-03    -163.998E-03     327.181E-03    -163.561E-03     44.8452E-03
             833     7.64213E-03     114.194E-03    -61.5400E+06    -82.4852E+06     6.92594E+06     2.26337E+06    -163.532E-03     327.289E-03    -163.757E-03     51.0271E-03    -163.774E-03     326.999E-03    -163.513E-03     50.4327E-03
             834     8.40718E-03     114.266E-03    -54.2415E+06    -60.8536E+06     18.7631E+06     2.67304E+06    -163.468E-03     327.175E-03    -163.706E-03     55.6413E-03    -163.741E-03     326.985E-03    -163.445E-03     54.8271E-03
             835     9.17284E-03     114.335E-03    -49.5419E+06    -41.0521E+06     25.8442E+06     1.52090E+06    -163.544E-03     327.184E-03    -163.641E-03     58.9558E-03    -163.855E-03     327.100E-03    -163.380E-03     57.8605E-03
             836     9.93804E-03     114.409E-03    -42.9251E+06    -9.56831E+06     36.1222E+06     3.71589E+06    -163.556E-03     327.133E-03    -163.577E-03     63.3580E-03    -163.920E-03     327.206E-03    -163.321E-03     62.0615E-03
             837     10.7020E-03     114.491E-03    -34.8593E+06     32.1087E+06     50.1503E+06     6.62820E+06    -163.643E-03     327.165E-03    -163.521E-03     66.2205E-03    -164.072E-03     327.438E-03    -163.267E-03     64.7321E-03
             838     11.4678E-03     114.572E-03    -27.4220E+06     63.9316E+06     62.3041E+06     5.30545E+06    -163.520E-03     326.996E-03    -163.476E-03     66.7135E-03    -163.997E-03     327.422E-03    -163.218E-03     64.9726E-03
             839     12.2315E-03     114.656E-03    -20.6395E+06     79.0846E+06     75.1025E+06     3.18905E+06    -163.545E-03     327.010E-03    -163.464E-03     67.2994E-03    -164.054E-03     327.508E-03    -163.174E-03     65.2793E-03
             840     12.9956E-03     114.748E-03    -16.2110E+06     84.7092E+06     86.1212E+06     2.56561E+06    -164.117E-03     327.602E-03    -163.485E-03     67.7776E-03    -164.661E-03     328.139E-03    -163.153E-03     65.4049E-03
             841     13.7615E-03     114.834E-03    -11.4733E+06     95.7332E+06     96.6515E+06     1.92221E+06    -164.157E-03     327.675E-03    -163.518E-03     65.5039E-03    -164.720E-03     328.257E-03    -163.157E-03     62.9051E-03
             842     14.5253E-03     114.913E-03    -5.60666E+06     107.812E+06     102.937E+06     1.52197E+06    -163.011E-03     326.516E-03    -163.505E-03     62.0089E-03    -163.545E-03     327.114E-03    -163.139E-03     59.5672E-03
             843     762.950E-06     115.174E-03    -122.121E+06    -236.971E+06    -120.629E+06    -464.398E+03    -163.564E-03     327.735E-03    -164.171E-03     6.03109E-03    -163.626E-03     326.949E-03    -164.253E-03     6.05870E-03
             844     1.52809E-03     115.186E-03    -117.183E+06    -225.889E+06    -109.588E+06    -104.293E+03    -163.396E-03     327.181E-03    -163.786E-03     10.6384E-03    -163.492E-03     326.381E-03    -163.836E-03     10.6539E-03
             845     2.29279E-03     115.202E-03    -112.487E+06    -211.634E+06    -95.2448E+06     520.148E+03    -163.605E-03     327.321E-03    -163.716E-03     16.2336E-03    -163.718E-03     326.561E-03    -163.723E-03     16.2362E-03
             846     3.05702E-03     115.227E-03    -106.859E+06    -195.267E+06    -79.2732E+06     350.086E+03    -163.751E-03     327.500E-03    -163.749E-03     21.4307E-03    -163.887E-03     326.794E-03    -163.708E-03     21.4007E-03
             847     3.81985E-03     115.259E-03    -99.0279E+06    -177.319E+06    -62.4998E+06    -886.675E+03    -163.542E-03     327.315E-03    -163.773E-03     26.4597E-03    -163.693E-03     326.666E-03    -163.685E-03     26.3461E-03
             848     4.58525E-03     115.296E-03    -91.5341E+06    -159.352E+06    -46.9683E+06    -363.247E+03    -163.747E-03     327.529E-03    -163.782E-03     31.7112E-03    -163.912E-03     326.940E-03    -163.653E-03     31.5684E-03
             849     5.34978E-03     115.339E-03    -83.9741E+06    -141.196E+06    -31.8889E+06    -71.3550E+03    -164.331E-03     328.170E-03    -163.838E-03     36.5184E-03    -164.514E-03     327.646E-03    -163.671E-03     36.2730E-03
             850     6.11204E-03     115.390E-03    -76.4146E+06    -122.878E+06    -17.7230E+06    -54.8844E+03    -164.121E-03     328.021E-03    -163.900E-03     40.8128E-03    -164.321E-03     327.565E-03    -163.700E-03     40.4455E-03
             851     6.87716E-03     115.446E-03    -69.3064E+06    -104.144E+06    -5.44328E+06     381.871E+03    -163.525E-03     327.415E-03    -163.890E-03     45.5342E-03    -163.741E-03     327.031E-03    -163.666E-03     45.1076E-03
             852     7.64175E-03     115.509E-03    -62.3170E+06    -86.4093E+06     4.70337E+06     307.916E+03    -163.001E-03     326.808E-03    -163.808E-03     50.6413E-03    -163.236E-03     326.502E-03    -163.568E-03     50.0411E-03
             853     8.40757E-03     115.576E-03    -54.3064E+06    -63.7950E+06     16.7024E+06     2.32904E+06    -162.477E-03     326.160E-03    -163.683E-03     54.8227E-03    -162.743E-03     325.959E-03    -163.429E-03     54.0000E-03
             854     9.17350E-03     115.649E-03    -46.0989E+06    -38.8838E+06     28.9562E+06     2.68188E+06    -162.758E-03     326.319E-03    -163.561E-03     57.5758E-03    -163.061E-03     326.237E-03    -163.293E-03     56.4645E-03
             855     9.93768E-03     115.723E-03    -40.8528E+06    -12.9264E+06     36.8175E+06     2.28428E+06    -163.404E-03     326.873E-03    -163.469E-03     61.8849E-03    -163.753E-03     326.924E-03    -163.207E-03     60.5558E-03
             856     10.7039E-03     115.804E-03    -33.7469E+06     27.7130E+06     49.7680E+06     3.57135E+06    -163.889E-03     327.313E-03    -163.424E-03     65.4147E-03    -164.308E-03     327.566E-03    -163.166E-03     63.8463E-03
             857     11.4673E-03     115.888E-03    -26.4804E+06     64.9971E+06     62.5531E+06     4.99364E+06    -164.725E-03     328.155E-03    -163.429E-03     66.9447E-03    -165.205E-03     328.590E-03    -163.173E-03     65.1389E-03
             858     12.2306E-03     115.973E-03    -22.5301E+06     80.7554E+06     72.4069E+06     4.85853E+06    -165.015E-03     328.505E-03    -163.490E-03     69.0451E-03    -165.537E-03     329.024E-03    -163.212E-03     67.0222E-03
             859     12.9958E-03     116.060E-03    -17.2278E+06     86.1316E+06     84.2433E+06     3.91594E+06    -163.974E-03     327.521E-03    -163.547E-03     69.6830E-03    -164.524E-03     328.071E-03    -163.225E-03     67.3579E-03
             860     13.7602E-03     116.149E-03    -11.4707E+06     97.4974E+06     96.5044E+06     3.05229E+06    -162.677E-03     326.212E-03    -163.535E-03     66.0350E-03    -163.238E-03     326.799E-03    -163.178E-03     63.5232E-03
             861     14.5271E-03     116.225E-03    -5.74460E+06     109.625E+06     103.744E+06     1.26164E+06    -162.128E-03     325.591E-03    -163.463E-03     61.2146E-03    -162.660E-03     326.192E-03    -163.095E-03     58.8084E-03
             862     765.142E-06     116.491E-03    -122.397E+06    -235.010E+06    -120.208E+06    -851.090E+03    -164.484E-03     327.093E-03    -162.609E-03     5.64254E-03    -164.547E-03     326.319E-03    -162.692E-03     5.61556E-03
             863     1.52816E-03     116.498E-03    -119.708E+06    -226.459E+06    -111.555E+06    -919.760E+03    -164.079E-03     327.745E-03    -163.665E-03     10.0307E-03    -164.185E-03     326.948E-03    -163.721E-03     10.0347E-03
             864     2.29188E-03     116.517E-03    -114.256E+06    -212.505E+06    -97.8523E+06    -607.124E+03    -163.946E-03     327.778E-03    -163.832E-03     15.8746E-03    -164.063E-03     327.020E-03    -163.848E-03     15.8451E-03
             865     3.05523E-03     116.542E-03    -106.854E+06    -194.514E+06    -80.5119E+06    -268.821E+03    -163.714E-03     327.597E-03    -163.883E-03     20.6676E-03    -163.849E-03     326.896E-03    -163.849E-03     20.6407E-03
             866     3.82101E-03     116.573E-03    -100.250E+06    -176.861E+06    -63.7378E+06    -460.486E+03    -163.482E-03     327.356E-03    -163.875E-03     25.2712E-03    -163.635E-03     326.711E-03    -163.791E-03     25.2400E-03
             867     4.58505E-03     116.609E-03    -93.4717E+06    -160.075E+06    -48.1766E+06    -779.048E+03    -163.765E-03     327.633E-03    -163.868E-03     30.6731E-03    -163.934E-03     327.041E-03    -163.741E-03     30.5916E-03
             868     5.34813E-03     116.656E-03    -85.3091E+06    -141.808E+06    -33.0696E+06    -983.522E+03    -164.055E-03     327.951E-03    -163.897E-03     35.8991E-03    -164.238E-03     327.424E-03    -163.733E-03     35.7104E-03
             869     6.11267E-03     116.705E-03    -77.1494E+06    -122.896E+06    -19.0567E+06    -894.588E+03    -163.977E-03     327.899E-03    -163.923E-03     40.6614E-03    -164.176E-03     327.444E-03    -163.728E-03     40.3287E-03
             870     6.87631E-03     116.760E-03    -69.2749E+06    -104.065E+06    -6.00348E+06    -133.414E+03    -163.553E-03     327.457E-03    -163.905E-03     45.7610E-03    -163.770E-03     327.077E-03    -163.684E-03     45.3007E-03
             871     7.64169E-03     116.822E-03    -61.7698E+06    -85.8235E+06     5.75693E+06    -154.283E+03    -163.013E-03     326.843E-03    -163.830E-03     50.2500E-03    -163.250E-03     326.539E-03    -163.587E-03     49.6195E-03
             872     8.40690E-03     116.888E-03    -54.5256E+06    -65.8458E+06     16.0459E+06    -266.993E+03    -162.638E-03     326.348E-03    -163.709E-03     54.2266E-03    -162.900E-03     326.136E-03    -163.455E-03     53.3780E-03
             873     9.17246E-03     116.961E-03    -47.1881E+06    -42.5132E+06     26.1310E+06     141.003E+03    -162.792E-03     326.379E-03    -163.587E-03     57.3946E-03    -163.088E-03     326.281E-03    -163.326E-03     56.2942E-03
             874     9.93945E-03     117.036E-03    -40.2878E+06    -13.7902E+06     36.9693E+06     1.41211E+06    -163.373E-03     326.876E-03    -163.503E-03     60.4266E-03    -163.714E-03     326.918E-03    -163.240E-03     59.1099E-03
             875     10.7030E-03     117.119E-03    -35.1570E+06     23.6735E+06     47.8742E+06     4.07828E+06    -163.583E-03     327.029E-03    -163.445E-03     63.9961E-03    -163.997E-03     327.263E-03    -163.189E-03     62.4525E-03
             876     11.4684E-03     117.202E-03    -29.3625E+06     61.5031E+06     58.4238E+06     5.91089E+06    -164.128E-03     327.539E-03    -163.411E-03     67.3435E-03    -164.612E-03     327.968E-03    -163.166E-03     65.5663E-03
             877     12.2330E-03     117.289E-03    -22.8134E+06     83.2082E+06     71.0103E+06     5.74361E+06    -164.782E-03     328.229E-03    -163.447E-03     69.1373E-03    -165.309E-03     328.764E-03    -163.179E-03     67.1093E-03
             878     12.9949E-03     117.376E-03    -17.3642E+06     87.9705E+06     83.5641E+06     4.02409E+06    -163.728E-03     327.224E-03    -163.496E-03     69.2315E-03    -164.278E-03     327.783E-03    -163.181E-03     66.9220E-03
             879     13.7614E-03     117.459E-03    -11.4238E+06     99.4669E+06     96.9483E+06     2.66416E+06    -162.274E-03     325.749E-03    -163.474E-03     67.1523E-03    -162.844E-03     326.349E-03    -163.117E-03     64.6234E-03
             880     14.5271E-03     117.538E-03    -5.33028E+06     112.256E+06     105.071E+06     1.53269E+06    -162.117E-03     325.512E-03    -163.395E-03     62.3962E-03    -162.661E-03     326.132E-03    -163.025E-03     59.9548E-03
             881     764.497E-06     117.805E-03    -123.145E+06    -233.793E+06    -120.601E+06     23.3458E+03    -163.386E-03     327.134E-03    -163.748E-03     5.60444E-03    -163.444E-03     326.369E-03    -163.834E-03     5.62854E-03
             882     1.52780E-03     117.815E-03    -120.204E+06    -225.797E+06    -111.612E+06    -283.466E+03    -164.407E-03     328.150E-03    -163.744E-03     10.3378E-03    -164.514E-03     327.356E-03    -163.800E-03     10.3804E-03
             883     2.29123E-03     117.832E-03    -115.433E+06    -212.198E+06    -98.5426E+06    -427.581E+03    -164.271E-03     328.268E-03    -163.997E-03     15.9793E-03    -164.391E-03     327.513E-03    -164.015E-03     15.9955E-03
             884     3.05585E-03     117.857E-03    -108.619E+06    -194.301E+06    -82.0912E+06    -736.505E+03    -163.873E-03     327.942E-03    -164.069E-03     20.4573E-03    -164.013E-03     327.245E-03    -164.040E-03     20.4651E-03
             885     3.81872E-03     117.886E-03    -101.183E+06    -176.053E+06    -64.6819E+06    -1.03080E+06    -163.955E-03     328.039E-03    -164.084E-03     25.1385E-03    -164.113E-03     327.400E-03    -164.006E-03     25.1202E-03
             886     4.58254E-03     117.926E-03    -93.9293E+06    -159.388E+06    -48.7496E+06    -1.22239E+06    -163.658E-03     327.737E-03    -164.079E-03     30.6886E-03    -163.830E-03     327.152E-03    -163.955E-03     30.5773E-03
             887     5.34796E-03     117.969E-03    -86.3453E+06    -141.492E+06    -33.8728E+06    -1.67038E+06    -163.099E-03     327.104E-03    -164.005E-03     36.0770E-03    -163.288E-03     326.583E-03    -163.844E-03     35.8506E-03
             888     6.11280E-03     118.020E-03    -78.8669E+06    -122.737E+06    -20.2589E+06    -1.76140E+06    -163.312E-03     327.225E-03    -163.913E-03     40.9757E-03    -163.519E-03     326.775E-03    -163.722E-03     40.6421E-03
             889     6.87762E-03     118.074E-03    -71.2755E+06    -104.788E+06    -7.85085E+06    -1.65208E+06    -163.757E-03     327.624E-03    -163.867E-03     45.4265E-03    -163.981E-03     327.246E-03    -163.651E-03     44.9144E-03
             890     7.64187E-03     118.135E-03    -63.5009E+06    -86.2336E+06     3.74300E+06    -1.27854E+06    -163.567E-03     327.400E-03    -163.833E-03     49.3746E-03    -163.809E-03     327.100E-03    -163.597E-03     48.6994E-03
             891     8.40694E-03     118.202E-03    -56.2865E+06    -66.3519E+06     14.2807E+06    -1.13294E+06    -163.065E-03     326.827E-03    -163.762E-03     53.0477E-03    -163.329E-03     326.615E-03    -163.513E-03     52.2139E-03
             892     9.17247E-03     118.273E-03    -49.8755E+06    -44.2118E+06     24.0973E+06    -984.419E+03    -163.246E-03     326.922E-03    -163.676E-03     57.4295E-03    -163.546E-03     326.818E-03    -163.419E-03     56.3716E-03
             893     9.93515E-03     118.351E-03    -43.6689E+06    -17.2666E+06     34.2829E+06     557.810E+03    -163.573E-03     327.183E-03    -163.610E-03     60.5402E-03    -163.920E-03     327.215E-03    -163.351E-03     59.2340E-03
             894     10.7013E-03     118.430E-03    -36.5034E+06     18.4225E+06     46.2473E+06     3.07324E+06    -163.283E-03     326.831E-03    -163.547E-03     63.4901E-03    -163.687E-03     327.036E-03    -163.290E-03     61.9955E-03
             895     11.4671E-03     118.515E-03    -29.7047E+06     59.1534E+06     57.6348E+06     5.08835E+06    -163.244E-03     326.710E-03    -163.466E-03     67.3636E-03    -163.718E-03     327.122E-03    -163.220E-03     65.6530E-03
             896     12.2313E-03     118.605E-03    -23.8002E+06     84.1722E+06     69.6488E+06     5.14717E+06    -163.116E-03     326.528E-03    -163.412E-03     69.0037E-03    -163.648E-03     327.072E-03    -163.151E-03     66.9749E-03
             897     12.9983E-03     118.689E-03    -17.2363E+06     90.1577E+06     83.2291E+06     4.27547E+06    -162.732E-03     326.119E-03    -163.387E-03     68.6492E-03    -163.281E-03     326.686E-03    -163.077E-03     66.3721E-03
             898     13.7637E-03     118.770E-03    -11.2976E+06     102.072E+06     97.5566E+06     2.73721E+06    -162.495E-03     325.848E-03    -163.354E-03     67.1049E-03    -163.069E-03     326.462E-03    -162.998E-03     64.5643E-03
             899     14.5298E-03     118.852E-03    -5.93022E+06     114.304E+06     105.579E+06     1.26954E+06    -162.684E-03     325.987E-03    -163.303E-03     62.7733E-03    -163.239E-03     326.620E-03    -162.932E-03     60.3059E-03
             900     763.385E-06     119.117E-03    -125.199E+06    -233.779E+06    -122.548E+06     212.422E+03    -163.297E-03     328.017E-03    -164.720E-03     5.96710E-03    -163.368E-03     327.261E-03    -164.813E-03     6.01544E-03
             901     1.52851E-03     119.131E-03    -121.414E+06    -224.669E+06    -112.532E+06    -182.967E+03    -164.051E-03     328.079E-03    -164.029E-03     10.8926E-03    -164.165E-03     327.294E-03    -164.089E-03     10.9125E-03
             902     2.29123E-03     119.148E-03    -116.447E+06    -210.749E+06    -99.1088E+06    -757.014E+03    -164.372E-03     328.493E-03    -164.121E-03     15.5011E-03    -164.500E-03     327.748E-03    -164.142E-03     15.5174E-03
             903     3.05446E-03     119.172E-03    -110.343E+06    -193.628E+06    -83.5362E+06    -1.25906E+06    -164.156E-03     328.362E-03    -164.206E-03     20.4989E-03    -164.304E-03     327.673E-03    -164.183E-03     20.4994E-03
             904     3.81892E-03     119.204E-03    -103.241E+06    -176.007E+06    -66.7925E+06    -1.34528E+06    -163.864E-03     328.078E-03    -164.214E-03     25.9861E-03    -164.030E-03     327.447E-03    -164.144E-03     25.9400E-03
             905     4.58290E-03     119.240E-03    -95.5690E+06    -158.232E+06    -50.2255E+06    -1.48955E+06    -163.458E-03     327.620E-03    -164.162E-03     31.1097E-03    -163.639E-03     327.046E-03    -164.045E-03     30.9963E-03
             906     5.34734E-03     119.283E-03    -87.8861E+06    -140.261E+06    -35.0899E+06    -2.01194E+06    -163.138E-03     327.202E-03    -164.065E-03     35.8693E-03    -163.335E-03     326.691E-03    -163.909E-03     35.6325E-03
             907     6.11287E-03     119.333E-03    -79.9730E+06    -122.327E+06    -21.1290E+06    -2.27849E+06    -163.220E-03     327.186E-03    -163.966E-03     40.3485E-03    -163.431E-03     326.740E-03    -163.778E-03     40.0230E-03
             908     6.87734E-03     119.390E-03    -72.0703E+06    -104.396E+06    -8.50387E+06    -2.48475E+06    -163.470E-03     327.366E-03    -163.896E-03     44.5091E-03    -163.697E-03     326.991E-03    -163.683E-03     44.0149E-03
             909     7.64116E-03     119.450E-03    -64.9648E+06    -86.7662E+06     2.39350E+06    -2.59028E+06    -163.591E-03     327.438E-03    -163.847E-03     49.2136E-03    -163.840E-03     327.141E-03    -163.615E-03     48.4909E-03
             910     8.40539E-03     119.515E-03    -57.7444E+06    -67.8112E+06     12.6650E+06    -2.53997E+06    -163.732E-03     327.536E-03    -163.804E-03     53.5244E-03    -163.999E-03     327.321E-03    -163.559E-03     52.6826E-03
             911     9.17020E-03     119.586E-03    -50.2176E+06    -45.6051E+06     23.4638E+06    -1.75518E+06    -163.609E-03     327.368E-03    -163.759E-03     58.0437E-03    -163.907E-03     327.257E-03    -163.502E-03     57.0073E-03
             912     9.93707E-03     119.666E-03    -43.0446E+06    -19.2502E+06     34.3515E+06    -620.600E+03    -163.274E-03     326.965E-03    -163.691E-03     61.2646E-03    -163.615E-03     326.985E-03    -163.429E-03     59.9618E-03
             913     10.7011E-03     119.743E-03    -36.5485E+06     13.4036E+06      45.167E+06     1.22062E+06    -163.309E-03     326.917E-03    -163.608E-03     64.5410E-03    -163.704E-03     327.099E-03    -163.349E-03     63.0479E-03
             914     11.4654E-03     119.830E-03    -30.3179E+06     56.1949E+06     57.1162E+06     3.76128E+06    -162.710E-03     326.214E-03    -163.504E-03     68.2505E-03    -163.185E-03     326.615E-03    -163.256E-03     66.5209E-03
             915     12.2332E-03     119.915E-03    -23.8790E+06     84.8582E+06     69.9760E+06     4.73183E+06    -161.828E-03     325.216E-03    -163.389E-03     68.8721E-03    -162.359E-03     325.762E-03    -163.127E-03     66.8641E-03
             916     12.9995E-03     120.001E-03    -18.0147E+06     91.0181E+06     81.6184E+06     4.01479E+06    -162.300E-03     325.607E-03    -163.306E-03     67.7498E-03    -162.844E-03     326.172E-03    -163.004E-03     65.5275E-03
             917     13.7648E-03     120.084E-03    -11.5755E+06     104.838E+06     97.1466E+06     2.47703E+06    -162.919E-03     326.200E-03    -163.281E-03     65.0759E-03    -163.486E-03     326.817E-03    -162.931E-03     62.5864E-03
             918     14.5300E-03     120.163E-03    -6.11240E+06     116.720E+06     106.572E+06     1.42252E+06    -162.805E-03     326.065E-03    -163.260E-03     61.5782E-03    -163.360E-03     326.703E-03    -162.887E-03     59.1366E-03
             919     763.438E-06     120.434E-03    -127.122E+06    -233.393E+06    -125.286E+06    -467.970E+03    -164.526E-03     329.119E-03    -164.594E-03     4.59282E-03    -164.609E-03     328.372E-03    -164.697E-03     4.65067E-03
             920     1.52615E-03     120.445E-03    -123.858E+06    -223.857E+06    -115.625E+06    -442.356E+03    -164.033E-03     328.500E-03    -164.466E-03     10.7717E-03    -164.157E-03     327.726E-03    -164.540E-03     10.7838E-03
             921     2.29121E-03     120.465E-03    -118.482E+06    -209.506E+06    -101.204E+06    -1.01222E+06    -164.110E-03     328.474E-03    -164.364E-03     15.2973E-03    -164.247E-03     327.741E-03    -164.395E-03     15.3196E-03
             922     3.05461E-03     120.488E-03    -111.999E+06    -192.685E+06    -84.8102E+06    -1.53502E+06    -164.041E-03     328.381E-03    -164.340E-03     19.9122E-03    -164.197E-03     327.702E-03    -164.322E-03     19.9316E-03
             923     3.81838E-03     120.518E-03    -104.654E+06    -174.902E+06    -67.7097E+06    -1.81894E+06    -163.510E-03     327.789E-03    -164.279E-03     25.2307E-03    -163.683E-03     327.167E-03    -164.213E-03     25.1893E-03
             924     4.58329E-03     120.555E-03    -96.5907E+06    -156.998E+06    -50.9373E+06    -2.27839E+06    -163.518E-03     327.709E-03    -164.191E-03     30.3843E-03    -163.704E-03     327.143E-03    -164.078E-03     30.2632E-03
             925     5.34754E-03     120.597E-03    -88.3380E+06    -138.777E+06    -35.4023E+06    -2.64658E+06    -163.799E-03     327.941E-03    -164.141E-03     35.1933E-03    -164.000E-03     327.438E-03    -163.989E-03     34.9668E-03
             926     6.11088E-03     120.647E-03    -80.4605E+06    -121.305E+06    -21.5842E+06    -3.15643E+06    -163.365E-03     327.453E-03    -164.088E-03     39.8257E-03    -163.578E-03     327.012E-03    -163.903E-03     39.5209E-03
             927     6.87581E-03     120.703E-03    -72.7995E+06    -103.802E+06    -8.96271E+06    -3.39354E+06    -162.739E-03     326.715E-03    -163.977E-03     44.5578E-03    -162.968E-03     326.344E-03    -163.765E-03     44.0997E-03
             928     7.64224E-03     120.763E-03    -64.9446E+06    -85.8697E+06     2.83489E+06    -3.57032E+06    -163.001E-03     326.855E-03    -163.854E-03     49.5925E-03    -163.250E-03     326.560E-03    -163.621E-03     48.9034E-03
             929     8.40743E-03     120.830E-03    -57.4696E+06    -67.5449E+06     13.2305E+06    -4.16001E+06    -163.825E-03     327.611E-03    -163.786E-03     54.5102E-03    -164.091E-03     327.395E-03    -163.538E-03     53.6830E-03
             930     9.17058E-03     120.902E-03    -50.5841E+06    -47.1267E+06     22.7665E+06    -3.55405E+06    -163.839E-03     327.589E-03    -163.750E-03     58.6614E-03    -164.136E-03     327.472E-03    -163.494E-03     57.6103E-03
             931     9.93447E-03     120.976E-03    -44.2087E+06    -22.2124E+06     32.6067E+06    -1.74458E+06    -163.207E-03     326.892E-03    -163.685E-03     62.0019E-03    -163.549E-03     326.904E-03    -163.426E-03     60.6779E-03
             932     10.7011E-03     121.058E-03    -37.7966E+06     9.23892E+06     43.7275E+06     197.554E+03    -163.035E-03     326.627E-03    -163.592E-03     65.4029E-03    -163.431E-03     326.795E-03    -163.332E-03     63.8884E-03
             933     11.4672E-03     121.141E-03    -31.2260E+06     51.7769E+06     56.1105E+06     2.42866E+06    -162.803E-03     326.287E-03    -163.484E-03     67.5199E-03    -163.271E-03     326.665E-03    -163.233E-03     65.7955E-03
             934     12.2325E-03     121.226E-03    -24.8203E+06     83.5735E+06     68.4407E+06     3.95121E+06    -162.275E-03     325.657E-03    -163.382E-03     67.4887E-03    -162.798E-03     326.190E-03    -163.125E-03     65.5390E-03
             935     12.9987E-03     121.313E-03    -18.4506E+06     93.1285E+06     80.4174E+06     3.62933E+06    -162.150E-03     325.457E-03    -163.307E-03     67.3934E-03    -162.694E-03     326.033E-03    -163.013E-03     65.1909E-03
             936     13.7643E-03     121.398E-03    -12.6988E+06     106.020E+06     95.3078E+06     2.57165E+06    -162.375E-03     325.636E-03    -163.262E-03     65.7253E-03    -162.948E-03     326.265E-03    -162.920E-03     63.2438E-03
             937     14.5288E-03     121.476E-03    -5.71997E+06     118.358E+06     106.594E+06     1.23529E+06    -162.189E-03     325.403E-03    -163.215E-03     62.5935E-03    -162.746E-03     326.052E-03    -162.845E-03     60.1590E-03
             938     762.647E-06     121.752E-03    -128.418E+06    -231.760E+06    -125.727E+06    -646.654E+03    -164.746E-03     329.157E-03    -164.411E-03     5.60082E-03    -164.835E-03     328.418E-03    -164.518E-03     5.62697E-03
             939     1.52677E-03     121.762E-03    -125.102E+06    -222.676E+06    -116.870E+06    -938.543E+03    -164.734E-03     329.351E-03    -164.617E-03     11.4177E-03    -164.862E-03     328.587E-03    -164.697E-03     11.4090E-03
             940     2.28950E-03     121.780E-03    -119.656E+06    -208.126E+06    -102.390E+06    -1.27704E+06    -164.169E-03     328.788E-03    -164.618E-03     15.3975E-03    -164.312E-03     328.065E-03    -164.655E-03     15.4220E-03
             941     3.05384E-03     121.804E-03    -113.145E+06    -191.291E+06    -85.5636E+06    -1.86907E+06    -163.771E-03     328.281E-03    -164.510E-03     19.4080E-03    -163.934E-03     327.611E-03    -164.496E-03     19.4377E-03
             942     3.81811E-03     121.833E-03    -105.658E+06    -173.100E+06    -68.0454E+06    -2.46779E+06    -163.678E-03     328.081E-03    -164.403E-03     24.4039E-03    -163.856E-03     327.467E-03    -164.339E-03     24.4027E-03
             943     4.58232E-03     121.869E-03    -97.7661E+06    -155.246E+06    -51.4328E+06    -3.25693E+06    -163.634E-03     327.954E-03    -164.320E-03     29.9730E-03    -163.827E-03     327.398E-03    -164.210E-03     29.8745E-03
             944     5.34612E-03     121.914E-03    -89.6184E+06    -137.741E+06    -36.1664E+06    -3.70863E+06    -163.450E-03     327.688E-03    -164.238E-03     35.2210E-03    -163.656E-03     327.192E-03    -164.089E-03     35.0186E-03
             945     6.11079E-03     121.962E-03    -81.4364E+06    -119.871E+06    -22.0038E+06    -3.99807E+06    -163.046E-03     327.177E-03    -164.131E-03     40.2038E-03    -163.266E-03     326.745E-03    -163.949E-03     39.8864E-03
             946     6.87652E-03     122.015E-03    -73.6085E+06    -102.529E+06    -9.32374E+06    -4.65825E+06    -162.847E-03     326.848E-03    -164.001E-03     44.8176E-03    -163.081E-03     326.483E-03    -163.792E-03     44.3471E-03
             947     7.64127E-03     122.076E-03    -65.7832E+06    -85.3132E+06     2.06791E+06    -5.15964E+06    -163.063E-03     326.947E-03    -163.883E-03     49.3424E-03    -163.311E-03     326.651E-03    -163.654E-03     48.7213E-03
             948     8.40597E-03     122.144E-03    -58.4239E+06    -66.8472E+06     12.5886E+06    -4.92686E+06    -163.131E-03     326.918E-03    -163.787E-03     53.6665E-03    -163.398E-03     326.704E-03    -163.542E-03     52.8811E-03
             949     9.17224E-03     122.216E-03    -51.9946E+06    -47.4922E+06     22.0469E+06    -4.48774E+06    -163.012E-03     326.704E-03    -163.691E-03     57.9967E-03    -163.310E-03     326.585E-03    -163.437E-03     56.9790E-03
             950     9.93755E-03     122.291E-03    -45.0125E+06    -24.7320E+06     31.6348E+06    -3.96133E+06    -163.210E-03     326.809E-03    -163.599E-03     62.7006E-03    -163.548E-03     326.808E-03    -163.340E-03     61.4033E-03
             951     10.7020E-03     122.370E-03    -37.1506E+06     5.41766E+06     42.7728E+06    -2.40423E+06    -163.367E-03     326.888E-03    -163.521E-03     66.0356E-03    -163.753E-03     327.037E-03    -163.261E-03     64.5039E-03
             952     11.4670E-03     122.455E-03    -29.7318E+06     45.3180E+06     54.9298E+06     1.26235E+06    -163.158E-03     326.598E-03    -163.440E-03     67.4654E-03    -163.605E-03     326.941E-03    -163.188E-03     65.7456E-03
             953     12.2320E-03     122.539E-03    -23.8123E+06     81.5699E+06     67.3286E+06     4.33491E+06    -162.684E-03     326.041E-03    -163.357E-03     68.3116E-03    -163.198E-03     326.565E-03    -163.105E-03     66.3671E-03
             954     12.9976E-03     122.624E-03    -18.7793E+06     95.9698E+06     78.4365E+06     3.59323E+06    -161.942E-03     325.219E-03    -163.277E-03     68.9048E-03    -162.494E-03     325.818E-03    -162.997E-03     66.6848E-03
             955     13.7650E-03     122.709E-03    -12.4632E+06     107.680E+06     93.9685E+06     1.79960E+06    -161.469E-03     324.672E-03    -163.203E-03     67.2835E-03    -162.050E-03     325.319E-03    -162.872E-03     64.7720E-03
             956     14.5331E-03     122.788E-03    -5.26898E+06     120.195E+06     107.392E+06     557.910E+03    -161.952E-03     325.089E-03    -163.137E-03     62.7815E-03    -162.514E-03     325.747E-03    -162.767E-03     60.3349E-03
             957     765.285E-06     123.068E-03    -129.589E+06    -230.164E+06    -127.121E+06    -191.338E+03    -164.666E-03     329.149E-03    -164.483E-03     5.13290E-03    -164.766E-03     328.416E-03    -164.597E-03     5.21259E-03
             958     1.52659E-03     123.081E-03    -126.491E+06    -220.721E+06    -117.448E+06    -1.11507E+06    -164.740E-03     329.364E-03    -164.623E-03     10.6977E-03    -164.878E-03     328.613E-03    -164.707E-03     10.7184E-03
             959     2.28977E-03     123.097E-03    -121.154E+06    -206.561E+06    -103.503E+06    -1.80955E+06    -164.144E-03     328.764E-03    -164.621E-03     15.6575E-03    -164.295E-03     328.053E-03    -164.663E-03     15.6785E-03
             960     3.05354E-03     123.119E-03    -114.468E+06    -189.290E+06    -86.5319E+06    -2.26239E+06    -163.921E-03     328.443E-03    -164.522E-03     20.4647E-03    -164.091E-03     327.787E-03    -164.515E-03     20.4829E-03
             961     3.81757E-03     123.148E-03    -106.839E+06    -171.102E+06     -68.811E+06    -2.96409E+06    -164.055E-03     328.518E-03    -164.463E-03     25.1444E-03    -164.242E-03     327.917E-03    -164.404E-03     25.1515E-03
             962     4.58104E-03     123.185E-03    -98.8574E+06    -152.940E+06    -51.8655E+06    -3.65663E+06    -163.446E-03     327.836E-03    -164.390E-03     30.2984E-03    -163.646E-03     327.293E-03    -164.284E-03     30.2347E-03
             963     5.34634E-03     123.227E-03    -90.8216E+06    -135.686E+06    -36.3521E+06    -4.64086E+06    -162.520E-03     326.742E-03    -164.222E-03     35.7944E-03    -162.734E-03     326.257E-03    -164.075E-03     35.6166E-03
             964     6.11223E-03     123.275E-03    -82.5217E+06    -118.499E+06    -22.5813E+06    -5.26311E+06    -162.818E-03     326.856E-03    -164.037E-03     41.1305E-03    -163.045E-03     326.434E-03    -163.859E-03     40.7964E-03
             965     6.87619E-03     123.330E-03     -74.401E+06    -100.785E+06    -9.92205E+06    -5.64811E+06    -163.591E-03     327.531E-03    -163.940E-03     45.5225E-03    -163.830E-03     327.177E-03    -163.736E-03     45.0590E-03
             966     7.64078E-03     123.390E-03    -67.0423E+06    -84.1179E+06     1.30149E+06    -6.26653E+06    -163.513E-03     327.401E-03    -163.888E-03     49.9904E-03    -163.766E-03     327.113E-03    -163.662E-03     49.4146E-03
             967     8.40601E-03     123.457E-03    -59.9756E+06    -66.5125E+06     11.5668E+06    -6.20916E+06    -162.883E-03     326.684E-03    -163.801E-03     53.8314E-03    -163.156E-03     326.474E-03    -163.560E-03     53.0557E-03
             968     9.17123E-03     123.527E-03    -52.6025E+06    -46.8704E+06     21.6918E+06    -6.07341E+06    -162.531E-03     326.208E-03    -163.677E-03     57.0787E-03    -162.827E-03     326.088E-03    -163.424E-03     56.0981E-03
             969     9.93803E-03     123.603E-03    -45.2912E+06    -25.3427E+06     31.2673E+06    -6.15883E+06    -162.830E-03     326.387E-03    -163.557E-03     61.1015E-03    -163.157E-03     326.373E-03    -163.298E-03     59.8942E-03
             970     10.7031E-03     123.685E-03    -38.3417E+06     2.36307E+06     41.2506E+06    -5.10465E+06    -163.083E-03     326.543E-03    -163.460E-03     65.0153E-03    -163.460E-03     326.672E-03    -163.201E-03     63.5191E-03
             971     11.4679E-03     123.767E-03    -31.3382E+06     36.4350E+06     51.8440E+06    -1.58483E+06    -162.663E-03     326.022E-03    -163.359E-03     67.6938E-03    -163.099E-03     326.326E-03    -163.107E-03     65.9636E-03
             972     12.2345E-03     123.852E-03    -23.7537E+06     76.6559E+06     64.7903E+06     2.90242E+06    -162.267E-03     325.512E-03    -163.245E-03     69.2499E-03    -162.770E-03     326.015E-03    -162.998E-03     67.3078E-03
             973     13.0006E-03     123.936E-03    -16.6222E+06     100.167E+06     77.7119E+06     3.52530E+06    -162.166E-03     325.321E-03    -163.156E-03     69.3193E-03    -162.712E-03     325.939E-03    -162.888E-03     67.1051E-03
             974     13.7664E-03     124.019E-03    -11.1834E+06     110.790E+06     93.9390E+06     1.23252E+06    -162.056E-03     325.172E-03    -163.116E-03     67.3035E-03    -162.639E-03     325.835E-03    -162.790E-03     64.7447E-03
             975     14.5316E-03     124.100E-03    -6.21206E+06     120.920E+06     107.412E+06     470.575E+03    -162.259E-03     325.344E-03    -163.084E-03     62.8400E-03    -162.831E-03     326.011E-03    -162.714E-03     60.3556E-03
             976     760.911E-06     124.386E-03    -131.418E+06    -228.857E+06    -129.046E+06    -640.241E+03    -164.650E-03     329.919E-03    -165.269E-03     4.17738E-03    -164.770E-03     329.194E-03    -165.392E-03     4.29856E-03
             977     1.52616E-03     124.397E-03    -127.658E+06    -218.725E+06    -118.747E+06    -1.15205E+06    -163.662E-03     328.384E-03    -164.722E-03     10.4414E-03    -163.808E-03     327.648E-03    -164.814E-03     10.4970E-03
             978     2.29093E-03     124.412E-03    -122.170E+06    -204.292E+06    -103.969E+06    -1.95343E+06    -163.769E-03     328.172E-03    -164.404E-03     15.5620E-03    -163.927E-03     327.475E-03    -164.450E-03     15.6168E-03
             979     3.05487E-03     124.436E-03    -115.231E+06    -186.837E+06    -86.8116E+06    -2.76373E+06    -163.998E-03     328.313E-03    -164.315E-03     20.9641E-03    -164.176E-03     327.670E-03    -164.311E-03     20.9997E-03
             980     3.81802E-03     124.465E-03    -108.008E+06    -168.896E+06    -69.3866E+06    -3.42300E+06    -163.753E-03     328.030E-03    -164.277E-03     26.3385E-03    -163.949E-03     327.444E-03    -164.222E-03     26.3193E-03
             981     4.58226E-03     124.501E-03    -99.8545E+06    -150.506E+06    -52.1524E+06    -4.18757E+06    -163.156E-03     327.341E-03    -164.184E-03     31.0525E-03    -163.365E-03     326.812E-03    -164.082E-03     30.9818E-03
             982     5.34757E-03     124.539E-03    -91.3727E+06    -132.644E+06    -36.2472E+06    -5.17551E+06    -162.780E-03     326.821E-03    -164.041E-03     35.8842E-03    -163.001E-03     326.352E-03    -163.897E-03     35.7318E-03
             983     6.11286E-03     124.589E-03    -83.3541E+06    -116.097E+06    -22.5630E+06    -6.27219E+06    -162.978E-03     326.884E-03    -163.906E-03     41.4982E-03    -163.210E-03     326.474E-03    -163.730E-03     41.2003E-03
             984     6.87790E-03     124.645E-03    -75.4282E+06    -99.2179E+06    -10.4406E+06    -6.95984E+06    -163.558E-03     327.387E-03    -163.829E-03     46.1133E-03    -163.800E-03     327.039E-03    -163.628E-03     45.7109E-03
             985     7.64171E-03     124.705E-03    -67.7204E+06    -82.0542E+06     1.10065E+06    -7.15830E+06    -163.520E-03     327.306E-03    -163.785E-03     50.1593E-03    -163.776E-03     327.026E-03    -163.563E-03     49.6281E-03
             986     8.40651E-03     124.770E-03    -60.3558E+06    -65.1374E+06     11.4656E+06    -7.58296E+06    -163.098E-03     326.815E-03    -163.717E-03     54.4445E-03    -163.373E-03     326.612E-03    -163.478E-03     53.6746E-03
             987     9.17209E-03     124.840E-03    -52.9198E+06    -46.3506E+06     21.2345E+06    -7.94000E+06    -163.048E-03     326.675E-03    -163.627E-03     58.3644E-03    -163.347E-03     326.560E-03    -163.376E-03     57.3686E-03
             988     9.93585E-03     124.915E-03    -46.1369E+06    -25.4906E+06     30.5416E+06    -7.51063E+06    -162.750E-03     326.274E-03    -163.524E-03     62.5692E-03    -163.082E-03     326.263E-03    -163.268E-03     61.3492E-03
             989     10.7025E-03     124.996E-03    -40.1944E+06     348.476E+03     39.8615E+06    -6.30904E+06    -162.291E-03     325.688E-03    -163.397E-03     65.8930E-03    -162.673E-03     325.813E-03    -163.140E-03     64.3989E-03
             990     11.4697E-03     125.079E-03    -34.1060E+06     29.6159E+06     49.0703E+06    -4.01747E+06    -162.132E-03     325.389E-03    -163.257E-03     67.3297E-03    -162.565E-03     325.663E-03    -163.005E-03     65.5964E-03
             991     12.2356E-03     125.163E-03    -27.1173E+06     70.9043E+06     60.9705E+06    -1.40816E+06    -162.138E-03     325.261E-03    -163.124E-03     68.4949E-03    -162.641E-03     325.743E-03    -162.882E-03     66.5161E-03
             992     13.0020E-03     125.248E-03    -19.3298E+06     100.510E+06     74.8728E+06     561.817E+03    -162.457E-03     325.500E-03    -163.043E-03     68.3442E-03    -163.009E-03     326.123E-03    -162.786E-03     66.1075E-03
             993     13.7673E-03     125.332E-03    -12.1334E+06     112.144E+06     93.5375E+06     1.57551E+06    -162.650E-03     325.693E-03    -163.043E-03     66.9757E-03    -163.237E-03     326.364E-03    -162.721E-03     64.4301E-03
             994     14.5329E-03     125.413E-03    -5.93135E+06     121.919E+06     108.941E+06     882.280E+03    -162.434E-03     325.478E-03    -163.044E-03     63.6237E-03    -163.012E-03     326.152E-03    -162.668E-03     61.1270E-03
             995     763.217E-06     125.702E-03    -132.344E+06    -226.837E+06    -129.790E+06    -806.402E+03    -164.607E-03     328.831E-03    -164.224E-03     4.63905E-03    -164.736E-03     328.117E-03    -164.352E-03     4.73406E-03
             996     1.52734E-03     125.712E-03    -128.386E+06    -216.214E+06    -119.230E+06    -1.55402E+06    -163.717E-03     328.016E-03    -164.299E-03     10.7358E-03    -163.870E-03     327.293E-03    -164.395E-03     10.7961E-03
             997     2.29106E-03     125.728E-03    -122.841E+06    -201.742E+06    -104.383E+06    -2.27165E+06    -163.401E-03     327.492E-03    -164.090E-03     15.8318E-03    -163.566E-03     326.809E-03    -164.142E-03     15.8914E-03
             998     3.05489E-03     125.751E-03    -116.032E+06    -184.416E+06    -86.9692E+06    -3.05448E+06    -163.300E-03     327.251E-03    -163.952E-03     21.7282E-03    -163.485E-03     326.623E-03    -163.951E-03     21.7449E-03
             999     3.81992E-03     125.780E-03    -108.169E+06    -166.104E+06    -68.8736E+06    -3.97714E+06    -163.050E-03     326.896E-03    -163.846E-03     26.6153E-03    -163.252E-03     326.323E-03    -163.792E-03     26.6148E-03
            1000     4.58539E-03     125.813E-03    -99.7079E+06    -147.640E+06    -51.6173E+06    -4.99588E+06    -163.289E-03     327.059E-03    -163.771E-03     31.3930E-03    -163.502E-03     326.544E-03    -163.670E-03     31.3525E-03
            1001     5.34895E-03     125.855E-03    -91.3250E+06    -129.864E+06    -36.0575E+06    -5.88870E+06    -163.806E-03     327.569E-03    -163.763E-03     36.0737E-03    -164.029E-03     327.111E-03    -163.623E-03     35.9614E-03
            1002     6.11283E-03     125.901E-03    -83.2113E+06    -112.979E+06    -22.0681E+06    -6.81323E+06    -163.411E-03     327.170E-03    -163.759E-03     41.4307E-03    -163.646E-03     326.772E-03    -163.585E-03     41.1921E-03
            1003     6.87792E-03     125.959E-03    -75.3942E+06    -96.4296E+06    -9.78607E+06    -7.89660E+06    -162.846E-03     326.532E-03    -163.687E-03     46.6399E-03    -163.091E-03     326.196E-03    -163.486E-03     46.2713E-03
            1004     7.64331E-03     126.019E-03    -67.7296E+06    -80.1473E+06     1.23236E+06    -8.40419E+06    -162.992E-03     326.583E-03    -163.592E-03     50.7115E-03    -163.250E-03     326.313E-03    -163.371E-03     50.1788E-03
            1005     8.40856E-03     126.082E-03    -60.1991E+06     -63.181E+06     11.6478E+06    -8.86356E+06    -163.249E-03     326.770E-03    -163.520E-03     55.2654E-03    -163.527E-03     326.576E-03    -163.283E-03     54.5014E-03
            1006     9.17317E-03     126.154E-03    -53.3369E+06    -45.5161E+06     21.0014E+06    -9.03954E+06    -163.135E-03     326.588E-03    -163.454E-03     59.3637E-03    -163.436E-03     326.478E-03    -163.205E-03     58.3844E-03
            1007     9.93996E-03     126.228E-03    -46.9141E+06    -25.9428E+06     29.9593E+06    -8.26914E+06    -162.850E-03     326.220E-03    -163.370E-03     63.1644E-03    -163.184E-03     326.209E-03    -163.115E-03     61.9511E-03
            1008     10.7053E-03     126.308E-03    -40.7490E+06    -1.72170E+06     39.1509E+06    -6.94494E+06    -162.440E-03     325.703E-03    -163.262E-03     66.2282E-03    -162.819E-03     325.817E-03    -163.005E-03     64.7503E-03
            1009     11.4704E-03     126.390E-03    -34.8473E+06     25.7209E+06     48.1044E+06    -4.97760E+06    -162.294E-03     325.436E-03    -163.142E-03     67.7778E-03    -162.724E-03     325.694E-03    -162.888E-03     66.0322E-03
            1010     12.2367E-03     126.474E-03    -29.3398E+06     68.4062E+06     60.1501E+06    -3.35476E+06    -162.507E-03     325.539E-03    -163.032E-03     69.0012E-03    -163.020E-03     326.016E-03    -162.788E-03     66.9750E-03
            1011     13.0020E-03     126.560E-03    -23.3279E+06     98.5761E+06     71.6209E+06    -2.82064E+06    -162.726E-03     325.691E-03    -162.965E-03     69.0678E-03    -163.293E-03     326.318E-03    -162.716E-03     66.7719E-03
            1012     13.7679E-03     126.644E-03    -15.3215E+06     110.572E+06     88.8959E+06    -2.09273E+06    -162.631E-03     325.599E-03    -162.967E-03     66.9282E-03    -163.223E-03     326.271E-03    -162.661E-03     64.3488E-03
            1013     14.5339E-03     126.724E-03    -6.85002E+06     121.778E+06     107.400E+06    -692.032E+03    -162.561E-03     325.547E-03    -162.985E-03     63.4018E-03    -163.138E-03     326.220E-03    -162.615E-03     60.9044E-03
            1014     765.848E-06     127.020E-03    -131.746E+06    -224.127E+06    -129.735E+06    -823.977E+03    -163.796E-03     325.864E-03    -162.068E-03     7.40986E-03    -163.922E-03     325.166E-03    -162.200E-03     7.38580E-03
            1015     1.52747E-03     127.028E-03    -128.208E+06    -213.611E+06    -118.802E+06    -1.60567E+06    -164.328E-03     327.557E-03    -163.229E-03     10.7655E-03    -164.484E-03     326.846E-03    -163.328E-03     10.8304E-03
            1016     2.29213E-03     127.042E-03    -122.643E+06    -199.067E+06    -103.590E+06    -2.51032E+06    -163.145E-03     326.645E-03    -163.499E-03     16.4361E-03    -163.316E-03     325.975E-03    -163.551E-03     16.4974E-03
            1017     3.05782E-03     127.065E-03    -115.712E+06    -181.498E+06    -86.1093E+06    -3.36820E+06    -162.593E-03     325.991E-03    -163.397E-03     21.9998E-03    -162.782E-03     325.375E-03    -163.397E-03     22.0452E-03
            1018     3.82246E-03     127.093E-03    -107.756E+06    -162.772E+06    -68.1932E+06    -4.58042E+06    -162.844E-03     326.148E-03    -163.304E-03     26.8004E-03    -163.049E-03     325.590E-03    -163.253E-03     26.8418E-03
            1019     4.58648E-03     127.127E-03    -99.3888E+06    -144.283E+06    -51.0435E+06    -5.71422E+06    -163.518E-03     326.835E-03    -163.317E-03     32.0762E-03    -163.735E-03     326.335E-03    -163.219E-03     32.0616E-03
            1020     5.35096E-03     127.170E-03    -91.0448E+06    -126.684E+06    -35.3690E+06    -6.60963E+06    -163.873E-03     327.269E-03    -163.396E-03     37.1256E-03    -164.099E-03     326.825E-03    -163.257E-03     37.0338E-03
            1021     6.11458E-03     127.217E-03    -82.7823E+06    -109.723E+06    -21.3573E+06    -7.64963E+06    -163.593E-03     327.042E-03    -163.450E-03     42.3989E-03    -163.830E-03     326.658E-03    -163.277E-03     42.1881E-03
            1022     6.87950E-03     127.270E-03    -74.8730E+06    -93.2372E+06    -8.90708E+06    -8.49431E+06    -162.762E-03     326.178E-03    -163.416E-03     47.5914E-03    -163.011E-03     325.856E-03    -163.217E-03     47.2256E-03
            1023     7.64594E-03     127.331E-03    -67.2760E+06    -77.7314E+06     2.02837E+06    -9.43117E+06    -162.731E-03     326.060E-03    -163.330E-03     51.8319E-03    -162.992E-03     325.801E-03    -163.109E-03     51.2848E-03
            1024     8.41063E-03     127.397E-03    -59.9477E+06    -61.3834E+06     12.0775E+06    -9.92014E+06    -163.254E-03     326.522E-03    -163.267E-03     55.3899E-03    -163.531E-03     326.333E-03    -163.031E-03     54.6544E-03
            1025     9.17615E-03     127.466E-03    -52.9534E+06    -44.3285E+06     21.4743E+06    -9.92315E+06    -163.266E-03     326.494E-03    -163.229E-03     58.9229E-03    -163.563E-03     326.384E-03    -162.980E-03     57.9894E-03
            1026     9.94029E-03     127.541E-03    -46.0087E+06    -26.3109E+06     30.2403E+06    -9.49064E+06    -163.078E-03     326.256E-03    -163.178E-03     62.4289E-03    -163.402E-03     326.235E-03    -162.922E-03     61.2543E-03
            1027     10.7058E-03     127.620E-03    -38.8236E+06    -3.54488E+06     39.3872E+06    -8.45064E+06    -162.623E-03     325.723E-03    -163.100E-03     65.3972E-03    -162.983E-03     325.819E-03    -162.842E-03     63.9597E-03
            1028     11.4728E-03     127.701E-03    -31.6722E+06     21.9837E+06     48.4504E+06     -6.4169E+06    -162.662E-03     325.672E-03    -163.010E-03     68.2882E-03    -163.069E-03     325.904E-03    -162.753E-03     66.5535E-03
            1029     12.2381E-03     127.787E-03    -24.8763E+06     65.8925E+06     61.1200E+06    -3.70727E+06    -162.900E-03     325.829E-03    -162.929E-03     69.1717E-03    -163.382E-03     326.279E-03    -162.683E-03     67.1931E-03
            1030     13.0039E-03     127.872E-03    -18.5394E+06     100.842E+06     74.4965E+06    -3.75182E+06    -162.809E-03     325.691E-03    -162.882E-03     69.5066E-03    -163.359E-03     326.317E-03    -162.629E-03     67.2311E-03
            1031     13.7690E-03     127.957E-03    -12.6107E+06     109.066E+06     89.9082E+06    -4.65210E+06    -162.915E-03     325.811E-03    -162.896E-03     67.5868E-03    -163.493E-03     326.471E-03    -162.586E-03     64.9740E-03
            1032     14.5340E-03     128.036E-03    -6.54166E+06     117.344E+06     105.771E+06    -2.55755E+06    -163.006E-03     325.936E-03    -162.929E-03     63.9083E-03    -163.573E-03     326.589E-03    -162.561E-03     61.3965E-03
            1033     766.795E-06     128.335E-03    -132.433E+06    -221.230E+06    -129.922E+06    -1.02928E+06    -162.422E-03     324.458E-03    -162.036E-03     8.20526E-03    -162.555E-03     323.779E-03    -162.173E-03     8.15589E-03
            1034     1.53115E-03     128.341E-03    -128.642E+06    -210.949E+06    -119.049E+06    -1.72276E+06    -162.514E-03     324.818E-03    -162.305E-03     9.95380E-03    -162.676E-03     324.124E-03    -162.407E-03     10.0795E-03
            1035     2.29462E-03     128.356E-03    -122.738E+06    -195.929E+06    -103.338E+06    -2.64073E+06    -162.859E-03     325.336E-03    -162.476E-03     17.2499E-03    -163.034E-03     324.680E-03    -162.531E-03     17.3408E-03
            1036     3.05863E-03     128.376E-03    -115.556E+06    -177.984E+06    -85.5308E+06    -3.82389E+06    -162.774E-03     325.391E-03    -162.617E-03     22.5183E-03    -162.967E-03     324.790E-03    -162.619E-03     22.6134E-03
            1037     3.82456E-03     128.405E-03    -107.468E+06    -159.030E+06    -67.3853E+06    -5.08653E+06    -162.869E-03     325.573E-03    -162.704E-03     27.7935E-03    -163.078E-03     325.031E-03    -162.655E-03     27.8484E-03
            1038     4.58912E-03     128.442E-03    -99.0865E+06    -140.635E+06    -50.1269E+06    -6.32625E+06    -163.179E-03     325.972E-03    -162.793E-03     33.3695E-03    -163.400E-03     325.487E-03    -162.696E-03     33.3496E-03
            1039     5.35331E-03     128.483E-03    -90.5667E+06    -123.181E+06    -34.3139E+06    -7.44808E+06    -163.199E-03     326.072E-03    -162.873E-03     38.4215E-03    -163.429E-03     325.643E-03    -162.734E-03     38.3232E-03
            1040     6.11879E-03     128.531E-03    -82.1331E+06    -106.296E+06    -20.0931E+06    -8.44878E+06    -163.316E-03     326.245E-03    -162.929E-03     43.4309E-03    -163.556E-03     325.875E-03    -162.756E-03     43.2216E-03
            1041     6.88310E-03     128.583E-03    -73.9718E+06    -90.0381E+06    -7.51620E+06    -9.34938E+06    -163.464E-03     326.437E-03    -162.973E-03     48.0622E-03    -163.714E-03     326.126E-03    -162.773E-03     47.7124E-03
            1042     7.64742E-03     128.643E-03    -66.1905E+06    -74.6833E+06     3.47278E+06    -10.2145E+06    -163.210E-03     326.199E-03    -162.989E-03     52.7377E-03    -163.471E-03     325.950E-03    -162.767E-03     52.2098E-03
            1043     8.41303E-03     128.711E-03    -58.8830E+06    -59.0654E+06     13.2479E+06    -10.9022E+06    -163.171E-03     326.144E-03    -162.974E-03     56.3645E-03    -163.446E-03     325.963E-03    -162.737E-03     55.6437E-03
            1044     9.17744E-03     128.778E-03    -51.5669E+06    -42.7270E+06     22.4632E+06    -11.3392E+06    -163.477E-03     326.437E-03    -162.961E-03     59.8725E-03    -163.771E-03     326.332E-03    -162.712E-03     58.9325E-03
            1045     9.94324E-03     128.854E-03    -44.3528E+06    -25.7878E+06     31.0915E+06    -11.4235E+06    -163.337E-03     326.284E-03    -162.946E-03     63.2377E-03    -163.653E-03     326.261E-03    -162.689E-03     62.0604E-03
            1046     10.7087E-03     128.930E-03    -37.3121E+06    -4.14964E+06     40.0065E+06    -11.0913E+06    -163.095E-03     326.005E-03    -162.910E-03     65.7931E-03    -163.444E-03     326.091E-03    -162.650E-03     64.3646E-03
            1047     11.4739E-03     129.013E-03    -30.0334E+06     18.0498E+06     48.4969E+06    -9.59842E+06    -163.101E-03     325.962E-03    -162.862E-03     68.8776E-03    -163.491E-03     326.169E-03    -162.602E-03     67.1475E-03
            1048     12.2391E-03     129.100E-03    -22.1571E+06     61.8582E+06     61.6781E+06    -7.04299E+06    -163.026E-03     325.833E-03    -162.807E-03     69.8473E-03    -163.487E-03     326.256E-03    -162.556E-03     67.8583E-03
            1049     13.0044E-03     129.183E-03    -14.6546E+06     102.273E+06     77.5856E+06    -4.96521E+06    -163.031E-03     325.809E-03    -162.778E-03     70.0472E-03    -163.566E-03     326.429E-03    -162.517E-03     67.7844E-03
            1050     13.7708E-03     129.271E-03    -8.84986E+06     107.377E+06     92.8887E+06    -3.38518E+06    -163.193E-03     326.007E-03    -162.814E-03     68.1273E-03    -163.754E-03     326.648E-03    -162.492E-03     65.5560E-03
            1051     14.5356E-03     129.349E-03    -4.39877E+06     112.675E+06     106.518E+06    -1.55535E+06    -163.553E-03     326.420E-03    -162.867E-03     64.4318E-03    -164.102E-03     327.044E-03    -162.491E-03     61.9525E-03
            1052     761.095E-06     129.640E-03    -132.908E+06    -218.128E+06    -129.804E+06    -989.383E+03    -160.745E-03     323.506E-03    -162.762E-03     5.99823E-03    -160.883E-03     322.845E-03    -162.902E-03     6.06797E-03
            1053     1.53124E-03     129.650E-03    -128.659E+06    -207.460E+06    -118.962E+06    -2.17684E+06    -160.545E-03     322.075E-03    -161.530E-03     11.4288E-03    -160.710E-03     321.398E-03    -161.638E-03     11.5270E-03
            1054     2.29845E-03     129.666E-03    -122.619E+06    -192.403E+06    -103.371E+06    -3.35957E+06    -162.029E-03     323.463E-03    -161.435E-03     17.1220E-03    -162.206E-03     322.824E-03    -161.495E-03     17.2364E-03
            1055     3.06342E-03     129.689E-03    -114.828E+06    -174.030E+06    -84.6673E+06    -4.59757E+06    -162.700E-03     324.415E-03    -161.715E-03     22.8449E-03    -162.896E-03     323.831E-03    -161.720E-03     22.9555E-03
            1056     3.82660E-03     129.716E-03    -106.373E+06    -154.919E+06    -65.5868E+06    -5.76582E+06    -162.761E-03     324.732E-03    -161.971E-03     28.8727E-03    -162.973E-03     324.207E-03    -161.920E-03     28.9221E-03
            1057     4.59203E-03     129.754E-03    -97.6558E+06    -136.721E+06    -47.9979E+06    -6.99979E+06    -162.539E-03     324.662E-03    -162.123E-03     34.3378E-03    -162.761E-03     324.191E-03    -162.023E-03     34.3247E-03
            1058     5.35759E-03     129.795E-03    -88.9375E+06    -119.459E+06    -32.2714E+06    -8.23559E+06    -162.720E-03     324.935E-03    -162.215E-03     39.2182E-03    -162.950E-03     324.519E-03    -162.074E-03     39.1336E-03
            1059     6.12219E-03     129.843E-03    -80.4899E+06    -102.672E+06    -18.1944E+06    -9.22328E+06    -163.231E-03     325.545E-03    -162.314E-03     44.0898E-03    -163.470E-03     325.186E-03    -162.140E-03     43.8982E-03
            1060     6.88714E-03     129.897E-03    -72.3055E+06    -86.6122E+06    -5.70111E+06    -10.2163E+06    -163.716E-03     326.149E-03    -162.433E-03     48.7439E-03    -163.963E-03     325.848E-03    -162.231E-03     48.4218E-03
            1061     7.65118E-03     129.956E-03    -64.5970E+06    -71.3237E+06     5.26640E+06    -11.0711E+06    -163.643E-03     326.178E-03    -162.535E-03     53.3180E-03    -163.901E-03     325.938E-03    -162.311E-03     52.8292E-03
            1062     8.41624E-03     130.021E-03    -57.2425E+06    -56.1198E+06     15.0630E+06    -11.8802E+06    -163.365E-03     325.953E-03    -162.588E-03     57.6340E-03    -163.638E-03     325.780E-03    -162.348E-03     56.9349E-03
            1063     9.18195E-03     130.093E-03    -50.4398E+06    -40.4531E+06     23.9667E+06    -12.4877E+06    -163.466E-03     326.077E-03    -162.612E-03     60.8906E-03    -163.757E-03     325.977E-03    -162.360E-03     59.9735E-03
            1064     9.94604E-03     130.165E-03    -44.0450E+06    -24.1885E+06     32.2540E+06    -12.8566E+06    -163.633E-03     326.267E-03    -162.633E-03     63.7263E-03    -163.949E-03     326.246E-03    -162.373E-03     62.5829E-03
            1065     10.7112E-03     130.244E-03    -37.9475E+06    -3.50154E+06     40.7120E+06    -12.7163E+06    -163.786E-03     326.438E-03    -162.652E-03     66.6988E-03    -164.137E-03     326.524E-03    -162.389E-03     65.2894E-03
            1066     11.4756E-03     130.326E-03    -32.0581E+06     16.7995E+06     48.3015E+06    -12.3620E+06    -163.424E-03     326.078E-03    -162.654E-03     69.6603E-03    -163.820E-03     326.280E-03    -162.390E-03     67.9259E-03
            1067     12.2421E-03     130.410E-03    -25.8933E+06     57.7673E+06     60.0572E+06    -10.7177E+06    -163.178E-03     325.802E-03    -162.624E-03     71.4764E-03    -163.654E-03     326.218E-03    -162.370E-03     69.4210E-03
            1068     13.0074E-03     130.497E-03    -19.4805E+06     98.0256E+06     73.5739E+06    -7.35749E+06    -163.597E-03     326.211E-03    -162.614E-03     71.3358E-03    -164.147E-03     326.826E-03    -162.360E-03     69.0292E-03
            1069     13.7713E-03     130.582E-03    -13.1351E+06     103.717E+06     86.9631E+06    -3.92487E+06    -163.726E-03     326.402E-03    -162.676E-03     69.0291E-03    -164.298E-03     327.043E-03    -162.372E-03     66.4342E-03
            1070     14.5368E-03     130.664E-03    -6.94395E+06     109.500E+06     103.519E+06    -1.26652E+06    -164.084E-03     326.857E-03    -162.773E-03     65.6160E-03    -164.642E-03     327.479E-03    -162.404E-03     63.1187E-03
            1071     769.552E-06     130.946E-03    -130.957E+06    -213.900E+06    -128.176E+06    -1.63174E+06    -159.767E-03     320.401E-03    -160.634E-03     4.75964E-03    -159.895E-03     319.758E-03    -160.775E-03     4.85661E-03
            1072     1.53368E-03     130.956E-03    -126.813E+06    -203.284E+06    -117.412E+06    -2.77247E+06    -160.915E-03     321.270E-03    -160.356E-03     13.2000E-03    -161.078E-03     320.609E-03    -160.464E-03     13.2283E-03
            1073     2.29839E-03     130.975E-03    -120.721E+06    -187.780E+06    -101.221E+06    -4.15982E+06    -161.255E-03     321.902E-03    -160.646E-03     17.6040E-03    -161.432E-03     321.279E-03    -160.705E-03     17.6938E-03
            1074     3.06440E-03     130.997E-03    -113.042E+06    -169.808E+06    -82.6213E+06    -5.58637E+06    -161.530E-03     322.416E-03    -160.886E-03     23.2278E-03    -161.726E-03     321.847E-03    -160.889E-03     23.3291E-03
            1075     3.83099E-03     131.029E-03    -104.551E+06    -150.924E+06    -63.6546E+06    -6.67750E+06    -161.983E-03     323.087E-03    -161.105E-03     29.6510E-03    -162.193E-03     322.576E-03    -161.053E-03     29.7036E-03
            1076     4.59569E-03     131.063E-03    -95.7522E+06    -132.505E+06    -45.7821E+06    -7.80684E+06    -162.251E-03     323.559E-03    -161.308E-03     35.1084E-03    -162.471E-03     323.101E-03    -161.206E-03     35.1190E-03
            1077     5.36129E-03     131.106E-03    -86.9259E+06    -115.381E+06    -29.9704E+06    -9.11618E+06    -162.538E-03     324.019E-03    -161.481E-03     40.2467E-03    -162.766E-03     323.615E-03    -161.337E-03     40.1843E-03
            1078     6.12635E-03     131.155E-03    -78.2243E+06    -98.7994E+06    -15.9401E+06    -10.2010E+06    -163.038E-03     324.682E-03    -161.644E-03     45.3478E-03    -163.272E-03     324.334E-03    -161.467E-03     45.1709E-03
            1079     6.89072E-03     131.209E-03    -70.0661E+06    -83.1219E+06    -3.48716E+06    -11.0244E+06    -163.449E-03     325.257E-03    -161.808E-03     50.2245E-03    -163.692E-03     324.967E-03    -161.603E-03     49.9146E-03
            1080     7.65596E-03     131.269E-03    -62.3814E+06    -67.9470E+06     7.62372E+06    -11.7449E+06    -163.931E-03     325.900E-03    -161.969E-03     54.2289E-03    -164.184E-03     325.668E-03    -161.742E-03     53.7718E-03
            1081     8.42015E-03     131.334E-03    -55.3160E+06    -53.1312E+06     17.4109E+06    -12.3425E+06    -163.888E-03     325.997E-03    -162.109E-03     57.9716E-03    -164.154E-03     325.828E-03    -161.865E-03     57.3359E-03
            1082     9.18453E-03     131.404E-03    -48.7114E+06    -37.8449E+06     26.2165E+06    -12.7799E+06    -163.492E-03     325.688E-03    -162.195E-03     61.5952E-03    -163.778E-03     325.590E-03    -161.939E-03     60.7367E-03
            1083     9.95053E-03     131.478E-03    -42.6093E+06    -22.1052E+06     34.1312E+06    -12.9544E+06    -163.813E-03     326.066E-03    -162.252E-03     65.0505E-03    -164.125E-03     326.049E-03    -161.988E-03     63.9382E-03
            1084     10.7146E-03     131.557E-03    -36.8764E+06    -2.20205E+06     41.9576E+06    -13.0279E+06    -164.102E-03     326.413E-03    -162.311E-03     67.9566E-03    -164.451E-03     326.502E-03    -162.045E-03     66.5682E-03
            1085     11.4801E-03     131.638E-03    -31.3594E+06     17.3954E+06     49.1328E+06    -12.5489E+06    -163.967E-03     326.328E-03    -162.361E-03     70.0544E-03    -164.356E-03     326.525E-03    -162.095E-03     68.3709E-03
            1086     12.2445E-03     131.722E-03    -26.3478E+06     55.0947E+06     59.0587E+06    -11.2733E+06    -163.851E-03     326.233E-03    -162.383E-03     72.1580E-03    -164.320E-03     326.634E-03    -162.129E-03     70.1429E-03
            1087     13.0095E-03     131.811E-03    -20.7534E+06     92.9868E+06     70.4988E+06    -9.05713E+06    -163.954E-03     326.362E-03    -162.408E-03     72.2774E-03    -164.495E-03     326.956E-03    -162.161E-03     69.9870E-03
            1088     13.7747E-03     131.896E-03    -14.0621E+06     98.8295E+06     81.7753E+06    -6.31255E+06    -164.484E-03     326.981E-03    -162.498E-03     70.1151E-03    -165.045E-03     327.607E-03    -162.212E-03     67.5061E-03
            1089     14.5383E-03     131.977E-03    -6.51296E+06     105.045E+06     99.6610E+06    -3.29035E+06    -165.043E-03     327.692E-03    -162.649E-03     66.8811E-03    -165.590E-03     328.299E-03    -162.293E-03     64.3465E-03
            1090     767.202E-06     132.250E-03    -128.639E+06    -208.727E+06    -126.630E+06    -1.78969E+06    -159.864E-03     317.904E-03    -158.040E-03     5.07825E-03    -159.983E-03     317.281E-03    -158.184E-03     5.16242E-03
            1091     1.53416E-03     132.264E-03    -124.994E+06    -198.066E+06    -115.115E+06    -3.48967E+06    -160.474E-03     319.742E-03    -159.268E-03     13.4781E-03    -160.641E-03     319.099E-03    -159.375E-03     13.4956E-03
            1092     2.30136E-03     132.281E-03    -118.659E+06    -182.573E+06    -98.9422E+06    -5.02469E+06    -160.344E-03     320.064E-03    -159.719E-03     19.1931E-03    -160.523E-03     319.461E-03    -159.777E-03     19.2458E-03
            1093     3.06788E-03     132.305E-03    -111.142E+06    -164.820E+06    -80.3918E+06    -6.44798E+06    -160.482E-03     320.425E-03    -159.943E-03     25.0237E-03    -160.679E-03     319.876E-03    -159.945E-03     25.0890E-03
            1094     3.83406E-03     132.335E-03    -102.471E+06    -146.498E+06    -61.5330E+06    -7.93358E+06    -161.081E-03     321.230E-03    -160.149E-03     31.0333E-03    -161.290E-03     320.734E-03    -160.096E-03     31.0745E-03
            1095     4.60056E-03     132.373E-03    -93.1958E+06    -128.232E+06    -43.5490E+06    -9.07155E+06    -161.893E-03     322.291E-03    -160.398E-03     36.0818E-03    -162.108E-03     321.847E-03    -160.295E-03     36.1013E-03
            1096     5.36538E-03     132.414E-03    -84.1075E+06    -110.995E+06    -27.3224E+06    -10.1900E+06    -162.355E-03     323.015E-03    -160.660E-03     41.4646E-03    -162.578E-03     322.624E-03    -160.513E-03     41.4089E-03
            1097     6.13100E-03     132.466E-03    -75.4746E+06    -94.9325E+06    -13.2122E+06    -11.1741E+06    -162.591E-03     323.476E-03    -160.885E-03     46.6345E-03    -162.820E-03     323.139E-03    -160.704E-03     46.4696E-03
            1098     6.89672E-03     132.520E-03    -67.2520E+06    -79.6620E+06    -741.930E+03    -11.7875E+06    -163.186E-03     324.275E-03    -161.089E-03     51.6196E-03    -163.423E-03     323.993E-03    -160.879E-03     51.3230E-03
            1099     7.66095E-03     132.582E-03    -59.6265E+06    -64.9574E+06     10.1921E+06    -12.2247E+06    -163.920E-03     325.222E-03    -161.302E-03     56.0408E-03    -164.166E-03     324.997E-03    -161.071E-03     55.5949E-03
            1100     8.42476E-03     132.647E-03    -52.4655E+06    -50.4023E+06     19.8631E+06    -12.6034E+06    -164.080E-03     325.586E-03    -161.505E-03     59.3455E-03    -164.338E-03     325.420E-03    -161.257E-03     58.7430E-03
            1101     9.19011E-03     132.715E-03    -45.8315E+06    -35.5068E+06     28.4391E+06    -12.8042E+06    -164.011E-03     325.676E-03    -161.665E-03     63.3218E-03    -164.288E-03     325.582E-03    -161.405E-03     62.4922E-03
            1102     9.95444E-03     132.791E-03    -39.5546E+06    -20.2083E+06     36.2493E+06    -12.8667E+06    -164.130E-03     325.920E-03    -161.790E-03     66.5342E-03    -164.430E-03     325.903E-03    -161.522E-03     65.4651E-03
            1103     10.7198E-03     132.870E-03    -33.7293E+06    -637.650E+03     44.1111E+06    -12.7213E+06    -164.294E-03     326.190E-03    -161.896E-03     68.7240E-03    -164.627E-03     326.274E-03    -161.626E-03     67.4130E-03
            1104     11.4835E-03     132.951E-03    -28.1419E+06     17.6543E+06     51.2610E+06    -12.3549E+06    -164.626E-03     326.625E-03    -161.999E-03     71.1518E-03    -164.997E-03     326.810E-03    -161.728E-03     69.5464E-03
            1105     12.2480E-03     133.036E-03    -21.9478E+06     54.1562E+06     61.4394E+06    -11.4961E+06    -164.733E-03     326.821E-03    -162.088E-03     73.3905E-03    -165.176E-03     327.200E-03    -161.828E-03     71.4516E-03
            1106     13.0126E-03     133.123E-03    -15.9324E+06     90.2031E+06     72.7678E+06    -9.96129E+06    -164.882E-03     327.063E-03    -162.181E-03     73.5020E-03    -165.393E-03     327.627E-03    -161.925E-03     71.2708E-03
            1107     13.7769E-03     133.210E-03    -10.2808E+06     94.1740E+06     81.5248E+06    -7.61817E+06    -165.528E-03     327.853E-03    -162.325E-03     70.7239E-03    -166.057E-03     328.444E-03    -162.039E-03     68.1611E-03
            1108     14.5401E-03     133.294E-03    -5.11199E+06     99.1701E+06     96.5739E+06    -4.18764E+06    -166.177E-03     328.707E-03    -162.531E-03     67.0033E-03    -166.698E-03     329.283E-03    -162.184E-03     64.4917E-03
            1109     769.105E-06     133.554E-03    -126.990E+06    -202.663E+06    -124.234E+06    -2.17838E+06    -158.969E-03     316.643E-03    -157.673E-03     7.81911E-03    -159.102E-03     316.043E-03    -157.817E-03     7.82218E-03
            1110     1.53661E-03     133.566E-03    -122.621E+06    -191.854E+06    -112.742E+06    -4.07156E+06    -158.759E-03     317.180E-03    -158.421E-03     13.9019E-03    -158.927E-03     316.562E-03    -158.529E-03     13.9185E-03
            1111     2.30387E-03     133.585E-03    -116.421E+06    -176.776E+06    -96.5956E+06    -5.95692E+06    -159.039E-03     317.660E-03    -158.621E-03     19.5278E-03    -159.220E-03     317.081E-03    -158.679E-03     19.5875E-03
            1112     3.07147E-03     133.608E-03    -108.380E+06    -159.048E+06    -77.7121E+06    -7.66772E+06    -159.752E-03     318.605E-03    -158.854E-03     25.7664E-03    -159.948E-03     318.078E-03    -158.855E-03     25.8166E-03
            1113     3.83848E-03     133.641E-03    -99.5214E+06    -140.940E+06    -58.6108E+06    -9.30615E+06    -160.400E-03     319.535E-03    -159.135E-03     32.1000E-03    -160.607E-03     319.059E-03    -159.080E-03     32.1203E-03
            1114     4.60440E-03     133.679E-03    -90.3863E+06    -123.505E+06    -40.9047E+06    -10.6794E+06    -161.076E-03     320.501E-03    -159.425E-03     37.7273E-03    -161.289E-03     320.074E-03    -159.320E-03     37.7143E-03
            1115     5.37081E-03     133.724E-03    -81.3263E+06    -106.737E+06    -24.8881E+06    -11.4493E+06    -161.861E-03     321.585E-03    -159.725E-03     42.9774E-03    -162.079E-03     321.208E-03    -159.576E-03     42.9158E-03
            1116     6.13612E-03     133.773E-03    -72.5903E+06    -91.0576E+06    -10.6671E+06    -12.1215E+06    -162.484E-03     322.507E-03    -160.023E-03     48.0290E-03    -162.706E-03     322.180E-03    -159.839E-03     47.8894E-03
            1117     6.90144E-03     133.829E-03    -64.3843E+06    -76.5196E+06     1.53103E+06    -12.7417E+06    -162.979E-03     323.280E-03    -160.301E-03     52.9274E-03    -163.207E-03     323.003E-03    -160.089E-03     52.6654E-03
            1118     7.66669E-03     133.893E-03    -56.4721E+06    -62.3523E+06     12.3476E+06    -13.0726E+06    -163.238E-03     323.782E-03    -160.544E-03     57.2873E-03    -163.472E-03     323.559E-03    -160.310E-03     56.8874E-03
            1119     8.43242E-03     133.958E-03    -49.0902E+06    -48.0762E+06     22.0774E+06    -13.1136E+06    -163.798E-03     324.565E-03    -160.766E-03     60.8554E-03    -164.043E-03     324.400E-03    -160.515E-03     60.3050E-03
            1120     9.19604E-03     134.028E-03    -42.3899E+06    -33.6964E+06     30.7534E+06    -12.9709E+06    -164.557E-03     325.549E-03    -160.992E-03     65.0428E-03    -164.819E-03     325.452E-03    -160.728E-03     64.2796E-03
            1121     9.96022E-03     134.103E-03    -36.2996E+06    -18.4869E+06     38.6930E+06    -12.8043E+06    -164.770E-03     325.979E-03    -161.209E-03     68.4267E-03    -165.055E-03     325.958E-03    -160.936E-03     67.4361E-03
            1122     10.7242E-03     134.181E-03    -30.4345E+06     622.761E+03     46.6990E+06    -12.6862E+06    -164.747E-03     326.138E-03    -161.391E-03     70.5765E-03    -165.064E-03     326.213E-03    -161.114E-03     69.3534E-03
            1123     11.4894E-03     134.264E-03    -24.7413E+06     18.7380E+06     54.2148E+06    -12.5606E+06    -165.063E-03     326.616E-03    -161.553E-03     73.1411E-03    -165.418E-03     326.792E-03    -161.273E-03     71.6122E-03
            1124     12.2532E-03     134.349E-03    -19.6490E+06     54.2227E+06     63.9575E+06    -12.1976E+06    -165.780E-03     327.490E-03    -161.710E-03     75.0547E-03    -166.209E-03     327.857E-03    -161.441E-03     73.1837E-03
            1125     13.0166E-03     134.437E-03    -14.5657E+06     87.0602E+06     74.0823E+06    -10.2386E+06    -166.634E-03     328.536E-03    -161.902E-03     75.1428E-03    -167.133E-03     329.078E-03    -161.636E-03     72.9541E-03
            1126     13.7786E-03     134.527E-03    -10.0795E+06     89.9216E+06     81.8047E+06    -7.07488E+06    -167.089E-03     329.236E-03    -162.147E-03     72.0230E-03    -167.612E-03     329.805E-03    -161.854E-03     69.4790E-03
            1127     14.5413E-03     134.609E-03    -5.39018E+06     93.2287E+06     94.3415E+06    -3.76888E+06    -167.575E-03     330.002E-03    -162.427E-03     68.1608E-03    -168.089E-03     330.554E-03    -162.083E-03     65.6426E-03
            1128     767.742E-06     134.852E-03    -124.121E+06    -195.127E+06    -121.636E+06    -2.92459E+06    -157.833E-03     314.821E-03    -156.989E-03     9.17368E-03    -157.973E-03     314.251E-03    -157.134E-03     9.12930E-03
            1129     1.53692E-03     134.867E-03    -119.950E+06    -184.673E+06    -110.133E+06    -4.85858E+06    -157.412E-03     314.836E-03    -157.424E-03     14.4762E-03    -157.584E-03     314.249E-03    -157.533E-03     14.4933E-03
            1130     2.30650E-03     134.884E-03    -113.474E+06    -169.575E+06    -93.7259E+06    -7.03452E+06    -158.063E-03     315.613E-03    -157.550E-03     20.6304E-03    -158.245E-03     315.063E-03    -157.608E-03     20.6642E-03
            1131     3.07453E-03     134.912E-03    -105.668E+06    -152.534E+06    -75.1903E+06    -9.07252E+06    -158.853E-03     316.665E-03    -157.812E-03     26.6176E-03    -159.048E-03     316.162E-03    -157.813E-03     26.6524E-03
            1132     3.84176E-03     134.944E-03    -96.9369E+06    -135.029E+06    -56.3548E+06    -10.6503E+06    -159.272E-03     317.370E-03    -158.097E-03     32.9900E-03    -159.478E-03     316.915E-03    -158.043E-03     33.0067E-03
            1133     4.60990E-03     134.984E-03    -88.0048E+06    -118.201E+06    -38.7456E+06    -11.9628E+06    -160.019E-03     318.391E-03    -158.373E-03     39.5341E-03    -160.231E-03     317.984E-03    -158.268E-03     39.5033E-03
            1134     5.37631E-03     135.030E-03    -79.0112E+06    -102.398E+06    -23.0027E+06    -12.9818E+06    -161.115E-03     319.800E-03    -158.685E-03     44.7965E-03    -161.330E-03     319.437E-03    -158.537E-03     44.7336E-03
            1135     6.14259E-03     135.081E-03    -70.1064E+06    -87.3562E+06    -8.97010E+06    -13.5569E+06    -162.111E-03     321.145E-03    -159.034E-03     50.1842E-03    -162.327E-03     320.828E-03    -158.851E-03     50.0531E-03
            1136     6.90740E-03     135.139E-03    -61.6399E+06    -73.2895E+06     3.34336E+06    -13.9629E+06    -162.621E-03     321.995E-03    -159.373E-03     55.2895E-03    -162.841E-03     321.725E-03    -159.161E-03     55.0469E-03
            1137     7.67316E-03     135.200E-03    -53.8409E+06    -59.8609E+06     14.0882E+06    -14.1392E+06    -162.924E-03     322.593E-03    -159.669E-03     59.2706E-03    -163.148E-03     322.372E-03    -159.434E-03     58.9163E-03
            1138     8.43843E-03     135.268E-03    -46.6320E+06    -46.3570E+06     23.7578E+06    -13.8834E+06    -163.642E-03     323.584E-03    -159.942E-03     62.8193E-03    -163.874E-03     323.417E-03    -159.689E-03     62.3403E-03
            1139     9.20370E-03     135.339E-03    -40.0274E+06    -32.4889E+06     32.5516E+06    -13.2875E+06    -164.419E-03     324.638E-03    -160.219E-03     66.5845E-03    -164.666E-03     324.533E-03    -159.951E-03     65.9388E-03
            1140     9.96787E-03     135.415E-03    -34.0740E+06    -17.2732E+06     40.6225E+06    -12.5980E+06    -165.025E-03     325.518E-03    -160.493E-03     70.2215E-03    -165.295E-03     325.488E-03    -160.216E-03     69.3612E-03
            1141     10.7320E-03     135.495E-03    -29.0476E+06     1.76695E+06     48.3858E+06    -11.9411E+06    -165.716E-03     326.479E-03    -160.762E-03     72.4411E-03    -166.021E-03     326.546E-03    -160.481E-03     71.3541E-03
            1142     11.4952E-03     135.576E-03    -24.6926E+06     20.7755E+06     55.6876E+06    -11.9424E+06    -166.276E-03     327.309E-03    -161.033E-03     73.9926E-03    -166.623E-03     327.481E-03    -160.749E-03     72.6228E-03
            1143     12.2591E-03     135.664E-03    -20.0724E+06     54.5378E+06     64.9044E+06    -11.6433E+06    -166.844E-03     328.136E-03    -161.291E-03     75.9187E-03    -167.267E-03     328.492E-03    -161.017E-03     74.1794E-03
            1144     13.0207E-03     135.754E-03    -15.5174E+06     82.6817E+06     73.3419E+06    -9.48281E+06    -167.750E-03     329.315E-03    -161.566E-03     76.9877E-03    -168.243E-03     329.835E-03    -161.296E-03     74.8640E-03
            1145     13.7827E-03     135.844E-03    -10.6186E+06     85.7447E+06     80.5779E+06    -6.53130E+06    -168.803E-03     330.702E-03    -161.899E-03     74.3415E-03    -169.323E-03     331.255E-03    -161.605E-03     71.8201E-03
            1146     14.5431E-03     135.928E-03    -5.43601E+06     88.0778E+06     91.5757E+06    -3.86353E+06    -169.848E-03     332.131E-03    -162.283E-03     70.2592E-03    -170.353E-03     332.664E-03    -161.945E-03     67.7359E-03
            1147     770.569E-06     136.152E-03    -121.476E+06    -186.223E+06    -118.314E+06    -3.00046E+06    -155.958E-03     312.465E-03    -156.506E-03     9.16526E-03    -156.096E-03     311.930E-03    -156.652E-03     9.13135E-03
            1148     1.54021E-03     136.161E-03    -116.998E+06    -176.137E+06    -107.315E+06    -5.57335E+06    -156.588E-03     312.899E-03    -156.311E-03     14.5343E-03    -156.759E-03     312.344E-03    -156.423E-03     14.5671E-03
            1149     2.30902E-03     136.183E-03    -110.930E+06    -161.788E+06    -91.4089E+06    -7.87085E+06    -156.984E-03     313.483E-03    -156.499E-03     21.6968E-03    -157.166E-03     312.964E-03    -156.561E-03     21.7208E-03
            1150     3.07727E-03     136.211E-03    -103.334E+06    -145.315E+06    -73.0253E+06    -10.0588E+06    -157.429E-03     314.139E-03    -156.710E-03     28.0268E-03    -157.625E-03     313.665E-03    -156.715E-03     28.0594E-03
            1151     3.84668E-03     136.243E-03    -94.9994E+06    -128.534E+06    -54.6284E+06    -11.8699E+06    -158.078E-03     315.021E-03    -156.943E-03     34.8683E-03    -158.284E-03     314.592E-03    -156.892E-03     34.8764E-03
            1152     4.61456E-03     136.285E-03    -86.2585E+06    -112.425E+06    -37.3555E+06    -13.2468E+06    -159.081E-03     316.305E-03    -157.223E-03     41.5289E-03    -159.293E-03     315.919E-03    -157.122E-03     41.4980E-03
            1153     5.38255E-03     136.333E-03    -77.4982E+06    -97.5384E+06    -21.8150E+06    -14.3868E+06    -160.134E-03     317.689E-03    -157.555E-03     46.9011E-03    -160.348E-03     317.345E-03    -157.410E-03     46.8451E-03
            1154     6.14894E-03     136.386E-03    -68.9638E+06    -83.5922E+06    -8.16953E+06    -15.1120E+06    -160.999E-03     318.906E-03    -157.907E-03     52.3213E-03    -161.214E-03     318.603E-03    -157.727E-03     52.2053E-03
            1155     6.91616E-03     136.445E-03    -60.7748E+06    -70.2746E+06     4.01833E+06    -15.2208E+06    -161.864E-03     320.123E-03    -158.259E-03     57.5311E-03    -162.080E-03     319.862E-03    -158.048E-03     57.3374E-03
            1156     7.68159E-03     136.508E-03    -53.3032E+06    -57.5516E+06     14.7018E+06    -14.9822E+06    -162.860E-03     321.475E-03    -158.615E-03     61.9796E-03    -163.080E-03     321.259E-03    -158.381E-03     61.6954E-03
            1157     8.44658E-03     136.576E-03    -46.5210E+06    -45.0096E+06     24.0884E+06    -14.4887E+06    -163.614E-03     322.584E-03    -158.970E-03     66.0201E-03    -163.843E-03     322.418E-03    -158.717E-03     65.6195E-03
            1158     9.21108E-03     136.649E-03    -40.2151E+06    -31.9425E+06     32.5870E+06    -13.5280E+06    -164.418E-03     323.734E-03    -159.316E-03     69.5240E-03    -164.659E-03     323.624E-03    -159.048E-03     68.9852E-03
            1159     9.97596E-03     136.726E-03    -34.5749E+06    -17.2344E+06     40.4014E+06    -12.1794E+06    -165.368E-03     325.030E-03    -159.663E-03     72.3610E-03    -165.629E-03     324.991E-03    -159.386E-03     71.6529E-03
            1160     10.7397E-03     136.808E-03    -29.4899E+06     1.61946E+06     48.1499E+06    -10.6318E+06    -166.578E-03     326.602E-03    -160.025E-03     75.0319E-03    -166.874E-03     326.660E-03    -159.743E-03     74.0945E-03
            1161     11.5016E-03     136.893E-03    -24.8715E+06     23.7700E+06     56.3050E+06    -10.2401E+06    -167.906E-03     328.322E-03    -160.416E-03     76.9379E-03    -168.251E-03     328.500E-03    -160.133E-03     75.7009E-03
            1162     12.2627E-03     136.978E-03    -20.3042E+06     54.9077E+06     64.6844E+06    -10.5960E+06    -168.465E-03     329.270E-03    -160.805E-03     78.3869E-03    -168.881E-03     329.621E-03    -160.531E-03     76.7653E-03
            1163     13.0263E-03     137.071E-03    -15.0170E+06     78.5139E+06     72.2298E+06    -9.15114E+06    -168.939E-03     330.122E-03    -161.184E-03     78.7598E-03    -169.413E-03     330.613E-03    -160.915E-03     76.7488E-03
            1164     13.7872E-03     137.163E-03    -9.70982E+06     82.7627E+06     80.1943E+06    -7.01982E+06    -170.509E-03     332.121E-03    -161.612E-03     76.2044E-03    -171.014E-03     332.653E-03    -161.317E-03     73.7515E-03
            1165     14.5464E-03     137.252E-03    -4.46884E+06     82.4984E+06     89.2391E+06    -4.13621E+06    -172.518E-03     334.631E-03    -162.113E-03     71.7335E-03    -173.003E-03     335.135E-03    -161.780E-03     69.2552E-03
            1166     770.414E-06     137.445E-03    -118.018E+06    -176.724E+06    -115.893E+06    -3.27583E+06    -154.863E-03     310.653E-03    -155.791E-03     9.35745E-03    -154.997E-03     310.161E-03    -155.943E-03     9.33463E-03
            1167     1.54009E-03     137.457E-03    -114.843E+06    -167.221E+06    -105.166E+06    -5.72177E+06    -155.322E-03     310.651E-03    -155.329E-03     14.6451E-03    -155.497E-03     310.133E-03    -155.446E-03     14.6912E-03
            1168     2.31058E-03     137.478E-03    -109.032E+06    -153.408E+06    -89.6068E+06    -8.24924E+06    -155.429E-03     310.800E-03    -155.371E-03     22.7909E-03    -155.616E-03     310.316E-03    -155.438E-03     22.8036E-03
            1169     3.08223E-03     137.506E-03    -102.049E+06    -137.667E+06    -71.8105E+06    -10.4032E+06    -155.985E-03     311.462E-03    -155.477E-03     29.2214E-03    -156.186E-03     311.021E-03    -155.489E-03     29.2621E-03
            1170     3.85167E-03     137.540E-03     -94.182E+06    -121.520E+06    -53.7201E+06    -12.3191E+06    -157.149E-03     312.858E-03    -155.709E-03     36.0352E-03    -157.361E-03     312.460E-03    -155.665E-03     36.0729E-03
            1171     4.62081E-03     137.584E-03    -86.0220E+06    -106.202E+06    -36.8345E+06    -13.8730E+06    -158.001E-03     314.025E-03    -156.023E-03     42.5817E-03    -158.218E-03     313.665E-03    -155.929E-03     42.6042E-03
            1172     5.38876E-03     137.633E-03    -77.8975E+06    -92.2039E+06    -21.7126E+06    -15.0154E+06    -158.547E-03     314.880E-03    -156.333E-03     48.7306E-03    -158.767E-03     314.558E-03    -156.194E-03     48.7251E-03
            1173     6.15724E-03     137.688E-03    -70.2828E+06    -79.3988E+06    -8.60036E+06    -15.6832E+06    -159.520E-03     316.157E-03    -156.637E-03     54.8460E-03    -159.742E-03     315.872E-03    -156.463E-03     54.7864E-03
            1174     6.92410E-03     137.747E-03    -63.1104E+06    -67.4321E+06     2.87999E+06    -15.7496E+06    -160.888E-03     317.869E-03    -156.981E-03     60.5050E-03    -161.112E-03     317.621E-03    -156.777E-03     60.3901E-03
            1175     7.69087E-03     137.815E-03    -56.2415E+06    -55.6344E+06     13.1052E+06    -15.3815E+06    -162.269E-03     319.642E-03    -157.374E-03     65.1103E-03    -162.496E-03     319.434E-03    -157.146E-03     64.9354E-03
            1176     8.45671E-03     137.883E-03    -49.7889E+06    -43.9330E+06     22.1132E+06    -14.7078E+06    -163.400E-03     321.194E-03    -157.793E-03     68.9109E-03    -163.634E-03     321.030E-03    -157.547E-03     68.6468E-03
            1177     9.22223E-03     137.958E-03    -43.6569E+06    -31.7535E+06     30.2629E+06    -13.6825E+06    -164.559E-03     322.780E-03    -158.222E-03     73.1711E-03    -164.805E-03     322.672E-03    -157.961E-03     72.7470E-03
            1178     9.98538E-03     138.037E-03    -37.4983E+06    -17.5784E+06     38.1087E+06    -12.5776E+06    -166.075E-03     324.746E-03    -158.671E-03     76.4076E-03    -166.340E-03     324.704E-03    -158.400E-03     75.7999E-03
            1179     10.7486E-03     138.120E-03    -31.0405E+06     764.344E+03     46.2758E+06    -11.4763E+06    -167.531E-03     326.680E-03    -159.149E-03     78.8673E-03    -167.823E-03     326.731E-03    -158.874E-03     78.0328E-03
            1180     11.5118E-03     138.208E-03    -24.3138E+06     25.0131E+06     55.9454E+06    -10.4240E+06    -169.005E-03     328.660E-03    -159.655E-03     80.5399E-03    -169.341E-03     328.836E-03    -159.376E-03     79.4158E-03
            1181     12.2727E-03     138.298E-03    -18.5809E+06     55.9327E+06     64.8357E+06    -9.66273E+06    -170.575E-03     330.754E-03    -160.179E-03     81.4649E-03    -170.975E-03     331.098E-03    -159.909E-03     79.9771E-03
            1182     13.0307E-03     138.388E-03    -13.9141E+06     76.9933E+06     72.2498E+06    -9.34333E+06    -171.882E-03     332.617E-03    -160.735E-03     81.3978E-03    -172.341E-03     333.091E-03    -160.465E-03     79.4823E-03
            1183     13.7906E-03     138.485E-03    -8.72917E+06     78.6374E+06     79.3266E+06    -7.26704E+06    -173.256E-03     334.592E-03    -161.336E-03     78.2065E-03    -173.743E-03     335.098E-03    -161.041E-03     75.8213E-03
            1184     14.5482E-03     138.577E-03    -4.46366E+06     75.8817E+06     85.9016E+06    -3.51074E+06    -174.945E-03     336.918E-03    -161.973E-03     72.8746E-03    -175.410E-03     337.388E-03    -161.648E-03     70.4714E-03
            1185     770.163E-06     138.736E-03    -116.938E+06    -167.657E+06    -114.307E+06    -2.84919E+06    -153.712E-03     308.361E-03    -154.649E-03     6.85917E-03    -153.861E-03     307.922E-03    -154.808E-03     6.94620E-03
            1186     1.54314E-03     138.748E-03    -113.437E+06    -158.467E+06    -103.945E+06    -5.27519E+06    -153.608E-03     307.673E-03    -154.065E-03     16.8215E-03    -153.791E-03     307.197E-03    -154.191E-03     16.8233E-03
            1187     2.31501E-03     138.769E-03    -108.632E+06    -145.067E+06    -89.0907E+06    -7.54713E+06    -154.462E-03     308.509E-03    -154.047E-03     23.3583E-03    -154.659E-03     308.064E-03    -154.124E-03     23.4071E-03
            1188     3.08530E-03     138.798E-03    -102.545E+06    -129.828E+06    -71.9462E+06    -9.61974E+06    -154.990E-03     309.228E-03    -154.238E-03     30.0172E-03    -155.205E-03     308.827E-03    -154.261E-03     30.1088E-03
            1189     3.85583E-03     138.835E-03    -95.7362E+06    -114.549E+06    -54.4827E+06    -11.4784E+06    -155.651E-03     310.120E-03    -154.469E-03     37.5256E-03    -155.878E-03     309.759E-03    -154.436E-03     37.6166E-03
            1190     4.62523E-03     138.880E-03    -88.4510E+06    -100.216E+06    -38.0218E+06    -12.9655E+06    -156.153E-03     310.860E-03    -154.707E-03     44.7364E-03    -156.387E-03     310.534E-03    -154.623E-03     44.8186E-03
            1191     5.39596E-03     138.929E-03    -81.5487E+06    -86.9808E+06    -23.5251E+06    -13.8853E+06    -156.979E-03     311.928E-03    -154.949E-03     51.3174E-03    -157.217E-03     311.636E-03    -154.822E-03     51.3986E-03
            1192     6.16593E-03     138.985E-03    -75.0563E+06    -75.1368E+06    -11.0044E+06    -14.5475E+06    -158.236E-03     313.474E-03    -155.237E-03     57.1452E-03    -158.478E-03     313.214E-03    -155.075E-03     57.2176E-03
            1193     6.93487E-03     139.049E-03    -68.7012E+06    -64.1680E+06    -106.382E+03    -14.9080E+06    -159.608E-03     315.193E-03    -155.585E-03     62.7778E-03    -159.852E-03     314.966E-03    -155.393E-03     62.8130E-03
            1194     7.70214E-03     139.116E-03    -62.4564E+06    -53.2084E+06     9.46362E+06    -15.0107E+06    -161.130E-03     317.115E-03    -155.985E-03     68.0638E-03    -161.377E-03     316.924E-03    -155.770E-03     68.0332E-03
            1195     8.46804E-03     139.189E-03    -55.9762E+06    -42.3095E+06     18.1991E+06    -14.9868E+06    -162.898E-03     319.340E-03    -156.442E-03     72.3033E-03    -163.148E-03     319.189E-03    -156.209E-03     72.1844E-03
            1196     9.23282E-03     139.264E-03    -48.9725E+06    -30.5582E+06     26.5396E+06    -14.9500E+06    -164.809E-03     321.768E-03    -156.959E-03     76.6004E-03    -165.067E-03     321.666E-03    -156.711E-03     76.3240E-03
            1197     9.99829E-03     139.348E-03    -41.6278E+06    -16.6479E+06     34.7880E+06    -14.9813E+06    -166.951E-03     324.485E-03    -157.534E-03     79.6707E-03    -167.220E-03     324.446E-03    -157.276E-03     79.2081E-03
            1198     10.7601E-03     139.434E-03    -34.0694E+06     798.532E+03     43.4286E+06    -14.5858E+06    -169.018E-03     327.184E-03    -158.166E-03     81.2362E-03    -169.305E-03     327.228E-03    -157.901E-03     80.5640E-03
            1199     11.5202E-03     139.523E-03    -27.1177E+06     23.3035E+06     52.8293E+06    -13.0180E+06    -170.693E-03     329.526E-03    -158.833E-03     82.2624E-03    -171.019E-03     329.685E-03    -158.563E-03     81.3056E-03
            1200     12.2807E-03     139.616E-03    -20.3574E+06     55.6291E+06     63.2044E+06    -11.2591E+06    -172.508E-03     332.024E-03    -159.516E-03     82.5422E-03    -172.897E-03     332.356E-03    -159.252E-03     81.2170E-03
            1201     13.0398E-03     139.713E-03    -14.2709E+06     76.1246E+06     71.9209E+06    -9.52939E+06    -174.715E-03     334.963E-03    -160.248E-03     83.0978E-03    -175.164E-03     335.423E-03    -159.978E-03     81.3014E-03
            1202     13.7940E-03     139.809E-03    -9.97594E+06     73.0885E+06     77.2175E+06    -7.05317E+06    -176.543E-03     337.578E-03    -161.035E-03     81.1630E-03    -177.025E-03     338.060E-03    -160.740E-03     78.8117E-03
            1203     14.5489E-03     139.905E-03    -4.76655E+06     69.5418E+06     83.6735E+06    -3.47802E+06    -177.685E-03     339.521E-03    -161.835E-03     75.9286E-03    -178.146E-03     339.969E-03    -161.511E-03     73.5002E-03
            1204     772.434E-06     140.019E-03    -118.807E+06    -160.361E+06    -116.094E+06    -2.08315E+06    -151.934E-03     304.759E-03    -152.825E-03     6.15742E-03    -152.092E-03     304.361E-03    -153.000E-03     6.31161E-03
            1205     1.54608E-03     140.036E-03    -116.139E+06    -151.093E+06    -106.247E+06    -3.67784E+06    -152.915E-03     305.398E-03    -152.483E-03     17.1174E-03    -153.119E-03     304.964E-03    -152.627E-03     17.1935E-03
            1206     2.31683E-03     140.059E-03    -111.928E+06    -138.064E+06    -91.9591E+06    -5.57461E+06    -153.254E-03     305.960E-03    -152.706E-03     23.5998E-03    -153.472E-03     305.558E-03    -152.803E-03     23.7548E-03
            1207     3.08906E-03     140.087E-03    -106.423E+06    -123.092E+06    -74.8969E+06    -7.21523E+06    -153.482E-03     306.377E-03    -152.895E-03     31.6877E-03    -153.718E-03     306.016E-03    -152.937E-03     31.8711E-03
            1208     3.86095E-03     140.126E-03    -100.629E+06    -108.243E+06    -57.6832E+06    -8.57128E+06    -153.589E-03     306.625E-03    -153.036E-03     39.4954E-03    -153.841E-03     306.302E-03    -153.021E-03     39.7071E-03
            1209     4.63435E-03     140.169E-03    -94.6821E+06    -94.6242E+06    -41.6287E+06    -9.94187E+06    -154.180E-03     307.348E-03    -153.168E-03     46.6685E-03    -154.442E-03     307.059E-03    -153.102E-03     46.8938E-03
            1210     5.40539E-03     140.222E-03    -88.4427E+06    -82.2079E+06    -27.4125E+06    -11.1292E+06    -155.635E-03     309.017E-03    -153.382E-03     53.9239E-03    -155.903E-03     308.758E-03    -153.271E-03     54.1408E-03
            1211     6.17447E-03     140.280E-03    -82.2749E+06    -70.7096E+06    -15.1173E+06    -12.0582E+06    -157.102E-03     310.802E-03    -153.700E-03     59.9359E-03    -157.371E-03     310.572E-03    -153.554E-03     60.1621E-03
            1212     6.94374E-03     140.345E-03    -75.7995E+06    -59.8764E+06    -4.33921E+06    -13.3191E+06    -158.317E-03     312.390E-03    -154.073E-03     65.8146E-03    -158.586E-03     312.190E-03    -153.898E-03     66.0030E-03
            1213     7.71286E-03     140.415E-03    -68.7929E+06    -49.1035E+06     5.42656E+06    -14.7368E+06    -159.885E-03     314.369E-03    -154.484E-03     71.2138E-03    -160.152E-03     314.202E-03    -154.286E-03     71.3363E-03
            1214     8.48124E-03     140.491E-03    -61.3530E+06    -38.5286E+06     14.3881E+06    -16.1861E+06    -162.280E-03     317.257E-03    -154.978E-03     75.9156E-03    -162.544E-03     317.125E-03    -154.761E-03     75.9440E-03
            1215     9.24692E-03     140.571E-03    -53.5395E+06    -27.1701E+06     22.8402E+06    -17.7179E+06    -165.446E-03     321.043E-03    -155.597E-03     80.3127E-03    -165.711E-03     320.956E-03    -155.366E-03     80.1770E-03
            1216     10.0085E-03     140.657E-03    -45.5063E+06    -14.1257E+06     31.2800E+06    -18.6525E+06    -168.322E-03     324.659E-03    -156.338E-03     83.0458E-03    -168.593E-03     324.629E-03    -156.095E-03     82.7216E-03
            1217     10.7704E-03     140.748E-03    -37.8867E+06     1.15456E+06     39.6384E+06    -18.4458E+06    -170.679E-03     327.828E-03    -157.149E-03     84.1015E-03    -170.966E-03     327.870E-03    -156.898E-03     83.5610E-03
            1218     11.5304E-03     140.841E-03    -29.7473E+06     21.6436E+06     49.1741E+06    -17.3269E+06    -173.151E-03     331.158E-03    -158.007E-03     85.1910E-03    -173.470E-03     331.306E-03    -157.750E-03     84.3329E-03
            1219     12.2873E-03     140.938E-03    -21.6446E+06     53.0575E+06     60.1299E+06    -15.0657E+06    -175.215E-03     334.107E-03    -158.892E-03     84.7944E-03    -175.590E-03     334.420E-03    -158.637E-03     83.5611E-03
            1220     13.0434E-03     141.036E-03    -14.8361E+06     71.1046E+06     69.2173E+06    -11.3132E+06    -177.010E-03     336.811E-03    -159.800E-03     84.6565E-03    -177.438E-03     337.238E-03    -159.536E-03     82.9695E-03
            1221     13.8001E-03     141.140E-03    -8.75575E+06     67.4703E+06     75.5057E+06    -6.79498E+06    -178.953E-03     339.690E-03    -160.737E-03     82.2842E-03    -179.407E-03     340.133E-03    -160.444E-03     80.0561E-03
            1222     14.5529E-03     141.236E-03    -4.50801E+06     64.0823E+06     82.8557E+06    -3.42155E+06    -180.327E-03     342.012E-03    -161.684E-03     76.9706E-03    -180.771E-03     342.426E-03    -161.356E-03     74.6054E-03
            1223     776.215E-06     141.308E-03    -129.333E+06    -155.494E+06    -126.543E+06    -1.18747E+06    -151.356E-03     301.692E-03    -150.337E-03     8.36338E-03    -151.552E-03     301.343E-03    -150.556E-03     8.48424E-03
            1224     1.54561E-03     141.320E-03    -126.199E+06    -146.467E+06    -116.344E+06    -2.11023E+06    -151.698E-03     302.714E-03    -151.016E-03     16.7786E-03    -151.943E-03     302.330E-03    -151.202E-03     16.9609E-03
            1225     2.32101E-03     141.344E-03    -121.893E+06    -133.303E+06    -101.192E+06    -2.83797E+06    -151.206E-03     302.415E-03    -151.209E-03     25.3918E-03    -151.467E-03     302.065E-03    -151.345E-03     25.6329E-03
            1226     3.09430E-03     141.373E-03    -116.736E+06    -118.485E+06    -83.4193E+06    -3.82389E+06    -151.658E-03     302.938E-03    -151.280E-03     32.7262E-03    -151.937E-03     302.624E-03    -151.356E-03     33.0618E-03
            1227     3.86820E-03     141.411E-03    -110.288E+06    -103.371E+06    -64.9068E+06    -5.05728E+06    -151.948E-03     303.345E-03    -151.397E-03     39.9869E-03    -152.239E-03     303.066E-03    -151.412E-03     40.3944E-03
            1228     4.64036E-03     141.455E-03    -103.175E+06    -89.4293E+06    -47.6720E+06    -6.47274E+06    -152.661E-03     304.200E-03    -151.539E-03     47.5509E-03    -152.956E-03     303.950E-03    -151.498E-03     47.9899E-03
            1229     5.41331E-03     141.511E-03    -95.9860E+06    -77.0415E+06    -32.6345E+06    -8.29918E+06    -153.666E-03     305.401E-03    -151.735E-03     55.6740E-03    -153.962E-03     305.176E-03    -151.647E-03     56.0871E-03
            1230     6.18601E-03     141.571E-03    -88.0285E+06    -65.2178E+06    -19.5199E+06    -10.5659E+06    -155.248E-03     307.257E-03    -152.009E-03     62.9107E-03    -155.538E-03     307.059E-03    -151.884E-03     63.2957E-03
            1231     6.95667E-03     141.638E-03    -79.7714E+06    -53.9643E+06    -7.99046E+06    -12.9385E+06    -157.442E-03     309.842E-03    -152.400E-03     69.1812E-03    -157.723E-03     309.671E-03    -152.246E-03     69.5270E-03
            1232     7.72599E-03     141.711E-03    -71.4981E+06    -42.7727E+06     2.41619E+06    -15.7351E+06    -159.646E-03     312.554E-03    -152.907E-03     73.9291E-03    -159.918E-03     312.413E-03    -152.730E-03     74.2158E-03
            1233     8.49335E-03     141.790E-03    -63.1092E+06    -32.5134E+06     11.8227E+06    -18.4334E+06    -162.406E-03     315.930E-03    -153.524E-03     78.5403E-03    -162.670E-03     315.821E-03    -153.326E-03     78.7208E-03
            1234     9.25878E-03     141.876E-03    -55.0507E+06    -21.4727E+06     20.5384E+06    -20.7331E+06    -165.952E-03     320.228E-03    -154.275E-03     83.0203E-03    -166.217E-03     320.161E-03    -154.062E-03     83.0162E-03
            1235     10.0223E-03     141.969E-03    -47.0761E+06    -9.89980E+06     28.8449E+06    -22.7059E+06    -169.307E-03     324.466E-03    -155.159E-03     85.6088E-03    -169.576E-03     324.449E-03    -154.932E-03     85.3994E-03
            1236     10.7818E-03     142.062E-03    -38.5356E+06     1.88641E+06     37.0360E+06    -23.0399E+06    -172.331E-03     328.466E-03    -156.135E-03     87.2407E-03    -172.608E-03     328.505E-03    -155.896E-03     86.7821E-03
            1237     11.5397E-03     142.161E-03    -30.6993E+06     21.2739E+06     46.3404E+06    -22.0765E+06    -175.353E-03     332.524E-03    -157.171E-03     88.7313E-03    -175.663E-03     332.667E-03    -156.926E-03     87.9355E-03
            1238     12.2957E-03     142.263E-03    -23.6474E+06     47.9120E+06     55.9496E+06    -19.4885E+06    -178.089E-03     336.338E-03    -158.249E-03     88.3062E-03    -178.452E-03     336.625E-03    -158.005E-03     87.1361E-03
            1239     13.0498E-03     142.363E-03    -16.8474E+06     62.6079E+06     64.7211E+06    -13.9074E+06    -180.392E-03     339.758E-03    -159.366E-03     87.7760E-03    -180.804E-03     340.145E-03    -159.108E-03     86.1521E-03
            1240     13.8012E-03     142.470E-03    -11.0655E+06     61.1637E+06     71.7958E+06    -8.99170E+06    -181.665E-03     342.149E-03    -160.484E-03     83.9056E-03    -182.105E-03     342.559E-03    -160.198E-03     81.7467E-03
            1241     14.5531E-03     142.571E-03    -4.62759E+06     57.2954E+06     81.2155E+06    -4.63655E+06    -182.209E-03     343.775E-03    -161.566E-03     77.8609E-03    -182.634E-03     344.151E-03    -161.237E-03     75.5397E-03
            1242     773.087E-06     142.591E-03    -156.353E+06    -150.494E+06    -154.366E+06    -2.21760E+06    -150.107E-03     299.345E-03    -149.238E-03     9.56115E-03    -150.417E-03     299.104E-03    -149.565E-03     9.66157E-03
            1243     1.55069E-03     142.600E-03    -151.327E+06    -142.861E+06    -141.317E+06    -3.29511E+06    -149.210E-03     298.802E-03    -149.592E-03     15.9466E-03    -149.552E-03     298.511E-03    -149.872E-03     16.1993E-03
            1244     2.32482E-03     142.623E-03    -143.183E+06    -130.176E+06    -122.329E+06    -3.97168E+06    -149.443E-03     298.966E-03    -149.523E-03     25.3797E-03    -149.782E-03     298.690E-03    -149.738E-03     25.7044E-03
            1245     3.09971E-03     142.655E-03    -132.682E+06    -114.271E+06    -99.6630E+06    -5.09204E+06    -149.849E-03     299.429E-03    -149.580E-03     32.8178E-03    -150.187E-03     299.180E-03    -149.720E-03     33.2664E-03
            1246     3.87369E-03     142.691E-03    -121.167E+06    -99.6493E+06    -77.1360E+06    -6.25979E+06    -150.365E-03     300.069E-03    -149.704E-03     40.4926E-03    -150.694E-03     299.838E-03    -149.769E-03     41.0266E-03
            1247     4.64887E-03     142.739E-03    -110.044E+06    -85.5571E+06    -56.7440E+06    -6.94343E+06    -151.100E-03     300.967E-03    -149.867E-03     49.1757E-03    -151.416E-03     300.753E-03    -149.867E-03     49.7503E-03
            1248     5.42256E-03     142.793E-03    -99.3575E+06    -71.1063E+06    -38.7952E+06    -8.56330E+06    -152.176E-03     302.256E-03    -150.079E-03     56.6593E-03    -152.479E-03     302.066E-03    -150.026E-03     57.2560E-03
            1249     6.19646E-03     142.856E-03    -89.5571E+06    -58.1429E+06    -23.7728E+06    -11.4719E+06    -153.831E-03     304.205E-03    -150.374E-03     63.3896E-03    -154.121E-03     304.040E-03    -150.279E-03     63.9745E-03
            1250     6.96849E-03     142.928E-03    -79.7732E+06    -45.8014E+06    -10.7893E+06    -15.3788E+06    -156.429E-03     307.234E-03    -150.805E-03     69.6564E-03    -156.704E-03     307.094E-03    -150.676E-03     70.2007E-03
            1251     7.73728E-03     143.005E-03    -69.5587E+06    -34.8811E+06     862.385E+03    -19.0472E+06    -159.571E-03     310.977E-03    -151.406E-03     75.4122E-03    -159.829E-03     310.862E-03    -151.250E-03     75.8586E-03
            1252     8.50476E-03     143.088E-03    -59.9360E+06    -25.4193E+06     11.1100E+06    -21.8799E+06    -163.182E-03     315.357E-03    -152.175E-03     81.5506E-03    -163.428E-03     315.268E-03    -151.996E-03     81.8233E-03
            1253     9.26947E-03     143.181E-03    -50.8765E+06    -15.1540E+06     20.6300E+06    -24.3067E+06    -166.762E-03     319.851E-03    -153.088E-03     85.8677E-03    -167.004E-03     319.799E-03    -152.889E-03     85.9440E-03
            1254     10.0313E-03     143.277E-03    -42.6731E+06    -4.88745E+06     29.5230E+06    -25.6032E+06    -170.009E-03     324.118E-03    -154.108E-03     87.6086E-03    -170.252E-03     324.106E-03    -153.892E-03     87.5148E-03
            1255     10.7922E-03     143.377E-03    -36.0604E+06     4.61791E+06     37.2029E+06    -26.1916E+06    -173.662E-03     328.881E-03    -155.218E-03     89.6236E-03    -173.919E-03     328.918E-03    -154.986E-03     89.2756E-03
            1256     11.5490E-03     143.482E-03    -30.1109E+06     20.4124E+06     45.1868E+06    -24.9376E+06    -177.258E-03     333.666E-03    -156.408E-03     90.9235E-03    -177.549E-03     333.792E-03    -156.168E-03     90.2481E-03
            1257     12.3039E-03     143.588E-03    -24.4698E+06     43.2855E+06     53.7550E+06    -21.7788E+06    -180.299E-03     337.949E-03    -157.650E-03     90.3394E-03    -180.643E-03     338.205E-03    -157.409E-03     89.2988E-03
            1258     13.0555E-03     143.696E-03    -17.9144E+06     53.4144E+06     61.8951E+06    -17.6917E+06    -182.752E-03     341.678E-03    -158.926E-03     90.5014E-03    -183.144E-03     342.016E-03    -158.668E-03     88.9434E-03
            1259     13.8055E-03     143.806E-03    -10.9489E+06     53.0599E+06     68.4781E+06    -11.7855E+06    -184.118E-03     344.300E-03    -160.181E-03     87.9964E-03    -184.546E-03     344.678E-03    -159.900E-03     85.8236E-03
            1260     14.5554E-03     143.906E-03    -6.45195E+06     49.0609E+06     78.1940E+06    -6.58607E+06    -184.809E-03     346.210E-03    -161.401E-03     81.7004E-03    -185.235E-03     346.561E-03    -161.072E-03     79.3295E-03
            1261     775.311E-06     143.862E-03    -194.693E+06    -139.831E+06    -191.539E+06    -5.65010E+06    -148.687E-03     295.966E-03    -147.278E-03     10.2431E-03    -149.142E-03     295.887E-03    -147.751E-03     10.3244E-03
            1262     1.55117E-03     143.878E-03    -186.914E+06    -134.324E+06    -175.835E+06    -8.71622E+06    -148.140E-03     296.173E-03    -148.033E-03     16.2059E-03    -148.618E-03     296.023E-03    -148.446E-03     16.4387E-03
            1263     2.32753E-03     143.899E-03    -175.003E+06    -120.971E+06    -154.432E+06    -13.2737E+06    -147.884E-03     295.960E-03    -148.076E-03     23.9700E-03    -148.346E-03     295.820E-03    -148.419E-03     24.3001E-03
            1264     3.10429E-03     143.931E-03    -159.383E+06    -107.729E+06    -128.883E+06    -16.4035E+06    -147.894E-03     295.965E-03    -148.071E-03     32.2413E-03    -148.329E-03     295.826E-03    -148.328E-03     32.6538E-03
            1265     3.88082E-03     143.969E-03    -141.729E+06    -94.0382E+06    -101.147E+06    -17.9962E+06    -148.718E-03     296.864E-03    -148.146E-03     39.7140E-03    -149.119E-03     296.721E-03    -148.310E-03     40.2362E-03
            1266     4.65616E-03     144.016E-03    -122.477E+06    -81.0342E+06    -75.0046E+06    -19.6247E+06    -149.957E-03     298.304E-03    -148.347E-03     47.9596E-03    -150.308E-03     298.150E-03    -148.427E-03     48.5408E-03
            1267     5.43136E-03     144.074E-03    -103.100E+06    -67.2158E+06    -51.3288E+06    -19.6384E+06    -151.697E-03     300.367E-03    -148.670E-03     55.1208E-03    -151.998E-03     300.212E-03    -148.679E-03     55.7715E-03
            1268     6.20377E-03     144.139E-03    -85.3543E+06    -51.2168E+06    -29.8896E+06    -20.2570E+06    -153.666E-03     302.776E-03    -149.110E-03     61.8075E-03    -153.926E-03     302.639E-03    -149.062E-03     62.4820E-03
            1269     6.97617E-03     144.214E-03    -70.9554E+06    -38.9928E+06    -12.4395E+06    -21.4971E+06    -155.815E-03     305.465E-03    -149.650E-03     68.0121E-03    -156.043E-03     305.339E-03    -149.552E-03     68.6663E-03
            1270     7.74798E-03     144.295E-03    -60.7860E+06    -27.7996E+06     1.64250E+06    -22.3208E+06    -159.041E-03     309.358E-03    -150.316E-03     73.8600E-03    -159.255E-03     309.253E-03    -150.180E-03     74.4645E-03
            1271     8.51531E-03     144.385E-03    -53.6769E+06    -17.4331E+06     12.8063E+06    -24.5173E+06    -162.969E-03     314.121E-03    -151.152E-03     80.8203E-03    -163.185E-03     314.048E-03    -150.985E-03     81.2526E-03
            1272     9.27920E-03     144.484E-03    -46.8644E+06    -7.87585E+06     22.6216E+06    -27.1094E+06    -166.858E-03     319.001E-03    -152.143E-03     86.6648E-03    -167.080E-03     318.964E-03    -151.951E-03     86.8754E-03
            1273     10.0414E-03     144.586E-03    -39.0905E+06         426.031     31.6161E+06    -28.9718E+06    -170.952E-03     324.219E-03    -153.267E-03     89.5247E-03    -171.173E-03     324.210E-03    -153.052E-03     89.5491E-03
            1274     10.7998E-03     144.692E-03    -30.9913E+06     7.04392E+06     39.9016E+06    -28.8759E+06    -174.957E-03     329.463E-03    -154.506E-03     91.4185E-03    -175.180E-03     329.485E-03    -154.271E-03     91.2178E-03
            1275     11.5561E-03     144.804E-03    -23.2697E+06     18.6369E+06     48.0220E+06    -26.8288E+06    -178.735E-03     334.559E-03    -155.825E-03     92.6577E-03    -178.975E-03     334.645E-03    -155.578E-03     92.1638E-03
            1276     12.3086E-03     144.916E-03    -16.9650E+06     37.4436E+06     56.5409E+06    -22.2525E+06    -181.849E-03     339.036E-03    -157.187E-03     92.2772E-03    -182.132E-03     339.229E-03    -156.934E-03     91.4416E-03
            1277     13.0605E-03     145.029E-03    -12.5783E+06     48.1190E+06     65.7257E+06    -17.6977E+06    -183.698E-03     342.257E-03    -158.559E-03     91.6080E-03    -184.038E-03     342.533E-03    -158.282E-03     90.2822E-03
            1278     13.8123E-03     145.141E-03    -8.61838E+06     44.0928E+06     70.8547E+06    -14.3614E+06    -185.759E-03     345.659E-03    -159.900E-03     88.9818E-03    -186.144E-03     345.966E-03    -159.598E-03     86.9768E-03
            1279     14.5602E-03     145.250E-03    -2.96257E+06     36.8080E+06     79.7194E+06    -7.71498E+06    -187.405E-03     348.643E-03    -161.238E-03     81.6748E-03    -187.777E-03     348.905E-03    -160.889E-03     79.4679E-03
            1280     779.921E-06     145.139E-03    -194.718E+06    -119.997E+06    -191.245E+06    -7.47127E+06    -146.820E-03     293.102E-03    -146.282E-03     8.81797E-03    -147.293E-03     293.114E-03    -146.782E-03     8.90535E-03
            1281     1.55363E-03     145.151E-03    -188.303E+06    -115.102E+06    -177.335E+06    -15.3285E+06    -147.612E-03     294.388E-03    -146.777E-03     15.7618E-03    -148.119E-03     294.336E-03    -147.223E-03     15.9205E-03
            1282     2.32999E-03     145.172E-03    -178.164E+06    -102.164E+06    -158.543E+06    -22.4630E+06    -147.242E-03     294.300E-03    -147.058E-03     22.6180E-03    -147.741E-03     294.265E-03    -147.444E-03     22.8669E-03
            1283     3.10701E-03     145.203E-03    -166.234E+06    -92.2014E+06    -135.882E+06    -29.0654E+06    -147.216E-03     294.365E-03    -147.149E-03     30.2450E-03    -147.698E-03     294.324E-03    -147.454E-03     30.5328E-03
            1284     3.88423E-03     145.243E-03    -151.096E+06    -81.2307E+06    -113.163E+06    -34.3644E+06    -148.501E-03     295.810E-03    -147.309E-03     36.7816E-03    -148.950E-03     295.762E-03    -147.538E-03     37.1593E-03
            1285     4.66005E-03     145.293E-03    -134.873E+06    -70.9485E+06    -90.8566E+06    -37.8346E+06    -149.937E-03     297.571E-03    -147.634E-03     43.0656E-03    -150.344E-03     297.511E-03    -147.790E-03     43.5397E-03
            1286     5.43439E-03     145.351E-03    -117.231E+06    -61.0334E+06    -69.1963E+06    -40.3936E+06    -151.417E-03     299.472E-03    -148.055E-03     50.5659E-03    -151.773E-03     299.396E-03    -148.143E-03     51.0697E-03
            1287     6.20847E-03     145.422E-03    -97.8065E+06    -46.8563E+06    -47.2384E+06    -40.3222E+06    -153.752E-03     302.331E-03    -148.579E-03     57.2097E-03    -154.056E-03     302.258E-03    -148.605E-03     57.7725E-03
            1288     6.97987E-03     145.497E-03    -78.9069E+06    -37.3552E+06    -25.0084E+06    -37.5470E+06    -156.279E-03     305.525E-03    -149.246E-03     62.7800E-03    -156.529E-03     305.435E-03    -149.202E-03     63.4129E-03
            1289     7.74893E-03     145.584E-03    -61.1989E+06    -26.9702E+06    -4.36957E+06    -33.9284E+06    -158.964E-03     308.978E-03    -150.014E-03     68.8755E-03    -159.168E-03     308.882E-03    -149.908E-03     69.5310E-03
            1290     8.51704E-03     145.680E-03    -45.5951E+06    -13.2989E+06     14.3529E+06    -30.7487E+06    -162.043E-03     312.915E-03    -150.872E-03     75.2762E-03    -162.218E-03     312.839E-03    -150.714E-03     75.8714E-03
            1291     9.28426E-03     145.784E-03    -34.2970E+06    -1.99107E+06     29.0666E+06    -29.6062E+06    -165.768E-03     317.604E-03    -151.836E-03     81.4435E-03    -165.931E-03     317.554E-03    -151.638E-03     81.8919E-03
            1292     10.0466E-03     145.895E-03    -27.8738E+06     4.17415E+06      38.771E+06    -29.0807E+06    -170.496E-03     323.441E-03    -152.945E-03     85.9714E-03    -170.661E-03     323.409E-03    -152.716E-03     86.2560E-03
            1293     10.8047E-03     146.008E-03    -24.3362E+06     9.34514E+06     46.1204E+06    -28.7007E+06    -174.943E-03     329.144E-03    -154.202E-03     89.0387E-03    -175.124E-03     329.140E-03    -153.949E-03     89.1060E-03
            1294     11.5603E-03     146.125E-03    -21.1871E+06     17.1471E+06     52.6535E+06    -27.5146E+06    -178.610E-03     334.153E-03    -155.543E-03     92.4665E-03    -178.826E-03     334.202E-03    -155.274E-03     92.1956E-03
            1295     12.3140E-03     146.246E-03    -16.7943E+06     29.7309E+06     60.4269E+06    -23.2226E+06    -182.174E-03     339.108E-03    -156.933E-03     92.9676E-03    -182.430E-03     339.235E-03    -156.650E-03     92.3608E-03
            1296     13.0645E-03     146.361E-03    -11.6898E+06     42.6487E+06     69.7824E+06    -17.8136E+06    -185.273E-03     343.641E-03    -158.368E-03     90.7950E-03    -185.575E-03     343.851E-03    -158.064E-03     89.7888E-03
            1297     13.8125E-03     146.479E-03    -7.79659E+06     37.2412E+06     75.7206E+06    -12.9706E+06    -186.948E-03     346.749E-03    -159.801E-03     88.2481E-03    -187.293E-03     346.979E-03    -159.465E-03     86.5889E-03
            1298     14.5589E-03     146.594E-03    -5.43718E+06     23.4878E+06     82.1950E+06    -7.25740E+06    -187.802E-03     348.988E-03    -161.187E-03     82.2279E-03    -188.152E-03     349.164E-03    -160.802E-03     80.2316E-03
            1299     774.312E-06     146.406E-03    -148.638E+06    -95.3854E+06    -145.214E+06    -8.75265E+06    -146.790E-03     294.531E-03    -147.741E-03     6.35588E-03    -147.162E-03     294.531E-03    -148.113E-03     6.42331E-03
            1300     1.55548E-03     146.424E-03    -142.724E+06    -87.1772E+06    -133.107E+06    -17.5162E+06    -146.799E-03     293.997E-03    -147.199E-03     12.3733E-03    -147.188E-03     293.960E-03    -147.531E-03     12.4634E-03
            1301     2.33127E-03     146.445E-03    -136.141E+06    -77.5133E+06    -116.091E+06    -25.9343E+06    -147.968E-03     295.247E-03    -147.279E-03     17.7412E-03    -148.358E-03     295.217E-03    -147.550E-03     17.8789E-03
            1302     3.10785E-03     146.474E-03    -127.762E+06    -68.4556E+06    -98.6695E+06    -33.1143E+06    -149.091E-03     296.729E-03    -147.639E-03     24.3047E-03    -149.476E-03     296.704E-03    -147.847E-03     24.4625E-03
            1303     3.88287E-03     146.518E-03    -120.069E+06    -60.6414E+06    -82.9309E+06    -39.4655E+06    -150.300E-03     298.391E-03    -148.091E-03     29.5722E-03    -150.676E-03     298.366E-03    -148.244E-03     29.8005E-03
            1304     4.65645E-03     146.569E-03    -111.542E+06    -52.9986E+06    -68.8917E+06    -45.2902E+06    -151.162E-03     299.726E-03    -148.564E-03     33.5909E-03    -151.521E-03     299.701E-03    -148.670E-03     33.9215E-03
            1305     5.43103E-03     146.628E-03    -102.525E+06    -45.9518E+06    -54.8882E+06    -50.7440E+06    -152.291E-03     301.329E-03    -149.038E-03     40.2854E-03    -152.629E-03     301.299E-03    -149.097E-03     40.6308E-03
            1306     6.20371E-03     146.702E-03    -93.2673E+06    -39.0877E+06    -40.7379E+06    -53.5388E+06    -154.215E-03     303.787E-03    -149.572E-03     46.3224E-03    -154.531E-03     303.751E-03    -149.584E-03     46.7307E-03
            1307     6.97439E-03     146.783E-03    -81.7438E+06    -34.0640E+06    -25.8901E+06    -53.6907E+06    -156.410E-03     306.617E-03    -150.207E-03     51.7191E-03    -156.689E-03     306.561E-03    -150.169E-03     52.2192E-03
            1308     7.74393E-03     146.873E-03    -68.0732E+06    -28.3169E+06    -9.87001E+06    -51.5424E+06    -158.737E-03     309.662E-03    -150.926E-03     59.0169E-03    -158.973E-03     309.585E-03    -150.835E-03     59.5449E-03
            1309     8.51179E-03     146.972E-03    -53.2203E+06    -16.8993E+06     7.41602E+06    -46.7208E+06    -161.607E-03     313.331E-03    -151.724E-03     65.5648E-03    -161.807E-03     313.261E-03    -151.586E-03     66.1242E-03
            1310     9.27626E-03     147.082E-03    -39.4024E+06    -4.51599E+06     25.0754E+06    -40.2517E+06    -164.756E-03     317.378E-03    -152.623E-03     71.2707E-03    -164.929E-03     317.324E-03    -152.434E-03     71.8472E-03
            1311     10.0402E-03     147.199E-03    -27.5861E+06     1.24836E+06     40.8419E+06    -33.6239E+06    -167.972E-03     321.584E-03    -153.612E-03     76.8620E-03    -168.123E-03     321.524E-03    -153.370E-03     77.3732E-03
            1312     10.8012E-03     147.322E-03    -18.7096E+06     7.92622E+06     53.6026E+06    -27.5060E+06    -171.840E-03     326.523E-03    -154.683E-03     81.6857E-03    -171.985E-03     326.475E-03    -154.399E-03     82.0622E-03
            1313     11.5587E-03     147.443E-03    -13.7691E+06     17.1286E+06     62.6723E+06    -23.7627E+06    -176.118E-03     331.964E-03    -155.846E-03     86.9260E-03    -176.288E-03     331.965E-03    -155.537E-03     87.0167E-03
            1314     12.3134E-03     147.572E-03    -10.2718E+06     22.9482E+06     68.7589E+06    -20.7918E+06    -180.651E-03     337.765E-03    -157.114E-03     89.9172E-03    -180.848E-03     337.809E-03    -156.789E-03     89.6597E-03
            1315     13.0639E-03     147.696E-03    -7.63349E+06     36.3641E+06     76.7945E+06    -16.1334E+06    -184.870E-03     343.355E-03    -158.486E-03     89.8115E-03    -185.126E-03     343.491E-03    -158.144E-03     89.1235E-03
            1316     13.8109E-03     147.819E-03    -4.41677E+06     29.7791E+06     80.0547E+06    -9.71288E+06    -186.235E-03     346.109E-03    -159.874E-03     87.3900E-03    -186.531E-03     346.263E-03    -159.510E-03     86.0653E-03
            1317     14.5622E-03     147.929E-03    -132.143E+03     12.1818E+06     84.9877E+06    -3.22298E+06    -186.625E-03     347.824E-03    -161.199E-03     84.2990E-03    -186.932E-03     347.928E-03    -160.792E-03     82.4500E-03
            1318     775.534E-06     147.681E-03    -90.4863E+06    -66.2548E+06    -89.4961E+06    -11.4601E+06    -150.214E-03     300.628E-03    -150.414E-03     2.89009E-03    -150.430E-03     300.613E-03    -150.634E-03     2.86013E-03
            1319     1.54904E-03     147.695E-03    -86.4628E+06    -59.8409E+06    -78.5791E+06    -18.2982E+06    -150.467E-03     300.860E-03    -150.393E-03     6.46789E-03    -150.701E-03     300.802E-03    -150.574E-03     6.40794E-03
            1320     2.32641E-03     147.720E-03    -81.2268E+06    -51.4382E+06    -63.3729E+06    -24.6947E+06    -151.521E-03     302.193E-03    -150.672E-03     7.18846E-03    -151.758E-03     302.141E-03    -150.797E-03     7.19948E-03
            1321     3.09885E-03     147.753E-03    -75.6776E+06    -44.9808E+06    -47.6332E+06    -30.8251E+06    -153.060E-03     304.256E-03    -151.196E-03     10.4248E-03    -153.304E-03     304.207E-03    -151.259E-03     10.4378E-03
            1322     3.87048E-03     147.798E-03    -68.8756E+06    -38.1161E+06    -33.1153E+06    -36.7007E+06    -153.581E-03     305.344E-03    -151.763E-03     13.3919E-03    -153.821E-03     305.298E-03    -151.774E-03     13.4217E-03
            1323     4.64316E-03     147.850E-03    -62.1218E+06    -31.8771E+06    -20.6930E+06    -42.2441E+06    -154.018E-03     306.260E-03    -152.243E-03     15.5639E-03    -154.249E-03     306.216E-03    -152.210E-03     15.6616E-03
            1324     5.41374E-03     147.911E-03    -57.2965E+06    -27.7824E+06    -10.5204E+06    -46.0224E+06    -154.830E-03     307.522E-03    -152.691E-03     20.3933E-03    -155.056E-03     307.473E-03    -152.620E-03     20.5321E-03
            1325     6.18404E-03     147.987E-03    -54.1838E+06    -25.0566E+06    -2.19358E+06    -49.0063E+06    -155.331E-03     308.453E-03    -153.122E-03     25.3581E-03    -155.553E-03     308.399E-03    -153.018E-03     25.5651E-03
            1326     6.95454E-03     148.070E-03    -52.8711E+06    -23.6195E+06     3.52448E+06    -50.9622E+06    -156.142E-03     309.672E-03    -153.531E-03     29.8698E-03    -156.364E-03     309.612E-03    -153.402E-03     30.2012E-03
            1327     7.72394E-03     148.162E-03    -52.6052E+06    -22.2884E+06     8.79079E+06    -51.8268E+06    -157.771E-03     311.748E-03    -153.977E-03     36.5649E-03    -157.995E-03     311.680E-03    -153.824E-03     36.9868E-03
            1328     8.49107E-03     148.267E-03    -51.1271E+06    -16.9063E+06     16.4518E+06    -51.2682E+06    -159.753E-03     314.252E-03    -154.499E-03     44.4579E-03    -159.980E-03     314.190E-03    -154.318E-03     44.9442E-03
            1329     9.25683E-03     148.380E-03    -46.6007E+06    -9.71253E+06     27.2382E+06    -47.6363E+06    -161.734E-03     316.821E-03    -155.087E-03     52.7284E-03    -161.955E-03     316.764E-03    -154.869E-03     53.2820E-03
            1330     10.0202E-03     148.500E-03    -39.6467E+06    -5.92280E+06     39.3519E+06    -41.9423E+06    -163.871E-03     319.593E-03    -155.723E-03     60.6774E-03    -164.074E-03     319.522E-03    -155.460E-03     61.2733E-03
            1331     10.7845E-03     148.627E-03    -30.1618E+06    -1.87475E+06     51.9085E+06    -35.0056E+06    -166.820E-03     323.241E-03    -156.421E-03     67.0039E-03    -167.000E-03     323.157E-03    -156.115E-03     67.6114E-03
            1332     11.5460E-03     148.759E-03    -20.6722E+06     10.4258E+06     65.4746E+06    -26.8438E+06    -170.818E-03     328.043E-03    -157.226E-03     73.2078E-03    -170.995E-03     327.996E-03    -156.883E-03     73.6994E-03
            1333     12.3032E-03     148.893E-03    -14.0984E+06     17.4698E+06     76.8508E+06    -19.9981E+06    -175.165E-03     333.329E-03    -158.164E-03     79.6999E-03    -175.357E-03     333.312E-03    -157.785E-03     79.8778E-03
            1334     13.0576E-03     149.029E-03    -8.14771E+06     28.1167E+06     85.6102E+06    -13.2992E+06    -178.781E-03     337.969E-03    -159.189E-03     83.3032E-03    -179.009E-03     338.022E-03    -158.790E-03     83.0139E-03
            1335     13.8104E-03     149.154E-03    -4.54961E+06     16.3688E+06     81.9275E+06    -5.96901E+06    -181.736E-03     341.982E-03    -160.246E-03     82.7121E-03    -181.977E-03     342.028E-03    -159.854E-03     81.8369E-03
            1336     14.5577E-03     149.268E-03    -3.24964E+06     3.72494E+06     81.9890E+06    -493.511E+03    -183.221E-03     344.552E-03    -161.331E-03     82.7657E-03    -183.499E-03     344.594E-03    -160.922E-03     81.2555E-03
            1337     771.675E-06     148.970E-03    -35.0403E+06    -35.6396E+06    -32.1699E+06    -8.92005E+06    -158.735E-03     315.000E-03    -156.265E-03     323.905E-06    -158.736E-03     314.983E-03    -156.323E-03     175.636E-06
            1338     1.54009E-03     148.984E-03    -34.3523E+06    -34.3699E+06    -25.7439E+06    -16.3341E+06    -160.158E-03     318.273E-03    -158.115E-03    -3.73701E-03    -160.250E-03     318.186E-03    -158.144E-03    -3.90950E-03
            1339     2.30551E-03     149.009E-03    -30.1568E+06    -29.4169E+06    -14.6091E+06    -21.8246E+06    -160.318E-03     319.373E-03    -159.056E-03    -7.39800E-03    -160.409E-03     319.286E-03    -159.043E-03    -7.58705E-03
            1340     3.07356E-03     149.045E-03    -26.0784E+06    -23.7273E+06    -1.18805E+06    -26.6011E+06    -159.631E-03     319.191E-03    -159.560E-03    -9.53494E-03    -159.732E-03     319.110E-03    -159.493E-03    -9.74978E-03
            1341     3.84118E-03     149.089E-03    -22.3520E+06    -18.9368E+06     10.3324E+06    -30.9614E+06    -159.081E-03     318.896E-03    -159.814E-03    -10.0538E-03    -159.188E-03     318.818E-03    -159.703E-03    -10.3104E-03
            1342     4.60803E-03     149.142E-03    -20.8645E+06    -15.5587E+06     19.9450E+06    -33.3065E+06    -159.433E-03     319.470E-03    -160.038E-03    -10.4445E-03    -159.551E-03     319.394E-03    -159.885E-03    -10.6798E-03
            1343     5.37487E-03     149.205E-03    -20.2029E+06    -13.4929E+06     27.7233E+06    -34.6156E+06    -159.249E-03     319.533E-03    -160.285E-03    -10.0240E-03    -159.379E-03     319.457E-03    -160.097E-03    -10.1903E-03
            1344     6.14195E-03     149.278E-03    -20.8269E+06    -12.3464E+06     33.5535E+06    -35.3390E+06    -158.034E-03     318.483E-03    -160.449E-03    -8.64267E-03    -158.179E-03     318.407E-03    -160.233E-03    -8.71326E-03
            1345     6.90950E-03     149.362E-03    -22.0103E+06    -12.2672E+06     39.0720E+06    -36.0777E+06    -157.189E-03     317.709E-03    -160.520E-03    -6.30554E-03    -157.349E-03     317.630E-03    -160.275E-03    -6.25278E-03
            1346     7.67650E-03     149.455E-03    -22.7884E+06    -11.9716E+06     43.9998E+06    -37.0479E+06    -156.875E-03     317.434E-03    -160.560E-03    -1.72549E-03    -157.045E-03     317.351E-03    -160.289E-03    -1.57693E-03
            1347     8.44421E-03     149.560E-03    -23.7950E+06    -10.1807E+06     48.9236E+06    -37.1348E+06    -156.377E-03     316.960E-03    -160.582E-03     4.28577E-03    -156.560E-03     316.878E-03    -160.288E-03     4.54572E-03
            1348     9.21283E-03     149.675E-03    -26.0477E+06    -8.19200E+06     52.8894E+06    -36.2184E+06    -155.888E-03     316.457E-03    -160.569E-03     11.0281E-03    -156.087E-03     316.381E-03    -160.255E-03     11.4311E-03
            1349     9.98226E-03     149.798E-03    -29.0571E+06    -7.02038E+06     55.8988E+06    -34.3316E+06    -156.323E-03     316.869E-03    -160.546E-03     19.8476E-03    -156.535E-03     316.792E-03    -160.214E-03     20.3662E-03
            1350     10.7470E-03     149.929E-03    -31.2671E+06    -5.61936E+06     60.0402E+06    -32.4238E+06    -158.027E-03     318.604E-03    -160.578E-03     29.8405E-03    -158.247E-03     318.524E-03    -160.224E-03     30.4411E-03
            1351     11.5111E-03     150.064E-03    -28.9756E+06    -573.253E+03     67.5278E+06    -28.3673E+06    -160.255E-03     320.952E-03    -160.697E-03     40.3270E-03    -160.476E-03     320.876E-03    -160.316E-03     40.9543E-03
            1352     12.2746E-03     150.206E-03    -22.1343E+06     10.6167E+06     79.4240E+06    -21.0366E+06    -162.320E-03     323.205E-03    -160.885E-03     52.1683E-03    -162.539E-03     323.158E-03    -160.471E-03     52.7124E-03
            1353     13.0367E-03     150.346E-03    -15.6919E+06     18.2725E+06     85.7902E+06    -16.0465E+06    -165.036E-03     326.143E-03    -161.107E-03     62.8015E-03    -165.253E-03     326.124E-03    -160.682E-03     63.1017E-03
            1354     13.7968E-03     150.479E-03    -8.70657E+06    -2.50066E+06     77.6825E+06    -7.42302E+06    -169.695E-03     331.114E-03    -161.419E-03     70.1675E-03    -169.861E-03     331.018E-03    -161.014E-03     70.0877E-03
            1355     14.5546E-03     150.603E-03    -2.11750E+06    -720.112E+03     76.3981E+06     1.42141E+06    -171.996E-03     333.839E-03    -161.842E-03     74.5458E-03    -172.178E-03     333.790E-03    -161.456E-03     73.9111E-03
            1356     760.259E-06     150.282E-03     14.3001E+06    -14.2730E+06     19.3610E+06    -4.71812E+06    -172.530E-03     344.871E-03    -172.341E-03    -6.08257E-03    -172.382E-03     344.880E-03    -172.244E-03    -6.26046E-03
            1357     1.51740E-03     150.303E-03     15.6129E+06    -12.4540E+06     25.0407E+06    -9.32677E+06    -173.775E-03     346.700E-03    -172.926E-03    -17.8994E-03    -173.728E-03     346.570E-03    -172.805E-03    -18.0973E-03
            1358     2.27427E-03     150.330E-03     15.1241E+06    -11.3924E+06     31.1898E+06    -13.9731E+06    -172.778E-03     346.185E-03    -173.408E-03    -25.0201E-03    -172.737E-03     346.049E-03    -173.257E-03    -25.3135E-03
            1359     3.03052E-03     150.362E-03     15.2260E+06    -8.46810E+06     37.8631E+06    -16.4746E+06    -171.051E-03     344.494E-03    -173.443E-03    -32.1980E-03    -171.026E-03     344.362E-03    -173.263E-03    -32.5223E-03
            1360     3.79072E-03     150.403E-03     12.8430E+06    -6.62226E+06     45.9755E+06    -17.5633E+06    -169.400E-03     342.690E-03    -173.290E-03    -37.8341E-03    -169.399E-03     342.556E-03    -173.069E-03    -38.1911E-03
            1361     4.55016E-03     150.458E-03     10.7949E+06    -5.81592E+06     53.7283E+06    -18.2614E+06    -168.585E-03     341.730E-03    -173.145E-03    -42.7036E-03    -168.604E-03     341.592E-03    -172.883E-03    -43.0846E-03
            1362     5.30812E-03     150.519E-03     8.72639E+06    -5.08518E+06     60.8621E+06    -18.0612E+06    -167.176E-03     340.214E-03    -173.038E-03    -48.5293E-03    -167.218E-03     340.075E-03    -172.739E-03    -48.8337E-03
            1363     6.06763E-03     150.589E-03     6.68071E+06    -4.34215E+06     67.7757E+06    -17.9842E+06    -164.665E-03     337.523E-03    -172.858E-03    -52.7015E-03    -164.731E-03     337.384E-03    -172.522E-03    -52.9372E-03
            1364     6.82866E-03     150.669E-03     4.97233E+06    -4.16163E+06     73.6563E+06    -18.1385E+06    -161.900E-03     334.462E-03    -172.561E-03    -55.2410E-03    -161.986E-03     334.320E-03    -172.194E-03    -55.4294E-03
            1365     7.59161E-03     150.759E-03     2.77335E+06    -4.08317E+06     78.2483E+06    -18.1749E+06    -158.961E-03     331.129E-03    -172.167E-03    -56.8146E-03    -159.068E-03     330.989E-03    -171.774E-03    -56.9450E-03
            1366     8.35552E-03     150.861E-03    -158.893E+03    -3.69015E+06     81.1480E+06    -18.0037E+06    -155.723E-03     327.399E-03    -171.676E-03    -57.3693E-03    -155.851E-03     327.266E-03    -171.265E-03    -57.4220E-03
            1367     9.12074E-03     150.971E-03    -3.30080E+06    -4.01489E+06     82.9770E+06    -17.1098E+06    -152.066E-03     323.142E-03    -171.076E-03    -57.2953E-03    -152.216E-03     323.016E-03    -170.651E-03    -57.2229E-03
            1368     9.88791E-03     151.090E-03    -5.03251E+06    -3.10836E+06     85.3432E+06    -16.5586E+06    -147.955E-03     318.298E-03    -170.343E-03    -54.0959E-03    -148.118E-03     318.178E-03    -169.905E-03    -53.9361E-03
            1369     10.6613E-03     151.220E-03    -6.27306E+06    -2.96231E+06     86.7441E+06    -15.4310E+06    -144.457E-03     313.935E-03    -169.478E-03    -46.2842E-03    -144.621E-03     313.815E-03    -169.031E-03    -46.0678E-03
            1370     11.4339E-03     151.359E-03    -8.04251E+06    -2.17253E+06     86.5320E+06    -14.5250E+06    -141.751E-03     310.254E-03    -168.502E-03    -35.5451E-03    -141.919E-03     310.141E-03    -168.055E-03    -35.2417E-03
            1371     12.2084E-03     151.498E-03    -9.62804E+06     1.54059E+06     85.2339E+06    -12.5509E+06    -139.156E-03     306.562E-03    -167.406E-03    -21.2379E-03    -139.325E-03     306.466E-03    -166.968E-03    -20.8759E-03
            1372     12.9864E-03     151.641E-03    -10.1075E+06     12.3969E+06     85.0918E+06    -8.29154E+06    -138.024E-03     304.234E-03    -166.210E-03    -2.29652E-03    -138.197E-03     304.183E-03    -165.788E-03    -1.95717E-03
            1373     13.7624E-03     151.783E-03    -8.69719E+06    -10.1885E+06     70.9848E+06    -5.01423E+06    -138.852E-03     303.811E-03    -164.959E-03     20.7315E-03    -138.965E-03     303.670E-03    -164.576E-03     20.8567E-03
            1374     14.5335E-03     151.916E-03     425.487E+03    -7.40343E+06     59.6249E+06    -2.58073E+06    -137.798E-03     301.416E-03    -163.617E-03     43.4657E-03    -137.873E-03     301.308E-03    -163.309E-03     43.3164E-03
            1375     14.5202E-03     75.4588E-03    -4.11788E+06     74.0863E+06     84.3734E+06     359.691E+03    -163.643E-03     327.628E-03    -163.985E-03     61.8860E-03    -164.084E-03     328.073E-03    -163.665E-03     59.4865E-03
            1376     13.7515E-03     75.3736E-03    -8.88922E+06     73.1398E+06     84.3800E+06     671.254E+03    -164.162E-03     328.194E-03    -164.032E-03     67.9536E-03    -164.663E-03     328.679E-03    -163.703E-03     65.3590E-03
            1377     12.9898E-03     75.2878E-03    -16.3302E+06     63.3248E+06     77.4015E+06     3.12082E+06    -165.253E-03     329.277E-03    -164.024E-03     68.8908E-03    -165.751E-03     329.718E-03    -163.705E-03     66.5192E-03
            1378     12.2279E-03     75.2008E-03    -22.3560E+06     48.9925E+06     64.3570E+06     1.75806E+06    -164.896E-03     328.869E-03    -163.973E-03     69.4122E-03    -165.360E-03     329.241E-03    -163.690E-03     67.2912E-03
            1379     11.4617E-03     75.1131E-03    -27.7795E+06     40.3187E+06     52.4433E+06    -3.20886E+06    -163.736E-03     327.705E-03    -163.970E-03     68.6464E-03    -164.182E-03     328.044E-03    -163.726E-03     66.6338E-03
            1380     10.6940E-03     75.0305E-03    -31.0153E+06     39.0588E+06     48.2897E+06    -4.17727E+06    -164.373E-03     328.380E-03    -164.007E-03     64.6878E-03    -164.798E-03     328.694E-03    -163.777E-03     62.8992E-03
            1381     9.93289E-03     74.9488E-03    -39.9686E+06     24.4210E+06     37.1154E+06    -2.84553E+06    -164.683E-03     328.681E-03    -163.998E-03     60.9633E-03    -165.083E-03     328.918E-03    -163.790E-03     59.4873E-03
            1382     9.16826E-03     74.8699E-03    -45.2784E+06    -4.16161E+06     28.6320E+06    -1.46545E+06    -163.328E-03     327.388E-03    -164.060E-03     58.6231E-03    -163.674E-03     327.475E-03    -163.845E-03     57.4619E-03
            1383     8.40327E-03     74.8002E-03    -50.5673E+06    -35.2341E+06     18.1967E+06    -100.927E+03    -163.213E-03     327.401E-03    -164.188E-03     56.4878E-03    -163.499E-03     327.330E-03    -163.973E-03     55.6305E-03
            1384     7.63707E-03     74.7320E-03    -60.2427E+06    -59.7225E+06     3.19380E+06     1.01392E+06    -164.448E-03     328.699E-03    -164.252E-03     53.2325E-03    -164.708E-03     328.524E-03    -164.062E-03     52.5858E-03
            1385     6.87524E-03     74.6692E-03    -66.7523E+06    -80.1540E+06    -6.00246E+06     736.057E+03    -164.751E-03     329.006E-03    -164.256E-03     47.8629E-03    -164.984E-03     328.736E-03    -164.073E-03     47.3739E-03
            1386     6.11045E-03     74.6096E-03    -74.2913E+06    -100.739E+06    -17.5859E+06     1.81784E+06    -164.014E-03     328.278E-03    -164.264E-03     42.2428E-03    -164.227E-03     327.921E-03    -164.098E-03     41.9217E-03
            1387     5.34645E-03     74.5582E-03    -77.7508E+06    -117.228E+06    -29.4615E+06     2.07880E+06    -163.890E-03     328.198E-03    -164.309E-03     37.9506E-03    -164.070E-03     327.772E-03    -164.173E-03     37.7639E-03
            1388     4.58248E-03     74.5138E-03    -85.4360E+06    -138.155E+06    -49.0309E+06     1.69442E+06    -164.117E-03     328.444E-03    -164.327E-03     33.0804E-03    -164.268E-03     327.944E-03    -164.248E-03     33.0047E-03
            1389     3.81735E-03     74.4757E-03    -93.2577E+06    -156.397E+06    -66.0379E+06    -52.1334E+03    -164.168E-03     328.506E-03    -164.338E-03     27.1543E-03    -164.300E-03     327.944E-03    -164.306E-03     27.1290E-03
            1390     3.05383E-03     74.4431E-03    -95.6040E+06    -168.440E+06    -74.2578E+06    -1.05178E+06    -164.163E-03     328.540E-03    -164.377E-03     20.8992E-03    -164.269E-03     327.925E-03    -164.365E-03     20.8738E-03
            1391     2.29175E-03     74.4172E-03    -103.484E+06    -184.737E+06    -89.6651E+06    -423.383E+03    -164.184E-03     328.592E-03    -164.408E-03     15.3041E-03    -164.275E-03     327.921E-03    -164.438E-03     15.3261E-03
            1392     1.52705E-03     74.3980E-03    -111.278E+06    -200.206E+06    -105.526E+06    -2.46214E+06    -164.521E-03     328.895E-03    -164.375E-03     10.7425E-03    -164.608E-03     328.185E-03    -164.451E-03     10.7223E-03
            1393     762.912E-06     74.3883E-03    -115.781E+06    -212.082E+06    -112.712E+06    -2.10387E+06    -164.764E-03     328.720E-03    -163.955E-03     5.77420E-03    -164.816E-03     328.010E-03    -164.044E-03     5.77792E-03
            1394     14.5163E-03     74.1422E-03    -4.14071E+06     75.1450E+06     86.2687E+06    -296.236E+03    -164.609E-03     328.585E-03    -163.976E-03     60.0683E-03    -165.051E-03     329.029E-03    -163.648E-03     57.6312E-03
            1395     13.7558E-03     74.0600E-03      -8.706E+06     69.2369E+06     85.3189E+06     688.340E+03    -164.325E-03     328.315E-03    -163.989E-03     66.5826E-03    -164.814E-03     328.771E-03    -163.651E-03     64.0084E-03
            1396     12.9891E-03     73.9701E-03    -12.5337E+06     61.5116E+06     79.3331E+06     1.98759E+06    -164.077E-03     328.082E-03    -164.005E-03     68.6011E-03    -164.549E-03     328.498E-03    -163.679E-03     66.2874E-03
            1397     12.2240E-03     73.8839E-03    -15.5464E+06     55.2950E+06     70.0965E+06     933.061E+03    -164.376E-03     328.384E-03    -164.008E-03     68.8275E-03    -164.819E-03     328.765E-03    -163.715E-03     66.7355E-03
            1398     11.4598E-03     73.8013E-03    -21.0574E+06     47.6496E+06     59.0843E+06     922.890E+03    -164.786E-03     328.775E-03    -163.988E-03     67.1928E-03    -165.210E-03     329.122E-03    -163.732E-03     65.2869E-03
            1399     10.6985E-03     73.7122E-03    -31.7335E+06     38.1864E+06     47.1649E+06    -400.117E+03    -164.269E-03     328.246E-03    -163.977E-03     65.1164E-03    -164.689E-03     328.553E-03    -163.751E-03     63.4375E-03
            1400     9.93412E-03     73.6314E-03    -40.9825E+06     20.2880E+06     33.5557E+06    -687.278E+03    -163.214E-03     327.241E-03    -164.027E-03     62.9665E-03    -163.609E-03     327.465E-03    -163.829E-03     61.5423E-03
            1401     9.16782E-03     73.5611E-03    -47.5259E+06    -12.0379E+06     21.0273E+06     54.3428E+03    -162.996E-03     327.156E-03    -164.160E-03     60.6184E-03    -163.329E-03     327.216E-03    -163.968E-03     59.5359E-03
            1402     8.39987E-03     73.4852E-03    -55.4351E+06    -39.8681E+06     13.0785E+06    -880.013E+03    -163.866E-03     328.164E-03    -164.298E-03     56.6158E-03    -164.163E-03     328.085E-03    -164.095E-03     55.7493E-03
            1403     7.63694E-03     73.4162E-03    -57.7104E+06    -51.7941E+06     10.4458E+06     2.20305E+06    -164.530E-03     328.898E-03    -164.368E-03     52.1448E-03    -164.799E-03     328.748E-03    -164.157E-03     51.4817E-03
            1404     6.87321E-03     73.3485E-03    -67.8432E+06    -78.2933E+06    -5.92564E+06     4.48060E+06    -164.642E-03     329.003E-03    -164.361E-03     48.0111E-03    -164.884E-03     328.744E-03    -164.178E-03     47.5860E-03
            1405     6.11114E-03     73.2971E-03    -76.4854E+06    -104.824E+06    -23.4954E+06     1.60612E+06    -164.564E-03     328.898E-03    -164.334E-03     43.3083E-03    -164.777E-03     328.535E-03    -164.189E-03     42.9677E-03
            1406     5.34497E-03     73.2427E-03    -75.3100E+06    -116.616E+06    -30.8354E+06    -1.24056E+06    -164.396E-03     328.724E-03    -164.328E-03     37.6019E-03    -164.563E-03     328.299E-03    -164.203E-03     37.3592E-03
            1407     4.58058E-03     73.1978E-03    -84.3774E+06    -136.507E+06    -45.2687E+06    -1.03435E+06    -164.574E-03     328.867E-03    -164.292E-03     31.1372E-03    -164.725E-03     328.364E-03    -164.198E-03     31.0060E-03
            1408     3.81892E-03     73.1580E-03    -92.3963E+06    -154.838E+06    -59.4704E+06    -110.501E+03    -164.649E-03     328.852E-03    -164.203E-03     25.7353E-03    -164.789E-03     328.287E-03    -164.142E-03     25.6693E-03
            1409     3.05620E-03     73.1268E-03    -99.0253E+06    -170.290E+06    -73.2004E+06    -485.550E+03    -164.261E-03     328.368E-03    -164.108E-03     21.0605E-03    -164.385E-03     327.750E-03    -164.083E-03     21.0202E-03
            1410     2.29102E-03     73.1016E-03    -104.606E+06    -183.878E+06    -86.1908E+06     170.817E+03    -163.934E-03     328.012E-03    -164.078E-03     16.4737E-03    -164.037E-03     327.342E-03    -164.091E-03     16.4888E-03
            1411     1.52730E-03     73.0838E-03    -110.790E+06    -199.163E+06    -100.342E+06     1.38370E+06    -163.838E-03     327.978E-03    -164.141E-03     11.0646E-03    -163.931E-03     327.265E-03    -164.193E-03     11.1190E-03
            1412     763.695E-06     73.0705E-03    -116.209E+06    -216.300E+06    -113.136E+06     1.14503E+06    -164.355E-03     328.422E-03    -164.067E-03     5.31506E-03    -164.405E-03     327.695E-03    -164.150E-03     5.35712E-03
            1413     14.5221E-03     72.8265E-03    -4.08516E+06     76.0348E+06     88.6270E+06     17.5451E+03    -165.160E-03     329.105E-03    -163.945E-03     59.4202E-03    -165.609E-03     329.553E-03    -163.606E-03     56.9339E-03
            1414     13.7550E-03     72.7432E-03    -7.98727E+06     68.9023E+06     85.9458E+06    -514.565E+03    -164.178E-03     328.116E-03    -163.938E-03     67.2780E-03    -164.661E-03     328.565E-03    -163.596E-03     64.7384E-03
            1415     12.9920E-03     72.6583E-03    -13.7520E+06     58.7165E+06     76.5274E+06    -624.869E+03    -163.537E-03     327.499E-03    -163.962E-03     68.8654E-03    -164.003E-03     327.902E-03    -163.644E-03     66.5688E-03
            1416     12.2250E-03     72.5708E-03    -20.9668E+06     53.1862E+06     65.6192E+06     3.11422E+06    -164.240E-03     328.220E-03    -163.980E-03     68.8690E-03    -164.697E-03     328.602E-03    -163.699E-03     66.8373E-03
            1417     11.4630E-03     72.4797E-03    -29.5683E+06     41.8296E+06     50.3572E+06     2.36319E+06    -164.425E-03     328.390E-03    -163.965E-03     67.3189E-03    -164.866E-03     328.728E-03    -163.731E-03     65.4872E-03
            1418     10.6971E-03     72.4006E-03    -35.1716E+06     33.3105E+06     40.0986E+06     685.218E+03    -162.581E-03     326.610E-03    -164.030E-03     66.1657E-03    -163.000E-03     326.906E-03    -163.826E-03     64.5435E-03
            1419     9.92761E-03     72.3204E-03    -39.1396E+06     22.5608E+06     38.6057E+06     731.866E+03    -162.581E-03     326.800E-03    -164.219E-03     64.0773E-03    -162.976E-03     327.024E-03    -164.002E-03     62.6981E-03
            1420     9.16262E-03     72.2440E-03    -43.1088E+06     5.66564E+06     34.3115E+06     4.15304E+06    -164.755E-03     329.085E-03    -164.330E-03     59.7172E-03    -165.112E-03     329.210E-03    -164.104E-03     58.6323E-03
            1421     8.40299E-03     72.1691E-03    -56.0895E+06    -31.3971E+06     14.6602E+06     4.83571E+06    -165.223E-03     329.519E-03    -164.296E-03     55.2902E-03    -165.540E-03     329.483E-03    -164.096E-03     54.4330E-03
            1422     7.63883E-03     72.0992E-03    -63.6186E+06    -63.3004E+06     706.791E+03    -525.111E+03    -163.957E-03     328.263E-03    -164.306E-03     51.1270E-03    -164.225E-03     328.078E-03    -164.118E-03     50.4017E-03
            1423     6.87249E-03     72.0368E-03    -61.8673E+06    -76.2844E+06    -3.61930E+06    -320.199E+03    -163.887E-03     328.277E-03    -164.389E-03     47.0911E-03    -164.102E-03     328.012E-03    -164.207E-03     46.6217E-03
            1424     6.10656E-03     71.9761E-03    -71.4076E+06    -103.449E+06    -18.7259E+06    -3.17836E+06    -165.482E-03     329.843E-03    -164.361E-03     41.5422E-03    -165.679E-03     329.473E-03    -164.201E-03     41.0959E-03
            1425     5.34754E-03     71.9271E-03    -80.4708E+06    -120.543E+06    -29.6513E+06    -1.48641E+06    -165.666E-03     329.858E-03    -164.192E-03     35.1373E-03    -165.859E-03     329.423E-03    -164.048E-03     34.8300E-03
            1426     4.58507E-03     71.8805E-03    -81.7811E+06    -131.014E+06    -36.1326E+06     1.86441E+06    -164.352E-03     328.409E-03    -164.057E-03     30.5067E-03    -164.514E-03     327.920E-03    -163.929E-03     30.3819E-03
            1427     3.82012E-03     71.8424E-03    -90.1166E+06    -152.234E+06    -54.8287E+06     592.270E+03    -163.725E-03     327.742E-03    -164.017E-03     26.4231E-03    -163.865E-03     327.181E-03    -163.940E-03     26.3199E-03
            1428     3.05492E-03     71.8118E-03    -100.927E+06    -173.616E+06    -76.1402E+06    -214.780E+03    -163.903E-03     327.910E-03    -164.007E-03     21.9034E-03    -164.022E-03     327.276E-03    -163.990E-03     21.8555E-03
            1429     2.29196E-03     71.7867E-03    -105.892E+06    -187.904E+06    -88.7291E+06    -1.17057E+06    -164.123E-03     328.091E-03    -163.968E-03     16.6301E-03    -164.217E-03     327.400E-03    -163.985E-03     16.6155E-03
            1430     1.52819E-03     71.7675E-03    -107.828E+06    -199.447E+06    -97.6450E+06     1.11547E+06    -163.909E-03     327.836E-03    -163.928E-03     11.2217E-03    -163.990E-03     327.111E-03    -163.970E-03     11.2598E-03
            1431     763.806E-06     71.7571E-03    -107.186E+06    -211.007E+06    -103.807E+06     161.595E+03    -163.739E-03     327.883E-03    -164.144E-03     6.37995E-03    -163.769E-03     327.158E-03    -164.202E-03     6.38407E-03
            1432     14.5174E-03     71.5104E-03    -4.84594E+06     72.8901E+06     84.5984E+06    -879.030E+03    -164.327E-03     328.295E-03    -163.968E-03     60.9810E-03    -164.777E-03     328.741E-03    -163.644E-03     58.4499E-03
            1433     13.7557E-03     71.4282E-03    -11.7695E+06     69.5631E+06     80.8488E+06    -1.02618E+06    -164.188E-03     328.170E-03    -163.982E-03     68.7188E-03    -164.682E-03     328.634E-03    -163.661E-03     66.2117E-03
            1434     12.9888E-03     71.3445E-03    -19.3394E+06     54.5023E+06     72.0876E+06     2.87853E+06    -164.377E-03     328.378E-03    -164.001E-03     70.9390E-03    -164.859E-03     328.776E-03    -163.692E-03     68.7180E-03
            1435     12.2269E-03     71.2539E-03    -22.7916E+06     46.2822E+06     64.7351E+06     6.05833E+06    -164.128E-03     328.152E-03    -164.024E-03     71.6749E-03    -164.584E-03     328.504E-03    -163.734E-03     69.7326E-03
            1436     11.4596E-03     71.1668E-03    -26.8288E+06     43.4573E+06     53.1435E+06     2.45611E+06    -163.091E-03     327.158E-03    -164.066E-03     68.3530E-03    -163.527E-03     327.498E-03    -163.824E-03     66.5250E-03
            1437     10.6933E-03     71.0884E-03    -27.9542E+06     41.0829E+06     48.6322E+06     2.50084E+06    -163.437E-03     327.601E-03    -164.165E-03     64.3517E-03    -163.843E-03     327.914E-03    -163.941E-03     62.7096E-03
            1438     9.92994E-03     71.0081E-03    -36.1396E+06     29.0962E+06     43.5023E+06     3.70138E+06    -164.570E-03     328.805E-03    -164.235E-03     61.4747E-03    -164.965E-03     329.048E-03    -164.007E-03     60.1062E-03
            1439     9.16717E-03     70.9238E-03    -44.7281E+06     2.12973E+06     32.8349E+06     62.5259E+03    -164.789E-03     329.036E-03    -164.246E-03     57.8083E-03    -165.150E-03     329.149E-03    -164.020E-03     56.6012E-03
            1440     8.40182E-03     70.8518E-03    -42.9244E+06    -22.6601E+06     27.3399E+06     1.62703E+06    -164.631E-03     328.890E-03    -164.259E-03     54.5879E-03    -164.915E-03     328.861E-03    -164.027E-03     53.6548E-03
            1441     7.63761E-03     70.7852E-03    -59.9899E+06    -62.9898E+06     2.67444E+06     21.3797E+03    -165.042E-03     329.247E-03    -164.205E-03     50.2019E-03    -165.295E-03     329.056E-03    -164.013E-03     49.4802E-03
            1442     6.87437E-03     70.7220E-03    -67.9210E+06    -87.4233E+06    -8.83226E+06    -3.86837E+06    -165.300E-03     329.425E-03    -164.125E-03     44.8896E-03    -165.524E-03     329.124E-03    -163.944E-03     44.3127E-03
            1443     6.11291E-03     70.6583E-03    -65.8693E+06    -98.8805E+06    -10.4641E+06    -3.66698E+06    -164.686E-03     328.738E-03    -164.052E-03     39.4933E-03    -164.873E-03     328.371E-03    -163.866E-03     39.0205E-03
            1444     5.34812E-03     70.6069E-03    -77.6010E+06    -119.246E+06    -25.4939E+06    -2.43194E+06    -164.158E-03     328.147E-03    -163.989E-03     35.0104E-03    -164.342E-03     327.706E-03    -163.831E-03     34.6796E-03
            1445     4.58421E-03     70.5676E-03    -84.2731E+06    -134.997E+06    -36.9010E+06     1.15379E+06    -163.789E-03     327.768E-03    -163.979E-03     31.9075E-03    -163.957E-03     327.265E-03    -163.846E-03     31.7710E-03
            1446     3.81920E-03     70.5283E-03    -88.0084E+06    -150.955E+06    -51.7172E+06     3.02565E+06    -163.567E-03     327.569E-03    -164.002E-03     27.3514E-03    -163.704E-03     327.009E-03    -163.914E-03     27.3109E-03
            1447     3.05561E-03     70.4968E-03    -96.4566E+06    -170.050E+06    -72.6962E+06     2.09784E+06    -163.959E-03     327.954E-03    -163.995E-03     22.1021E-03    -164.068E-03     327.330E-03    -163.972E-03     22.1118E-03
            1448     2.29156E-03     70.4695E-03    -102.828E+06    -187.463E+06    -90.0901E+06    -329.342E+03    -164.143E-03     328.068E-03    -163.925E-03     16.5012E-03    -164.223E-03     327.380E-03    -163.955E-03     16.5113E-03
            1449     1.52774E-03     70.4544E-03    -103.932E+06    -200.440E+06    -98.7237E+06    -2.13560E+06    -164.032E-03     327.867E-03    -163.835E-03     11.2972E-03    -164.092E-03     327.134E-03    -163.887E-03     11.2743E-03
            1450     763.911E-06     70.4402E-03    -106.250E+06    -211.696E+06    -105.659E+06    -2.12128E+06    -163.595E-03     327.625E-03    -164.030E-03     6.60955E-03    -163.616E-03     326.899E-03    -164.098E-03     6.59040E-03
            1451     14.5179E-03     70.1924E-03    -3.41778E+06     73.6139E+06     83.6670E+06    -683.743E+03    -163.583E-03     327.658E-03    -164.075E-03     62.2577E-03    -164.021E-03     328.103E-03    -163.758E-03     59.7917E-03
            1452     13.7511E-03     70.1145E-03    -12.2694E+06     63.5204E+06     76.8785E+06     2.20112E+06    -164.952E-03     329.045E-03    -164.092E-03     67.9144E-03    -165.429E-03     329.480E-03    -163.782E-03     65.4682E-03
            1453     12.9890E-03     70.0269E-03    -16.6798E+06     52.0818E+06     71.2112E+06     4.94075E+06    -164.899E-03     328.985E-03    -164.085E-03     69.9221E-03    -165.359E-03     329.363E-03    -163.781E-03     67.7376E-03
            1454     12.2227E-03     69.9393E-03    -18.3348E+06     51.2927E+06     68.9368E+06     1.07595E+06    -163.845E-03     327.960E-03    -164.115E-03     69.3049E-03    -164.295E-03     328.326E-03    -163.818E-03     67.2194E-03
            1455     11.4583E-03     69.8546E-03    -19.4129E+06     52.5985E+06     65.3768E+06     1.17781E+06    -163.603E-03     327.780E-03    -164.177E-03     66.5719E-03    -164.039E-03     328.144E-03    -163.898E-03     64.6123E-03
            1456     10.6944E-03     69.7716E-03    -30.1224E+06     40.1550E+06     50.0095E+06     5.41706E+06    -165.163E-03     329.334E-03    -164.170E-03     64.2819E-03    -165.579E-03     329.640E-03    -163.935E-03     62.6884E-03
            1457     9.93264E-03     69.6874E-03    -34.5478E+06     26.7692E+06     42.5036E+06     2.12547E+06    -165.613E-03     329.734E-03    -164.121E-03     62.4534E-03    -165.993E-03     329.963E-03    -163.897E-03     61.0849E-03
            1458     9.16819E-03     69.6118E-03    -44.4283E+06    -8.04769E+06     28.7070E+06    -2.56350E+06    -164.649E-03     328.739E-03    -164.090E-03     58.7470E-03    -164.988E-03     328.809E-03    -163.870E-03     57.5028E-03
            1459     8.40261E-03     69.5371E-03    -47.3336E+06    -32.4113E+06     23.9554E+06    -1.38614E+06    -164.916E-03     329.009E-03    -164.092E-03     53.6256E-03    -165.201E-03     328.941E-03    -163.857E-03     52.6575E-03
            1460     7.63945E-03     69.4666E-03    -45.1663E+06    -46.2318E+06     23.0965E+06     1.65874E+06    -165.929E-03     329.939E-03    -164.009E-03     48.5580E-03    -166.163E-03     329.781E-03    -163.761E-03     47.8171E-03
            1461     6.87962E-03     69.4016E-03    -61.3335E+06    -81.2961E+06    -444.113E+03     1.02705E+06    -165.212E-03     329.037E-03    -163.826E-03     45.2658E-03    -165.428E-03     328.749E-03    -163.621E-03     44.7072E-03
            1462     6.11524E-03     69.3455E-03    -69.6068E+06    -102.725E+06    -14.4215E+06     212.473E+03    -163.232E-03     327.020E-03    -163.788E-03     41.9250E-03    -163.426E-03     326.643E-03    -163.610E-03     41.5855E-03
            1463     5.34815E-03     69.2962E-03    -72.2169E+06    -117.491E+06    -25.2242E+06    -1.01278E+06    -162.831E-03     326.728E-03    -163.897E-03     36.7516E-03    -162.988E-03     326.285E-03    -163.748E-03     36.5124E-03
            1464     4.58266E-03     69.2500E-03     -83.648E+06    -141.406E+06    -42.4038E+06    -4.06628E+06    -163.823E-03     327.793E-03    -163.970E-03     30.9818E-03    -163.967E-03     327.261E-03    -163.856E-03     30.7601E-03
            1465     3.82000E-03     69.2147E-03    -92.1265E+06    -157.246E+06    -54.3274E+06    -1.79450E+06    -164.162E-03     328.107E-03    -163.945E-03     26.3406E-03    -164.303E-03     327.520E-03    -163.855E-03     26.2247E-03
            1466     3.05562E-03     69.1797E-03    -92.6405E+06    -165.468E+06    -65.5626E+06     2.27997E+06    -163.765E-03     327.664E-03    -163.900E-03     21.5614E-03    -163.873E-03     327.048E-03    -163.853E-03     21.5675E-03
            1467     2.29184E-03     69.1563E-03    -97.8964E+06    -181.957E+06    -84.6351E+06     1.08656E+06    -163.629E-03     327.537E-03    -163.908E-03     16.3488E-03    -163.701E-03     326.863E-03    -163.926E-03     16.3869E-03
            1468     1.52790E-03     69.1368E-03    -105.736E+06    -202.349E+06    -100.143E+06    -1.44303E+06    -163.966E-03     327.892E-03    -163.926E-03     11.6296E-03    -164.029E-03     327.153E-03    -163.980E-03     11.6538E-03
            1469     764.619E-06     69.1274E-03    -108.916E+06    -215.111E+06    -106.865E+06     196.483E+03    -163.558E-03     327.890E-03    -164.333E-03     6.96555E-03    -163.581E-03     327.150E-03    -164.397E-03     6.97109E-03
            1470     14.5131E-03     68.8772E-03    -2.10224E+06     74.1770E+06     84.8281E+06     2.30226E+06    -164.167E-03     328.339E-03    -164.171E-03     63.4094E-03    -164.599E-03     328.780E-03    -163.852E-03     61.0464E-03
            1471     13.7524E-03     68.7959E-03    -7.95090E+06     59.8534E+06     78.7128E+06     2.82810E+06    -165.842E-03     330.000E-03    -164.158E-03     66.4676E-03    -166.298E-03     330.412E-03    -163.839E-03     63.9452E-03
            1472     12.9880E-03     68.7106E-03    -10.6313E+06     51.9005E+06     74.0193E+06    -509.481E+03    -165.394E-03     329.501E-03    -164.107E-03     67.6186E-03    -165.839E-03     329.878E-03    -163.796E-03     65.1821E-03
            1473     12.2253E-03     68.6252E-03    -17.1358E+06     57.4004E+06     71.1267E+06    -1.08796E+06    -164.311E-03     328.405E-03    -164.094E-03     66.5791E-03    -164.774E-03     328.804E-03    -163.797E-03     64.3226E-03
            1474     11.4596E-03     68.5402E-03    -26.6342E+06     51.2289E+06     62.2782E+06     2.58403E+06    -164.673E-03     328.766E-03    -164.092E-03     65.7061E-03    -165.135E-03     329.134E-03    -163.817E-03     63.7774E-03
            1475     10.6957E-03     68.4533E-03    -34.8147E+06     35.6148E+06     47.4648E+06     870.171E+03    -165.207E-03     329.247E-03    -164.040E-03     63.4336E-03    -165.634E-03     329.540E-03    -163.804E-03     61.7778E-03
            1476     9.93076E-03     68.3717E-03    -39.7082E+06     21.2141E+06     38.5410E+06    -2.63547E+06    -164.942E-03     328.936E-03    -163.995E-03     60.4291E-03    -165.339E-03     329.156E-03    -163.775E-03     58.9060E-03
            1477     9.16735E-03     68.2944E-03    -38.9216E+06    -214.319E+03     37.2423E+06    -1.61825E+06    -165.338E-03     329.309E-03    -163.971E-03     57.4736E-03    -165.678E-03     329.402E-03    -163.728E-03     56.1650E-03
            1478     8.40682E-03     68.2204E-03    -49.2961E+06    -33.4175E+06     22.7207E+06     806.179E+03    -165.399E-03     329.280E-03    -163.881E-03     54.7560E-03    -165.691E-03     329.213E-03    -163.648E-03     53.8351E-03
            1479     7.64475E-03     68.1483E-03    -53.9297E+06    -56.0669E+06     15.1514E+06     1.78502E+06    -164.398E-03     328.229E-03    -163.831E-03     51.9795E-03    -164.649E-03     328.045E-03    -163.596E-03     51.3026E-03
            1480     6.87754E-03     68.0879E-03    -51.5206E+06    -69.0446E+06     9.70744E+06     2.51656E+06    -163.722E-03     327.562E-03    -163.840E-03     47.5905E-03    -163.922E-03     327.306E-03    -163.617E-03     47.0615E-03
            1481     6.11132E-03     68.0331E-03    -65.4462E+06    -98.2160E+06    -11.6781E+06     2.51362E+06    -163.726E-03     327.573E-03    -163.847E-03     42.1222E-03    -163.907E-03     327.207E-03    -163.668E-03     41.8315E-03
            1482     5.34853E-03     67.9813E-03    -78.4061E+06    -122.613E+06    -28.7663E+06     1.46765E+06    -163.651E-03     327.517E-03    -163.867E-03     36.8530E-03    -163.826E-03     327.062E-03    -163.719E-03     36.6971E-03
            1483     4.58513E-03     67.9358E-03    -81.9260E+06    -138.543E+06    -41.8257E+06     346.991E+03    -163.823E-03     327.692E-03    -163.869E-03     31.7067E-03    -163.964E-03     327.172E-03    -163.758E-03     31.6041E-03
            1484     3.82053E-03     67.8977E-03    -87.7141E+06    -157.211E+06    -56.4873E+06    -2.05000E+06    -164.109E-03     327.931E-03    -163.822E-03     26.6585E-03    -164.225E-03     327.341E-03    -163.749E-03     26.5773E-03
            1485     3.05722E-03     67.8665E-03    -95.0707E+06    -169.950E+06    -68.9604E+06    -2.14858E+06    -163.771E-03     327.540E-03    -163.769E-03     21.6307E-03    -163.877E-03     326.907E-03    -163.729E-03     21.5777E-03
            1486     2.29173E-03     67.8417E-03    -99.8293E+06    -181.567E+06    -80.9414E+06     990.593E+03    -163.512E-03     327.293E-03    -163.781E-03     16.2748E-03    -163.597E-03     326.615E-03    -163.778E-03     16.2779E-03
            1487     1.52717E-03     67.8221E-03    -103.890E+06    -199.479E+06    -95.7387E+06     2.57286E+06    -163.555E-03     327.425E-03    -163.870E-03     10.8494E-03    -163.615E-03     326.688E-03    -163.909E-03     10.9119E-03
            1488     762.742E-06     67.8110E-03    -106.992E+06    -216.152E+06    -106.364E+06    -558.593E+03    -164.122E-03     327.929E-03    -163.806E-03     6.29758E-03    -164.134E-03     327.173E-03    -163.869E-03     6.27864E-03
            1489     14.5163E-03     67.5598E-03    -3.72049E+06     72.0975E+06     84.6785E+06     2.21425E+06    -165.336E-03     329.493E-03    -164.157E-03     62.0237E-03    -165.774E-03     329.928E-03    -163.833E-03     59.6035E-03
            1490     13.7512E-03     67.4770E-03    -2.99676E+06     64.5601E+06     84.1324E+06    -266.349E+03    -165.332E-03     329.462E-03    -164.130E-03     64.7174E-03    -165.769E-03     329.874E-03    -163.799E-03     62.1986E-03
            1491     12.9896E-03     67.3933E-03    -10.0867E+06     55.2207E+06     77.5069E+06    -2.13776E+06    -165.313E-03     329.402E-03    -164.089E-03     67.0587E-03    -165.766E-03     329.791E-03    -163.767E-03     64.5742E-03
            1492     12.2247E-03     67.3096E-03    -20.5196E+06     50.6157E+06     69.6101E+06     348.403E+03    -165.541E-03     329.573E-03    -164.032E-03     66.5788E-03    -166.008E-03     329.945E-03    -163.727E-03     64.3353E-03
            1493     11.4619E-03     67.2245E-03    -25.3821E+06     47.1808E+06     62.3114E+06     3.29263E+06    -165.676E-03     329.626E-03    -163.950E-03     66.3757E-03    -166.121E-03     329.968E-03    -163.670E-03     64.5032E-03
            1494     10.6993E-03     67.1352E-03    -27.3839E+06     42.9621E+06     55.9624E+06    -1.03662E+06    -165.246E-03     329.116E-03    -163.870E-03     63.0928E-03    -165.662E-03     329.425E-03    -163.613E-03     61.3724E-03
            1495     9.93595E-03     67.0592E-03    -35.7728E+06     31.1792E+06     43.0075E+06     319.871E+03    -164.530E-03     328.335E-03    -163.805E-03     60.0554E-03    -164.931E-03     328.595E-03    -163.583E-03     58.5464E-03
            1496     9.17192E-03     66.9758E-03    -42.7446E+06    -3.99028E+06     31.1721E+06     760.068E+03    -164.213E-03     328.024E-03    -163.811E-03     59.0537E-03    -164.554E-03     328.109E-03    -163.587E-03     57.8528E-03
            1497     8.40631E-03     66.9045E-03    -45.9094E+06    -33.8422E+06     22.4300E+06    -1.83560E+06    -163.926E-03     327.775E-03    -163.849E-03     56.7541E-03    -164.199E-03     327.700E-03    -163.621E-03     55.8364E-03
            1498     7.63896E-03     66.8359E-03    -55.7878E+06    -59.2373E+06     8.72743E+06    -1.13342E+06    -163.712E-03     327.602E-03    -163.890E-03     52.5930E-03    -163.956E-03     327.412E-03    -163.680E-03     51.9277E-03
            1499     6.87515E-03     66.7740E-03    -66.4102E+06    -83.7996E+06    -2.14094E+06    -975.925E+03    -164.220E-03     328.142E-03    -163.921E-03     46.4661E-03    -164.456E-03     327.850E-03    -163.714E-03     45.9040E-03
            1500     6.11378E-03     66.7152E-03    -68.0618E+06    -95.6181E+06    -10.6698E+06     3.17633E+06    -164.348E-03     328.229E-03    -163.882E-03     40.4726E-03    -164.549E-03     327.881E-03    -163.698E-03     40.0953E-03
            1501     5.34932E-03     66.6678E-03    -70.7284E+06    -115.212E+06    -24.0839E+06     2.35730E+06    -163.736E-03     327.586E-03    -163.851E-03     36.8694E-03    -163.890E-03     327.150E-03    -163.701E-03     36.6720E-03
            1502     4.58379E-03     66.6210E-03    -79.6965E+06    -136.403E+06    -39.6544E+06     147.265E+03    -163.637E-03     327.506E-03    -163.868E-03     33.2591E-03    -163.773E-03     326.990E-03    -163.753E-03     33.1682E-03
            1503     3.82011E-03     66.5826E-03    -86.4272E+06    -154.207E+06    -54.2361E+06     791.319E+03    -163.944E-03     327.806E-03    -163.861E-03     27.3766E-03    -164.063E-03     327.228E-03    -163.784E-03     27.3326E-03
            1504     3.05554E-03     66.5516E-03    -94.1759E+06    -172.817E+06    -71.9189E+06    -175.965E+03    -164.139E-03     327.908E-03    -163.770E-03     21.7980E-03    -164.237E-03     327.269E-03    -163.742E-03     21.7724E-03
            1505     2.29313E-03     66.5270E-03    -100.541E+06    -184.959E+06    -85.4139E+06    -1.26634E+06    -163.992E-03     327.626E-03    -163.634E-03     16.6442E-03    -164.076E-03     326.945E-03    -163.647E-03     16.6269E-03
            1506     1.52937E-03     66.5082E-03    -103.455E+06    -197.789E+06    -93.5976E+06     272.618E+03    -163.725E-03     327.235E-03    -163.509E-03     10.9805E-03    -163.792E-03     326.506E-03    -163.540E-03     11.0042E-03
            1507     764.761E-06     66.4971E-03    -106.817E+06    -215.115E+06    -103.986E+06     1.05026E+06    -163.640E-03     326.928E-03    -163.288E-03     6.93822E-03    -163.655E-03     326.172E-03    -163.342E-03     6.94540E-03
            1508     14.5177E-03     66.2396E-03    -7.11527E+06     71.1760E+06     83.1287E+06    -978.173E+03    -165.197E-03     329.285E-03    -164.088E-03     62.5128E-03    -165.662E-03     329.736E-03    -163.765E-03     59.9295E-03
            1509     13.7553E-03     66.1646E-03    -9.03869E+06     66.7588E+06     82.1400E+06    -835.196E+03    -164.638E-03     328.717E-03    -164.078E-03     66.0232E-03    -165.104E-03     329.149E-03    -163.751E-03     63.5611E-03
            1510     12.9877E-03     66.0754E-03    -13.3717E+06     58.1174E+06     77.5048E+06    -323.426E+03    -165.517E-03     329.572E-03    -164.055E-03     67.5378E-03    -165.990E-03     329.979E-03    -163.732E-03     65.1070E-03
            1511     12.2260E-03     65.9927E-03    -18.2278E+06     48.7381E+06     72.0185E+06    -1.47894E+06    -166.279E-03     330.255E-03    -163.976E-03     66.2369E-03    -166.740E-03     330.615E-03    -163.660E-03     63.9139E-03
            1512     11.4637E-03     65.9048E-03    -20.4663E+06     46.4561E+06     65.8451E+06    -195.581E+03    -165.667E-03     329.534E-03    -163.867E-03     66.6834E-03    -166.096E-03     329.864E-03    -163.575E-03     64.7440E-03
            1513     10.6993E-03     65.8218E-03    -24.6184E+06     43.3185E+06     54.3419E+06     1.95443E+06    -164.577E-03     328.363E-03    -163.786E-03     65.3284E-03    -164.976E-03     328.671E-03    -163.542E-03     63.7192E-03
            1514     9.93545E-03     65.7400E-03    -27.9556E+06     32.5454E+06     45.4986E+06     2.46660E+06    -164.068E-03     327.851E-03    -163.783E-03     63.5029E-03    -164.433E-03     328.100E-03    -163.562E-03     62.1262E-03
            1515     9.16972E-03     65.6665E-03    -40.4779E+06    -5.62518E+06     30.0449E+06     2.68550E+06    -163.841E-03     327.670E-03    -163.829E-03     61.2324E-03    -164.160E-03     327.739E-03    -163.612E-03     60.1772E-03
            1516     8.40383E-03     65.5889E-03    -50.5479E+06    -37.3263E+06     19.0626E+06     150.289E+03    -163.971E-03     327.859E-03    -163.888E-03     55.7722E-03    -164.256E-03     327.777E-03    -163.665E-03     54.8848E-03
            1517     7.64172E-03     65.5223E-03    -54.6813E+06    -53.2988E+06     12.3216E+06     1.94598E+06    -164.477E-03     328.374E-03    -163.897E-03     50.4317E-03    -164.730E-03     328.208E-03    -163.679E-03     49.7674E-03
            1518     6.87835E-03     65.4557E-03    -65.8003E+06    -85.1292E+06    -6.40999E+06    -231.118E+03    -164.182E-03     328.039E-03    -163.857E-03     45.6678E-03    -164.405E-03     327.745E-03    -163.670E-03     45.1322E-03
            1519     6.11275E-03     65.4017E-03    -72.6029E+06    -102.900E+06    -17.7862E+06    -1.91135E+06    -163.601E-03     327.467E-03    -163.866E-03     41.2407E-03    -163.807E-03     327.101E-03    -163.700E-03     40.7986E-03
            1520     5.34792E-03     65.3529E-03    -71.9890E+06    -111.161E+06    -23.0017E+06     1.62763E+06    -163.926E-03     327.817E-03    -163.891E-03     37.3172E-03    -164.096E-03     327.404E-03    -163.741E-03     37.0680E-03
            1521     4.58438E-03     65.3071E-03    -78.6603E+06    -134.920E+06    -38.9710E+06     261.183E+03    -163.907E-03     327.780E-03    -163.873E-03     32.3441E-03    -164.039E-03     327.267E-03    -163.758E-03     32.1739E-03
            1522     3.81959E-03     65.2671E-03    -91.0876E+06    -158.362E+06    -57.7102E+06    -1.74867E+06    -163.736E-03     327.593E-03    -163.857E-03     26.8343E-03    -163.858E-03     326.997E-03    -163.784E-03     26.7175E-03
            1523     3.05659E-03     65.2361E-03    -94.9845E+06    -171.208E+06    -70.0347E+06    -501.920E+03    -163.962E-03     327.786E-03    -163.824E-03     21.4489E-03    -164.063E-03     327.146E-03    -163.788E-03     21.4410E-03
            1524     2.29180E-03     65.2114E-03    -99.3244E+06    -183.942E+06    -86.1105E+06    -368.848E+03    -163.998E-03     327.713E-03    -163.715E-03     16.7769E-03    -164.074E-03     327.035E-03    -163.735E-03     16.8172E-03
            1525     1.52789E-03     65.1943E-03    -106.484E+06    -201.443E+06    -99.8854E+06    -1.86523E+06    -164.111E-03     327.611E-03    -163.501E-03     12.0622E-03    -164.176E-03     326.877E-03    -163.554E-03     12.0654E-03
            1526     765.040E-06     65.1821E-03    -111.279E+06    -214.804E+06    -105.999E+06     254.208E+03    -163.343E-03     326.753E-03    -163.410E-03     6.04862E-03    -163.376E-03     326.005E-03    -163.467E-03     6.11104E-03
            1527     14.5171E-03     64.9278E-03    -6.04583E+06     72.8264E+06     83.3260E+06    -2.16112E+06    -164.672E-03     328.720E-03    -164.048E-03     61.9020E-03    -165.142E-03     329.185E-03    -163.728E-03     59.2091E-03
            1528     13.7503E-03     64.8456E-03    -14.1004E+06     66.4057E+06     79.0751E+06    -2.05040E+06    -165.289E-03     329.313E-03    -164.025E-03     65.1675E-03    -165.784E-03     329.764E-03    -163.705E-03     62.5797E-03
            1529     12.9909E-03     64.7603E-03    -17.2943E+06     57.0956E+06     74.9322E+06    -1.33260E+06    -165.458E-03     329.438E-03    -163.980E-03     66.9668E-03    -165.943E-03     329.847E-03    -163.663E-03     64.5255E-03
            1530     12.2272E-03     64.6716E-03    -18.8499E+06     47.5014E+06     68.2436E+06    -3.22742E+06    -165.202E-03     329.125E-03    -163.923E-03     67.6529E-03    -165.657E-03     329.485E-03    -163.624E-03     65.3540E-03
            1531     11.4634E-03     64.5913E-03    -21.7942E+06     44.8461E+06     61.3292E+06    -2.59068E+06    -164.581E-03     328.467E-03    -163.886E-03     67.8060E-03    -165.012E-03     328.802E-03    -163.613E-03     65.8241E-03
            1532     10.6988E-03     64.5054E-03    -27.8812E+06     39.8585E+06     50.4945E+06     1.82417E+06    -163.658E-03     327.550E-03    -163.892E-03     66.7398E-03    -164.065E-03     327.853E-03    -163.657E-03     65.1551E-03
            1533     9.93198E-03     64.4288E-03    -38.0679E+06     23.2187E+06     38.6120E+06     2.83215E+06    -164.372E-03     328.297E-03    -163.925E-03     64.2431E-03    -164.762E-03     328.522E-03    -163.710E-03     62.9203E-03
            1534     9.16861E-03     64.3476E-03    -41.2271E+06     4.06341E+06     35.7314E+06     3.78516E+06    -165.251E-03     329.180E-03    -163.929E-03     59.8179E-03    -165.599E-03     329.292E-03    -163.696E-03     58.7369E-03
            1535     8.40699E-03     64.2756E-03    -50.7714E+06    -31.1396E+06     21.1787E+06     4.15838E+06    -164.965E-03     328.832E-03    -163.868E-03     55.4985E-03    -165.265E-03     328.781E-03    -163.643E-03     54.6275E-03
            1536     7.64159E-03     64.2045E-03    -57.7184E+06    -62.0914E+06     6.99041E+06     1.66940E+06    -164.331E-03     328.155E-03    -163.825E-03     51.6024E-03    -164.584E-03     327.963E-03    -163.616E-03     50.8892E-03
            1537     6.87724E-03     64.1424E-03    -51.4056E+06    -72.0897E+06     5.03528E+06     787.872E+03    -163.404E-03     327.267E-03    -163.863E-03     46.0198E-03    -163.592E-03     327.002E-03    -163.659E-03     45.4736E-03
            1538     6.11179E-03     64.0896E-03    -62.4835E+06    -96.4058E+06    -10.3149E+06    -645.561E+03    -163.620E-03     327.537E-03    -163.917E-03     41.6346E-03    -163.793E-03     327.176E-03    -163.738E-03     41.2638E-03
            1539     5.34818E-03     64.0350E-03    -82.9445E+06    -122.947E+06    -30.9688E+06    -1.09925E+06    -164.382E-03     328.273E-03    -163.892E-03     36.9139E-03    -164.578E-03     327.829E-03    -163.748E-03     36.6662E-03
            1540     4.58516E-03     63.9923E-03    -86.2754E+06    -136.559E+06    -41.6488E+06     1.82313E+06    -164.009E-03     327.839E-03    -163.829E-03     31.7826E-03    -164.177E-03     327.336E-03    -163.714E-03     31.6569E-03
            1541     3.82106E-03     63.9535E-03    -86.1663E+06    -152.373E+06    -54.8158E+06     1.90044E+06    -163.508E-03     327.326E-03    -163.817E-03     27.5772E-03    -163.623E-03     326.752E-03    -163.745E-03     27.5479E-03
            1542     3.05562E-03     63.9207E-03    -95.6549E+06    -172.010E+06    -73.0794E+06    -1.44735E+06    -163.759E-03     327.581E-03    -163.822E-03     21.9206E-03    -163.859E-03     326.943E-03    -163.799E-03     21.8989E-03
            1543     2.29205E-03     63.8975E-03    -102.741E+06    -186.827E+06    -87.0837E+06    -1.23214E+06    -163.978E-03     327.744E-03    -163.766E-03     15.8374E-03    -164.066E-03     327.058E-03    -163.782E-03     15.8363E-03
            1544     1.52808E-03     63.8782E-03    -105.645E+06    -200.765E+06    -98.8494E+06     154.773E+03    -163.741E-03     327.436E-03    -163.696E-03     11.0060E-03    -163.807E-03     326.704E-03    -163.745E-03     11.0200E-03
            1545     763.748E-06     63.8679E-03    -108.896E+06    -215.773E+06    -108.921E+06    -1.14417E+06    -163.964E-03     327.404E-03    -163.439E-03     5.14074E-03    -163.984E-03     326.654E-03    -163.513E-03     5.18873E-03
            1546     14.5177E-03     63.6118E-03    -4.99479E+06     74.0585E+06     85.9285E+06    -832.812E+03    -165.372E-03     329.350E-03    -163.978E-03     60.9570E-03    -165.832E-03     329.806E-03    -163.649E-03     58.3444E-03
            1547     13.7581E-03     63.5273E-03    -9.20917E+06     69.7290E+06     84.4636E+06    -1.67756E+06    -165.290E-03     329.225E-03    -163.935E-03     64.1049E-03    -165.773E-03     329.677E-03    -163.600E-03     61.4953E-03
            1548     12.9916E-03     63.4441E-03    -16.2535E+06     56.4438E+06     72.6457E+06    -3.07181E+06    -163.696E-03     327.606E-03    -163.910E-03     67.0214E-03    -164.168E-03     328.009E-03    -163.605E-03     64.6278E-03
            1549     12.2253E-03     63.3590E-03    -20.5248E+06     45.8038E+06     61.9739E+06    -2.56196E+06    -163.167E-03     327.125E-03    -163.958E-03     69.5873E-03    -163.607E-03     327.476E-03    -163.685E-03     67.4911E-03
            1550     11.4605E-03     63.2728E-03    -27.2013E+06     40.0402E+06     54.2019E+06    -1.89410E+06    -163.642E-03     327.676E-03    -164.034E-03     68.5917E-03    -164.079E-03     328.001E-03    -163.781E-03     66.6745E-03
            1551     10.6948E-03     63.1951E-03    -36.6993E+06     32.8237E+06     46.6554E+06    -724.779E+03    -164.674E-03     328.746E-03    -164.072E-03     67.0330E-03    -165.112E-03     329.035E-03    -163.833E-03     65.3862E-03
            1552     9.93172E-03     63.1101E-03    -42.8497E+06     27.9923E+06     41.2484E+06     3.73956E+06    -165.834E-03     329.863E-03    -164.029E-03     64.0607E-03    -166.256E-03     330.113E-03    -163.801E-03     62.7688E-03
            1553     9.16982E-03     63.0298E-03    -44.9052E+06     6.77639E+06     32.5236E+06     3.03958E+06    -165.757E-03     329.685E-03    -163.928E-03     58.8083E-03    -166.127E-03     329.826E-03    -163.710E-03     57.6269E-03
            1554     8.40458E-03     62.9601E-03    -44.3682E+06    -28.3513E+06     22.5175E+06    -276.626E+03    -164.822E-03     328.681E-03    -163.859E-03     55.3081E-03    -165.103E-03     328.638E-03    -163.641E-03     54.2894E-03
            1555     7.64211E-03     62.8887E-03    -51.3555E+06    -59.8962E+06     10.2439E+06    -3.60562E+06    -163.664E-03     327.533E-03    -163.868E-03     51.4487E-03    -163.897E-03     327.341E-03    -163.656E-03     50.5960E-03
            1556     6.87652E-03     62.8310E-03    -64.5365E+06    -80.3707E+06    -419.881E+03     940.987E+03    -163.656E-03     327.586E-03    -163.930E-03     46.3911E-03    -163.890E-03     327.307E-03    -163.722E-03     45.8686E-03
            1557     6.11272E-03     62.7719E-03    -67.5816E+06    -93.4824E+06    -8.65437E+06     5.86152E+06    -164.353E-03     328.286E-03    -163.933E-03     42.0848E-03    -164.555E-03     327.942E-03    -163.743E-03     41.8349E-03
            1558     5.34915E-03     62.7210E-03    -73.6827E+06    -117.190E+06    -27.6520E+06     1.64029E+06    -164.092E-03     327.959E-03    -163.867E-03     36.9739E-03    -164.251E-03     327.521E-03    -163.729E-03     36.7845E-03
            1559     4.58399E-03     62.6765E-03    -85.0235E+06    -140.437E+06    -44.0882E+06    -2.13743E+06    -163.831E-03     327.673E-03    -163.842E-03     31.8289E-03    -163.980E-03     327.150E-03    -163.736E-03     31.6665E-03
            1560     3.81966E-03     62.6400E-03    -88.3489E+06    -151.279E+06    -52.4070E+06     848.583E+03    -163.818E-03     327.656E-03    -163.838E-03     27.3678E-03    -163.951E-03     327.090E-03    -163.752E-03     27.2856E-03
            1561     3.05596E-03     62.6059E-03    -93.5766E+06    -167.664E+06    -69.9817E+06     2.92622E+06    -163.850E-03     327.635E-03    -163.785E-03     21.8646E-03    -163.954E-03     327.016E-03    -163.756E-03     21.8741E-03
            1562     2.29260E-03     62.5808E-03    -102.153E+06    -188.305E+06    -87.7472E+06     69.4115E+03    -163.854E-03     327.571E-03    -163.717E-03     15.7573E-03    -163.938E-03     326.879E-03    -163.734E-03     15.7604E-03
            1563     1.52865E-03     62.5657E-03    -107.374E+06    -200.395E+06    -98.3181E+06     434.996E+03    -163.505E-03     327.235E-03    -163.729E-03     11.0063E-03    -163.583E-03     326.507E-03    -163.774E-03     11.0427E-03
            1564     763.563E-06     62.5531E-03    -109.558E+06    -215.769E+06    -106.899E+06     664.202E+03    -163.236E-03     327.592E-03    -164.356E-03     6.23192E-03    -163.265E-03     326.842E-03    -164.419E-03     6.26938E-03
            1565     14.5208E-03     62.2910E-03    -4.91869E+06     72.1777E+06     85.8917E+06    -508.736E+03    -164.583E-03     328.495E-03    -163.912E-03     62.1553E-03    -165.034E-03     328.935E-03    -163.580E-03     59.6549E-03
            1566     13.7552E-03     62.2115E-03    -6.76150E+06     70.5609E+06     85.4028E+06    -145.119E+03    -163.431E-03     327.374E-03    -163.943E-03     67.3665E-03    -163.900E-03     327.822E-03    -163.609E-03     64.9123E-03
            1567     12.9908E-03     62.1323E-03    -11.3795E+06      60.432E+06     75.6235E+06    -749.009E+03    -163.223E-03     327.219E-03    -163.997E-03     69.2865E-03    -163.681E-03     327.633E-03    -163.690E-03     66.9563E-03
            1568     12.2247E-03     62.0464E-03    -22.8153E+06     46.9166E+06     61.0859E+06     404.745E+03    -162.909E-03     326.981E-03    -164.072E-03     69.7303E-03    -163.361E-03     327.341E-03    -163.801E-03     67.6844E-03
            1569     11.4574E-03     61.9598E-03    -34.2817E+06     38.5156E+06     51.0440E+06     363.332E+03    -164.101E-03     328.246E-03    -164.145E-03     67.7082E-03    -164.558E-03     328.570E-03    -163.896E-03     65.8930E-03
            1570     10.6942E-03     61.8769E-03    -36.9078E+06     33.4884E+06     45.8827E+06    -841.153E+03    -166.152E-03     330.266E-03    -164.114E-03     65.1583E-03    -166.589E-03     330.558E-03    -163.880E-03     63.4748E-03
            1571     9.93283E-03     61.7896E-03    -34.1926E+06     29.1596E+06     44.7595E+06    -1.17988E+06    -166.113E-03     330.126E-03    -164.013E-03     62.4993E-03    -166.500E-03     330.366E-03    -163.782E-03     61.0893E-03
            1572     9.16852E-03     61.7157E-03    -42.3191E+06     352.438E+03     30.2511E+06    -2.11996E+06    -165.225E-03     329.137E-03    -163.911E-03     58.0950E-03    -165.569E-03     329.243E-03    -163.699E-03     56.8472E-03
            1573     8.40688E-03     61.6411E-03    -51.4602E+06    -34.8093E+06     17.5781E+06    -2.23001E+06    -164.166E-03     328.059E-03    -163.893E-03     54.2478E-03    -164.465E-03     328.001E-03    -163.680E-03     53.1948E-03
            1574     7.64030E-03     61.5787E-03    -55.6195E+06    -54.7681E+06     12.0600E+06     212.267E+03    -163.551E-03     327.502E-03    -163.951E-03     51.1466E-03    -163.812E-03     327.336E-03    -163.731E-03     50.3786E-03
            1575     6.87557E-03     61.5137E-03    -65.7883E+06    -79.1206E+06    -2.80900E+06     1.40297E+06    -164.273E-03     328.244E-03    -163.971E-03     47.2454E-03    -164.508E-03     327.973E-03    -163.775E-03     46.7796E-03
            1576     6.11267E-03     61.4565E-03    -72.1947E+06    -99.4513E+06    -14.1514E+06     710.053E+03    -164.329E-03     328.276E-03    -163.947E-03     42.1356E-03    -164.540E-03     327.918E-03    -163.769E-03     41.8040E-03
            1577     5.34799E-03     61.4061E-03    -73.0170E+06    -110.986E+06    -22.7096E+06     2.39983E+06    -163.904E-03     327.830E-03    -163.926E-03     37.1980E-03    -164.078E-03     327.417E-03    -163.773E-03     36.9840E-03
            1578     4.58440E-03     61.3624E-03    -80.4123E+06    -135.080E+06    -41.8828E+06     255.941E+03    -164.222E-03     328.092E-03    -163.870E-03     31.9545E-03    -164.355E-03     327.583E-03    -163.767E-03     31.7829E-03
            1579     3.82083E-03     61.3237E-03    -94.0782E+06    -159.606E+06    -60.5621E+06    -3.38802E+06    -164.402E-03     328.157E-03    -163.755E-03     26.7365E-03    -164.531E-03     327.561E-03    -163.690E-03     26.5643E-03
            1580     3.05713E-03     61.2915E-03    -97.0623E+06    -168.727E+06    -67.8673E+06     7.68604E+03    -163.651E-03     327.332E-03    -163.681E-03     21.2328E-03    -163.764E-03     326.699E-03    -163.635E-03     21.1989E-03
            1581     2.29167E-03     61.2669E-03    -99.7055E+06    -182.867E+06    -82.5621E+06     2.90264E+06    -163.327E-03     327.028E-03    -163.701E-03     15.7199E-03    -163.408E-03     326.345E-03    -163.704E-03     15.7845E-03
            1582     1.52742E-03     61.2503E-03    -108.254E+06    -201.808E+06    -100.301E+06     602.632E+03    -163.826E-03     327.513E-03    -163.686E-03     10.5359E-03    -163.901E-03     326.779E-03    -163.738E-03     10.5656E-03
            1583     764.280E-06     61.2393E-03    -111.414E+06    -214.709E+06    -107.308E+06    -77.2175E+03    -163.208E-03     327.330E-03    -164.122E-03     5.56639E-03    -163.246E-03     326.585E-03    -164.185E-03     5.58097E-03
            1584     14.5207E-03     60.9793E-03    -2.30000E+06     72.6918E+06     84.5358E+06     742.529E+03    -163.100E-03     327.083E-03    -163.983E-03     64.0891E-03    -163.535E-03     327.523E-03    -163.662E-03     61.6790E-03
            1585     13.7520E-03     60.9018E-03    -10.0349E+06     67.8023E+06     80.1309E+06     596.175E+03    -163.050E-03     327.117E-03    -164.067E-03     67.7662E-03    -163.519E-03     327.559E-03    -163.750E-03     65.3850E-03
            1586     12.9860E-03     60.8125E-03    -16.8544E+06     56.4130E+06     73.6720E+06     695.565E+03    -164.116E-03     328.249E-03    -164.132E-03     67.9871E-03    -164.594E-03     328.653E-03    -163.821E-03     65.6250E-03
            1587     12.2229E-03     60.7351E-03    -21.4650E+06     49.2422E+06     67.8470E+06     2.92638E+06    -165.189E-03     329.321E-03    -164.133E-03     67.2505E-03    -165.661E-03     329.695E-03    -163.834E-03     65.0055E-03
            1588     11.4593E-03     60.6439E-03    -25.5200E+06     47.3620E+06     60.0644E+06     2.00489E+06    -165.480E-03     329.551E-03    -164.070E-03     65.9382E-03    -165.926E-03     329.899E-03    -163.802E-03     64.0272E-03
            1589     10.6976E-03     60.5556E-03    -32.4663E+06     36.0452E+06     45.3944E+06    -2.29879E+06    -165.396E-03     329.374E-03    -163.978E-03     64.3443E-03    -165.810E-03     329.669E-03    -163.756E-03     62.6763E-03
            1590     9.93322E-03     60.4757E-03    -39.1599E+06     19.5749E+06     36.9605E+06    -4.40418E+06    -164.895E-03     328.831E-03    -163.937E-03     61.9502E-03    -165.279E-03     329.039E-03    -163.724E-03     60.5270E-03
            1591     9.17005E-03     60.3969E-03    -46.3083E+06    -4.17019E+06     29.1871E+06    -2.89075E+06    -164.074E-03     328.028E-03    -163.954E-03     58.6307E-03    -164.422E-03     328.112E-03    -163.735E-03     57.4745E-03
            1592     8.40384E-03     60.3286E-03    -51.8788E+06    -32.1940E+06     20.4249E+06    -2.01521E+06    -164.225E-03     328.216E-03    -163.991E-03     54.6317E-03    -164.530E-03     328.164E-03    -163.767E-03     53.6376E-03
            1593     7.63992E-03     60.2641E-03    -55.6525E+06    -54.0464E+06     12.4977E+06     734.101E+03    -164.685E-03     328.671E-03    -163.986E-03     50.4499E-03    -164.945E-03     328.506E-03    -163.764E-03     49.7176E-03
            1594     6.87690E-03     60.1966E-03    -57.7270E+06    -72.9978E+06     2.00095E+06    -495.543E+03    -164.046E-03     328.010E-03    -163.963E-03     46.3613E-03    -164.257E-03     327.751E-03    -163.764E-03     45.8409E-03
            1595     6.11193E-03     60.1424E-03    -69.9714E+06    -101.337E+06    -15.2746E+06    -2.32425E+06    -163.705E-03     327.689E-03    -163.984E-03     42.0251E-03    -163.900E-03     327.320E-03    -163.811E-03     41.6303E-03
            1596     5.34796E-03     60.0907E-03    -80.1947E+06    -119.285E+06    -27.2382E+06    -1.34864E+06    -164.230E-03     328.222E-03    -163.991E-03     37.4376E-03    -164.424E-03     327.786E-03    -163.838E-03     37.1364E-03
            1597     4.58376E-03     60.0467E-03    -82.0563E+06    -130.935E+06    -37.6029E+06     2.13672E+06    -164.597E-03     328.499E-03    -163.902E-03     32.2431E-03    -164.758E-03     328.013E-03    -163.781E-03     32.0812E-03
            1598     3.82079E-03     60.0069E-03    -88.2016E+06    -152.676E+06    -57.5029E+06     1.90337E+06    -164.370E-03     328.107E-03    -163.737E-03     26.7754E-03    -164.489E-03     327.538E-03    -163.675E-03     26.7276E-03
            1599     3.05707E-03     59.9782E-03    -99.0152E+06    -175.864E+06    -74.6345E+06    -3.05310E+06    -163.781E-03     327.410E-03    -163.630E-03     21.2764E-03    -163.887E-03     326.758E-03    -163.604E-03     21.2087E-03
            1600     2.29279E-03     59.9538E-03    -103.728E+06    -185.364E+06    -83.5556E+06     74.7991E+03    -163.489E-03     327.099E-03    -163.610E-03     16.0965E-03    -163.587E-03     326.414E-03    -163.609E-03     16.1243E-03
            1601     1.52868E-03     59.9344E-03    -105.248E+06    -196.790E+06    -96.8888E+06     1.77053E+06    -163.625E-03     327.197E-03    -163.572E-03     10.7083E-03    -163.700E-03     326.482E-03    -163.619E-03     10.7473E-03
            1602     764.802E-06     59.9249E-03    -108.326E+06    -214.314E+06    -108.936E+06    -21.3850E+03    -163.940E-03     327.132E-03    -163.192E-03     5.89882E-03    -163.963E-03     326.387E-03    -163.269E-03     5.88576E-03
            1603     14.5121E-03     59.6655E-03    -5.10111E+06     71.7660E+06     82.0506E+06     2.34285E+06    -163.945E-03     328.055E-03    -164.110E-03     63.3778E-03    -164.389E-03     328.498E-03    -163.797E-03     60.9685E-03
            1604     13.7527E-03     59.5824E-03    -10.1655E+06     69.9767E+06     83.0813E+06     1.34572E+06    -165.201E-03     329.331E-03    -164.130E-03     64.6358E-03    -165.688E-03     329.789E-03    -163.802E-03     62.0750E-03
            1605     12.9883E-03     59.5037E-03    -15.0264E+06     59.2109E+06     77.6836E+06     121.745E+03    -165.285E-03     329.380E-03    -164.094E-03     65.0332E-03    -165.766E-03     329.791E-03    -163.770E-03     62.5668E-03
            1606     12.2245E-03     59.4100E-03    -21.3972E+06     45.6568E+06     65.5099E+06    -1.23526E+06    -166.007E-03     330.011E-03    -164.003E-03     65.6852E-03    -166.465E-03     330.364E-03    -163.711E-03     63.3954E-03
            1607     11.4652E-03     59.3287E-03    -23.1437E+06     44.2188E+06     59.0070E+06     987.103E+03    -165.416E-03     329.326E-03    -163.910E-03     66.1574E-03    -165.842E-03     329.655E-03    -163.646E-03     64.2543E-03
            1608     10.6976E-03     59.2420E-03    -25.2438E+06     41.6712E+06     51.9924E+06     2.67828E+06    -164.145E-03     328.023E-03    -163.878E-03     65.5972E-03    -164.529E-03     328.315E-03    -163.642E-03     64.1528E-03
            1609     9.93347E-03     59.1584E-03    -37.6758E+06     19.7578E+06     37.8090E+06    -1.89827E+06    -163.522E-03     327.443E-03    -163.921E-03     61.9410E-03    -163.897E-03     327.645E-03    -163.706E-03     60.5855E-03
            1610     9.16726E-03     59.0852E-03    -43.8617E+06    -4.58154E+06     31.0931E+06    -3.47981E+06    -163.681E-03     327.694E-03    -164.014E-03     58.2164E-03    -164.020E-03     327.772E-03    -163.788E-03     57.0465E-03
            1611     8.40261E-03     59.0129E-03    -40.1737E+06    -23.8158E+06     29.0193E+06    -3.72876E+06    -164.936E-03     328.983E-03    -164.047E-03     54.2650E-03    -165.205E-03     328.941E-03    -163.809E-03     53.2824E-03
            1612     7.64176E-03     58.9428E-03    -53.0073E+06    -56.3784E+06     12.5685E+06    -4.06608E+06    -165.088E-03     329.065E-03    -163.977E-03     49.6694E-03    -165.334E-03     328.886E-03    -163.756E-03     48.8272E-03
            1613     6.87724E-03     58.8866E-03    -66.3596E+06    -81.2378E+06    -2.63905E+06     203.131E+03    -163.964E-03     327.899E-03    -163.935E-03     45.9553E-03    -164.201E-03     327.620E-03    -163.735E-03     45.4227E-03
            1614     6.11138E-03     58.8264E-03    -68.3257E+06    -97.4129E+06    -13.1652E+06     628.022E+03    -163.593E-03     327.555E-03    -163.962E-03     41.6580E-03    -163.788E-03     327.201E-03    -163.788E-03     41.2878E-03
            1615     5.34735E-03     58.7758E-03    -75.5273E+06    -119.053E+06    -28.8566E+06    -2.70390E+06    -164.099E-03     328.067E-03    -163.968E-03     37.3321E-03    -164.262E-03     327.623E-03    -163.830E-03     37.0380E-03
            1616     4.58463E-03     58.7292E-03    -84.8592E+06    -137.681E+06    -40.6693E+06    -2.35022E+06    -164.225E-03     328.162E-03    -163.937E-03     32.2140E-03    -164.379E-03     327.644E-03    -163.818E-03     32.0267E-03
            1617     3.82029E-03     58.6930E-03    -89.1393E+06    -150.363E+06    -52.4556E+06     2.11803E+06    -163.751E-03     327.658E-03    -163.906E-03     26.8097E-03    -163.887E-03     327.095E-03    -163.821E-03     26.7735E-03
            1618     3.05575E-03     58.6626E-03    -96.0600E+06    -172.388E+06    -73.8545E+06     1.98456E+06    -163.916E-03     327.776E-03    -163.861E-03     22.2762E-03    -164.018E-03     327.140E-03    -163.841E-03     22.2810E-03
            1619     2.29283E-03     58.6391E-03    -103.014E+06    -190.204E+06    -89.2073E+06    -1.61045E+06    -164.044E-03     327.829E-03    -163.785E-03     17.4695E-03    -164.124E-03     327.128E-03    -163.806E-03     17.4574E-03
            1620     1.52819E-03     58.6215E-03    -105.765E+06    -196.059E+06    -96.9406E+06    -540.607E+03    -163.606E-03     327.377E-03    -163.771E-03     11.9193E-03    -163.683E-03     326.665E-03    -163.818E-03     11.9602E-03
            1621     763.145E-06     58.6101E-03    -106.880E+06    -210.423E+06    -105.939E+06     1.33260E+06    -163.622E-03     327.651E-03    -164.029E-03     6.77411E-03    -163.651E-03     326.921E-03    -164.098E-03     6.81147E-03
            1622     14.5186E-03     58.3451E-03    -6.32260E+06     72.9833E+06     85.0140E+06    -477.750E+03    -165.119E-03     329.212E-03    -164.094E-03     60.2621E-03    -165.573E-03     329.657E-03    -163.765E-03     57.7465E-03
            1623     13.7524E-03     58.2667E-03    -9.99012E+06     70.3206E+06     85.1252E+06     530.927E+03    -165.079E-03     329.152E-03    -164.073E-03     63.8072E-03    -165.568E-03     329.609E-03    -163.735E-03     61.2150E-03
            1624     12.9918E-03     58.1819E-03    -14.1378E+06     59.5006E+06     77.2963E+06     2.84616E+06    -165.583E-03     329.601E-03    -164.018E-03     68.2335E-03    -166.058E-03     330.013E-03    -163.698E-03     65.8827E-03
            1625     12.2291E-03     58.0980E-03    -17.2119E+06     47.4134E+06     64.7599E+06     379.221E+03    -165.173E-03     329.117E-03    -163.944E-03     69.6127E-03    -165.603E-03     329.466E-03    -163.664E-03     67.5324E-03
            1626     11.4601E-03     58.0099E-03    -24.0857E+06     41.7788E+06     55.6085E+06    -3.83984E+06    -165.145E-03     329.040E-03    -163.895E-03     68.5125E-03    -165.569E-03     329.366E-03    -163.643E-03     66.5708E-03
            1627     10.6996E-03     57.9290E-03    -31.8694E+06     37.3182E+06     50.0140E+06     1.53827E+06    -164.565E-03     328.443E-03    -163.877E-03     65.5142E-03    -164.983E-03     328.735E-03    -163.635E-03     63.9362E-03
            1628     9.93297E-03     57.8446E-03    -30.9352E+06     28.1151E+06     45.7058E+06     1.55223E+06    -163.485E-03     327.400E-03    -163.914E-03     61.1963E-03    -163.854E-03     327.626E-03    -163.682E-03     59.8113E-03
            1629     9.16824E-03     57.7722E-03    -33.5870E+06     4.74794E+06     39.1876E+06    -1.30958E+06    -164.336E-03     328.308E-03    -163.972E-03     57.8490E-03    -164.650E-03     328.406E-03    -163.734E-03     56.6754E-03
            1630     8.40616E-03     57.6923E-03    -49.0575E+06    -34.6401E+06     19.8231E+06    -2.22512E+06    -164.359E-03     328.328E-03    -163.969E-03     53.7851E-03    -164.644E-03     328.258E-03    -163.748E-03     52.8115E-03
            1631     7.63958E-03     57.6312E-03    -53.4604E+06    -58.2591E+06     10.7061E+06    -2.67515E+06    -163.856E-03     327.852E-03    -163.996E-03     49.9989E-03    -164.098E-03     327.666E-03    -163.780E-03     49.1934E-03
            1632     6.87583E-03     57.5675E-03    -61.8991E+06    -79.4367E+06     127.039E+03    -381.654E+03    -164.410E-03     328.419E-03    -164.009E-03     46.6845E-03    -164.630E-03     328.137E-03    -163.804E-03     46.1667E-03
            1633     6.11410E-03     57.5142E-03    -71.6575E+06    -101.726E+06    -15.1298E+06    -1.38738E+06    -164.343E-03     328.311E-03    -163.969E-03     42.8075E-03    -164.548E-03     327.945E-03    -163.793E-03     42.3955E-03
            1634     5.34858E-03     57.4601E-03    -72.2334E+06    -112.451E+06    -23.7738E+06     1.57086E+06    -163.824E-03     327.783E-03    -163.959E-03     38.0983E-03    -163.989E-03     327.361E-03    -163.810E-03     37.9050E-03
            1635     4.58344E-03     57.4142E-03    -80.4664E+06    -135.926E+06    -42.5435E+06    -311.782E+03    -163.292E-03     327.297E-03    -164.006E-03     32.0265E-03    -163.420E-03     326.782E-03    -163.905E-03     31.9161E-03
            1636     3.81900E-03     57.3791E-03    -92.5861E+06    -159.274E+06    -60.5802E+06    -2.79953E+06    -163.274E-03     327.406E-03    -164.132E-03     27.4514E-03    -163.396E-03     326.809E-03    -164.070E-03     27.3323E-03
            1637     3.05469E-03     57.3474E-03    -96.3329E+06    -170.262E+06    -72.0634E+06     782.031E+03    -163.686E-03     327.957E-03    -164.270E-03     22.9051E-03    -163.789E-03     327.323E-03    -164.244E-03     22.8920E-03
            1638     2.29000E-03     57.3228E-03    -101.279E+06    -186.946E+06    -88.3852E+06     108.424E+03    -164.161E-03     328.502E-03    -164.340E-03     17.7186E-03    -164.237E-03     327.812E-03    -164.364E-03     17.7251E-03
            1639     1.52735E-03     57.3065E-03    -106.888E+06    -198.884E+06    -98.7884E+06    -1.38985E+06    -164.538E-03     328.840E-03    -164.302E-03     12.0088E-03    -164.613E-03     328.118E-03    -164.353E-03     12.0277E-03
            1640     764.151E-06     57.2952E-03    -110.025E+06    -210.641E+06    -106.028E+06    -360.917E+03    -163.743E-03     328.515E-03    -164.771E-03     6.41354E-03    -163.784E-03     327.788E-03    -164.837E-03     6.46007E-03
            1641     14.5190E-03     57.0310E-03    -5.49074E+06     72.7456E+06     85.4064E+06    -2.05069E+06    -164.151E-03     328.179E-03    -164.028E-03     61.8230E-03    -164.606E-03     328.625E-03    -163.698E-03     59.2955E-03
            1642     13.7551E-03     56.9523E-03    -12.4042E+06     65.1014E+06      79.462E+06     254.080E+03    -164.141E-03     328.186E-03    -164.045E-03     67.4391E-03    -164.622E-03     328.624E-03    -163.724E-03     64.9921E-03
            1643     12.9868E-03     56.8654E-03    -16.2394E+06     56.4912E+06     72.4552E+06     495.099E+03    -165.199E-03     329.234E-03    -164.034E-03     68.5069E-03    -165.668E-03     329.635E-03    -163.730E-03     66.1924E-03
            1644     12.2220E-03     56.7803E-03    -15.9276E+06     53.6475E+06     70.2060E+06     426.539E+03    -165.175E-03     329.179E-03    -164.003E-03     67.1866E-03    -165.615E-03     329.548E-03    -163.707E-03     65.0600E-03
            1645     11.4623E-03     56.6960E-03    -23.1224E+06     46.9978E+06     59.3917E+06     365.613E+03    -164.871E-03     328.826E-03    -163.954E-03     67.5613E-03    -165.305E-03     329.172E-03    -163.692E-03     65.6374E-03
            1646     10.6969E-03     56.6073E-03    -31.6657E+06     33.3369E+06     48.7916E+06    -2.72471E+06    -164.983E-03     328.903E-03    -163.920E-03     64.9422E-03    -165.404E-03     329.188E-03    -163.679E-03     63.1623E-03
            1647     9.93439E-03     56.5369E-03    -36.4331E+06     27.9471E+06     45.7224E+06    -1.69993E+06    -164.861E-03     328.758E-03    -163.897E-03     61.6827E-03    -165.265E-03     328.999E-03    -163.656E-03     60.1551E-03
            1648     9.17031E-03     56.4496E-03    -42.8345E+06     2.56497E+06     32.6055E+06     1.10601E+06    -163.941E-03     327.831E-03    -163.890E-03     59.3099E-03    -164.290E-03     327.943E-03    -163.668E-03     58.1548E-03
            1649     8.40490E-03     56.3830E-03    -49.9455E+06    -37.1612E+06     17.4466E+06    -245.047E+03    -163.137E-03     327.106E-03    -163.969E-03     54.8859E-03    -163.419E-03     327.028E-03    -163.755E-03     53.9567E-03
            1650     7.64002E-03     56.3155E-03    -57.2993E+06    -60.5461E+06      7.3309E+06     578.322E+03    -163.380E-03     327.463E-03    -164.084E-03     51.5284E-03    -163.630E-03     327.274E-03    -163.876E-03     50.8442E-03
            1651     6.87530E-03     56.2523E-03    -62.3076E+06    -80.4590E+06    -2.88455E+06    -454.152E+03    -164.096E-03     328.248E-03    -164.152E-03     47.6164E-03    -164.312E-03     327.965E-03    -163.959E-03     47.1061E-03
            1652     6.10962E-03     56.1972E-03    -67.7877E+06    -99.3382E+06    -13.8374E+06    -1.46476E+06    -164.485E-03     328.640E-03    -164.156E-03     43.8834E-03    -164.674E-03     328.277E-03    -163.982E-03     43.4719E-03
            1653     5.34818E-03     56.1443E-03    -77.5625E+06    -115.622E+06    -26.9662E+06     1.19535E+06    -163.837E-03     328.004E-03    -164.166E-03     39.5940E-03    -164.020E-03     327.578E-03    -164.021E-03     39.3851E-03
            1654     4.58352E-03     56.1023E-03    -80.7625E+06    -131.843E+06    -40.4495E+06     4.38385E+06    -163.213E-03     327.480E-03    -164.267E-03     33.5019E-03    -163.359E-03     326.988E-03    -164.161E-03     33.4640E-03
            1655     3.81768E-03     56.0638E-03    -87.0247E+06    -153.735E+06    -60.7187E+06     2.14673E+06    -163.569E-03     327.971E-03    -164.403E-03     28.1703E-03    -163.678E-03     327.403E-03    -164.357E-03     28.1473E-03
            1656     3.05363E-03     56.0318E-03    -98.7189E+06    -173.721E+06    -77.1854E+06    -1.90563E+06    -164.011E-03     328.548E-03    -164.537E-03     22.5096E-03    -164.118E-03     327.913E-03    -164.527E-03     22.4771E-03
            1657     2.28976E-03     56.0075E-03    -104.372E+06    -184.728E+06    -87.4037E+06    -938.175E+03    -164.373E-03     329.003E-03    -164.630E-03     16.6707E-03    -164.472E-03     328.330E-03    -164.648E-03     16.6702E-03
            1658     1.52570E-03     55.9870E-03    -107.156E+06    -198.918E+06    -100.525E+06    -972.507E+03    -164.767E-03     329.370E-03    -164.602E-03     10.8857E-03    -164.838E-03     328.648E-03    -164.661E-03     10.8683E-03
            1659     763.615E-06     55.9789E-03    -111.804E+06    -217.077E+06    -107.441E+06    -1.42335E+06    -164.735E-03     329.175E-03    -164.440E-03     5.56313E-03    -164.769E-03     328.415E-03    -164.500E-03     5.55356E-03
            1660     14.5163E-03     55.7185E-03    -2.47075E+06     73.2244E+06     83.5985E+06     894.776E+03    -163.510E-03     327.527E-03    -164.017E-03     60.8596E-03    -163.947E-03     327.973E-03    -163.702E-03     58.3609E-03
            1661     13.7500E-03     55.6354E-03    -9.67284E+06     67.7383E+06     80.7769E+06    -3.01236E+06    -164.978E-03     329.018E-03    -164.040E-03     66.7780E-03    -165.458E-03     329.470E-03    -163.720E-03     64.1966E-03
            1662     12.9912E-03     55.5484E-03    -13.7631E+06     59.4376E+06     77.5005E+06    -3.63732E+06    -165.525E-03     329.534E-03    -164.008E-03     65.9841E-03    -165.998E-03     329.944E-03    -163.687E-03     63.4997E-03
            1663     12.2293E-03     55.4641E-03    -21.4931E+06     49.3196E+06     66.7139E+06    -1.45837E+06    -164.639E-03     328.594E-03    -163.954E-03     65.5531E-03    -165.098E-03     328.958E-03    -163.661E-03     63.3429E-03
            1664     11.4616E-03     55.3799E-03    -27.7287E+06     43.5761E+06     56.5897E+06     3.01708E+06    -164.167E-03     328.107E-03    -163.940E-03     67.0416E-03    -164.610E-03     328.442E-03    -163.680E-03     65.2026E-03
            1665     10.6965E-03     55.2956E-03    -27.1785E+06     38.1318E+06     50.7762E+06     814.826E+03    -164.519E-03     328.465E-03    -163.946E-03     65.1275E-03    -164.919E-03     328.757E-03    -163.708E-03     63.4817E-03
            1666     9.93340E-03     55.2123E-03    -36.4532E+06     19.3484E+06     39.2725E+06    -4.76515E+06    -164.672E-03     328.609E-03    -163.936E-03     62.3263E-03    -165.056E-03     328.818E-03    -163.715E-03     60.7551E-03
            1667     9.16998E-03     55.1422E-03    -43.0640E+06    -2.74852E+06     31.5251E+06    -461.093E+03    -163.361E-03     327.353E-03    -163.993E-03     60.0639E-03    -163.705E-03     327.444E-03    -163.769E-03     58.8753E-03
            1668     8.40264E-03     55.0670E-03    -45.3161E+06    -26.3057E+06     23.1363E+06     4.51717E+06    -162.900E-03     327.026E-03    -164.125E-03     56.3795E-03    -163.177E-03     326.981E-03    -163.906E-03     55.6283E-03
            1669     7.63837E-03     55.0012E-03    -54.4406E+06    -57.1797E+06     7.37260E+06     1.14212E+06    -163.643E-03     327.887E-03    -164.244E-03     52.6744E-03    -163.882E-03     327.709E-03    -164.046E-03     52.0269E-03
            1670     6.87333E-03     54.9382E-03    -64.5308E+06    -82.3440E+06    -5.36441E+06    -444.057E+03    -163.961E-03     328.292E-03    -164.332E-03     48.4513E-03    -164.183E-03     328.009E-03    -164.145E-03     47.9283E-03
            1671     6.11078E-03     54.8797E-03    -67.0620E+06    -97.6485E+06    -14.0820E+06     883.198E+03    -163.929E-03     328.335E-03    -164.406E-03     43.3604E-03    -164.116E-03     327.978E-03    -164.238E-03     42.9787E-03
            1672     5.34388E-03     54.8306E-03    -74.3825E+06    -118.262E+06    -30.4138E+06    -2.15481E+06    -163.749E-03     328.232E-03    -164.483E-03     38.3680E-03    -163.903E-03     327.791E-03    -164.356E-03     38.0631E-03
            1673     4.57942E-03     54.7860E-03    -84.9854E+06    -139.533E+06    -42.9953E+06    -1.49562E+06    -164.126E-03     328.712E-03    -164.585E-03     33.3523E-03    -164.272E-03     328.185E-03    -164.475E-03     33.1847E-03
            1674     3.81716E-03     54.7479E-03    -87.8063E+06    -149.608E+06    -51.1718E+06     3.32135E+06    -164.534E-03     329.162E-03    -164.628E-03     27.5022E-03    -164.664E-03     328.598E-03    -164.539E-03     27.4918E-03
            1675     3.05330E-03     54.7155E-03    -94.0062E+06    -166.782E+06    -70.1295E+06     2.62631E+06    -164.675E-03     329.249E-03    -164.574E-03     21.7817E-03    -164.781E-03     328.633E-03    -164.546E-03     21.8218E-03
            1676     2.29066E-03     54.6891E-03    -101.605E+06    -185.707E+06    -87.7633E+06    -1.89539E+06    -164.626E-03     329.127E-03    -164.501E-03     16.1777E-03    -164.711E-03     328.447E-03    -164.523E-03     16.1484E-03
            1677     1.52782E-03     54.6721E-03    -108.093E+06    -201.611E+06    -100.272E+06    -2.04016E+06    -164.260E-03     328.787E-03    -164.527E-03     10.6436E-03    -164.336E-03     328.056E-03    -164.579E-03     10.6082E-03
            1678     762.700E-06     54.6602E-03    -110.110E+06    -218.711E+06    -108.047E+06    -157.394E+03    -164.778E-03     329.226E-03    -164.449E-03     5.65449E-03    -164.804E-03     328.458E-03    -164.512E-03     5.64686E-03
            1679     14.5194E-03     54.4064E-03    -3.12584E+06     75.0878E+06     85.6129E+06     1.00927E+06    -165.183E-03     329.156E-03    -163.972E-03     59.4090E-03    -165.625E-03     329.604E-03    -163.649E-03     56.9078E-03
            1680     13.7571E-03     54.3170E-03    -5.92262E+06     74.0629E+06     86.1674E+06     72.3080E+03    -164.695E-03     328.651E-03    -163.957E-03     66.2921E-03    -165.175E-03     329.124E-03    -163.625E-03     63.7253E-03
            1681     12.9909E-03     54.2305E-03    -15.5491E+06     56.3968E+06     73.1160E+06    -3.04569E+06    -163.781E-03     327.736E-03    -163.955E-03     67.9691E-03    -164.254E-03     328.143E-03    -163.649E-03     65.5309E-03
            1682     12.2243E-03     54.1505E-03    -22.0808E+06     42.5200E+06     62.0586E+06    -1.56275E+06    -164.469E-03     328.437E-03    -163.968E-03     68.9828E-03    -164.917E-03     328.778E-03    -163.687E-03     66.8268E-03
            1683     11.4615E-03     54.0652E-03    -24.5085E+06     41.7139E+06     57.8813E+06    -313.517E+03    -164.868E-03     328.830E-03    -163.961E-03     67.6184E-03    -165.298E-03     329.152E-03    -163.697E-03     65.7241E-03
            1684     10.6983E-03     53.9790E-03    -29.1743E+06     39.7400E+06     47.1309E+06    -497.713E+03    -163.523E-03     327.484E-03    -163.960E-03     65.4349E-03    -163.929E-03     327.791E-03    -163.740E-03     63.8039E-03
            1685     9.93168E-03     53.9001E-03    -34.1069E+06     22.2957E+06     37.7978E+06     545.425E+03    -162.809E-03     326.879E-03    -164.070E-03     63.1409E-03    -163.175E-03     327.093E-03    -163.864E-03     61.7659E-03
            1686     9.16546E-03     53.8248E-03    -40.3799E+06    -2.26008E+06     33.2097E+06     1.60735E+06    -163.373E-03     327.608E-03    -164.235E-03     60.1935E-03    -163.705E-03     327.692E-03    -164.007E-03     59.0608E-03
            1687     8.40240E-03     53.7559E-03    -49.2180E+06    -25.9559E+06     22.0000E+06     4.27098E+06    -163.626E-03     327.978E-03    -164.352E-03     57.4284E-03    -163.925E-03     327.946E-03    -164.133E-03     56.6275E-03
            1688     7.63625E-03     53.6844E-03    -54.9102E+06    -54.6346E+06     8.03241E+06     1.89255E+06    -164.008E-03     328.450E-03    -164.442E-03     53.3629E-03    -164.258E-03     328.287E-03    -164.243E-03     52.6891E-03
            1689     6.87307E-03     53.6226E-03    -55.7604E+06    -76.7241E+06     873.371E+03    -1.70766E+06    -164.305E-03     328.828E-03    -164.523E-03     48.3359E-03    -164.504E-03     328.555E-03    -164.327E-03     47.7431E-03
            1690     6.10701E-03     53.5641E-03    -69.5599E+06    -102.632E+06    -15.5933E+06    -2.52521E+06    -164.170E-03     328.747E-03    -164.577E-03     42.6281E-03    -164.363E-03     328.374E-03    -164.405E-03     42.1774E-03
            1691     5.34480E-03     53.5155E-03    -77.9906E+06    -119.687E+06    -29.3673E+06    -1.67007E+06    -164.389E-03     329.004E-03    -164.615E-03     36.7104E-03    -164.566E-03     328.565E-03    -164.475E-03     36.3749E-03
            1692     4.58114E-03     53.4689E-03    -85.5319E+06    -140.036E+06    -43.4424E+06    -1.41015E+06    -164.583E-03     329.207E-03    -164.623E-03     31.6570E-03    -164.732E-03     328.681E-03    -164.514E-03     31.4333E-03
            1693     3.81707E-03     53.4299E-03    -94.6319E+06    -157.835E+06    -55.8872E+06    -2.60818E+06    -164.691E-03     329.297E-03    -164.606E-03     26.8872E-03    -164.833E-03     328.705E-03    -164.519E-03     26.7415E-03
            1694     3.05471E-03     53.3982E-03    -95.7562E+06    -163.861E+06    -65.0752E+06     1.01909E+06    -164.620E-03     329.177E-03    -164.558E-03     22.1428E-03    -164.740E-03     328.565E-03    -164.507E-03     22.1345E-03
            1695     2.29076E-03     53.3726E-03    -101.149E+06    -182.188E+06    -84.5016E+06     3.19927E+06    -164.268E-03     328.806E-03    -164.537E-03     16.9558E-03    -164.358E-03     328.135E-03    -164.549E-03     17.0185E-03
            1696     1.52641E-03     53.3559E-03    -108.381E+06    -202.235E+06    -100.476E+06     1.61263E+06    -164.316E-03     328.949E-03    -164.632E-03     11.8802E-03    -164.393E-03     328.216E-03    -164.684E-03     11.9416E-03
            1697     763.667E-06     53.3447E-03    -114.220E+06    -218.774E+06    -111.170E+06    -36.9922E+03    -164.676E-03     329.445E-03    -164.769E-03     6.80119E-03    -164.718E-03     328.685E-03    -164.842E-03     6.85542E-03
            1698     14.5191E-03     53.0833E-03    -5.36610E+06     73.6777E+06     86.0716E+06    -628.172E+03    -164.857E-03     328.826E-03    -163.970E-03     61.9653E-03    -165.309E-03     329.272E-03    -163.638E-03     59.5159E-03
            1699     13.7563E-03     53.0031E-03    -8.20188E+06     72.2774E+06     84.4471E+06     1.50846E+06    -163.752E-03     327.738E-03    -163.985E-03     69.4037E-03    -164.243E-03     328.211E-03    -163.656E-03     66.9200E-03
            1700     12.9886E-03     52.9219E-03    -12.3795E+06     58.4173E+06     74.7099E+06     1.71498E+06    -163.722E-03     327.746E-03    -164.024E-03     69.3425E-03    -164.180E-03     328.151E-03    -163.717E-03     67.0604E-03
            1701     12.2239E-03     52.8324E-03    -22.0750E+06     41.2033E+06     60.2626E+06    -1.37515E+06    -164.678E-03     328.708E-03    -164.031E-03     67.9428E-03    -165.113E-03     329.037E-03    -163.757E-03     65.8380E-03
            1702     11.4618E-03     52.7458E-03    -26.3494E+06     39.4687E+06     53.3064E+06    -3.54166E+06    -164.097E-03     328.134E-03    -164.037E-03     67.5513E-03    -164.522E-03     328.451E-03    -163.790E-03     65.6412E-03
            1703     10.6961E-03     52.6680E-03    -27.1512E+06     40.7756E+06     49.8403E+06    -1.80375E+06    -163.255E-03     327.362E-03    -164.107E-03     66.7290E-03    -163.663E-03     327.675E-03    -163.878E-03     65.0288E-03
            1704     9.92943E-03     52.5876E-03    -33.5407E+06     32.0460E+06     44.3216E+06     3.72557E+06    -162.970E-03     327.210E-03    -164.240E-03     62.7606E-03    -163.357E-03     327.463E-03    -164.017E-03     61.4185E-03
            1705     9.16407E-03     52.5105E-03    -49.2505E+06    -6.29187E+06     25.7597E+06     804.583E+03    -163.139E-03     327.519E-03    -164.380E-03     58.5629E-03    -163.495E-03     327.604E-03    -164.171E-03     57.4142E-03
            1706     8.39841E-03     52.4384E-03    -51.7335E+06    -32.0396E+06     20.5394E+06    -609.715E+03    -164.087E-03     328.605E-03    -164.517E-03     56.3757E-03    -164.394E-03     328.555E-03    -164.293E-03     55.3790E-03
            1707     7.63572E-03     52.3700E-03    -56.5428E+06    -52.6873E+06     11.6686E+06     1.14777E+06    -164.632E-03     329.208E-03    -164.576E-03     52.4221E-03    -164.900E-03     329.054E-03    -164.359E-03     51.6709E-03
            1708     6.87097E-03     52.3043E-03    -62.4364E+06    -80.9528E+06    -3.11021E+06    -1.57460E+06    -164.597E-03     329.189E-03    -164.591E-03     46.8008E-03    -164.817E-03     328.909E-03    -164.399E-03     46.1741E-03
            1709     6.10896E-03     52.2495E-03    -64.9122E+06    -97.8456E+06    -9.78032E+06    -2.07224E+06    -164.590E-03     329.212E-03    -164.622E-03     41.4978E-03    -164.774E-03     328.847E-03    -164.435E-03     41.0023E-03
            1710     5.34432E-03     52.1961E-03    -79.9023E+06    -119.324E+06    -26.8210E+06    -1.45830E+06    -164.482E-03     329.109E-03    -164.626E-03     37.2594E-03    -164.673E-03     328.670E-03    -164.472E-03     36.9134E-03
            1711     4.58169E-03     52.1532E-03    -88.0472E+06    -137.533E+06    -43.4034E+06     1.69332E+06    -164.432E-03     329.060E-03    -164.628E-03     33.2854E-03    -164.602E-03     328.555E-03    -164.518E-03     33.1662E-03
            1712     3.81787E-03     52.1138E-03    -93.8168E+06    -157.750E+06    -62.7305E+06     286.040E+03    -164.418E-03     329.044E-03    -164.626E-03     28.5286E-03    -164.553E-03     328.468E-03    -164.575E-03     28.4698E-03
            1713     3.05323E-03     52.0808E-03    -99.2646E+06    -171.916E+06    -75.1516E+06    -2.18127E+06    -164.288E-03     328.967E-03    -164.679E-03     22.8577E-03    -164.407E-03     328.342E-03    -164.661E-03     22.7978E-03
            1714     2.28948E-03     52.0576E-03    -103.433E+06    -182.004E+06    -84.1195E+06     1.53061E+06    -164.380E-03     329.158E-03    -164.778E-03     17.1400E-03    -164.483E-03     328.493E-03    -164.785E-03     17.1781E-03
            1715     1.52590E-03     52.0384E-03    -106.786E+06    -197.817E+06    -97.8814E+06     3.28164E+06    -164.847E-03     329.646E-03    -164.799E-03     11.5512E-03    -164.925E-03     328.929E-03    -164.847E-03     11.6152E-03
            1716     762.765E-06     52.0260E-03    -109.786E+06    -217.037E+06    -109.806E+06     606.076E+03    -164.745E-03     329.600E-03    -164.855E-03     6.23348E-03    -164.766E-03     328.835E-03    -164.930E-03     6.25548E-03
            1717     14.5182E-03     51.7695E-03    -2.28385E+06     74.4760E+06     85.5276E+06     146.363E+03    -162.725E-03     326.780E-03    -164.055E-03     62.1195E-03    -163.162E-03     327.226E-03    -163.732E-03     59.7099E-03
            1718     13.7492E-03     51.6903E-03    -11.3175E+06     68.6286E+06     81.4164E+06     22.4546E+03    -163.925E-03     328.057E-03    -164.131E-03     68.8136E-03    -164.415E-03     328.513E-03    -163.807E-03     66.3586E-03
            1719     12.9884E-03     51.6023E-03    -17.3928E+06     60.1395E+06     75.7767E+06     2.04668E+06    -165.416E-03     329.554E-03    -164.138E-03     70.4482E-03    -165.911E-03     329.981E-03    -163.821E-03     68.1073E-03
            1720     12.2271E-03     51.5167E-03    -19.3955E+06     49.8683E+06     64.2514E+06     75.8782E+03    -164.222E-03     328.330E-03    -164.108E-03     68.7419E-03    -164.679E-03     328.709E-03    -163.831E-03     66.5226E-03
            1721     11.4578E-03     51.4354E-03    -25.3223E+06     40.4694E+06     53.2481E+06    -3.54175E+06    -163.032E-03     327.196E-03    -164.164E-03     67.4344E-03    -163.455E-03     327.518E-03    -163.920E-03     65.5042E-03
            1722     10.6915E-03     51.3518E-03    -34.8323E+06     33.2156E+06     46.6951E+06    -1.84479E+06    -163.964E-03     328.224E-03    -164.261E-03     65.4854E-03    -164.394E-03     328.513E-03    -164.025E-03     63.7649E-03
            1723     9.93015E-03     51.2706E-03    -39.5695E+06     26.0409E+06     41.3818E+06    -388.624E+03    -164.208E-03     328.526E-03    -164.319E-03     61.2063E-03    -164.617E-03     328.768E-03    -164.092E-03     59.7018E-03
            1724     9.16532E-03     51.1987E-03    -43.2512E+06     357.766E+03     33.0056E+06    -1.33759E+06    -163.822E-03     328.218E-03    -164.396E-03     57.6999E-03    -164.170E-03     328.317E-03    -164.168E-03     56.4898E-03
            1725     8.40024E-03     51.1226E-03    -53.7345E+06    -36.2096E+06     17.6900E+06    -1.35689E+06    -164.166E-03     328.639E-03    -164.473E-03     55.1879E-03    -164.470E-03     328.572E-03    -164.254E-03     54.2167E-03
            1726     7.63602E-03     51.0511E-03    -54.6075E+06    -52.9872E+06     13.6637E+06    -992.231E+03    -164.249E-03     328.801E-03    -164.552E-03     50.9807E-03    -164.510E-03     328.640E-03    -164.327E-03     50.1780E-03
            1727     6.87319E-03     50.9901E-03    -64.8389E+06    -77.8717E+06    -809.398E+03     1.79782E+06    -164.019E-03     328.638E-03    -164.619E-03     47.4261E-03    -164.257E-03     328.371E-03    -164.416E-03     46.8876E-03
            1728     6.10817E-03     50.9299E-03     -77.034E+06    -102.543E+06    -18.5671E+06     3.88762E+06    -164.127E-03     328.815E-03    -164.688E-03     43.5864E-03    -164.351E-03     328.456E-03    -164.520E-03     43.2211E-03
            1729     5.34486E-03     50.8829E-03    -73.9592E+06    -114.031E+06    -25.5572E+06     2.86356E+06    -164.370E-03     329.132E-03    -164.761E-03     38.7905E-03    -164.534E-03     328.703E-03    -164.617E-03     38.5488E-03
            1730     4.57878E-03     50.8351E-03    -80.4796E+06    -135.401E+06    -42.7477E+06    -456.799E+03    -164.670E-03     329.455E-03    -164.784E-03     33.5812E-03    -164.794E-03     328.936E-03    -164.685E-03     33.4642E-03
            1731     3.81581E-03     50.7969E-03    -90.0886E+06    -154.697E+06    -59.8460E+06    -977.546E+03    -164.669E-03     329.456E-03    -164.787E-03     27.7667E-03    -164.788E-03     328.879E-03    -164.731E-03     27.6879E-03
            1732     3.05279E-03     50.7648E-03    -96.3864E+06    -171.989E+06    -75.2444E+06    -948.042E+03    -164.645E-03     329.436E-03    -164.792E-03     21.9498E-03    -164.748E-03     328.806E-03    -164.779E-03     21.8990E-03
            1733     2.28928E-03     50.7396E-03    -103.355E+06    -187.747E+06    -88.9973E+06    -2.84829E+06    -164.986E-03     329.734E-03    -164.747E-03     16.3211E-03    -165.071E-03     329.045E-03    -164.770E-03     16.2690E-03
            1734     1.52709E-03     50.7199E-03    -107.000E+06    -198.427E+06    -96.5716E+06    -1.09518E+06    -164.973E-03     329.579E-03    -164.607E-03     11.0329E-03    -165.050E-03     328.854E-03    -164.647E-03     11.0020E-03
            1735     764.211E-06     50.7093E-03    -107.442E+06    -212.665E+06    -104.798E+06     1.85059E+06    -164.430E-03     329.043E-03    -164.613E-03     5.30073E-03    -164.455E-03     328.290E-03    -164.673E-03     5.30842E-03
            1736     14.5144E-03     50.4554E-03    -3.61259E+06     72.9496E+06     84.2604E+06     2.45029E+06    -163.672E-03     327.762E-03    -164.090E-03     60.2952E-03    -164.110E-03     328.201E-03    -163.769E-03     57.8781E-03
            1737     13.7527E-03     50.3761E-03    -7.92684E+06     71.3710E+06     84.8415E+06     2.49987E+06    -164.712E-03     328.836E-03    -164.124E-03     65.1242E-03    -165.176E-03     329.280E-03    -163.792E-03     62.7622E-03
            1738     12.9864E-03     50.2824E-03    -15.3872E+06     61.6000E+06     76.1426E+06    -3.21799E+06    -164.054E-03     328.182E-03    -164.128E-03     66.5262E-03    -164.539E-03     328.611E-03    -163.814E-03     64.0392E-03
            1739     12.2200E-03     50.2026E-03    -19.4155E+06     50.9838E+06     67.1354E+06    -4.56389E+06    -163.295E-03     327.469E-03    -164.174E-03     65.0333E-03    -163.761E-03     327.852E-03    -163.884E-03     62.6378E-03
            1740     11.4581E-03     50.1215E-03    -23.2950E+06     43.6479E+06     59.8503E+06     1.35768E+06    -163.878E-03     328.116E-03    -164.238E-03     65.8352E-03    -164.306E-03     328.443E-03    -163.968E-03     63.9356E-03
            1741     10.6954E-03     50.0350E-03    -36.1076E+06     30.5629E+06     44.7323E+06    -416.179E+03    -163.829E-03     328.109E-03    -164.280E-03     64.4012E-03    -164.253E-03     328.384E-03    -164.048E-03     62.7365E-03
            1742     9.92831E-03     49.9558E-03    -45.5244E+06     17.0176E+06     35.1553E+06    -2.90830E+06    -163.780E-03     328.136E-03    -164.356E-03     61.9540E-03    -164.197E-03     328.351E-03    -164.139E-03     60.4264E-03
            1743     9.16478E-03     49.8810E-03    -39.3392E+06     6.37902E+06     38.6836E+06     433.701E+03    -164.768E-03     329.210E-03    -164.442E-03     59.9977E-03    -165.115E-03     329.328E-03    -164.200E-03     58.8181E-03
            1744     8.40228E-03     49.8071E-03    -49.6740E+06    -28.9042E+06     20.5673E+06     171.081E+03    -164.585E-03     329.038E-03    -164.453E-03     57.3209E-03    -164.883E-03     328.997E-03    -164.236E-03     56.4164E-03
            1745     7.63726E-03     49.7370E-03    -63.4474E+06    -65.8896E+06     1.60760E+06    -1.07194E+06    -163.585E-03     328.111E-03    -164.526E-03     52.6364E-03    -163.852E-03     327.914E-03    -164.330E-03     51.9123E-03
            1746     6.87051E-03     49.6739E-03    -59.8216E+06    -77.9973E+06     901.061E+03     1.32023E+06    -163.304E-03     328.011E-03    -164.706E-03     48.1544E-03    -163.517E-03     327.732E-03    -164.502E-03     47.6527E-03
            1747     6.10555E-03     49.6163E-03    -67.6212E+06    -95.6617E+06    -14.5466E+06     2.37353E+06    -163.880E-03     328.726E-03    -164.846E-03     43.6278E-03    -164.073E-03     328.382E-03    -164.682E-03     43.2726E-03
            1748     5.34094E-03     49.5632E-03    -78.6469E+06    -118.417E+06    -30.4446E+06     786.132E+03    -165.017E-03     329.918E-03    -164.901E-03     38.1470E-03    -165.198E-03     329.488E-03    -164.767E-03     37.8811E-03
            1749     4.58068E-03     49.5185E-03    -80.9156E+06    -134.201E+06    -39.6605E+06     2.16605E+06    -165.183E-03     330.054E-03    -164.871E-03     32.2745E-03    -165.321E-03     329.544E-03    -164.757E-03     32.1091E-03
            1750     3.81692E-03     49.4789E-03    -87.4703E+06    -151.128E+06    -55.0625E+06     1.63395E+06    -164.788E-03     329.611E-03    -164.823E-03     27.0376E-03    -164.904E-03     329.040E-03    -164.752E-03     26.9470E-03
            1751     3.05331E-03     49.4477E-03    -98.4239E+06    -170.368E+06    -73.0145E+06    -284.315E+03    -165.006E-03     329.768E-03    -164.762E-03     22.1709E-03    -165.120E-03     329.141E-03    -164.738E-03     22.1285E-03
            1752     2.29093E-03     49.4208E-03    -103.249E+06    -186.110E+06    -88.9056E+06    -121.173E+03    -164.928E-03     329.577E-03    -164.649E-03     16.7600E-03    -165.006E-03     328.887E-03    -164.674E-03     16.7541E-03
            1753     1.52705E-03     49.4040E-03    -107.110E+06    -201.016E+06    -100.265E+06    -1.32356E+06    -164.583E-03     329.178E-03    -164.595E-03     11.7890E-03    -164.645E-03     328.438E-03    -164.650E-03     11.7786E-03
            1754     762.992E-06     49.3921E-03    -113.653E+06    -213.460E+06    -106.827E+06    -1.45459E+06    -164.689E-03     329.234E-03    -164.545E-03     6.03261E-03    -164.739E-03     328.487E-03    -164.605E-03     6.04149E-03
            1755     14.5191E-03     49.1371E-03    -6.94686E+06     71.5480E+06     84.5762E+06     874.382E+03    -165.670E-03     329.674E-03    -164.005E-03     58.0349E-03    -166.376E-03     330.365E-03    -163.675E-03     55.7721E-03
            1756     13.7552E-03     49.0586E-03    -5.81156E+06     73.4465E+06     87.4214E+06     566.971E+03    -164.399E-03     328.374E-03    -163.976E-03     63.9806E-03    -164.885E-03     328.847E-03    -163.637E-03     61.5901E-03
            1757     12.9925E-03     48.9702E-03    -9.79313E+06     65.0662E+06     80.9242E+06    -612.628E+03    -162.718E-03     326.739E-03    -164.021E-03     65.6758E-03    -163.183E-03     327.165E-03    -163.696E-03     63.2666E-03
            1758     12.2262E-03     48.8919E-03    -19.9957E+06     49.7040E+06     68.1647E+06     136.355E+03    -162.783E-03     326.896E-03    -164.113E-03     64.7285E-03    -163.236E-03     327.257E-03    -163.815E-03     62.5330E-03
            1759     11.4589E-03     48.8024E-03    -27.5168E+06     40.3781E+06     56.8171E+06         121.813    -163.280E-03     327.478E-03    -164.198E-03     66.0818E-03    -163.720E-03     327.799E-03    -163.933E-03     64.1650E-03
            1760     10.6931E-03     48.7223E-03    -30.8337E+06     36.3603E+06     48.7113E+06    -1.06015E+06    -162.908E-03     327.210E-03    -164.302E-03     65.1522E-03    -163.322E-03     327.502E-03    -164.067E-03     63.4766E-03
            1761     9.92811E-03     48.6425E-03    -36.6567E+06     23.8501E+06     40.7081E+06    -923.211E+03    -163.278E-03     327.719E-03    -164.441E-03     63.3939E-03    -163.665E-03     327.942E-03    -164.219E-03     61.9645E-03
            1762     9.16272E-03     48.5628E-03    -47.8797E+06    -4.78864E+06     27.1437E+06    -939.025E+03    -164.150E-03     328.702E-03    -164.552E-03     61.2469E-03    -164.507E-03     328.793E-03    -164.340E-03     60.0660E-03
            1763     8.39841E-03     48.4895E-03    -52.7257E+06    -32.8982E+06     17.0576E+06     433.086E+03    -164.443E-03     329.076E-03    -164.634E-03     58.0636E-03    -164.747E-03     329.027E-03    -164.424E-03     57.1017E-03
            1764     7.63459E-03     48.4230E-03    -60.9467E+06    -62.4513E+06     1.91009E+06     1.60324E+06    -164.473E-03     329.163E-03    -164.690E-03     53.6438E-03    -164.729E-03     328.975E-03    -164.501E-03     52.9601E-03
            1765     6.87128E-03     48.3589E-03    -65.8088E+06    -84.6380E+06    -6.49103E+06    -1.36826E+06    -164.714E-03     329.463E-03    -164.749E-03     47.6137E-03    -164.933E-03     329.167E-03    -164.564E-03     47.0830E-03
            1766     6.10701E-03     48.3002E-03    -60.0914E+06    -87.6192E+06    -4.75884E+06     308.240E+03    -164.771E-03     329.566E-03    -164.794E-03     41.7121E-03    -164.948E-03     329.232E-03    -164.604E-03     41.3048E-03
            1767     5.34417E-03     48.2450E-03    -75.8545E+06    -116.157E+06    -27.7037E+06    -763.752E+03    -164.441E-03     329.238E-03    -164.797E-03     36.5757E-03    -164.614E-03     328.810E-03    -164.657E-03     36.2227E-03
            1768     4.57937E-03     48.1991E-03    -90.2908E+06    -143.251E+06    -44.8369E+06    -2.12090E+06    -164.315E-03     329.176E-03    -164.861E-03     32.2624E-03    -164.487E-03     328.649E-03    -164.746E-03     32.0038E-03
            1769     3.81610E-03     48.1636E-03    -90.2667E+06    -149.934E+06    -53.5069E+06     3.78673E+06    -164.850E-03     329.740E-03    -164.890E-03     28.3576E-03    -164.992E-03     329.184E-03    -164.809E-03     28.3323E-03
            1770     3.05309E-03     48.1281E-03    -95.6760E+06    -168.381E+06    -71.8853E+06     2.46023E+06    -165.020E-03     329.845E-03    -164.826E-03     22.7506E-03    -165.130E-03     329.228E-03    -164.802E-03     22.7636E-03
            1771     2.28943E-03     48.1050E-03    -100.526E+06    -182.935E+06    -84.3941E+06     591.783E+03    -164.687E-03     329.485E-03    -164.798E-03     16.8566E-03    -164.768E-03     328.806E-03    -164.809E-03     16.8698E-03
            1772     1.52588E-03     48.0866E-03    -106.224E+06    -198.848E+06    -99.1867E+06     1.30544E+06    -164.586E-03     329.442E-03    -164.857E-03     11.6168E-03    -164.653E-03     328.715E-03    -164.910E-03     11.6555E-03
            1773     763.068E-06     48.0753E-03    -111.456E+06    -215.851E+06    -110.938E+06    -1.01541E+06    -164.786E-03     329.884E-03    -165.098E-03     6.69352E-03    -164.815E-03     329.130E-03    -165.178E-03     6.68966E-03
            1774     14.5209E-03     47.8226E-03    -6.42318E+06     71.7632E+06     83.9610E+06    -3.16429E+06    -165.536E-03     329.488E-03    -163.952E-03     60.1637E-03    -166.246E-03     330.186E-03    -163.627E-03     57.8477E-03
            1775     13.7571E-03     47.7410E-03    -9.56933E+06     70.1105E+06     84.4326E+06    -1.53982E+06    -163.754E-03     327.699E-03    -163.945E-03     65.9103E-03    -164.270E-03     328.185E-03    -163.611E-03     63.3525E-03
            1776     12.9883E-03     47.6617E-03    -11.7589E+06     64.5450E+06     81.8590E+06     4.17857E+06    -162.309E-03     326.347E-03    -164.038E-03     68.5715E-03    -162.790E-03     326.778E-03    -163.705E-03     66.2476E-03
            1777     12.2232E-03     47.5732E-03    -17.2082E+06     53.1757E+06     70.3017E+06     4.66769E+06    -162.424E-03     326.583E-03    -164.159E-03     69.8249E-03    -162.874E-03     326.957E-03    -163.860E-03     67.7964E-03
            1778     11.4597E-03     47.4934E-03    -26.2479E+06     41.5493E+06      55.335E+06     324.409E+03    -162.644E-03     326.926E-03    -164.282E-03     69.6117E-03    -163.084E-03     327.259E-03    -164.027E-03     67.7011E-03
            1779     10.6925E-03     47.4075E-03    -33.2393E+06     35.1763E+06     45.7313E+06    -206.369E+03    -163.304E-03     327.714E-03    -164.410E-03     67.3341E-03    -163.728E-03     328.012E-03    -164.184E-03     65.6654E-03
            1780     9.92725E-03     47.3277E-03    -31.1945E+06     30.0258E+06     44.2271E+06     152.594E+03    -163.787E-03     328.325E-03    -164.538E-03     63.7956E-03    -164.161E-03     328.566E-03    -164.315E-03     62.3850E-03
            1781     9.16241E-03     47.2479E-03    -46.5858E+06    -10.4128E+06     22.9881E+06    -1.52700E+06    -163.636E-03     328.280E-03    -164.644E-03     60.7747E-03    -163.973E-03     328.348E-03    -164.447E-03     59.5742E-03
            1782     8.39697E-03     47.1744E-03    -56.6277E+06    -44.4570E+06     10.3946E+06    -2.03325E+06    -164.336E-03     329.101E-03    -164.765E-03     56.4943E-03    -164.634E-03     329.010E-03    -164.566E-03     55.4962E-03
            1783     7.63272E-03     47.1042E-03    -50.9536E+06    -50.5230E+06     15.2150E+06     450.758E+03    -165.550E-03     330.373E-03    -164.823E-03     51.8627E-03    -165.798E-03     330.216E-03    -164.600E-03     51.0611E-03
            1784     6.87041E-03     47.0401E-03    -64.9086E+06    -78.6505E+06    -1.89868E+06     304.306E+03    -165.933E-03     330.671E-03    -164.738E-03     46.9961E-03    -166.171E-03     330.405E-03    -164.539E-03     46.3560E-03
            1785     6.10948E-03     46.9816E-03    -78.8944E+06    -102.969E+06    -17.7640E+06     1.33798E+06    -164.895E-03     329.561E-03    -164.666E-03     42.8047E-03    -165.127E-03     329.199E-03    -164.492E-03     42.3990E-03
            1786     5.34531E-03     46.9296E-03    -78.8061E+06    -113.585E+06    -27.0628E+06     2.91828E+06    -163.763E-03     328.481E-03    -164.718E-03     38.4745E-03    -163.947E-03     328.061E-03    -164.574E-03     38.2249E-03
            1787     4.57956E-03     46.8865E-03    -83.9266E+06    -136.604E+06    -45.3032E+06    -757.555E+03    -164.032E-03     328.861E-03    -164.829E-03     33.0900E-03    -164.170E-03     328.348E-03    -164.736E-03     32.9066E-03
            1788     3.81526E-03     46.8425E-03    -93.7278E+06    -156.571E+06    -60.3611E+06    -2.83001E+06    -164.645E-03     329.557E-03    -164.912E-03     27.8417E-03    -164.777E-03     328.975E-03    -164.851E-03     27.7377E-03
            1789     3.05285E-03     46.8118E-03    -95.3926E+06    -167.140E+06    -69.8853E+06     333.217E+03    -164.667E-03     329.625E-03    -164.958E-03     22.1786E-03    -164.777E-03     329.007E-03    -164.927E-03     22.1258E-03
            1790     2.28940E-03     46.7870E-03    -100.649E+06    -183.118E+06    -84.4333E+06     1.00672E+06    -164.818E-03     329.810E-03    -164.992E-03     16.8869E-03    -164.898E-03     329.129E-03    -165.002E-03     16.8715E-03
            1791     1.52663E-03     46.7690E-03    -107.652E+06    -198.185E+06    -97.7237E+06     384.576E+03    -165.057E-03     330.033E-03    -164.976E-03     11.4061E-03    -165.135E-03     329.309E-03    -165.021E-03     11.4192E-03
            1792     762.790E-06     46.7580E-03    -109.533E+06    -213.579E+06    -107.641E+06     2.27530E+06    -164.792E-03     329.930E-03    -165.137E-03     6.50471E-03    -164.820E-03     329.181E-03    -165.207E-03     6.53601E-03
            1793     14.5158E-03     46.5008E-03    -3.68412E+06     73.0368E+06     84.3583E+06    -3.06248E+06    -163.043E-03     327.123E-03    -164.080E-03     63.5670E-03    -163.717E-03     327.799E-03    -163.759E-03     60.8772E-03
            1794     13.7526E-03     46.4281E-03    -12.4703E+06     67.8598E+06     81.9233E+06    -641.209E+03    -163.564E-03     327.723E-03    -164.158E-03     67.7990E-03    -164.093E-03     328.211E-03    -163.829E-03     65.0967E-03
            1795     12.9897E-03     46.3484E-03    -18.6727E+06     59.8816E+06     75.8938E+06     1.33344E+06    -162.705E-03     326.959E-03    -164.254E-03     71.3365E-03    -163.214E-03     327.394E-03    -163.934E-03     68.9337E-03
            1796     12.2216E-03     46.2628E-03    -21.9883E+06     53.5930E+06     65.5174E+06     2.13457E+06    -162.691E-03     327.060E-03    -164.368E-03     71.6057E-03    -163.166E-03     327.456E-03    -164.087E-03     69.5103E-03
            1797     11.4526E-03     46.1774E-03    -26.2516E+06     46.7816E+06     55.0435E+06     1.96792E+06    -163.821E-03     328.288E-03    -164.467E-03     69.6061E-03    -164.273E-03     328.653E-03    -164.222E-03     67.6492E-03
            1798     10.6897E-03     46.0929E-03    -30.3165E+06     39.5815E+06     47.8115E+06     868.836E+03    -164.337E-03     328.875E-03    -164.537E-03     66.6522E-03    -164.762E-03     329.194E-03    -164.312E-03     64.8916E-03
            1799     9.92635E-03     46.0095E-03    -40.4968E+06     18.1299E+06     35.7735E+06    -704.012E+03    -164.199E-03     328.805E-03    -164.606E-03     63.4304E-03    -164.594E-03     329.017E-03    -164.394E-03     61.9479E-03
            1800     9.16170E-03     45.9349E-03    -43.7124E+06    -4.25389E+06     30.5003E+06     1.89701E+06    -164.498E-03     329.196E-03    -164.698E-03     60.1887E-03    -164.842E-03     329.281E-03    -164.476E-03     59.0054E-03
            1801     8.39776E-03     45.8563E-03    -50.5185E+06    -31.6194E+06     20.5665E+06     1.18813E+06    -164.991E-03     329.741E-03    -164.750E-03     56.3494E-03    -165.289E-03     329.688E-03    -164.528E-03     55.4383E-03
            1802     7.63541E-03     45.7868E-03    -62.9242E+06    -61.5345E+06     6.36314E+06    -902.029E+03    -165.249E-03     330.002E-03    -164.753E-03     51.9103E-03    -165.529E-03     329.822E-03    -164.541E-03     51.0974E-03
            1803     6.87237E-03     45.7199E-03    -68.0367E+06    -81.1740E+06    -4.57005E+06     571.234E+03    -164.543E-03     329.306E-03    -164.763E-03     47.7494E-03    -164.793E-03     329.040E-03    -164.570E-03     47.0557E-03
            1804     6.10708E-03     45.6663E-03    -76.2086E+06    -103.191E+06    -20.5391E+06     1.86181E+06    -164.158E-03     328.978E-03    -164.820E-03     44.2871E-03    -164.376E-03     328.619E-03    -164.662E-03     43.9062E-03
            1805     5.34169E-03     45.6149E-03    -81.1650E+06    -117.676E+06    -30.6336E+06     1.70868E+06    -164.744E-03     329.629E-03    -164.885E-03     39.7128E-03    -164.935E-03     329.203E-03    -164.750E-03     39.5301E-03
            1806     4.58010E-03     45.5668E-03    -81.3965E+06    -128.226E+06    -40.1036E+06     2.73341E+06    -165.026E-03     329.907E-03    -164.881E-03     34.0855E-03    -165.180E-03     329.433E-03    -164.777E-03     33.9433E-03
            1807     3.81759E-03     45.5276E-03    -87.4377E+06    -150.656E+06    -57.4497E+06     624.110E+03    -164.483E-03     329.370E-03    -164.888E-03     28.1758E-03    -164.602E-03     328.811E-03    -164.830E-03     28.0703E-03
            1808     3.05190E-03     45.4941E-03    -98.5613E+06    -170.842E+06    -74.8567E+06    -1.91276E+06    -164.300E-03     329.290E-03    -164.990E-03     22.4157E-03    -164.413E-03     328.664E-03    -164.973E-03     22.3186E-03
            1809     2.28870E-03     45.4690E-03    -106.474E+06    -185.066E+06    -89.8874E+06    -338.922E+03    -164.788E-03     329.884E-03    -165.097E-03     17.1101E-03    -164.886E-03     329.210E-03    -165.123E-03     17.0628E-03
            1810     1.52545E-03     45.4504E-03    -110.016E+06    -199.111E+06    -99.6668E+06    -769.404E+03    -165.186E-03     330.304E-03    -165.118E-03     11.8887E-03    -165.271E-03     329.581E-03    -165.168E-03     11.8711E-03
            1811     763.957E-06     45.4392E-03    -112.267E+06    -212.479E+06    -106.919E+06    -229.787E+03    -165.200E-03     330.220E-03    -165.020E-03     6.79344E-03    -165.246E-03     329.482E-03    -165.083E-03     6.77325E-03
            1812     14.5141E-03     45.1862E-03    -3.88993E+06     71.7028E+06     84.2008E+06    -605.897E+03    -160.721E-03     324.939E-03    -164.218E-03     62.5657E-03    -161.391E-03     325.606E-03    -163.895E-03     59.9417E-03
            1813     13.7466E-03     45.1135E-03    -13.8635E+06     63.5638E+06     77.5179E+06    -2.24162E+06    -162.382E-03     326.764E-03    -164.382E-03     65.2096E-03    -162.896E-03     327.229E-03    -164.066E-03     62.5228E-03
            1814     12.9795E-03     45.0318E-03    -20.6516E+06     57.7321E+06     71.7469E+06    -844.159E+03    -163.935E-03     328.414E-03    -164.480E-03     68.3822E-03    -164.441E-03     328.844E-03    -164.175E-03     65.9042E-03
            1815     12.2166E-03     44.9496E-03    -23.7237E+06     57.2019E+06     67.6817E+06     1.34132E+06    -164.629E-03     329.152E-03    -164.523E-03     68.7200E-03    -165.121E-03     329.567E-03    -164.234E-03     66.5161E-03
            1816     11.4558E-03     44.8602E-03    -26.5545E+06     50.8802E+06     56.6819E+06    -214.157E+03    -164.733E-03     329.256E-03    -164.523E-03     67.2042E-03    -165.194E-03     329.640E-03    -164.275E-03     65.1731E-03
            1817     10.6919E-03     44.7749E-03    -33.4112E+06     36.5090E+06     44.5458E+06    -3.10223E+06    -164.258E-03     328.809E-03    -164.551E-03     64.6646E-03    -164.688E-03     329.121E-03    -164.333E-03     62.8323E-03
            1818     9.92522E-03     44.6974E-03    -44.3964E+06     17.7285E+06     35.3420E+06     1.98381E+06    -164.544E-03     329.160E-03    -164.616E-03     62.8049E-03    -164.956E-03     329.375E-03    -164.401E-03     61.3747E-03
            1819     9.16223E-03     44.6131E-03    -50.6981E+06    -4.39748E+06     29.5462E+06     4.60010E+06    -164.999E-03     329.670E-03    -164.671E-03     59.5085E-03    -165.376E-03     329.765E-03    -164.443E-03     58.3594E-03
            1820     8.39928E-03     44.5428E-03    -55.1644E+06    -28.0225E+06     20.5317E+06     5.49520E+06    -164.753E-03     329.456E-03    -164.703E-03     57.3599E-03    -165.077E-03     329.425E-03    -164.480E-03     56.5271E-03
            1821     7.63471E-03     44.4655E-03    -62.2576E+06    -60.0748E+06     3.34486E+06     2.37394E+06    -163.894E-03     328.663E-03    -164.769E-03     53.3916E-03    -164.164E-03     328.489E-03    -164.575E-03     52.6996E-03
            1822     6.86931E-03     44.4092E-03    -69.4351E+06    -86.2393E+06    -11.6340E+06    -1.73435E+06    -163.515E-03     328.429E-03    -164.914E-03     48.7259E-03    -163.749E-03     328.144E-03    -164.746E-03     48.0711E-03
            1823     6.10369E-03     44.3481E-03    -71.4061E+06    -99.7910E+06    -18.6211E+06    -1.65925E+06    -164.746E-03     329.789E-03    -165.042E-03     44.4108E-03    -164.944E-03     329.433E-03    -164.887E-03     43.9531E-03
            1824     5.34293E-03     44.2961E-03    -74.9836E+06    -114.941E+06    -26.2277E+06     -8.3105E+03    -165.462E-03     330.520E-03    -165.058E-03     38.7364E-03    -165.631E-03     330.091E-03    -164.914E-03     38.4591E-03
            1825     4.57893E-03     44.2483E-03    -85.4057E+06    -135.088E+06    -41.5524E+06    -312.246E+03    -164.976E-03     330.004E-03    -165.028E-03     34.0909E-03    -165.140E-03     329.506E-03    -164.916E-03     33.8929E-03
            1826     3.81492E-03     44.2104E-03    -90.6099E+06    -150.266E+06    -55.1497E+06     662.220E+03    -164.753E-03     329.795E-03    -165.042E-03     28.8411E-03    -164.899E-03     329.246E-03    -164.969E-03     28.6997E-03
            1827     3.05302E-03     44.1776E-03    -97.3120E+06    -168.095E+06    -72.2401E+06     2.70877E+06    -164.733E-03     329.811E-03    -165.079E-03     23.1726E-03    -164.850E-03     329.197E-03    -165.055E-03     23.1609E-03
            1828     2.28904E-03     44.1512E-03    -105.154E+06    -184.930E+06    -89.6563E+06     204.322E+03    -164.711E-03     329.870E-03    -165.159E-03     17.4327E-03    -164.808E-03     329.198E-03    -165.187E-03     17.4270E-03
            1829     1.52597E-03     44.1320E-03    -109.517E+06    -199.611E+06    -102.519E+06    -1.27877E+06    -164.896E-03     330.216E-03    -165.320E-03     12.1291E-03    -164.976E-03     329.498E-03    -165.384E-03     12.0984E-03
            1830     761.625E-06     44.1204E-03    -113.197E+06    -216.152E+06    -111.118E+06    -2.94296E+06    -165.412E-03     330.904E-03    -165.492E-03     6.95701E-03    -165.449E-03     330.156E-03    -165.570E-03     6.91928E-03
            1831     14.5157E-03     43.8807E-03    -4.36389E+06     69.9612E+06     84.7250E+06     3.73276E+06    -161.440E-03     325.675E-03    -164.235E-03     61.3936E-03    -161.884E-03     326.105E-03    -163.906E-03     59.0168E-03
            1832     13.7475E-03     43.7993E-03    -9.99677E+06     65.6530E+06     81.1569E+06    -463.255E+03    -162.745E-03     327.120E-03    -164.375E-03     62.1650E-03    -163.224E-03     327.561E-03    -164.050E-03     59.5318E-03
            1833     12.9848E-03     43.7160E-03    -14.5808E+06     59.2593E+06     76.6956E+06    -1.62474E+06    -164.101E-03     328.553E-03    -164.452E-03     63.2103E-03    -164.579E-03     328.968E-03    -164.134E-03     60.6822E-03
            1834     12.2209E-03     43.6308E-03    -15.5383E+06     54.3468E+06     70.8955E+06    -1.45449E+06    -164.377E-03     328.860E-03    -164.483E-03     66.4649E-03    -164.823E-03     329.238E-03    -164.185E-03     64.2377E-03
            1835     11.4557E-03     43.5424E-03    -22.7123E+06     48.6061E+06     58.5034E+06    -809.148E+03    -163.849E-03     328.366E-03    -164.517E-03     67.8821E-03    -164.285E-03     328.725E-03    -164.262E-03     65.9124E-03
            1836     10.6893E-03     43.4631E-03    -32.8376E+06     36.4579E+06     46.8277E+06     3.21227E+06    -164.284E-03     328.867E-03    -164.583E-03     66.7519E-03    -164.711E-03     329.171E-03    -164.354E-03     65.0873E-03
            1837     9.92763E-03     43.3763E-03    -39.8444E+06     25.5916E+06     41.1611E+06     6.38772E+06    -164.902E-03     329.544E-03    -164.643E-03     64.4942E-03    -165.308E-03     329.781E-03    -164.416E-03     63.1981E-03
            1838     9.16327E-03     43.2999E-03    -50.4148E+06    -5.30332E+06     26.5576E+06     4.62957E+06    -164.807E-03     329.481E-03    -164.675E-03     61.3482E-03    -165.176E-03     329.576E-03    -164.461E-03     60.2568E-03
            1839     8.39812E-03     43.2232E-03    -55.7144E+06    -37.3788E+06     12.9903E+06     1.15021E+06    -164.205E-03     328.944E-03    -164.739E-03     57.8898E-03    -164.516E-03     328.887E-03    -164.539E-03     56.9287E-03
            1840     7.63327E-03     43.1541E-03    -52.0657E+06    -54.1312E+06     10.6556E+06    -1.30290E+06    -163.471E-03     328.369E-03    -164.897E-03     52.5980E-03    -163.716E-03     328.205E-03    -164.690E-03     51.7900E-03
            1841     6.86742E-03     43.0921E-03    -57.6751E+06    -74.7205E+06     1.76390E+06    -920.150E+03    -164.454E-03     329.495E-03    -165.041E-03     47.7579E-03    -164.667E-03     329.233E-03    -164.840E-03     47.1411E-03
            1842     6.10614E-03     43.0296E-03    -72.0480E+06    -101.815E+06    -18.3508E+06    -2.74187E+06    -165.130E-03     330.200E-03    -165.069E-03     43.3671E-03    -165.332E-03     329.838E-03    -164.909E-03     42.8297E-03
            1843     5.34145E-03     42.9765E-03    -79.8544E+06    -120.886E+06    -30.8976E+06    -2.47763E+06    -164.674E-03     329.779E-03    -165.106E-03     38.3987E-03    -164.854E-03     329.337E-03    -164.969E-03     37.9767E-03
            1844     4.57843E-03     42.9326E-03    -83.7615E+06    -135.437E+06    -40.1042E+06    -256.052E+03    -164.595E-03     329.788E-03    -165.193E-03     33.8510E-03    -164.746E-03     329.277E-03    -165.076E-03     33.6462E-03
            1845     3.81506E-03     42.8914E-03    -92.5630E+06    -155.556E+06    -57.2559E+06    -2.06781E+06    -164.755E-03     330.026E-03    -165.271E-03     28.9895E-03    -164.889E-03     329.446E-03    -165.198E-03     28.8162E-03
            1846     3.05118E-03     42.8591E-03    -97.7466E+06    -167.520E+06    -70.3363E+06     573.032E+03    -165.044E-03     330.379E-03    -165.335E-03     23.9658E-03    -165.159E-03     329.757E-03    -165.302E-03     23.9169E-03
            1847     2.28878E-03     42.8334E-03    -100.263E+06    -180.232E+06    -83.8551E+06     2.04949E+06    -165.222E-03     330.589E-03    -165.366E-03     18.3723E-03    -165.303E-03     329.918E-03    -165.379E-03     18.4061E-03
            1848     1.52505E-03     42.8141E-03    -106.869E+06    -199.045E+06    -99.1273E+06     263.855E+03    -165.372E-03     330.741E-03    -165.370E-03     12.2685E-03    -165.440E-03     330.014E-03    -165.422E-03     12.2751E-03
            1849     763.035E-06     42.8010E-03    -111.297E+06    -217.813E+06    -110.026E+06    -487.095E+03    -165.525E-03     330.784E-03    -165.259E-03     6.19867E-03    -165.548E-03     330.019E-03    -165.332E-03     6.20412E-03
            1850     14.5135E-03     42.5660E-03    -5.33899E+06     70.0791E+06     83.8452E+06     1.21398E+06    -162.618E-03     326.751E-03    -164.133E-03     59.8348E-03    -163.061E-03     327.181E-03    -163.808E-03     57.4049E-03
            1851     13.7528E-03     42.4827E-03    -4.58042E+06     71.2727E+06     87.9703E+06     3.83242E+06    -162.719E-03     326.978E-03    -164.259E-03     64.0919E-03    -163.181E-03     327.422E-03    -163.916E-03     61.6396E-03
            1852     12.9865E-03     42.4022E-03    -9.35889E+06     62.4120E+06     79.6148E+06     1.93036E+06    -162.853E-03     327.215E-03    -164.362E-03     67.9466E-03    -163.311E-03     327.630E-03    -164.041E-03     65.6051E-03
            1853     12.2206E-03     42.3147E-03    -18.8546E+06     48.1185E+06     62.9633E+06     596.060E+03    -163.034E-03     327.487E-03    -164.453E-03     69.9746E-03    -163.481E-03     327.855E-03    -164.180E-03     67.8275E-03
            1854     11.4535E-03     42.2325E-03    -27.4141E+06     42.5189E+06     53.0574E+06     268.940E+03    -163.698E-03     328.254E-03    -164.556E-03     68.9262E-03    -164.141E-03     328.597E-03    -164.313E-03     67.0032E-03
            1855     10.6899E-03     42.1427E-03    -31.4381E+06     38.3566E+06     50.2879E+06     4.99903E+06    -164.374E-03     329.028E-03    -164.654E-03     66.8860E-03    -164.801E-03     329.333E-03    -164.412E-03     65.2558E-03
            1856     9.92431E-03     42.0612E-03    -39.4753E+06     20.0573E+06     38.8760E+06     6.35418E+06    -164.363E-03     329.084E-03    -164.720E-03     64.4996E-03    -164.758E-03     329.296E-03    -164.498E-03     63.1760E-03
            1857     9.15985E-03     41.9823E-03    -38.3894E+06    -474.709E+03     33.7778E+06     404.386E+03    -164.593E-03     329.402E-03    -164.809E-03     62.2817E-03    -164.922E-03     329.495E-03    -164.584E-03     61.1062E-03
            1858     8.39758E-03     41.9058E-03    -39.8863E+06    -26.7853E+06     27.3793E+06    -2.81481E+06    -164.564E-03     329.467E-03    -164.903E-03     57.4446E-03    -164.839E-03     329.426E-03    -164.669E-03     56.3048E-03
            1859     7.63249E-03     41.8413E-03    -56.2116E+06    -57.3486E+06     9.41492E+06    -206.688E+03    -164.848E-03     329.802E-03    -164.955E-03     52.7366E-03    -165.111E-03     329.635E-03    -164.743E-03     51.8844E-03
            1860     6.87041E-03     41.7709E-03    -61.9799E+06    -77.2993E+06     890.610E+03     1.09071E+06    -165.128E-03     330.121E-03    -164.993E-03     48.3230E-03    -165.356E-03     329.852E-03    -164.787E-03     47.7602E-03
            1861     6.10605E-03     41.7132E-03    -65.5190E+06    -98.3991E+06    -10.8909E+06    -1.01786E+06    -164.315E-03     329.362E-03    -165.048E-03     43.3415E-03    -164.502E-03     329.000E-03    -164.864E-03     42.8254E-03
            1862     5.34190E-03     41.6611E-03    -75.7952E+06    -120.364E+06    -29.5513E+06    -1.80405E+06    -164.115E-03     329.271E-03    -165.155E-03     39.0946E-03    -164.285E-03     328.830E-03    -165.019E-03     38.6886E-03
            1863     4.57736E-03     41.6133E-03    -81.9556E+06    -137.838E+06    -40.0898E+06    -1.98546E+06    -164.610E-03     329.907E-03    -165.297E-03     33.7515E-03    -164.755E-03     329.389E-03    -165.179E-03     33.4971E-03
            1864     3.81381E-03     41.5747E-03    -87.8341E+06    -153.379E+06    -53.9702E+06    -1.53819E+06    -164.792E-03     330.189E-03    -165.397E-03     28.4679E-03    -164.913E-03     329.610E-03    -165.317E-03     28.3001E-03
            1865     3.05043E-03     41.5404E-03    -95.0205E+06    -169.586E+06    -71.9035E+06    -2.26135E+06    -165.113E-03     330.575E-03    -165.462E-03     23.1196E-03    -165.211E-03     329.944E-03    -165.438E-03     22.9984E-03
            1866     2.28713E-03     41.5134E-03    -100.684E+06    -181.870E+06    -83.7928E+06    -1.19667E+06    -165.599E-03     331.063E-03    -165.465E-03     17.3040E-03    -165.682E-03     330.388E-03    -165.474E-03     17.2443E-03
            1867     1.52599E-03     41.4944E-03    -104.333E+06    -196.961E+06    -94.4131E+06     878.396E+03    -165.769E-03     331.083E-03    -165.314E-03     12.0380E-03    -165.835E-03     330.356E-03    -165.349E-03     12.0073E-03
            1868     763.541E-06     41.4814E-03    -108.177E+06    -215.764E+06    -104.744E+06     1.68660E+06    -165.302E-03     330.426E-03    -165.124E-03     6.33112E-03    -165.322E-03     329.658E-03    -165.178E-03     6.34115E-03
            1869     14.5224E-03     41.2524E-03    -5.43873E+06     69.2137E+06     81.5379E+06    -2.22903E+06    -162.340E-03     326.404E-03    -164.064E-03     62.2094E-03    -162.781E-03     326.835E-03    -163.749E-03     59.7793E-03
            1870     13.7503E-03     41.1728E-03    -6.55410E+06     63.3226E+06     79.6842E+06     902.947E+03    -161.248E-03     325.475E-03    -164.227E-03     67.1731E-03    -161.694E-03     325.891E-03    -163.911E-03     64.8047E-03
            1871     12.9832E-03     41.0876E-03    -10.8212E+06     60.2504E+06     75.1611E+06     4.18405E+06    -162.202E-03     326.610E-03    -164.408E-03     69.6843E-03    -162.654E-03     327.020E-03    -164.104E-03     67.4461E-03
            1872     12.2168E-03     41.0026E-03    -19.8332E+06     54.5744E+06     68.3571E+06     5.49329E+06    -163.899E-03     328.430E-03    -164.531E-03     69.0410E-03    -164.373E-03     328.829E-03    -164.240E-03     66.8731E-03
            1873     11.4541E-03     40.9136E-03    -26.7417E+06     45.6978E+06     58.5774E+06     4.35646E+06    -164.372E-03     328.957E-03    -164.585E-03     67.5111E-03    -164.827E-03     329.309E-03    -164.320E-03     65.6003E-03
            1874     10.6900E-03     40.8276E-03    -35.6386E+06     31.2881E+06     44.7741E+06     743.208E+03    -163.749E-03     328.395E-03    -164.646E-03     66.0166E-03    -164.175E-03     328.676E-03    -164.416E-03     64.3724E-03
            1875     9.92516E-03     40.7469E-03    -35.9636E+06     21.2794E+06     42.0196E+06    -1.06840E+06    -163.704E-03     328.485E-03    -164.780E-03     64.4346E-03    -164.095E-03     328.702E-03    -164.549E-03     62.9221E-03
            1876     9.16096E-03     40.6640E-03    -37.8976E+06     1.34327E+06     36.7783E+06    -2.17655E+06    -164.226E-03     329.143E-03    -164.917E-03     61.9435E-03    -164.567E-03     329.248E-03    -164.680E-03     60.6305E-03
            1877     8.39467E-03     40.5906E-03    -45.9035E+06    -27.2454E+06     27.0607E+06    -32.4623E+03    -165.131E-03     330.132E-03    -165.001E-03     56.9463E-03    -165.433E-03     330.096E-03    -164.760E-03     55.8576E-03
            1878     7.63292E-03     40.5201E-03    -51.1658E+06    -50.3438E+06     16.5693E+06     2.63239E+06    -165.510E-03     330.519E-03    -165.009E-03     52.9130E-03    -165.770E-03     330.371E-03    -164.779E-03     52.0629E-03
            1879     6.86968E-03     40.4541E-03    -59.8458E+06    -78.6830E+06    -345.337E+03     2.20289E+06    -164.633E-03     329.656E-03    -165.024E-03     49.2865E-03    -164.845E-03     329.378E-03    -164.824E-03     48.6967E-03
            1880     6.10527E-03     40.3979E-03    -68.6350E+06    -101.543E+06    -13.5666E+06     432.976E+03    -164.302E-03     329.423E-03    -165.120E-03     44.2136E-03    -164.490E-03     329.046E-03    -164.942E-03     43.7547E-03
            1881     5.34080E-03     40.3434E-03    -73.0494E+06    -116.599E+06    -25.9686E+06    -1.76766E+06    -164.498E-03     329.726E-03    -165.228E-03     39.5496E-03    -164.656E-03     329.286E-03    -165.082E-03     39.1896E-03
            1882     4.57788E-03     40.2962E-03    -79.5557E+06    -138.588E+06    -41.0052E+06    -3.01213E+06    -164.796E-03     330.118E-03    -165.322E-03     34.0998E-03    -164.924E-03     329.591E-03    -165.210E-03     33.8194E-03
            1883     3.81457E-03     40.2558E-03    -87.2571E+06    -155.308E+06    -52.9282E+06    -1.69225E+06    -165.304E-03     330.674E-03    -165.370E-03     28.2825E-03    -165.424E-03     330.087E-03    -165.283E-03     28.0970E-03
            1884     3.05186E-03     40.2218E-03    -93.4302E+06    -168.433E+06    -68.3862E+06     81.6042E+03    -165.437E-03     330.765E-03    -165.328E-03     22.7847E-03    -165.536E-03     330.134E-03    -165.290E-03     22.6885E-03
            1885     2.28950E-03     40.1941E-03    -99.1917E+06    -184.012E+06    -85.0409E+06    -390.827E+03    -165.282E-03     330.558E-03    -165.276E-03     17.1575E-03    -165.353E-03     329.870E-03    -165.290E-03     17.0882E-03
            1886     1.52552E-03     40.1749E-03    -104.337E+06    -198.630E+06    -96.2280E+06    -486.148E+03    -165.146E-03     330.450E-03    -165.304E-03     12.0164E-03    -165.206E-03     329.716E-03    -165.345E-03     11.9568E-03
            1887     762.359E-06     40.1636E-03    -105.238E+06    -215.205E+06    -108.170E+06     591.305E+03    -164.975E-03     330.728E-03    -165.752E-03     6.29182E-03    -164.976E-03     329.960E-03    -165.828E-03     6.29066E-03
            1888     14.5121E-03     39.9388E-03    -4.53638E+06     68.5299E+06     78.8696E+06    -1.10974E+06    -161.829E-03     325.979E-03    -164.150E-03     63.3775E-03    -162.266E-03     326.415E-03    -163.849E-03     60.9436E-03
            1889     13.7503E-03     39.8628E-03    -9.97368E+06     56.1383E+06     73.9663E+06     1.38586E+06    -162.727E-03     327.019E-03    -164.292E-03     67.7248E-03    -163.193E-03     327.434E-03    -163.989E-03     65.1578E-03
            1890     12.9834E-03     39.7750E-03    -14.7728E+06     59.1036E+06     74.1365E+06     3.35113E+06    -163.787E-03     328.187E-03    -164.400E-03     68.2355E-03    -164.263E-03     328.606E-03    -164.094E-03     65.8662E-03
            1891     12.2206E-03     39.6842E-03    -22.0638E+06     53.9602E+06     67.9945E+06    -154.799E+03    -163.952E-03     328.419E-03    -164.467E-03     67.8357E-03    -164.446E-03     328.829E-03    -164.174E-03     65.4625E-03
            1892     11.4562E-03     39.5974E-03    -24.5453E+06     43.8117E+06     60.2967E+06     2.33597E+06    -163.206E-03     327.764E-03    -164.558E-03     67.5553E-03    -163.663E-03     328.115E-03    -164.285E-03     65.4909E-03
            1893     10.6896E-03     39.5152E-03    -24.8218E+06     41.7372E+06     56.0822E+06     5.73856E+06    -163.299E-03     327.993E-03    -164.694E-03     67.6564E-03    -163.706E-03     328.298E-03    -164.438E-03     66.0796E-03
            1894     9.92430E-03     39.4290E-03    -26.8907E+06     29.2965E+06     49.5336E+06    -1.52421E+06    -164.364E-03     329.179E-03    -164.814E-03     65.3289E-03    -164.733E-03     329.412E-03    -164.570E-03     63.8295E-03
            1895     9.15866E-03     39.3505E-03    -39.6939E+06     1.19862E+06     35.3203E+06    -1.60565E+06    -164.523E-03     329.419E-03    -164.896E-03     60.5724E-03    -164.870E-03     329.527E-03    -164.663E-03     59.2515E-03
            1896     8.39650E-03     39.2709E-03    -51.0295E+06    -35.0235E+06     18.1831E+06    -397.968E+03    -164.415E-03     329.391E-03    -164.976E-03     57.0419E-03    -164.713E-03     329.331E-03    -164.760E-03     56.0346E-03
            1897     7.63307E-03     39.2012E-03    -50.3121E+06    -56.9874E+06     14.9351E+06    -3.52850E+06    -164.396E-03     329.501E-03    -165.105E-03     53.5289E-03    -164.638E-03     329.319E-03    -164.875E-03     52.6247E-03
            1898     6.86759E-03     39.1401E-03    -57.8321E+06    -73.5597E+06     5.69066E+06     2.92573E+06    -164.493E-03     329.712E-03    -165.219E-03     49.8450E-03    -164.715E-03     329.452E-03    -165.000E-03     49.2281E-03
            1899     6.10386E-03     39.0777E-03    -67.8144E+06    -97.4918E+06    -12.2061E+06     4.17823E+06    -165.029E-03     330.309E-03    -165.280E-03     44.9345E-03    -165.222E-03     329.951E-03    -165.101E-03     44.5123E-03
            1900     5.34174E-03     39.0273E-03    -72.6616E+06    -116.937E+06    -26.4812E+06    -519.628E+03    -165.165E-03     330.474E-03    -165.309E-03     39.6823E-03    -165.321E-03     330.034E-03    -165.166E-03     39.3035E-03
            1901     4.57702E-03     38.9774E-03    -81.5465E+06    -136.002E+06    -43.2984E+06    -1.39085E+06    -165.153E-03     330.478E-03    -165.325E-03     34.8115E-03    -165.286E-03     329.965E-03    -165.226E-03     34.5300E-03
            1902     3.81447E-03     38.9368E-03    -89.9609E+06    -157.638E+06    -56.8259E+06    -1.31074E+06    -165.464E-03     330.793E-03    -165.329E-03     29.1609E-03    -165.581E-03     330.196E-03    -165.254E-03     28.9699E-03
            1903     3.05200E-03     38.9021E-03    -91.9200E+06    -168.277E+06    -65.5984E+06    -276.228E+03    -165.415E-03     330.709E-03    -165.294E-03     23.7232E-03    -165.504E-03     330.065E-03    -165.245E-03     23.6243E-03
            1904     2.28859E-03     38.8765E-03    -98.3475E+06    -182.222E+06    -84.1058E+06     1.03992E+06    -165.174E-03     330.422E-03    -165.247E-03     18.1325E-03    -165.240E-03     329.736E-03    -165.261E-03     18.0978E-03
            1905     1.52578E-03     38.8569E-03    -105.534E+06    -200.541E+06    -98.7731E+06     462.780E+03    -165.135E-03     330.418E-03    -165.283E-03     12.0166E-03    -165.195E-03     329.679E-03    -165.333E-03     12.0306E-03
            1906     762.563E-06     38.8446E-03    -109.364E+06    -214.245E+06    -105.252E+06    -477.660E+03    -165.167E-03     330.694E-03    -165.527E-03     6.16601E-03    -165.195E-03     329.936E-03    -165.584E-03     6.14727E-03
            1907     14.5162E-03     38.6301E-03    -4.27473E+06     69.3062E+06     79.4242E+06     128.511E+03    -162.567E-03     326.781E-03    -164.214E-03     60.3718E-03    -162.999E-03     327.214E-03    -163.911E-03     57.9388E-03
            1908     13.7471E-03     38.5433E-03    -12.7990E+06     55.6325E+06     74.8789E+06     260.135E+03    -163.890E-03     328.200E-03    -164.310E-03     66.9980E-03    -164.377E-03     328.622E-03    -163.997E-03     64.3125E-03
            1909     12.9876E-03     38.4587E-03    -16.5823E+06     57.0847E+06     74.5169E+06     2.17698E+06    -164.253E-03     328.622E-03    -164.369E-03     69.9700E-03    -164.744E-03     329.041E-03    -164.055E-03     67.5484E-03
            1910     12.2214E-03     38.3697E-03    -18.1294E+06     54.5505E+06     69.3763E+06     156.465E+03    -163.158E-03     327.603E-03    -164.445E-03     70.4130E-03    -163.634E-03     328.007E-03    -164.151E-03     68.1225E-03
            1911     11.4536E-03     38.2861E-03    -23.8721E+06     42.8682E+06     57.4732E+06     55.9599E+03    -163.176E-03     327.729E-03    -164.553E-03     68.4190E-03    -163.621E-03     328.075E-03    -164.293E-03     66.3710E-03
            1912     10.6878E-03     38.1996E-03    -24.3914E+06     44.8911E+06     57.7380E+06     297.518E+03    -164.185E-03     328.859E-03    -164.674E-03     66.5265E-03    -164.600E-03     329.179E-03    -164.415E-03     64.8045E-03
            1913     9.92406E-03     38.1118E-03    -29.6854E+06     32.1917E+06     49.1426E+06     1.15061E+06    -164.395E-03     329.141E-03    -164.746E-03     63.4731E-03    -164.773E-03     329.386E-03    -164.504E-03     62.0298E-03
            1914     9.16336E-03     38.0312E-03    -38.8852E+06     1.37375E+06     33.8873E+06     1.87822E+06    -163.995E-03     328.830E-03    -164.835E-03     60.7312E-03    -164.332E-03     328.935E-03    -164.611E-03     59.5010E-03
            1915     8.39685E-03     37.9580E-03    -44.8864E+06    -31.3087E+06     20.8856E+06    -1.71761E+06    -163.395E-03     328.388E-03    -164.994E-03     58.2417E-03    -163.672E-03     328.335E-03    -164.779E-03     57.2098E-03
            1916     7.62911E-03     37.8853E-03    -58.0653E+06    -63.6483E+06     5.39514E+06    -1.85761E+06    -163.579E-03     328.773E-03    -165.194E-03     53.7780E-03    -163.831E-03     328.577E-03    -164.990E-03     52.9558E-03
            1917     6.86656E-03     37.8212E-03    -64.6984E+06    -81.9421E+06    -2.16424E+06    -1.72478E+06    -164.610E-03     329.976E-03    -165.366E-03     49.8206E-03    -164.843E-03     329.695E-03    -165.164E-03     49.1244E-03
            1918     6.10335E-03     37.7602E-03    -65.1442E+06    -94.7931E+06    -8.02156E+06     143.428E+03    -165.251E-03     330.707E-03    -165.456E-03     45.5519E-03    -165.449E-03     330.360E-03    -165.264E-03     44.9878E-03
            1919     5.33934E-03     37.7067E-03    -70.8554E+06    -112.579E+06    -20.7647E+06     4.01903E+06    -165.695E-03     331.154E-03    -165.460E-03     40.0481E-03    -165.865E-03     330.734E-03    -165.298E-03     39.6846E-03
            1920     4.57815E-03     37.6601E-03    -81.2585E+06    -134.181E+06    -41.0189E+06     4.52274E+06    -165.722E-03     331.115E-03    -165.392E-03     34.9892E-03    -165.868E-03     330.615E-03    -165.285E-03     34.7958E-03
            1921     3.81440E-03     37.6171E-03    -87.4722E+06    -155.768E+06    -59.0746E+06    -98.4170E+03    -165.415E-03     330.751E-03    -165.336E-03     29.2129E-03    -165.524E-03     330.168E-03    -165.279E-03     29.0267E-03
            1922     3.05108E-03     37.5841E-03    -92.2381E+06    -171.835E+06    -69.7996E+06    -4.32376E+06    -165.264E-03     330.601E-03    -165.337E-03     23.1389E-03    -165.350E-03     329.953E-03    -165.303E-03     22.9082E-03
            1923     2.28822E-03     37.5574E-03    -101.082E+06    -184.211E+06    -82.9411E+06    -1.86555E+06    -165.324E-03     330.650E-03    -165.326E-03     17.7193E-03    -165.404E-03     329.959E-03    -165.327E-03     17.5978E-03
            1924     1.52575E-03     37.5377E-03    -105.409E+06    -196.942E+06    -97.5887E+06     515.126E+03    -165.401E-03     330.658E-03    -165.257E-03     11.9876E-03    -165.466E-03     329.934E-03    -165.307E-03     11.9827E-03
            1925     763.435E-06     37.5263E-03    -111.777E+06    -215.057E+06    -106.226E+06    -664.914E+03    -165.502E-03     330.485E-03    -164.983E-03     7.10608E-03    -165.540E-03     329.730E-03    -165.040E-03     7.09477E-03
            1926     14.5143E-03     37.3140E-03    -5.73635E+06     71.0634E+06     84.0570E+06     1.64631E+06    -163.241E-03     327.415E-03    -164.174E-03     59.4730E-03    -163.679E-03     327.841E-03    -163.848E-03     57.1384E-03
            1927     13.7529E-03     37.2311E-03    -10.7959E+06     58.1714E+06     77.9060E+06    -938.777E+03    -162.974E-03     327.234E-03    -164.260E-03     67.3766E-03    -163.451E-03     327.652E-03    -163.939E-03     64.7784E-03
            1928     12.9824E-03     37.1417E-03    -13.4684E+06     53.4867E+06     75.0510E+06    -4.30671E+06    -162.843E-03     327.224E-03    -164.380E-03     69.5198E-03    -163.312E-03     327.617E-03    -164.063E-03     67.0254E-03
            1929     12.2177E-03     37.0574E-03    -14.1475E+06     53.5139E+06     74.1915E+06     1.30289E+06    -163.319E-03     327.828E-03    -164.509E-03     68.8244E-03    -163.766E-03     328.200E-03    -164.195E-03     66.6458E-03
            1930     11.4544E-03     36.9697E-03    -17.9577E+06     48.7425E+06     63.7442E+06     4.65053E+06    -164.374E-03     328.942E-03    -164.569E-03     68.6558E-03    -164.793E-03     329.286E-03    -164.295E-03     66.7963E-03
            1931     10.6931E-03     36.8816E-03    -30.8462E+06     37.8944E+06     47.1979E+06    -607.023E+03    -164.721E-03     329.306E-03    -164.584E-03     68.0212E-03    -165.146E-03     329.619E-03    -164.359E-03     66.2715E-03
            1932     9.92892E-03     36.7971E-03    -34.9418E+06     28.4036E+06     43.4812E+06    -469.424E+03    -163.382E-03     328.078E-03    -164.696E-03     65.5193E-03    -163.777E-03     328.323E-03    -164.469E-03     64.0523E-03
            1933     9.15832E-03     36.7179E-03    -39.8800E+06     4.72601E+06     36.2084E+06     2.93530E+06    -163.038E-03     327.932E-03    -164.894E-03     62.9189E-03    -163.387E-03     328.051E-03    -164.662E-03     61.7435E-03
            1934     8.39450E-03     36.6405E-03    -49.9405E+06    -27.8463E+06     21.8113E+06     2.82437E+06    -163.881E-03     328.957E-03    -165.076E-03     58.3412E-03    -164.199E-03     328.936E-03    -164.854E-03     57.2608E-03
            1935     7.63230E-03     36.5719E-03    -55.5549E+06    -54.2024E+06     8.61932E+06     2.33798E+06    -164.103E-03     329.325E-03    -165.222E-03     53.5080E-03    -164.366E-03     329.174E-03    -165.020E-03     52.6252E-03
            1936     6.86589E-03     36.5020E-03    -62.9399E+06    -84.9592E+06    -6.78540E+06    -4.39277E+06    -164.347E-03     329.712E-03    -165.364E-03     49.3308E-03    -164.558E-03     329.417E-03    -165.184E-03     48.5850E-03
            1937     6.10199E-03     36.4429E-03    -69.4555E+06    -104.163E+06    -14.8772E+06    -7.45125E+06    -164.973E-03     330.469E-03    -165.496E-03     44.9638E-03    -165.167E-03     330.090E-03    -165.319E-03     44.2724E-03
            1938     5.33968E-03     36.3862E-03    -78.4321E+06    -118.603E+06    -25.5091E+06    -1.58523E+06    -165.663E-03     331.199E-03    -165.536E-03     39.8114E-03    -165.852E-03     330.763E-03    -165.378E-03     39.3238E-03
            1939     4.57621E-03     36.3399E-03    -78.6458E+06    -129.736E+06    -32.9857E+06     3.19684E+06    -165.921E-03     331.418E-03    -165.497E-03     34.4369E-03    -166.070E-03     330.923E-03    -165.360E-03     34.1767E-03
            1940     3.81463E-03     36.2985E-03    -83.6014E+06    -148.683E+06    -50.2513E+06     2.83347E+06    -165.571E-03     330.987E-03    -165.416E-03     29.1499E-03    -165.685E-03     330.423E-03    -165.331E-03     28.9676E-03
            1941     3.05188E-03     36.2654E-03    -97.6874E+06    -174.774E+06    -74.0605E+06     16.3286E+03    -165.345E-03     330.706E-03    -165.361E-03     23.4236E-03    -165.448E-03     330.058E-03    -165.336E-03     23.2471E-03
            1942     2.28899E-03     36.2386E-03    -102.131E+06    -187.509E+06    -84.6477E+06    -654.402E+03    -165.273E-03     330.640E-03    -165.366E-03     18.1243E-03    -165.351E-03     329.936E-03    -165.370E-03     18.0327E-03
            1943     1.52570E-03     36.2190E-03    -106.359E+06    -196.899E+06    -95.9713E+06     23.1388E+03    -165.290E-03     330.672E-03    -165.382E-03     12.4547E-03    -165.360E-03     329.946E-03    -165.422E-03     12.4233E-03
            1944     762.274E-06     36.2078E-03    -109.434E+06    -215.639E+06    -109.045E+06     1.13744E+06    -165.589E-03     330.833E-03    -165.245E-03     7.20232E-03    -165.607E-03     330.073E-03    -165.318E-03     7.19746E-03
            1945     14.5183E-03     35.9984E-03    -6.07389E+06     71.8113E+06     83.5062E+06     829.456E+03    -162.610E-03     326.715E-03    -164.105E-03     60.4548E-03    -163.054E-03     327.151E-03    -163.783E-03     58.0955E-03
            1946     13.7496E-03     35.9177E-03    -10.4014E+06     63.8075E+06     79.2310E+06    -2.08459E+06    -162.804E-03     327.015E-03    -164.211E-03     67.3690E-03    -163.293E-03     327.463E-03    -163.892E-03     64.7130E-03
            1947     12.9871E-03     35.8309E-03    -11.4765E+06     54.5544E+06     76.6312E+06    -3.25631E+06    -162.778E-03     327.118E-03    -164.340E-03     68.8787E-03    -163.240E-03     327.511E-03    -164.019E-03     66.3801E-03
            1948     12.2207E-03     35.7409E-03    -19.3620E+06     44.2865E+06     67.2871E+06    -3.15292E+06    -163.268E-03     327.719E-03    -164.451E-03     68.3716E-03    -163.722E-03     328.066E-03    -164.151E-03     66.0847E-03
            1949     11.4552E-03     35.6549E-03    -26.5016E+06     39.9989E+06     56.7441E+06     263.770E+03    -163.643E-03     328.180E-03    -164.538E-03     69.6976E-03    -164.086E-03     328.507E-03    -164.274E-03     67.7653E-03
            1950     10.6878E-03     35.5631E-03    -27.5461E+06     40.7366E+06     49.6073E+06     2.92989E+06    -163.423E-03     328.064E-03    -164.641E-03     69.0470E-03    -163.844E-03     328.388E-03    -164.412E-03     67.3117E-03
            1951     9.92215E-03     35.4843E-03    -33.5253E+06     28.8963E+06     43.9803E+06     1.43539E+06    -163.626E-03     328.420E-03    -164.794E-03     65.6527E-03    -164.028E-03     328.678E-03    -164.567E-03     64.0744E-03
            1952     9.16061E-03     35.4029E-03    -40.6534E+06     6.43343E+06     39.1833E+06     2.72559E+06    -163.849E-03     328.816E-03    -164.966E-03     62.0946E-03    -164.215E-03     328.946E-03    -164.721E-03     60.8385E-03
            1953     8.39521E-03     35.3237E-03    -49.5459E+06    -26.1291E+06     24.1073E+06     1.48817E+06    -163.879E-03     328.990E-03    -165.111E-03     58.0293E-03    -164.202E-03     328.974E-03    -164.880E-03     56.9125E-03
            1954     7.62998E-03     35.2530E-03    -51.7924E+06    -50.8890E+06     15.0017E+06     1.85514E+06    -164.483E-03     329.736E-03    -165.254E-03     54.6003E-03    -164.745E-03     329.591E-03    -165.030E-03     53.6994E-03
            1955     6.86796E-03     35.1872E-03    -58.1166E+06    -75.8607E+06     289.870E+03     2.73960E+06    -164.822E-03     330.169E-03    -165.347E-03     50.2469E-03    -165.034E-03     329.905E-03    -165.151E-03     49.5986E-03
            1956     6.10367E-03     35.1237E-03    -70.9843E+06    -108.022E+06    -21.5568E+06    -4.03851E+06    -164.988E-03     330.397E-03    -165.409E-03     45.3651E-03    -165.172E-03     330.008E-03    -165.257E-03     44.7748E-03
            1957     5.33952E-03     35.0681E-03    -77.1433E+06    -123.274E+06    -30.3926E+06    -7.49763E+06    -165.177E-03     330.663E-03    -165.486E-03     39.9615E-03    -165.345E-03     330.208E-03    -165.347E-03     39.3846E-03
            1958     4.57740E-03     35.0194E-03    -84.4218E+06    -135.996E+06    -38.6021E+06    -3.82216E+06    -165.120E-03     330.682E-03    -165.562E-03     34.7165E-03    -165.277E-03     330.169E-03    -165.436E-03     34.2942E-03
            1959     3.81368E-03     34.9796E-03    -90.1086E+06    -150.535E+06    -50.6539E+06     1.00186E+06    -165.145E-03     330.783E-03    -165.638E-03     30.1118E-03    -165.282E-03     330.212E-03    -165.542E-03     29.8820E-03
            1960     3.05062E-03     34.9463E-03    -95.5683E+06    -167.203E+06    -68.3226E+06     4.68209E+06    -165.286E-03     330.988E-03    -165.702E-03     25.1877E-03    -165.392E-03     330.360E-03    -165.662E-03     25.1222E-03
            1961     2.28784E-03     34.9197E-03    -101.714E+06    -185.966E+06    -85.3532E+06     3.75666E+06    -165.540E-03     331.305E-03    -165.765E-03     19.7284E-03    -165.613E-03     330.605E-03    -165.775E-03     19.7349E-03
            1962     1.52491E-03     34.9007E-03    -104.697E+06    -197.737E+06    -95.1826E+06     1.77658E+06    -165.780E-03     331.586E-03    -165.806E-03     13.5355E-03    -165.839E-03     330.850E-03    -165.843E-03     13.5343E-03
            1963     763.075E-06     34.8867E-03    -108.148E+06    -211.778E+06    -102.682E+06     1.18900E+06    -165.731E-03     331.674E-03    -165.944E-03     7.34595E-03    -165.752E-03     330.918E-03    -165.993E-03     7.34954E-03
            1964     14.5155E-03     34.6867E-03    -2.64474E+06     73.0893E+06     84.1313E+06     806.849E+03    -162.029E-03     326.107E-03    -164.078E-03     61.4959E-03    -162.459E-03     326.543E-03    -163.759E-03     59.1444E-03
            1965     13.7526E-03     34.6027E-03    -10.9615E+06     68.2465E+06     79.6525E+06    -347.469E+03    -162.765E-03     326.966E-03    -164.202E-03     68.5578E-03    -163.267E-03     327.441E-03    -163.887E-03     65.9108E-03
            1966     12.9853E-03     34.5164E-03    -19.5469E+06     52.5908E+06     69.9286E+06    -1.72746E+06    -163.118E-03     327.427E-03    -164.309E-03     70.8503E-03    -163.618E-03     327.842E-03    -164.007E-03     68.3380E-03
            1967     12.2204E-03     34.4278E-03    -22.0382E+06     42.4049E+06     62.3796E+06    -3.18080E+06    -163.109E-03     327.530E-03    -164.421E-03     71.4219E-03    -163.582E-03     327.894E-03    -164.138E-03     69.0641E-03
            1968     11.4551E-03     34.3397E-03    -25.8688E+06     40.4832E+06     57.4815E+06    -4.31324E+06    -163.399E-03     327.944E-03    -164.545E-03     70.6259E-03    -163.857E-03     328.288E-03    -164.279E-03     68.4997E-03
            1969     10.6905E-03     34.2522E-03    -28.8120E+06     40.8295E+06     53.3423E+06    -3.82381E+06    -163.502E-03     328.172E-03    -164.669E-03     67.0068E-03    -163.941E-03     328.498E-03    -164.420E-03     65.0746E-03
            1970     9.92485E-03     34.1668E-03    -37.4633E+06     29.0034E+06     44.2229E+06     625.293E+03    -163.739E-03     328.531E-03    -164.792E-03     63.5420E-03    -164.162E-03     328.796E-03    -164.559E-03     61.8755E-03
            1971     9.15997E-03     34.0841E-03    -44.2566E+06     1.67115E+06     35.1636E+06     2.28186E+06    -163.714E-03     328.659E-03    -164.945E-03     61.5899E-03    -164.086E-03     328.778E-03    -164.707E-03     60.2857E-03
            1972     8.39544E-03     34.0113E-03    -44.6390E+06    -24.9185E+06     25.9053E+06     914.783E+03    -163.449E-03     328.574E-03    -165.124E-03     59.1716E-03    -163.747E-03     328.549E-03    -164.894E-03     58.1000E-03
            1973     7.63045E-03     33.9349E-03    -52.9422E+06    -52.6622E+06     12.7910E+06     2.01459E+06    -164.065E-03     329.376E-03    -165.312E-03     56.0513E-03    -164.319E-03     329.219E-03    -165.094E-03     55.2500E-03
            1974     6.86585E-03     33.8677E-03    -60.7341E+06    -76.1004E+06     2.24193E+06     4.34865E+06    -165.248E-03     330.683E-03    -165.436E-03     51.8683E-03    -165.477E-03     330.420E-03    -165.226E-03     51.2512E-03
            1975     6.10337E-03     33.8064E-03    -66.2892E+06    -96.8299E+06    -12.6701E+06     5.81889E+06    -165.351E-03     330.822E-03    -165.471E-03     46.7731E-03    -165.542E-03     330.470E-03    -165.298E-03     46.3167E-03
            1976     5.34077E-03     33.7490E-03    -75.7876E+06    -122.637E+06    -32.3432E+06    -117.092E+03    -164.542E-03     330.093E-03    -165.551E-03     41.5551E-03    -164.706E-03     329.646E-03    -165.425E-03     41.1059E-03
            1977     4.57557E-03     33.7026E-03    -86.3087E+06    -144.057E+06    -49.0827E+06    -4.65952E+06    -164.379E-03     330.120E-03    -165.741E-03     36.5223E-03    -164.529E-03     329.595E-03    -165.652E-03     36.0835E-03
            1978     3.81177E-03     33.6606E-03    -91.0584E+06    -156.331E+06    -59.0138E+06    -4.13469E+06    -164.838E-03     330.815E-03    -165.977E-03     31.1518E-03    -164.967E-03     330.237E-03    -165.913E-03     30.8517E-03
            1979     3.04837E-03     33.6269E-03    -92.2275E+06    -164.704E+06    -66.5277E+06    -2.20182E+06    -165.460E-03     331.643E-03    -166.183E-03     25.2962E-03    -165.564E-03     331.028E-03    -166.143E-03     25.1022E-03
            1980     2.28527E-03     33.5994E-03    -99.4919E+06    -180.859E+06    -82.4478E+06     111.584E+03    -166.030E-03     332.322E-03    -166.292E-03     19.3129E-03    -166.110E-03     331.648E-03    -166.298E-03     19.2396E-03
            1981     1.52404E-03     33.5783E-03    -104.855E+06    -196.168E+06    -95.8898E+06    -258.473E+03    -166.281E-03     332.614E-03    -166.333E-03     13.2413E-03    -166.343E-03     331.888E-03    -166.376E-03     13.1977E-03
            1982     761.394E-06     33.5676E-03    -105.955E+06    -210.638E+06    -104.337E+06    -567.180E+03    -166.353E-03     332.755E-03    -166.401E-03     7.31522E-03    -166.359E-03     332.001E-03    -166.464E-03     7.29721E-03
            1983     14.5187E-03     33.3730E-03    -5.27766E+06     70.6975E+06     84.1728E+06     716.759E+03    -162.141E-03     326.238E-03    -164.097E-03     62.5808E-03    -162.585E-03     326.670E-03    -163.771E-03     60.2076E-03
            1984     13.7492E-03     33.2910E-03    -8.14990E+06     71.1329E+06     84.8842E+06     2.76131E+06    -162.666E-03     326.899E-03    -164.233E-03     68.8376E-03    -163.165E-03     327.376E-03    -163.900E-03     66.2441E-03
            1985     12.9853E-03     33.2003E-03    -16.5179E+06     56.6846E+06     72.3304E+06    -2.01403E+06    -162.917E-03     327.250E-03    -164.333E-03     69.8958E-03    -163.419E-03     327.684E-03    -164.029E-03     67.2983E-03
            1986     12.2191E-03     33.1162E-03    -23.7169E+06     46.2869E+06     61.5884E+06    -3.71117E+06    -163.094E-03     327.535E-03    -164.440E-03     70.5555E-03    -163.583E-03     327.925E-03    -164.165E-03     68.1628E-03
            1987     11.4538E-03     33.0220E-03    -25.5031E+06     45.0592E+06     58.4062E+06    -3.81503E+06    -163.560E-03     328.124E-03    -164.564E-03     71.2161E-03    -164.028E-03     328.493E-03    -164.301E-03     69.0685E-03
            1988     10.6899E-03     32.9367E-03    -36.2834E+06     32.7936E+06     46.2214E+06    -2.35529E+06    -163.891E-03     328.554E-03    -164.664E-03     69.4141E-03    -164.350E-03     328.867E-03    -164.427E-03     67.5132E-03
            1989     9.92675E-03     32.8504E-03    -42.0126E+06     24.7254E+06     37.7360E+06    -84.0706E+03    -163.233E-03     328.029E-03    -164.796E-03     66.9958E-03    -163.661E-03     328.286E-03    -164.582E-03     65.4235E-03
            1990     9.15975E-03     32.7732E-03    -43.2949E+06     -460.55E+03     30.6884E+06    -1.89890E+06    -163.105E-03     328.112E-03    -165.008E-03     64.3575E-03    -163.465E-03     328.228E-03    -164.791E-03     63.0174E-03
            1991     8.39417E-03     32.6915E-03    -47.1836E+06    -29.1011E+06     23.4936E+06     1.01854E+06    -164.035E-03     329.256E-03    -165.221E-03     60.8854E-03    -164.343E-03     329.225E-03    -164.993E-03     59.7531E-03
            1992     7.62957E-03     32.6224E-03    -54.1804E+06    -49.8847E+06     12.5448E+06     3.23194E+06    -164.508E-03     329.876E-03    -165.368E-03     56.4891E-03    -164.777E-03     329.740E-03    -165.154E-03     55.5965E-03
            1993     6.86494E-03     32.5475E-03    -64.2157E+06    -78.4014E+06    -927.744E+03     1.45269E+06    -164.420E-03     329.939E-03    -165.520E-03     51.8597E-03    -164.657E-03     329.673E-03    -165.318E-03     51.1703E-03
            1994     6.10235E-03     32.4862E-03    -69.4905E+06    -96.4178E+06     -9.8938E+06     3.02344E+06    -164.307E-03     330.016E-03    -165.709E-03     47.3649E-03    -164.519E-03     329.668E-03    -165.518E-03     46.8058E-03
            1995     5.33731E-03     32.4333E-03    -75.5079E+06    -116.407E+06    -29.0624E+06     4.03251E+06    -164.326E-03     330.225E-03    -165.899E-03     43.0578E-03    -164.497E-03     329.800E-03    -165.766E-03     42.6374E-03
            1996     4.57390E-03     32.3840E-03    -79.8584E+06    -136.449E+06    -45.1496E+06    -1.46083E+06    -164.767E-03     330.895E-03    -166.129E-03     37.8559E-03    -164.897E-03     330.389E-03    -166.041E-03     37.5009E-03
            1997     3.81059E-03     32.3415E-03    -88.9767E+06    -155.892E+06    -58.8467E+06    -3.63893E+06    -165.526E-03     331.863E-03    -166.337E-03     31.6866E-03    -165.646E-03     331.285E-03    -166.277E-03     31.3957E-03
            1998     3.04795E-03     32.3061E-03    -101.594E+06    -176.072E+06    -77.4856E+06    -3.95264E+06    -166.154E-03     332.591E-03    -166.438E-03     25.2426E-03    -166.273E-03     331.951E-03    -166.422E-03     25.0247E-03
            1999     2.28665E-03     32.2770E-03    -103.000E+06    -183.008E+06    -86.6833E+06    -3.71213E+06    -166.392E-03     332.865E-03    -166.474E-03     18.7816E-03    -166.483E-03     332.194E-03    -166.493E-03     18.6492E-03
            2000     1.52345E-03     32.2579E-03    -106.986E+06    -196.436E+06    -99.4826E+06    -2.68109E+06    -166.466E-03     332.938E-03    -166.472E-03     12.4977E-03    -166.532E-03     332.219E-03    -166.530E-03     12.3895E-03
            2001     762.140E-06     32.2435E-03    -112.151E+06    -215.002E+06    -109.773E+06    -1.07842E+06    -166.627E-03     333.015E-03    -166.388E-03     6.75344E-03    -166.644E-03     332.251E-03    -166.463E-03     6.71936E-03
            2002     14.5142E-03     32.0599E-03    -5.29186E+06     69.6410E+06     84.2717E+06     256.397E+03    -162.413E-03     326.510E-03    -164.097E-03     62.5663E-03    -162.858E-03     326.940E-03    -163.769E-03     60.1606E-03
            2003     13.7530E-03     31.9759E-03    -8.90375E+06     69.9144E+06     85.3176E+06    -998.522E+03    -162.792E-03     327.017E-03    -164.224E-03     67.9442E-03    -163.292E-03     327.486E-03    -163.886E-03     65.3047E-03
            2004     12.9854E-03     31.8887E-03    -11.1152E+06     63.7233E+06     81.0238E+06    -130.657E+03    -162.730E-03     327.075E-03    -164.345E-03     70.3091E-03    -163.227E-03     327.524E-03    -164.016E-03     67.7463E-03
            2005     12.2210E-03     31.7994E-03    -18.6019E+06     50.8887E+06     67.5123E+06     889.418E+03    -163.013E-03     327.464E-03    -164.452E-03     70.7171E-03    -163.485E-03     327.855E-03    -164.161E-03     68.4459E-03
            2006     11.4550E-03     31.7115E-03    -31.7459E+06     38.2639E+06     48.7320E+06    -386.055E+03    -162.571E-03     327.141E-03    -164.569E-03     71.7506E-03    -163.040E-03     327.491E-03    -164.335E-03     69.7264E-03
            2007     10.6883E-03     31.6183E-03    -37.8162E+06     30.7088E+06     39.0439E+06    -2.29493E+06    -162.360E-03     327.124E-03    -164.764E-03     70.7174E-03    -162.816E-03     327.442E-03    -164.559E-03     68.8089E-03
            2008     9.92063E-03     31.5386E-03    -41.2617E+06     23.0209E+06     35.9085E+06    -3.70806E+06    -163.197E-03     328.189E-03    -164.992E-03     68.0805E-03    -163.626E-03     328.449E-03    -164.786E-03     66.3765E-03
            2009     9.15667E-03     31.4547E-03    -45.3064E+06    -328.513E+03     30.1153E+06    -2.24233E+06    -164.184E-03     329.369E-03    -165.185E-03     65.0081E-03    -164.562E-03     329.498E-03    -164.968E-03     63.5761E-03
            2010     8.39235E-03     31.3781E-03    -54.4192E+06    -33.0740E+06     18.4604E+06    -1.50647E+06    -164.771E-03     330.094E-03    -165.323E-03     61.0615E-03    -165.110E-03     330.068E-03    -165.103E-03     59.8318E-03
            2011     7.62992E-03     31.2991E-03    -62.0594E+06    -55.7018E+06     9.07564E+06     387.933E+03    -164.489E-03     329.944E-03    -165.456E-03     57.0031E-03    -164.796E-03     329.808E-03    -165.240E-03     55.9829E-03
            2012     6.86746E-03     31.2345E-03    -62.6974E+06    -72.6361E+06     1.57285E+06     4.08272E+06    -163.338E-03     329.020E-03    -165.682E-03     53.5390E-03    -163.588E-03     328.785E-03    -165.478E-03     52.8362E-03
            2013     6.09876E-03     31.1697E-03    -65.7728E+06    -94.6232E+06    -10.8415E+06     1.54819E+06    -163.383E-03     329.393E-03    -166.010E-03     49.0539E-03    -163.582E-03     329.054E-03    -165.832E-03     48.5128E-03
            2014     5.33524E-03     31.1143E-03    -74.0312E+06    -111.472E+06    -24.1905E+06    -67.4831E+03    -164.611E-03     330.929E-03    -166.319E-03     43.2087E-03    -164.790E-03     330.521E-03    -166.171E-03     42.7539E-03
            2015     4.57160E-03     31.0641E-03    -87.3529E+06    -134.484E+06    -44.8824E+06     2.29021E+06    -165.551E-03     332.065E-03    -166.514E-03     38.0727E-03    -165.718E-03     331.575E-03    -166.417E-03     37.7961E-03
            2016     3.80913E-03     31.0202E-03    -94.9595E+06    -159.144E+06    -62.1836E+06     405.046E+03    -166.289E-03     332.916E-03    -166.627E-03     32.1864E-03    -166.427E-03     332.332E-03    -166.569E-03     31.9421E-03
            2017     3.04764E-03     30.9835E-03    -99.8503E+06    -174.234E+06    -76.9888E+06    -1.18188E+06    -166.571E-03     333.229E-03    -166.658E-03     25.7770E-03    -166.680E-03     332.589E-03    -166.646E-03     25.6012E-03
            2018     2.28505E-03     30.9559E-03    -106.304E+06    -188.174E+06    -91.9299E+06    -1.98393E+06    -166.529E-03     333.206E-03    -166.677E-03     19.7506E-03    -166.618E-03     332.518E-03    -166.710E-03     19.6544E-03
            2019     1.52439E-03     30.9347E-03    -110.496E+06    -200.300E+06    -100.157E+06    -519.029E+03    -166.676E-03     333.398E-03    -166.722E-03     13.8890E-03    -166.749E-03     332.663E-03    -166.772E-03     13.8322E-03
            2020     762.115E-06     30.9232E-03    -115.437E+06    -216.067E+06    -111.062E+06     2.20278E+06    -166.839E-03     333.516E-03    -166.677E-03     7.60209E-03    -166.864E-03     332.745E-03    -166.752E-03     7.64552E-03
            2021     14.5195E-03     30.7441E-03    -2.84088E+06     70.8871E+06     85.3933E+06    -427.850E+03    -161.749E-03     325.794E-03    -164.044E-03     62.0676E-03    -162.184E-03     326.222E-03    -163.716E-03     59.6608E-03
            2022     13.7504E-03     30.6633E-03    -8.29980E+06     70.7686E+06     84.7280E+06    -1.23378E+06    -161.705E-03     325.918E-03    -164.213E-03     68.9490E-03    -162.202E-03     326.391E-03    -163.880E-03     66.3502E-03
            2023     12.9857E-03     30.5755E-03    -16.7468E+06     59.5704E+06     76.2425E+06     -711.59E+03    -162.363E-03     326.739E-03    -164.376E-03     72.5915E-03    -162.879E-03     327.186E-03    -164.057E-03     70.0623E-03
            2024     12.2187E-03     30.4849E-03    -20.3020E+06     46.9713E+06     66.8946E+06     1.60080E+06    -162.849E-03     327.371E-03    -164.522E-03     72.8510E-03    -163.333E-03     327.756E-03    -164.226E-03     70.5481E-03
            2025     11.4538E-03     30.3975E-03    -22.1483E+06     43.6533E+06     57.6172E+06     2.70603E+06    -162.764E-03     327.428E-03    -164.664E-03     71.6891E-03    -163.209E-03     327.782E-03    -164.407E-03     69.6693E-03
            2026     10.6860E-03     30.3091E-03    -28.4075E+06     39.4757E+06     47.1712E+06    -869.586E+03    -162.159E-03     327.014E-03    -164.855E-03     69.1149E-03    -162.593E-03     327.351E-03    -164.636E-03     67.1761E-03
            2027     9.92106E-03     30.2210E-03    -40.9784E+06     21.7180E+06     36.6829E+06    -3.13459E+06    -162.848E-03     327.945E-03    -165.098E-03     66.7153E-03    -163.273E-03     328.196E-03    -164.886E-03     65.0040E-03
            2028     9.15657E-03     30.1381E-03    -50.8856E+06    -5.42358E+06     28.4293E+06    -743.798E+03    -164.425E-03     329.727E-03    -165.301E-03     64.7738E-03    -164.816E-03     329.835E-03    -165.077E-03     63.4088E-03
            2029     8.39388E-03     30.0581E-03    -53.8438E+06    -30.3591E+06     19.0292E+06     1.12641E+06    -164.326E-03     329.777E-03    -165.451E-03     61.7012E-03    -164.663E-03     329.760E-03    -165.234E-03     60.5189E-03
            2030     7.62827E-03     29.9844E-03    -58.8541E+06    -58.2456E+06     4.56621E+06    -1.93875E+06    -163.156E-03     328.829E-03    -165.673E-03     58.4369E-03    -163.435E-03     328.679E-03    -165.480E-03     57.4517E-03
            2031     6.85999E-03     29.9180E-03    -63.8127E+06    -78.5065E+06    -2.22396E+06    -3.13917E+06    -163.470E-03     329.482E-03    -166.011E-03     55.0417E-03    -163.715E-03     329.228E-03    -165.816E-03     54.2411E-03
            2032     6.09828E-03     29.8532E-03    -68.1328E+06    -92.4363E+06    -8.47715E+06     3.22325E+06    -164.289E-03     330.628E-03    -166.338E-03     49.7704E-03    -164.510E-03     330.303E-03    -166.148E-03     49.2241E-03
            2033     5.33342E-03     29.7940E-03    -77.6935E+06    -112.876E+06    -25.8377E+06     4.80843E+06    -164.995E-03     331.584E-03    -166.589E-03     43.6186E-03    -165.193E-03     331.181E-03    -166.442E-03     43.2462E-03
            2034     4.57095E-03     29.7436E-03    -88.0932E+06    -134.665E+06    -44.9250E+06     1.82720E+06    -166.059E-03     332.815E-03    -166.756E-03     38.2482E-03    -166.238E-03     332.334E-03    -166.657E-03     37.9235E-03
            2035     3.80876E-03     29.6972E-03    -93.6515E+06    -155.540E+06    -61.4718E+06     1.09930E+06    -166.456E-03     333.301E-03    -166.845E-03     32.1776E-03    -166.602E-03     332.741E-03    -166.791E-03     31.9347E-03
            2036     3.04643E-03     29.6615E-03    -96.7396E+06    -171.095E+06    -74.5975E+06    -249.585E+03    -166.492E-03     333.424E-03    -166.933E-03     25.8303E-03    -166.596E-03     332.796E-03    -166.917E-03     25.6555E-03
            2037     2.28482E-03     29.6332E-03    -104.318E+06    -188.562E+06    -90.2524E+06    -867.647E+03    -166.676E-03     333.713E-03    -167.036E-03     19.7705E-03    -166.752E-03     333.012E-03    -167.063E-03     19.6610E-03
            2038     1.52160E-03     29.6125E-03    -111.883E+06    -204.932E+06    -102.897E+06    -710.096E+03    -166.896E-03     334.061E-03    -167.164E-03     13.7193E-03    -166.964E-03     333.306E-03    -167.220E-03     13.6686E-03
            2039     760.614E-06     29.5983E-03    -113.300E+06    -214.872E+06    -108.724E+06    -815.656E+03    -167.253E-03     334.535E-03    -167.282E-03     7.47871E-03    -167.275E-03     333.764E-03    -167.349E-03     7.46100E-03
            2040     14.5184E-03     29.4382E-03    -5.50536E+06     69.9254E+06     84.6367E+06     317.741E+03    -161.281E-03     325.327E-03    -164.046E-03     63.4579E-03    -161.728E-03     325.757E-03    -163.716E-03     61.0757E-03
            2041     13.7509E-03     29.3512E-03    -6.81918E+06     72.4625E+06     86.2313E+06     1.31854E+06    -161.182E-03     325.429E-03    -164.247E-03     70.3376E-03    -161.678E-03     325.908E-03    -163.911E-03     67.7942E-03
            2042     12.9831E-03     29.2618E-03    -14.5318E+06     58.7816E+06     73.6696E+06     1.15483E+06    -162.207E-03     326.622E-03    -164.415E-03     71.9616E-03    -162.701E-03     327.060E-03    -164.111E-03     69.5028E-03
            2043     12.2178E-03     29.1725E-03    -25.0027E+06     45.5864E+06     59.3137E+06    -1.22262E+06    -162.431E-03     326.997E-03    -164.566E-03     71.6395E-03    -162.926E-03     327.393E-03    -164.300E-03     69.2731E-03
            2044     11.4516E-03     29.0808E-03    -24.9067E+06     45.7508E+06     58.1380E+06    -1.87901E+06    -162.812E-03     327.567E-03    -164.755E-03     71.8937E-03    -163.277E-03     327.937E-03    -164.495E-03     69.8039E-03
            2045     10.6895E-03     28.9950E-03    -28.5342E+06     39.4717E+06     51.7479E+06     2.00008E+06    -163.476E-03     328.399E-03    -164.923E-03     70.2714E-03    -163.919E-03     328.731E-03    -164.680E-03     68.3913E-03
            2046     9.92196E-03     28.9086E-03    -36.5882E+06     26.2559E+06     40.2315E+06     3.26488E+06    -163.008E-03     328.108E-03    -165.099E-03     67.8939E-03    -163.427E-03     328.373E-03    -164.883E-03     66.2643E-03
            2047     9.15542E-03     28.8209E-03    -44.5397E+06    -7.52315E+06     26.6155E+06    -383.349E+03    -162.573E-03     327.938E-03    -165.364E-03     66.4186E-03    -162.929E-03     328.031E-03    -165.156E-03     65.0996E-03
            2048     8.38985E-03     28.7400E-03    -48.7095E+06    -37.4740E+06     18.4038E+06    -2.29428E+06    -162.713E-03     328.416E-03    -165.703E-03     62.8810E-03    -163.016E-03     328.359E-03    -165.486E-03     61.6606E-03
            2049     7.62390E-03     28.6722E-03    -49.1949E+06    -50.0368E+06     14.2693E+06    -61.4245E+03    -163.489E-03     329.528E-03    -166.039E-03     58.9850E-03    -163.745E-03     329.391E-03    -165.824E-03     58.0132E-03
            2050     6.86097E-03     28.5986E-03    -61.7084E+06    -78.4067E+06    -1.94877E+06    -1.64981E+06    -164.733E-03     331.036E-03    -166.303E-03     54.8281E-03    -164.964E-03     330.775E-03    -166.110E-03     54.0618E-03
            2051     6.09597E-03     28.5332E-03    -79.7025E+06    -105.821E+06    -18.4371E+06    -2.49517E+06    -165.266E-03     331.779E-03    -166.513E-03     48.8533E-03    -165.508E-03     331.416E-03    -166.336E-03     48.1542E-03
            2052     5.33320E-03     28.4756E-03    -78.7836E+06    -109.819E+06    -23.3968E+06     4.64195E+06    -165.559E-03     332.259E-03    -166.700E-03     43.6444E-03    -165.762E-03     331.860E-03    -166.544E-03     43.2306E-03
            2053     4.57004E-03     28.4196E-03    -78.0916E+06    -125.082E+06    -36.9962E+06     3.34706E+06    -166.031E-03     332.878E-03    -166.847E-03     38.0645E-03    -166.175E-03     332.408E-03    -166.737E-03     37.7385E-03
            2054     3.80818E-03     28.3761E-03    -92.0427E+06    -152.336E+06    -59.4008E+06     435.839E+03    -166.183E-03     333.163E-03    -166.980E-03     31.8894E-03    -166.324E-03     332.609E-03    -166.923E-03     31.6085E-03
            2055     3.04571E-03     28.3387E-03    -104.017E+06    -175.776E+06    -78.6158E+06     706.032E+03    -166.503E-03     333.625E-03    -167.121E-03     25.9523E-03    -166.631E-03     332.989E-03    -167.109E-03     25.7532E-03
            2056     2.28359E-03     28.3100E-03    -108.332E+06    -191.062E+06    -91.0819E+06    -771.385E+03    -167.141E-03     334.341E-03    -167.200E-03     19.4900E-03    -167.223E-03     333.627E-03    -167.222E-03     19.3314E-03
            2057     1.52361E-03     28.2885E-03    -110.675E+06    -204.042E+06    -104.332E+06    -923.195E+03    -167.318E-03     334.475E-03    -167.158E-03     12.8767E-03    -167.370E-03     333.715E-03    -167.223E-03     12.7837E-03
            2058     761.666E-06     28.2749E-03    -112.989E+06    -218.898E+06    -113.858E+06    -4.25344E+06    -167.066E-03     334.328E-03    -167.263E-03     7.19447E-03    -167.073E-03     333.543E-03    -167.351E-03     7.08826E-03
            2059     14.5155E-03     28.1209E-03    -3.71457E+06     71.1003E+06     85.7150E+06     242.472E+03    -161.496E-03     325.610E-03    -164.115E-03     63.5562E-03    -161.936E-03     326.041E-03    -163.784E-03     61.1818E-03
            2060     13.7506E-03     28.0430E-03    -9.10237E+06     70.0237E+06     84.8448E+06     711.752E+03    -162.498E-03     326.773E-03    -164.275E-03     70.2104E-03    -163.006E-03     327.251E-03    -163.939E-03     67.5806E-03
            2061     12.9847E-03     27.9467E-03    -11.1837E+06     60.8380E+06     78.3094E+06     2.60206E+06    -162.116E-03     326.540E-03    -164.424E-03     71.7399E-03    -162.607E-03     326.981E-03    -164.105E-03     69.2617E-03
            2062     12.2192E-03     27.8593E-03    -16.8918E+06     52.1033E+06     65.2264E+06     2.22587E+06    -161.818E-03     326.409E-03    -164.591E-03     71.3508E-03    -162.286E-03     326.813E-03    -164.316E-03     69.0609E-03
            2063     11.4517E-03     27.7704E-03    -31.9268E+06     38.9653E+06     47.9400E+06    -60.1753E+03    -161.991E-03     326.781E-03    -164.791E-03     72.5859E-03    -162.467E-03     327.143E-03    -164.561E-03     70.5279E-03
            2064     10.6825E-03     27.6758E-03    -37.7037E+06     30.8870E+06     42.2200E+06    -2.77955E+06    -162.730E-03     327.762E-03    -165.032E-03     72.1194E-03    -163.192E-03     328.077E-03    -164.811E-03     70.2229E-03
            2065     9.92202E-03     27.5926E-03    -36.8566E+06     26.1833E+06     41.1418E+06    -2.42489E+06    -163.028E-03     328.308E-03    -165.280E-03     70.8868E-03    -163.457E-03     328.580E-03    -165.058E-03     69.1270E-03
            2066     9.15605E-03     27.5096E-03    -39.3297E+06     185.483E+03     32.2177E+06     762.534E+03    -162.214E-03     327.801E-03    -165.587E-03     68.7748E-03    -162.574E-03     327.928E-03    -165.369E-03     67.3728E-03
            2067     8.38668E-03     27.4273E-03    -47.0234E+06    -34.8072E+06     20.7627E+06    -2.01131E+06    -162.556E-03     328.526E-03    -165.970E-03     63.3676E-03    -162.858E-03     328.477E-03    -165.747E-03     62.1700E-03
            2068     7.62215E-03     27.3518E-03     -58.358E+06    -56.8638E+06     11.5926E+06    -133.295E+03    -164.410E-03     330.705E-03    -166.296E-03     59.1118E-03    -164.702E-03     330.556E-03    -166.071E-03     58.0859E-03
            2069     6.85852E-03     27.2786E-03    -63.6028E+06    -74.0514E+06     506.546E+03     6.51102E+06    -165.584E-03     332.070E-03    -166.486E-03     55.3175E-03    -165.839E-03     331.835E-03    -166.284E-03     54.6224E-03
            2070     6.09654E-03     27.2140E-03    -68.8298E+06    -97.0807E+06    -15.6727E+06     1.66615E+06    -166.241E-03     332.823E-03    -166.582E-03     49.2817E-03    -166.448E-03     332.486E-03    -166.419E-03     48.6587E-03
            2071     5.33380E-03     27.1530E-03    -76.6945E+06    -114.369E+06    -24.8648E+06    -3.33171E+06    -166.452E-03     333.114E-03    -166.662E-03     43.5211E-03    -166.640E-03     332.696E-03    -166.509E-03     42.9291E-03
            2072     4.57145E-03     27.0999E-03    -83.7902E+06    -128.074E+06    -36.6514E+06     1.83793E+06    -165.766E-03     332.537E-03    -166.771E-03     37.2063E-03    -165.936E-03     332.061E-03    -166.647E-03     36.8228E-03
            2073     3.80770E-03     27.0534E-03    -93.0867E+06    -150.681E+06    -57.4058E+06     3.37409E+06    -165.740E-03     332.689E-03    -166.948E-03     31.4352E-03    -165.887E-03     332.137E-03    -166.882E-03     31.1842E-03
            2074     3.04567E-03     27.0168E-03    -102.243E+06    -173.849E+06    -75.7334E+06     554.553E+03    -166.555E-03     333.676E-03    -167.121E-03     25.9235E-03    -166.677E-03     333.040E-03    -167.099E-03     25.6928E-03
            2075     2.28447E-03     26.9849E-03    -108.502E+06    -190.886E+06    -92.1673E+06    -336.260E+03    -167.104E-03     334.286E-03    -167.183E-03     19.7344E-03    -167.188E-03     333.577E-03    -167.209E-03     19.5783E-03
            2076     1.52258E-03     26.9646E-03    -111.859E+06    -203.851E+06    -102.736E+06    -608.726E+03    -167.356E-03     334.496E-03    -167.140E-03     13.4694E-03    -167.424E-03     333.743E-03    -167.196E-03     13.3716E-03
            2077     761.774E-06     26.9519E-03    -114.153E+06    -221.009E+06    -113.731E+06     864.611E+03    -167.155E-03     334.237E-03    -167.082E-03     7.70911E-03    -167.172E-03     333.453E-03    -167.165E-03     7.63727E-03
            2078     14.5158E-03     26.8113E-03    -1.54131E+06     72.8763E+06     85.7305E+06    -1.67115E+06    -161.399E-03     325.497E-03    -164.098E-03     62.7475E-03    -161.831E-03     325.933E-03    -163.773E-03     60.3239E-03
            2079     13.7501E-03     26.7238E-03    -6.53799E+06     68.6179E+06     85.1634E+06    -2.81273E+06    -161.844E-03     326.127E-03    -164.283E-03     69.7478E-03    -162.340E-03     326.597E-03    -163.947E-03     67.0447E-03
            2080     12.9856E-03     26.6372E-03    -14.5558E+06     53.4319E+06     77.2300E+06     1.90352E+06    -161.478E-03     325.961E-03    -164.483E-03     73.7348E-03    -161.982E-03     326.380E-03    -164.154E-03     71.2190E-03
            2081     12.2161E-03     26.5469E-03    -17.9675E+06     48.2463E+06     68.9998E+06     5.37948E+06    -161.876E-03     326.569E-03    -164.693E-03     74.0665E-03    -162.356E-03     326.956E-03    -164.392E-03     71.8255E-03
            2082     11.4514E-03     26.4557E-03    -20.4437E+06     46.9669E+06     59.1830E+06     4.23670E+06    -161.938E-03     326.844E-03    -164.906E-03     73.2780E-03    -162.396E-03     327.225E-03    -164.648E-03     71.1854E-03
            2083     10.6868E-03     26.3668E-03    -27.4851E+06     39.9175E+06     47.5808E+06     506.145E+03    -161.052E-03     326.245E-03    -165.192E-03     72.8313E-03    -161.484E-03     326.583E-03    -164.972E-03     71.0032E-03
            2084     9.91370E-03     26.2750E-03    -38.3605E+06     18.3882E+06     37.2220E+06    -5.67579E+06    -161.985E-03     327.540E-03    -165.556E-03     71.2744E-03    -162.401E-03     327.778E-03    -165.341E-03     69.5143E-03
            2085     9.14908E-03     26.1941E-03    -40.9221E+06    -110.760E+03     36.4855E+06    -3.27348E+06    -163.481E-03     329.383E-03    -165.903E-03     68.1443E-03    -163.863E-03     329.514E-03    -165.661E-03     66.5276E-03
            2086     8.38699E-03     26.1111E-03    -47.7403E+06    -25.7112E+06     23.9605E+06     3.95187E+06    -164.265E-03     330.419E-03    -166.153E-03     64.3831E-03    -164.592E-03     330.415E-03    -165.927E-03     63.2060E-03
            2087     7.62202E-03     26.0334E-03    -62.7506E+06    -63.9428E+06     2.18272E+06     709.736E+03    -165.244E-03     331.583E-03    -166.339E-03     59.2913E-03    -165.534E-03     331.417E-03    -166.144E-03     58.2599E-03
            2088     6.85818E-03     25.9586E-03    -65.5159E+06    -79.5747E+06    -1.39516E+06    -812.021E+03    -165.890E-03     332.394E-03    -166.504E-03     53.9076E-03    -166.148E-03     332.141E-03    -166.300E-03     52.9872E-03
            2089     6.09491E-03     25.8909E-03    -65.4110E+06    -88.5189E+06    -7.06625E+06     4.12600E+06    -166.238E-03     332.840E-03    -166.602E-03     48.8688E-03    -166.456E-03     332.533E-03    -166.414E-03     48.1949E-03
            2090     5.33418E-03     25.8304E-03    -77.5461E+06    -116.930E+06    -27.7093E+06     224.912E+03    -166.269E-03     332.929E-03    -166.660E-03     44.2026E-03    -166.461E-03     332.512E-03    -166.517E-03     43.6033E-03
            2091     4.57214E-03     25.7790E-03    -88.7475E+06    -135.170E+06    -39.6702E+06     256.977E+03    -166.078E-03     332.850E-03    -166.772E-03     38.9320E-03    -166.267E-03     332.359E-03    -166.646E-03     38.5280E-03
            2092     3.80929E-03     25.7342E-03    -91.6601E+06    -145.356E+06    -52.0801E+06     7.03172E+06    -166.292E-03     333.170E-03    -166.878E-03     32.9388E-03    -166.453E-03     332.641E-03    -166.795E-03     32.8014E-03
            2093     3.04649E-03     25.6921E-03    -96.5401E+06    -168.271E+06    -72.9294E+06     4.70686E+06    -166.521E-03     333.479E-03    -166.958E-03     26.2204E-03    -166.623E-03     332.855E-03    -166.939E-03     26.0784E-03
            2094     2.28428E-03     25.6633E-03    -104.137E+06    -187.652E+06    -89.1326E+06     1.34333E+06    -166.633E-03     333.711E-03    -167.078E-03     19.7386E-03    -166.696E-03     332.998E-03    -167.100E-03     19.6123E-03
            2095     1.52241E-03     25.6399E-03    -111.410E+06    -204.115E+06    -102.841E+06     547.418E+03    -166.966E-03     334.175E-03    -167.209E-03     13.3087E-03    -167.034E-03     333.419E-03    -167.266E-03     13.2386E-03
            2096     761.136E-06     25.6277E-03    -116.227E+06    -219.590E+06    -111.354E+06     632.943E+03    -167.426E-03     334.595E-03    -167.169E-03     7.12986E-03    -167.463E-03     333.829E-03    -167.239E-03     7.05585E-03
            2097     14.5196E-03     25.4979E-03    -1.22031E+06     73.9354E+06     86.9844E+06     38.8218E+03    -160.969E-03     325.068E-03    -164.099E-03     65.6451E-03    -161.402E-03     325.508E-03    -163.770E-03     63.3151E-03
            2098     13.7510E-03     25.4158E-03    -6.76374E+06     67.9837E+06     82.4980E+06     189.053E+03    -160.171E-03     324.505E-03    -164.333E-03     71.3051E-03    -160.661E-03     324.973E-03    -164.010E-03     68.7220E-03
            2099     12.9798E-03     25.3246E-03    -17.0276E+06     50.1324E+06     71.4645E+06    -1.00803E+06    -160.824E-03     325.426E-03    -164.601E-03     75.1722E-03    -161.326E-03     325.838E-03    -164.292E-03     72.6701E-03
            2100     12.2160E-03     25.2342E-03    -21.9708E+06     43.4957E+06     67.5127E+06    -147.562E+03    -162.097E-03     326.960E-03    -164.863E-03     75.9027E-03    -162.595E-03     327.338E-03    -164.556E-03     73.5663E-03
            2101     11.4491E-03     25.1402E-03    -17.5471E+06     50.0544E+06     66.3729E+06     649.310E+03    -161.969E-03     327.073E-03    -165.103E-03     74.0344E-03    -162.436E-03     327.462E-03    -164.819E-03     71.8397E-03
            2102     10.6797E-03     25.0561E-03    -18.9808E+06     49.4738E+06     58.2490E+06     3.84528E+06    -162.079E-03     327.443E-03    -165.364E-03     72.8641E-03    -162.503E-03     327.807E-03    -165.117E-03     71.0145E-03
            2103     9.91679E-03     24.9632E-03    -29.9506E+06     24.1412E+06     43.2109E+06     2.83772E+06    -162.732E-03     328.383E-03    -165.651E-03     69.3691E-03    -163.126E-03     328.631E-03    -165.427E-03     67.6906E-03
            2104     9.15034E-03     24.8749E-03    -39.7325E+06    -10.2519E+06     30.4275E+06    -2.58950E+06    -163.630E-03     329.564E-03    -165.934E-03     64.8032E-03    -163.987E-03     329.656E-03    -165.710E-03     63.1255E-03
            2105     8.38418E-03     24.7934E-03    -47.5336E+06    -31.8697E+06     21.8862E+06     1.08850E+06    -164.988E-03     331.142E-03    -166.155E-03     62.6962E-03    -165.308E-03     331.117E-03    -165.930E-03     61.3666E-03
            2106     7.62228E-03     24.7116E-03    -55.6244E+06    -56.2058E+06     9.44278E+06     1.45493E+06    -165.916E-03     332.199E-03    -166.283E-03     59.0013E-03    -166.195E-03     332.054E-03    -166.074E-03     57.9258E-03
            2107     6.86094E-03     24.6386E-03    -64.9481E+06    -82.6899E+06    -2.81865E+06    -3.65982E+06    -165.900E-03     332.286E-03    -166.386E-03     54.2108E-03    -166.150E-03     332.020E-03    -166.186E-03     53.2029E-03
            2108     6.09812E-03     24.5707E-03    -74.4932E+06    -98.8165E+06    -12.0926E+06    -812.370E+03    -165.333E-03     331.870E-03    -166.537E-03     49.4787E-03    -165.569E-03     331.527E-03    -166.346E-03     48.7009E-03
            2109     5.33263E-03     24.5098E-03    -81.2276E+06    -114.573E+06    -27.8300E+06     4.74080E+06    -165.424E-03     332.133E-03    -166.709E-03     44.0637E-03    -165.628E-03     331.723E-03    -166.564E-03     43.5695E-03
            2110     4.56866E-03     24.4579E-03    -84.8252E+06    -133.794E+06    -42.7058E+06     2.98482E+06    -166.545E-03     333.374E-03    -166.829E-03     38.8060E-03    -166.704E-03     332.881E-03    -166.725E-03     38.4357E-03
            2111     3.80814E-03     24.4087E-03    -89.5308E+06    -148.326E+06    -52.7014E+06     2.10060E+06    -167.101E-03     333.943E-03    -166.842E-03     32.8611E-03    -167.246E-03     333.397E-03    -166.761E-03     32.5737E-03
            2112     3.04741E-03     24.3721E-03    -96.0614E+06    -163.378E+06    -68.1210E+06     5.96855E+06    -166.718E-03     333.528E-03    -166.810E-03     26.2846E-03    -166.836E-03     332.925E-03    -166.774E-03     26.1263E-03
            2113     2.28495E-03     24.3393E-03    -102.234E+06    -183.427E+06    -84.6029E+06     4.93479E+06    -166.576E-03     333.424E-03    -166.848E-03     19.7531E-03    -166.643E-03     332.725E-03    -166.857E-03     19.6614E-03
            2114     1.52330E-03     24.3180E-03    -107.888E+06    -200.078E+06    -98.9834E+06     2.22185E+06    -166.672E-03     333.623E-03    -166.951E-03     13.1645E-03    -166.732E-03     332.875E-03    -167.000E-03     13.1151E-03
            2115     761.095E-06     24.3027E-03    -113.847E+06    -218.783E+06    -110.151E+06     625.091E+03    -167.150E-03     334.091E-03    -166.941E-03     7.12677E-03    -167.177E-03     333.326E-03    -167.009E-03     7.07656E-03
            2116     14.5131E-03     24.1874E-03    -4.71740E+06     70.4560E+06     84.3824E+06     1.50343E+06    -160.345E-03     324.560E-03    -164.215E-03     66.5852E-03    -160.792E-03     324.996E-03    -163.888E-03     64.2464E-03
            2117     13.7468E-03     24.1041E-03    -9.15554E+06     71.3202E+06     84.0425E+06     4.25192E+06    -160.874E-03     325.336E-03    -164.462E-03     71.5783E-03    -161.384E-03     325.823E-03    -164.132E-03     69.0386E-03
            2118     12.9814E-03     24.0175E-03    -16.4462E+06     56.0642E+06     73.3431E+06     996.860E+03    -161.780E-03     326.459E-03    -164.680E-03     73.9679E-03    -162.289E-03     326.896E-03    -164.370E-03     71.4745E-03
            2119     12.2120E-03     23.9155E-03    -17.1072E+06     46.3347E+06     65.0816E+06    -7.63944E+06    -161.412E-03     326.321E-03    -164.909E-03     72.9106E-03    -161.894E-03     326.717E-03    -164.626E-03     70.3397E-03
            2120     11.4457E-03     23.8321E-03    -22.5665E+06     43.2328E+06     58.6684E+06    -9.49683E+06    -161.868E-03     327.040E-03    -165.172E-03     71.6949E-03    -162.348E-03     327.424E-03    -164.909E-03     69.2311E-03
            2121     10.6822E-03     23.7369E-03    -32.1421E+06     37.5333E+06     51.2472E+06    -36.2345E+03    -163.492E-03     328.896E-03    -165.404E-03     71.6785E-03    -163.965E-03     329.240E-03    -165.156E-03     69.6446E-03
            2122     9.91688E-03     23.6469E-03    -32.5584E+06     31.3809E+06     46.8149E+06     6.33886E+06    -164.104E-03     329.695E-03    -165.591E-03     69.5895E-03    -164.532E-03     329.983E-03    -165.355E-03     67.8789E-03
            2123     9.15240E-03     23.5603E-03    -45.2158E+06    -4.32877E+06     29.2545E+06     4.36648E+06    -164.402E-03     330.164E-03    -165.761E-03     65.7489E-03    -164.790E-03     330.291E-03    -165.543E-03     64.2363E-03
            2124     8.38912E-03     23.4746E-03    -56.1823E+06    -36.0447E+06     16.5519E+06     2.76706E+06    -164.767E-03     330.708E-03    -165.941E-03     62.4058E-03    -165.115E-03     330.681E-03    -165.725E-03     61.1335E-03
            2125     7.62439E-03     23.3916E-03    -58.0629E+06    -53.4732E+06     9.45334E+06     2.95688E+06    -164.809E-03     330.932E-03    -166.123E-03     59.0852E-03    -165.103E-03     330.802E-03    -165.914E-03     58.0668E-03
            2126     6.85952E-03     23.3185E-03    -65.1455E+06    -81.4565E+06    -6.75435E+06     62.1125E+03    -165.115E-03     331.409E-03    -166.294E-03     54.9728E-03    -165.363E-03     331.156E-03    -166.115E-03     54.0746E-03
            2127     6.09582E-03     23.2507E-03    -72.5427E+06    -102.994E+06    -18.0636E+06    -2.68893E+06    -165.599E-03     332.063E-03    -166.464E-03     49.8111E-03    -165.814E-03     331.707E-03    -166.299E-03     49.0099E-03
            2128     5.33359E-03     23.1917E-03    -77.3888E+06    -113.797E+06    -24.9125E+06     781.017E+03    -166.296E-03     332.875E-03    -166.580E-03     43.5192E-03    -166.487E-03     332.460E-03    -166.427E-03     42.9467E-03
            2129     4.57235E-03     23.1331E-03    -82.9722E+06    -129.632E+06    -40.4264E+06     2.55859E+06    -166.641E-03     333.230E-03    -166.590E-03     37.0274E-03    -166.802E-03     332.755E-03    -166.483E-03     36.5709E-03
            2130     3.80978E-03     23.0874E-03    -90.7701E+06    -152.662E+06    -57.0010E+06    -552.537E+03    -166.490E-03     333.078E-03    -166.589E-03     31.2371E-03    -166.624E-03     332.514E-03    -166.521E-03     30.8044E-03
            2131     3.04703E-03     23.0477E-03    -96.8177E+06    -166.245E+06    -67.0463E+06     956.192E+03    -166.692E-03     333.278E-03    -166.586E-03     25.7207E-03    -166.810E-03     332.658E-03    -166.540E-03     25.4517E-03
            2132     2.28602E-03     23.0186E-03    -100.991E+06    -178.458E+06    -80.6272E+06     3.59854E+06    -166.702E-03     333.216E-03    -166.514E-03     19.4251E-03    -166.788E-03     332.546E-03    -166.512E-03     19.2892E-03
            2133     1.52366E-03     22.9943E-03    -105.475E+06    -195.515E+06    -94.5129E+06     3.25028E+06    -166.499E-03     332.947E-03    -166.448E-03     13.1171E-03    -166.566E-03     332.220E-03    -166.484E-03     13.0579E-03
            2134     762.208E-06     22.9818E-03    -109.419E+06    -214.832E+06    -105.749E+06     1.98567E+06    -166.388E-03     332.910E-03    -166.522E-03     7.42071E-03    -166.401E-03     332.149E-03    -166.580E-03     7.41595E-03
            2135     14.5152E-03     22.8777E-03    -8.73973E+06     67.3559E+06     80.6782E+06    -1.22724E+06    -161.135E-03     325.398E-03    -164.263E-03     63.0718E-03    -161.591E-03     325.828E-03    -163.945E-03     60.6167E-03
            2136     13.7457E-03     22.7940E-03    -13.5352E+06     66.6641E+06     81.7698E+06    -385.393E+03    -161.996E-03     326.458E-03    -164.461E-03     68.9535E-03    -162.519E-03     326.931E-03    -164.130E-03     66.2709E-03
            2137     12.9812E-03     22.6964E-03    -7.58294E+06     67.2027E+06     85.0844E+06     367.575E+03    -162.162E-03     326.817E-03    -164.655E-03     71.8836E-03    -162.670E-03     327.291E-03    -164.316E-03     69.2384E-03
            2138     12.2178E-03     22.6118E-03    -16.2780E+06     52.7712E+06     66.7892E+06    -4.05147E+06    -161.374E-03     326.207E-03    -164.833E-03     71.8116E-03    -161.874E-03     326.643E-03    -164.552E-03     69.1857E-03
            2139     11.4488E-03     22.5145E-03    -32.8583E+06     34.9207E+06     44.7643E+06    -3.75461E+06    -161.837E-03     326.889E-03    -165.052E-03     72.3177E-03    -162.333E-03     327.263E-03    -164.831E-03     69.9878E-03
            2140     10.6822E-03     22.4230E-03    -40.0296E+06     27.9469E+06     40.1945E+06     344.101E+03    -163.258E-03     328.561E-03    -165.303E-03     72.8344E-03    -163.740E-03     328.884E-03    -165.085E-03     70.8618E-03
            2141     9.91692E-03     22.3296E-03    -46.8782E+06     22.4165E+06     36.8024E+06     3.63308E+06    -164.537E-03     330.028E-03    -165.491E-03     70.1720E-03    -165.015E-03     330.312E-03    -165.271E-03     68.3934E-03
            2142     9.15346E-03     22.2412E-03    -49.2085E+06     4.83310E+06     30.9353E+06     5.63545E+06    -165.193E-03     330.811E-03    -165.619E-03     66.6259E-03    -165.613E-03     330.985E-03    -165.400E-03     65.1472E-03
            2143     8.38994E-03     22.1559E-03    -53.1344E+06    -26.6328E+06     18.7659E+06     3.03966E+06    -164.925E-03     330.664E-03    -165.739E-03     63.5546E-03    -165.274E-03     330.675E-03    -165.529E-03     62.3177E-03
            2144     7.62524E-03     22.0768E-03    -60.5078E+06    -56.0291E+06     4.24580E+06     2.21322E+06    -164.778E-03     330.664E-03    -165.886E-03     59.0818E-03    -165.070E-03     330.530E-03    -165.696E-03     58.0746E-03
            2145     6.86080E-03     21.9989E-03    -63.9899E+06    -78.6558E+06    -6.47370E+06    -133.773E+03    -165.267E-03     331.301E-03    -166.033E-03     52.3403E-03    -165.509E-03     331.055E-03    -165.859E-03     51.4153E-03
            2146     6.09754E-03     21.9317E-03    -68.2126E+06    -98.6644E+06    -16.2783E+06    -2.39944E+06    -166.081E-03     332.197E-03    -166.117E-03     46.3630E-03    -166.284E-03     331.856E-03    -165.956E-03     45.5131E-03
            2147     5.33585E-03     21.8665E-03    -76.3022E+06    -118.138E+06    -26.4249E+06    -2.26229E+06    -166.521E-03     332.642E-03    -166.121E-03     41.7548E-03    -166.705E-03     332.212E-03    -165.971E-03     41.0803E-03
            2148     4.57413E-03     21.8131E-03    -85.1577E+06    -134.216E+06    -39.3284E+06    -887.664E+03    -166.208E-03     332.294E-03    -166.086E-03     36.3143E-03    -166.386E-03     331.807E-03    -165.965E-03     35.7843E-03
            2149     3.81118E-03     21.7666E-03    -90.1291E+06    -148.416E+06    -55.2950E+06     1.98894E+06    -166.028E-03     332.079E-03    -166.050E-03     30.3873E-03    -166.172E-03     331.536E-03    -165.981E-03     30.0329E-03
            2150     3.04902E-03     21.7267E-03    -93.3052E+06    -165.627E+06    -69.8015E+06     290.125E+03    -166.051E-03     332.079E-03    -166.028E-03     24.4064E-03    -166.146E-03     331.459E-03    -166.002E-03     24.1386E-03
            2151     2.28666E-03     21.6949E-03    -100.433E+06    -180.155E+06    -83.2884E+06    -696.432E+03    -166.118E-03     332.105E-03    -165.987E-03     18.5913E-03    -166.196E-03     331.430E-03    -165.997E-03     18.3846E-03
            2152     1.52512E-03     21.6752E-03    -105.044E+06    -193.530E+06    -94.5269E+06     1.06191E+06    -166.176E-03     332.055E-03    -165.879E-03     13.0373E-03    -166.241E-03     331.337E-03    -165.919E-03     12.9375E-03
            2153     762.470E-06     21.6579E-03    -105.897E+06    -210.315E+06    -104.054E+06     784.291E+03    -165.657E-03     331.671E-03    -166.014E-03     7.10772E-03    -165.653E-03     330.918E-03    -166.076E-03     7.07777E-03
            2154     14.5136E-03     21.5669E-03    -4.60497E+06     70.3732E+06     84.5980E+06    -448.064E+03    -162.336E-03     326.534E-03    -164.198E-03     62.4707E-03    -162.786E-03     326.972E-03    -163.871E-03     59.9665E-03
            2155     13.7524E-03     21.4770E-03    -12.1981E+06     66.8776E+06     81.5465E+06    -4.75637E+06    -162.040E-03     326.386E-03    -164.346E-03     69.4746E-03    -162.568E-03     326.872E-03    -164.018E-03     66.6381E-03
            2156     12.9837E-03     21.3902E-03    -14.6925E+06     59.5511E+06     76.8164E+06    -4.74864E+06    -160.864E-03     325.419E-03    -164.555E-03     72.2695E-03    -161.388E-03     325.879E-03    -164.236E-03     69.5614E-03
            2157     12.2135E-03     21.2929E-03    -21.9580E+06     48.3853E+06     63.3158E+06     3.15619E+06    -161.352E-03     326.141E-03    -164.789E-03     74.0651E-03    -161.862E-03     326.561E-03    -164.511E-03     71.6626E-03
            2158     11.4500E-03     21.2069E-03    -30.2376E+06     39.5397E+06     49.4194E+06     8.53348E+06    -162.704E-03     327.704E-03    -165.000E-03     74.6294E-03    -163.190E-03     328.080E-03    -164.767E-03     72.6054E-03
            2159     10.6827E-03     21.1061E-03    -34.7034E+06     33.2650E+06     43.3841E+06     7.14293E+06    -163.873E-03     329.063E-03    -165.190E-03     73.5378E-03    -164.325E-03     329.384E-03    -164.971E-03     71.8192E-03
            2160     9.91902E-03     21.0129E-03    -42.0915E+06     22.2777E+06     36.8260E+06     3.22652E+06    -164.947E-03     330.272E-03    -165.325E-03     69.7609E-03    -165.394E-03     330.542E-03    -165.113E-03     68.0641E-03
            2161     9.15502E-03     20.9220E-03    -47.5162E+06    -922.994E+03     26.6564E+06    -906.312E+03    -165.492E-03     330.892E-03    -165.400E-03     65.1765E-03    -165.891E-03     331.042E-03    -165.197E-03     63.5854E-03
            2162     8.39038E-03     20.8396E-03    -48.7072E+06    -27.2820E+06     19.5903E+06    -2.38591E+06    -166.013E-03     331.454E-03    -165.442E-03     60.4363E-03    -166.341E-03     331.457E-03    -165.234E-03     59.0302E-03
            2163     7.62780E-03     20.7562E-03    -52.4232E+06    -51.1111E+06     13.2441E+06    -779.823E+03    -166.318E-03     331.756E-03    -165.439E-03     55.3015E-03    -166.593E-03     331.626E-03    -165.222E-03     54.1307E-03
            2164     6.86648E-03     20.6807E-03    -60.5997E+06    -72.7759E+06     2.12287E+06     100.003E+03    -166.073E-03     331.465E-03    -165.392E-03     49.4592E-03    -166.312E-03     331.225E-03    -165.188E-03     48.4926E-03
            2165     6.10430E-03     20.6106E-03    -71.8347E+06    -98.0212E+06    -15.6908E+06     1.14773E+06    -165.816E-03     331.142E-03    -165.326E-03     44.5021E-03    -166.027E-03     330.796E-03    -165.159E-03     43.7506E-03
            2166     5.34088E-03     20.5482E-03    -77.4865E+06    -120.549E+06    -31.4014E+06    -1.95486E+06    -165.462E-03     330.739E-03    -165.278E-03     39.2677E-03    -165.635E-03     330.300E-03    -165.147E-03     38.6114E-03
            2167     4.57652E-03     20.4932E-03    -82.6540E+06    -138.481E+06    -43.4074E+06    -5.05058E+06    -165.431E-03     330.679E-03    -165.248E-03     33.7797E-03    -165.581E-03     330.170E-03    -165.144E-03     33.1710E-03
            2168     3.81485E-03     20.4458E-03    -89.6382E+06    -150.461E+06    -55.7153E+06    -2.33465E+06    -165.535E-03     330.714E-03    -165.179E-03     28.4319E-03    -165.675E-03     330.163E-03    -165.110E-03     28.0115E-03
            2169     3.05241E-03     20.4070E-03    -93.7660E+06    -162.790E+06    -70.3599E+06     617.481E+03    -165.168E-03     330.266E-03    -165.098E-03     22.9617E-03    -165.278E-03     329.669E-03    -165.077E-03     22.6953E-03
            2170     2.28853E-03     20.3772E-03    -99.3264E+06    -180.359E+06    -86.9822E+06    -535.976E+03    -165.037E-03     330.095E-03    -165.058E-03     17.4857E-03    -165.115E-03     329.434E-03    -165.087E-03     17.2988E-03
            2171     1.52530E-03     20.3523E-03    -105.427E+06    -195.743E+06    -98.0816E+06    -2.33519E+06    -165.147E-03     330.171E-03    -165.025E-03     11.7739E-03    -165.213E-03     329.456E-03    -165.078E-03     11.6294E-03
            2172     763.084E-06     20.3420E-03    -109.723E+06    -210.368E+06    -105.867E+06    -645.703E+03    -165.151E-03     330.049E-03    -164.898E-03     6.33841E-03    -165.166E-03     329.307E-03    -164.964E-03     6.25286E-03
            2173     14.5187E-03     20.2531E-03    -2.99057E+06     70.7196E+06     85.1391E+06     770.579E+03    -161.613E-03     325.750E-03    -164.136E-03     63.4061E-03    -162.053E-03     326.183E-03    -163.809E-03     60.9860E-03
            2174     13.7484E-03     20.1640E-03    -7.27190E+06     64.2016E+06     79.9259E+06    -2.47158E+06    -161.108E-03     325.430E-03    -164.321E-03     71.6828E-03    -161.606E-03     325.898E-03    -164.004E-03     68.9480E-03
            2175     12.9831E-03     20.0796E-03    -16.2103E+06     52.1441E+06     69.7234E+06     238.984E+03    -160.928E-03     325.478E-03    -164.550E-03     73.6380E-03    -161.439E-03     325.914E-03    -164.254E-03     71.0253E-03
            2176     12.2167E-03     19.9854E-03    -26.9447E+06     43.3891E+06     58.0448E+06      6.0461E+06    -161.850E-03     326.634E-03    -164.784E-03     75.8531E-03    -162.361E-03     327.035E-03    -164.518E-03     73.6037E-03
            2177     11.4477E-03     19.8872E-03    -26.8444E+06     45.4540E+06     56.6275E+06     5.29916E+06    -164.935E-03     329.875E-03    -164.940E-03     74.9537E-03    -165.426E-03     330.268E-03    -164.684E-03     72.8518E-03
            2178     10.6864E-03     19.7919E-03    -32.3544E+06     38.2603E+06     49.8507E+06     4.94841E+06    -166.553E-03     331.494E-03    -164.941E-03     70.6276E-03    -167.017E-03     331.834E-03    -164.700E-03     68.7149E-03
            2179     9.92135E-03     19.6942E-03    -35.3854E+06     25.4737E+06     41.1687E+06    -387.458E+03    -165.953E-03     330.838E-03    -164.885E-03     64.7817E-03    -166.372E-03     331.103E-03    -164.665E-03     62.9619E-03
            2180     9.15802E-03     19.6048E-03    -36.0377E+06     3.91848E+06     36.2618E+06    -5.97126E+06    -166.108E-03     330.959E-03    -164.852E-03     59.7520E-03    -166.472E-03     331.104E-03    -164.624E-03     57.9842E-03
            2181     8.39740E-03     19.5185E-03    -48.1388E+06    -27.6836E+06     23.5978E+06    -2.34091E+06    -166.673E-03     331.430E-03    -164.756E-03     55.9210E-03    -167.003E-03     331.421E-03    -164.528E-03     54.4837E-03
            2182     7.63647E-03     19.4368E-03    -54.4347E+06    -52.4007E+06     13.3500E+06     839.852E+03    -166.473E-03     331.084E-03    -164.610E-03     52.2657E-03    -166.754E-03     330.947E-03    -164.389E-03     51.1549E-03
            2183     6.87293E-03     19.3623E-03    -60.3799E+06    -74.9198E+06     1.44642E+06     1.39405E+06    -166.032E-03     330.480E-03    -164.448E-03     47.8635E-03    -166.272E-03     330.235E-03    -164.244E-03     46.9319E-03
            2184     6.10935E-03     19.2930E-03    -65.4950E+06    -93.4465E+06    -10.2233E+06     1.76976E+06    -165.659E-03     329.939E-03    -164.280E-03     42.6844E-03    -165.858E-03     329.604E-03    -164.101E-03     41.9372E-03
            2185     5.34650E-03     19.2309E-03    -72.7743E+06    -114.362E+06    -27.1231E+06     342.130E+03    -165.216E-03     329.309E-03    -164.093E-03     36.6536E-03    -165.381E-03     328.889E-03    -163.957E-03     36.0396E-03
            2186     4.58424E-03     19.1763E-03    -81.4550E+06    -136.699E+06    -45.8608E+06    -1.18113E+06    -164.609E-03     328.530E-03    -163.922E-03     31.0756E-03    -164.748E-03     328.028E-03    -163.835E-03     30.5597E-03
            2187     3.81964E-03     19.1283E-03    -89.9046E+06    -155.370E+06    -60.5039E+06    -4.30016E+06    -164.104E-03     327.914E-03    -163.810E-03     25.9737E-03    -164.224E-03     327.339E-03    -163.757E-03     25.5288E-03
            2188     3.05520E-03     19.0911E-03    -98.5609E+06    -168.927E+06    -73.4919E+06    -3.33357E+06    -164.119E-03     327.816E-03    -163.697E-03     20.7594E-03    -164.237E-03     327.198E-03    -163.677E-03     20.4305E-03
            2189     2.29256E-03     19.0590E-03    -100.752E+06    -179.300E+06    -83.5992E+06     240.120E+03    -163.930E-03     327.474E-03    -163.544E-03     15.4019E-03    -164.026E-03     326.820E-03    -163.556E-03     15.2134E-03
            2190     1.52856E-03     19.0382E-03    -104.439E+06    -195.003E+06    -95.7044E+06     385.567E+03    -163.548E-03     326.963E-03    -163.414E-03     9.99038E-03    -163.613E-03     326.247E-03    -163.459E-03     9.86506E-03
            2191     763.813E-06     19.0224E-03    -111.679E+06    -212.702E+06    -108.212E+06    -1.43113E+06    -163.652E-03     326.776E-03    -163.124E-03     5.18470E-03    -163.668E-03     326.024E-03    -163.194E-03     5.09132E-03
            2192     14.5156E-03     18.9436E-03     2.89301E+06     71.9002E+06     86.2946E+06    -1.47718E+06    -160.794E-03     324.952E-03    -164.159E-03     63.4527E-03    -161.212E-03     325.386E-03    -163.836E-03     60.9681E-03
            2193     13.7490E-03     18.8555E-03    -7.79894E+06     57.0820E+06     74.2954E+06     4.23706E+06    -160.490E-03     324.865E-03    -164.375E-03     72.3672E-03    -160.964E-03     325.298E-03    -164.075E-03     69.8256E-03
            2194     12.9807E-03     18.7644E-03    -19.5965E+06     49.6645E+06     65.0380E+06     6.70509E+06    -162.881E-03     327.452E-03    -164.571E-03     73.4183E-03    -163.395E-03     327.884E-03    -164.289E-03     70.9152E-03
            2195     12.2139E-03     18.6747E-03    -24.8522E+06     54.4854E+06     65.7352E+06     4.19074E+06    -165.972E-03     330.614E-03    -164.642E-03     73.3017E-03    -166.508E-03     331.065E-03    -164.356E-03     70.8673E-03
            2196     11.4524E-03     18.5683E-03    -34.2582E+06     41.8929E+06     52.6681E+06     1.66164E+06    -167.617E-03     332.139E-03    -164.522E-03     69.9236E-03    -168.130E-03     332.526E-03    -164.270E-03     67.6923E-03
            2197     10.6913E-03     18.4679E-03    -34.2364E+06     35.4061E+06     48.4437E+06    -6.32775E+06    -167.929E-03     332.258E-03    -164.329E-03     64.9478E-03    -168.404E-03     332.597E-03    -164.088E-03     62.6837E-03
            2198     9.93331E-03     18.3783E-03    -36.0938E+06     29.2928E+06     46.3984E+06    -4.23620E+06    -167.284E-03     331.407E-03    -164.123E-03     61.2411E-03    -167.722E-03     331.686E-03    -163.881E-03     59.2595E-03
            2199     9.17088E-03     18.2867E-03    -43.2811E+06     2.80141E+06     32.9960E+06     669.053E+03    -166.714E-03     330.620E-03    -163.906E-03     58.0349E-03    -167.099E-03     330.765E-03    -163.682E-03     56.4118E-03
            2200     8.40696E-03     18.2003E-03    -40.9042E+06    -23.4119E+06     27.1763E+06     235.125E+03    -166.403E-03     330.111E-03    -163.708E-03     53.6209E-03    -166.700E-03     330.102E-03    -163.479E-03     52.2635E-03
            2201     7.64238E-03     18.1205E-03    -51.5194E+06    -53.3931E+06     12.4289E+06    -783.186E+03    -166.103E-03     329.574E-03    -163.471E-03     49.0372E-03    -166.358E-03     329.421E-03    -163.257E-03     47.9232E-03
            2202     6.88019E-03     18.0449E-03    -63.7629E+06    -80.1004E+06    -4.54060E+06    -906.857E+03    -166.029E-03     329.205E-03    -163.176E-03     43.8926E-03    -166.264E-03     328.942E-03    -162.990E-03     42.9336E-03
            2203     6.11846E-03     17.9767E-03    -62.6740E+06    -92.3280E+06    -9.73856E+06    -1.00149E+06    -165.544E-03     328.395E-03    -162.852E-03     38.1616E-03    -165.731E-03     328.061E-03    -162.676E-03     37.3672E-03
            2204     5.35544E-03     17.9151E-03    -69.1515E+06    -111.083E+06    -21.9777E+06     81.4132E+03    -164.712E-03     327.216E-03    -162.504E-03     32.9156E-03    -164.873E-03     326.801E-03    -162.353E-03     32.2928E-03
            2205     4.59136E-03     17.8618E-03    -82.1164E+06    -135.221E+06    -41.8723E+06     1.53441E+06    -163.831E-03     325.987E-03    -162.155E-03     27.4688E-03    -163.984E-03     325.490E-03    -162.050E-03     27.0073E-03
            2206     3.82700E-03     17.8173E-03    -89.0184E+06    -153.394E+06    -58.9988E+06     448.139E+03    -163.056E-03     324.889E-03    -161.833E-03     22.3145E-03    -163.177E-03     324.321E-03    -161.776E-03     21.9514E-03
            2207     3.06272E-03     17.7763E-03    -96.6539E+06    -171.301E+06    -75.2237E+06    -2.32111E+06    -162.425E-03     323.967E-03    -161.542E-03     17.2418E-03    -162.526E-03     323.334E-03    -161.530E-03     16.9299E-03
            2208     2.29718E-03     17.7477E-03    -102.047E+06    -183.790E+06    -85.1940E+06    -2.40597E+06    -161.859E-03     323.157E-03    -161.298E-03     12.7963E-03    -161.955E-03     322.485E-03    -161.309E-03     12.5657E-03
            2209     1.53190E-03     17.7254E-03    -105.166E+06    -194.704E+06    -92.8372E+06     269.318E+03    -161.445E-03     322.522E-03    -161.077E-03     8.70515E-03    -161.522E-03     321.809E-03    -161.106E-03     8.55378E-03
            2210     766.639E-06     17.7135E-03    -108.649E+06    -212.058E+06    -103.443E+06     391.438E+03    -161.103E-03     321.955E-03    -160.852E-03     4.35403E-03    -161.110E-03     321.193E-03    -160.905E-03     4.26845E-03
            2211     14.5155E-03     17.6311E-03    -1.61682E+06     68.4807E+06     81.0190E+06     3.52303E+06    -161.516E-03     325.777E-03    -164.260E-03     64.8328E-03    -161.955E-03     326.218E-03    -163.952E-03     62.3586E-03
            2212     13.7473E-03     17.5462E-03    -11.8086E+06     61.4475E+06     75.7542E+06     8.24677E+06    -164.188E-03     328.566E-03    -164.378E-03     71.5046E-03    -164.691E-03     329.026E-03    -164.072E-03     68.9484E-03
            2213     12.9807E-03     17.4518E-03    -22.4303E+06     52.1023E+06     67.3749E+06     4.26795E+06    -167.517E-03     331.840E-03    -164.323E-03     69.0625E-03    -168.035E-03     332.268E-03    -164.029E-03     66.5155E-03
            2214     12.2238E-03     17.3477E-03    -25.5721E+06     52.7417E+06     65.7170E+06     727.925E+03    -169.811E-03     333.898E-03    -164.087E-03     67.1899E-03    -170.346E-03     334.339E-03    -163.797E-03     64.5342E-03
            2215     11.4662E-03     17.2496E-03    -21.0106E+06     54.3493E+06     65.2297E+06     115.071E+03    -168.866E-03     332.631E-03    -163.766E-03     65.8607E-03    -169.351E-03     333.046E-03    -163.488E-03     63.4762E-03
            2216     10.7038E-03     17.1509E-03    -28.5251E+06     39.4251E+06     48.9594E+06    -6.25321E+06    -167.296E-03     330.747E-03    -163.451E-03     63.5474E-03    -167.744E-03     331.092E-03    -163.222E-03     61.3322E-03
            2217     9.93845E-03     17.0573E-03    -33.5406E+06     21.6486E+06     41.5814E+06    -6.54411E+06    -167.693E-03     330.871E-03    -163.178E-03     60.3327E-03    -168.098E-03     331.113E-03    -162.953E-03     58.3624E-03
            2218     9.17745E-03     16.9708E-03    -37.2452E+06     2.61927E+06     36.9480E+06     333.283E+03    -167.970E-03     330.808E-03    -162.838E-03     56.0937E-03    -168.323E-03     330.931E-03    -162.603E-03     54.5241E-03
            2219     8.41654E-03     16.8833E-03    -52.8354E+06    -31.3177E+06     16.8055E+06     1.48890E+06    -167.418E-03     329.812E-03    -162.394E-03     50.0441E-03    -167.740E-03     329.787E-03    -162.188E-03     48.7394E-03
            2220     7.65598E-03     16.8061E-03    -55.0864E+06    -54.9682E+06     8.99736E+06    -379.096E+03    -166.937E-03     328.865E-03    -161.928E-03     44.0131E-03    -167.197E-03     328.709E-03    -161.723E-03     42.8829E-03
            2221     6.89345E-03     16.7287E-03    -55.7757E+06    -70.7307E+06     2.09776E+06    -1.46642E+06    -166.075E-03     327.484E-03    -161.409E-03     38.2826E-03    -166.277E-03     327.231E-03    -161.215E-03     37.3341E-03
            2222     6.13028E-03     16.6637E-03    -72.3044E+06    -99.7299E+06    -18.0521E+06    -2.34074E+06    -164.898E-03     325.749E-03    -160.851E-03     32.6071E-03    -165.101E-03     325.393E-03    -160.692E-03     31.7999E-03
            2223     5.36645E-03     16.6029E-03    -77.8503E+06    -117.387E+06    -27.5036E+06    -1.19314E+06    -163.617E-03     323.943E-03    -160.327E-03     27.5445E-03    -163.800E-03     323.513E-03    -160.181E-03     26.8680E-03
            2224     4.60214E-03     16.5524E-03    -79.2926E+06    -130.420E+06    -35.9793E+06     366.112E+03    -162.696E-03     322.493E-03    -159.797E-03     22.7465E-03    -162.844E-03     322.000E-03    -159.672E-03     22.2165E-03
            2225     3.83795E-03     16.5065E-03    -89.7576E+06    -151.070E+06    -55.1822E+06     1.35955E+06    -161.729E-03     320.946E-03    -159.217E-03     18.3112E-03    -161.862E-03     320.384E-03    -159.144E-03     17.9212E-03
            2226     3.07180E-03     16.4714E-03    -94.1639E+06    -168.134E+06    -71.0755E+06     479.097E+03    -160.179E-03     318.877E-03    -158.699E-03     14.0413E-03    -160.278E-03     318.252E-03    -158.674E-03     13.7398E-03
            2227     2.30437E-03     16.4416E-03    -100.274E+06    -184.644E+06    -87.3752E+06    -1.32483E+06    -159.011E-03     317.335E-03    -158.325E-03     10.2737E-03    -159.086E-03     316.653E-03    -158.349E-03     10.0395E-03
            2228     1.53645E-03     16.4214E-03    -105.959E+06    -197.795E+06    -98.5232E+06    -2.73901E+06    -158.377E-03     316.473E-03    -158.097E-03     6.79795E-03    -158.445E-03     315.751E-03    -158.149E-03     6.60333E-03
            2229     768.006E-06     16.4084E-03    -111.316E+06    -214.254E+06    -108.021E+06    -2.59901E+06    -158.039E-03     316.065E-03    -158.026E-03     3.65957E-03    -158.051E-03     315.306E-03    -158.094E-03     3.51306E-03
            2230     14.5088E-03     16.3185E-03    -16.0429E+06     65.0922E+06     75.8057E+06     4.61548E+06    -165.656E-03     329.946E-03    -164.290E-03     63.1792E-03    -166.121E-03     330.362E-03    -163.983E-03     60.9089E-03
            2231     13.7487E-03     16.2254E-03    -12.3950E+06     61.0766E+06     79.6815E+06     4.01059E+06    -170.075E-03     334.218E-03    -164.143E-03     68.0098E-03    -170.580E-03     334.664E-03    -163.815E-03     65.2657E-03
            2232     12.9962E-03     16.1265E-03    -9.19704E+06     60.1039E+06     84.3335E+06     2.81244E+06    -171.577E-03     335.384E-03    -163.808E-03     67.8499E-03    -172.081E-03     335.825E-03    -163.460E-03     65.0635E-03
            2233     12.2351E-03     16.0273E-03    -11.2586E+06     60.2512E+06     77.4131E+06     2.39864E+06    -170.508E-03     333.872E-03    -163.364E-03     67.8724E-03    -171.003E-03     334.317E-03    -163.048E-03     65.2175E-03
            2234     11.4725E-03     15.9284E-03    -18.7585E+06     50.2695E+06     60.4299E+06    -1.88395E+06    -169.353E-03     332.262E-03    -162.910E-03     65.3236E-03    -169.819E-03     332.666E-03    -162.653E-03     62.8325E-03
            2235     10.7111E-03     15.8361E-03    -21.2422E+06     47.2570E+06     51.9598E+06    -1.82579E+06    -168.687E-03     331.167E-03    -162.480E-03     61.3181E-03    -169.107E-03     331.529E-03    -162.258E-03     59.1363E-03
            2236     9.95131E-03     15.7413E-03    -34.2781E+06     19.0030E+06     36.8566E+06    -1.74683E+06    -168.835E-03     330.849E-03    -162.013E-03     56.3548E-03    -169.216E-03     331.068E-03    -161.807E-03     54.5247E-03
            2237     9.19122E-03     15.6496E-03    -41.6629E+06    -3.94726E+06     32.2133E+06    -1.99426E+06    -169.315E-03     330.780E-03    -161.465E-03     50.2386E-03    -169.663E-03     330.873E-03    -161.238E-03     48.6493E-03
            2238     8.43091E-03     15.5693E-03    -48.1542E+06    -25.1615E+06     21.3593E+06    -1.12579E+06    -169.182E-03     329.928E-03    -160.746E-03     44.3663E-03    -169.489E-03     329.913E-03    -160.532E-03     42.9966E-03
            2239     7.66998E-03     15.4878E-03    -57.8812E+06    -58.0635E+06     5.74261E+06    -3.53548E+06    -168.023E-03     327.957E-03    -159.934E-03     38.4582E-03    -168.287E-03     327.793E-03    -159.737E-03     37.2389E-03
            2240     6.90926E-03     15.4191E-03    -59.6936E+06    -73.6212E+06     1.60044E+06    -415.245E+03    -166.044E-03     325.171E-03    -159.127E-03     32.5100E-03    -166.267E-03     324.917E-03    -158.926E-03     31.5119E-03
            2241     6.14616E-03     15.3522E-03    -66.3997E+06    -93.9856E+06    -12.5418E+06     780.090E+03    -164.098E-03     322.412E-03    -158.315E-03     26.8448E-03    -164.290E-03     322.072E-03    -158.145E-03     26.0057E-03
            2242     5.38248E-03     15.2978E-03    -77.1215E+06    -118.701E+06    -28.4429E+06    -933.599E+03    -162.442E-03     319.970E-03    -157.528E-03     21.9974E-03    -162.622E-03     319.538E-03    -157.386E-03     21.2677E-03
            2243     4.61661E-03     15.2462E-03    -83.6063E+06    -135.400E+06    -39.5258E+06     405.293E+03    -160.743E-03     317.514E-03    -156.771E-03     18.0082E-03    -160.901E-03     317.009E-03    -156.651E-03     17.4397E-03
            2244     3.84957E-03     15.2047E-03    -85.5108E+06    -148.987E+06    -51.1677E+06     123.315E+03    -158.974E-03     315.031E-03    -156.057E-03     14.0939E-03    -159.095E-03     314.467E-03    -155.973E-03     13.6330E-03
            2245     3.08179E-03     15.1712E-03    -93.4419E+06    -167.190E+06    -67.8014E+06     286.668E+03    -157.454E-03     312.870E-03    -155.415E-03     10.9623E-03    -157.558E-03     312.245E-03    -155.376E-03     10.6102E-03
            2246     2.31284E-03     15.1452E-03    -98.8188E+06    -181.904E+06    -82.4799E+06     1.48097E+06    -156.046E-03     310.928E-03    -154.882E-03     8.12599E-03    -156.120E-03     310.246E-03    -154.888E-03     7.88687E-03
            2247     1.54232E-03     15.1254E-03    -101.224E+06    -196.179E+06    -94.4631E+06     263.733E+03    -154.905E-03     309.444E-03    -154.539E-03     5.23071E-03    -154.950E-03     308.709E-03    -154.580E-03     5.06093E-03
            2248     771.147E-06     15.1142E-03    -109.804E+06    -219.578E+06    -109.359E+06    -759.852E+03    -154.550E-03     308.895E-03    -154.345E-03     2.68778E-03    -154.545E-03     308.108E-03    -154.414E-03     2.56259E-03
            2249     14.5183E-03     14.9980E-03    -8.25990E+06     60.4088E+06     81.0662E+06    -644.749E+03    -171.409E-03     335.483E-03    -164.073E-03     60.9355E-03    -171.690E-03     335.689E-03    -163.744E-03     58.4473E-03
            2250     13.7609E-03     14.8975E-03    -3.62675E+06     62.7347E+06     89.5237E+06     1.60216E+06    -172.530E-03     336.234E-03    -163.705E-03     67.8222E-03    -172.943E-03     336.591E-03    -163.343E-03     64.9909E-03
            2251     12.9983E-03     14.8024E-03    -4.93523E+06     62.0022E+06     88.1889E+06     2.60139E+06    -172.104E-03     335.340E-03    -163.236E-03     68.3914E-03    -172.604E-03     335.787E-03    -162.878E-03     65.5464E-03
            2252     12.2409E-03     14.7056E-03    -6.98644E+06     58.9336E+06     78.8919E+06     1.30069E+06    -171.617E-03     334.316E-03    -162.700E-03     67.2910E-03    -172.094E-03     334.749E-03    -162.380E-03     64.5923E-03
            2253     11.4828E-03     14.6100E-03    -16.0501E+06     48.6988E+06     58.5902E+06    -1.18134E+06    -171.660E-03     333.730E-03    -162.070E-03     63.2402E-03    -172.103E-03     334.119E-03    -161.824E-03     60.7589E-03
            2254     10.7251E-03     14.5153E-03    -24.8811E+06     42.7796E+06     50.1130E+06     2.33608E+06    -172.244E-03     333.621E-03    -161.376E-03     58.1869E-03    -172.668E-03     333.963E-03    -161.151E-03     56.0462E-03
            2255     9.96615E-03     14.4229E-03    -31.1766E+06     34.8455E+06     46.6113E+06     8.63133E+06    -171.926E-03     332.502E-03    -160.576E-03     52.0400E-03    -172.319E-03     332.773E-03    -160.348E-03     50.3251E-03
            2256     9.20639E-03     14.3343E-03    -45.8239E+06    -4.12740E+06     25.8046E+06     1.45107E+06    -171.056E-03     330.697E-03    -159.641E-03     44.9720E-03    -171.406E-03     330.796E-03    -159.440E-03     43.3957E-03
            2257     8.44826E-03     14.2497E-03    -45.8846E+06    -29.6107E+06     20.8525E+06    -4.38520E+06    -170.159E-03     328.800E-03    -158.641E-03     38.2470E-03    -170.445E-03     328.758E-03    -158.427E-03     36.6997E-03
            2258     7.68997E-03     14.1768E-03    -51.8024E+06    -51.4012E+06     11.3715E+06    -1.84203E+06    -168.318E-03     325.860E-03    -157.542E-03     31.8766E-03    -168.561E-03     325.705E-03    -157.336E-03     30.5159E-03
            2259     6.92812E-03     14.1081E-03    -65.2619E+06    -82.3575E+06    -4.72977E+06    -2.35550E+06    -165.862E-03     322.283E-03    -156.420E-03     26.5772E-03    -166.089E-03     322.000E-03    -156.230E-03     25.4275E-03
            2260     6.16545E-03     14.0492E-03    -62.0701E+06    -92.0068E+06    -6.64773E+06     32.7167E+03    -163.292E-03     318.637E-03    -155.345E-03     21.5243E-03    -163.476E-03     318.294E-03    -155.155E-03     20.5699E-03
            2261     5.39941E-03     13.9949E-03    -68.6624E+06    -113.440E+06    -23.5327E+06     1.72985E+06    -160.798E-03     315.076E-03    -154.278E-03     17.2276E-03    -160.949E-03     314.649E-03    -154.132E-03     16.4475E-03
            2262     4.63361E-03     13.9495E-03    -80.7329E+06    -138.973E+06    -41.6470E+06    -1.15977E+06    -158.222E-03     311.525E-03    -153.303E-03     13.6996E-03    -158.361E-03     311.005E-03    -153.193E-03     13.0127E-03
            2263     3.86426E-03     13.9112E-03    -84.9822E+06    -151.561E+06    -51.5198E+06    -224.330E+03    -155.792E-03     308.264E-03    -152.471E-03     10.3690E-03    -155.912E-03     307.692E-03    -152.386E-03     9.82448E-03
            2264     3.09300E-03     13.8801E-03    -90.1657E+06    -166.357E+06    -67.0715E+06     1.53170E+06    -154.021E-03     305.768E-03    -151.747E-03     7.68880E-03    -154.113E-03     305.144E-03    -151.710E-03     7.28839E-03
            2265     2.32115E-03     13.8562E-03    -97.0370E+06    -181.592E+06     -81.388E+06     449.337E+03    -152.559E-03     303.699E-03    -151.140E-03     5.57690E-03    -152.628E-03     303.016E-03    -151.143E-03     5.27105E-03
            2266     1.54820E-03     13.8399E-03    -102.233E+06    -194.968E+06    -90.8143E+06     2.22299E+06    -151.356E-03     302.035E-03    -150.680E-03     3.89943E-03    -151.414E-03     301.305E-03    -150.703E-03     3.71722E-03
            2267     774.509E-06     13.8281E-03    -104.410E+06    -216.145E+06    -98.9575E+06     3.09021E+06    -150.663E-03     301.016E-03    -150.353E-03     2.48687E-03    -150.646E-03     300.221E-03    -150.383E-03     2.40069E-03
            2268     14.5216E-03     13.6666E-03    -2.65690E+06     58.4769E+06     79.1724E+06    -3.14823E+06    -172.757E-03     336.515E-03    -163.758E-03     65.2252E-03    -173.019E-03     336.723E-03    -163.443E-03     62.2915E-03
            2269     13.7641E-03     13.5759E-03    -8.43683E+06     60.4317E+06     82.3051E+06    -2.15494E+06    -173.693E-03     336.997E-03    -163.304E-03     71.9302E-03    -174.131E-03     337.374E-03    -162.968E-03     68.8963E-03
            2270     13.0086E-03     13.4782E-03    -8.84240E+06     65.2165E+06     83.8509E+06    -2.48367E+06    -174.038E-03     336.772E-03    -162.734E-03     69.3370E-03    -174.557E-03     337.248E-03    -162.397E-03     66.4052E-03
            2271     12.2499E-03     13.3830E-03    -16.2199E+06     52.5536E+06     70.3725E+06    -2.28861E+06    -174.619E-03     336.631E-03    -162.012E-03     65.4618E-03    -175.119E-03     337.056E-03    -161.713E-03     62.6576E-03
            2272     11.4926E-03     13.2862E-03    -19.5360E+06     47.7750E+06     59.9218E+06     2.03508E+06    -175.666E-03     336.797E-03    -161.131E-03     60.9047E-03    -176.115E-03     337.172E-03    -160.872E-03     58.5072E-03
            2273     10.7362E-03     13.1924E-03    -27.9813E+06     39.7743E+06     49.9623E+06     6.24075E+06    -176.523E-03     336.581E-03    -160.059E-03     53.8041E-03    -176.951E-03     336.908E-03    -159.826E-03     51.6623E-03
            2274     9.98286E-03     13.1002E-03    -30.1861E+06     35.8331E+06     49.0274E+06     5.63483E+06    -175.692E-03     334.525E-03    -158.832E-03     45.4478E-03    -176.093E-03     334.805E-03    -158.595E-03     43.4542E-03
            2275     9.22878E-03     13.0169E-03    -33.7394E+06     12.7987E+06     39.3911E+06     4.10417E+06    -173.297E-03     330.797E-03    -157.500E-03     38.2142E-03    -173.637E-03     330.949E-03    -157.273E-03     36.4418E-03
            2276     8.47064E-03     12.9363E-03    -48.6333E+06    -33.2328E+06     17.5799E+06    -352.209E+03    -170.412E-03     326.551E-03    -156.139E-03     31.9768E-03    -170.702E-03     326.500E-03    -155.932E-03     30.3553E-03
            2277     7.71004E-03     12.8660E-03    -51.3392E+06    -56.0691E+06     11.0498E+06    -1.02359E+06    -167.840E-03     322.636E-03    -154.796E-03     25.8748E-03    -168.074E-03     322.457E-03    -154.585E-03     24.4066E-03
            2278     6.94927E-03     12.8043E-03    -55.2201E+06    -75.7755E+06     378.296E+03    -54.5184E+03    -165.075E-03     318.497E-03    -153.422E-03     20.7544E-03    -165.264E-03     318.220E-03    -153.230E-03     19.4976E-03
            2279     6.18515E-03     12.7483E-03    -67.8751E+06    -101.278E+06    -14.1153E+06    -1.41526E+06    -161.898E-03     313.979E-03    -152.081E-03     16.5926E-03    -162.085E-03     313.606E-03    -151.906E-03     15.5034E-03
            2280     5.42015E-03     12.7014E-03    -72.0632E+06    -114.148E+06    -24.4941E+06     2.26912E+06    -158.597E-03     309.411E-03    -150.814E-03     12.9146E-03    -158.762E-03     308.986E-03    -150.667E-03     12.0514E-03
            2281     4.64975E-03     12.6598E-03    -73.9635E+06    -131.609E+06    -39.1848E+06     2.47730E+06    -155.400E-03     305.067E-03    -149.667E-03     9.81437E-03    -155.520E-03     304.570E-03    -149.565E-03     9.09092E-03
            2282     3.87880E-03     12.6266E-03    -84.9476E+06    -154.510E+06    -55.5138E+06     69.6573E+03    -152.687E-03     301.379E-03    -148.693E-03     7.45004E-03    -152.800E-03     300.803E-03    -148.623E-03     6.83818E-03
            2283     3.10600E-03     12.5986E-03    -91.0527E+06    -167.308E+06    -68.1339E+06     925.085E+03    -150.409E-03     298.291E-03    -147.882E-03     5.44450E-03    -150.500E-03     297.664E-03    -147.848E-03     4.97561E-03
            2284     2.33063E-03     12.5781E-03    -95.9224E+06    -180.091E+06    -82.1771E+06     706.757E+03    -148.776E-03     295.993E-03    -147.217E-03     3.65120E-03    -148.829E-03     295.305E-03    -147.227E-03     3.29695E-03
            2285     1.55456E-03     12.5628E-03    -102.608E+06    -194.930E+06    -93.8108E+06    -796.151E+03    -147.578E-03     294.254E-03    -146.676E-03     2.30631E-03    -147.629E-03     293.522E-03    -146.714E-03     2.05212E-03
            2286     777.411E-06     12.5540E-03    -101.932E+06    -212.298E+06    -98.9931E+06    -585.068E+03    -146.495E-03     292.931E-03    -146.437E-03     1.51804E-03    -146.470E-03     292.156E-03    -146.476E-03     1.36205E-03
            2287     14.5235E-03     12.3438E-03    -5.77528E+06     65.1389E+06     78.0130E+06    -2.37736E+06    -173.371E-03     336.950E-03    -163.579E-03     68.4195E-03    -173.818E-03     337.380E-03    -163.275E-03     65.4559E-03
            2288     13.7656E-03     12.2465E-03    -15.7079E+06     58.5063E+06     70.3695E+06    -6.55043E+06    -175.689E-03     338.692E-03    -163.004E-03     71.9755E-03    -176.228E-03     339.179E-03    -162.714E-03     68.7256E-03
            2289     13.0098E-03     12.1498E-03    -21.4688E+06     53.3222E+06     65.9975E+06    -8.64191E+06    -177.969E-03     340.202E-03    -162.234E-03     69.4831E-03    -178.518E-03     340.673E-03    -161.950E-03     66.3585E-03
            2290     12.2577E-03     12.0552E-03    -18.6035E+06     55.9009E+06     69.4872E+06    -4.23983E+06    -180.305E-03     341.533E-03    -161.228E-03     63.0677E-03    -180.826E-03     341.986E-03    -160.935E-03     60.0551E-03
            2291     11.5056E-03     11.9595E-03    -23.6869E+06     50.2918E+06     63.6459E+06     3.17230E+06    -181.387E-03     341.318E-03    -159.930E-03     54.7588E-03    -181.866E-03     341.707E-03    -159.651E-03     52.1303E-03
            2292     10.7567E-03     11.8623E-03    -29.9493E+06     40.1235E+06     51.7575E+06     1.73113E+06    -180.176E-03     338.585E-03    -158.409E-03     46.1667E-03    -180.615E-03     338.911E-03    -158.165E-03     43.7061E-03
            2293     10.0047E-03     11.7776E-03    -35.4704E+06     29.5881E+06     43.2622E+06     488.886E+03    -177.739E-03     334.534E-03    -156.795E-03     39.4953E-03    -178.149E-03     334.799E-03    -156.571E-03     37.2359E-03
            2294     9.25031E-03     11.6969E-03    -38.7488E+06     10.9699E+06     37.6377E+06     2.97067E+06    -174.760E-03     329.910E-03    -155.150E-03     33.3654E-03    -175.123E-03     330.066E-03    -154.921E-03     31.3638E-03
            2295     8.49398E-03     11.6277E-03    -39.4272E+06    -18.9286E+06     26.2452E+06     4.83230E+06    -171.014E-03     324.499E-03    -153.484E-03     27.1155E-03    -171.291E-03     324.493E-03    -153.269E-03     25.4103E-03
            2296     7.73444E-03     11.5603E-03    -48.5675E+06    -56.4548E+06     10.4706E+06     1.07137E+06    -167.093E-03     318.957E-03    -151.864E-03     21.1419E-03    -167.316E-03     318.778E-03    -151.660E-03     19.6143E-03
            2297     6.97179E-03     11.5043E-03    -55.9003E+06    -77.3168E+06    -613.650E+03     2.31406E+06    -163.380E-03     313.681E-03    -150.302E-03     16.2055E-03    -163.577E-03     313.408E-03    -150.112E-03     14.8673E-03
            2298     6.20686E-03     11.4561E-03    -63.4481E+06    -98.4656E+06    -17.0931E+06     3.14999E+06    -159.646E-03     308.438E-03    -148.792E-03     12.9874E-03    -159.814E-03     308.082E-03    -148.643E-03     11.8563E-03
            2299     5.43752E-03     11.4134E-03    -71.9665E+06    -119.763E+06    -27.8281E+06     102.128E+03    -156.036E-03     303.460E-03    -147.424E-03     10.2047E-03    -156.193E-03     303.017E-03    -147.285E-03     9.21115E-03
            2300     4.66781E-03     11.3799E-03    -76.7574E+06    -130.583E+06    -37.9173E+06     3.21102E+06    -152.626E-03     298.803E-03    -146.177E-03     7.46730E-03    -152.770E-03     298.321E-03    -146.066E-03     6.68223E-03
            2301     3.89355E-03     11.3499E-03    -82.1020E+06    -149.484E+06    -53.9371E+06     2.47547E+06    -149.506E-03     294.596E-03    -145.090E-03     5.59504E-03    -149.620E-03     294.044E-03    -145.024E-03     4.94833E-03
            2302     3.11705E-03     11.3275E-03    -91.1114E+06    -168.609E+06    -67.5354E+06     123.818E+03    -147.083E-03     291.288E-03    -144.205E-03     4.16810E-03    -147.181E-03     290.661E-03    -144.166E-03     3.64138E-03
            2303     2.33963E-03     11.3088E-03    -96.1296E+06    -178.211E+06    -80.0375E+06     890.419E+03    -145.207E-03     288.677E-03    -143.469E-03     2.70552E-03    -145.266E-03     287.996E-03    -143.472E-03     2.32753E-03
            2304     1.56074E-03     11.2966E-03    -99.7137E+06    -192.797E+06    -91.6963E+06    -309.617E+03    -143.810E-03     286.704E-03    -142.894E-03     1.64199E-03    -143.848E-03     285.968E-03    -142.928E-03     1.38264E-03
            2305     781.073E-06     11.2891E-03    -102.165E+06    -215.299E+06    -102.199E+06    -975.537E+03    -142.853E-03     285.354E-03    -142.501E-03     907.765E-06    -142.823E-03     284.577E-03    -142.552E-03     739.175E-06
            2306     14.5252E-03     11.0114E-03    -2.52262E+06     68.8516E+06     82.2308E+06    -113.534E+03    -177.733E-03     341.203E-03    -163.470E-03     69.2352E-03    -178.208E-03     341.675E-03    -163.155E-03     66.4004E-03
            2307     13.7719E-03     10.9205E-03    -7.68036E+06     63.8719E+06     77.4519E+06    -3.39880E+06    -180.395E-03     343.035E-03    -162.640E-03     69.3761E-03    -180.936E-03     343.550E-03    -162.334E-03     66.0012E-03
            2308     13.0186E-03     10.8166E-03    -14.2043E+06     55.0595E+06     69.6106E+06    -5.63747E+06    -183.491E-03     345.016E-03    -161.525E-03     63.0743E-03    -184.017E-03     345.486E-03    -161.236E-03     59.6909E-03
            2309     12.2695E-03     10.7190E-03    -24.0600E+06     47.5695E+06     62.6568E+06    -5.17411E+06    -185.891E-03     345.981E-03    -160.090E-03     55.3090E-03    -186.421E-03     346.413E-03    -159.811E-03     51.9577E-03
            2310     11.5266E-03     10.6200E-03    -29.5385E+06     44.3622E+06     57.7444E+06    -4.33524E+06    -185.255E-03     343.642E-03    -158.387E-03     48.4649E-03    -185.759E-03     344.032E-03    -158.120E-03     45.3776E-03
            2311     10.7777E-03     10.5369E-03    -30.6954E+06      40.181E+06     51.8906E+06    -1.30934E+06    -182.119E-03     338.674E-03    -156.555E-03     41.9623E-03    -182.570E-03     339.009E-03    -156.310E-03     39.2658E-03
            2312     10.0256E-03     10.4538E-03    -36.0633E+06     30.5932E+06     39.6419E+06     49.1916E+03    -178.707E-03     333.371E-03    -154.664E-03     35.4636E-03    -179.115E-03     333.646E-03    -154.458E-03     33.0921E-03
            2313     9.27193E-03     10.3826E-03    -41.6949E+06     4.38061E+06     29.5509E+06    -267.239E+03    -175.205E-03     327.978E-03    -152.774E-03     28.6252E-03    -175.561E-03     328.118E-03    -152.572E-03     26.4460E-03
            2314     8.51604E-03     10.3159E-03    -45.7291E+06    -21.0113E+06     23.6244E+06     4.67842E+06    -170.957E-03     321.858E-03    -150.901E-03     22.8385E-03    -171.263E-03     321.860E-03    -150.686E-03     20.9460E-03
            2315     7.75685E-03     10.2617E-03    -50.1477E+06    -46.6920E+06     10.0292E+06      7.8567E+06    -166.001E-03     315.072E-03    -149.071E-03     18.4508E-03    -166.249E-03     314.948E-03    -148.881E-03     16.8835E-03
            2316     6.99267E-03     10.2110E-03    -57.3576E+06    -78.9299E+06    -4.57993E+06     2.86191E+06    -161.237E-03     308.625E-03    -147.388E-03     14.5092E-03    -161.440E-03     308.358E-03    -147.213E-03     13.0951E-03
            2317     6.22510E-03     10.1701E-03    -62.6331E+06    -94.5587E+06    -13.5259E+06     3.20530E+06    -156.998E-03     302.850E-03    -145.852E-03     11.4356E-03    -157.179E-03     302.512E-03    -145.692E-03     10.2212E-03
            2318     5.45529E-03     10.1349E-03    -69.9213E+06    -115.908E+06    -27.5318E+06     2.62674E+06    -153.166E-03     297.614E-03    -144.448E-03     9.23999E-03    -153.318E-03     297.186E-03    -144.317E-03     8.21526E-03
            2319     4.68103E-03     10.1050E-03    -79.2140E+06    -135.424E+06    -38.3632E+06    -373.529E+03    -149.760E-03     292.972E-03    -143.212E-03     7.24707E-03    -149.906E-03     292.467E-03    -143.092E-03     6.36313E-03
            2320     3.90566E-03     10.0835E-03    -84.1076E+06    -146.302E+06    -48.9884E+06     3.06661E+06    -146.819E-03     288.927E-03    -142.108E-03     5.77946E-03    -146.952E-03     288.384E-03    -142.019E-03     5.10276E-03
            2321     3.12763E-03     10.0631E-03    -88.5902E+06    -163.928E+06    -64.5520E+06     2.21121E+06    -144.216E-03     285.374E-03    -141.158E-03     4.40869E-03    -144.313E-03     284.763E-03    -141.115E-03     3.87229E-03
            2322     2.34761E-03     10.0492E-03    -95.0440E+06    -178.387E+06    -78.1383E+06    -258.794E+03    -142.073E-03     282.497E-03    -140.423E-03     3.13184E-03    -142.144E-03     281.826E-03    -140.418E-03     2.71903E-03
            2323     1.56550E-03     10.0394E-03    -101.827E+06    -192.762E+06    -90.8272E+06     849.495E+03    -140.655E-03     280.554E-03    -139.899E-03     2.10873E-03    -140.713E-03     279.831E-03    -139.926E-03     1.86089E-03
            2324     782.744E-06     10.0329E-03    -107.063E+06    -216.106E+06    -101.301E+06     901.865E+03    -139.929E-03     279.411E-03    -139.482E-03     934.594E-06    -139.929E-03     278.640E-03    -139.520E-03     797.060E-06
            2325     14.5268E-03     9.68155E-03    -3.44094E+06     73.2515E+06     83.1142E+06    -1.66830E+06    -184.353E-03     347.588E-03    -163.235E-03     66.9424E-03    -184.838E-03     348.077E-03    -162.921E-03     63.7897E-03
            2326     13.7778E-03     9.57664E-03    -6.61491E+06     68.6168E+06     82.6953E+06    -4.82827E+06    -187.935E-03     349.947E-03    -162.013E-03     65.6748E-03    -188.500E-03     350.493E-03    -161.689E-03     61.8417E-03
            2327     13.0359E-03     9.47923E-03    -9.99505E+06     59.4413E+06     78.8951E+06    -333.880E+03    -189.481E-03     349.956E-03    -160.474E-03     58.8998E-03    -190.021E-03     350.443E-03    -160.151E-03     55.2526E-03
            2328     12.2935E-03     9.37509E-03    -18.7385E+06     48.5447E+06     65.2379E+06     1.43702E+06    -188.337E-03     347.015E-03    -158.678E-03     52.4159E-03    -188.841E-03     347.436E-03    -158.395E-03     49.1201E-03
            2329     11.5441E-03     9.28928E-03    -29.8380E+06     35.4213E+06     47.2988E+06    -5.70369E+06    -186.138E-03     342.867E-03    -156.729E-03     45.2084E-03    -186.621E-03     343.233E-03    -156.500E-03     41.9675E-03
            2330     10.7958E-03     9.20536E-03    -34.7857E+06     31.2538E+06     42.1873E+06    -4.79427E+06    -183.634E-03     338.337E-03    -154.704E-03     37.9377E-03    -184.084E-03     338.654E-03    -154.488E-03     35.0345E-03
            2331     10.0471E-03     9.13474E-03    -37.9180E+06     28.7152E+06     38.1639E+06    -317.280E+03    -179.888E-03     332.483E-03    -152.595E-03     30.3227E-03    -180.306E-03     332.760E-03    -152.391E-03     27.7689E-03
            2332     9.29417E-03     9.06678E-03    -44.1905E+06     4.99981E+06     26.3575E+06     1.47489E+06    -174.471E-03     324.974E-03    -150.504E-03     23.8249E-03    -174.842E-03     325.131E-03    -150.315E-03     21.5295E-03
            2333     8.53687E-03     9.01333E-03    -50.3965E+06    -29.6207E+06     15.3448E+06     397.042E+03    -168.883E-03     317.430E-03    -148.548E-03     19.6436E-03    -169.196E-03     317.416E-03    -148.355E-03     17.6129E-03
            2334     7.77465E-03     8.96445E-03    -50.0773E+06    -46.4786E+06     12.4278E+06     3.81128E+06    -163.742E-03     310.483E-03    -146.741E-03     16.7157E-03    -164.004E-03     310.366E-03    -146.539E-03     15.0137E-03
            2335     7.00987E-03     8.92538E-03    -56.1069E+06    -68.6664E+06     431.816E+03     6.25754E+06    -158.825E-03     303.888E-03    -145.063E-03     14.2174E-03    -159.051E-03     303.670E-03    -144.880E-03     12.8087E-03
            2336     6.24040E-03     8.89078E-03    -68.5706E+06    -97.6994E+06    -15.6666E+06     2.60769E+06    -154.330E-03     297.889E-03    -143.559E-03     12.0948E-03    -154.541E-03     297.555E-03    -143.396E-03     10.8660E-03
            2337     5.46725E-03     8.86220E-03    -73.7728E+06    -111.449E+06    -24.7557E+06     2.80952E+06    -150.287E-03     292.531E-03    -142.245E-03     10.2862E-03    -150.476E-03     292.135E-03    -142.100E-03     9.26972E-03
            2338     4.69188E-03     8.84000E-03    -78.4429E+06    -130.985E+06    -37.1234E+06     1.77764E+06    -147.026E-03     288.127E-03    -141.102E-03     8.75759E-03    -147.180E-03     287.646E-03    -140.984E-03     7.91526E-03
            2339     3.91343E-03     8.82021E-03    -84.8910E+06    -148.570E+06    -48.7624E+06    -987.833E+03    -144.428E-03     284.534E-03    -140.106E-03     7.46091E-03    -144.563E-03     283.982E-03    -140.012E-03     6.74791E-03
            2340     3.13385E-03     8.80684E-03    -89.5159E+06    -159.800E+06    -60.9250E+06    -173.911E+03    -141.982E-03     281.233E-03    -139.251E-03     6.18251E-03    -142.092E-03     280.636E-03    -139.194E-03     5.61820E-03
            2341     2.35129E-03     8.79603E-03    -95.6205E+06    -178.620E+06    -76.0848E+06    -417.652E+03    -140.070E-03     278.657E-03    -138.586E-03     4.83222E-03    -140.148E-03     277.983E-03    -138.569E-03     4.41673E-03
            2342     1.56861E-03     8.78804E-03    -103.173E+06    -194.629E+06    -90.0743E+06    -397.928E+03    -138.839E-03     276.925E-03    -138.086E-03     3.09774E-03    -138.910E-03     276.202E-03    -138.105E-03     2.84384E-03
            2343     784.735E-06     8.78400E-03    -108.433E+06    -213.393E+06    -101.465E+06     1.13562E+06    -138.059E-03     275.748E-03    -137.689E-03     1.23974E-03    -138.076E-03     274.999E-03    -137.730E-03     1.13068E-03
            2344     14.5342E-03     8.33387E-03    -3.06919E+06     76.3349E+06     85.9734E+06    -1.71121E+06    -191.576E-03     354.426E-03    -162.851E-03     66.8674E-03    -192.097E-03     354.956E-03    -162.527E-03     63.3214E-03
            2345     13.7944E-03     8.23034E-03    -13.3150E+06     69.9071E+06     78.5863E+06    -2.60720E+06    -193.838E-03     355.067E-03    -161.230E-03     66.3606E-03    -194.453E-03     355.656E-03    -160.919E-03     62.3342E-03
            2346     13.0516E-03     8.12950E-03    -21.6341E+06     52.5318E+06     67.4632E+06    -1.08025E+06    -193.254E-03     352.610E-03    -159.356E-03     59.4766E-03    -193.843E-03     353.113E-03    -159.063E-03     55.6660E-03
            2347     12.3058E-03     8.03995E-03    -22.6327E+06     46.8980E+06     62.7099E+06     1.70599E+06    -191.062E-03     348.386E-03    -157.324E-03     50.9726E-03    -191.586E-03     348.816E-03    -157.046E-03     47.5748E-03
            2348     11.5624E-03     7.95232E-03    -23.8209E+06     45.0143E+06     53.5246E+06     235.977E+03    -188.149E-03     343.294E-03    -155.145E-03     40.5240E-03    -188.620E-03     343.686E-03    -154.908E-03     37.2384E-03
            2349     10.8164E-03     7.87958E-03    -33.6308E+06     28.7167E+06     38.0098E+06    -3.72600E+06    -184.235E-03     337.119E-03    -152.885E-03     32.2054E-03    -184.667E-03     337.425E-03    -152.687E-03     29.1288E-03
            2350     10.0671E-03     7.81013E-03    -41.5701E+06     16.2947E+06     32.2120E+06    -5.27752E+06    -178.491E-03     329.173E-03    -150.682E-03     26.0908E-03    -178.905E-03     329.405E-03    -150.484E-03     23.2993E-03
            2351     9.31363E-03     7.76087E-03    -41.2600E+06     3.08967E+06     29.6620E+06     126.511E+03    -171.945E-03     320.567E-03    -148.622E-03     22.1657E-03    -172.309E-03     320.711E-03    -148.419E-03     19.7704E-03
            2352     8.55293E-03     7.71381E-03    -46.5889E+06    -23.2631E+06     19.2720E+06     2.85968E+06    -166.023E-03     312.763E-03    -146.739E-03     19.8142E-03    -166.332E-03     312.769E-03    -146.542E-03     17.8730E-03
            2353     7.78942E-03     7.67628E-03    -54.4811E+06    -49.7933E+06     11.6140E+06     844.908E+03    -160.722E-03     305.780E-03    -145.058E-03     17.3116E-03    -161.004E-03     305.659E-03    -144.849E-03     15.6220E-03
            2354     7.02013E-03     7.64364E-03    -59.7071E+06    -65.7824E+06     4.98989E+06     3.99484E+06    -155.923E-03     299.469E-03    -143.546E-03     15.5369E-03    -156.182E-03     299.269E-03    -143.339E-03     14.1535E-03
            2355     6.24900E-03     7.61736E-03    -67.9549E+06    -89.6674E+06    -9.81527E+06     3.74421E+06    -151.683E-03     293.880E-03    -142.197E-03     13.9979E-03    -151.912E-03     293.579E-03    -142.018E-03     12.8418E-03
            2356     5.47416E-03     7.59627E-03    -73.8590E+06    -111.177E+06    -21.3893E+06    -872.080E+03    -147.971E-03     289.021E-03    -141.050E-03     12.5729E-03    -148.167E-03     288.622E-03    -140.889E-03     11.5613E-03
            2357     4.69622E-03     7.57775E-03    -77.9618E+06    -127.056E+06    -33.0288E+06    -1.50838E+06    -144.945E-03     285.023E-03    -140.078E-03     11.3483E-03    -145.110E-03     284.557E-03    -139.946E-03     10.5154E-03
            2358     3.91700E-03     7.56401E-03    -83.0104E+06    -147.412E+06    -47.6393E+06    -3.27246E+06    -142.485E-03     281.760E-03    -139.274E-03     9.74595E-03    -142.617E-03     281.212E-03    -139.178E-03     9.05547E-03
            2359     3.13487E-03     7.55319E-03    -90.3960E+06    -163.939E+06    -61.8992E+06    -4.18670E+06    -140.676E-03     279.298E-03    -138.621E-03     8.02502E-03    -140.787E-03     278.686E-03    -138.562E-03     7.47259E-03
            2360     2.35304E-03     7.54577E-03    -95.6023E+06    -180.172E+06    -75.9228E+06    -1.53796E+06    -139.341E-03     277.423E-03    -138.083E-03     6.35044E-03    -139.419E-03     276.744E-03    -138.062E-03     5.97158E-03
            2361     1.56903E-03     7.53974E-03    -99.0077E+06    -195.538E+06     -87.658E+06    -738.608E+03    -138.169E-03     275.872E-03    -137.702E-03     4.44393E-03    -138.217E-03     275.133E-03    -137.714E-03     4.20129E-03
            2362     784.811E-06     7.53700E-03    -104.106E+06    -212.877E+06    -98.4943E+06    -878.227E+03    -137.621E-03     275.158E-03    -137.538E-03     2.80414E-03    -137.610E-03     274.386E-03    -137.571E-03     2.69100E-03
            2363     14.5402E-03     6.97836E-03    -2.58472E+06     79.3089E+06     89.2053E+06     239.507E+03    -197.266E-03     359.776E-03    -162.510E-03     70.9015E-03    -197.836E-03     360.359E-03    -162.175E-03     67.1993E-03
            2364     13.7997E-03     6.87621E-03    -7.03396E+06     69.7515E+06     83.0954E+06     2.17477E+06    -198.679E-03     359.276E-03    -160.597E-03     67.8560E-03    -199.294E-03     359.873E-03    -160.273E-03     63.7606E-03
            2365     13.0605E-03     6.78276E-03    -15.4264E+06     52.7177E+06     72.2140E+06     976.062E+03    -198.153E-03     356.564E-03    -158.412E-03     56.2121E-03    -198.723E-03     357.059E-03    -158.105E-03     52.2141E-03
            2366     12.3238E-03     6.69381E-03    -22.8825E+06     47.3802E+06     62.1516E+06    -3.37463E+06    -194.801E-03     350.836E-03    -156.035E-03     44.2200E-03    -195.337E-03     351.281E-03    -155.760E-03     40.3518E-03
            2367     11.5821E-03     6.61756E-03    -28.4363E+06     41.8796E+06     50.6301E+06    -1.64494E+06    -189.001E-03     342.617E-03    -153.616E-03     35.7019E-03    -189.485E-03     343.004E-03    -153.383E-03     32.2818E-03
            2368     10.8365E-03     6.55093E-03    -30.3722E+06     33.5493E+06     42.3871E+06     1.26564E+06    -181.993E-03     333.308E-03    -151.315E-03     29.8076E-03    -182.417E-03     333.622E-03    -151.108E-03     26.8533E-03
            2369     10.0837E-03     6.49952E-03    -34.5666E+06     16.0023E+06     33.6253E+06    -2.32585E+06    -174.646E-03     323.866E-03    -149.220E-03     25.1802E-03    -175.021E-03     324.079E-03    -149.025E-03     22.5255E-03
            2370     9.32348E-03     6.45698E-03    -43.4527E+06    -3.75958E+06     29.3892E+06    -1.63854E+06    -168.448E-03     315.815E-03    -147.367E-03     22.2742E-03    -168.805E-03     315.920E-03    -147.151E-03     20.0085E-03
            2371     8.56217E-03     6.42155E-03    -47.0688E+06    -17.9877E+06     27.3419E+06     1.98175E+06    -162.976E-03     308.669E-03    -145.694E-03     20.3632E-03    -163.300E-03     308.684E-03    -145.463E-03     18.5084E-03
            2372     7.79480E-03     6.39195E-03    -54.7115E+06    -47.5460E+06     15.4170E+06    -1.05494E+06    -157.727E-03     301.923E-03    -144.195E-03     18.5298E-03    -158.013E-03     301.801E-03    -143.970E-03     16.9256E-03
            2373     7.02550E-03     6.36814E-03    -62.4298E+06    -71.2863E+06     6.14361E+06    -2.49188E+06    -153.097E-03     296.013E-03    -142.917E-03     17.3155E-03    -153.360E-03     295.785E-03    -142.692E-03     15.9612E-03
            2374     6.25089E-03     6.34811E-03    -61.3105E+06    -83.4000E+06     844.941E+03    -2.46449E+06    -149.330E-03     291.162E-03    -141.832E-03     16.1607E-03    -149.543E-03     290.860E-03    -141.618E-03     15.0396E-03
            2375     5.47462E-03     6.33233E-03    -65.4822E+06    -105.951E+06    -14.4136E+06    -4.27247E+06    -146.382E-03     287.277E-03    -140.895E-03     14.8845E-03    -146.543E-03     286.872E-03    -140.719E-03     13.9429E-03
            2376     4.69629E-03     6.31961E-03    -73.7363E+06    -130.597E+06    -32.1277E+06    -5.82021E+06    -143.758E-03     283.881E-03    -140.124E-03     13.4690E-03    -143.889E-03     283.381E-03    -139.988E-03     12.6829E-03
            2377     3.91510E-03     6.30872E-03    -78.4054E+06    -148.793E+06    -47.3056E+06    -4.16031E+06    -141.716E-03     281.242E-03    -139.526E-03     11.6153E-03    -141.809E-03     280.667E-03    -139.433E-03     10.9992E-03
            2378     3.13384E-03     6.30142E-03    -82.1204E+06    -167.242E+06    -62.7202E+06    -3.02520E+06    -140.388E-03     279.461E-03    -139.073E-03     9.74642E-03    -140.442E-03     278.812E-03    -139.025E-03     9.28294E-03
            2379     2.35060E-03     6.29463E-03    -87.5440E+06    -183.744E+06    -75.0275E+06    -2.73165E+06    -139.404E-03     278.158E-03    -138.754E-03     7.71426E-03    -139.439E-03     277.449E-03    -138.736E-03     7.36691E-03
            2380     1.56768E-03     6.29201E-03    -91.4920E+06    -196.936E+06    -83.2351E+06    -1.33049E+06    -138.779E-03     277.347E-03    -138.568E-03     5.39340E-03    -138.791E-03     276.586E-03    -138.566E-03     5.16917E-03
            2381     783.022E-06     6.28919E-03    -94.9294E+06    -215.885E+06    -92.5891E+06    -1.57457E+06    -138.455E-03     277.080E-03    -138.625E-03     3.19367E-03    -138.388E-03     276.248E-03    -138.637E-03     3.06462E-03
            2382     14.5423E-03     5.61774E-03    -7.29710E+06     74.9503E+06     82.3345E+06    -1.92379E+06    -203.723E-03     365.975E-03    -162.252E-03     71.4127E-03    -204.326E-03     366.579E-03    -161.938E-03     67.4116E-03
            2383     13.8079E-03     5.51805E-03    -6.09218E+06     71.9590E+06     86.7204E+06     8.88046E+03    -204.774E-03     364.795E-03    -160.021E-03     64.2008E-03    -205.404E-03     365.408E-03    -159.683E-03     59.8103E-03
            2384     13.0765E-03     5.42218E-03    -8.89497E+06     59.0660E+06     80.6820E+06     1.04994E+06    -202.327E-03     359.841E-03    -157.514E-03     51.1038E-03    -202.878E-03     360.337E-03    -157.183E-03     47.0120E-03
            2385     12.3404E-03     5.34712E-03    -13.8058E+06     48.0936E+06     67.9209E+06    -533.381E+03    -195.669E-03     350.589E-03    -154.920E-03     40.5394E-03    -196.155E-03     351.003E-03    -154.630E-03     36.7448E-03
            2386     11.5976E-03     5.28485E-03    -19.7916E+06     41.4895E+06     56.5669E+06     2.29467E+06    -186.823E-03     339.306E-03    -152.483E-03     34.2448E-03    -187.262E-03     339.661E-03    -152.232E-03     31.0230E-03
            2387     10.8463E-03     5.23196E-03    -28.3353E+06     34.9475E+06     47.7523E+06     538.889E+03    -178.168E-03     328.495E-03    -150.327E-03     29.1697E-03    -178.580E-03     328.793E-03    -150.098E-03     26.4467E-03
            2388     10.0898E-03     5.19324E-03    -34.9998E+06     22.4785E+06     40.0863E+06     1.14755E+06    -171.017E-03     319.464E-03    -148.446E-03     24.9188E-03    -171.400E-03     319.687E-03    -148.228E-03     22.5858E-03
            2389     9.33077E-03     5.15967E-03    -41.7445E+06    -1.58031E+06     34.3218E+06    -570.590E+03    -165.010E-03     311.828E-03    -146.818E-03     22.7256E-03    -165.356E-03     311.921E-03    -146.584E-03     20.7877E-03
            2390     8.56489E-03     5.13342E-03    -47.5391E+06    -24.2313E+06     29.2387E+06    -6.00712E+06    -159.579E-03     304.984E-03    -145.405E-03     21.3849E-03    -159.893E-03     304.960E-03    -145.155E-03     19.6570E-03
            2391     7.79655E-03     5.11226E-03    -52.1683E+06    -47.4631E+06     18.3124E+06    -4.15287E+06    -154.946E-03     299.123E-03    -144.177E-03     20.4060E-03    -155.217E-03     298.987E-03    -143.941E-03     19.0023E-03
            2392     7.02286E-03     5.09581E-03    -52.2189E+06    -68.7781E+06     8.03009E+06    -6.66581E+06    -151.188E-03     294.325E-03    -143.137E-03     19.2944E-03    -151.399E-03     294.084E-03    -142.921E-03     18.1041E-03
            2393     6.24798E-03     5.08156E-03    -53.7609E+06    -87.4767E+06    -2.13214E+06    -8.17488E+06    -148.017E-03     290.294E-03    -142.276E-03     17.7991E-03    -148.180E-03     289.962E-03    -142.082E-03     16.7915E-03
            2394     5.47020E-03     5.06973E-03    -59.2156E+06    -108.480E+06    -18.9948E+06    -5.49654E+06    -145.515E-03     287.073E-03    -141.558E-03     16.1057E-03    -145.636E-03     286.654E-03    -141.409E-03     15.2982E-03
            2395     4.69101E-03     5.06070E-03    -62.7561E+06    -131.204E+06    -36.1232E+06    -4.08805E+06    -143.615E-03     284.598E-03    -140.983E-03     14.3014E-03    -143.686E-03     284.086E-03    -140.882E-03     13.6552E-03
            2396     3.91103E-03     5.05375E-03    -67.9576E+06    -153.507E+06    -50.4373E+06    -4.01134E+06    -142.091E-03     282.651E-03    -140.560E-03     12.4483E-03    -142.123E-03     282.044E-03    -140.491E-03     11.9292E-03
            2397     3.12898E-03     5.04696E-03    -71.6038E+06    -169.737E+06    -60.1870E+06    -1.96279E+06    -141.009E-03     281.294E-03    -140.285E-03     10.2389E-03    -141.013E-03     280.617E-03    -140.236E-03     9.85472E-03
            2398     2.34724E-03     5.04321E-03    -75.7232E+06    -185.505E+06    -68.8662E+06    -790.516E+03    -140.435E-03     280.559E-03    -140.123E-03     7.67667E-03    -140.414E-03     279.811E-03    -140.089E-03     7.40375E-03
            2399     1.56418E-03     5.03943E-03    -80.7942E+06    -200.010E+06    -74.9170E+06    -870.479E+03    -140.323E-03     280.309E-03    -139.987E-03     5.21230E-03    -140.288E-03     279.500E-03    -139.954E-03     5.03243E-03
            2400     783.629E-06     5.03702E-03    -82.3650E+06    -217.644E+06    -80.9060E+06     641.309E+03    -140.038E-03     279.887E-03    -139.849E-03     2.73929E-03    -139.926E-03     279.024E-03    -139.819E-03     2.62320E-03
            2401     14.5456E-03     4.24811E-03    -6.47624E+06     75.1428E+06     81.6734E+06    -1.71328E+06    -212.306E-03     374.489E-03    -162.183E-03     75.7313E-03    -212.942E-03     375.132E-03    -161.874E-03     71.4568E-03
            2402     13.8187E-03     4.14570E-03    -13.0102E+06     70.5323E+06     78.1819E+06    -1.61722E+06    -210.959E-03     370.499E-03    -159.541E-03     65.0745E-03    -211.608E-03     371.127E-03    -159.233E-03     60.6494E-03
            2403     13.0862E-03     4.06479E-03    -17.1896E+06     60.8847E+06     72.3087E+06    -1.54987E+06    -203.531E-03     360.336E-03    -156.805E-03     48.3970E-03    -204.087E-03     360.841E-03    -156.507E-03     44.4606E-03
            2404     12.3474E-03     4.00206E-03    -22.3609E+06     44.6825E+06     63.1845E+06     708.378E+03    -193.683E-03     347.908E-03    -154.225E-03     36.6283E-03    -194.156E-03     348.279E-03    -153.942E-03     33.2917E-03
            2405     11.6026E-03     3.95648E-03    -21.4518E+06     39.3181E+06     60.3037E+06     626.994E+03    -183.812E-03     335.751E-03    -151.939E-03     30.1122E-03    -184.220E-03     336.050E-03    -151.664E-03     27.2441E-03
            2406     10.8507E-03     3.91990E-03    -22.4304E+06     39.7864E+06     57.8331E+06     36.3242E+03    -174.551E-03     324.539E-03    -149.987E-03     26.5034E-03    -174.921E-03     324.804E-03    -149.723E-03     24.1434E-03
            2407     10.0927E-03     3.88968E-03    -32.0169E+06     26.3423E+06     46.5052E+06    -371.242E+03    -167.248E-03     315.595E-03    -148.347E-03     24.7069E-03    -167.600E-03     315.793E-03    -148.106E-03     22.8122E-03
            2408     9.32799E-03     3.86784E-03    -36.8962E+06     4.41999E+06     34.3974E+06    -3.38198E+06    -161.557E-03     308.527E-03    -146.971E-03     23.9208E-03    -161.861E-03     308.618E-03    -146.752E-03     22.3679E-03
            2409     8.56056E-03     3.84928E-03    -40.9193E+06    -24.4390E+06     19.9790E+06    -7.34803E+06    -156.936E-03     302.747E-03    -145.810E-03     22.8916E-03    -157.183E-03     302.704E-03    -145.616E-03     21.5524E-03
            2410     7.78826E-03     3.83613E-03    -44.6872E+06    -49.5784E+06     6.56972E+06    -10.3870E+06    -153.527E-03     298.348E-03    -144.821E-03     21.3094E-03    -153.721E-03     298.189E-03    -144.652E-03     20.1605E-03
            2411     7.01576E-03     3.82316E-03    -45.6880E+06    -68.8017E+06    -3.72161E+06    -10.2233E+06    -150.654E-03     294.624E-03    -143.970E-03     19.0266E-03    -150.794E-03     294.369E-03    -143.823E-03     18.0441E-03
            2412     6.24030E-03     3.81466E-03    -49.4473E+06    -92.4151E+06    -16.5915E+06    -7.64572E+06    -147.988E-03     291.245E-03    -143.257E-03     16.9571E-03    -148.084E-03     290.886E-03    -143.135E-03     16.1451E-03
            2413     5.46311E-03     3.80664E-03    -53.0254E+06    -114.266E+06    -28.9177E+06    -5.65962E+06    -145.777E-03     288.475E-03    -142.698E-03     15.1151E-03    -145.836E-03     288.024E-03    -142.600E-03     14.4623E-03
            2414     4.68430E-03     3.80016E-03    -56.5384E+06    -134.867E+06    -40.0305E+06    -2.83529E+06    -144.233E-03     286.513E-03    -142.280E-03     13.0739E-03    -144.258E-03     285.975E-03    -142.203E-03     12.5627E-03
            2415     3.90439E-03     3.79489E-03    -60.5464E+06    -155.944E+06    -49.8007E+06    -487.506E+03    -143.221E-03     285.190E-03    -141.969E-03     11.1878E-03    -143.213E-03     284.559E-03    -141.904E-03     10.8080E-03
            2416     3.12454E-03     3.79062E-03    -65.2987E+06    -173.266E+06    -57.7014E+06     64.3837E+03    -142.479E-03     284.217E-03    -141.738E-03     8.97703E-03    -142.450E-03     283.509E-03    -141.680E-03     8.70366E-03
            2417     2.34332E-03     3.78648E-03    -68.2984E+06    -185.642E+06    -62.6690E+06     956.146E+03    -142.034E-03     283.597E-03    -141.564E-03     6.66120E-03    -141.978E-03     282.824E-03    -141.509E-03     6.47956E-03
            2418     1.56345E-03     3.78350E-03    -70.5960E+06    -199.242E+06    -65.3251E+06     1.33307E+06    -141.659E-03     283.105E-03    -141.445E-03     4.57680E-03    -141.588E-03     282.265E-03    -141.381E-03     4.45706E-03
            2419     780.510E-06     3.78191E-03    -74.6506E+06    -217.720E+06    -71.1784E+06     931.945E+03    -141.685E-03     282.870E-03    -141.186E-03     2.39403E-03    -141.543E-03     282.005E-03    -141.118E-03     2.33899E-03
            2420     14.5402E-03     2.86075E-03    -2.79245E+06     78.6898E+06     86.1670E+06     3.46939E+06    -224.201E-03     386.657E-03    -162.456E-03     78.7049E-03    -224.821E-03     387.297E-03    -162.135E-03     74.6102E-03
            2421     13.8169E-03     2.76724E-03    -11.3090E+06     68.6227E+06     77.1136E+06     2.22484E+06    -216.875E-03     376.223E-03    -159.348E-03     54.8157E-03    -217.441E-03     376.773E-03    -159.045E-03     50.8118E-03
            2422     13.0897E-03     2.70498E-03    -17.8875E+06     60.1563E+06     70.7071E+06    -615.547E+03    -203.158E-03     359.599E-03    -156.441E-03     36.8980E-03    -203.640E-03     360.029E-03    -156.149E-03     33.4691E-03
            2423     12.3519E-03     2.66280E-03    -23.8977E+06     51.8215E+06     62.7175E+06    -4.01920E+06    -190.500E-03     344.436E-03    -153.936E-03     27.6067E-03    -190.924E-03     344.779E-03    -153.663E-03     24.8208E-03
            2424     11.6042E-03     2.63190E-03    -30.9018E+06     39.3798E+06     48.6109E+06    -8.66739E+06    -179.526E-03     331.359E-03    -151.834E-03     24.2378E-03    -179.905E-03     331.630E-03    -151.603E-03     21.9335E-03
            2425     10.8489E-03     2.61101E-03    -31.8781E+06     32.6583E+06     41.6756E+06    -6.08268E+06    -171.127E-03     321.257E-03    -150.130E-03     23.9330E-03    -171.462E-03     321.475E-03    -149.923E-03     22.1977E-03
            2426     10.0857E-03     2.59380E-03    -28.1437E+06     27.3631E+06     34.2728E+06    -2.72438E+06    -164.574E-03     313.297E-03    -148.723E-03     22.2973E-03    -164.851E-03     313.472E-03    -148.550E-03     21.0025E-03
            2427     9.31995E-03     2.57802E-03    -31.1398E+06     8.70434E+06     13.3178E+06    -4.67983E+06    -159.425E-03     306.955E-03    -147.530E-03     20.3113E-03    -159.644E-03     307.056E-03    -147.431E-03     19.2322E-03
            2428     8.55002E-03     2.56822E-03    -35.2498E+06    -19.6502E+06    -5.23247E+06    -7.16871E+06    -156.044E-03     302.590E-03    -146.546E-03     18.9071E-03    -156.204E-03     302.571E-03    -146.493E-03     17.9995E-03
            2429     7.78015E-03     2.55672E-03    -39.4507E+06    -48.8257E+06    -16.4872E+06    -9.79437E+06    -153.404E-03     299.118E-03    -145.714E-03     17.0380E-03    -153.518E-03     298.967E-03    -145.668E-03     16.2069E-03
            2430     7.00699E-03     2.55048E-03    -46.0664E+06    -75.0303E+06    -26.1755E+06    -9.81317E+06    -150.799E-03     295.797E-03    -144.997E-03     14.9542E-03    -150.886E-03     295.530E-03    -144.953E-03     14.2137E-03
            2431     6.23205E-03     2.54506E-03    -49.0741E+06    -97.9908E+06    -32.7963E+06    -7.50668E+06    -148.625E-03     293.032E-03    -144.406E-03     13.4258E-03    -148.677E-03     292.656E-03    -144.357E-03     12.8186E-03
            2432     5.45568E-03     2.54074E-03    -52.0471E+06    -120.133E+06    -37.9331E+06    -4.33234E+06    -146.881E-03     290.814E-03    -143.933E-03     11.7982E-03    -146.903E-03     290.335E-03    -143.873E-03     11.3274E-03
            2433     4.67787E-03     2.53685E-03    -55.4596E+06    -140.893E+06    -43.2666E+06    -1.14401E+06    -145.511E-03     289.070E-03    -143.559E-03     10.0760E-03    -145.510E-03     288.498E-03    -143.491E-03     9.72904E-03
            2434     3.89937E-03     2.53278E-03    -58.1312E+06    -158.002E+06    -48.7850E+06     1.25169E+06    -144.613E-03     287.867E-03    -143.254E-03     8.26977E-03    -144.587E-03     287.215E-03    -143.185E-03     8.02781E-03
            2435     3.12002E-03     2.52941E-03    -60.3434E+06    -173.254E+06    -53.9712E+06     2.49676E+06    -143.990E-03     286.978E-03    -142.988E-03     6.59395E-03    -143.937E-03     286.253E-03    -142.919E-03     6.43860E-03
            2436     2.34117E-03     2.52653E-03    -62.5280E+06    -185.826E+06    -57.5633E+06     2.27784E+06    -143.395E-03     286.156E-03    -142.760E-03     4.91770E-03    -143.319E-03     285.367E-03    -142.688E-03     4.80899E-03
            2437     1.55994E-03     2.52453E-03    -65.4222E+06    -196.557E+06    -57.9396E+06     2.00539E+06    -142.865E-03     285.474E-03    -142.608E-03     3.07362E-03    -142.782E-03     284.632E-03    -142.518E-03     2.98072E-03
            2438     780.929E-06     2.52345E-03    -71.7476E+06    -214.849E+06    -65.6056E+06     1.67142E+06    -142.454E-03     285.166E-03    -142.712E-03     1.98201E-03    -142.282E-03     284.299E-03    -142.625E-03     1.97015E-03
            2439     14.5334E-03     1.44026E-03    -4.14952E+06     76.2168E+06     87.6737E+06     2.86294E+06    -248.177E-03     411.268E-03    -163.091E-03     65.5120E-03    -248.699E-03     411.801E-03    -162.757E-03     61.9027E-03
            2440     13.8265E-03     1.38462E-03    -8.07394E+06     71.3178E+06     86.5184E+06     2.99274E+06    -221.444E-03     380.739E-03    -159.296E-03     31.5303E-03    -221.850E-03     381.127E-03    -158.955E-03     28.7267E-03
            2441     13.0942E-03     1.35026E-03    -12.5281E+06     66.2067E+06     79.8638E+06     1.94778E+06    -200.557E-03     356.865E-03    -156.308E-03     21.4609E-03    -200.906E-03     357.177E-03    -155.986E-03     19.4595E-03
            2442     12.3516E-03     1.32565E-03    -17.0681E+06     59.0411E+06     62.5418E+06    -1.48858E+06    -186.302E-03     340.244E-03    -153.942E-03     16.9953E-03    -186.611E-03     340.523E-03    -153.691E-03     15.4687E-03
            2443     11.5989E-03     1.31848E-03    -25.1758E+06     47.4693E+06     33.5579E+06    -6.33733E+06    -176.414E-03     328.416E-03    -152.003E-03     15.1846E-03    -176.688E-03     328.674E-03    -151.867E-03     13.9321E-03
            2444     10.8386E-03     1.30491E-03    -32.0399E+06     29.9006E+06     7.47131E+06    -10.7329E+06    -169.474E-03     319.885E-03    -150.411E-03     14.3550E-03    -169.704E-03     320.087E-03    -150.371E-03     13.3929E-03
            2445     10.0792E-03     1.29610E-03    -33.9463E+06     18.6694E+06    -5.34843E+06    -9.15987E+06    -163.982E-03     313.093E-03    -149.111E-03     12.1267E-03    -164.179E-03     313.252E-03    -149.116E-03     11.3331E-03
            2446     9.31278E-03     1.29137E-03    -35.5148E+06     5.69578E+06    -17.9761E+06    -3.91231E+06    -159.458E-03     307.476E-03    -148.018E-03     10.7737E-03    -159.623E-03     307.587E-03    -148.065E-03     10.1821E-03
            2447     8.54453E-03     1.28323E-03    -39.3820E+06    -16.4039E+06    -29.8165E+06    -1.78562E+06    -155.893E-03     303.014E-03    -147.120E-03     9.96612E-03    -156.023E-03     303.032E-03    -147.189E-03     9.54232E-03
            2448     7.77292E-03     1.27809E-03    -43.9686E+06    -46.9673E+06    -36.8965E+06    -3.68451E+06    -152.932E-03     299.343E-03    -146.411E-03     9.01876E-03    -153.023E-03     299.219E-03    -146.464E-03     8.60216E-03
            2449     6.99976E-03     1.27561E-03    -46.5560E+06    -77.9276E+06    -40.9297E+06    -5.22517E+06    -150.770E-03     296.609E-03    -145.839E-03     8.37816E-03    -150.817E-03     296.333E-03    -145.863E-03     7.98538E-03
            2450     6.22530E-03     1.27320E-03    -50.8524E+06    -103.438E+06    -44.0115E+06    -4.44042E+06    -149.280E-03     294.626E-03    -145.346E-03     7.78193E-03    -149.308E-03     294.234E-03    -145.342E-03     7.46259E-03
            2451     5.44961E-03     1.27176E-03    -54.1939E+06    -125.687E+06    -46.3950E+06    -2.19974E+06    -148.072E-03     292.966E-03    -144.894E-03     6.77699E-03    -148.081E-03     292.471E-03    -144.866E-03     6.53073E-03
            2452     4.67328E-03     1.26964E-03    -55.8650E+06    -144.571E+06    -47.9130E+06    -150.056E+03    -146.999E-03     291.474E-03    -144.475E-03     5.66452E-03    -146.982E-03     290.885E-03    -144.424E-03     5.48983E-03
            2453     3.89590E-03     1.26769E-03    -57.0582E+06    -160.039E+06    -49.4291E+06     977.879E+03    -145.946E-03     290.037E-03    -144.091E-03     4.40685E-03    -145.906E-03     289.370E-03    -144.023E-03     4.28970E-03
            2454     3.11794E-03     1.26540E-03    -57.9317E+06    -173.400E+06    -51.0511E+06     1.97395E+06    -144.998E-03     288.757E-03    -143.759E-03     3.24382E-03    -144.932E-03     288.021E-03    -143.679E-03     3.16733E-03
            2455     2.33856E-03     1.26376E-03    -58.6073E+06    -183.895E+06    -52.2303E+06     2.48618E+06    -144.241E-03     287.731E-03    -143.491E-03     2.21228E-03    -144.138E-03     286.922E-03    -143.400E-03     2.16564E-03
            2456     1.56053E-03     1.26284E-03    -61.5987E+06    -195.092E+06    -53.1872E+06     1.65456E+06    -143.723E-03     286.995E-03    -143.272E-03     1.47351E-03    -143.611E-03     286.133E-03    -143.166E-03     1.44097E-03
            2457     779.843E-06     1.26204E-03    -65.8664E+06    -210.667E+06    -60.2139E+06     1.14309E+06    -143.145E-03     286.416E-03    -143.271E-03     738.401E-06    -142.939E-03     285.537E-03    -143.172E-03     737.221E-06


