********************************************************************************
Field Output Report, written Wed May 29 00:02:24 2024

Source 1
---------

   ODB: G:/Abaqus_calc_2019/1740/Vel_5/odb/zeides_2a_16_red_150_cal_75_vel_5_fric_025.odb
   Step: Step-1
   Frame: Increment  13477101: Step Time =    1.772

Loc 1 : Nodal values from source 1

Output sorted by column "Nodal Label".

Field Output reported at nodes for region: DIE_2A_16_D0_36-1.Region_1
   Computation algorithm: EXTRAPOLATE_COMPUTE_AVERAGE
   Averaged at nodes
   Averaging regions: ODB_REGIONS

      Node Label     COORD.COOR1     COORD.COOR2
                          @Loc 1          @Loc 1
-------------------------------------------------
               1     20.1975E-03     111.761E-03


Field Output reported at nodes for region: DIE_2A_16_D0_36-1.Region_2
   Computation algorithm: EXTRAPOLATE_COMPUTE_AVERAGE
   Averaged at nodes
   Averaging regions: ODB_REGIONS

      Node Label     COORD.COOR1     COORD.COOR2
                          @Loc 1          @Loc 1
-------------------------------------------------
               1     20.1975E-03     111.761E-03


Field Output reported at nodes for part: WIRE-1
   Computation algorithm: EXTRAPOLATE_COMPUTE_AVERAGE
   Averaged at nodes
   Averaging regions: ODB_REGIONS

      Node Label     COORD.COOR1     COORD.COOR2           S.S11           S.S22           S.S33           S.S12         PE.PE11         PE.PE22         PE.PE33         PE.PE12         LE.LE11         LE.LE22         LE.LE33         LE.LE12
                          @Loc 1          @Loc 1          @Loc 1          @Loc 1          @Loc 1          @Loc 1          @Loc 1          @Loc 1          @Loc 1          @Loc 1          @Loc 1          @Loc 1          @Loc 1          @Loc 1
-------------------------------------------------------------------------------------------------------------------------------------------------------------------------------------------------------------------------------------------------
               1    -88.0309E-09     56.3677E-03    -21.5110E+06    -69.3057E+06    -21.3479E+06    -33.9463E+03    -15.4299E-03     30.8306E-03    -15.4007E-03     2.17739E-03    -15.4053E-03     30.5471E-03    -15.3757E-03     2.17665E-03
               2     17.7271E-03     57.1426E-03    -653.801E+03     151.462E+06     72.7119E+06    -885.092E+03    -15.2251E-03     30.6782E-03    -15.4532E-03     64.3102E-03    -16.0298E-03     31.8075E-03    -15.3083E-03     65.0018E-03
               3     17.5495E-03     114.025E-03     17.2038E+06    -15.4390E+06     22.4453E+06     8.66105E+06     10.7993E-03     10.3023E-03    -21.1016E-03     1.39891E-03     10.8525E-03     10.1449E-03    -20.9919E-03     1.51051E-03
               4    -260.978E-09     112.980E-03     17.1159E+06     1.24830E+06     18.2625E+06    -124.973E+03    -17.6959E-03     35.8540E-03    -18.1581E-03    -439.083E-06    -17.6385E-03     35.8098E-03    -18.0934E-03    -439.186E-06
               5     64.8998E-09     76.3278E-18    -16.1564E+06    -58.7613E+06    -17.3352E+06    -1.18251E+06    -13.4189E-03     26.8444E-03    -13.4255E-03     108.519E-06    -13.3874E-03     26.6004E-03    -13.4036E-03     94.1791E-06
               6     17.6464E-03     76.3278E-18     9.24073E+06     100.882E+06     65.5874E+06     1.64085E+06    -31.1403E-03     49.6898E-03    -18.5495E-03     44.1882E-03    -31.3831E-03     50.1329E-03    -18.3813E-03     44.1111E-03
               7     886.274E-06     56.3695E-03    -21.2361E+06    -67.5898E+06    -20.5346E+06     36.2860E+03    -15.4305E-03     30.8420E-03    -15.4115E-03     3.57433E-03    -15.4085E-03     30.5651E-03    -15.3854E-03     3.57431E-03
               8     1.77250E-03     56.3743E-03    -20.3634E+06    -65.1401E+06    -17.9337E+06    -29.8322E+03    -15.4246E-03     30.8538E-03    -15.4291E-03     6.62906E-03    -15.4060E-03     30.5836E-03    -15.3948E-03     6.62776E-03
               9     2.65876E-03     56.3819E-03    -18.8910E+06    -62.7642E+06    -14.0307E+06    -41.2047E+03    -15.4193E-03     30.8595E-03    -15.4402E-03     9.97134E-03    -15.4025E-03     30.5936E-03    -15.3920E-03     9.96940E-03
              10     3.54503E-03     56.3928E-03    -17.0958E+06    -61.4791E+06    -9.43188E+06     72.0449E+03    -15.4320E-03     30.8857E-03    -15.4537E-03     13.3903E-03    -15.4150E-03     30.6171E-03    -15.3870E-03     13.3893E-03
              11     4.43132E-03     56.4068E-03    -15.0877E+06    -59.4437E+06    -5.22431E+06     42.0471E+03    -15.4514E-03     30.9156E-03    -15.4642E-03     16.9541E-03    -15.4336E-03     30.6483E-03    -15.3822E-03     16.9521E-03
              12     5.31757E-03     56.4243E-03    -13.1038E+06    -57.0516E+06    -1.81953E+06     54.0139E+03    -15.4778E-03     30.9479E-03    -15.4700E-03     20.6699E-03    -15.4589E-03     30.6851E-03    -15.3774E-03     20.6672E-03
              13     6.20390E-03     56.4452E-03    -11.2789E+06    -55.3960E+06     968.422E+03     68.3423E+03    -15.5193E-03     30.9936E-03    -15.4742E-03     24.5582E-03    -15.4981E-03     30.7329E-03    -15.3727E-03     24.5547E-03
              14     7.09017E-03     56.4700E-03    -9.49992E+06    -53.5999E+06     3.33187E+06     156.796E+03    -15.5732E-03     31.0500E-03    -15.4767E-03     28.6034E-03    -15.5499E-03     30.7929E-03    -15.3686E-03     28.5999E-03
              15     7.97653E-03     56.4983E-03    -7.85987E+06    -52.3014E+06     5.22935E+06     106.608E+03    -15.6368E-03     31.1151E-03    -15.4783E-03     32.7523E-03    -15.6110E-03     30.8605E-03    -15.3649E-03     32.7465E-03
              16     8.86276E-03     56.5308E-03    -6.39855E+06    -49.0937E+06     6.22387E+06     116.267E+03    -15.7044E-03     31.1773E-03    -15.4729E-03     36.9950E-03    -15.6790E-03     30.9369E-03    -15.3613E-03     36.9870E-03
              17     9.74918E-03     56.5671E-03    -5.28681E+06    -47.5903E+06     6.63132E+06     131.462E+03    -15.7917E-03     31.2596E-03    -15.4679E-03     41.2326E-03    -15.7662E-03     31.0271E-03    -15.3581E-03     41.2217E-03
              18     10.6354E-03     56.6074E-03    -4.50384E+06    -43.8870E+06     5.49976E+06     62.4789E+03    -15.8689E-03     31.3216E-03    -15.4527E-03     45.4064E-03    -15.8472E-03     31.1121E-03    -15.3550E-03     45.3906E-03
              19     11.5219E-03     56.6514E-03    -3.73454E+06    -36.0647E+06     6.15190E+06     140.212E+03    -15.9429E-03     31.3827E-03    -15.4398E-03     49.6302E-03    -15.9359E-03     31.2166E-03    -15.3513E-03     49.6105E-03
              20     12.4080E-03     56.6995E-03    -3.26696E+06    -34.7232E+06     3.18189E+06     17.3644E+03    -16.0733E-03     31.4916E-03    -15.4183E-03     55.0277E-03    -16.0730E-03     31.3472E-03    -15.3473E-03     55.0000E-03
              21     13.2946E-03     56.7537E-03    -3.07796E+06    -24.9298E+06    -1.26916E+06    -55.2280E+03    -16.2080E-03     31.5856E-03    -15.3776E-03     60.5942E-03    -16.2340E-03     31.5158E-03    -15.3434E-03     60.5586E-03
              22     14.1805E-03     56.8120E-03    -3.10164E+06     2.13557E+06     2.37680E+06    -114.854E+03    -16.2525E-03     31.6040E-03    -15.3515E-03     65.8243E-03    -16.3534E-03     31.6946E-03    -15.3382E-03     65.7853E-03
              23     15.0673E-03     56.8761E-03    -3.46399E+06     26.5938E+06    -1.68768E+06     240.785E+03    -16.6597E-03     31.9477E-03    -15.2879E-03     81.2630E-03    -16.9021E-03     32.2771E-03    -15.3299E-03     81.2454E-03
              24     15.9539E-03     56.9629E-03    -4.27066E+06     61.8227E+06    -18.2098E+06     510.313E+03    -17.7088E-03     32.8561E-03    -15.1474E-03     111.578E-03    -18.5281E-03     33.9325E-03    -15.3219E-03     111.796E-03
              25     16.8404E-03     57.0846E-03    -2.77010E+06     119.548E+06     22.6667E+06    -284.235E+03    -16.7835E-03     32.0411E-03    -15.2576E-03     96.8371E-03    -17.8361E-03     33.4425E-03    -15.3136E-03     97.3990E-03
              26     17.7263E-03     58.1228E-03    -2.74972E+06     149.431E+06     73.0518E+06    -95.2002E+03    -15.4441E-03     30.9108E-03    -15.4667E-03     64.3820E-03    -16.2554E-03     32.0310E-03    -15.3142E-03     65.0808E-03
              27     17.7263E-03     59.1008E-03    -2.71292E+06     149.989E+06     70.6630E+06     1.46574E+06    -14.9735E-03     30.4411E-03    -15.4676E-03     65.9459E-03    -15.7960E-03     31.5815E-03    -15.3278E-03     66.6800E-03
              28     17.7271E-03     60.0775E-03    -308.747E+03     152.180E+06     72.2794E+06    -870.075E+03    -15.0268E-03     30.4851E-03    -15.4583E-03     65.7597E-03    -15.8422E-03     31.6301E-03    -15.3171E-03     66.4629E-03
              29     17.7262E-03     61.0558E-03    -1.19755E+06     150.976E+06     73.1289E+06     649.038E+03    -15.2053E-03     30.6698E-03    -15.4645E-03     65.1794E-03    -16.0152E-03     31.7993E-03    -15.3161E-03     65.8938E-03
              30     17.7269E-03     62.0334E-03    -1.96679E+06     149.932E+06     71.1077E+06     432.572E+03    -14.5504E-03     30.0264E-03    -15.4760E-03     65.0285E-03    -15.3642E-03     31.1593E-03    -15.3350E-03     65.7473E-03
              31     17.7262E-03     63.0098E-03    -3.45424E+06     149.480E+06     72.9562E+06    -2.30838E+06    -14.7927E-03     30.2761E-03    -15.4834E-03     63.8999E-03    -15.6190E-03     31.4092E-03    -15.3303E-03     64.5857E-03
              32     17.7267E-03     63.9848E-03    -1.33917E+06     151.742E+06     72.2506E+06     462.970E+03    -15.9558E-03     31.3864E-03    -15.4305E-03     64.4419E-03    -16.7746E-03     32.5295E-03    -15.2874E-03     65.1530E-03
              33     17.7273E-03     64.9712E-03     1.27746E+06     154.037E+06     72.7040E+06     459.407E+03    -15.1539E-03     30.5984E-03    -15.4446E-03     69.2753E-03    -15.9853E-03     31.7704E-03    -15.3062E-03     70.0071E-03
              34     17.7260E-03     65.9494E-03    -2.68913E+06     151.245E+06     72.1348E+06    -49.1419E+03    -14.1243E-03     29.6244E-03    -15.5001E-03     72.9576E-03    -14.9924E-03     30.8108E-03    -15.3548E-03     73.7083E-03
              35     17.7267E-03     66.9185E-03    -3.76447E+06     150.550E+06     70.8338E+06     762.306E+03    -15.5677E-03     31.0293E-03    -15.4616E-03     68.2165E-03    -16.4109E-03     32.1882E-03    -15.3202E-03     68.9308E-03
              36     17.7262E-03     67.9002E-03    -2.07563E+06     151.898E+06     73.5743E+06     643.896E+03    -16.0198E-03     31.4763E-03    -15.4565E-03     63.9108E-03    -16.8310E-03     32.6060E-03    -15.3059E-03     64.5964E-03
              37     17.7265E-03     68.8775E-03    -2.38680E+06     151.735E+06     71.9846E+06    -139.621E+03    -15.1249E-03     30.5890E-03    -15.4641E-03     64.9857E-03    -15.9434E-03     31.7289E-03    -15.3207E-03     65.6904E-03
              38     17.7270E-03     69.8538E-03    -2.77793E+06     152.172E+06     73.9499E+06    -301.698E+03    -15.5939E-03     31.0574E-03    -15.4635E-03     64.9381E-03    -16.4178E-03     32.1972E-03    -15.3104E-03     65.6398E-03
              39     17.7256E-03     70.8363E-03    -3.58523E+06     151.120E+06     72.1235E+06    -526.405E+03    -15.1754E-03     30.6582E-03    -15.4827E-03     65.2967E-03    -16.0010E-03     31.7984E-03    -15.3360E-03     66.0009E-03
              40     17.7269E-03     71.8095E-03    -291.579E+03     147.565E+06     73.4064E+06    -3.06128E+06    -13.9742E-03     29.4804E-03    -15.5063E-03     63.7463E-03    -14.7754E-03     30.5917E-03    -15.3528E-03     64.4342E-03
              41     17.7266E-03     72.7839E-03     1.26505E+06     148.689E+06     75.7961E+06     1.33767E+06    -15.2341E-03     30.7040E-03    -15.4699E-03     65.3646E-03    -16.0435E-03     31.8260E-03    -15.3083E-03     66.0990E-03
              42     17.7268E-03     73.7729E-03    -2.72338E+06     152.926E+06     70.4949E+06     2.88644E+06    -16.0815E-03     31.5112E-03    -15.4297E-03     71.2138E-03    -16.9431E-03     32.7017E-03    -15.2951E-03     71.9643E-03
              43     17.7263E-03     74.7477E-03    -3.58285E+06     153.332E+06     72.9952E+06    -35.3014E+03    -14.9511E-03     30.4364E-03    -15.4853E-03     70.4169E-03    -15.8169E-03     31.6222E-03    -15.3375E-03     71.1470E-03
              44     17.7261E-03     75.7192E-03    -2.32855E+06     153.978E+06     72.0960E+06     1.28271E+06    -14.6349E-03     30.1225E-03    -15.4876E-03     65.0505E-03    -15.4577E-03     31.2746E-03    -15.3471E-03     65.7860E-03
              45     17.7267E-03     76.6986E-03    -2.73377E+06     154.837E+06     71.9059E+06    -204.571E+03    -15.1168E-03     30.5829E-03    -15.4660E-03     63.3993E-03    -15.9303E-03     31.7278E-03    -15.3271E-03     64.0982E-03
              46     17.7262E-03     77.6759E-03    -858.609E+03     156.425E+06     73.6341E+06    -276.152E+03    -15.2183E-03     30.6777E-03    -15.4595E-03     64.1684E-03    -16.0340E-03     31.8322E-03    -15.3169E-03     64.8684E-03
              47     17.7272E-03     78.6550E-03     88.9661E+03     158.074E+06     75.2968E+06    -398.156E+03    -15.1527E-03     30.6181E-03    -15.4654E-03     65.7239E-03    -15.9761E-03     31.7846E-03    -15.3182E-03     66.4282E-03
              48     17.7258E-03     79.6342E-03    -1.60274E+06     156.960E+06     73.4706E+06     871.997E+03    -15.0208E-03     30.4942E-03    -15.4735E-03     67.4450E-03    -15.8573E-03     31.6692E-03    -15.3314E-03     68.1748E-03
              49     17.7270E-03     80.6110E-03    -1.92195E+06     156.396E+06     71.8212E+06     284.773E+03    -14.7836E-03     30.2593E-03    -15.4757E-03     67.4857E-03    -15.6214E-03     31.4372E-03    -15.3406E-03     68.2117E-03
              50     17.7257E-03     81.5877E-03    -2.38961E+06     155.712E+06     72.5162E+06    -1.12642E+06    -14.9629E-03     30.4327E-03    -15.4698E-03     64.9355E-03    -15.7919E-03     31.5958E-03    -15.3296E-03     65.6351E-03
              51     17.7274E-03     82.5622E-03    -2.45789E+06     155.367E+06     70.5282E+06    -387.958E+03    -16.0921E-03     31.5152E-03    -15.4231E-03     65.1336E-03    -16.9201E-03     32.6816E-03    -15.2922E-03     65.8319E-03
              52     17.7260E-03     83.5488E-03    -2.29933E+06     155.000E+06     70.4341E+06     678.406E+03    -15.9015E-03     31.3330E-03    -15.4315E-03     68.6104E-03    -16.7476E-03     32.5171E-03    -15.3008E-03     69.3332E-03
              53     17.7270E-03     84.5257E-03    -847.086E+03     157.568E+06     69.3576E+06     1.13129E+06    -13.9159E-03     29.3814E-03    -15.4655E-03     70.2190E-03    -14.7673E-03     30.5883E-03    -15.3460E-03     70.9862E-03
              54     17.7268E-03     85.4960E-03    -1.12539E+06     158.777E+06     71.2506E+06    -534.618E+03    -14.5594E-03     30.0129E-03    -15.4536E-03     67.2003E-03    -15.3921E-03     31.1989E-03    -15.3259E-03     67.9219E-03
              55     17.7263E-03     86.4775E-03    -2.75646E+06     157.253E+06     70.5234E+06     718.707E+03    -15.4738E-03     30.9084E-03    -15.4346E-03     64.7577E-03    -16.2932E-03     32.0718E-03    -15.3060E-03     65.4590E-03
              56     17.7272E-03     87.4531E-03    -913.704E+03     158.728E+06     67.8113E+06     115.839E+03    -15.2703E-03     30.6793E-03    -15.4090E-03     65.7928E-03    -16.0899E-03     31.8625E-03    -15.2988E-03     66.4992E-03
              57     17.7268E-03     88.4323E-03    -2.35353E+06     157.510E+06     68.7217E+06    -215.764E+03    -15.5230E-03     30.9334E-03    -15.4104E-03     64.4772E-03    -16.3378E-03     32.0997E-03    -15.2917E-03     65.1697E-03
              58     17.7266E-03     89.4099E-03    -2.00349E+06     157.138E+06     67.0145E+06     695.616E+03    -15.0271E-03     30.4365E-03    -15.4094E-03     64.2612E-03    -15.8386E-03     31.6044E-03    -15.2993E-03     64.9744E-03
              59     17.7278E-03     90.3857E-03    -1.94898E+06     156.757E+06     65.1613E+06    -931.400E+03    -15.2382E-03     30.6052E-03    -15.3670E-03     63.8324E-03    -16.0456E-03     31.7732E-03    -15.2657E-03     64.5247E-03
              60     17.7276E-03     91.3649E-03    -2.26601E+06     156.338E+06     69.2387E+06    -1.02181E+06    -16.0380E-03     31.3951E-03    -15.3571E-03     63.8478E-03    -16.8507E-03     32.5540E-03    -15.2343E-03     64.5272E-03
              61     17.7275E-03     92.3458E-03    -2.80365E+06     154.743E+06     65.0780E+06    -10.5756E+03    -15.1511E-03     30.5054E-03    -15.3542E-03     64.3111E-03    -15.9660E-03     31.6709E-03    -15.2492E-03     65.0192E-03
              62     17.7284E-03     93.3194E-03    -1.54543E+06     153.269E+06     59.6644E+06    -229.925E+03    -15.0441E-03     30.3456E-03    -15.3014E-03     65.8804E-03    -15.8520E-03     31.5191E-03    -15.2231E-03     66.5963E-03
              63     17.7288E-03     94.3009E-03    -194.601E+03     153.602E+06     62.1505E+06    -1.22167E+06    -16.3327E-03     31.5877E-03    -15.2550E-03     66.5370E-03    -17.1390E-03     32.7585E-03    -15.1667E-03     67.2151E-03
              64     17.7288E-03     95.2801E-03    -1.91769E+06     149.928E+06     61.7007E+06    -1.06807E+06    -16.1618E-03     31.4141E-03    -15.2523E-03     65.7831E-03    -16.9671E-03     32.5660E-03    -15.1584E-03     66.4624E-03
              65     17.7292E-03     96.2547E-03    -3.05736E+06     147.288E+06     59.0718E+06    -354.470E+03    -16.5741E-03     31.7860E-03    -15.2119E-03     64.3505E-03    -17.3711E-03     32.9238E-03    -15.1257E-03     65.0302E-03
              66     17.7298E-03     97.2358E-03    -133.341E+03     145.889E+06     57.1865E+06    -754.239E+03    -17.7060E-03     32.8444E-03    -15.1383E-03     62.7523E-03    -18.4738E-03     33.9637E-03    -15.0638E-03     63.3950E-03
              67     17.7304E-03     98.2155E-03    -2.22290E+06     142.829E+06     54.5953E+06    -2.02959E+06    -18.3441E-03     33.4342E-03    -15.0901E-03     62.5785E-03    -19.1144E-03     34.5454E-03    -15.0210E-03     63.1956E-03
              68     17.7304E-03     99.1963E-03    -436.680E+03     138.623E+06     53.2019E+06    -2.16974E+06    -19.2804E-03     34.3213E-03    -15.0409E-03     62.3456E-03    -20.0364E-03     35.4136E-03    -14.9753E-03     62.9462E-03
              69     17.7314E-03     100.178E-03     739.828E+03     133.418E+06     56.7361E+06    -1.20922E+06    -20.4755E-03     35.4941E-03    -15.0186E-03     62.9043E-03    -21.2306E-03     36.5610E-03    -14.9294E-03     63.4950E-03
              70     17.7306E-03     101.163E-03    -5.49218E+06     129.021E+06     52.3262E+06    -3.46366E+06    -21.5095E-03     36.4841E-03    -14.9745E-03     62.0128E-03    -22.2914E-03     37.5526E-03    -14.8920E-03     62.5511E-03
              71     17.7319E-03     102.143E-03    -643.582E+03     124.460E+06      44.912E+06    -3.63036E+06    -23.6929E-03     38.5527E-03    -14.8598E-03     62.8544E-03    -24.4497E-03     39.6190E-03    -14.8147E-03     63.3593E-03
              72     17.7317E-03     103.136E-03     2.65616E+06     119.387E+06     45.9869E+06    -955.753E+03    -26.4751E-03     41.2567E-03    -14.7817E-03     68.4248E-03    -27.2415E-03     42.3236E-03    -14.7287E-03     68.9184E-03
              73     17.7322E-03     104.130E-03    -2.99950E+06     116.749E+06     53.0394E+06    -867.185E+03    -28.0524E-03     42.8378E-03    -14.7854E-03     73.2642E-03    -28.8947E-03     43.9301E-03    -14.6852E-03     73.7329E-03
              74     17.7318E-03     105.114E-03    -720.925E+03     115.756E+06     66.2948E+06    -388.632E+03    -30.7514E-03     45.5199E-03    -14.7685E-03     73.3785E-03    -31.6043E-03     46.5890E-03    -14.6038E-03     73.7972E-03
              75     17.7329E-03     106.113E-03    -1.05156E+06     112.167E+06     74.1135E+06    -2.96982E+06    -35.1379E-03     49.8185E-03    -14.6806E-03     77.1899E-03    -36.0257E-03     50.8867E-03    -14.4712E-03     77.4795E-03
              76     17.7328E-03     107.116E-03      489.88E+03     106.154E+06     79.6911E+06    -4.02400E+06    -39.5709E-03     54.1522E-03    -14.5813E-03     87.0740E-03    -40.5332E-03     55.2632E-03    -14.3375E-03     87.2630E-03
              77     17.7341E-03     108.124E-03    -8.15095E+06     95.3817E+06     73.1123E+06    -3.15897E+06    -42.6657E-03     57.1350E-03    -14.4693E-03     99.8363E-03    -43.7389E-03     58.3077E-03    -14.2303E-03     99.9584E-03
              78     17.7346E-03     109.136E-03    -600.715E+03     88.9773E+06     66.7809E+06    -4.01043E+06    -43.3183E-03     57.6993E-03    -14.3810E-03     116.063E-03    -44.4448E-03     58.9478E-03    -14.1753E-03     116.111E-03
              79     17.7366E-03     110.146E-03    -8.89448E+06     68.8844E+06     27.1304E+06    -15.1571E+06    -41.1816E-03     55.4159E-03    -14.2344E-03     133.204E-03    -42.3242E-03     56.6945E-03    -14.1857E-03     133.054E-03
              80     17.7371E-03     111.151E-03     4.36445E+06     26.6860E+06      89.393E+03    -19.3086E+06    -32.4213E-03     46.7406E-03    -14.3193E-03     145.517E-03    -33.2252E-03     47.6558E-03    -14.3638E-03     145.316E-03
              81     17.7391E-03     112.135E-03     7.99477E+06    -668.799E+03     2.78538E+06    -7.79513E+06    -7.53384E-03     22.7135E-03    -15.1796E-03     132.451E-03    -7.83161E-03     23.0354E-03    -15.1763E-03     132.411E-03
              82     17.7212E-03     113.066E-03    -9.70996E+06    -11.3324E+06     5.02007E+06     2.24228E+06     10.6213E-03     7.84732E-03    -18.4686E-03     58.5873E-03     10.5400E-03     7.82229E-03    -18.4130E-03     58.6382E-03
              83     16.6798E-03     113.877E-03    -2.88639E+06     15.6378E+06     38.9304E+06     4.01035E+06     7.93650E-03     13.7646E-03    -21.7011E-03     12.9519E-03     7.83375E-03     13.7816E-03    -21.5250E-03     13.0035E-03
              84     15.7759E-03     113.762E-03    -18.1785E+06      62.738E+03     43.1508E+06    -3.36478E+06    -6.17019E-03     28.7056E-03    -22.5354E-03     21.4573E-03    -6.32568E-03     28.6697E-03    -22.2934E-03     21.4098E-03
              85     14.9071E-03     113.631E-03    -9.85844E+06    -5.70247E+06     41.2271E+06    -6.82037E+06    -16.9981E-03     39.7218E-03    -22.7237E-03     13.7915E-03    -17.1063E-03     39.6428E-03    -22.4950E-03     13.6965E-03
              86     14.0363E-03     113.526E-03    -5.18471E+06     2.26723E+06     43.2275E+06    -6.32513E+06    -18.4458E-03     41.1009E-03    -22.6551E-03     6.94335E-03    -18.5426E-03     41.0535E-03    -22.4347E-03     6.85529E-03
              87     13.1620E-03     113.442E-03    -1.74267E+06    -5.11479E+06     42.7542E+06    -4.25347E+06    -22.8407E-03     45.3295E-03    -22.4887E-03     2.99152E-03    -22.9072E-03     45.2422E-03    -22.2650E-03     2.92861E-03
              88     12.2924E-03     113.365E-03     2.64365E+06     1.13337E+06     44.1535E+06    -3.92614E+06    -26.1849E-03     48.2644E-03    -22.0795E-03     572.501E-06    -26.2403E-03     48.1998E-03    -21.8642E-03     512.485E-06
              89     11.4235E-03     113.300E-03     6.32356E+06    -3.09478E+06     41.7761E+06    -3.47202E+06    -26.7927E-03     48.3107E-03    -21.5180E-03    -340.658E-06    -26.8197E-03     48.2235E-03    -21.3138E-03    -394.367E-06
              90     10.5531E-03     113.243E-03     9.04415E+06     595.035E+03     43.0733E+06    -2.65205E+06    -25.9288E-03     46.8701E-03    -20.9414E-03    -554.459E-06    -25.9488E-03     46.7959E-03    -20.7400E-03    -596.253E-06
              91     9.68041E-03     113.195E-03     10.7569E+06    -1.38914E+06     42.0030E+06    -2.27656E+06    -24.5654E-03     44.9716E-03    -20.4062E-03    -535.793E-06    -24.5720E-03     44.8868E-03    -20.2098E-03    -571.189E-06
              92     8.80574E-03     113.153E-03     11.7991E+06     470.482E+03     39.5668E+06    -1.87199E+06    -23.2564E-03     43.1809E-03    -19.9245E-03    -293.133E-06    -23.2567E-03     43.1077E-03    -19.7445E-03    -321.968E-06
              93     7.92919E-03     113.118E-03     12.5933E+06    -764.078E+03     36.3021E+06    -1.75190E+06    -22.0930E-03     41.6007E-03    -19.5076E-03    -38.6769E-06    -22.0825E-03     41.5251E-03    -19.3433E-03    -64.9831E-06
              94     7.05106E-03     113.088E-03     13.4959E+06     409.375E+03     34.1719E+06    -1.74303E+06    -21.0841E-03     40.2371E-03    -19.1530E-03     73.5145E-06    -21.0676E-03     40.1692E-03    -19.0023E-03     48.1162E-06
              95     6.17193E-03     113.062E-03     14.4375E+06    -678.478E+03     30.3325E+06    -1.66659E+06    -20.2294E-03     39.0797E-03    -18.8503E-03     224.062E-06    -20.2009E-03     39.0107E-03    -18.7186E-03     200.207E-06
              96     5.29173E-03     113.040E-03      15.308E+06     183.572E+03     27.6917E+06    -1.46298E+06    -19.5335E-03     38.1387E-03    -18.6052E-03     299.780E-06    -19.4980E-03     38.0767E-03    -18.4892E-03     279.000E-06
              97     4.41072E-03     113.022E-03     16.1842E+06    -407.903E+03     25.0084E+06    -1.36323E+06    -19.0219E-03     37.4302E-03    -18.4083E-03     294.284E-06    -18.9772E-03     37.3679E-03    -18.3062E-03     275.200E-06
              98     3.52906E-03     113.008E-03     16.9929E+06    -114.892E+03     22.4221E+06    -1.08580E+06    -18.6075E-03     36.8599E-03    -18.2524E-03     201.213E-06    -18.5554E-03     36.8016E-03    -18.1648E-03     186.093E-06
              99     2.64713E-03     112.997E-03     17.7350E+06    -458.779E+03     20.4162E+06    -796.769E+03    -18.2862E-03     36.4329E-03    -18.1467E-03     48.6307E-06    -18.2269E-03     36.3748E-03    -18.0696E-03     37.5670E-06
             100     1.76447E-03     112.988E-03     18.3670E+06    -177.015E+03     19.3483E+06    -929.062E+03    -18.1805E-03     36.2491E-03    -18.0686E-03     4.54649E-06    -18.1169E-03     36.1930E-03    -17.9982E-03    -7.93270E-06
             101     882.286E-06     112.983E-03     17.9042E+06    -292.863E+03     18.4097E+06    -702.338E+03    -17.9491E-03     36.0432E-03    -18.0941E-03    -202.273E-06    -17.8861E-03     35.9892E-03    -18.0276E-03    -210.749E-06
             102    -138.211E-09     111.999E-03     15.9519E+06    -948.478E+03     15.3682E+06    -600.611E+03    -16.1911E-03     32.7758E-03    -16.5846E-03     96.2763E-06    -16.1318E-03     32.7266E-03    -16.5296E-03     89.3906E-06
             103    -163.126E-09     111.021E-03     12.9694E+06    -2.55096E+06     12.4417E+06    -453.028E+03    -13.7939E-03     27.6948E-03    -13.9009E-03     790.235E-06    -13.7427E-03     27.6461E-03    -13.8538E-03     784.403E-06
             104     268.927E-09     110.049E-03     8.53022E+06    -5.07918E+06     9.07483E+06    -893.058E+03    -12.1695E-03     24.2348E-03    -12.0653E-03     1.15823E-03    -12.1321E-03     24.1847E-03    -12.0249E-03     1.14659E-03
             105    -183.952E-09     109.078E-03     1.02358E+06    -8.77220E+06     1.38125E+06    -1.52338E+06    -11.0734E-03     22.0371E-03    -10.9637E-03     1.27488E-03    -11.0569E-03     21.9906E-03    -10.9456E-03     1.25503E-03
             106     296.683E-09     108.110E-03    -10.3389E+06    -13.3733E+06    -10.2687E+06    -1.67536E+06    -10.5507E-03     20.8614E-03    -10.3107E-03     1.48052E-03    -10.5675E-03     20.8252E-03    -10.3276E-03     1.45860E-03
             107     16.9690E-09     107.142E-03    -24.2171E+06    -19.3572E+06    -24.3076E+06    -1.84130E+06    -10.1994E-03     20.2669E-03    -10.0675E-03     2.09915E-03    -10.2566E-03     20.2413E-03    -10.1259E-03     2.07524E-03
             108    -99.7164E-09     106.174E-03    -39.9888E+06    -25.2759E+06    -39.6916E+06    -2.25258E+06    -10.0297E-03     20.2604E-03    -10.2308E-03     2.27342E-03    -10.1348E-03     20.2504E-03    -10.3346E-03     2.24428E-03
             109    -175.638E-09     105.207E-03    -56.3507E+06    -33.1963E+06    -56.6403E+06    -2.32940E+06    -10.2789E-03     20.7241E-03    -10.4452E-03     1.90028E-03    -10.4298E-03     20.7228E-03    -10.5985E-03     1.87019E-03
             110     148.924E-09     104.239E-03    -67.5092E+06    -40.6086E+06    -67.4566E+06    -1.99421E+06    -10.8046E-03     21.5638E-03    -10.7592E-03     1.88465E-03    -10.9849E-03     21.5573E-03    -10.9397E-03     1.85894E-03
             111    -43.3349E-09     103.269E-03    -61.5399E+06    -44.5451E+06    -62.3466E+06    -393.674E+03    -11.4225E-03     22.7307E-03    -11.3082E-03     2.15904E-03    -11.5746E-03     22.6884E-03    -11.4661E-03     2.15397E-03
             112     128.755E-09     102.298E-03    -48.3904E+06    -42.4426E+06    -48.5540E+06     1.59737E+06    -11.9675E-03     23.9422E-03    -11.9747E-03     2.30261E-03    -12.0768E-03     23.8713E-03    -12.0858E-03     2.32321E-03
             113    -232.370E-09     101.326E-03    -37.1381E+06    -36.6656E+06    -37.4515E+06     1.83060E+06    -12.4393E-03     25.0540E-03    -12.6147E-03     2.34823E-03    -12.5169E-03     24.9796E-03    -12.6949E-03     2.37179E-03
             114     17.0077E-09     100.354E-03    -29.3637E+06    -31.4206E+06    -28.7753E+06     1.33415E+06    -12.9662E-03     26.0437E-03    -13.0775E-03     2.26163E-03    -13.0251E-03     25.9717E-03    -13.1332E-03     2.27876E-03
             115     3.86024E-09     99.3799E-03    -23.4283E+06    -27.3432E+06    -23.8509E+06     1.24252E+06    -13.5228E-03     26.9713E-03    -13.4485E-03     2.23659E-03    -13.5651E-03     26.9039E-03    -13.4941E-03     2.25255E-03
             116     99.0897E-09     98.4053E-03    -19.7032E+06    -23.3025E+06    -19.5321E+06     1.44930E+06    -13.9791E-03     27.8409E-03    -13.8618E-03     2.14708E-03    -14.0149E-03     27.7821E-03    -13.8971E-03     2.16569E-03
             117     4.89503E-09     97.4301E-03    -17.2615E+06    -21.0092E+06    -16.4789E+06    -161.936E+03    -14.2540E-03     28.5401E-03    -14.2860E-03     2.05946E-03    -14.2854E-03     28.4847E-03    -14.3129E-03     2.05725E-03
             118    -159.615E-09     96.4539E-03    -14.2760E+06    -22.7093E+06    -15.0669E+06    -1.19081E+06    -14.5056E-03     29.1408E-03    -14.6351E-03     1.99871E-03    -14.5216E-03     29.0706E-03    -14.6568E-03     1.98318E-03
             119     72.7124E-09     95.4776E-03    -12.5761E+06    -26.3012E+06    -12.0226E+06    -676.754E+03    -14.7847E-03     29.6290E-03    -14.8444E-03     2.00315E-03    -14.7914E-03     29.5340E-03    -14.8481E-03     1.99422E-03
             120    -88.2626E-09     94.5003E-03    -10.4196E+06    -28.5177E+06    -10.2541E+06    -605.379E+03    -14.9269E-03     29.9370E-03    -15.0101E-03     2.06860E-03    -14.9222E-03     29.8252E-03    -15.0049E-03     2.06056E-03
             121    -44.7586E-09     93.5237E-03    -11.6370E+06    -31.7355E+06    -11.3038E+06    -1.38610E+06    -15.1055E-03     30.2206E-03    -15.1151E-03     1.97912E-03    -15.1007E-03     30.0960E-03    -15.1087E-03     1.96099E-03
             122     161.796E-09     92.5460E-03    -11.7681E+06    -35.6896E+06    -12.3938E+06    -1.15899E+06    -15.2652E-03     30.4710E-03    -15.2058E-03     2.10826E-03    -15.2538E-03     30.3284E-03    -15.1989E-03     2.09303E-03
             123    -183.636E-09     91.5683E-03    -14.6454E+06    -37.2095E+06    -14.9731E+06     251.780E+03    -15.2576E-03     30.5793E-03    -15.3217E-03     2.18931E-03    -15.2546E-03     30.4370E-03    -15.3214E-03     2.19231E-03
             124     84.8558E-09     90.5909E-03    -17.1338E+06    -36.9772E+06    -16.6911E+06     136.609E+03    -15.3069E-03     30.6642E-03    -15.3573E-03     2.03987E-03    -15.3142E-03     30.5292E-03    -15.3623E-03     2.04139E-03
             125    -73.3184E-09     89.6131E-03    -17.1574E+06    -38.6730E+06    -17.0650E+06    -988.221E+03    -15.3822E-03     30.7455E-03    -15.3633E-03     1.99973E-03    -15.3866E-03     30.6026E-03    -15.3676E-03     1.98670E-03
             126     93.6384E-09     88.6354E-03    -17.9370E+06    -41.8844E+06    -18.0935E+06    -1.00258E+06    -15.3812E-03     30.7779E-03    -15.3967E-03     2.02079E-03    -15.3833E-03     30.6215E-03    -15.4004E-03     2.00756E-03
             127    -146.114E-09     87.6576E-03    -19.5938E+06    -43.8037E+06    -19.8590E+06    -615.829E+03    -15.3726E-03     30.8202E-03    -15.4476E-03     2.02877E-03    -15.3777E-03     30.6592E-03    -15.4549E-03     2.02056E-03
             128     59.8473E-09     86.6798E-03    -20.8675E+06    -46.0100E+06    -20.6942E+06    -487.786E+03    -15.4263E-03     30.8829E-03    -15.4565E-03     1.95226E-03    -15.4334E-03     30.7139E-03    -15.4630E-03     1.94575E-03
             129    -27.8781E-09     85.7019E-03    -22.1822E+06    -48.2287E+06    -22.1147E+06    -844.421E+03    -15.4920E-03     30.9036E-03    -15.4116E-03     1.95287E-03    -15.5003E-03     30.7275E-03    -15.4201E-03     1.94170E-03
             130     136.435E-09     84.7241E-03    -20.9602E+06    -51.7871E+06    -20.9212E+06    -1.14936E+06    -15.5792E-03     30.9913E-03    -15.4121E-03     2.05032E-03    -15.5779E-03     30.7939E-03    -15.4113E-03     2.03517E-03
             131     48.5382E-09     83.7460E-03    -21.2207E+06     -55.065E+06    -21.3506E+06    -865.077E+03    -15.5426E-03     31.0042E-03    -15.4616E-03     2.14431E-03    -15.5373E-03     30.7914E-03    -15.4577E-03     2.13284E-03
             132    -94.5362E-09     82.7680E-03    -25.1418E+06    -56.3290E+06    -25.4338E+06    -132.330E+03    -15.4021E-03     30.8908E-03    -15.4887E-03     2.09946E-03    -15.4086E-03     30.6833E-03    -15.4978E-03     2.09749E-03
             133    -19.5232E-09     81.7906E-03    -23.9655E+06    -56.9895E+06    -23.5900E+06    -175.859E+03    -15.3812E-03     30.8978E-03    -15.5165E-03     1.86340E-03    -15.3835E-03     30.6826E-03    -15.5171E-03     1.86092E-03
             134    -104.744E-09     80.8127E-03    -23.7591E+06    -57.8402E+06    -24.1630E+06    -467.538E+03    -15.3913E-03     30.9450E-03    -15.5537E-03     1.80491E-03    -15.3905E-03     30.7261E-03    -15.5562E-03     1.79865E-03
             135    -66.0388E-09     79.8347E-03    -24.0025E+06    -59.4448E+06    -23.5707E+06    -285.525E+03    -15.4691E-03     30.9813E-03    -15.5122E-03     2.02673E-03    -15.4681E-03     30.7539E-03    -15.5090E-03     2.02275E-03
             136     162.347E-09     78.8564E-03    -24.0786E+06    -60.7500E+06    -24.1622E+06    -677.543E+03    -15.5169E-03     30.9376E-03    -15.4207E-03     2.32200E-03    -15.5135E-03     30.7046E-03    -15.4185E-03     2.31290E-03
             137    -92.7531E-09     77.8788E-03    -22.6427E+06    -63.5596E+06    -22.7184E+06    -728.384E+03    -15.4664E-03     30.9066E-03    -15.4402E-03     2.24376E-03    -15.4538E-03     30.6554E-03    -15.4288E-03     2.23405E-03
             138     65.1071E-09     76.9014E-03    -21.6878E+06    -65.4696E+06    -21.7749E+06    -258.218E+03    -15.4175E-03     30.9450E-03    -15.5275E-03     2.03174E-03    -15.3988E-03     30.6815E-03    -15.5100E-03     2.02814E-03
             139    -236.434E-09     75.9232E-03    -24.4477E+06    -65.1999E+06    -24.8169E+06     227.378E+03    -15.4948E-03     30.9627E-03    -15.4680E-03     1.96452E-03    -15.4858E-03     30.7090E-03    -15.4621E-03     1.96719E-03
             140     448.013E-09     74.9455E-03    -24.1583E+06    -65.3798E+06    -23.4187E+06    -404.784E+03    -15.5717E-03     30.9438E-03    -15.3721E-03     2.06294E-03    -15.5630E-03     30.6868E-03    -15.3594E-03     2.05742E-03
             141    -300.748E-09     73.9676E-03    -23.3888E+06    -66.7537E+06    -23.8856E+06    -604.571E+03    -15.4556E-03     30.9023E-03    -15.4467E-03     2.12269E-03    -15.4404E-03     30.6379E-03    -15.4354E-03     2.11461E-03
             142     160.212E-09     72.9900E-03    -22.5764E+06    -67.5685E+06    -22.2173E+06         432.289    -15.3767E-03     30.9248E-03    -15.5481E-03     2.02610E-03    -15.3586E-03     30.6528E-03    -15.5285E-03     2.02582E-03
             143    -322.737E-09     72.0121E-03    -22.6772E+06    -67.2468E+06    -23.1669E+06    -6.05878E+03    -15.3646E-03     30.9172E-03    -15.5526E-03     1.96616E-03    -15.3461E-03     30.6483E-03    -15.5381E-03     1.96582E-03
             144     143.174E-09     71.0344E-03    -24.1825E+06    -67.6162E+06    -24.1273E+06     157.817E+03    -15.4559E-03     30.9184E-03    -15.4625E-03     1.92981E-03    -15.4430E-03     30.6512E-03    -15.4501E-03     1.93165E-03
             145     22.1823E-09     70.0565E-03    -21.8416E+06    -68.3327E+06    -21.2719E+06    -383.201E+03    -15.5114E-03     30.9427E-03    -15.4313E-03     2.00455E-03    -15.4899E-03     30.6644E-03    -15.4070E-03     1.99934E-03
             146    -42.2834E-09     69.0787E-03    -21.4641E+06    -69.1232E+06    -21.9153E+06    -546.125E+03    -15.4410E-03     30.9513E-03    -15.5103E-03     2.08273E-03    -15.4156E-03     30.6694E-03    -15.4885E-03     2.07537E-03
             147    -68.6943E-09     68.1008E-03    -21.2104E+06    -69.3048E+06    -21.1128E+06     95.6010E+03    -15.4230E-03     30.9630E-03    -15.5400E-03     2.15861E-03    -15.3973E-03     30.6787E-03    -15.5143E-03     2.15951E-03
             148    -29.8065E-09     67.1229E-03    -21.4310E+06    -68.9124E+06    -21.7675E+06     337.135E+03    -15.4507E-03     30.9232E-03    -15.4726E-03     2.15471E-03    -15.4257E-03     30.6421E-03    -15.4504E-03     2.15877E-03
             149     82.3585E-09     66.1454E-03    -22.9569E+06    -68.6666E+06    -22.5008E+06     26.7347E+03    -15.4738E-03     30.9082E-03    -15.4344E-03     2.06386E-03    -15.4557E-03     30.6316E-03    -15.4140E-03     2.06395E-03
             150    -62.8906E-09     65.1675E-03    -22.2351E+06    -69.2641E+06    -22.5948E+06    -471.496E+03    -15.4717E-03     30.9464E-03    -15.4747E-03     2.03863E-03    -15.4490E-03     30.6659E-03    -15.4550E-03     2.03227E-03
             151     30.9307E-09     64.1897E-03    -21.7681E+06    -69.2657E+06    -22.2029E+06     307.949E+03    -15.4977E-03     30.9650E-03    -15.4674E-03     2.10793E-03    -15.4733E-03     30.6833E-03    -15.4464E-03     2.11158E-03
             152     46.6478E-09     63.2116E-03    -19.8885E+06    -67.7443E+06    -19.7488E+06     890.272E+03    -15.4868E-03     30.9294E-03    -15.4426E-03     2.18537E-03    -15.4588E-03     30.6491E-03    -15.4143E-03     2.19654E-03
             153    -47.6328E-09     62.2343E-03    -21.5153E+06    -67.3378E+06    -20.4927E+06    -372.226E+03    -15.4506E-03     30.9124E-03    -15.4618E-03     2.12406E-03    -15.4302E-03     30.6374E-03    -15.4354E-03     2.11900E-03
             154     37.3031E-09     61.2562E-03    -21.3571E+06    -70.0000E+06    -21.6888E+06    -1.16233E+06    -15.4814E-03     30.9215E-03    -15.4402E-03     2.03721E-03    -15.4546E-03     30.6348E-03    -15.4161E-03     2.02193E-03
             155     39.3017E-09     60.2787E-03    -21.0401E+06    -71.5667E+06    -21.6862E+06    -76.7085E+03    -15.4734E-03     30.8958E-03    -15.4224E-03     2.06359E-03    -15.4428E-03     30.6008E-03    -15.3965E-03     2.06227E-03
             156    -35.9211E-09     59.3007E-03    -20.6593E+06    -70.5650E+06    -20.2700E+06     375.135E+03    -15.3833E-03     30.8821E-03    -15.4988E-03     2.09300E-03    -15.3542E-03     30.5895E-03    -15.4679E-03     2.09753E-03
             157    -170.925E-09     58.3232E-03    -20.4467E+06    -69.6403E+06    -20.6611E+06     199.756E+03    -15.4045E-03     30.8801E-03    -15.4755E-03     2.09938E-03    -15.3751E-03     30.5923E-03    -15.4482E-03     2.10170E-03
             158     246.144E-09     57.3451E-03    -22.3716E+06    -69.1746E+06    -22.2328E+06     292.315E+03    -15.4985E-03     30.8642E-03    -15.3657E-03     2.20013E-03    -15.4770E-03     30.5838E-03    -15.3441E-03     2.20362E-03
             159    -19.8454E-09     55.3899E-03    -21.0619E+06    -69.2462E+06    -21.0300E+06    -163.831E+03    -15.3701E-03     30.8213E-03    -15.4512E-03     2.01785E-03    -15.3438E-03     30.5369E-03    -15.4254E-03     2.01544E-03
             160    -18.7853E-09     54.4125E-03    -21.5891E+06    -69.0327E+06    -21.8608E+06     1.34295E+03    -15.4061E-03     30.8486E-03    -15.4424E-03     2.02374E-03    -15.3815E-03     30.5673E-03    -15.4204E-03     2.02345E-03
             161    -13.3414E-09     53.4344E-03    -22.6444E+06    -68.7368E+06    -22.5334E+06     100.834E+03    -15.3295E-03     30.8173E-03    -15.4877E-03     2.11112E-03    -15.3096E-03     30.5400E-03    -15.4679E-03     2.11215E-03
             162    -237.156E-09     52.4570E-03    -21.4480E+06    -69.2246E+06    -21.3510E+06    -141.750E+03    -15.2640E-03     30.7644E-03    -15.5005E-03     2.08981E-03    -15.2391E-03     30.4813E-03    -15.4758E-03     2.08773E-03
             163     66.1450E-09     51.4793E-03    -20.6818E+06    -70.2431E+06    -20.7809E+06    -154.366E+03    -15.3510E-03     30.7708E-03    -15.4197E-03     1.98661E-03    -15.3217E-03     30.4806E-03    -15.3918E-03     1.98438E-03
             164    -21.1339E-09     50.5019E-03    -21.2711E+06    -70.3161E+06    -21.5560E+06    -14.5957E+03    -15.3745E-03     30.7682E-03    -15.3937E-03     1.95397E-03    -15.3469E-03     30.4796E-03    -15.3686E-03     1.95355E-03
             165    -64.1115E-09     49.5240E-03    -21.9925E+06    -70.5007E+06    -21.6745E+06    -179.294E+03    -15.3731E-03     30.7347E-03    -15.3616E-03     1.97834E-03    -15.3488E-03     30.4465E-03    -15.3358E-03     1.97575E-03
             166     170.450E-09     48.5466E-03    -20.6511E+06    -70.8147E+06    -20.7714E+06    -153.627E+03    -15.3556E-03     30.6842E-03    -15.3286E-03     2.07195E-03    -15.3253E-03     30.3911E-03    -15.2999E-03     2.06966E-03
             167    -233.596E-09     47.5690E-03    -20.6686E+06    -71.0058E+06    -20.8247E+06    -66.6536E+03    -15.2832E-03     30.6582E-03    -15.3750E-03     2.08572E-03    -15.2527E-03     30.3642E-03    -15.3462E-03     2.08458E-03
             168     129.071E-09     46.5915E-03    -21.0068E+06    -71.3874E+06    -20.7471E+06    -122.457E+03    -15.2964E-03     30.6234E-03    -15.3270E-03     2.02440E-03    -15.2671E-03     30.3279E-03    -15.2968E-03     2.02254E-03
             169    -79.0161E-09     45.6140E-03    -20.3190E+06    -71.2693E+06    -20.6219E+06     258.352E+03    -15.2515E-03     30.5175E-03    -15.2659E-03     2.05907E-03    -15.2192E-03     30.2214E-03    -15.2362E-03     2.06213E-03
             170    -3.25694E-09     44.6369E-03    -21.1225E+06    -70.4859E+06    -21.2543E+06     201.057E+03    -15.2089E-03     30.4634E-03    -15.2545E-03     2.07804E-03    -15.1807E-03     30.1733E-03    -15.2279E-03     2.08036E-03
             171    -80.6105E-12     43.6592E-03    -20.7460E+06    -69.5897E+06    -20.7886E+06     340.367E+03    -15.2208E-03     30.3880E-03    -15.1672E-03     2.04877E-03    -15.1927E-03     30.1012E-03    -15.1401E-03     2.05288E-03
             172     94.6806E-09     42.6824E-03    -21.1696E+06    -68.8479E+06    -20.9001E+06     211.563E+03    -15.1100E-03     30.2575E-03    -15.1475E-03     2.07445E-03    -15.0849E-03     29.9752E-03    -15.1214E-03     2.07690E-03
             173    -255.933E-09     41.7051E-03    -21.3140E+06    -68.9188E+06    -21.3126E+06    -17.2213E+03    -15.0403E-03     30.1610E-03    -15.1207E-03     2.03687E-03    -15.0153E-03     29.8791E-03    -15.0964E-03     2.03637E-03
             174     271.461E-09     40.7281E-03    -21.3304E+06    -68.7415E+06    -21.3873E+06     25.4424E+03    -15.0559E-03     30.0465E-03    -14.9906E-03     2.09075E-03    -15.0311E-03     29.7657E-03    -14.9669E-03     2.09078E-03
             175    -175.218E-09     39.7513E-03    -21.7514E+06    -67.9994E+06    -22.0274E+06     159.428E+03    -14.9385E-03     29.8771E-03    -14.9387E-03     2.01004E-03    -14.9159E-03     29.6016E-03    -14.9187E-03     2.01179E-03
             176     72.2703E-09     38.7747E-03    -22.8058E+06    -67.6976E+06    -22.5820E+06     65.1613E+03    -14.8324E-03     29.7123E-03    -14.8799E-03     1.81941E-03    -14.8147E-03     29.4405E-03    -14.8616E-03     1.82002E-03
             177    -53.9759E-09     37.7983E-03    -21.3273E+06    -67.6511E+06    -21.2650E+06    -141.408E+03    -14.7707E-03     29.5717E-03    -14.8009E-03     1.78817E-03    -14.7477E-03     29.2961E-03    -14.7782E-03     1.78613E-03
             178    -20.0262E-09     36.8217E-03    -21.4968E+06    -67.9059E+06    -21.5388E+06     96.3249E+03    -14.6621E-03     29.3494E-03    -14.6873E-03     1.77546E-03    -14.6391E-03     29.0732E-03    -14.6653E-03     1.77648E-03
             179     46.1135E-09     35.8458E-03    -21.9848E+06    -68.0549E+06    -21.9097E+06    -64.9843E+03    -14.5523E-03     29.0988E-03    -14.5465E-03     1.77084E-03    -14.5310E-03     28.8231E-03    -14.5255E-03     1.76976E-03
             180    -63.8016E-09     34.8698E-03    -20.9004E+06    -68.0222E+06    -20.8393E+06    -126.130E+03    -14.3868E-03     28.8719E-03    -14.4851E-03     1.70567E-03    -14.3617E-03     28.5933E-03    -14.4604E-03     1.70380E-03
             181    -94.9051E-09     33.8944E-03    -21.2382E+06    -67.6584E+06    -21.5583E+06     1.47985E+03    -14.2757E-03     28.6098E-03    -14.3341E-03     1.64265E-03    -14.2518E-03     28.3345E-03    -14.3130E-03     1.64247E-03
             182     143.910E-09     32.9186E-03    -21.8826E+06    -67.5958E+06    -21.7106E+06     247.486E+03    -14.1825E-03     28.2892E-03    -14.1066E-03     1.68407E-03    -14.1617E-03     28.0154E-03    -14.0854E-03     1.68707E-03
             183    -58.8181E-09     31.9440E-03    -21.9079E+06    -67.3171E+06    -21.6571E+06     55.1923E+03    -13.9912E-03     27.9220E-03    -13.9309E-03     1.61641E-03    -13.9710E-03     27.6496E-03    -13.9098E-03     1.61692E-03
             184     81.1486E-09     30.9691E-03    -21.1876E+06    -67.0194E+06    -21.6217E+06     150.340E+03    -13.7543E-03     27.5251E-03    -13.7708E-03     1.52236E-03    -13.7310E-03     27.2531E-03    -13.7510E-03     1.52408E-03
             185    -139.966E-09     29.9951E-03    -21.4032E+06    -66.9703E+06    -20.9724E+06    -89.7808E+03    -13.5781E-03     27.1110E-03    -13.5329E-03     1.52144E-03    -13.5569E-03     26.8386E-03    -13.5097E-03     1.52006E-03
             186     281.617E-09     29.0208E-03    -22.1876E+06    -67.6116E+06    -22.2402E+06    -369.173E+03    -13.3616E-03     26.6158E-03    -13.2542E-03     1.61564E-03    -13.3415E-03     26.3432E-03    -13.2352E-03     1.61068E-03
             187    -235.677E-09     28.0478E-03    -18.4818E+06    -68.9872E+06    -18.4252E+06    -291.487E+03    -13.0093E-03     26.0726E-03    -13.0633E-03     1.59358E-03    -12.9742E-03     25.7822E-03    -13.0286E-03     1.58963E-03
             188     91.9026E-09     27.0748E-03    -17.9798E+06    -69.5617E+06    -18.2638E+06    -157.955E+03    -12.6949E-03     25.4867E-03    -12.7918E-03     1.48329E-03    -12.6567E-03     25.1924E-03    -12.7562E-03     1.48104E-03
             189    -125.821E-09     26.1029E-03    -20.0529E+06    -68.9138E+06    -20.2216E+06     441.821E+03    -12.4114E-03     24.8292E-03    -12.4178E-03     1.43708E-03    -12.3817E-03     24.5440E-03    -12.3899E-03     1.44256E-03
             190     144.306E-09     25.1312E-03    -18.2488E+06    -67.4261E+06    -18.1056E+06     554.393E+03    -12.0844E-03     24.1745E-03    -12.0901E-03     1.40263E-03    -12.0510E-03     23.8911E-03    -12.0564E-03     1.40959E-03
             191    -173.270E-09     24.1606E-03    -18.3256E+06    -66.4973E+06    -18.4837E+06     309.486E+03    -11.7402E-03     23.5128E-03    -11.7726E-03     1.25388E-03    -11.7079E-03     23.2347E-03    -11.7420E-03     1.25773E-03
             192     140.929E-09     23.1903E-03    -17.9031E+06    -65.5320E+06    -17.6296E+06     451.857E+03    -11.4699E-03     22.8777E-03    -11.4078E-03     1.10870E-03    -11.4381E-03     22.6026E-03    -11.3750E-03     1.11440E-03
             193     3.37267E-09     22.2207E-03    -17.7438E+06    -63.8545E+06    -17.6689E+06     256.968E+03    -11.1713E-03     22.2698E-03    -11.0984E-03     1.14240E-03    -11.1412E-03     22.0029E-03    -11.0685E-03     1.14555E-03
             194    -18.8423E-09     21.2516E-03    -17.2344E+06    -62.8316E+06    -17.3800E+06     251.670E+03    -10.8198E-03     21.6695E-03    -10.8497E-03     1.16215E-03    -10.7890E-03     21.4066E-03    -10.8205E-03     1.16525E-03
             195    -22.2792E-09     20.2831E-03    -16.1844E+06    -61.5873E+06    -16.1250E+06     480.362E+03    -10.5324E-03     21.0944E-03    -10.5620E-03     1.13418E-03    -10.5000E-03     20.8344E-03    -10.5298E-03     1.14026E-03
             196     9.75563E-09     19.3153E-03    -15.2075E+06    -59.9640E+06    -15.3228E+06     526.494E+03    -10.2895E-03     20.5903E-03    -10.3008E-03     968.351E-06    -10.2557E-03     20.3358E-03    -10.2684E-03     975.042E-06
             197    -20.2601E-09     18.3479E-03    -12.8701E+06    -58.0902E+06    -12.9487E+06     794.518E+03    -10.1131E-03     20.2276E-03    -10.1145E-03     905.281E-06    -10.0738E-03     19.9756E-03    -10.0763E-03     915.436E-06
             198     25.8316E-09     17.3804E-03    -9.03720E+06    -55.1197E+06    -9.28016E+06     983.091E+03    -9.90256E-03     19.8330E-03    -9.93040E-03     983.535E-06    -9.85366E-03     19.5850E-03    -9.88378E-03     996.134E-06
             199    -85.5154E-09     16.4136E-03    -5.21389E+06    -51.8197E+06    -5.18427E+06     1.12585E+06    -9.63940E-03     19.2969E-03    -9.65746E-03     951.795E-06    -9.58209E-03     19.0539E-03    -9.60068E-03     966.254E-06
             200     111.675E-09     15.4475E-03    -2.30567E+06    -48.3795E+06    -2.24999E+06     936.685E+03    -9.36894E-03     18.6786E-03    -9.30968E-03     769.140E-06    -9.30634E-03     18.4444E-03    -9.24744E-03     781.134E-06
             201    -33.0103E-09     14.4819E-03    -2.42589E+06    -46.0681E+06    -2.45376E+06     608.030E+03    -8.99411E-03     17.9180E-03    -8.92393E-03     541.047E-06    -8.93517E-03     17.6959E-03    -8.86589E-03     548.812E-06
             202     77.8605E-09     13.5174E-03    -4.46391E+06    -45.0919E+06    -3.78357E+06     153.015E+03    -8.59729E-03     17.0827E-03    -8.48538E-03     289.196E-06    -8.54800E-03     16.8702E-03    -8.43244E-03     291.133E-06
             203     83.5749E-09     12.5534E-03    -6.50015E+06    -44.7411E+06    -6.47981E+06    -176.482E+03    -8.08051E-03     16.0416E-03    -7.96110E-03     100.759E-06    -8.03799E-03     15.8378E-03    -7.91920E-03     98.4136E-06
             204    -32.8116E-09     11.5906E-03    -10.0036E+06    -45.5863E+06    -10.5140E+06    -159.581E+03    -7.35283E-03     14.6520E-03    -7.29920E-03     12.3392E-06    -7.32074E-03     14.4550E-03    -7.27117E-03     10.2095E-06
             205     70.8262E-09     10.6292E-03    -13.5409E+06    -45.9653E+06    -13.5714E+06    -214.105E+03    -6.66576E-03     13.2442E-03    -6.57841E-03     10.1804E-06    -6.64633E-03     13.0548E-03    -6.55999E-03     7.34742E-06
             206     45.7417E-09     9.66923E-03    -15.9683E+06    -46.4007E+06    -15.6595E+06    -43.8779E+03    -6.21337E-03     12.3442E-03    -6.13086E-03     155.999E-06    -6.20242E-03     12.1592E-03    -6.11872E-03     155.310E-06
             207    -12.5597E-09     8.70963E-03    -16.4030E+06    -47.0516E+06    -16.0730E+06    -107.398E+03    -6.22078E-03     12.4309E-03    -6.21011E-03     399.488E-06    -6.21047E-03     12.2439E-03    -6.19847E-03     398.029E-06
             208     837.099E-12     7.74943E-03    -14.2601E+06    -47.4575E+06    -14.3340E+06    -182.892E+03    -6.75545E-03     13.5471E-03    -6.79162E-03     613.329E-06    -6.73640E-03     13.3524E-03    -6.77380E-03     610.918E-06
             209    -55.9109E-09     6.78762E-03    -11.0729E+06    -47.9089E+06    -10.6770E+06    -38.4569E+03    -7.72878E-03     15.4221E-03    -7.69336E-03     745.071E-06    -7.69852E-03     15.2152E-03    -7.66122E-03     744.532E-06
             210     177.653E-09     5.82383E-03    -7.45534E+06    -48.8353E+06    -6.88779E+06    -777.773E+03    -8.86637E-03     17.6744E-03    -8.80799E-03     822.406E-06    -8.82223E-03     17.4521E-03    -8.76081E-03     812.324E-06
             211    -189.522E-09     4.85770E-03    -4.59843E+06    -51.3297E+06    -4.85905E+06    -797.832E+03    -9.96257E-03     19.9891E-03    -10.0265E-03     854.441E-06    -9.90348E-03     19.7473E-03    -9.96974E-03     844.089E-06
             212     83.5280E-09     3.88935E-03    -2.32697E+06    -53.8238E+06    -2.55880E+06    -530.589E+03    -11.0897E-03     22.2287E-03    -11.1390E-03     796.949E-06    -11.0189E-03     21.9677E-03    -11.0704E-03     790.066E-06
             213    -69.1561E-09     2.91904E-03    -5.17935E+06    -55.4673E+06    -5.49828E+06    -346.340E+03    -12.0757E-03     24.1407E-03    -12.0651E-03     665.811E-06    -12.0123E-03     23.8800E-03    -12.0046E-03     661.140E-06
             214     68.5779E-09     1.94700E-03    -11.1201E+06    -56.1602E+06    -10.8175E+06    -111.283E+03    -12.7961E-03     25.5992E-03    -12.8032E-03     483.704E-06    -12.7533E-03     25.3515E-03    -12.7597E-03     482.118E-06
             215    -79.3059E-09     973.834E-06    -14.6546E+06    -57.4942E+06    -14.5592E+06    -775.256E+03    -13.2605E-03     26.5339E-03    -13.2735E-03     247.028E-06    -13.2275E-03     26.2901E-03    -13.2417E-03     237.515E-06
             216     887.925E-06     76.3278E-18    -16.2693E+06    -59.0392E+06    -17.2697E+06    -629.678E+03    -13.4475E-03     26.8784E-03    -13.4309E-03     192.235E-06    -13.4170E-03     26.6324E-03    -13.4081E-03     184.613E-06
             217     1.77590E-03     76.3278E-18    -16.1903E+06    -58.8615E+06    -17.5388E+06    -537.985E+03    -13.5255E-03     26.9757E-03    -13.4503E-03     389.630E-06    -13.4954E-03     26.7302E-03    -13.4291E-03     382.702E-06
             218     2.66363E-03     76.3278E-18    -15.6393E+06    -58.1658E+06    -18.5436E+06    -811.876E+03    -13.6472E-03     27.1312E-03    -13.4840E-03     609.693E-06    -13.6140E-03     26.8898E-03    -13.4697E-03     599.170E-06
             219     3.55138E-03     76.3278E-18    -15.2932E+06    -59.6318E+06    -19.1209E+06    -488.656E+03    -13.8248E-03     27.3642E-03    -13.5394E-03     820.763E-06    -13.7870E-03     27.1158E-03    -13.5263E-03     814.415E-06
             220     4.43883E-03     76.3278E-18    -15.2984E+06    -62.2494E+06    -20.5907E+06    -675.291E+03    -14.0523E-03     27.6616E-03    -13.6093E-03     1.04599E-03    -14.0085E-03     27.4023E-03    -13.5998E-03     1.03721E-03
             221     5.32612E-03     76.3278E-18    -14.7674E+06    -63.6696E+06    -24.2321E+06    -1.29548E+06    -14.3151E-03     27.9961E-03    -13.6810E-03     1.31200E-03    -14.2614E-03     27.7343E-03    -13.6884E-03     1.29519E-03
             222     6.21312E-03     76.3278E-18    -13.7651E+06    -64.2156E+06    -27.7441E+06    -1.76547E+06    -14.6276E-03     28.3932E-03    -13.7657E-03     1.58021E-03    -14.5630E-03     28.1323E-03    -13.7913E-03     1.55730E-03
             223     7.09991E-03     76.3278E-18    -12.5450E+06    -66.0928E+06    -29.8823E+06    -1.84613E+06    -15.0011E-03     28.8756E-03    -13.8744E-03     1.89434E-03    -14.9246E-03     28.6066E-03    -13.9098E-03     1.87036E-03
             224     7.98613E-03     76.3278E-18    -10.9799E+06    -66.7828E+06    -31.9909E+06    -2.32276E+06    -15.4204E-03     29.4179E-03    -13.9976E-03     2.25499E-03    -15.3320E-03     29.1463E-03    -14.0448E-03     2.22479E-03
             225     8.87225E-03     76.3278E-18    -8.86222E+06    -65.0279E+06    -33.5068E+06    -2.63345E+06    -15.9103E-03     30.0468E-03    -14.1366E-03     2.62185E-03    -15.8117E-03     29.7831E-03    -14.1970E-03     2.58755E-03
             226     9.75761E-03     76.3278E-18    -6.11002E+06    -61.4730E+06    -34.3966E+06    -3.04506E+06    -16.5156E-03     30.8118E-03    -14.2962E-03     3.16198E-03    -16.4071E-03     30.5631E-03    -14.3702E-03     3.12230E-03
             227     10.6424E-03     76.3278E-18    -2.65906E+06    -54.7469E+06    -36.9727E+06    -3.81582E+06    -17.2564E-03     31.7244E-03    -14.4680E-03     3.75642E-03    -17.1367E-03     31.5082E-03    -14.5696E-03     3.70663E-03
             228     11.5267E-03     76.3278E-18     1.71705E+06    -44.7879E+06    -39.9616E+06    -4.15168E+06    -18.2327E-03     32.8985E-03    -14.6659E-03     4.54386E-03    -18.1012E-03     32.7301E-03    -14.8032E-03     4.48956E-03
             229     12.4094E-03     76.3278E-18     6.40352E+06    -27.4237E+06    -40.5403E+06    -4.46946E+06    -19.4598E-03     34.3690E-03    -14.9092E-03     5.70495E-03    -19.3292E-03     34.2814E-03    -15.0814E-03     5.64624E-03
             230     13.2911E-03     76.3278E-18     8.34106E+06     2.14788E+06    -36.0997E+06    -1.51962E+06    -21.1291E-03     36.3531E-03    -15.2240E-03     6.96540E-03    -21.0382E-03     36.4042E-03    -15.4197E-03     6.94392E-03
             231     14.1715E-03     76.3278E-18     8.77120E+06     37.0342E+06    -22.4945E+06    -272.774E+03    -24.4709E-03     40.1653E-03    -15.6944E-03     10.6197E-03    -24.4483E-03     40.3706E-03    -15.8733E-03     10.6138E-03
             232     15.0441E-03     76.3278E-18     9.08214E+06     62.9861E+06    -3.00521E+06     1.90400E+06    -29.1649E-03     45.5576E-03    -16.3927E-03     18.6648E-03    -29.2067E-03     45.8632E-03    -16.5122E-03     18.6898E-03
             233     15.9087E-03     76.3278E-18     5.51405E+06     77.7967E+06     17.7067E+06     2.95421E+06    -31.2568E-03     48.5030E-03    -17.2462E-03     28.2101E-03    -31.3710E-03     48.8599E-03    -17.2784E-03     28.2385E-03
             234     16.7764E-03     76.3278E-18     5.83568E+06     92.0170E+06     47.1467E+06     841.056E+03    -31.0632E-03     49.1839E-03    -18.1207E-03     38.4590E-03    -31.2627E-03     49.5930E-03    -18.0269E-03     38.4094E-03
             235     17.6862E-03     1.00020E-03    -1.95983E+06     99.7410E+06     60.0806E+06     3.18720E+06    -33.7465E-03     51.3307E-03    -17.5842E-03     45.6137E-03    -34.0676E-03     51.8263E-03    -17.4256E-03     45.5371E-03
             236     17.7080E-03     2.01103E-03    -6.67774E+06     105.800E+06     57.0174E+06     9.13519E+06    -38.7472E-03     54.8233E-03    -16.0761E-03     47.6712E-03    -39.1555E-03     55.4211E-03    -15.9348E-03     47.6250E-03
             237     17.7194E-03     3.02594E-03    -2.63424E+06     116.349E+06     64.1977E+06     4.41648E+06    -41.0174E-03     56.3714E-03    -15.3540E-03     50.9746E-03    -41.4957E-03     57.0681E-03    -15.1979E-03     50.8419E-03
             238     17.7222E-03     4.02722E-03    -2.62915E+06     122.628E+06     62.3253E+06     917.780E+03    -41.4931E-03     56.5135E-03    -15.0204E-03     54.1884E-03    -42.0315E-03     57.2976E-03    -14.8828E-03     54.0177E-03
             239     17.7263E-03     5.03664E-03     203.625E+03     128.160E+06     62.4505E+06     1.97254E+06    -40.9814E-03     55.8922E-03    -14.9108E-03     57.5272E-03    -41.5439E-03     56.7306E-03    -14.7847E-03     57.3997E-03
             240     17.7232E-03     6.04471E-03    -3.79161E+06     127.623E+06     63.3359E+06     167.757E+03    -38.2803E-03     53.2820E-03    -15.0016E-03     61.1418E-03    -38.8924E-03     54.1499E-03    -14.8645E-03     61.0463E-03
             241     17.7246E-03     7.03443E-03    -1.95536E+06     129.414E+06     56.1084E+06     1.88708E+06    -36.4178E-03     51.4286E-03    -15.0108E-03     60.2174E-03    -37.0249E-03     52.3250E-03    -14.9151E-03     60.1893E-03
             242     17.7246E-03     8.03589E-03     1.01637E+06     133.782E+06     57.7427E+06     16.0382E+03    -35.9787E-03     50.9920E-03    -15.0133E-03     59.9216E-03    -36.5895E-03     51.9146E-03    -14.9201E-03     59.8969E-03
             243     17.7236E-03     9.03714E-03    -4.13082E+06     131.068E+06     56.7158E+06     221.662E+03    -33.8894E-03     48.9850E-03    -15.0955E-03     61.9535E-03    -34.5470E-03     49.9287E-03    -14.9960E-03     61.9878E-03
             244     17.7240E-03     10.0265E-03    -200.217E+03     130.664E+06     57.9387E+06     314.761E+03    -31.7175E-03     46.8622E-03    -15.1448E-03     63.0293E-03    -32.3747E-03     47.8144E-03    -15.0442E-03     63.1225E-03
             245     17.7247E-03     11.0225E-03    -205.282E+03     132.053E+06     62.4271E+06    -300.996E+03    -31.9282E-03     47.0861E-03    -15.1578E-03     64.2394E-03    -32.6115E-03     48.0568E-03    -15.0369E-03     64.3485E-03
             246     17.7231E-03     12.0193E-03    -3.22174E+06     133.631E+06     56.0526E+06     2.14390E+06    -30.8020E-03     45.9693E-03    -15.1673E-03     64.5928E-03    -31.5102E-03     46.9778E-03    -15.0761E-03     64.7772E-03
             247     17.7249E-03     13.0060E-03    -1.18336E+06     136.042E+06     57.6635E+06     1.35767E+06    -29.1448E-03     44.3459E-03    -15.2011E-03     64.2312E-03    -29.8538E-03     45.3663E-03    -15.1083E-03     64.4549E-03
             248     17.7235E-03     13.9999E-03    -2.00155E+06     136.945E+06     64.9595E+06     257.536E+03    -28.7618E-03     43.9996E-03    -15.2378E-03     63.5420E-03    -29.4891E-03     45.0177E-03    -15.1087E-03     63.7769E-03
             249     17.7250E-03     14.9891E-03    -471.446E+03     138.950E+06     66.4324E+06     84.7679E+03    -28.1820E-03     43.4185E-03    -15.2365E-03     63.7365E-03    -28.9195E-03     44.4548E-03    -15.1051E-03     64.0015E-03
             250     17.7247E-03     15.9785E-03    -789.482E+03     139.351E+06     68.2191E+06    -1.04580E+06    -28.2433E-03     43.4723E-03    -15.2291E-03     63.7919E-03    -28.9946E-03     44.5180E-03    -15.0889E-03     64.0657E-03
             251     17.7248E-03     16.9723E-03    -3.18069E+06     137.662E+06     68.2459E+06      544.24E+03    -27.1979E-03     42.4578E-03    -15.2599E-03     63.6627E-03    -27.9596E-03     43.4990E-03    -15.1136E-03     63.9922E-03
             252     17.7250E-03     17.9570E-03    -2.96460E+06     138.473E+06     69.6676E+06     926.142E+03    -25.2907E-03     40.5903E-03    -15.2996E-03     62.9769E-03    -26.0524E-03     41.6309E-03    -15.1477E-03     63.3593E-03
             253     17.7255E-03     18.9440E-03    -1.27971E+06     140.621E+06     70.9958E+06    -445.891E+03    -24.2882E-03     39.5899E-03    -15.3017E-03     61.1858E-03    -25.0424E-03     40.6328E-03    -15.1487E-03     61.5800E-03
             254     17.7259E-03     19.9299E-03    -668.049E+03     142.212E+06     73.1356E+06    -550.604E+03    -24.1957E-03     39.4979E-03    -15.3022E-03     63.5132E-03    -24.9708E-03     40.5635E-03    -15.1418E-03     63.9371E-03
             255     17.7253E-03     20.9215E-03    -2.01642E+06     141.570E+06     71.2332E+06     1.22163E+06    -23.1610E-03     38.4822E-03    -15.3212E-03     66.4638E-03    -23.9578E-03     39.5680E-03    -15.1674E-03     66.9505E-03
             256     17.7262E-03     21.9040E-03    -1.59481E+06     143.062E+06     70.4415E+06     666.706E+03    -20.9990E-03     36.3605E-03    -15.3615E-03     67.2526E-03    -21.8027E-03     37.4621E-03    -15.2144E-03     67.7833E-03
             257     17.7255E-03     22.8848E-03    -1.03624E+06     144.346E+06     71.2981E+06     123.103E+03    -20.5217E-03     35.8935E-03    -15.3718E-03     65.8635E-03    -21.3142E-03     36.9880E-03    -15.2231E-03     66.4001E-03
             258     17.7262E-03     23.8687E-03    -2.53535E+06     143.833E+06     70.9853E+06     790.468E+03    -20.4813E-03     35.8571E-03    -15.3757E-03     64.9690E-03    -21.2733E-03     36.9448E-03    -15.2257E-03     65.5182E-03
             259     17.7254E-03     24.8511E-03    -2.29806E+06     145.530E+06     71.3739E+06     1.06050E+06    -19.7600E-03     35.1484E-03    -15.3885E-03     65.1632E-03    -20.5604E-03     36.2503E-03    -15.2393E-03     65.7403E-03
             260     17.7266E-03     25.8324E-03    -1.31948E+06     147.102E+06     72.1237E+06     229.924E+03    -19.1250E-03     34.5171E-03    -15.3921E-03     64.4361E-03    -19.9204E-03     35.6209E-03    -15.2429E-03     65.0192E-03
             261     17.7258E-03     26.8134E-03    -1.91425E+06     147.317E+06     73.5508E+06     555.483E+03    -18.6746E-03     34.0825E-03    -15.4079E-03     63.9708E-03    -19.4703E-03     35.1812E-03    -15.2510E-03     64.5715E-03
             262     17.7264E-03     27.7953E-03    -2.61317E+06     147.634E+06     72.0137E+06     1.25732E+06    -17.8759E-03     33.2978E-03    -15.4219E-03     64.2153E-03    -18.6785E-03     34.4064E-03    -15.2721E-03     64.8468E-03
             263     17.7260E-03     28.7742E-03    -3.93477E+06     147.195E+06     68.7426E+06    -2.52904E+06    -17.0656E-03     32.4841E-03    -15.4185E-03     62.5923E-03    -17.8704E-03     33.5981E-03    -15.2825E-03     63.1948E-03
             264     17.7269E-03     29.7503E-03    -65.2505E+03     146.683E+06     74.3716E+06    -1.51370E+06    -17.9062E-03     33.3186E-03    -15.4124E-03     63.4840E-03    -18.7051E-03     34.4224E-03    -15.2531E-03     64.1029E-03
             265     17.7261E-03     30.7397E-03    -1.81023E+06     145.424E+06     73.6163E+06     1.60550E+06    -17.7357E-03     33.1581E-03    -15.4224E-03     68.2650E-03    -18.5649E-03     34.2839E-03    -15.2626E-03     68.9419E-03
             266     17.7266E-03     31.7191E-03    -3.62709E+06     144.349E+06     71.4283E+06     337.600E+03    -15.6965E-03     31.1716E-03    -15.4751E-03     70.2910E-03    -16.5440E-03     32.3117E-03    -15.3220E-03     70.9973E-03
             267     17.7260E-03     32.6898E-03    -1.54210E+06     146.018E+06     71.9092E+06     220.278E+03    -15.7165E-03     31.1842E-03    -15.4677E-03     66.1334E-03    -16.5272E-03     32.2994E-03    -15.3176E-03     66.8219E-03
             268     17.7269E-03     33.6707E-03    -413.429E+03     146.153E+06     73.0156E+06    -468.001E+03    -16.4692E-03     31.9128E-03    -15.4436E-03     63.1368E-03    -17.2525E-03     33.0017E-03    -15.2898E-03     63.7837E-03
             269     17.7262E-03     34.6493E-03    -1.01463E+06     145.991E+06     76.1895E+06     747.643E+03    -16.5484E-03     32.0085E-03    -15.4601E-03     64.0285E-03    -17.3472E-03     33.1011E-03    -15.2894E-03     64.7023E-03
             270     17.7265E-03     35.6294E-03    -3.91201E+06     148.354E+06     70.0222E+06     1.85623E+06    -16.4016E-03     31.8371E-03    -15.4355E-03     64.5450E-03    -17.2157E-03     32.9609E-03    -15.2948E-03     65.2417E-03
             271     17.7264E-03     36.6082E-03    -2.25865E+06     149.984E+06     69.3431E+06     337.017E+03    -15.9082E-03     31.3447E-03    -15.4365E-03     64.9818E-03    -16.7180E-03     32.4778E-03    -15.3040E-03     65.6688E-03
             272     17.7266E-03     37.5860E-03    -2.00452E+06     150.454E+06     71.6585E+06    -112.156E+03    -15.6396E-03     31.0959E-03    -15.4564E-03     64.3703E-03    -16.4483E-03     32.2239E-03    -15.3133E-03     65.0577E-03
             273     17.7261E-03     38.5640E-03    -3.43007E+06     149.243E+06     70.9198E+06    -227.957E+03    -15.5337E-03     30.9905E-03    -15.4569E-03     63.6852E-03    -16.3471E-03     32.1160E-03    -15.3137E-03     64.3749E-03
             274     17.7270E-03     39.5410E-03    -1.14412E+06     150.943E+06     71.5102E+06    -572.182E+03    -15.7227E-03     31.1591E-03    -15.4364E-03     64.8972E-03    -16.5356E-03     32.2964E-03    -15.2961E-03     65.5857E-03
             275     17.7267E-03     40.5238E-03     2.50709E+06     154.335E+06     71.9084E+06     1.30935E+06    -15.6851E-03     31.1092E-03    -15.4241E-03     68.5580E-03    -16.5063E-03     32.2787E-03    -15.2920E-03     69.2830E-03
             276     17.7270E-03     41.5024E-03    -1.43412E+06     150.489E+06     69.4502E+06    -297.326E+03    -14.4289E-03     29.8917E-03    -15.4628E-03     68.1979E-03    -15.2603E-03     31.0509E-03    -15.3316E-03     68.9141E-03
             277     17.7262E-03     42.4732E-03    -4.21012E+06     148.362E+06     73.0667E+06    -2.57699E+06    -15.0262E-03     30.5113E-03    -15.4850E-03     64.9744E-03    -15.8584E-03     31.6433E-03    -15.3287E-03     65.6500E-03
             278     17.7264E-03     43.4519E-03    -1.22216E+06     150.764E+06      69.371E+06     1.38964E+06    -16.5185E-03     31.9306E-03    -15.4121E-03     63.7401E-03    -17.3265E-03     33.0683E-03    -15.2821E-03     64.4423E-03
             279     17.7272E-03     44.4369E-03    -183.621E+03     151.914E+06     69.7699E+06     977.864E+03    -15.2668E-03     30.7066E-03    -15.4398E-03     68.6348E-03    -16.0977E-03     31.8738E-03    -15.3110E-03     69.3684E-03
             280     17.7259E-03     45.4144E-03    -909.792E+03     151.729E+06     72.4105E+06    -72.6516E+03    -14.7659E-03     30.2383E-03    -15.4725E-03     71.8800E-03    -15.6240E-03     31.4219E-03    -15.3291E-03     72.6169E-03
             281     17.7276E-03     46.3859E-03    -1.54895E+06     150.429E+06     72.0992E+06    -945.348E+03    -16.0104E-03     31.4520E-03    -15.4416E-03     66.2159E-03    -16.8320E-03     32.5930E-03    -15.2970E-03     66.8922E-03
             282     17.7252E-03     47.3677E-03    -4.27473E+06     148.094E+06     71.7425E+06    -1.43314E+06    -15.6921E-03     31.1566E-03    -15.4645E-03     62.3842E-03    -16.5053E-03     32.2723E-03    -15.3143E-03     63.0545E-03
             283     17.7274E-03     48.3416E-03    -2.36460E+06     150.574E+06     72.2831E+06     821.626E+03    -15.8807E-03     31.3274E-03    -15.4467E-03     66.7816E-03    -16.7233E-03     32.4867E-03    -15.3002E-03     67.5099E-03
             284     17.7263E-03     49.3293E-03    -3.05266E+06     149.689E+06     70.5597E+06     1.01025E+06    -15.9236E-03     31.3562E-03    -15.4326E-03     70.5036E-03    -16.7822E-03     32.5310E-03    -15.2924E-03     71.2380E-03
             285     17.7270E-03     50.3054E-03    -2.95292E+06     149.528E+06     69.8664E+06     330.715E+03    -14.0659E-03     29.5496E-03    -15.4836E-03     71.0428E-03    -14.9242E-03     30.7259E-03    -15.3468E-03     71.8001E-03
             286     17.7263E-03     51.2752E-03     117.159E+03     152.194E+06     72.6086E+06     165.135E+03    -14.3913E-03     29.8656E-03    -15.4744E-03     67.2100E-03    -15.2138E-03     31.0185E-03    -15.3322E-03     67.9428E-03
             287     17.7273E-03     52.2557E-03    -1.20471E+06     151.226E+06     72.6200E+06    -573.094E+03    -15.4736E-03     30.9210E-03    -15.4475E-03     64.5887E-03    -16.2790E-03     32.0485E-03    -15.3019E-03     65.2745E-03
             288     17.7261E-03     53.2332E-03    -2.35296E+06     150.316E+06     73.0569E+06       37.16E+03    -15.3307E-03     30.7947E-03    -15.4640E-03     65.7860E-03    -16.1491E-03     31.9266E-03    -15.3133E-03     66.4915E-03
             289     17.7270E-03     54.2118E-03    -1.88618E+06     150.761E+06     71.8515E+06     572.044E+03    -15.0907E-03     30.5496E-03    -15.4589E-03     66.4129E-03    -15.9134E-03     31.6924E-03    -15.3155E-03     67.1322E-03
             290     17.7266E-03     55.1889E-03    -1.79383E+06     150.842E+06     73.8598E+06    -206.349E+03    -15.2734E-03     30.7391E-03    -15.4656E-03     66.2902E-03    -16.0981E-03     31.8787E-03    -15.3124E-03     66.9967E-03
             291     17.7263E-03     56.1672E-03    -2.21541E+06     150.187E+06     72.3606E+06     312.373E+03    -15.2239E-03     30.6866E-03    -15.4627E-03     64.9461E-03    -16.0371E-03     31.8153E-03    -15.3154E-03     65.6529E-03
             292     886.211E-06     57.3474E-03    -21.8544E+06    -67.5599E+06    -21.0267E+06     89.1948E+03    -15.4575E-03     30.8562E-03    -15.3987E-03     3.58113E-03    -15.4380E-03     30.5810E-03    -15.3741E-03     3.58180E-03
             293     1.77248E-03     57.3519E-03    -20.6429E+06    -65.0654E+06    -17.9877E+06    -48.4540E+03    -15.4181E-03     30.8536E-03    -15.4354E-03     6.63136E-03    -15.4009E-03     30.5843E-03    -15.4011E-03     6.62982E-03
             294     2.65876E-03     57.3597E-03    -19.2667E+06    -62.8860E+06    -14.2200E+06     37.2246E+03    -15.4210E-03     30.8644E-03    -15.4434E-03     9.96861E-03    -15.4057E-03     30.5987E-03    -15.3954E-03     9.96769E-03
             295     3.54503E-03     57.3704E-03    -17.5701E+06    -61.5025E+06    -9.99042E+06     38.8784E+03    -15.4331E-03     30.8880E-03    -15.4549E-03     13.3910E-03    -15.4176E-03     30.6208E-03    -15.3902E-03     13.3895E-03
             296     4.43128E-03     57.3846E-03    -15.6477E+06    -59.3601E+06    -5.81030E+06    -3.09985E+03    -15.4511E-03     30.9161E-03    -15.4650E-03     16.9627E-03    -15.4354E-03     30.6509E-03    -15.3853E-03     16.9601E-03
             297     5.31760E-03     57.4019E-03    -13.6546E+06    -57.0525E+06    -2.26890E+06    -65.7383E+03    -15.4783E-03     30.9497E-03    -15.4715E-03     20.6804E-03    -15.4614E-03     30.6884E-03    -15.3803E-03     20.6763E-03
             298     6.20387E-03     57.4230E-03    -11.6356E+06    -55.4193E+06     617.949E+03    -58.7067E+03    -15.5205E-03     30.9963E-03    -15.4758E-03     24.5693E-03    -15.5005E-03     30.7365E-03    -15.3755E-03     24.5642E-03
             299     7.09019E-03     57.4476E-03    -9.76558E+06    -53.7010E+06     3.02001E+06    -46.2879E+03    -15.5712E-03     31.0494E-03    -15.4782E-03     28.6070E-03    -15.5486E-03     30.7927E-03    -15.3711E-03     28.6008E-03
             300     7.97645E-03     57.4762E-03    -8.06546E+06    -52.2101E+06     5.05077E+06    -12.0190E+03    -15.6334E-03     31.1130E-03    -15.4796E-03     32.7566E-03    -15.6085E-03     30.8594E-03    -15.3669E-03     32.7492E-03
             301     8.86282E-03     57.5084E-03    -6.69141E+06    -49.2983E+06     6.10891E+06     75.1014E+03    -15.7077E-03     31.1827E-03    -15.4750E-03     36.9907E-03    -15.6833E-03     30.9418E-03    -15.3632E-03     36.9822E-03
             302     9.74906E-03     57.5449E-03    -5.49927E+06    -47.5894E+06     6.53422E+06     221.845E+03    -15.7937E-03     31.2635E-03    -15.4698E-03     41.2149E-03    -15.7690E-03     31.0314E-03    -15.3602E-03     41.2052E-03
             303     10.6355E-03     57.5850E-03    -4.61271E+06    -43.8139E+06     5.46029E+06     223.131E+03    -15.8769E-03     31.3318E-03    -15.4549E-03     45.3508E-03    -15.8557E-03     31.1229E-03    -15.3574E-03     45.3371E-03
             304     11.5217E-03     57.6291E-03    -3.97152E+06    -36.1996E+06     5.86854E+06     181.992E+03    -15.9508E-03     31.3927E-03    -15.4419E-03     49.5936E-03    -15.9444E-03     31.2267E-03    -15.3543E-03     49.5744E-03
             305     12.4082E-03     57.6773E-03    -3.29294E+06    -34.2724E+06     3.01768E+06     33.9610E+03    -16.0909E-03     31.5116E-03    -15.4207E-03     54.9330E-03    -16.0911E-03     31.3697E-03    -15.3512E-03     54.9054E-03
             306     13.2943E-03     57.7311E-03    -2.90656E+06    -25.2431E+06    -1.60318E+06    -67.2372E+03    -16.2220E-03     31.6029E-03    -15.3809E-03     60.5742E-03    -16.2462E-03     31.5318E-03    -15.3481E-03     60.5383E-03
             307     14.1809E-03     57.7901E-03    -2.55848E+06     2.29049E+06     2.32331E+06     89.2444E+03    -16.2506E-03     31.6056E-03    -15.3550E-03     65.7315E-03    -16.3488E-03     31.6961E-03    -15.3430E-03     65.6951E-03
             308     15.0673E-03     57.8532E-03    -1.97884E+06     26.2777E+06    -1.79962E+06     309.122E+03    -16.7928E-03     32.0867E-03    -15.2939E-03     81.1466E-03    -17.0283E-03     32.4137E-03    -15.3381E-03     81.1291E-03
             309     15.9533E-03     57.9413E-03    -1.35657E+06     62.4163E+06    -18.0979E+06     125.139E+03    -17.6424E-03     32.7956E-03    -15.1531E-03     110.968E-03    -18.4445E-03     33.8669E-03    -15.3322E-03     111.181E-03
             310     16.8404E-03     58.0609E-03    -1.87985E+06     120.318E+06     23.3832E+06    -174.783E+03    -16.6976E-03     31.9637E-03    -15.2661E-03     96.2069E-03    -17.7421E-03     33.3609E-03    -15.3210E-03     96.7699E-03
             311     886.254E-06     58.3250E-03    -20.3698E+06    -67.5915E+06    -20.0046E+06     145.913E+03    -15.4128E-03     30.8670E-03    -15.4542E-03     3.54451E-03    -15.3873E-03     30.5880E-03    -15.4266E-03     3.54592E-03
             312     1.77250E-03     58.3297E-03    -19.9125E+06    -65.1177E+06    -17.5699E+06     100.277E+03    -15.4288E-03     30.8675E-03    -15.4388E-03     6.63995E-03    -15.4084E-03     30.5963E-03    -15.4033E-03     6.64034E-03
             313     2.65873E-03     58.3373E-03    -18.6962E+06    -63.0519E+06    -13.6476E+06     194.033E+03    -15.4327E-03     30.8828E-03    -15.4500E-03     9.95853E-03    -15.4151E-03     30.6145E-03    -15.3998E-03     9.95963E-03
             314     3.54500E-03     58.3482E-03    -16.9941E+06    -61.2912E+06    -9.34897E+06     98.4559E+03    -15.4347E-03     30.8964E-03    -15.4617E-03     13.3811E-03    -15.4176E-03     30.6284E-03    -15.3949E-03     13.3805E-03
             315     4.43130E-03     58.3622E-03    -15.1010E+06    -59.4382E+06    -5.47048E+06     21.6657E+03    -15.4519E-03     30.9215E-03    -15.4696E-03     16.9542E-03    -15.4339E-03     30.6547E-03    -15.3889E-03     16.9519E-03
             316     5.31756E-03     58.3798E-03    -13.2604E+06    -56.7869E+06    -2.10859E+06    -96.0579E+03    -15.4826E-03     30.9570E-03    -15.4744E-03     20.6739E-03    -15.4643E-03     30.6962E-03    -15.3834E-03     20.6693E-03
             317     6.20386E-03     58.4006E-03    -11.4281E+06    -55.4546E+06     728.790E+03    -263.113E+03    -15.5235E-03     31.0027E-03    -15.4792E-03     24.5632E-03    -15.5027E-03     30.7423E-03    -15.3785E-03     24.5555E-03
             318     7.09014E-03     58.4254E-03    -9.66432E+06    -53.7582E+06     3.06872E+06    -147.250E+03    -15.5720E-03     31.0532E-03    -15.4812E-03     28.6037E-03    -15.5489E-03     30.7961E-03    -15.3739E-03     28.5963E-03
             319     7.97649E-03     58.4538E-03    -8.13963E+06    -52.2050E+06     4.97690E+06    -122.106E+03    -15.6388E-03     31.1210E-03    -15.4821E-03     32.7500E-03    -15.6142E-03     30.8677E-03    -15.3698E-03     32.7412E-03
             320     8.86275E-03     58.4863E-03    -6.69157E+06    -49.6149E+06     6.08533E+06     91.2109E+03    -15.7179E-03     31.1966E-03    -15.4786E-03     36.9813E-03    -15.6931E-03     30.9542E-03    -15.3666E-03     36.9730E-03
             321     9.74908E-03     58.5225E-03    -5.51423E+06    -47.5901E+06     6.40792E+06     193.645E+03    -15.8031E-03     31.2762E-03    -15.4731E-03     41.1974E-03    -15.7783E-03     31.0443E-03    -15.3641E-03     41.1873E-03
             322     10.6353E-03     58.5628E-03    -4.43929E+06    -43.8819E+06     5.39117E+06     226.112E+03    -15.8945E-03     31.3536E-03    -15.4591E-03     45.3422E-03    -15.8723E-03     31.1443E-03    -15.3621E-03     45.3285E-03
             323     11.5217E-03     58.6069E-03    -3.56948E+06    -36.1906E+06     5.86814E+06     271.863E+03    -15.9671E-03     31.4140E-03    -15.4469E-03     49.5702E-03    -15.9588E-03     31.2475E-03    -15.3599E-03     49.5521E-03
             324     12.4079E-03     58.6549E-03    -3.12910E+06    -33.8831E+06     3.00486E+06     65.7549E+03    -16.1162E-03     31.5426E-03    -15.4264E-03     54.9290E-03    -16.1162E-03     31.4025E-03    -15.3577E-03     54.9018E-03
             325     13.2943E-03     58.7091E-03    -2.81615E+06    -25.0706E+06    -1.56469E+06    -328.231E+03    -16.2651E-03     31.6542E-03    -15.3891E-03     60.5126E-03    -16.2893E-03     31.5840E-03    -15.3565E-03     60.4732E-03
             326     14.1805E-03     58.7674E-03    -2.41107E+06     1.79084E+06     2.24301E+06    -123.580E+03    -16.3229E-03     31.6897E-03    -15.3668E-03     65.6004E-03    -16.4197E-03     31.7778E-03    -15.3547E-03     65.5610E-03
             327     15.0668E-03     58.8315E-03    -1.62273E+06     26.7486E+06    -1.57534E+06    -434.228E+03    -16.8354E-03     32.1436E-03    -15.3081E-03     81.2462E-03    -17.0714E-03     32.4733E-03    -15.3524E-03     81.2188E-03
             328     15.9532E-03     58.9190E-03    -2.14607E+06     62.2898E+06    -17.9524E+06    -837.869E+03    -17.7604E-03     32.9335E-03    -15.1732E-03     111.028E-03    -18.5691E-03     34.0078E-03    -15.3501E-03     111.229E-03
             329     16.8390E-03     59.0385E-03    -2.97085E+06     119.765E+06     22.0952E+06     530.361E+03    -16.5885E-03     31.8679E-03    -15.2794E-03     96.9056E-03    -17.6444E-03     33.2743E-03    -15.3382E-03     97.4850E-03
             330     886.227E-06     59.3028E-03    -20.4243E+06    -67.9692E+06    -19.7845E+06     340.124E+03    -15.4066E-03     30.8736E-03    -15.4669E-03     3.55238E-03    -15.3811E-03     30.5925E-03    -15.4377E-03     3.55628E-03
             331     1.77248E-03     59.3074E-03    -19.5927E+06     -65.193E+06    -17.2102E+06     316.816E+03    -15.4368E-03     30.8803E-03    -15.4435E-03     6.64840E-03    -15.4152E-03     30.6077E-03    -15.4066E-03     6.65158E-03
             332     2.65873E-03     59.3152E-03    -18.1882E+06    -63.1653E+06    -13.1154E+06     247.142E+03    -15.4412E-03     30.8979E-03    -15.4567E-03     9.95732E-03    -15.4217E-03     30.6276E-03    -15.4043E-03     9.95910E-03
             333     3.54498E-03     59.3259E-03    -16.3884E+06    -61.1350E+06    -8.78700E+06     186.823E+03    -15.4441E-03     30.9126E-03    -15.4685E-03     13.3740E-03    -15.4249E-03     30.6437E-03    -15.4000E-03     13.3745E-03
             334     4.43124E-03     59.3400E-03    -14.4292E+06    -59.2922E+06    -4.89744E+06    -45.5315E+03    -15.4566E-03     30.9330E-03    -15.4764E-03     16.9485E-03    -15.4362E-03     30.6651E-03    -15.3940E-03     16.9454E-03
             335     5.31755E-03     59.3574E-03    -12.4826E+06    -56.7613E+06    -1.75970E+06    -62.1525E+03    -15.4834E-03     30.9626E-03    -15.4793E-03     20.6770E-03    -15.4618E-03     30.7003E-03    -15.3877E-03     20.6729E-03
             336     6.20382E-03     59.3785E-03    -10.8870E+06    -55.1714E+06     1.14529E+06    -129.134E+03    -15.5271E-03     31.0107E-03    -15.4836E-03     24.5609E-03    -15.5045E-03     30.7503E-03    -15.3821E-03     24.5549E-03
             337     7.09015E-03     59.4030E-03    -9.38565E+06    -54.0118E+06     3.28844E+06    -203.523E+03    -15.5824E-03     31.0685E-03    -15.4861E-03     28.5943E-03    -15.5578E-03     30.8093E-03    -15.3777E-03     28.5861E-03
             338     7.97641E-03     59.4316E-03    -7.94082E+06    -52.1936E+06     5.07704E+06     32.8486E+03    -15.6509E-03     31.1378E-03    -15.4869E-03     32.7458E-03    -15.6254E-03     30.8841E-03    -15.3743E-03     32.7390E-03
             339     8.86272E-03     59.4639E-03    -6.66488E+06    -49.7767E+06     6.10682E+06     -42.721E+03    -15.7255E-03     31.2094E-03    -15.4839E-03     36.9727E-03    -15.7003E-03     30.9661E-03    -15.3716E-03     36.9626E-03
             340     9.74901E-03     59.5004E-03    -5.24605E+06    -47.6720E+06     6.55619E+06     70.6047E+03    -15.8124E-03     31.2912E-03    -15.4789E-03     41.1959E-03    -15.7864E-03     31.0584E-03    -15.3693E-03     41.1842E-03
             341     10.6353E-03     59.5405E-03    -4.08918E+06    -43.8162E+06     5.78296E+06        -160.676    -15.9015E-03     31.3674E-03    -15.4659E-03     45.3471E-03    -15.8782E-03     31.1573E-03    -15.3675E-03     45.3304E-03
             342     11.5216E-03     59.5847E-03    -3.13219E+06    -36.5774E+06     6.23574E+06     237.756E+03    -15.9818E-03     31.4361E-03    -15.4543E-03     49.5785E-03    -15.9712E-03     31.2665E-03    -15.3655E-03     49.5600E-03
             343     12.4079E-03     59.6327E-03    -2.62014E+06    -33.5021E+06     3.73619E+06     393.837E+03    -16.1280E-03     31.5628E-03    -15.4348E-03     54.9712E-03    -16.1272E-03     31.4229E-03    -15.3638E-03     54.9482E-03
             344     13.2941E-03     59.6868E-03    -2.84216E+06    -24.4927E+06    -707.042E+03    -29.5704E+03    -16.2793E-03     31.6783E-03    -15.3990E-03     60.6408E-03    -16.3058E-03     31.6099E-03    -15.3629E-03     60.6052E-03
             345     14.1803E-03     59.7455E-03    -2.73751E+06     1.64715E+06     2.49211E+06    -544.874E+03    -16.3338E-03     31.7089E-03    -15.3751E-03     65.9407E-03    -16.4325E-03     31.7966E-03    -15.3611E-03     65.8958E-03
             346     15.0667E-03     59.8091E-03    -2.62769E+06     27.1867E+06    -1.47532E+06    -530.479E+03    -16.7340E-03     32.0463E-03    -15.3123E-03     81.6448E-03    -16.9755E-03     32.3793E-03    -15.3553E-03     81.6172E-03
             347     15.9532E-03     59.8969E-03    -3.75154E+06     61.3513E+06    -18.7635E+06     657.571E+03    -17.6241E-03     32.7921E-03    -15.1679E-03     111.511E-03    -18.4368E-03     33.8637E-03    -15.3453E-03     111.734E-03
             348     16.8400E-03     60.0166E-03    -2.47919E+06     118.957E+06     21.8562E+06     260.383E+03    -16.5746E-03     31.8433E-03    -15.2687E-03     97.1379E-03    -17.6250E-03     33.2438E-03    -15.3283E-03     97.7149E-03
             349     886.240E-06     60.2804E-03    -20.6215E+06    -68.4079E+06    -20.4437E+06     42.0987E+03    -15.4564E-03     30.8897E-03    -15.4334E-03     3.54187E-03    -15.4303E-03     30.6077E-03    -15.4065E-03     3.54191E-03
             350     1.77248E-03     60.2852E-03    -19.7014E+06    -65.5552E+06    -17.2529E+06     388.804E+03    -15.4403E-03     30.8921E-03    -15.4519E-03     6.64288E-03    -15.4187E-03     30.6180E-03    -15.4145E-03     6.64698E-03
             351     2.65871E-03     60.2928E-03    -18.4628E+06    -63.0886E+06    -13.3460E+06     426.921E+03    -15.4397E-03     30.9013E-03    -15.4616E-03     9.94648E-03    -15.4213E-03     30.6321E-03    -15.4100E-03     9.95058E-03
             352     3.54497E-03     60.3037E-03    -16.6688E+06    -60.9061E+06    -9.11577E+06     25.1435E+03    -15.4481E-03     30.9198E-03    -15.4718E-03     13.3716E-03    -15.4302E-03     30.6530E-03    -15.4048E-03     13.3700E-03
             353     4.43124E-03     60.3177E-03    -14.5315E+06    -58.9885E+06    -4.96043E+06    -216.882E+03    -15.4612E-03     30.9419E-03    -15.4807E-03     16.9498E-03    -15.4416E-03     30.6758E-03    -15.3989E-03     16.9444E-03
             354     5.31751E-03     60.3352E-03    -12.4123E+06    -56.9047E+06    -1.59188E+06    -272.252E+03    -15.4864E-03     30.9714E-03    -15.4850E-03     20.6770E-03    -15.4645E-03     30.7081E-03    -15.3925E-03     20.6701E-03
             355     6.20383E-03     60.3561E-03    -10.4336E+06    -55.2008E+06     1.34917E+06     2.21348E+03    -15.5345E-03     31.0232E-03    -15.4887E-03     24.5559E-03    -15.5099E-03     30.7617E-03    -15.3868E-03     24.5516E-03
             356     7.09008E-03     60.3809E-03    -8.90752E+06    -53.8440E+06     3.82126E+06    -26.9543E+03    -15.5970E-03     31.0900E-03    -15.4931E-03     28.5867E-03    -15.5710E-03     30.8302E-03    -15.3830E-03     28.5807E-03
             357     7.97639E-03     60.4093E-03    -7.46898E+06    -52.6584E+06     5.36373E+06     43.5789E+03    -15.6620E-03     31.1562E-03    -15.4942E-03     32.7427E-03    -15.6339E-03     30.8991E-03    -15.3802E-03     32.7360E-03
             358     8.86267E-03     60.4418E-03    -6.11198E+06    -49.2765E+06     6.63573E+06     74.3593E+03    -15.7345E-03     31.2256E-03    -15.4912E-03     36.9711E-03    -15.7080E-03     30.9833E-03    -15.3777E-03     36.9626E-03
             359     9.74894E-03     60.4780E-03    -4.95479E+06    -47.9335E+06     6.87879E+06    -250.137E+03    -15.8182E-03     31.3048E-03    -15.4866E-03     41.1930E-03    -15.7909E-03     31.0698E-03    -15.3755E-03     41.1771E-03
             360     10.6352E-03     60.5184E-03    -4.03758E+06    -43.8686E+06     6.08695E+06     136.396E+03    -15.9035E-03     31.3768E-03    -15.4733E-03     45.3458E-03    -15.8804E-03     31.1660E-03    -15.3734E-03     45.3309E-03
             361     11.5215E-03     60.5623E-03    -3.53259E+06    -36.8931E+06     6.33661E+06     197.101E+03    -15.9802E-03     31.4416E-03    -15.4614E-03     49.5703E-03    -15.9714E-03     31.2709E-03    -15.3711E-03     49.5512E-03
             362     12.4078E-03     60.6106E-03    -2.87722E+06    -33.6444E+06     3.74927E+06     444.390E+03    -16.1281E-03     31.5688E-03    -15.4407E-03     54.9872E-03    -16.1284E-03     31.4286E-03    -15.3690E-03     54.9648E-03
             363     13.2942E-03     60.6646E-03    -2.67364E+06    -24.1295E+06    -159.767E+03     578.030E+03    -16.2294E-03     31.6337E-03    -15.4043E-03     60.5794E-03    -16.2563E-03     31.5659E-03    -15.3662E-03     60.5517E-03
             364     14.1807E-03     60.7232E-03    -3.19024E+06     2.66430E+06     2.77531E+06    -92.8610E+03    -16.2668E-03     31.6423E-03    -15.3755E-03     65.8769E-03    -16.3699E-03     31.7355E-03    -15.3609E-03     65.8380E-03
             365     15.0671E-03     60.7870E-03    -3.80013E+06     26.5045E+06    -1.56798E+06    -349.449E+03    -16.7396E-03     32.0529E-03    -15.3132E-03     81.2926E-03    -16.9851E-03     32.3835E-03    -15.3540E-03     81.2671E-03
             366     15.9537E-03     60.8744E-03    -2.79422E+06     60.7670E+06    -17.0072E+06    -480.153E+03    -17.5504E-03     32.7251E-03    -15.1747E-03     110.825E-03    -18.3590E-03     33.7888E-03    -15.3438E-03     111.031E-03
             367     16.8402E-03     60.9942E-03    -1.34041E+06     119.932E+06     24.3717E+06     9.56113E+03    -16.5732E-03     31.8496E-03    -15.2764E-03     96.5336E-03    -17.6183E-03     33.2450E-03    -15.3265E-03     97.1015E-03
             368     886.211E-06     61.2583E-03    -21.4169E+06    -68.3853E+06    -21.4503E+06    -522.115E+03    -15.4643E-03     30.9104E-03    -15.4461E-03     3.52505E-03    -15.4408E-03     30.6311E-03    -15.4231E-03     3.51783E-03
             369     1.77243E-03     61.2629E-03    -20.7149E+06    -66.2094E+06    -18.7369E+06     215.856E+03    -15.4419E-03     30.9004E-03    -15.4585E-03     6.63327E-03    -15.4223E-03     30.6266E-03    -15.4261E-03     6.63514E-03
             370     2.65869E-03     61.2706E-03    -18.7715E+06    -62.7877E+06    -14.0442E+06     120.441E+03    -15.4336E-03     30.8992E-03    -15.4656E-03     9.95077E-03    -15.4161E-03     30.6329E-03    -15.4175E-03     9.95092E-03
             371     3.54495E-03     61.2814E-03    -16.5732E+06    -60.4682E+06    -9.25140E+06    -228.834E+03    -15.4472E-03     30.9222E-03    -15.4750E-03     13.3801E-03    -15.4293E-03     30.6576E-03    -15.4095E-03     13.3752E-03
             372     4.43121E-03     61.2955E-03    -14.5938E+06    -58.9198E+06    -5.00681E+06    -342.829E+03    -15.4708E-03     30.9558E-03    -15.4850E-03     16.9427E-03    -15.4516E-03     30.6901E-03    -15.4035E-03     16.9357E-03
             373     5.31750E-03     61.3129E-03    -12.8023E+06    -56.8055E+06    -1.64331E+06    -311.378E+03    -15.4979E-03     30.9888E-03    -15.4909E-03     20.6698E-03    -15.4780E-03     30.7266E-03    -15.3982E-03     20.6624E-03
             374     6.20375E-03     61.3339E-03    -11.0197E+06    -55.6057E+06     1.03713E+06    -229.437E+03    -15.5416E-03     31.0368E-03    -15.4952E-03     24.5581E-03    -15.5189E-03     30.7746E-03    -15.3934E-03     24.5508E-03
             375     7.09007E-03     61.3586E-03    -9.13719E+06    -53.6968E+06     3.57092E+06     35.0944E+03    -15.5996E-03     31.0980E-03    -15.4985E-03     28.5901E-03    -15.5746E-03     30.8397E-03    -15.3895E-03     28.5850E-03
             376     7.97630E-03     61.3871E-03    -7.52293E+06    -52.7697E+06     5.38733E+06    -63.2096E+03    -15.6690E-03     31.1699E-03    -15.5009E-03     32.7401E-03    -15.6410E-03     30.9123E-03    -15.3866E-03     32.7320E-03
             377     8.86260E-03     61.4194E-03    -6.02129E+06    -49.2515E+06     6.30547E+06    -17.9490E+03    -15.7348E-03     31.2303E-03    -15.4955E-03     36.9910E-03    -15.7075E-03     30.9884E-03    -15.3838E-03     36.9812E-03
             378     9.74889E-03     61.4559E-03    -5.05753E+06    -47.6594E+06     6.73216E+06     58.4599E+03    -15.8240E-03     31.3153E-03    -15.4913E-03     41.2024E-03    -15.7973E-03     31.0820E-03    -15.3812E-03     41.1905E-03
             379     10.6352E-03     61.4960E-03    -4.29180E+06    -44.5825E+06     5.42734E+06     68.8627E+03    -15.9058E-03     31.3829E-03    -15.4770E-03     45.3598E-03    -15.8820E-03     31.1698E-03    -15.3790E-03     45.3441E-03
             380     11.5215E-03     61.5403E-03    -3.19774E+06    -36.4231E+06     6.13761E+06     228.773E+03    -15.9832E-03     31.4477E-03    -15.4645E-03     49.5911E-03    -15.9731E-03     31.2791E-03    -15.3764E-03     49.5724E-03
             381     12.4078E-03     61.5881E-03    -2.47846E+06    -34.4952E+06     3.45449E+06     246.297E+03    -16.1288E-03     31.5735E-03    -15.4447E-03     55.0092E-03    -16.1255E-03     31.4288E-03    -15.3738E-03     54.9843E-03
             382     13.2940E-03     61.6426E-03    -2.08876E+06    -24.1046E+06    -588.202E+03     819.902E+03    -16.2580E-03     31.6645E-03    -15.4065E-03     60.5152E-03    -16.2815E-03     31.5967E-03    -15.3715E-03     60.4906E-03
             383     14.1803E-03     61.7005E-03    -2.43541E+06     2.73293E+06     2.29990E+06     1.24885E+06    -16.2321E-03     31.6087E-03    -15.3766E-03     65.7723E-03    -16.3306E-03     31.7016E-03    -15.3655E-03     65.7509E-03
             384     15.0666E-03     61.7652E-03    -3.06224E+06     27.7063E+06    -755.412E+03     441.088E+03    -16.7914E-03     32.1103E-03    -15.3189E-03     81.5371E-03    -17.0361E-03     32.4446E-03    -15.3584E-03     81.5212E-03
             385     15.9526E-03     61.8518E-03    -3.13086E+06     62.2805E+06    -15.9150E+06    -1.15172E+06    -17.8884E-03     33.0818E-03    -15.1934E-03     110.720E-03    -18.7065E-03     34.1560E-03    -15.3587E-03     110.915E-03
             386     16.8392E-03     61.9718E-03    -2.51631E+06     118.419E+06     22.7717E+06    -770.883E+03    -16.4567E-03     31.7506E-03    -15.2940E-03     96.0955E-03    -17.5091E-03     33.1485E-03    -15.3482E-03     96.6564E-03
             387     886.200E-06     62.2360E-03    -20.8786E+06    -68.0865E+06    -19.4314E+06    -224.485E+03    -15.4636E-03     30.9313E-03    -15.4677E-03     3.57035E-03    -15.4407E-03     30.6498E-03    -15.4359E-03     3.56697E-03
             388     1.77243E-03     62.2407E-03    -19.5451E+06    -66.4758E+06    -17.5232E+06    -209.816E+03    -15.4569E-03     30.9274E-03    -15.4704E-03     6.62822E-03    -15.4329E-03     30.6488E-03    -15.4333E-03     6.62459E-03
             389     2.65867E-03     62.2483E-03    -18.2074E+06    -62.3710E+06    -14.6436E+06    -360.266E+03    -15.4351E-03     30.9030E-03    -15.4678E-03     9.95142E-03    -15.4146E-03     30.6389E-03    -15.4242E-03     9.94536E-03
             390     3.54494E-03     62.2592E-03    -16.8350E+06    -60.4242E+06    -10.0369E+06    -256.098E+03    -15.4483E-03     30.9245E-03    -15.4762E-03     13.3914E-03    -15.4306E-03     30.6617E-03    -15.4144E-03     13.3862E-03
             391     4.43120E-03     62.2732E-03    -15.1713E+06    -58.6768E+06    -5.49298E+06    -291.147E+03    -15.4771E-03     30.9650E-03    -15.4879E-03     16.9475E-03    -15.4605E-03     30.7021E-03    -15.4083E-03     16.9411E-03
             392     5.31744E-03     62.2907E-03    -13.3652E+06    -57.0652E+06    -2.04874E+06    -163.965E+03    -15.5091E-03     31.0050E-03    -15.4959E-03     20.6742E-03    -15.4911E-03     30.7429E-03    -15.4040E-03     20.6687E-03
             393     6.20373E-03     62.3116E-03    -11.8248E+06    -55.4519E+06     548.111E+03    -88.4781E+03    -15.5460E-03     31.0462E-03    -15.5002E-03     24.5676E-03    -15.5269E-03     30.7867E-03    -15.3999E-03     24.5621E-03
             394     7.08997E-03     62.3364E-03    -10.2738E+06    -53.9094E+06     2.49097E+06    -258.558E+03    -15.5939E-03     31.0950E-03    -15.5011E-03     28.6163E-03    -15.5728E-03     30.8388E-03    -15.3956E-03     28.6074E-03
             395     7.97630E-03     62.3649E-03    -8.54160E+06    -52.4977E+06     4.46176E+06    -192.358E+03    -15.6597E-03     31.1621E-03    -15.5024E-03     32.7727E-03    -15.6359E-03     30.9087E-03    -15.3915E-03     32.7629E-03
             396     8.86255E-03     62.3973E-03    -7.15660E+06    -49.5491E+06     5.37237E+06    -195.101E+03    -15.7311E-03     31.2281E-03    -15.4970E-03     37.0188E-03    -15.7076E-03     30.9878E-03    -15.3879E-03     37.0067E-03
             397     9.74887E-03     62.4336E-03    -5.64772E+06    -47.6744E+06     6.04623E+06     7.64641E+03    -15.8142E-03     31.3064E-03    -15.4922E-03     41.2530E-03    -15.7895E-03     31.0749E-03    -15.3846E-03     41.2405E-03
             398     10.6351E-03     62.4740E-03    -4.29719E+06     -44.382E+06     5.07966E+06    -179.390E+03    -15.9056E-03     31.3833E-03    -15.4777E-03     45.4009E-03    -15.8816E-03     31.1717E-03    -15.3817E-03     45.3819E-03
             399     11.5214E-03     62.5178E-03    -3.10764E+06    -36.6409E+06     5.62727E+06    -367.219E+03    -15.9729E-03     31.4369E-03    -15.4640E-03     49.6811E-03    -15.9613E-03     31.2679E-03    -15.3783E-03     49.6547E-03
             400     12.4077E-03     62.5663E-03    -1.89238E+06    -34.6721E+06     3.36445E+06    -46.6721E+03    -16.0978E-03     31.5414E-03    -15.4436E-03     55.1016E-03    -16.0910E-03     31.3951E-03    -15.3737E-03     55.0731E-03
             401     13.2941E-03     62.6199E-03    -1.00232E+06    -25.1360E+06    -1.12884E+06     401.993E+03    -16.2587E-03     31.6606E-03    -15.4019E-03     60.8118E-03    -16.2745E-03     31.5869E-03    -15.3697E-03     60.7819E-03
             402     14.1803E-03     62.6790E-03     284.851E+03     2.36073E+06     2.96140E+06     1.05979E+06    -16.1870E-03     31.5594E-03    -15.3724E-03     65.8563E-03    -16.2722E-03     31.6454E-03    -15.3615E-03     65.8326E-03
             403     15.0673E-03     62.7417E-03     1.34306E+06     28.3635E+06     825.848E+03     1.50909E+06    -16.5203E-03     31.8247E-03    -15.3043E-03     82.2994E-03    -16.7453E-03     32.1527E-03    -15.3433E-03     82.2994E-03
             404     15.9535E-03     62.8317E-03    -2.23484E+06     63.4764E+06    -16.9777E+06     1.21850E+06    -17.9598E-03     33.1199E-03    -15.1601E-03     112.594E-03    -18.7752E-03     34.2020E-03    -15.3338E-03     112.823E-03
             405     16.8386E-03     62.9489E-03    -4.76166E+06     118.602E+06     22.1017E+06    -766.395E+03    -16.8634E-03     32.1420E-03    -15.2786E-03     96.4387E-03    -17.9303E-03     33.5489E-03    -15.3332E-03     97.0019E-03
             406     886.259E-06     63.2139E-03    -19.4428E+06    -67.9274E+06    -18.5838E+06     329.394E+03    -15.4806E-03     30.9400E-03    -15.4594E-03     3.58154E-03    -15.4520E-03     30.6559E-03    -15.4256E-03     3.58529E-03
             407     1.77240E-03     63.2184E-03    -18.7129E+06    -66.1062E+06    -16.7205E+06    -271.560E+03    -15.4664E-03     30.9408E-03    -15.4745E-03     6.60517E-03    -15.4398E-03     30.6617E-03    -15.4351E-03     6.60075E-03
             408     2.65866E-03     63.2261E-03    -18.0755E+06    -62.4249E+06    -14.4583E+06    -142.406E+03    -15.4516E-03     30.9252E-03    -15.4736E-03     9.93533E-03    -15.4306E-03     30.6604E-03    -15.4292E-03     9.93209E-03
             409     3.54491E-03     63.2369E-03    -16.9561E+06    -60.3693E+06    -10.4321E+06    -90.5855E+03    -15.4526E-03     30.9335E-03    -15.4809E-03     13.3850E-03    -15.4351E-03     30.6717E-03    -15.4210E-03     13.3818E-03
             410     4.43117E-03     63.2510E-03    -15.3598E+06    -58.5373E+06    -5.92703E+06    -127.955E+03    -15.4760E-03     30.9675E-03    -15.4915E-03     16.9506E-03    -15.4599E-03     30.7062E-03    -15.4139E-03     16.9464E-03
             411     5.31744E-03     63.2684E-03    -13.5937E+06    -57.3223E+06    -2.30495E+06    -69.9911E+03    -15.5098E-03     31.0098E-03    -15.5000E-03     20.6768E-03    -15.4922E-03     30.7472E-03    -15.4087E-03     20.6726E-03
             412     6.20367E-03     63.2895E-03    -11.6552E+06    -55.3332E+06     437.561E+03    -3.01218E+03    -15.5460E-03     31.0493E-03    -15.5033E-03     24.5863E-03    -15.5261E-03     30.7903E-03    -15.4040E-03     24.5820E-03
             413     7.08999E-03     63.3141E-03    -10.0430E+06    -53.6518E+06     2.64997E+06    -139.467E+03    -15.5938E-03     31.0985E-03    -15.5046E-03     28.6338E-03    -15.5722E-03     30.8430E-03    -15.3990E-03     28.6265E-03
             414     7.97624E-03     63.3426E-03    -8.77760E+06    -52.6251E+06     4.25612E+06    -273.351E+03    -15.6532E-03     31.1577E-03    -15.5045E-03     32.7922E-03    -15.6301E-03     30.9043E-03    -15.3942E-03     32.7814E-03
             415     8.86257E-03     63.3750E-03    -7.25017E+06    -49.3015E+06     5.48336E+06    -324.390E+03    -15.7230E-03     31.2220E-03    -15.4991E-03     37.0408E-03    -15.7005E-03     30.9829E-03    -15.3896E-03     37.0271E-03
             416     9.74881E-03     63.4114E-03    -5.89288E+06    -47.9517E+06     5.85825E+06    -471.655E+03    -15.7991E-03     31.2916E-03    -15.4925E-03     41.2756E-03    -15.7749E-03     31.0593E-03    -15.3852E-03     41.2569E-03
             417     10.6352E-03     63.4516E-03    -4.74237E+06    -43.9125E+06     5.16279E+06    -428.729E+03    -15.8872E-03     31.3644E-03    -15.4772E-03     45.4498E-03    -15.8662E-03     31.1557E-03    -15.3809E-03     45.4277E-03
             418     11.5214E-03     63.4958E-03    -4.05335E+06    -36.6603E+06     5.55425E+06    -623.287E+03    -15.9552E-03     31.4183E-03    -15.4632E-03     49.6747E-03    -15.9481E-03     31.2507E-03    -15.3764E-03     49.6451E-03
             419     12.4079E-03     63.5437E-03    -3.52070E+06    -34.8991E+06     2.74042E+06    -647.678E+03    -16.0884E-03     31.5293E-03    -15.4409E-03     55.0524E-03    -16.0886E-03     31.3852E-03    -15.3715E-03     55.0160E-03
             420     13.2942E-03     63.5980E-03    -2.81169E+06    -25.5620E+06    -1.59783E+06    -548.476E+03    -16.2248E-03     31.6248E-03    -15.4000E-03     60.6489E-03    -16.2482E-03     31.5521E-03    -15.3669E-03     60.6068E-03
             421     14.1808E-03     63.6564E-03    -1.89838E+06     1.99489E+06     2.74149E+06    -420.077E+03    -16.3928E-03     31.7717E-03    -15.3789E-03     65.3089E-03    -16.4888E-03     31.8601E-03    -15.3653E-03     65.2652E-03
             422     15.0669E-03     63.7195E-03    -1.07966E+06     27.1636E+06    -243.249E+03     17.8722E+03    -16.7422E-03     32.0666E-03    -15.3243E-03     80.2787E-03    -16.9764E-03     32.3940E-03    -15.3634E-03     80.2574E-03
             423     15.9553E-03     63.8076E-03    -2.80972E+06     62.0868E+06    -16.3681E+06     1.34192E+06    -16.9445E-03     32.1138E-03    -15.1693E-03     110.542E-03    -17.7347E-03     33.1619E-03    -15.3370E-03     110.777E-03
             424     16.8416E-03     63.9306E-03    -2.99241E+06     120.376E+06     23.9073E+06     1.46893E+06    -16.4512E-03     31.7009E-03    -15.2497E-03     96.2847E-03    -17.4884E-03     33.0855E-03    -15.3004E-03     96.8760E-03
             425     886.139E-06     64.1916E-03    -21.6334E+06    -67.8448E+06    -21.7855E+06     94.6850E+03    -15.4677E-03     30.9333E-03    -15.4657E-03     3.53403E-03    -15.4455E-03     30.6575E-03    -15.4448E-03     3.53476E-03
             426     1.77247E-03     64.1963E-03    -20.8678E+06    -65.6302E+06    -18.8610E+06    -226.810E+03    -15.4519E-03     30.9220E-03    -15.4701E-03     6.60409E-03    -15.4337E-03     30.6515E-03    -15.4390E-03     6.60025E-03
             427     2.65863E-03     64.2039E-03    -19.1738E+06    -62.7585E+06    -14.2669E+06    -182.570E+03    -15.4646E-03     30.9450E-03    -15.4805E-03     9.93069E-03    -15.4489E-03     30.6799E-03    -15.4330E-03     9.92692E-03
             428     3.54488E-03     64.2147E-03    -17.2040E+06    -60.1879E+06    -10.1129E+06    -55.4134E+03    -15.4610E-03     30.9503E-03    -15.4893E-03     13.3793E-03    -15.4454E-03     30.6893E-03    -15.4276E-03     13.3766E-03
             429     4.43113E-03     64.2288E-03    -15.2759E+06    -58.5646E+06    -6.03485E+06    -95.8750E+03    -15.4700E-03     30.9667E-03    -15.4967E-03     16.9634E-03    -15.4532E-03     30.7053E-03    -15.4198E-03     16.9596E-03
             430     5.31740E-03     64.2463E-03    -13.2871E+06    -57.3055E+06    -2.22727E+06    -102.069E+03    -15.5023E-03     31.0058E-03    -15.5035E-03     20.6842E-03    -15.4832E-03     30.7426E-03    -15.4123E-03     20.6796E-03
             431     6.20370E-03     64.2672E-03    -11.4048E+06    -55.2813E+06     730.203E+03    -214.394E+03    -15.5436E-03     31.0500E-03    -15.5064E-03     24.5925E-03    -15.5229E-03     30.7905E-03    -15.4061E-03     24.5854E-03
             432     7.08995E-03     64.2919E-03    -9.58328E+06    -53.6946E+06     3.10002E+06    -57.0960E+03    -15.5951E-03     31.1030E-03    -15.5079E-03     28.6329E-03    -15.5717E-03     30.8460E-03    -15.4006E-03     28.6265E-03
             433     7.97626E-03     64.3204E-03    -7.97686E+06    -52.3130E+06     4.92617E+06    -131.933E+03    -15.6538E-03     31.1614E-03    -15.5076E-03     32.7917E-03    -15.6281E-03     30.9074E-03    -15.3955E-03     32.7828E-03
             434     8.86252E-03     64.3528E-03    -6.79761E+06    -49.1593E+06     5.67575E+06    -430.171E+03    -15.7126E-03     31.2123E-03    -15.4997E-03     37.0446E-03    -15.6883E-03     30.9729E-03    -15.3902E-03     37.0295E-03
             435     9.74890E-03     64.3892E-03    -5.78309E+06    -47.8465E+06     5.97654E+06    -402.089E+03    -15.7986E-03     31.2912E-03    -15.4927E-03     41.2588E-03    -15.7742E-03     31.0591E-03    -15.3850E-03     41.2409E-03
             436     10.6351E-03     64.4294E-03    -5.12710E+06    -43.9758E+06     4.85787E+06    -429.904E+03    -15.8804E-03     31.3564E-03    -15.4760E-03     45.4153E-03    -15.8608E-03     31.1484E-03    -15.3805E-03     45.3932E-03
             437     11.5216E-03     64.4735E-03    -4.55765E+06    -36.3230E+06     5.34624E+06    -332.048E+03    -15.9780E-03     31.4409E-03    -15.4629E-03     49.5967E-03    -15.9737E-03     31.2760E-03    -15.3769E-03     49.5707E-03
             438     12.4077E-03     64.5215E-03    -4.35059E+06    -34.9612E+06     2.11504E+06    -496.055E+03    -16.1633E-03     31.6066E-03    -15.4434E-03     54.9397E-03    -16.1668E-03     31.4644E-03    -15.3758E-03     54.9051E-03
             439     13.2940E-03     64.5757E-03    -4.75559E+06    -25.3365E+06    -2.76660E+06    -633.306E+03    -16.3414E-03     31.7491E-03    -15.4077E-03     60.4762E-03    -16.3735E-03     31.6824E-03    -15.3779E-03     60.4326E-03
             440     14.1800E-03     64.6342E-03    -5.02327E+06     1.81678E+06     863.137E+03    -714.706E+03    -16.6613E-03     32.0583E-03    -15.3970E-03     65.7035E-03    -16.7707E-03     32.1537E-03    -15.3880E-03     65.6551E-03
             441     15.0653E-03     64.6986E-03    -5.50616E+06     26.4800E+06    -3.32942E+06    -114.564E+03    -17.4255E-03     32.7909E-03    -15.3654E-03     80.7931E-03    -17.6809E-03     33.1303E-03    -15.4124E-03     80.7663E-03
             442     15.9488E-03     64.7846E-03    -3.59557E+06     60.9970E+06    -17.9749E+06     1.15668E+06    -16.9055E-03     32.1377E-03    -15.2322E-03     108.418E-03    -17.6789E-03     33.1670E-03    -15.4053E-03     108.646E-03
             443     16.8412E-03     64.9019E-03    -14.3172E+03     120.073E+06     23.8904E+06     1.04022E+06    -15.5159E-03     30.8054E-03    -15.2896E-03     96.5759E-03    -16.5279E-03     32.1744E-03    -15.3442E-03     97.1707E-03
             444     886.238E-06     65.1694E-03    -22.0035E+06    -67.5747E+06    -21.4213E+06    -350.864E+03    -15.4647E-03     30.9380E-03    -15.4733E-03     3.51570E-03    -15.4453E-03     30.6636E-03    -15.4505E-03     3.51069E-03
             445     1.77237E-03     65.1740E-03    -21.0671E+06    -65.2319E+06    -18.3895E+06    -339.365E+03    -15.4593E-03     30.9356E-03    -15.4763E-03     6.62171E-03    -15.4433E-03     30.6667E-03    -15.4431E-03     6.61642E-03
             446     2.65866E-03     65.1817E-03    -19.5243E+06    -62.8506E+06    -14.3516E+06    -389.780E+03    -15.4589E-03     30.9437E-03    -15.4848E-03     9.93179E-03    -15.4447E-03     30.6787E-03    -15.4371E-03     9.92536E-03
             447     3.54485E-03     65.1925E-03    -17.6336E+06    -60.2751E+06    -10.0131E+06    -218.418E+03    -15.4600E-03     30.9530E-03    -15.4931E-03     13.3876E-03    -15.4465E-03     30.6921E-03    -15.4302E-03     13.3828E-03
             448     4.43113E-03     65.2066E-03    -15.6627E+06    -58.4504E+06    -6.07915E+06    -155.487E+03    -15.4706E-03     30.9698E-03    -15.4993E-03     16.9829E-03    -15.4559E-03     30.7096E-03    -15.4222E-03     16.9783E-03
             449     5.31741E-03     65.2240E-03    -13.7353E+06    -57.2288E+06    -2.57546E+06    -272.747E+03    -15.4996E-03     31.0040E-03    -15.5044E-03     20.6990E-03    -15.4824E-03     30.7424E-03    -15.4144E-03     20.6921E-03
             450     6.20365E-03     65.2450E-03    -11.9154E+06    -55.2415E+06     429.003E+03    -207.943E+03    -15.5390E-03     31.0462E-03    -15.5072E-03     24.5949E-03    -15.5204E-03     30.7880E-03    -15.4077E-03     24.5879E-03
             451     7.08997E-03     65.2697E-03    -10.1967E+06    -53.7284E+06     2.70772E+06    -300.606E+03    -15.5878E-03     31.0956E-03    -15.5078E-03     28.6423E-03    -15.5668E-03     30.8398E-03    -15.4016E-03     28.6329E-03
             452     7.97623E-03     65.2982E-03    -8.40081E+06    -52.1133E+06     4.50771E+06    -334.255E+03    -15.6499E-03     31.1561E-03    -15.5062E-03     32.7980E-03    -15.6260E-03     30.9043E-03    -15.3959E-03     32.7864E-03
             453     8.86257E-03     65.3306E-03    -6.90945E+06    -49.0339E+06     5.59660E+06    -261.273E+03    -15.7189E-03     31.2187E-03    -15.4998E-03     37.0270E-03    -15.6952E-03     30.9803E-03    -15.3907E-03     37.0141E-03
             454     9.74882E-03     65.3669E-03    -5.84228E+06    -47.8507E+06     5.71877E+06    -323.920E+03    -15.8055E-03     31.2982E-03    -15.4927E-03     41.2496E-03    -15.7811E-03     31.0665E-03    -15.3862E-03     41.2327E-03
             455     10.6352E-03     65.4072E-03    -4.92366E+06    -44.0085E+06     4.58259E+06    -169.397E+03    -15.9033E-03     31.3799E-03    -15.4767E-03     45.3892E-03    -15.8822E-03     31.1719E-03    -15.3828E-03     45.3703E-03
             456     11.5213E-03     65.4512E-03    -4.34823E+06    -36.4307E+06     5.02292E+06    -101.347E+03    -16.0056E-03     31.4706E-03    -15.4650E-03     49.6488E-03    -15.9997E-03     31.3054E-03    -15.3808E-03     49.6258E-03
             457     12.4077E-03     65.4995E-03    -3.91679E+06    -34.5732E+06     1.97312E+06    -87.5713E+03    -16.1978E-03     31.6448E-03    -15.4470E-03     55.0652E-03    -16.1995E-03     31.5041E-03    -15.3813E-03     55.0358E-03
             458     13.2938E-03     65.5535E-03    -3.69257E+06    -25.4057E+06    -2.81592E+06    -138.920E+03    -16.3827E-03     31.7957E-03    -15.4129E-03     60.8516E-03    -16.4094E-03     31.7272E-03    -15.3848E-03     60.8143E-03
             459     14.1799E-03     65.6126E-03    -3.89765E+06     1.93135E+06     816.922E+03    -58.7257E+03    -16.4382E-03     31.8324E-03    -15.3942E-03     66.7207E-03    -16.5419E-03     31.9267E-03    -15.3872E-03     66.6816E-03
             460     15.0665E-03     65.6769E-03    -3.60434E+06     25.3205E+06    -3.86683E+06     635.908E+03    -16.8300E-03     32.1630E-03    -15.3330E-03     82.7327E-03    -17.0710E-03     32.4923E-03    -15.3838E-03     82.7197E-03
             461     15.9539E-03     65.7647E-03    -2.26505E+06     61.7683E+06    -19.3153E+06     60.4868E+03    -17.9404E-03     33.1419E-03    -15.2015E-03     110.092E-03    -18.7316E-03     34.2003E-03    -15.3843E-03     110.292E-03
             462     16.8361E-03     65.8759E-03    -2.01326E+06     121.207E+06     23.0100E+06    -541.325E+03    -16.3962E-03     31.7100E-03    -15.3138E-03     98.8367E-03    -17.4568E-03     33.1271E-03    -15.3716E-03     99.4069E-03
             463     886.188E-06     66.1472E-03    -22.5343E+06    -67.1207E+06    -21.4411E+06     -158.21E+03    -15.4766E-03     30.9276E-03    -15.4510E-03     3.53218E-03    -15.4605E-03     30.6562E-03    -15.4282E-03     3.52967E-03
             464     1.77244E-03     66.1519E-03    -21.3977E+06    -64.9180E+06    -18.5623E+06    -337.567E+03    -15.4668E-03     30.9412E-03    -15.4745E-03     6.62755E-03    -15.4527E-03     30.6747E-03    -15.4421E-03     6.62228E-03
             465     2.65859E-03     66.1595E-03    -19.8103E+06    -62.7021E+06    -14.6670E+06    -390.676E+03    -15.4515E-03     30.9354E-03    -15.4839E-03     9.94403E-03    -15.4385E-03     30.6720E-03    -15.4376E-03     9.93758E-03
             466     3.54491E-03     66.1703E-03    -17.9363E+06    -60.4093E+06    -10.2811E+06    -375.499E+03    -15.4570E-03     30.9485E-03    -15.4916E-03     13.3863E-03    -15.4445E-03     30.6877E-03    -15.4294E-03     13.3795E-03
             467     4.43114E-03     66.1843E-03    -15.8507E+06    -58.4010E+06    -6.04663E+06    -253.977E+03    -15.4745E-03     30.9737E-03    -15.4992E-03     16.9762E-03    -15.4609E-03     30.7140E-03    -15.4218E-03     16.9703E-03
             468     5.31738E-03     66.2018E-03    -13.9139E+06    -57.0017E+06    -2.60498E+06    -291.587E+03    -15.5035E-03     31.0083E-03    -15.5047E-03     20.7094E-03    -15.4875E-03     30.7481E-03    -15.4149E-03     20.7023E-03
             469     6.20368E-03     66.2227E-03    -11.9339E+06    -55.3134E+06     204.900E+03    -388.063E+03    -15.5405E-03     31.0476E-03    -15.5071E-03     24.5956E-03    -15.5216E-03     30.7894E-03    -15.4086E-03     24.5863E-03
             470     7.08995E-03     66.2474E-03    -9.98096E+06    -53.4239E+06     2.75775E+06    -431.133E+03    -15.5864E-03     31.0944E-03    -15.5081E-03     28.6342E-03    -15.5649E-03     30.8398E-03    -15.4023E-03     28.6230E-03
             471     7.97626E-03     66.2759E-03    -8.46113E+06    -52.1782E+06     4.44454E+06    -518.223E+03    -15.6498E-03     31.1565E-03    -15.5067E-03     32.7903E-03    -15.6261E-03     30.9046E-03    -15.3965E-03     32.7763E-03
             472     8.86252E-03     66.3083E-03    -6.99655E+06    -49.0994E+06     5.34197E+06    -386.122E+03    -15.7233E-03     31.2228E-03    -15.4995E-03     37.0353E-03    -15.6997E-03     30.9846E-03    -15.3915E-03     37.0208E-03
             473     9.74884E-03     66.3447E-03    -5.69818E+06    -47.7567E+06     5.65220E+06    -289.051E+03    -15.8119E-03     31.3050E-03    -15.4931E-03     41.2702E-03    -15.7868E-03     31.0738E-03    -15.3873E-03     41.2538E-03
             474     10.6351E-03     66.3849E-03    -4.74170E+06    -44.2865E+06     4.41768E+06    -224.155E+03    -15.9023E-03     31.3794E-03    -15.4771E-03     45.4529E-03    -15.8797E-03     31.1699E-03    -15.3839E-03     45.4334E-03
             475     11.5214E-03     66.4291E-03    -3.88238E+06    -36.5031E+06     5.13983E+06     49.2702E+03    -15.9933E-03     31.4585E-03    -15.4652E-03     49.7730E-03    -15.9851E-03     31.2921E-03    -15.3810E-03     49.7520E-03
             476     12.4077E-03     66.4772E-03    -3.32947E+06    -34.4521E+06     2.36708E+06    -32.7283E+03    -16.1335E-03     31.5785E-03    -15.4450E-03     55.2261E-03    -16.1329E-03     31.4369E-03    -15.3784E-03     55.1975E-03
             477     13.2940E-03     66.5316E-03    -2.93854E+06    -25.1481E+06    -2.06446E+06    -281.982E+03    -16.2083E-03     31.6124E-03    -15.4041E-03     61.0458E-03    -16.2325E-03     31.5428E-03    -15.3737E-03     61.0072E-03
             478     14.1805E-03     66.5900E-03    -2.12276E+06     1.36217E+06     1.63591E+06    -92.1633E+03    -16.0588E-03     31.4273E-03    -15.3685E-03     66.6825E-03    -16.1534E-03     31.5145E-03    -15.3592E-03     66.6444E-03
             479     15.0672E-03     66.6545E-03    -1.33503E+06     25.1695E+06    -2.61288E+06    -240.678E+03    -16.1143E-03     31.3930E-03    -15.2787E-03     81.6892E-03    -16.3405E-03     31.7114E-03    -15.3263E-03     81.6684E-03
             480     15.9547E-03     66.7404E-03    -2.06554E+06     62.6111E+06    -18.7534E+06    -753.777E+03    -17.7010E-03     32.8225E-03    -15.1215E-03     110.670E-03    -18.5066E-03     33.8974E-03    -15.3030E-03     110.868E-03
             481     16.8413E-03     66.8609E-03    -3.40111E+06     121.278E+06     21.8758E+06    -58.6227E+03    -17.3325E-03     32.5819E-03    -15.2494E-03     97.9477E-03    -18.4028E-03     34.0072E-03    -15.3109E-03     98.5070E-03
             482     886.250E-06     67.1251E-03    -21.3198E+06    -66.7743E+06    -20.9657E+06     51.5041E+03    -15.4569E-03     30.9241E-03    -15.4672E-03     3.56419E-03    -15.4359E-03     30.6520E-03    -15.4443E-03     3.56437E-03
             483     1.77238E-03     67.1296E-03    -20.6144E+06    -64.5833E+06    -18.1481E+06    -297.593E+03    -15.4613E-03     30.9312E-03    -15.4699E-03     6.61361E-03    -15.4444E-03     30.6645E-03    -15.4371E-03     6.60885E-03
             484     2.65870E-03     67.1373E-03    -19.2145E+06    -62.5663E+06    -14.0972E+06    -354.875E+03    -15.4613E-03     30.9430E-03    -15.4818E-03     9.94120E-03    -15.4463E-03     30.6786E-03    -15.4337E-03     9.93521E-03
             485     3.54485E-03     67.1481E-03    -17.4366E+06    -60.2748E+06    -9.85878E+06    -409.330E+03    -15.4659E-03     30.9578E-03    -15.4918E-03     13.3785E-03    -15.4517E-03     30.6963E-03    -15.4284E-03     13.3712E-03
             486     4.43113E-03     67.1621E-03    -15.4983E+06    -58.4905E+06    -5.88222E+06    -386.261E+03    -15.4779E-03     30.9778E-03    -15.4999E-03     16.9676E-03    -15.4626E-03     30.7169E-03    -15.4220E-03     16.9600E-03
             487     5.31742E-03     67.1796E-03    -13.4309E+06    -56.7485E+06    -2.41208E+06    -390.322E+03    -15.5069E-03     31.0121E-03    -15.5052E-03     20.7027E-03    -15.4892E-03     30.7522E-03    -15.4155E-03     20.6943E-03
             488     6.20365E-03     67.2005E-03    -11.5286E+06    -55.0735E+06     347.588E+03    -609.442E+03    -15.5459E-03     31.0536E-03    -15.5077E-03     24.5880E-03    -15.5255E-03     30.7958E-03    -15.4094E-03     24.5757E-03
             489     7.08995E-03     67.2252E-03    -9.82996E+06    -53.4710E+06     2.54812E+06    -594.052E+03    -15.5904E-03     31.0985E-03    -15.5080E-03     28.6291E-03    -15.5678E-03     30.8438E-03    -15.4035E-03     28.6159E-03
             490     7.97621E-03     67.2537E-03    -8.17841E+06    -51.9708E+06     4.46033E+06    -536.348E+03    -15.6452E-03     31.1521E-03    -15.5070E-03     32.7922E-03    -15.6203E-03     30.9008E-03    -15.3974E-03     32.7780E-03
             491     8.86255E-03     67.2861E-03    -6.80685E+06    -49.3081E+06     5.29896E+06    -566.070E+03    -15.7159E-03     31.2154E-03    -15.4995E-03     37.0526E-03    -15.6910E-03     30.9758E-03    -15.3916E-03     37.0358E-03
             492     9.74884E-03     67.3225E-03    -5.57435E+06    -47.7715E+06      5.7041E+06    -389.004E+03    -15.8016E-03     31.2939E-03    -15.4924E-03     41.2939E-03    -15.7759E-03     31.0623E-03    -15.3865E-03     41.2762E-03
             493     10.6351E-03     67.3627E-03    -4.52951E+06    -44.3213E+06     4.68799E+06    -354.558E+03    -15.8819E-03     31.3580E-03    -15.4760E-03     45.4769E-03    -15.8586E-03     31.1476E-03    -15.3818E-03     45.4557E-03
             494     11.5215E-03     67.4068E-03    -3.49723E+06    -36.8873E+06     5.24735E+06    -228.624E+03    -15.9483E-03     31.4094E-03    -15.4611E-03     49.8170E-03    -15.9378E-03     31.2403E-03    -15.3763E-03     49.7924E-03
             495     12.4078E-03     67.4552E-03    -2.63604E+06    -34.1528E+06     2.76456E+06    -76.2010E+03    -16.0451E-03     31.4814E-03    -15.4363E-03     55.2072E-03    -16.0420E-03     31.3397E-03    -15.3692E-03     55.1783E-03
             496     13.2943E-03     67.5089E-03    -2.33206E+06    -24.8070E+06    -1.62485E+06    -417.292E+03    -16.0785E-03     31.4677E-03    -15.3892E-03     60.8676E-03    -16.1007E-03     31.3983E-03    -15.3579E-03     60.8276E-03
             497     14.1808E-03     67.5679E-03    -2.21736E+06     1.11596E+06     1.72242E+06    -680.007E+03    -15.9521E-03     31.3001E-03    -15.3480E-03     66.1111E-03    -16.0463E-03     31.3853E-03    -15.3377E-03     66.0660E-03
             498     15.0678E-03     67.6312E-03    -1.91742E+06     25.8303E+06    -1.97534E+06    -625.533E+03    -16.3837E-03     31.6513E-03    -15.2677E-03     80.9151E-03    -16.6154E-03     31.9736E-03    -15.3122E-03     80.8879E-03
             499     15.9542E-03     67.7180E-03    -2.69969E+06     62.1016E+06    -18.9654E+06    -293.442E+03    -17.5976E-03     32.7129E-03    -15.1153E-03     110.238E-03    -18.4023E-03     33.7835E-03    -15.2963E-03     110.448E-03
             500     16.8411E-03     67.8379E-03    -2.89407E+06     120.361E+06     22.3270E+06     324.813E+03    -17.1533E-03     32.3939E-03    -15.2406E-03     95.6958E-03    -18.2011E-03     33.7941E-03    -15.2993E-03     96.2537E-03
             501     886.164E-06     68.1028E-03    -20.9213E+06    -66.5181E+06    -20.5631E+06    -55.0075E+03    -15.4310E-03     30.9329E-03    -15.5019E-03     3.54696E-03    -15.4090E-03     30.6609E-03    -15.4779E-03     3.54575E-03
             502     1.77249E-03     68.1074E-03    -20.1889E+06    -64.3142E+06    -17.9427E+06    -180.305E+03    -15.4517E-03     30.9221E-03    -15.4704E-03     6.59306E-03    -15.4334E-03     30.6558E-03    -15.4376E-03     6.58983E-03
             503     2.65860E-03     68.1151E-03    -18.9148E+06    -62.3795E+06    -13.9237E+06    -272.118E+03    -15.4608E-03     30.9405E-03    -15.4797E-03     9.93553E-03    -15.4449E-03     30.6764E-03    -15.4314E-03     9.93061E-03
             504     3.54492E-03     68.1259E-03    -17.2175E+06    -60.1001E+06    -9.75039E+06    -362.814E+03    -15.4694E-03     30.9596E-03    -15.4902E-03     13.3813E-03    -15.4545E-03     30.6985E-03    -15.4269E-03     13.3747E-03
             505     4.43113E-03     68.1399E-03    -15.3637E+06    -58.4014E+06    -5.91715E+06    -423.057E+03    -15.4871E-03     30.9864E-03    -15.4993E-03     16.9722E-03    -15.4712E-03     30.7258E-03    -15.4219E-03     16.9641E-03
             506     5.31737E-03     68.1573E-03    -13.4750E+06    -56.4460E+06    -2.81344E+06    -614.384E+03    -15.5078E-03     31.0113E-03    -15.5035E-03     20.7059E-03    -15.4901E-03     30.7535E-03    -15.4162E-03     20.6946E-03
             507     6.20367E-03     68.1783E-03    -11.6254E+06    -54.8468E+06    -7.16834E+03    -692.380E+03    -15.5427E-03     31.0490E-03    -15.5063E-03     24.5950E-03    -15.5226E-03     30.7929E-03    -15.4099E-03     24.5817E-03
             508     7.08993E-03     68.2030E-03    -9.89094E+06    -53.4576E+06     2.31795E+06    -747.947E+03    -15.5886E-03     31.0957E-03    -15.5071E-03     28.6357E-03    -15.5659E-03     30.8414E-03    -15.4036E-03     28.6204E-03
             509     7.97625E-03     68.2314E-03    -8.26077E+06    -51.8736E+06     4.28887E+06    -757.017E+03    -15.6465E-03     31.1527E-03    -15.5062E-03     32.8009E-03    -15.6220E-03     30.9022E-03    -15.3975E-03     32.7839E-03
             510     8.86254E-03     68.2639E-03    -6.76562E+06    -49.3710E+06     5.54231E+06    -627.114E+03    -15.7143E-03     31.2151E-03    -15.5008E-03     37.0415E-03    -15.6894E-03     30.9749E-03    -15.3917E-03     37.0239E-03
             511     9.74885E-03     68.3002E-03    -5.57314E+06    -47.9046E+06     5.86103E+06    -535.383E+03    -15.7868E-03     31.2796E-03    -15.4928E-03     41.2602E-03    -15.7612E-03     31.0471E-03    -15.3859E-03     41.2407E-03
             512     10.6352E-03     68.3404E-03    -4.44778E+06    -44.1029E+06     5.03549E+06    -572.805E+03    -15.8713E-03     31.3472E-03    -15.4758E-03     45.4382E-03    -15.8484E-03     31.1373E-03    -15.3803E-03     45.4142E-03
             513     11.5215E-03     68.3846E-03    -3.50811E+06    -37.1694E+06     5.39045E+06    -608.104E+03    -15.9100E-03     31.3692E-03    -15.4592E-03     49.7015E-03    -15.8992E-03     31.1984E-03    -15.3733E-03     49.6721E-03
             514     12.4080E-03     68.4327E-03    -2.70988E+06    -34.2112E+06     2.90414E+06    -368.567E+03    -16.0075E-03     31.4395E-03    -15.4320E-03     55.0366E-03    -16.0048E-03     31.2973E-03    -15.3639E-03     55.0040E-03
             515     13.2943E-03     68.4868E-03    -2.51326E+06    -24.5621E+06    -1.01405E+06    -205.577E+03    -16.1023E-03     31.4896E-03    -15.3873E-03     60.5037E-03    -16.1264E-03     31.4206E-03    -15.3531E-03     60.4664E-03
             516     14.1810E-03     68.5450E-03    -2.73270E+06     1.51614E+06     2.16375E+06    -435.500E+03    -16.0939E-03     31.4459E-03    -15.3520E-03     65.5417E-03    -16.1915E-03     31.5329E-03    -15.3394E-03     65.4992E-03
             517     15.0674E-03     68.6088E-03    -3.20985E+06     25.1156E+06    -2.51713E+06    -477.403E+03    -16.6036E-03     31.8845E-03    -15.2809E-03     80.7650E-03    -16.8401E-03     32.2061E-03    -15.3253E-03     80.7384E-03
             518     15.9535E-03     68.6960E-03    -4.02651E+06     61.5460E+06    -19.1629E+06    -122.796E+03    -17.9043E-03     33.0471E-03    -15.1428E-03     111.176E-03    -18.7179E-03     34.1205E-03    -15.3220E-03     111.381E-03
             519     16.8383E-03     68.8163E-03    -3.36316E+06     120.814E+06     22.1321E+06    -28.1954E+03    -16.9118E-03     32.1750E-03    -15.2632E-03     97.0416E-03    -17.9696E-03     33.5855E-03    -15.3228E-03     97.6033E-03
             520     886.210E-06     69.0806E-03    -21.3547E+06    -66.3233E+06    -21.1733E+06    -301.949E+03    -15.4449E-03     30.9321E-03    -15.4872E-03     3.53292E-03    -15.4244E-03     30.6626E-03    -15.4659E-03     3.52853E-03
             521     1.77236E-03     69.0852E-03    -20.5766E+06    -64.1174E+06    -18.3275E+06    -147.709E+03    -15.4506E-03     30.9208E-03    -15.4702E-03     6.61154E-03    -15.4339E-03     30.6566E-03    -15.4390E-03     6.60872E-03
             522     2.65870E-03     69.0929E-03    -19.1412E+06    -62.1772E+06    -14.3369E+06    -242.912E+03    -15.4521E-03     30.9297E-03    -15.4776E-03     9.93218E-03    -15.4370E-03     30.6675E-03    -15.4313E-03     9.92763E-03
             523     3.54488E-03     69.1036E-03    -17.3945E+06    -59.8749E+06    -10.1357E+06    -368.683E+03    -15.4661E-03     30.9529E-03    -15.4867E-03     13.3813E-03    -15.4519E-03     30.6937E-03    -15.4254E-03     13.3746E-03
             524     4.43114E-03     69.1177E-03    -15.4136E+06    -58.1327E+06    -6.18142E+06    -566.686E+03    -15.4878E-03     30.9840E-03    -15.4962E-03     16.9737E-03    -15.4721E-03     30.7252E-03    -15.4205E-03     16.9638E-03
             525     5.31741E-03     69.1351E-03    -13.4291E+06    -56.1025E+06    -2.94593E+06    -730.454E+03    -15.5109E-03     31.0124E-03    -15.5014E-03     20.7091E-03    -15.4933E-03     30.7565E-03    -15.4154E-03     20.6962E-03
             526     6.20365E-03     69.1561E-03    -11.6311E+06    -54.7742E+06    -100.838E+03    -803.485E+03    -15.5416E-03     31.0468E-03    -15.5052E-03     24.5937E-03    -15.5215E-03     30.7913E-03    -15.4094E-03     24.5790E-03
             527     7.08996E-03     69.1808E-03    -9.90495E+06    -53.0878E+06     2.48793E+06    -939.615E+03    -15.5903E-03     31.0973E-03    -15.5070E-03     28.6267E-03    -15.5685E-03     30.8447E-03    -15.4033E-03     28.6090E-03
             528     7.97624E-03     69.2092E-03    -8.29501E+06    -52.0112E+06     4.38674E+06    -926.490E+03    -15.6581E-03     31.1655E-03    -15.5074E-03     32.7866E-03    -15.6337E-03     30.9143E-03    -15.3980E-03     32.7674E-03
             529     8.86251E-03     69.2416E-03    -6.93164E+06    -49.4224E+06     5.55836E+06    -728.075E+03    -15.7199E-03     31.2225E-03    -15.5026E-03     37.0139E-03    -15.6958E-03     30.9822E-03    -15.3931E-03     36.9950E-03
             530     9.74884E-03     69.2779E-03    -5.54024E+06    -47.7877E+06     5.96372E+06    -753.882E+03    -15.7982E-03     31.2934E-03    -15.4952E-03     41.2242E-03    -15.7727E-03     31.0613E-03    -15.3880E-03     41.2018E-03
             531     10.6351E-03     69.3182E-03    -4.47915E+06    -44.0791E+06     4.97384E+06    -747.738E+03    -15.8743E-03     31.3525E-03    -15.4782E-03     45.3767E-03    -15.8515E-03     31.1429E-03    -15.3829E-03     45.3504E-03
             532     11.5215E-03     69.3623E-03    -3.73303E+06    -37.0635E+06     5.27533E+06    -711.261E+03    -15.9263E-03     31.3885E-03    -15.4622E-03     49.5398E-03    -15.9167E-03     31.2188E-03    -15.3767E-03     49.5091E-03
             533     12.4078E-03     69.4103E-03    -3.17615E+06    -34.6784E+06     2.64267E+06    -577.736E+03    -16.0411E-03     31.4785E-03    -15.4374E-03     54.8708E-03    -16.0397E-03     31.3350E-03    -15.3693E-03     54.8354E-03
             534     13.2943E-03     69.4644E-03    -2.93435E+06    -24.8409E+06    -1.21902E+06     43.0619E+03    -16.2004E-03     31.5975E-03    -15.3971E-03     60.3226E-03    -16.2259E-03     31.5279E-03    -15.3629E-03     60.2881E-03
             535     14.1804E-03     69.5227E-03    -3.28411E+06     1.71360E+06     1.79878E+06     357.850E+03    -16.2518E-03     31.6200E-03    -15.3682E-03     65.3906E-03    -16.3521E-03     31.7095E-03    -15.3569E-03     65.3576E-03
             536     15.0669E-03     69.5865E-03    -3.67829E+06     25.5187E+06    -3.06232E+06    -137.404E+03    -16.6672E-03     31.9689E-03    -15.3017E-03     80.7724E-03    -16.9065E-03     32.2946E-03    -15.3487E-03     80.7495E-03
             537     15.9539E-03     69.6734E-03    -3.00291E+06     61.0608E+06    -17.4858E+06    -566.728E+03    -17.4822E-03     32.6448E-03    -15.1625E-03     111.362E-03    -18.2893E-03     33.7086E-03    -15.3341E-03     111.567E-03
             538     16.8414E-03     69.7955E-03    -2.57857E+06     120.529E+06     25.0320E+06    -471.792E+03    -16.7282E-03     31.9997E-03    -15.2716E-03     97.1749E-03    -17.7821E-03     33.3998E-03    -15.3174E-03     97.7371E-03
             539     886.217E-06     70.0584E-03    -21.5315E+06    -66.1624E+06    -20.7944E+06    -197.120E+03    -15.4792E-03     30.9259E-03    -15.4467E-03     3.48798E-03    -15.4604E-03     30.6569E-03    -15.4235E-03     3.48496E-03
             540     1.77248E-03     70.0630E-03    -20.7543E+06    -63.9154E+06    -18.5269E+06    -149.342E+03    -15.4499E-03     30.9166E-03    -15.4667E-03     6.60606E-03    -15.4342E-03     30.6540E-03    -15.4365E-03     6.60322E-03
             541     2.65861E-03     70.0706E-03    -19.3970E+06    -61.8851E+06    -14.8522E+06    -359.967E+03    -15.4542E-03     30.9281E-03    -15.4738E-03     9.94150E-03    -15.4401E-03     30.6684E-03    -15.4302E-03     9.93543E-03
             542     3.54491E-03     70.0815E-03    -17.5949E+06    -59.5851E+06    -10.6659E+06    -518.389E+03    -15.4632E-03     30.9465E-03    -15.4833E-03     13.3885E-03    -15.4496E-03     30.6899E-03    -15.4247E-03     13.3799E-03
             543     4.43115E-03     70.0955E-03    -15.6581E+06    -57.6805E+06    -6.48510E+06    -777.472E+03    -15.4815E-03     30.9747E-03    -15.4932E-03     16.9720E-03    -15.4673E-03     30.7190E-03    -15.4193E-03     16.9593E-03
             544     5.31739E-03     70.1129E-03    -13.7220E+06    -55.9861E+06    -2.97078E+06    -853.554E+03    -15.5112E-03     31.0115E-03    -15.5003E-03     20.7000E-03    -15.4952E-03     30.7566E-03    -15.4141E-03     20.6856E-03
             545     6.20368E-03     70.1339E-03    -11.9000E+06    -54.5079E+06    -57.4396E+03    -882.707E+03    -15.5494E-03     31.0545E-03    -15.5051E-03     24.5770E-03    -15.5311E-03     30.8007E-03    -15.4091E-03     24.5612E-03
             546     7.08994E-03     70.1585E-03    -10.2685E+06    -52.7689E+06     2.34702E+06    -1.02571E+06    -15.5985E-03     31.1059E-03    -15.5074E-03     28.6204E-03    -15.5788E-03     30.8556E-03    -15.4043E-03     28.6016E-03
             547     7.97621E-03     70.1870E-03    -8.76961E+06    -52.0935E+06     4.10779E+06    -1.01507E+06    -15.6622E-03     31.1708E-03    -15.5086E-03     32.7774E-03    -15.6396E-03     30.9203E-03    -15.3998E-03     32.7570E-03
             548     8.86251E-03     70.2194E-03    -7.13443E+06    -49.3075E+06     5.14399E+06    -1.04080E+06    -15.7327E-03     31.2360E-03    -15.5032E-03     37.0038E-03    -15.7092E-03     30.9972E-03    -15.3957E-03     36.9808E-03
             549     9.74878E-03     70.2558E-03    -5.66950E+06    -47.6445E+06     5.61551E+06    -1.09344E+06    -15.8168E-03     31.3141E-03    -15.4973E-03     41.2203E-03    -15.7917E-03     31.0834E-03    -15.3919E-03     41.1935E-03
             550     10.6351E-03     70.2960E-03    -4.49307E+06    -44.2841E+06      4.5939E+06    -897.566E+03    -15.8977E-03     31.3796E-03    -15.4819E-03     45.3530E-03    -15.8741E-03     31.1696E-03    -15.3882E-03     45.3247E-03
             551     11.5213E-03     70.3400E-03    -3.54586E+06    -36.8723E+06     5.04862E+06    -802.829E+03    -15.9664E-03     31.4343E-03    -15.4679E-03     49.5207E-03    -15.9558E-03     31.2656E-03    -15.3840E-03     49.4886E-03
             552     12.4077E-03     70.3881E-03    -2.91272E+06    -35.1597E+06     2.43849E+06    -572.731E+03    -16.0947E-03     31.5413E-03    -15.4467E-03     54.8581E-03    -16.0909E-03     31.3954E-03    -15.3793E-03     54.8227E-03
             553     13.2939E-03     70.4421E-03    -2.64463E+06    -25.6603E+06    -1.86633E+06     58.9457E+03    -16.2565E-03     31.6637E-03    -15.4072E-03     60.5011E-03    -16.2785E-03     31.5906E-03    -15.3755E-03     60.4668E-03
             554     14.1803E-03     70.5007E-03    -2.46158E+06     1.23142E+06     1.40172E+06     914.680E+03    -16.3027E-03     31.6831E-03    -15.3804E-03     65.4837E-03    -16.3978E-03     31.7698E-03    -15.3716E-03     65.4577E-03
             555     15.0668E-03     70.5638E-03    -2.82526E+06     26.9427E+06    -2.40440E+06     707.092E+03    -16.6953E-03     32.0124E-03    -15.3172E-03     81.0049E-03    -16.9342E-03     32.3440E-03    -15.3642E-03     80.9930E-03
             556     15.9524E-03     70.6517E-03    -4.74850E+06      62.181E+06    -17.8699E+06    -1.21581E+06    -17.6560E-03     32.8384E-03    -15.1825E-03     110.921E-03    -18.4726E-03     33.9108E-03    -15.3551E-03     111.117E-03
             557     16.8396E-03     70.7703E-03    -4.86196E+06     119.363E+06     23.0055E+06    -1.45146E+06    -16.6884E-03     31.9808E-03    -15.2925E-03     96.5825E-03    -17.7491E-03     33.3814E-03    -15.3435E-03     97.1332E-03
             558     886.170E-06     71.0362E-03    -23.6589E+06    -65.9419E+06    -22.9037E+06    -55.8680E+03    -15.4504E-03     30.9112E-03    -15.4607E-03     3.43880E-03    -15.4395E-03     30.6494E-03    -15.4453E-03     3.43765E-03
             559     1.77239E-03     71.0408E-03    -22.2986E+06    -63.5686E+06    -19.9464E+06    -373.600E+03    -15.4456E-03     30.9077E-03    -15.4621E-03     6.59157E-03    -15.4360E-03     30.6512E-03    -15.4373E-03     6.58584E-03
             560     2.65871E-03     71.0485E-03    -20.5665E+06    -61.3653E+06    -16.0627E+06    -668.274E+03    -15.4496E-03     30.9193E-03    -15.4697E-03     9.93291E-03    -15.4403E-03     30.6657E-03    -15.4312E-03     9.92288E-03
             561     3.54488E-03     71.0592E-03    -18.5390E+06    -59.2598E+06    -11.5103E+06    -889.218E+03    -15.4595E-03     30.9403E-03    -15.4808E-03     13.3799E-03    -15.4499E-03     30.6879E-03    -15.4255E-03     13.3664E-03
             562     4.43115E-03     71.0733E-03    -16.3703E+06    -57.2213E+06    -6.92138E+06    -980.748E+03    -15.4772E-03     30.9692E-03    -15.4920E-03     16.9662E-03    -15.4666E-03     30.7174E-03    -15.4199E-03     16.9509E-03
             563     5.31741E-03     71.0907E-03    -14.3116E+06    -55.9639E+06    -3.09407E+06    -995.082E+03    -15.5097E-03     31.0108E-03    -15.5011E-03     20.6886E-03    -15.4965E-03     30.7571E-03    -15.4146E-03     20.6724E-03
             564     6.20366E-03     71.1117E-03    -12.2972E+06    -54.0920E+06    -231.770E+03    -1.08980E+06    -15.5530E-03     31.0582E-03    -15.5052E-03     24.5740E-03    -15.5371E-03     30.8073E-03    -15.4101E-03     24.5556E-03
             565     7.08992E-03     71.1363E-03    -10.3768E+06    -52.6901E+06     2.08521E+06    -1.12783E+06    -15.6047E-03     31.1125E-03    -15.5078E-03     28.6215E-03    -15.5853E-03     30.8631E-03    -15.4059E-03     28.6013E-03
             566     7.97622E-03     71.1648E-03    -8.66108E+06    -51.8627E+06     3.88349E+06    -1.15333E+06    -15.6687E-03     31.1778E-03    -15.5092E-03     32.7811E-03    -15.6456E-03     30.9286E-03    -15.4020E-03     32.7589E-03
             567     8.86246E-03     71.1972E-03    -7.19330E+06    -48.9766E+06     4.75980E+06    -1.41355E+06    -15.7404E-03     31.2439E-03    -15.5036E-03     37.0192E-03    -15.7171E-03     31.0074E-03    -15.3983E-03     36.9913E-03
             568     9.74876E-03     71.2335E-03    -5.84297E+06    -47.6887E+06     5.25640E+06    -1.39454E+06    -15.8213E-03     31.3201E-03    -15.4987E-03     41.2461E-03    -15.7965E-03     31.0899E-03    -15.3948E-03     41.2154E-03
             569     10.6350E-03     71.2738E-03    -4.62068E+06    -44.3518E+06     4.30476E+06    -1.29723E+06    -15.9015E-03     31.3853E-03    -15.4838E-03     45.4069E-03    -15.8780E-03     31.1755E-03    -15.3912E-03     45.3735E-03
             570     11.5213E-03     71.3178E-03    -3.53071E+06    -36.9629E+06     4.93072E+06    -1.10221E+06    -15.9751E-03     31.4456E-03    -15.4705E-03     49.6296E-03    -15.9641E-03     31.2765E-03    -15.3871E-03     49.5937E-03
             571     12.4076E-03     71.3658E-03    -2.59222E+06    -35.5123E+06     2.40183E+06    -841.830E+03    -16.1071E-03     31.5570E-03    -15.4499E-03     54.9850E-03    -16.1013E-03     31.4089E-03    -15.3826E-03     54.9461E-03
             572     13.2940E-03     71.4199E-03    -1.79160E+06    -26.5618E+06    -1.94332E+06    -334.195E+03    -16.2206E-03     31.6292E-03    -15.4086E-03     60.7613E-03    -16.2368E-03     31.5504E-03    -15.3772E-03     60.7221E-03
             573     14.1803E-03     71.4785E-03    -578.618E+03      428.63E+03     1.90936E+06     351.519E+03    -16.2282E-03     31.6067E-03    -15.3785E-03     65.8335E-03    -16.3134E-03     31.6858E-03    -15.3687E-03     65.8006E-03
             574     15.0664E-03     71.5418E-03    -92.9403E+03     26.4911E+06    -1.35735E+06     1.32534E+06    -16.7265E-03     32.0400E-03    -15.3135E-03     81.4117E-03    -16.9534E-03     32.3645E-03    -15.3585E-03     81.4078E-03
             575     15.9541E-03     71.6290E-03    -2.90868E+06     64.9395E+06    -17.7216E+06     1.35357E+06    -18.2547E-03     33.4402E-03    -15.1855E-03     112.055E-03    -19.0746E-03     34.5317E-03    -15.3640E-03     112.279E-03
             576     16.8377E-03     71.7508E-03    -2.84422E+06     120.225E+06     23.1777E+06    -1.23136E+06    -16.6240E-03     31.9332E-03    -15.3092E-03     96.6777E-03    -17.6814E-03     33.3401E-03    -15.3635E-03     97.2342E-03
             577     886.264E-06     72.0140E-03    -22.7178E+06    -65.4076E+06    -22.6085E+06    -268.528E+03    -15.4118E-03     30.9165E-03    -15.5047E-03     3.45904E-03    -15.3974E-03     30.6557E-03    -15.4900E-03     3.45512E-03
             578     1.77243E-03     72.0186E-03    -22.1470E+06    -62.9469E+06    -20.1181E+06    -709.111E+03    -15.4557E-03     30.9188E-03    -15.4631E-03     6.59260E-03    -15.4460E-03     30.6654E-03    -15.4403E-03     6.58255E-03
             579     2.65860E-03     72.0262E-03    -20.7071E+06    -60.8389E+06    -16.0264E+06    -899.468E+03    -15.4491E-03     30.9226E-03    -15.4735E-03     9.93134E-03    -15.4413E-03     30.6718E-03    -15.4354E-03     9.91833E-03
             580     3.54489E-03     72.0370E-03    -18.9562E+06    -58.7025E+06    -11.5444E+06    -1.14108E+06    -15.4570E-03     30.9408E-03    -15.4837E-03     13.3793E-03    -15.4503E-03     30.6918E-03    -15.4289E-03     13.3626E-03
             581     4.43113E-03     72.0510E-03    -17.0012E+06    -57.0956E+06    -7.30988E+06    -1.18736E+06    -15.4781E-03     30.9719E-03    -15.4938E-03     16.9588E-03    -15.4702E-03     30.7222E-03    -15.4229E-03     16.9409E-03
             582     5.31738E-03     72.0685E-03    -14.9047E+06    -55.5989E+06    -3.61791E+06    -1.21633E+06    -15.5063E-03     31.0078E-03    -15.5016E-03     20.6826E-03    -15.4958E-03     30.7576E-03    -15.4174E-03     20.6636E-03
             583     6.20365E-03     72.0894E-03    -12.8417E+06    -53.7464E+06    -776.699E+03    -1.40988E+06    -15.5470E-03     31.0519E-03    -15.5049E-03     24.5765E-03    -15.5335E-03     30.8043E-03    -15.4122E-03     24.5540E-03
             584     7.08993E-03     72.1141E-03    -10.9559E+06    -52.5954E+06     1.43220E+06    -1.42783E+06    -15.6031E-03     31.1100E-03    -15.5069E-03     28.6227E-03    -15.5857E-03     30.8629E-03    -15.4076E-03     28.5987E-03
             585     7.97616E-03     72.1426E-03    -9.08466E+06    -51.4407E+06     3.41204E+06    -1.58661E+06    -15.6648E-03     31.1729E-03    -15.5082E-03     32.7974E-03    -15.6437E-03     30.9271E-03    -15.4034E-03     32.7697E-03
             586     8.86247E-03     72.1750E-03    -7.34692E+06    -48.6794E+06     4.68385E+06    -1.67672E+06    -15.7322E-03     31.2359E-03    -15.5037E-03     37.0525E-03    -15.7099E-03     31.0012E-03    -15.3991E-03     37.0213E-03
             587     9.74874E-03     72.2113E-03    -6.01561E+06    -47.7036E+06     5.08579E+06    -1.66471E+06    -15.8128E-03     31.3109E-03    -15.4981E-03     41.2766E-03    -15.7886E-03     31.0812E-03    -15.3948E-03     41.2424E-03
             588     10.6351E-03     72.2516E-03    -5.00238E+06    -44.2631E+06     4.15842E+06    -1.59396E+06    -15.8865E-03     31.3690E-03    -15.4825E-03     45.4316E-03    -15.8648E-03     31.1604E-03    -15.3903E-03     45.3944E-03
             589     11.5214E-03     72.2955E-03    -4.11864E+06    -37.1816E+06     4.63502E+06    -1.47248E+06    -15.9588E-03     31.4269E-03    -15.4682E-03     49.6595E-03    -15.9500E-03     31.2581E-03    -15.3851E-03     49.6189E-03
             590     12.4078E-03     72.3437E-03    -3.42325E+06    -35.6446E+06     1.88733E+06    -1.25198E+06    -16.1139E-03     31.5606E-03    -15.4467E-03     54.9697E-03    -16.1114E-03     31.4139E-03    -15.3806E-03     54.9254E-03
             591     13.2941E-03     72.3975E-03    -2.88145E+06    -27.1221E+06    -2.62444E+06    -1.11606E+06    -16.2027E-03     31.6085E-03    -15.4059E-03     60.5712E-03    -16.2227E-03     31.5296E-03    -15.3755E-03     60.5218E-03
             592     14.1806E-03     72.4563E-03    -2.34577E+06     165.310E+03     1.38320E+06    -969.516E+03    -16.3525E-03     31.7338E-03    -15.3813E-03     65.4615E-03    -16.4457E-03     31.8152E-03    -15.3712E-03     65.4110E-03
             593     15.0677E-03     72.5192E-03    -1.31769E+06     25.1434E+06    -2.14863E+06    -639.707E+03    -17.2794E-03     32.6168E-03    -15.3374E-03     80.3748E-03    -17.5127E-03     32.9409E-03    -15.3827E-03     80.3419E-03
             594     15.9523E-03     72.6076E-03     2.63637E+06     63.9664E+06    -15.5369E+06     969.503E+03    -17.3337E-03     32.5399E-03    -15.2062E-03     110.641E-03    -18.1134E-03     33.6012E-03    -15.3805E-03     110.872E-03
             595     16.8401E-03     72.7297E-03     3.53403E+06     121.815E+06     27.4041E+06     1.89358E+06    -15.9357E-03     31.2281E-03    -15.2923E-03     96.8939E-03    -16.9577E-03     32.6156E-03    -15.3371E-03     97.5009E-03
             596     886.139E-06     72.9918E-03    -22.2038E+06    -64.7479E+06    -21.7164E+06    -289.287E+03    -15.4167E-03     30.9192E-03    -15.5026E-03     3.48971E-03    -15.4019E-03     30.6596E-03    -15.4851E-03     3.48551E-03
             597     1.77241E-03     72.9964E-03    -21.4996E+06    -62.2158E+06    -19.3593E+06    -610.391E+03    -15.4600E-03     30.9254E-03    -15.4654E-03     6.59865E-03    -15.4492E-03     30.6736E-03    -15.4408E-03     6.58987E-03
             598     2.65866E-03     73.0040E-03    -20.3739E+06    -60.2691E+06    -15.4483E+06    -885.670E+03    -15.4620E-03     30.9399E-03    -15.4779E-03     9.93427E-03    -15.4542E-03     30.6907E-03    -15.4382E-03     9.92142E-03
             599     3.54487E-03     73.0148E-03    -18.7144E+06    -58.1576E+06    -11.1689E+06    -1.08529E+06    -15.4668E-03     30.9563E-03    -15.4896E-03     13.3703E-03    -15.4601E-03     30.7092E-03    -15.4340E-03     13.3543E-03
             600     4.43110E-03     73.0289E-03    -16.8914E+06    -56.8325E+06    -7.27153E+06    -1.23504E+06    -15.4784E-03     30.9771E-03    -15.4987E-03     16.9431E-03    -15.4705E-03     30.7285E-03    -15.4281E-03     16.9245E-03
             601     5.31737E-03     73.0462E-03    -14.9168E+06    -55.0259E+06    -4.03069E+06    -1.50063E+06    -15.5010E-03     31.0037E-03    -15.5027E-03     20.6814E-03    -15.4908E-03     30.7569E-03    -15.4214E-03     20.6586E-03
             602     6.20364E-03     73.0673E-03    -12.9358E+06    -53.4051E+06    -1.04156E+06    -1.67800E+06    -15.5433E-03     31.0493E-03    -15.5060E-03     24.5817E-03    -15.5304E-03     30.8039E-03    -15.4150E-03     24.5557E-03
             603     7.08988E-03     73.0919E-03    -10.9466E+06    -52.2994E+06     1.49806E+06    -1.83024E+06    -15.5961E-03     31.1048E-03    -15.5086E-03     28.6249E-03    -15.5792E-03     30.8590E-03    -15.4095E-03     28.5957E-03
             604     7.97620E-03     73.1204E-03    -9.16418E+06    -50.9779E+06     3.42192E+06    -1.97254E+06    -15.6547E-03     31.1632E-03    -15.5085E-03     32.7951E-03    -15.6347E-03     30.9198E-03    -15.4042E-03     32.7624E-03
             605     8.86247E-03     73.1527E-03    -7.63418E+06    -48.5510E+06     4.48084E+06    -2.04162E+06    -15.7206E-03     31.2233E-03    -15.5027E-03     37.0449E-03    -15.6997E-03     30.9900E-03    -15.3989E-03     37.0090E-03
             606     9.74879E-03     73.1892E-03    -6.26019E+06    -47.6557E+06     4.75433E+06    -1.87756E+06    -15.8008E-03     31.2964E-03    -15.4956E-03     41.2579E-03    -15.7774E-03     31.0678E-03    -15.3937E-03     41.2210E-03
             607     10.6351E-03     73.2293E-03    -5.14992E+06    -44.1643E+06     3.69785E+06    -1.80309E+06    -15.8875E-03     31.3664E-03    -15.4788E-03     45.4060E-03    -15.8661E-03     31.1592E-03    -15.3889E-03     45.3660E-03
             608     11.5214E-03     73.2734E-03    -4.27698E+06    -37.2674E+06     4.09090E+06    -1.67005E+06    -15.9669E-03     31.4318E-03    -15.4649E-03     49.6147E-03    -15.9580E-03     31.2636E-03    -15.3842E-03     49.5715E-03
             609     12.4077E-03     73.3213E-03    -3.60669E+06    -35.8249E+06     1.15032E+06    -1.42530E+06    -16.1303E-03     31.5739E-03    -15.4436E-03     54.9584E-03    -16.1274E-03     31.4277E-03    -15.3807E-03     54.9118E-03
             610     13.2938E-03     73.3755E-03    -3.53690E+06    -26.9991E+06    -3.48415E+06    -1.33228E+06    -16.3166E-03     31.7235E-03    -15.4068E-03     60.4792E-03    -16.3392E-03     31.6477E-03    -15.3800E-03     60.4266E-03
             611     14.1801E-03     73.4335E-03    -3.04158E+06     236.914E+03     493.353E+03    -1.59688E+06    -16.6140E-03     32.0073E-03    -15.3932E-03     66.0116E-03    -16.7108E-03     32.0927E-03    -15.3867E-03     65.9519E-03
             612     15.0645E-03     73.4987E-03    -3.08504E+06     25.4907E+06    -3.57439E+06    -1.56464E+06    -17.0539E-03     32.3998E-03    -15.3459E-03     82.2713E-03    -17.2972E-03     32.7329E-03    -15.3963E-03     82.2293E-03
             613     15.9500E-03     73.5862E-03    -3.57142E+06     61.1363E+06    -19.6575E+06    -455.851E+03    -16.7183E-03     31.9062E-03    -15.1880E-03     110.329E-03    -17.5059E-03     32.9553E-03    -15.3697E-03     110.546E-03
             614     16.8424E-03     73.6989E-03    -3.00277E+06     120.477E+06     21.5119E+06     1.59922E+06    -16.1302E-03     31.3849E-03    -15.2547E-03     98.2785E-03    -17.1768E-03     32.7862E-03    -15.3175E-03     98.8802E-03
             615     886.290E-06     73.9696E-03    -23.1169E+06    -63.9981E+06    -22.7334E+06    -543.870E+03    -15.4590E-03     30.9101E-03    -15.4512E-03     3.53668E-03    -15.4484E-03     30.6571E-03    -15.4385E-03     3.52919E-03
             616     1.77243E-03     73.9741E-03    -22.0231E+06    -61.7407E+06    -19.3314E+06    -572.283E+03    -15.4700E-03     30.9382E-03    -15.4682E-03     6.58705E-03    -15.4625E-03     30.6895E-03    -15.4434E-03     6.57876E-03
             617     2.65862E-03     73.9818E-03    -20.4064E+06    -59.5762E+06    -15.2620E+06    -779.245E+03    -15.4717E-03     30.9557E-03    -15.4840E-03     9.90811E-03    -15.4653E-03     30.7097E-03    -15.4444E-03     9.89665E-03
             618     3.54482E-03     73.9926E-03    -18.5807E+06    -57.6364E+06    -11.1110E+06    -1.09800E+06    -15.4698E-03     30.9653E-03    -15.4955E-03     13.3557E-03    -15.4633E-03     30.7204E-03    -15.4405E-03     13.3395E-03
             619     4.43107E-03     74.0066E-03    -16.4703E+06    -56.2871E+06    -7.07428E+06    -1.37392E+06    -15.4787E-03     30.9825E-03    -15.5038E-03     16.9413E-03    -15.4697E-03     30.7357E-03    -15.4337E-03     16.9210E-03
             620     5.31734E-03     74.0241E-03    -14.4161E+06    -54.3436E+06    -3.75256E+06    -1.71311E+06    -15.5030E-03     31.0099E-03    -15.5070E-03     20.6736E-03    -15.4917E-03     30.7654E-03    -15.4260E-03     20.6481E-03
             621     6.20361E-03     74.0450E-03    -12.4723E+06    -53.0447E+06    -865.420E+03    -1.94619E+06    -15.5383E-03     31.0476E-03    -15.5093E-03     24.5774E-03    -15.5238E-03     30.8030E-03    -15.4186E-03     24.5479E-03
             622     7.08990E-03     74.0697E-03    -10.6922E+06    -51.7304E+06     1.57790E+06    -2.14141E+06    -15.5900E-03     31.1002E-03    -15.5102E-03     28.6231E-03    -15.5728E-03     30.8568E-03    -15.4118E-03     28.5898E-03
             623     7.97616E-03     74.0981E-03    -9.02881E+06    -50.7515E+06     3.26355E+06    -2.23672E+06    -15.6563E-03     31.1652E-03    -15.5089E-03     32.7796E-03    -15.6357E-03     30.9230E-03    -15.4059E-03     32.7434E-03
             624     8.86246E-03     74.1306E-03    -7.60693E+06    -48.2751E+06      4.2339E+06    -2.18488E+06    -15.7168E-03     31.2194E-03    -15.5026E-03     37.0096E-03    -15.6958E-03     30.9877E-03    -15.4004E-03     36.9718E-03
             625     9.74877E-03     74.1668E-03    -6.28372E+06    -47.5919E+06     4.43649E+06    -2.27756E+06    -15.7972E-03     31.2922E-03    -15.4950E-03     41.2278E-03    -15.7735E-03     31.0644E-03    -15.3947E-03     41.1857E-03
             626     10.6351E-03     74.2071E-03    -5.06209E+06    -44.1305E+06     3.36458E+06    -2.09723E+06    -15.8870E-03     31.3648E-03    -15.4778E-03     45.3830E-03    -15.8647E-03     31.1581E-03    -15.3897E-03     45.3393E-03
             627     11.5214E-03     74.2511E-03    -4.08128E+06    -37.3587E+06     3.92689E+06    -1.89714E+06    -15.9688E-03     31.4335E-03    -15.4647E-03     49.6281E-03    -15.9586E-03     31.2648E-03    -15.3850E-03     49.5819E-03
             628     12.4077E-03     74.2993E-03    -3.38775E+06    -36.0993E+06     949.628E+03    -1.61719E+06    -16.1008E-03     31.5430E-03    -15.4422E-03     55.0226E-03    -16.0960E-03     31.3953E-03    -15.3802E-03     54.9737E-03
             629     13.2941E-03     74.3531E-03    -2.80302E+06    -26.7856E+06    -3.31567E+06    -1.38327E+06    -16.3352E-03     31.7400E-03    -15.4048E-03     60.8696E-03    -16.3548E-03     31.6642E-03    -15.3785E-03     60.8163E-03
             630     14.1800E-03     74.4121E-03    -3.05179E+06     308.014E+03     230.742E+03    -1.45304E+06    -16.2519E-03     31.6307E-03    -15.3788E-03     66.7755E-03    -16.3483E-03     31.7166E-03    -15.3737E-03     66.7191E-03
             631     15.0678E-03     74.4766E-03    -2.81502E+06     25.2344E+06    -3.43181E+06    -780.521E+03    -16.0475E-03     31.3413E-03    -15.2938E-03     82.1758E-03    -16.2808E-03     31.6641E-03    -15.3435E-03     82.1495E-03
             632     15.9577E-03     74.5622E-03    -3.92080E+06     60.2373E+06    -21.1942E+06     372.197E+03    -17.8046E-03     32.9379E-03    -15.1333E-03     109.901E-03    -18.5959E-03     33.9906E-03    -15.3210E-03     110.099E-03
             633     16.8375E-03     74.6794E-03    -4.74962E+06     120.038E+06     20.5781E+06     393.548E+03    -17.2446E-03     32.5107E-03    -15.2660E-03     97.9564E-03    -18.3090E-03     33.9247E-03    -15.3303E-03     98.5187E-03
             634     886.133E-06     74.9473E-03    -23.8895E+06    -63.3155E+06    -22.9261E+06    -375.284E+03    -15.5150E-03     30.9348E-03    -15.4199E-03     3.50004E-03    -15.5090E-03     30.6866E-03    -15.4080E-03     3.49472E-03
             635     1.77240E-03     74.9520E-03    -23.0255E+06    -61.1174E+06    -20.3227E+06    -605.302E+03    -15.4633E-03     30.9387E-03    -15.4754E-03     6.59437E-03    -15.4603E-03     30.6960E-03    -15.4550E-03     6.58565E-03
             636     2.65857E-03     74.9596E-03    -21.2600E+06    -58.8123E+06    -16.1196E+06    -1.08887E+06    -15.4645E-03     30.9509E-03    -15.4864E-03     9.93358E-03    -15.4622E-03     30.7111E-03    -15.4509E-03     9.91812E-03
             637     3.54483E-03     74.9704E-03    -18.9963E+06    -57.0232E+06    -11.5969E+06    -1.38064E+06    -15.4662E-03     30.9632E-03    -15.4970E-03     13.3646E-03    -15.4620E-03     30.7228E-03    -15.4448E-03     13.3448E-03
             638     4.43106E-03     74.9844E-03    -16.8431E+06    -55.6028E+06    -7.40096E+06    -1.68620E+06    -15.4797E-03     30.9849E-03    -15.5052E-03     16.9496E-03    -15.4731E-03     30.7426E-03    -15.4372E-03     16.9252E-03
             639     5.31731E-03     75.0019E-03    -14.7718E+06    -53.7000E+06    -4.03818E+06    -1.94128E+06    -15.5042E-03     31.0129E-03    -15.5086E-03     20.6873E-03    -15.4952E-03     30.7725E-03    -15.4295E-03     20.6589E-03
             640     6.20357E-03     75.0228E-03    -12.8563E+06    -52.4965E+06    -1.33591E+06    -2.18006E+06    -15.5399E-03     31.0501E-03    -15.5102E-03     24.5757E-03    -15.5275E-03     30.8095E-03    -15.4221E-03     24.5432E-03
             641     7.08987E-03     75.0474E-03    -11.0510E+06    -51.2006E+06     952.312E+03    -2.38250E+06    -15.5894E-03     31.0995E-03    -15.5102E-03     28.6188E-03    -15.5738E-03     30.8603E-03    -15.4151E-03     28.5825E-03
             642     7.97615E-03     75.0760E-03    -9.41038E+06    -50.4714E+06     2.79253E+06    -2.48925E+06    -15.6531E-03     31.1629E-03    -15.5097E-03     32.7702E-03    -15.6342E-03     30.9233E-03    -15.4089E-03     32.7307E-03
             643     8.86243E-03     75.1083E-03    -7.81464E+06    -48.0839E+06     3.84858E+06    -2.47827E+06    -15.7213E-03     31.2249E-03    -15.5036E-03     36.9992E-03    -15.7011E-03     30.9950E-03    -15.4033E-03     36.9576E-03
             644     9.74873E-03     75.1447E-03    -6.53239E+06    -47.1722E+06     4.22876E+06    -2.50203E+06    -15.7979E-03     31.2947E-03    -15.4968E-03     41.2135E-03    -15.7758E-03     31.0696E-03    -15.3977E-03     41.1685E-03
             645     10.6350E-03     75.1848E-03    -5.47494E+06    -44.2772E+06     3.06590E+06    -2.53467E+06    -15.8773E-03     31.3570E-03    -15.4797E-03     45.3772E-03    -15.8565E-03     31.1506E-03    -15.3922E-03     45.3278E-03
             646     11.5214E-03     75.2290E-03    -4.38198E+06    -37.3138E+06     3.71247E+06    -2.32918E+06    -15.9485E-03     31.4139E-03    -15.4653E-03     49.6087E-03    -15.9396E-03     31.2461E-03    -15.3863E-03     49.5570E-03
             647     12.4078E-03     75.2769E-03    -3.35249E+06    -36.3660E+06     942.360E+03    -2.12698E+06    -16.0898E-03     31.5326E-03    -15.4428E-03     54.9312E-03    -16.0843E-03     31.3834E-03    -15.3805E-03     54.8758E-03
             648     13.2940E-03     75.3309E-03    -2.96864E+06    -27.0675E+06    -3.33187E+06    -1.69200E+06    -16.2118E-03     31.6132E-03    -15.4014E-03     60.8293E-03    -16.2318E-03     31.5362E-03    -15.3745E-03     60.7723E-03
             649     14.1807E-03     75.3900E-03    -2.97924E+06     197.871E+03     465.578E+03    -1.01081E+06    -15.9964E-03     31.3622E-03    -15.3658E-03     65.5912E-03    -16.0904E-03     31.4450E-03    -15.3595E-03     65.5415E-03
             650     15.0674E-03     75.4524E-03    -2.56309E+06     23.9352E+06    -3.42246E+06    -628.769E+03    -16.4209E-03     31.7094E-03    -15.2885E-03     79.9342E-03    -16.6477E-03     32.0219E-03    -15.3366E-03     79.9053E-03
             651     15.9517E-03     75.5395E-03    -3.46848E+06     59.3678E+06    -21.0596E+06    -900.874E+03    -18.1863E-03     33.3370E-03    -15.1506E-03     110.236E-03    -18.9897E-03     34.3998E-03    -15.3370E-03     110.422E-03
             652     16.8400E-03     75.6624E-03    -3.47246E+06     120.413E+06     20.3990E+06     49.2890E+03    -16.9662E-03     32.2463E-03    -15.2802E-03     96.6423E-03    -18.0229E-03     33.6591E-03    -15.3478E-03     97.2030E-03
             653     886.213E-06     75.9253E-03    -24.0143E+06    -62.8000E+06    -23.4322E+06    -98.7027E+03    -15.4746E-03     30.9465E-03    -15.4719E-03     3.48078E-03    -15.4692E-03     30.7017E-03    -15.4632E-03     3.47904E-03
             654     1.77236E-03     75.9298E-03    -22.7609E+06    -60.0638E+06    -20.3718E+06    -800.786E+03    -15.4569E-03     30.9350E-03    -15.4781E-03     6.63001E-03    -15.4540E-03     30.6973E-03    -15.4599E-03     6.61876E-03
             655     2.65864E-03     75.9375E-03    -21.1758E+06    -57.8743E+06    -16.6150E+06    -1.38595E+06    -15.4599E-03     30.9435E-03    -15.4836E-03     9.93872E-03    -15.4579E-03     30.7091E-03    -15.4521E-03     9.91942E-03
             656     3.54480E-03     75.9482E-03    -19.3769E+06    -56.3560E+06    -12.1873E+06    -1.74761E+06    -15.4664E-03     30.9605E-03    -15.4941E-03     13.3646E-03    -15.4642E-03     30.7248E-03    -15.4452E-03     13.3401E-03
             657     4.43106E-03     75.9623E-03    -17.3429E+06    -54.9188E+06    -8.00010E+06    -1.90238E+06    -15.4784E-03     30.9811E-03    -15.5027E-03     16.9597E-03    -15.4744E-03     30.7438E-03    -15.4379E-03     16.9326E-03
             658     5.31731E-03     75.9797E-03    -15.3675E+06    -53.0346E+06    -4.61512E+06    -2.15788E+06    -15.5055E-03     31.0123E-03    -15.5067E-03     20.6965E-03    -15.4997E-03     30.7769E-03    -15.4306E-03     20.6652E-03
             659     6.20359E-03     76.0006E-03    -13.4222E+06    -51.8071E+06    -1.80942E+06    -2.46228E+06    -15.5487E-03     31.0584E-03    -15.5097E-03     24.5857E-03    -15.5394E-03     30.8228E-03    -15.4242E-03     24.5495E-03
             660     7.08981E-03     76.0253E-03    -11.5481E+06    -50.6709E+06     555.462E+03    -2.71045E+06    -15.5934E-03     31.1045E-03    -15.5111E-03     28.6296E-03    -15.5805E-03     30.8692E-03    -15.4181E-03     28.5890E-03
             661     7.97612E-03     76.0537E-03    -9.72529E+06    -50.0525E+06     2.46290E+06    -2.85056E+06    -15.6501E-03     31.1610E-03    -15.5109E-03     32.7775E-03    -15.6329E-03     30.9245E-03    -15.4119E-03     32.7334E-03
             662     8.86240E-03     76.0861E-03    -8.18634E+06    -47.9484E+06     3.49091E+06    -2.82409E+06    -15.7220E-03     31.2268E-03    -15.5048E-03     37.0083E-03    -15.7033E-03     30.9987E-03    -15.4060E-03     36.9623E-03
             663     9.74870E-03     76.1224E-03    -6.79473E+06    -46.8283E+06     3.98064E+06    -2.75883E+06    -15.8022E-03     31.3004E-03    -15.4982E-03     41.2134E-03    -15.7815E-03     31.0778E-03    -15.4005E-03     41.1651E-03
             664     10.6350E-03     76.1626E-03    -5.70575E+06    -44.0302E+06     2.81075E+06    -2.80400E+06    -15.8830E-03     31.3645E-03    -15.4815E-03     45.3670E-03    -15.8633E-03     31.1601E-03    -15.3953E-03     45.3141E-03
             665     11.5213E-03     76.2066E-03    -4.72376E+06    -37.2187E+06     3.19804E+06    -2.92120E+06    -15.9521E-03     31.4185E-03    -15.4665E-03     49.5774E-03    -15.9441E-03     31.2524E-03    -15.3897E-03     49.5181E-03
             666     12.4076E-03     76.2547E-03    -3.72953E+06    -36.4088E+06     315.025E+03    -2.79503E+06    -16.1077E-03     31.5519E-03    -15.4442E-03     54.9239E-03    -16.1032E-03     31.4040E-03    -15.3845E-03     54.8598E-03
             667     13.2939E-03     76.3086E-03    -2.78257E+06    -27.8589E+06    -4.08451E+06    -2.28809E+06    -16.2086E-03     31.6115E-03    -15.4029E-03     60.6745E-03    -16.2251E-03     31.5311E-03    -15.3789E-03     60.6099E-03
             668     14.1802E-03     76.3674E-03    -1.67172E+06    -547.695E+03     284.710E+03    -1.21609E+06    -16.2338E-03     31.6092E-03    -15.3754E-03     65.3093E-03    -16.3198E-03     31.6864E-03    -15.3707E-03     65.2562E-03
             669     15.0664E-03     76.4302E-03    -1.08286E+06     23.6821E+06    -3.48988E+06    -779.183E+03    -16.8313E-03     32.1456E-03    -15.3143E-03     81.0095E-03    -17.0562E-03     32.4609E-03    -15.3646E-03     80.9773E-03
             670     15.9536E-03     76.5188E-03    -2.14550E+06     58.7068E+06    -20.7832E+06    -96.1143E+03    -17.6913E-03     32.8625E-03    -15.1712E-03     112.241E-03    -18.4919E-03     33.9241E-03    -15.3571E-03     112.457E-03
             671     16.8389E-03     76.6380E-03    -3.01841E+06     120.141E+06     20.8335E+06     306.527E+03    -16.5600E-03     31.8334E-03    -15.2734E-03     96.6349E-03    -17.6071E-03     33.2359E-03    -15.3391E-03     97.2103E-03
             672     886.165E-06     76.9029E-03    -21.5732E+06    -62.0555E+06    -21.8143E+06    -563.540E+03    -15.4483E-03     30.9439E-03    -15.4956E-03     3.52422E-03    -15.4342E-03     30.6970E-03    -15.4834E-03     3.51648E-03
             673     1.77242E-03     76.9077E-03    -21.1692E+06    -58.8436E+06    -19.8781E+06    -1.03091E+06    -15.4755E-03     30.9488E-03    -15.4732E-03     6.62003E-03    -15.4672E-03     30.7141E-03    -15.4566E-03     6.60581E-03
             674     2.65855E-03     76.9152E-03    -20.2467E+06    -57.0116E+06    -16.1609E+06    -1.34101E+06    -15.4612E-03     30.9450E-03    -15.4838E-03     9.92377E-03    -15.4564E-03     30.7128E-03    -15.4526E-03     9.90505E-03
             675     3.54485E-03     76.9261E-03    -18.8779E+06    -55.4347E+06    -12.0570E+06    -1.73173E+06    -15.4633E-03     30.9558E-03    -15.4924E-03     13.3612E-03    -15.4602E-03     30.7237E-03    -15.4450E-03     13.3369E-03
             676     4.43106E-03     76.9400E-03    -17.1252E+06    -54.3574E+06    -7.97276E+06    -2.07601E+06    -15.4828E-03     30.9842E-03    -15.5014E-03     16.9479E-03    -15.4786E-03     30.7494E-03    -15.4376E-03     16.9185E-03
             677     5.31732E-03     76.9575E-03    -15.1385E+06    -52.2056E+06    -4.50098E+06    -2.31966E+06    -15.5082E-03     31.0143E-03    -15.5061E-03     20.6987E-03    -15.5025E-03     30.7826E-03    -15.4310E-03     20.6654E-03
             678     6.20354E-03     76.9784E-03    -13.2663E+06    -51.0312E+06    -1.63756E+06    -2.72481E+06    -15.5486E-03     31.0584E-03    -15.5098E-03     24.5941E-03    -15.5400E-03     30.8262E-03    -15.4247E-03     24.5545E-03
             679     7.08986E-03     77.0031E-03    -11.5159E+06    -50.0865E+06     531.434E+03    -2.96604E+06    -15.5979E-03     31.1088E-03    -15.5109E-03     28.6371E-03    -15.5857E-03     30.8764E-03    -15.4190E-03     28.5932E-03
             680     7.97609E-03     77.0315E-03    -9.98830E+06    -49.5681E+06     2.21161E+06    -3.12489E+06    -15.6572E-03     31.1680E-03    -15.5108E-03     32.7903E-03    -15.6417E-03     30.9346E-03    -15.4134E-03     32.7427E-03
             681     8.86240E-03     77.0639E-03    -8.36028E+06    -47.6232E+06     3.20823E+06    -3.26317E+06    -15.7208E-03     31.2257E-03    -15.5050E-03     37.0183E-03    -15.7030E-03     31.0000E-03    -15.4077E-03     36.9666E-03
             682     9.74869E-03     77.1002E-03    -6.84573E+06    -46.6841E+06     3.57092E+06    -3.19423E+06    -15.8052E-03     31.3029E-03    -15.4977E-03     41.2266E-03    -15.7844E-03     31.0817E-03    -15.4023E-03     41.1727E-03
             683     10.6350E-03     77.1404E-03    -5.53186E+06    -43.5863E+06     2.69612E+06    -3.18911E+06    -15.8968E-03     31.3791E-03    -15.4822E-03     45.3889E-03    -15.8767E-03     31.1768E-03    -15.3975E-03     45.3311E-03
             684     11.5212E-03     77.1844E-03    -4.67148E+06    -37.0836E+06     3.01953E+06    -3.12729E+06    -15.9612E-03     31.4294E-03    -15.4682E-03     49.5964E-03    -15.9530E-03     31.2642E-03    -15.3925E-03     49.5344E-03
             685     12.4076E-03     77.2324E-03    -4.29718E+06    -36.1847E+06    -45.1406E+03    -3.14269E+06    -16.1095E-03     31.5555E-03    -15.4460E-03     55.0020E-03    -16.1077E-03     31.4101E-03    -15.3875E-03     54.9334E-03
             686     13.2939E-03     77.2865E-03    -3.82335E+06    -28.1227E+06    -4.75088E+06    -3.28561E+06    -16.2324E-03     31.6377E-03    -15.4053E-03     60.6907E-03    -16.2527E-03     31.5584E-03    -15.3827E-03     60.6133E-03
             687     14.1803E-03     77.3450E-03    -2.64164E+06    -1.95384E+06    -656.817E+03    -2.72438E+06    -16.2660E-03     31.6453E-03    -15.3792E-03     65.6890E-03    -16.3542E-03     31.7191E-03    -15.3759E-03     65.6163E-03
             688     15.0667E-03     77.4084E-03    -1.80405E+06     22.7761E+06    -4.04368E+06    -1.15101E+06    -16.6745E-03     31.9895E-03    -15.3151E-03     81.0903E-03    -16.9021E-03     32.3033E-03    -15.3657E-03     81.0553E-03
             689     15.9531E-03     77.4953E-03    -2.34936E+06     57.4602E+06    -20.5293E+06     630.444E+03    -17.4847E-03     32.6516E-03    -15.1669E-03     111.380E-03    -18.2771E-03     33.6992E-03    -15.3495E-03     111.602E-03
             690     16.8410E-03     77.6169E-03    -1.81053E+06     120.157E+06     22.2761E+06     583.974E+03    -16.5692E-03     31.8370E-03    -15.2678E-03     96.5106E-03    -17.6078E-03     33.2311E-03    -15.3280E-03     97.0858E-03
             691     886.250E-06     77.8809E-03    -22.6665E+06    -60.6022E+06    -22.6209E+06    -880.380E+03    -15.4780E-03     30.9270E-03    -15.4490E-03     3.60640E-03    -15.4703E-03     30.6901E-03    -15.4414E-03     3.59454E-03
             692     1.77234E-03     77.8855E-03    -22.1717E+06    -57.9333E+06    -20.6742E+06    -1.13979E+06    -15.4733E-03     30.9409E-03    -15.4676E-03     6.60324E-03    -15.4702E-03     30.7134E-03    -15.4548E-03     6.58762E-03
             693     2.65864E-03     77.8932E-03    -20.7687E+06    -56.0566E+06    -16.5778E+06    -1.50064E+06    -15.4560E-03     30.9364E-03    -15.4803E-03     9.92253E-03    -15.4547E-03     30.7104E-03    -15.4518E-03     9.90175E-03
             694     3.54480E-03     77.9038E-03    -18.8328E+06    -54.6081E+06    -11.8907E+06    -1.80175E+06    -15.4656E-03     30.9572E-03    -15.4915E-03     13.3614E-03    -15.4636E-03     30.7290E-03    -15.4445E-03     13.3361E-03
             695     4.43106E-03     77.9179E-03    -16.8054E+06    -53.3997E+06    -7.62568E+06    -2.20583E+06    -15.4866E-03     30.9883E-03    -15.5017E-03     16.9462E-03    -15.4827E-03     30.7573E-03    -15.4381E-03     16.9151E-03
             696     5.31729E-03     77.9352E-03    -14.7999E+06    -51.5292E+06    -4.34600E+06    -2.59777E+06    -15.5100E-03     31.0163E-03    -15.5063E-03     20.6905E-03    -15.5039E-03     30.7873E-03    -15.4318E-03     20.6536E-03
             697     6.20360E-03     77.9563E-03    -12.8648E+06    -50.0620E+06    -1.47322E+06    -2.88704E+06    -15.5449E-03     31.0541E-03    -15.5092E-03     24.5869E-03    -15.5359E-03     30.8259E-03    -15.4253E-03     24.5453E-03
             698     7.08981E-03     77.9808E-03    -11.1126E+06    -49.5889E+06     773.946E+03    -3.19329E+06    -15.5979E-03     31.1090E-03    -15.5110E-03     28.6264E-03    -15.5848E-03     30.8781E-03    -15.4192E-03     28.5796E-03
             699     7.97613E-03     78.0094E-03    -9.41350E+06    -48.9543E+06     2.43010E+06    -3.28934E+06    -15.6614E-03     31.1718E-03    -15.5104E-03     32.7921E-03    -15.6441E-03     30.9403E-03    -15.4137E-03     32.7423E-03
             700     8.86236E-03     78.0417E-03    -8.05526E+06    -46.9745E+06     3.21800E+06    -3.61657E+06    -15.7261E-03     31.2303E-03    -15.5042E-03     37.0180E-03    -15.7077E-03     31.0073E-03    -15.4083E-03     36.9618E-03
             701     9.74869E-03     78.0780E-03    -6.63186E+06    -46.5009E+06     3.44514E+06    -3.77442E+06    -15.8055E-03     31.3028E-03    -15.4973E-03     41.2460E-03    -15.7837E-03     31.0824E-03    -15.4030E-03     41.1846E-03
             702     10.6350E-03     78.1182E-03    -5.40897E+06    -43.3428E+06     2.56208E+06    -3.61523E+06    -15.8900E-03     31.3714E-03    -15.4814E-03     45.4103E-03    -15.8694E-03     31.1703E-03    -15.3979E-03     45.3470E-03
             703     11.5213E-03     78.1622E-03    -4.49105E+06    -37.2011E+06     3.03675E+06    -3.26545E+06    -15.9647E-03     31.4329E-03    -15.4683E-03     49.6100E-03    -15.9554E-03     31.2669E-03    -15.3926E-03     49.5462E-03
             704     12.4076E-03     78.2102E-03    -4.02075E+06    -35.9702E+06    -17.9103E+03    -2.91219E+06    -16.1031E-03     31.5483E-03    -15.4453E-03     55.0423E-03    -16.1003E-03     31.4036E-03    -15.3874E-03     54.9766E-03
             705     13.2939E-03     78.2643E-03    -4.52590E+06    -27.3233E+06    -4.78630E+06    -3.21706E+06    -16.1960E-03     31.5995E-03    -15.4035E-03     60.6759E-03    -16.2209E-03     31.5253E-03    -15.3813E-03     60.5994E-03
             706     14.1803E-03     78.3226E-03    -4.95463E+06    -2.41707E+06    -1.76680E+06    -3.72980E+06    -16.2126E-03     31.5865E-03    -15.3740E-03     65.7483E-03    -16.3101E-03     31.6630E-03    -15.3721E-03     65.6629E-03
             707     15.0668E-03     78.3862E-03    -3.95652E+06     20.2529E+06    -5.80329E+06    -2.31274E+06    -16.8175E-03     32.1298E-03    -15.3123E-03     81.1586E-03    -17.0499E-03     32.4368E-03    -15.3650E-03     81.1076E-03
             708     15.9529E-03     78.4733E-03    -2.75909E+06     55.6220E+06    -21.6722E+06     383.336E+03    -17.5595E-03     32.7300E-03    -15.1706E-03     111.007E-03    -18.3502E-03     33.7713E-03    -15.3556E-03     111.226E-03
             709     16.8388E-03     78.5931E-03    -1.26845E+06     120.362E+06     22.4506E+06     546.570E+03    -16.4370E-03     31.7096E-03    -15.2726E-03     96.9467E-03    -17.4777E-03     33.1080E-03    -15.3330E-03     97.5254E-03
             710     886.174E-06     78.8588E-03    -23.7079E+06    -58.9054E+06    -22.9219E+06    -895.905E+03    -15.4796E-03     30.9222E-03    -15.4426E-03     3.62251E-03    -15.4791E-03     30.6957E-03    -15.4374E-03     3.61044E-03
             711     1.77243E-03     78.8633E-03    -22.5864E+06    -56.9819E+06    -19.9069E+06    -1.32946E+06    -15.4535E-03     30.9230E-03    -15.4695E-03     6.59100E-03    -15.4549E-03     30.6997E-03    -15.4537E-03     6.57292E-03
             712     2.65857E-03     78.8709E-03    -21.0724E+06    -54.9831E+06    -16.3249E+06    -1.71105E+06    -15.4607E-03     30.9383E-03    -15.4777E-03     9.92263E-03    -15.4628E-03     30.7178E-03    -15.4490E-03     9.89913E-03
             713     3.54485E-03     78.8817E-03    -19.2196E+06    -53.6498E+06    -12.0610E+06    -2.18629E+06    -15.4663E-03     30.9557E-03    -15.4894E-03     13.3616E-03    -15.4674E-03     30.7331E-03    -15.4440E-03     13.3314E-03
             714     4.43106E-03     78.8957E-03    -17.0170E+06    -52.4244E+06    -7.90097E+06    -2.54107E+06    -15.4878E-03     30.9874E-03    -15.4996E-03     16.9581E-03    -15.4859E-03     30.7619E-03    -15.4384E-03     16.9226E-03
             715     5.31731E-03     78.9131E-03    -14.8741E+06    -50.6235E+06    -4.47865E+06    -2.90809E+06    -15.5138E-03     31.0192E-03    -15.5054E-03     20.6812E-03    -15.5091E-03     30.7950E-03    -15.4328E-03     20.6402E-03
             716     6.20352E-03     78.9340E-03    -12.8510E+06    -49.3209E+06    -1.63631E+06    -3.22584E+06    -15.5412E-03     31.0495E-03    -15.5084E-03     24.5838E-03    -15.5329E-03     30.8253E-03    -15.4264E-03     24.5378E-03
             717     7.08986E-03     78.9587E-03    -10.9537E+06    -48.7975E+06     781.844E+03    -3.45464E+06    -15.5935E-03     31.1037E-03    -15.5102E-03     28.6322E-03    -15.5807E-03     30.8766E-03    -15.4197E-03     28.5820E-03
             718     7.97608E-03     78.9871E-03    -9.24875E+06    -48.4821E+06     2.36612E+06    -3.71283E+06    -15.6571E-03     31.1663E-03    -15.5092E-03     32.7888E-03    -15.6396E-03     30.9370E-03    -15.4136E-03     32.7336E-03
             719     8.86242E-03     79.0195E-03    -7.58628E+06    -46.0949E+06     3.40462E+06    -3.85690E+06    -15.7239E-03     31.2267E-03    -15.5028E-03     37.0227E-03    -15.7048E-03     31.0072E-03    -15.4079E-03     36.9634E-03
             720     9.74866E-03     79.0557E-03    -6.39164E+06    -46.0899E+06     3.47931E+06    -4.15663E+06    -15.8079E-03     31.3039E-03    -15.4961E-03     41.2525E-03    -15.7855E-03     31.0852E-03    -15.4026E-03     41.1862E-03
             721     10.6350E-03     79.0960E-03    -5.40633E+06    -43.4197E+06     2.30951E+06    -3.94402E+06    -15.8823E-03     31.3619E-03    -15.4796E-03     45.4058E-03    -15.8612E-03     31.1608E-03    -15.3972E-03     45.3382E-03
             722     11.5213E-03     79.1399E-03    -4.41663E+06    -37.2110E+06     2.80695E+06    -3.67436E+06    -15.9564E-03     31.4221E-03    -15.4658E-03     49.6151E-03    -15.9464E-03     31.2563E-03    -15.3914E-03     49.5461E-03
             723     12.4076E-03     79.1880E-03    -3.37275E+06    -36.3700E+06    -102.258E+03    -3.21225E+06    -16.0877E-03     31.5301E-03    -15.4424E-03     55.0333E-03    -16.0810E-03     31.3825E-03    -15.3852E-03     54.9638E-03
             724     13.2940E-03     79.2419E-03    -2.85807E+06    -26.8042E+06    -4.09705E+06    -2.54001E+06    -16.1926E-03     31.5934E-03    -15.4009E-03     60.6076E-03    -16.2108E-03     31.5183E-03    -15.3783E-03     60.5399E-03
             725     14.1805E-03     79.3004E-03    -3.57188E+06    -1.37207E+06    -993.377E+03    -2.88425E+06    -16.2465E-03     31.6188E-03    -15.3722E-03     65.7087E-03    -16.3399E-03     31.6974E-03    -15.3700E-03     65.6340E-03
             726     15.0668E-03     79.3638E-03    -4.49045E+06     18.1400E+06    -7.02547E+06    -2.99495E+06    -16.8519E-03     32.1615E-03    -15.3096E-03     81.4074E-03    -17.0818E-03     32.4603E-03    -15.3645E-03     81.3475E-03
             727     15.9530E-03     79.4518E-03    -4.28747E+06     53.7749E+06    -23.0904E+06    -1.97427E+06    -17.6855E-03     32.8586E-03    -15.1731E-03     110.443E-03    -18.4779E-03     33.8937E-03    -15.3603E-03     110.629E-03
             728     16.8408E-03     79.5697E-03    -2.64525E+06     120.652E+06     21.7717E+06    -200.304E+03    -16.4868E-03     31.7688E-03    -15.2820E-03     97.0043E-03    -17.5374E-03     33.1752E-03    -15.3443E-03     97.5760E-03
             729     886.154E-06     79.8365E-03    -23.5398E+06    -57.3694E+06    -22.6007E+06    -667.847E+03    -15.4418E-03     30.9319E-03    -15.4901E-03     3.50365E-03    -15.4431E-03     30.7124E-03    -15.4858E-03     3.49455E-03
             730     1.77240E-03     79.8411E-03    -22.5481E+06    -55.7652E+06    -19.5950E+06    -1.22667E+06    -15.4384E-03     30.9101E-03    -15.4717E-03     6.60687E-03    -15.4419E-03     30.6924E-03    -15.4561E-03     6.59012E-03
             731     2.65864E-03     79.8488E-03    -21.0587E+06    -53.7940E+06    -15.8941E+06    -1.79418E+06    -15.4606E-03     30.9377E-03    -15.4771E-03     9.91036E-03    -15.4650E-03     30.7225E-03    -15.4481E-03     9.88578E-03
             732     3.54481E-03     79.8595E-03    -19.2056E+06    -52.3672E+06    -12.0759E+06    -2.39807E+06    -15.4704E-03     30.9581E-03    -15.4877E-03     13.3550E-03    -15.4733E-03     30.7419E-03    -15.4443E-03     13.3221E-03
             733     4.43106E-03     79.8736E-03    -17.3066E+06    -51.5038E+06    -8.18103E+06    -2.87927E+06    -15.4851E-03     30.9833E-03    -15.4982E-03     16.9522E-03    -15.4857E-03     30.7633E-03    -15.4393E-03     16.9124E-03
             734     5.31728E-03     79.8909E-03    -15.2410E+06    -49.5486E+06    -4.81787E+06    -3.29473E+06    -15.5057E-03     31.0087E-03    -15.5030E-03     20.6847E-03    -15.5039E-03     30.7909E-03    -15.4332E-03     20.6388E-03
             735     6.20358E-03     79.9119E-03    -13.1362E+06    -48.4698E+06    -1.94044E+06    -3.70613E+06    -15.5433E-03     31.0495E-03    -15.5062E-03     24.5866E-03    -15.5373E-03     30.8304E-03    -15.4266E-03     24.5344E-03
             736     7.08981E-03     79.9364E-03    -11.1098E+06    -48.0995E+06     440.570E+03    -3.93865E+06    -15.5891E-03     31.0971E-03    -15.5080E-03     28.6372E-03    -15.5776E-03     30.8742E-03    -15.4199E-03     28.5807E-03
             737     7.97613E-03     79.9650E-03    -9.25556E+06    -47.7029E+06     2.32157E+06    -4.13973E+06    -15.6505E-03     31.1581E-03    -15.5076E-03     32.7882E-03    -15.6342E-03     30.9328E-03    -15.4134E-03     32.7274E-03
             738     8.86237E-03     79.9972E-03    -7.70832E+06    -45.5789E+06     3.16402E+06    -4.36022E+06    -15.7190E-03     31.2194E-03    -15.5004E-03     37.0244E-03    -15.7009E-03     31.0029E-03    -15.4073E-03     36.9586E-03
             739     9.74872E-03     80.0337E-03    -6.32986E+06    -45.4554E+06     3.46794E+06    -4.31244E+06    -15.8018E-03     31.2958E-03    -15.4940E-03     41.2419E-03    -15.7801E-03     31.0802E-03    -15.4016E-03     41.1735E-03
             740     10.6350E-03     80.0736E-03    -5.23877E+06    -43.4166E+06     2.11659E+06    -4.38300E+06    -15.8783E-03     31.3553E-03    -15.4770E-03     45.4018E-03    -15.8561E-03     31.1542E-03    -15.3959E-03     45.3285E-03
             741     11.5213E-03     80.1178E-03    -4.15307E+06    -37.0033E+06     2.62929E+06    -4.20909E+06    -15.9483E-03     31.4107E-03    -15.4624E-03     49.6386E-03    -15.9371E-03     31.2458E-03    -15.3896E-03     49.5626E-03
             742     12.4077E-03     80.1656E-03    -3.28492E+06    -36.8502E+06    -291.404E+03    -3.92062E+06    -16.0850E-03     31.5249E-03    -15.4399E-03     54.9841E-03    -16.0768E-03     31.3750E-03    -15.3831E-03     54.9055E-03
             743     13.2940E-03     80.2198E-03    -2.58031E+06    -27.6166E+06    -4.29765E+06    -3.01988E+06    -16.2223E-03     31.6218E-03    -15.3995E-03     60.5865E-03    -16.2377E-03     31.5425E-03    -15.3772E-03     60.5125E-03
             744     14.1803E-03     80.2779E-03    -2.19504E+06    -1.09305E+06     373.417E+03    -1.84218E+06    -16.2831E-03     31.6605E-03    -15.3775E-03     65.6882E-03    -16.3720E-03     31.7367E-03    -15.3708E-03     65.6267E-03
             745     15.0667E-03     80.3418E-03    -2.78080E+06     18.6816E+06    -5.04311E+06    -2.12664E+06    -16.8013E-03     32.1175E-03    -15.3162E-03     81.5432E-03    -17.0261E-03     32.4133E-03    -15.3644E-03     81.4947E-03
             746     15.9531E-03     80.4295E-03    -4.01097E+06     52.8603E+06    -23.0429E+06    -2.80443E+06    -17.8209E-03     32.9969E-03    -15.1760E-03     110.545E-03    -18.6128E-03     34.0289E-03    -15.3620E-03     110.720E-03
             747     16.8377E-03     80.5475E-03    -3.36387E+06     118.850E+06     19.9350E+06    -1.31371E+06    -16.5612E-03     31.8449E-03    -15.2837E-03     96.9324E-03    -17.6139E-03     33.2498E-03    -15.3515E-03     97.4905E-03
             748     886.190E-06     80.8143E-03    -23.6508E+06    -56.0968E+06    -23.2593E+06    -570.999E+03    -15.4172E-03     30.9261E-03    -15.5089E-03     3.42758E-03    -15.4200E-03     30.7140E-03    -15.5095E-03     3.41975E-03
             749     1.77239E-03     80.8190E-03    -22.8417E+06    -54.5288E+06    -20.2843E+06    -1.08356E+06    -15.4452E-03     30.9141E-03    -15.4689E-03     6.62695E-03    -15.4509E-03     30.7041E-03    -15.4582E-03     6.61204E-03
             750     2.65859E-03     80.8266E-03    -21.3195E+06    -52.2565E+06    -16.2864E+06    -1.86016E+06    -15.4524E-03     30.9283E-03    -15.4758E-03     9.90868E-03    -15.4598E-03     30.7217E-03    -15.4506E-03     9.88325E-03
             751     3.54484E-03     80.8374E-03    -19.4170E+06    -51.0874E+06    -12.0388E+06    -2.55569E+06    -15.4705E-03     30.9584E-03    -15.4878E-03     13.3547E-03    -15.4764E-03     30.7488E-03    -15.4458E-03     13.3198E-03
             752     4.43103E-03     80.8513E-03    -17.3313E+06    -50.3487E+06    -8.13502E+06    -3.06347E+06    -15.4808E-03     30.9789E-03    -15.4981E-03     16.9391E-03    -15.4832E-03     30.7646E-03    -15.4406E-03     16.8969E-03
             753     5.31732E-03     80.8688E-03    -15.3060E+06    -48.2556E+06    -4.99702E+06    -3.69940E+06    -15.4992E-03     31.0000E-03    -15.5009E-03     20.6777E-03    -15.4993E-03     30.7890E-03    -15.4337E-03     20.6265E-03
             754     6.20354E-03     80.8896E-03    -13.3394E+06    -47.5555E+06    -2.25612E+06    -4.14674E+06    -15.5393E-03     31.0429E-03    -15.5036E-03     24.5762E-03    -15.5352E-03     30.8291E-03    -15.4265E-03     24.5183E-03
             755     7.08983E-03     80.9143E-03    -11.4685E+06    -47.2151E+06     101.768E+03    -4.46819E+06    -15.5843E-03     31.0895E-03    -15.5053E-03     28.6337E-03    -15.5754E-03     30.8720E-03    -15.4197E-03     28.5704E-03
             756     7.97611E-03     80.9426E-03    -9.59140E+06    -46.9787E+06     1.94376E+06    -4.73822E+06    -15.6416E-03     31.1460E-03    -15.5044E-03     32.7978E-03    -15.6274E-03     30.9254E-03    -15.4127E-03     32.7293E-03
             757     8.86242E-03     80.9752E-03    -7.86830E+06    -44.9836E+06     3.03354E+06    -4.77544E+06    -15.7118E-03     31.2096E-03    -15.4978E-03     37.0366E-03    -15.6952E-03     30.9966E-03    -15.4060E-03     36.9654E-03
             758     9.74868E-03     81.0112E-03    -6.34729E+06    -45.0421E+06     3.32798E+06    -4.90267E+06    -15.7875E-03     31.2782E-03    -15.4907E-03     41.2558E-03    -15.7662E-03     31.0648E-03    -15.3995E-03     41.1799E-03
             759     10.6350E-03     81.0516E-03    -5.02469E+06    -42.9876E+06     2.14512E+06    -4.80554E+06    -15.8681E-03     31.3414E-03    -15.4733E-03     45.4118E-03    -15.8455E-03     31.1421E-03    -15.3930E-03     45.3331E-03
             760     11.5214E-03     81.0953E-03    -4.09385E+06    -36.9306E+06     2.47387E+06    -4.76376E+06    -15.9393E-03     31.3972E-03    -15.4579E-03     49.6677E-03    -15.9276E-03     31.2327E-03    -15.3861E-03     49.5846E-03
             761     12.4077E-03     81.1437E-03    -3.31503E+06    -36.9671E+06    -557.793E+03    -4.37511E+06    -16.0810E-03     31.5159E-03    -15.4349E-03     55.0314E-03    -16.0724E-03     31.3659E-03    -15.3793E-03     54.9470E-03
             762     13.2940E-03     81.1971E-03    -2.96594E+06    -28.8253E+06    -5.33858E+06    -3.67028E+06    -16.2199E-03     31.6125E-03    -15.3926E-03     60.7322E-03    -16.2340E-03     31.5292E-03    -15.3732E-03     60.6499E-03
             763     14.1804E-03     81.2562E-03    -2.12237E+06    -2.26028E+06    -230.490E+03    -2.45776E+06    -16.2561E-03     31.6269E-03    -15.3709E-03     65.9273E-03    -16.3422E-03     31.6982E-03    -15.3657E-03     65.8581E-03
             764     15.0668E-03     81.3191E-03    -1.28030E+06     19.7206E+06    -4.05905E+06    -1.84623E+06    -16.5574E-03     31.8614E-03    -15.3039E-03     81.8453E-03    -16.7765E-03     32.1577E-03    -15.3510E-03     81.8021E-03
             765     15.9532E-03     81.4078E-03    -1.98460E+06     52.4247E+06    -22.5447E+06    -1.88852E+06    -17.8030E-03     32.9559E-03    -15.1529E-03     111.868E-03    -18.5878E-03     33.9852E-03    -15.3388E-03     112.055E-03
             766     16.8408E-03     81.5258E-03    -2.50286E+06     117.389E+06     20.3928E+06    -1.34365E+06    -16.8607E-03     32.1293E-03    -15.2686E-03     96.7878E-03    -17.9064E-03     33.5237E-03    -15.3332E-03     97.3404E-03
             767     886.192E-06     81.7922E-03    -23.7861E+06    -55.1878E+06    -23.1710E+06    -407.603E+03    -15.4272E-03     30.9135E-03    -15.4862E-03     3.44260E-03    -15.4322E-03     30.7060E-03    -15.4876E-03     3.43687E-03
             768     1.77239E-03     81.7969E-03    -23.0173E+06    -52.9895E+06    -20.8197E+06    -1.13587E+06    -15.4624E-03     30.9267E-03    -15.4643E-03     6.61209E-03    -15.4705E-03     30.7254E-03    -15.4582E-03     6.59650E-03
             769     2.65861E-03     81.8044E-03    -21.4521E+06    -50.5848E+06    -16.6543E+06    -2.05427E+06    -15.4498E-03     30.9258E-03    -15.4760E-03     9.91372E-03    -15.4597E-03     30.7283E-03    -15.4548E-03     9.88579E-03
             770     3.54480E-03     81.8152E-03    -19.5430E+06    -49.7353E+06    -12.0286E+06    -2.72575E+06    -15.4583E-03     30.9464E-03    -15.4881E-03     13.3538E-03    -15.4667E-03     30.7438E-03    -15.4478E-03     13.3166E-03
             771     4.43105E-03     81.8292E-03    -17.3914E+06    -48.9208E+06    -8.11024E+06    -3.45739E+06    -15.4786E-03     30.9753E-03    -15.4968E-03     16.9343E-03    -15.4834E-03     30.7682E-03    -15.4412E-03     16.8871E-03
             772     5.31727E-03     81.8466E-03    -15.1661E+06    -46.8867E+06    -5.02485E+06    -4.07458E+06    -15.4982E-03     30.9972E-03    -15.4990E-03     20.6801E-03    -15.4996E-03     30.7929E-03    -15.4342E-03     20.6241E-03
             773     6.20356E-03     81.8675E-03    -13.2178E+06    -46.5791E+06    -2.25105E+06    -4.47820E+06    -15.5296E-03     31.0315E-03    -15.5018E-03     24.5792E-03    -15.5263E-03     30.8224E-03    -15.4264E-03     24.5170E-03
             774     7.08985E-03     81.8920E-03    -11.4568E+06    -46.1776E+06     46.3649E+03    -4.80421E+06    -15.5774E-03     31.0799E-03    -15.5024E-03     28.6310E-03    -15.5699E-03     30.8676E-03    -15.4186E-03     28.5634E-03
             775     7.97611E-03     81.9206E-03    -9.85831E+06    -46.0253E+06     1.80523E+06    -5.22123E+06    -15.6313E-03     31.1324E-03    -15.5011E-03     32.7975E-03    -15.6196E-03     30.9171E-03    -15.4110E-03     32.7228E-03
             776     8.86243E-03     81.9527E-03    -8.07548E+06     -44.402E+06     2.73025E+06    -5.53110E+06    -15.6898E-03     31.1826E-03    -15.4929E-03     37.0558E-03    -15.6746E-03     30.9732E-03    -15.4031E-03     36.9748E-03
             777     9.74876E-03     81.9892E-03    -6.48246E+06    -44.5214E+06     3.08591E+06    -5.45068E+06    -15.7694E-03     31.2540E-03    -15.4845E-03     41.2667E-03    -15.7492E-03     31.0437E-03    -15.3952E-03     41.1837E-03
             778     10.6351E-03     82.0290E-03    -5.20409E+06    -42.6481E+06     1.89545E+06    -5.48378E+06    -15.8556E-03     31.3222E-03    -15.4666E-03     45.4472E-03    -15.8340E-03     31.1252E-03    -15.3877E-03     45.3598E-03
             779     11.5214E-03     82.0734E-03    -3.96879E+06    -36.6382E+06     2.31342E+06    -5.30432E+06    -15.9275E-03     31.3783E-03    -15.4508E-03     49.6795E-03    -15.9154E-03     31.2153E-03    -15.3803E-03     49.5895E-03
             780     12.4079E-03     82.1209E-03    -3.04387E+06    -37.2887E+06    -818.798E+03    -4.99480E+06    -16.0764E-03     31.5040E-03    -15.4277E-03     55.0380E-03    -16.0656E-03     31.3524E-03    -15.3733E-03     54.9455E-03
             781     13.2941E-03     82.1754E-03    -2.13865E+06    -29.2427E+06    -5.40478E+06    -4.42801E+06    -16.2138E-03     31.5993E-03    -15.3855E-03     60.6723E-03    -16.2231E-03     31.5129E-03    -15.3670E-03     60.5802E-03
             782     14.1807E-03     82.2332E-03    -1.19881E+06    -3.44261E+06    -1.13023E+06    -3.81458E+06    -16.2117E-03     31.5710E-03    -15.3593E-03     65.7730E-03    -16.2902E-03     31.6363E-03    -15.3582E-03     65.6865E-03
             783     15.0672E-03     82.2975E-03    -563.159E+03     18.8956E+06    -5.24765E+06    -2.62536E+06    -16.5423E-03     31.8327E-03    -15.2904E-03     80.9324E-03    -16.7545E-03     32.1252E-03    -15.3432E-03     80.8788E-03
             784     15.9550E-03     82.3834E-03    -2.11253E+06     52.0117E+06    -22.6132E+06    -1.38473E+06    -17.2513E-03     32.3831E-03    -15.1317E-03     111.535E-03    -18.0275E-03     33.4020E-03    -15.3172E-03     111.733E-03
             785     16.8390E-03     82.5070E-03    -3.17076E+06     116.434E+06     19.3402E+06    -804.260E+03    -16.8481E-03     32.0769E-03    -15.2288E-03     97.4060E-03    -17.8870E-03     33.4618E-03    -15.2963E-03     97.9650E-03
             786     886.234E-06     82.7701E-03    -24.5922E+06    -54.0897E+06    -24.1490E+06    -603.380E+03    -15.4377E-03     30.9106E-03    -15.4729E-03     3.51791E-03    -15.4469E-03     30.7112E-03    -15.4796E-03     3.50965E-03
             787     1.77237E-03     82.7746E-03    -23.0855E+06    -51.1002E+06    -20.9690E+06    -1.62634E+06    -15.4626E-03     30.9267E-03    -15.4642E-03     6.58782E-03    -15.4735E-03     30.7351E-03    -15.4614E-03     6.56591E-03
             788     2.65856E-03     82.7823E-03    -21.2150E+06    -48.9306E+06    -16.8590E+06    -2.44287E+06    -15.4453E-03     30.9197E-03    -15.4744E-03     9.92302E-03    -15.4561E-03     30.7304E-03    -15.4570E-03     9.89007E-03
             789     3.54482E-03     82.7930E-03    -19.1692E+06     -48.346E+06    -12.1212E+06    -3.02400E+06    -15.4514E-03     30.9369E-03    -15.4855E-03     13.3642E-03    -15.4599E-03     30.7408E-03    -15.4482E-03     13.3232E-03
             790     4.43105E-03     82.8070E-03    -17.0726E+06    -47.0990E+06    -7.90955E+06    -3.79047E+06    -15.4700E-03     30.9635E-03    -15.4935E-03     16.9502E-03    -15.4762E-03     30.7648E-03    -15.4400E-03     16.8987E-03
             791     5.31730E-03     82.8244E-03    -15.1183E+06    -45.7309E+06    -4.85219E+06    -4.42083E+06    -15.4935E-03     30.9898E-03    -15.4963E-03     20.6832E-03    -15.4966E-03     30.7910E-03    -15.4323E-03     20.6227E-03
             792     6.20358E-03     82.8453E-03    -13.2016E+06    -45.3982E+06    -2.19700E+06    -4.77928E+06    -15.5289E-03     31.0275E-03    -15.4986E-03     24.5841E-03    -15.5273E-03     30.8242E-03    -15.4246E-03     24.5180E-03
             793     7.08982E-03     82.8699E-03    -11.2939E+06    -45.1042E+06     125.232E+03    -5.22018E+06    -15.5692E-03     31.0683E-03    -15.4991E-03     28.6248E-03    -15.5625E-03     30.8611E-03    -15.4167E-03     28.5518E-03
             794     7.97617E-03     82.8982E-03    -9.37322E+06    -44.7804E+06     1.94173E+06    -5.67278E+06    -15.6176E-03     31.1140E-03    -15.4964E-03     32.7936E-03    -15.6055E-03     30.9040E-03    -15.4082E-03     32.7131E-03
             795     8.86244E-03     82.9307E-03    -7.94554E+06    -43.6346E+06     2.67296E+06    -6.02016E+06    -15.6712E-03     31.1583E-03    -15.4871E-03     37.0417E-03    -15.6563E-03     30.9526E-03    -15.3990E-03     36.9544E-03
             796     9.74884E-03     82.9667E-03    -6.57266E+06    -44.1071E+06     2.82752E+06    -6.10164E+06    -15.7481E-03     31.2254E-03    -15.4773E-03     41.2695E-03    -15.7286E-03     31.0177E-03    -15.3896E-03     41.1782E-03
             797     10.6351E-03     83.0071E-03    -5.23958E+06    -41.9132E+06     1.68438E+06    -6.15553E+06    -15.8395E-03     31.2975E-03    -15.4580E-03     45.4456E-03    -15.8189E-03     31.1046E-03    -15.3812E-03     45.3496E-03
             798     11.5216E-03     83.0507E-03    -4.07258E+06    -36.6347E+06     1.94000E+06    -6.11440E+06    -15.9295E-03     31.3720E-03    -15.4425E-03     49.6827E-03    -15.9174E-03     31.2098E-03    -15.3738E-03     49.5822E-03
             799     12.4078E-03     83.0991E-03    -2.90972E+06    -37.1092E+06    -1.08550E+06    -5.81738E+06    -16.1131E-03     31.5342E-03    -15.4211E-03     55.0332E-03    -16.1016E-03     31.3838E-03    -15.3685E-03     54.9300E-03
             800     13.2942E-03     83.1525E-03    -2.17906E+06    -29.6972E+06    -5.71070E+06    -5.51981E+06    -16.2498E-03     31.6325E-03    -15.3827E-03     60.5889E-03    -16.2582E-03     31.5444E-03    -15.3651E-03     60.4826E-03
             801     14.1803E-03     83.2116E-03    -1.61128E+06    -3.86968E+06    -1.42677E+06    -4.73452E+06    -16.2934E-03     31.6545E-03    -15.3611E-03     65.6209E-03    -16.3729E-03     31.7187E-03    -15.3603E-03     65.5222E-03
             802     15.0669E-03     83.2742E-03    -650.585E+03     17.5181E+06    -5.52578E+06    -3.66496E+06    -16.9124E-03     32.2188E-03    -15.3065E-03     80.8055E-03    -17.1248E-03     32.5071E-03    -15.3585E-03     80.7362E-03
             803     15.9514E-03     83.3624E-03     655.367E+03     50.1644E+06    -22.0210E+06    -1.19352E+06    -17.2248E-03     32.3854E-03    -15.1607E-03     109.587E-03    -17.9749E-03     33.3798E-03    -15.3444E-03     109.787E-03
             804     16.8441E-03     83.4796E-03    -508.689E+03     115.911E+06     20.1488E+06     750.171E+03    -16.4313E-03     31.6796E-03    -15.2484E-03     97.2278E-03    -17.4545E-03     33.0542E-03    -15.3149E-03     97.8134E-03
             805     886.138E-06     83.7479E-03    -21.0006E+06    -52.2888E+06    -21.0740E+06    -1.27228E+06    -15.4938E-03     30.9627E-03    -15.4688E-03     3.52517E-03    -15.4921E-03     30.7626E-03    -15.4679E-03     3.50827E-03
             806     1.77238E-03     83.7526E-03    -20.5768E+06    -49.0949E+06    -19.2967E+06    -1.95806E+06    -15.4441E-03     30.9184E-03    -15.4743E-03     6.56934E-03    -15.4478E-03     30.7308E-03    -15.4698E-03     6.54315E-03
             807     2.65861E-03     83.7601E-03    -19.8577E+06    -47.3667E+06    -16.0794E+06    -2.56171E+06    -15.4432E-03     30.9163E-03    -15.4732E-03     9.91360E-03    -15.4506E-03     30.7318E-03    -15.4561E-03     9.87911E-03
             808     3.54482E-03     83.7709E-03    -18.4378E+06    -46.6596E+06    -12.0041E+06    -3.34079E+06    -15.4484E-03     30.9290E-03    -15.4806E-03     13.3632E-03    -15.4558E-03     30.7402E-03    -15.4462E-03     13.3181E-03
             809     4.43106E-03     83.7849E-03    -16.5540E+06    -45.4705E+06    -7.76048E+06    -4.00348E+06    -15.4606E-03     30.9489E-03    -15.4883E-03     16.9491E-03    -15.4668E-03     30.7574E-03    -15.4371E-03     16.8948E-03
             810     5.31735E-03     83.8022E-03    -14.7488E+06    -44.3668E+06    -4.32953E+06    -4.50930E+06    -15.4903E-03     30.9833E-03    -15.4930E-03     20.6758E-03    -15.4943E-03     30.7900E-03    -15.4289E-03     20.6142E-03
             811     6.20356E-03     83.8231E-03    -13.0651E+06    -44.2078E+06    -1.97588E+06    -4.99777E+06    -15.5222E-03     31.0165E-03    -15.4944E-03     24.5757E-03    -15.5219E-03     30.8187E-03    -15.4212E-03     24.5069E-03
             812     7.08991E-03     83.8476E-03    -11.2980E+06    -43.5293E+06    -38.5260E+03    -5.71114E+06    -15.5541E-03     31.0460E-03    -15.4919E-03     28.6329E-03    -15.5495E-03     30.8469E-03    -15.4126E-03     28.5536E-03
             813     7.97613E-03     83.8761E-03    -9.58253E+06    -43.8031E+06     1.59321E+06    -6.25578E+06    -15.5990E-03     31.0872E-03    -15.4883E-03     32.8035E-03    -15.5888E-03     30.8829E-03    -15.4029E-03     32.7155E-03
             814     8.86255E-03     83.9082E-03    -7.91175E+06    -42.7493E+06     2.61421E+06    -6.30840E+06    -15.6543E-03     31.1334E-03    -15.4791E-03     37.0550E-03    -15.6405E-03     30.9321E-03    -15.3925E-03     36.9641E-03
             815     9.74881E-03     83.9446E-03    -6.56640E+06    -43.1835E+06     2.70414E+06    -6.70615E+06    -15.7361E-03     31.2043E-03    -15.4682E-03     41.3008E-03    -15.7177E-03     31.0014E-03    -15.3825E-03     41.2017E-03
             816     10.6353E-03     83.9845E-03     -5.3679E+06    -41.4671E+06     1.46029E+06    -6.79510E+06    -15.8337E-03     31.2829E-03    -15.4492E-03     45.4720E-03    -15.8140E-03     31.0927E-03    -15.3740E-03     45.3678E-03
             817     11.5215E-03     84.0288E-03    -4.34171E+06    -36.0657E+06     1.78056E+06    -6.77685E+06    -15.9390E-03     31.3738E-03    -15.4348E-03     49.7134E-03    -15.9289E-03     31.2150E-03    -15.3673E-03     49.6044E-03
             818     12.4080E-03     84.0764E-03    -3.40075E+06    -37.0306E+06    -1.39188E+06    -6.78852E+06    -16.1235E-03     31.5384E-03    -15.4149E-03     55.1326E-03    -16.1141E-03     31.3896E-03    -15.3633E-03     55.0170E-03
             819     13.2940E-03     84.1310E-03    -2.81416E+06    -29.9264E+06    -6.01635E+06    -6.17462E+06    -16.2741E-03     31.6528E-03    -15.3787E-03     60.6793E-03    -16.2848E-03     31.5647E-03    -15.3613E-03     60.5646E-03
             820     14.1807E-03     84.1885E-03    -2.38331E+06    -4.81887E+06    -2.01201E+06    -5.26484E+06    -16.4091E-03     31.7703E-03    -15.3611E-03     65.9495E-03    -16.4906E-03     31.8320E-03    -15.3608E-03     65.8437E-03
             821     15.0664E-03     84.2533E-03    -2.64162E+06     16.4529E+06    -6.49046E+06    -4.06786E+06    -16.9324E-03     32.2421E-03    -15.3097E-03     81.4450E-03    -17.1508E-03     32.5283E-03    -15.3622E-03     81.3708E-03
             822     15.9541E-03     84.3397E-03    -3.77145E+06     46.7384E+06    -23.8911E+06    -1.94517E+06    -18.0943E-03     33.2841E-03    -15.1898E-03     109.902E-03    -18.8704E-03     34.2820E-03    -15.3716E-03     110.078E-03
             823     16.8345E-03     84.4567E-03    -2.50676E+06     114.133E+06     18.4328E+06     328.295E+03    -16.3807E-03     31.6739E-03    -15.2932E-03     98.0289E-03    -17.4270E-03     33.0631E-03    -15.3629E-03     98.6130E-03
             824     886.131E-06     84.7259E-03    -20.9056E+06    -49.7414E+06    -20.6706E+06    -1.35933E+06    -15.5130E-03     30.9568E-03    -15.4438E-03     3.48559E-03    -15.5151E-03     30.7688E-03    -15.4447E-03     3.46755E-03
             825     1.77236E-03     84.7304E-03    -20.5596E+06    -47.4497E+06    -19.0763E+06    -1.85979E+06    -15.4410E-03     30.9138E-03    -15.4728E-03     6.56564E-03    -15.4473E-03     30.7340E-03    -15.4696E-03     6.54072E-03
             826     2.65858E-03     84.7380E-03    -19.4535E+06    -45.6015E+06    -15.6603E+06    -2.58835E+06    -15.4364E-03     30.9075E-03    -15.4711E-03     9.90325E-03    -15.4450E-03     30.7306E-03    -15.4551E-03     9.86842E-03
             827     3.54481E-03     84.7487E-03    -17.8493E+06    -44.7287E+06    -11.4161E+06    -3.44209E+06    -15.4411E-03     30.9187E-03    -15.4776E-03     13.3446E-03    -15.4492E-03     30.7378E-03    -15.4440E-03     13.2982E-03
             828     4.43110E-03     84.7627E-03    -16.1508E+06    -44.0336E+06    -7.50409E+06    -4.14232E+06    -15.4514E-03     30.9349E-03    -15.4835E-03     16.9443E-03    -15.4580E-03     30.7496E-03    -15.4338E-03     16.8882E-03
             829     5.31731E-03     84.7801E-03    -14.3025E+06    -43.0259E+06    -4.09051E+06    -4.57304E+06    -15.4745E-03     30.9613E-03    -15.4868E-03     20.6887E-03    -15.4786E-03     30.7737E-03    -15.4241E-03     20.6263E-03
             830     6.20365E-03     84.8009E-03    -12.3866E+06    -42.6158E+06    -1.42233E+06    -5.25464E+06    -15.5031E-03     30.9903E-03    -15.4872E-03     24.5817E-03    -15.5025E-03     30.7986E-03    -15.4146E-03     24.5096E-03
             831     7.08988E-03     84.8255E-03    -10.7228E+06    -42.0153E+06     369.934E+03    -5.92459E+06    -15.5324E-03     31.0150E-03    -15.4825E-03     28.6451E-03    -15.5277E-03     30.8220E-03    -15.4042E-03     28.5631E-03
             832     7.97631E-03     84.8538E-03    -9.41581E+06    -42.5711E+06     1.82751E+06    -6.42695E+06    -15.5767E-03     31.0542E-03    -15.4775E-03     32.8208E-03    -15.5678E-03     30.8555E-03    -15.3930E-03     32.7306E-03
             833     8.86256E-03     84.8861E-03    -8.04387E+06    -41.8529E+06     2.49250E+06    -6.94682E+06    -15.6376E-03     31.1042E-03    -15.4666E-03     37.0905E-03    -15.6256E-03     30.9078E-03    -15.3818E-03     36.9914E-03
             834     9.74906E-03     84.9222E-03    -6.61147E+06    -42.1497E+06     2.78822E+06    -7.03307E+06    -15.7326E-03     31.1892E-03    -15.4566E-03     41.3473E-03    -15.7160E-03     30.9914E-03    -15.3719E-03     41.2439E-03
             835     10.6352E-03     84.9624E-03    -5.66083E+06    -40.8309E+06     1.42483E+06    -7.28066E+06    -15.8340E-03     31.2728E-03    -15.4388E-03     45.5204E-03    -15.8167E-03     31.0863E-03    -15.3642E-03     45.4099E-03
             836     11.5218E-03     85.0062E-03    -4.66295E+06    -35.3722E+06     1.73214E+06    -7.37052E+06    -15.9381E-03     31.3631E-03    -15.4250E-03     49.8181E-03    -15.9305E-03     31.2084E-03    -15.3583E-03     49.7014E-03
             837     12.4078E-03     85.0546E-03    -4.04771E+06    -36.7454E+06    -1.65338E+06    -7.28966E+06    -16.0851E-03     31.4896E-03    -15.4045E-03     55.1938E-03    -16.0789E-03     31.3434E-03    -15.3536E-03     55.0718E-03
             838     13.2946E-03     85.1082E-03    -3.55927E+06    -30.2260E+06    -6.54524E+06    -6.96346E+06    -16.2455E-03     31.6118E-03    -15.3663E-03     60.8392E-03    -16.2587E-03     31.5240E-03    -15.3500E-03     60.7144E-03
             839     14.1804E-03     85.1671E-03    -2.89175E+06    -5.90616E+06    -2.86793E+06    -5.94467E+06    -16.3820E-03     31.7284E-03    -15.3464E-03     66.3123E-03    -16.4634E-03     31.7869E-03    -15.3480E-03     66.1978E-03
             840     15.0672E-03     85.2306E-03    -2.53769E+06     14.4756E+06    -7.44094E+06    -3.70914E+06    -16.8559E-03     32.1480E-03    -15.2921E-03     81.5179E-03    -17.0686E-03     32.4247E-03    -15.3466E-03     81.4483E-03
             841     15.9524E-03     85.3177E-03    -3.31048E+06     44.1993E+06    -25.3163E+06    -1.37075E+06    -17.9414E-03     33.1035E-03    -15.1621E-03     111.298E-03    -18.7228E-03     34.1034E-03    -15.3480E-03     111.487E-03
             842     16.8419E-03     85.4382E-03    -2.74801E+06     112.975E+06     17.9271E+06    -626.273E+03    -16.5856E-03     31.8535E-03    -15.2679E-03     98.0264E-03    -17.6328E-03     33.2401E-03    -15.3381E-03     98.5925E-03
             843     886.252E-06     85.7038E-03    -21.7376E+06    -47.1900E+06    -20.8660E+06    -1.29067E+06    -15.4719E-03     30.9069E-03    -15.4350E-03     3.43078E-03    -15.4816E-03     30.7332E-03    -15.4394E-03     3.41366E-03
             844     1.77238E-03     85.7083E-03    -20.3855E+06    -45.7250E+06    -17.8694E+06     -2.0568E+06    -15.4475E-03     30.9100E-03    -15.4626E-03     6.56450E-03    -15.4572E-03     30.7369E-03    -15.4561E-03     6.53704E-03
             845     2.65860E-03     85.7158E-03    -18.7192E+06    -43.6622E+06    -14.3834E+06    -2.79051E+06    -15.4356E-03     30.9027E-03    -15.4671E-03     9.92294E-03    -15.4452E-03     30.7325E-03    -15.4485E-03     9.88550E-03
             846     3.54486E-03     85.7266E-03    -17.0596E+06    -42.9735E+06    -10.3872E+06    -3.50561E+06    -15.4343E-03     30.9078E-03    -15.4735E-03     13.3513E-03    -15.4426E-03     30.7331E-03    -15.4384E-03     13.3041E-03
             847     4.43106E-03     85.7405E-03    -15.3452E+06    -42.4624E+06    -6.65644E+06    -4.10904E+06    -15.4390E-03     30.9170E-03    -15.4780E-03     16.9483E-03    -15.4451E-03     30.7371E-03    -15.4274E-03     16.8926E-03
             848     5.31743E-03     85.7578E-03    -13.4840E+06    -41.5042E+06    -3.68113E+06    -4.87531E+06    -15.4497E-03     30.9266E-03    -15.4769E-03     20.6977E-03    -15.4525E-03     30.7448E-03    -15.4156E-03     20.6314E-03
             849     6.20366E-03     85.7787E-03    -11.5853E+06    -40.9391E+06    -926.344E+03    -5.57194E+06    -15.4730E-03     30.9477E-03    -15.4747E-03     24.5886E-03    -15.4716E-03     30.7625E-03    -15.4032E-03     24.5124E-03
             850     7.09007E-03     85.8032E-03    -9.91377E+06    -40.7747E+06     1.18521E+06    -6.01427E+06    -15.5069E-03     30.9769E-03    -15.4700E-03     28.6523E-03    -15.5011E-03     30.7877E-03    -15.3906E-03     28.5691E-03
             851     7.97632E-03     85.8315E-03    -8.44583E+06    -41.1547E+06     2.58639E+06    -6.45709E+06    -15.5581E-03     31.0212E-03    -15.4631E-03     32.8324E-03    -15.5475E-03     30.8271E-03    -15.3783E-03     32.7419E-03
             852     8.86281E-03     85.8637E-03    -7.43763E+06    -40.5679E+06     3.24161E+06    -6.96187E+06    -15.6323E-03     31.0853E-03    -15.4530E-03     37.1083E-03    -15.6202E-03     30.8934E-03    -15.3672E-03     37.0090E-03
             853     9.74903E-03     85.9000E-03    -6.60387E+06    -41.4106E+06     3.07586E+06    -7.36192E+06    -15.7185E-03     31.1613E-03    -15.4428E-03     41.3822E-03    -15.7034E-03     30.9668E-03    -15.3578E-03     41.2747E-03
             854     10.6356E-03     85.9400E-03    -5.50327E+06    -39.6701E+06     1.86104E+06    -7.56357E+06    -15.8160E-03     31.2408E-03    -15.4248E-03     45.5924E-03    -15.8002E-03     31.0592E-03    -15.3500E-03     45.4783E-03
             855     11.5217E-03     85.9841E-03    -4.83816E+06    -35.0151E+06     1.77099E+06    -7.70125E+06    -15.9037E-03     31.3135E-03    -15.4098E-03     49.9306E-03    -15.8975E-03     31.1607E-03    -15.3431E-03     49.8098E-03
             856     12.4084E-03     86.0321E-03    -4.22356E+06    -36.0214E+06    -1.64149E+06    -7.61384E+06    -16.0651E-03     31.4527E-03    -15.3876E-03     55.2894E-03    -16.0608E-03     31.3104E-03    -15.3375E-03     55.1633E-03
             857     13.2943E-03     86.0860E-03    -3.93637E+06    -30.3826E+06    -6.85597E+06    -7.58723E+06    -16.2304E-03     31.5796E-03    -15.3492E-03     60.9380E-03    -16.2450E-03     31.4923E-03    -15.3337E-03     60.8051E-03
             858     14.1813E-03     86.1446E-03    -3.65823E+06    -6.86345E+06    -3.51948E+06    -6.76998E+06    -16.2783E-03     31.6050E-03    -15.3267E-03     66.3567E-03    -16.3609E-03     31.6605E-03    -15.3291E-03     66.2319E-03
             859     15.0672E-03     86.2087E-03    -2.57712E+06     11.7288E+06    -8.29943E+06    -4.86672E+06    -16.7760E-03     32.0442E-03    -15.2682E-03     81.7279E-03    -16.9849E-03     32.3097E-03    -15.3230E-03     81.6441E-03
             860     15.9543E-03     86.2956E-03    -1.57285E+06     41.9573E+06    -25.4846E+06    -2.62038E+06    -17.6973E-03     32.8282E-03    -15.1309E-03     110.936E-03    -18.4671E-03     33.8153E-03    -15.3169E-03     111.118E-03
             861     16.8395E-03     86.4138E-03    -1.91902E+06     112.857E+06     18.4632E+06    -308.115E+03    -16.8040E-03     32.0453E-03    -15.2413E-03     96.2022E-03    -17.8376E-03     33.4192E-03    -15.3098E-03     96.7630E-03
             862     886.139E-06     86.6816E-03    -20.4641E+06    -44.7658E+06    -19.6291E+06    -1.15771E+06    -15.4272E-03     30.8764E-03    -15.4492E-03     3.42662E-03    -15.4358E-03     30.7111E-03    -15.4528E-03     3.41124E-03
             863     1.77244E-03     86.6861E-03    -19.4072E+06    -43.5530E+06    -16.8002E+06    -2.28461E+06    -15.4316E-03     30.8788E-03    -15.4472E-03     6.55778E-03    -15.4411E-03     30.7136E-03    -15.4399E-03     6.52738E-03
             864     2.65865E-03     86.6937E-03    -17.9013E+06    -41.8706E+06    -13.2164E+06    -2.98541E+06    -15.4301E-03     30.8847E-03    -15.4545E-03     9.92014E-03    -15.4399E-03     30.7206E-03    -15.4340E-03     9.88019E-03
             865     3.54486E-03     86.7044E-03    -16.1796E+06    -41.2583E+06    -9.25803E+06    -3.58627E+06    -15.4281E-03     30.8912E-03    -15.4631E-03     13.3550E-03    -15.4361E-03     30.7221E-03    -15.4261E-03     13.3067E-03
             866     4.43119E-03     86.7183E-03    -14.1396E+06    -40.7555E+06    -5.54594E+06    -4.34724E+06    -15.4242E-03     30.8914E-03    -15.4672E-03     16.9418E-03    -15.4283E-03     30.7167E-03    -15.4154E-03     16.8830E-03
             867     5.31740E-03     86.7356E-03    -12.0914E+06    -39.6098E+06    -2.56776E+06    -5.18194E+06    -15.4228E-03     30.8867E-03    -15.4639E-03     20.7026E-03    -15.4230E-03     30.7108E-03    -15.4018E-03     20.6323E-03
             868     6.20383E-03     86.7564E-03    -10.3923E+06    -39.6137E+06    -68.7465E+03    -5.72912E+06    -15.4459E-03     30.9051E-03    -15.4592E-03     24.5974E-03    -15.4416E-03     30.7236E-03    -15.3871E-03     24.5191E-03
             869     7.09011E-03     86.7809E-03    -8.87075E+06    -39.4016E+06     2.10774E+06    -6.14594E+06    -15.4857E-03     30.9394E-03    -15.4537E-03     28.6433E-03    -15.4780E-03     30.7542E-03    -15.3732E-03     28.5585E-03
             870     7.97659E-03     86.8091E-03    -7.51214E+06    -40.0014E+06     3.64134E+06    -6.50742E+06    -15.5456E-03     30.9934E-03    -15.4478E-03     32.8304E-03    -15.5335E-03     30.8021E-03    -15.3607E-03     32.7392E-03
             871     8.86284E-03     86.8414E-03    -6.30672E+06    -39.3343E+06     4.31900E+06    -6.75541E+06    -15.6110E-03     31.0482E-03    -15.4373E-03     37.1260E-03    -15.5965E-03     30.8592E-03    -15.3495E-03     37.0294E-03
             872     9.74935E-03     86.8776E-03    -5.30204E+06    -40.0219E+06     4.14345E+06    -7.34979E+06    -15.6861E-03     31.1115E-03    -15.4254E-03     41.4269E-03    -15.6680E-03     30.9205E-03    -15.3390E-03     41.3196E-03
             873     10.6356E-03     86.9177E-03    -4.66345E+06    -38.9785E+06     2.39661E+06    -7.73652E+06    -15.7784E-03     31.1831E-03    -15.4047E-03     45.6922E-03    -15.7601E-03     31.0030E-03    -15.3295E-03     45.5760E-03
             874     11.5222E-03     86.9617E-03    -3.95065E+06    -34.1908E+06     2.43409E+06    -7.74616E+06    -15.8741E-03     31.2628E-03    -15.3887E-03     49.9935E-03    -15.8656E-03     31.1119E-03    -15.3213E-03     49.8722E-03
             875     12.4084E-03     87.0097E-03    -3.60441E+06    -35.6821E+06    -1.17184E+06    -7.78551E+06    -16.0611E-03     31.4279E-03    -15.3668E-03     55.3853E-03    -16.0550E-03     31.2857E-03    -15.3157E-03     55.2570E-03
             876     13.2950E-03     87.0638E-03    -3.66689E+06    -29.7319E+06    -6.17577E+06    -7.60852E+06    -16.2575E-03     31.5889E-03    -15.3314E-03     61.0191E-03    -16.2728E-03     31.5036E-03    -15.3139E-03     60.8859E-03
             877     14.1808E-03     87.1222E-03    -3.68273E+06    -7.91839E+06    -3.51861E+06    -7.19442E+06    -16.2614E-03     31.5714E-03    -15.3100E-03     66.2666E-03    -16.3425E-03     31.6216E-03    -15.3108E-03     66.1365E-03
             878     15.0679E-03     87.1862E-03    -3.59896E+06     10.1274E+06    -9.07442E+06    -6.26060E+06    -16.6686E-03     31.9163E-03    -15.2477E-03     81.5536E-03    -16.8784E-03     32.1756E-03    -15.3025E-03     81.4529E-03
             879     15.9539E-03     87.2732E-03    -4.54317E+06     38.7894E+06    -27.0392E+06    -3.62951E+06    -17.8742E-03     32.9885E-03    -15.1142E-03     111.263E-03    -18.6514E-03     33.9656E-03    -15.2991E-03     111.428E-03
             880     16.8400E-03     87.3934E-03    -3.31215E+06     110.237E+06     15.5177E+06    -794.125E+03    -16.9435E-03     32.1659E-03    -15.2224E-03     97.1547E-03    -17.9814E-03     33.5384E-03    -15.2998E-03     97.7113E-03
             881     886.286E-06     87.6595E-03    -19.4257E+06    -42.3411E+06    -19.0865E+06    -1.13737E+06    -15.3964E-03     30.8273E-03    -15.4309E-03     3.47085E-03    -15.4041E-03     30.6718E-03    -15.4368E-03     3.45571E-03
             882     1.77243E-03     87.6639E-03    -18.6842E+06    -41.1273E+06    -16.3544E+06    -2.25868E+06    -15.4194E-03     30.8428E-03    -15.4234E-03     6.57374E-03    -15.4295E-03     30.6880E-03    -15.4184E-03     6.54369E-03
             883     2.65869E-03     87.6715E-03    -17.2723E+06    -40.1322E+06    -12.4586E+06    -3.10057E+06    -15.4135E-03     30.8498E-03    -15.4363E-03     9.91918E-03    -15.4237E-03     30.6924E-03    -15.4154E-03     9.87775E-03
             884     3.54497E-03     87.6822E-03    -15.3184E+06    -39.3397E+06    -8.36930E+06    -3.84864E+06    -15.4076E-03     30.8526E-03    -15.4450E-03     13.3549E-03    -15.4154E-03     30.6906E-03    -15.4076E-03     13.3033E-03
             885     4.43117E-03     87.6961E-03    -13.2502E+06    -38.8139E+06    -4.74180E+06    -4.76388E+06    -15.3973E-03     30.8449E-03    -15.4476E-03     16.9434E-03    -15.4009E-03     30.6775E-03    -15.3958E-03     16.8793E-03
             886     5.31762E-03     87.7133E-03    -11.4021E+06    -37.9784E+06    -1.80631E+06    -5.35576E+06    -15.3992E-03     30.8429E-03    -15.4438E-03     20.7082E-03    -15.3994E-03     30.6731E-03    -15.3812E-03     20.6358E-03
             887     6.20389E-03     87.7341E-03    -9.73068E+06    -38.2225E+06     648.608E+03    -5.85201E+06    -15.4245E-03     30.8634E-03    -15.4390E-03     24.6018E-03    -15.4200E-03     30.6868E-03    -15.3662E-03     24.5220E-03
             888     7.09034E-03     87.7585E-03    -8.36393E+06    -38.2933E+06     2.65707E+06    -6.07736E+06    -15.4627E-03     30.8957E-03    -15.4330E-03     28.6566E-03    -15.4549E-03     30.7145E-03    -15.3521E-03     28.5727E-03
             889     7.97661E-03     87.7869E-03    -7.23627E+06    -38.6887E+06     4.18664E+06    -6.41218E+06    -15.5135E-03     30.9399E-03    -15.4264E-03     32.8701E-03    -15.5027E-03     30.7540E-03    -15.3389E-03     32.7803E-03
             890     8.86313E-03     87.8190E-03    -5.87127E+06    -38.0889E+06     4.70847E+06    -7.07687E+06    -15.5652E-03     30.9785E-03    -15.4133E-03     37.1758E-03    -15.5509E-03     30.7945E-03    -15.3260E-03     37.0751E-03
             891     9.74948E-03     87.8552E-03    -4.52269E+06    -38.6899E+06     4.72467E+06    -7.46619E+06    -15.6433E-03     31.0431E-03    -15.3998E-03     41.4925E-03    -15.6240E-03     30.8567E-03    -15.3135E-03     41.3838E-03
             892     10.6361E-03     87.8953E-03    -3.52383E+06    -38.0568E+06     3.21097E+06    -7.79756E+06    -15.7488E-03     31.1278E-03    -15.3791E-03     45.7550E-03    -15.7272E-03     30.9494E-03    -15.3027E-03     45.6381E-03
             893     11.5223E-03     87.9393E-03    -3.04513E+06    -33.7892E+06     2.96618E+06    -7.72494E+06    -15.8574E-03     31.2201E-03    -15.3627E-03     50.0692E-03    -15.8457E-03     31.0690E-03    -15.2944E-03     49.9483E-03
             894     12.4089E-03     87.9874E-03    -2.82557E+06    -34.8912E+06    -416.245E+03    -7.60571E+06    -16.0612E-03     31.4035E-03    -15.3424E-03     55.5032E-03    -16.0534E-03     31.2631E-03    -15.2897E-03     55.3773E-03
             895     13.2950E-03     88.0414E-03    -2.70569E+06    -29.4635E+06    -5.51306E+06    -7.65677E+06    -16.2498E-03     31.5579E-03    -15.3081E-03     61.1502E-03    -16.2616E-03     31.4715E-03    -15.2890E-03     61.0165E-03
             896     14.1818E-03     88.1001E-03    -2.44628E+06    -7.74218E+06    -2.63300E+06    -7.46031E+06    -16.3334E-03     31.6241E-03    -15.2907E-03     66.3131E-03    -16.4100E-03     31.6722E-03    -15.2890E-03     66.1793E-03
             897     15.0676E-03     88.1634E-03    -2.35016E+06     8.66172E+06    -8.48129E+06    -6.37755E+06    -16.8563E-03     32.0938E-03    -15.2376E-03     81.5987E-03    -17.0587E-03     32.3432E-03    -15.2891E-03     81.4954E-03
             898     15.9545E-03     88.2512E-03    -2.16663E+06     35.4867E+06    -26.8932E+06    -4.10623E+06    -17.8537E-03     32.9617E-03    -15.1080E-03     111.136E-03    -18.6135E-03     33.9178E-03    -15.2908E-03     111.295E-03
             899     16.8414E-03     88.3707E-03    -2.03697E+06     108.301E+06     16.2906E+06    -1.51146E+06    -16.9472E-03     32.1664E-03    -15.2192E-03     96.3134E-03    -17.9704E-03     33.5197E-03    -15.2919E-03     96.8561E-03
             900     886.218E-06     88.6372E-03    -17.6640E+06    -39.9542E+06    -17.4407E+06    -1.39951E+06    -15.3895E-03     30.7829E-03    -15.3935E-03     3.47606E-03    -15.3942E-03     30.6345E-03    -15.3971E-03     3.45753E-03
             901     1.77253E-03     88.6418E-03    -17.0065E+06    -38.7630E+06    -14.8220E+06    -2.15328E+06    -15.4031E-03     30.8047E-03    -15.4016E-03     6.56909E-03    -15.4104E-03     30.6571E-03    -15.3948E-03     6.54041E-03
             902     2.65875E-03     88.6493E-03    -15.7975E+06    -38.0971E+06    -11.0788E+06    -3.09638E+06    -15.3912E-03     30.8065E-03    -15.4153E-03     9.90385E-03    -15.3990E-03     30.6551E-03    -15.3926E-03     9.86250E-03
             903     3.54500E-03     88.6600E-03    -14.0365E+06    -37.1196E+06    -7.38315E+06    -4.19713E+06    -15.3663E-03     30.7858E-03    -15.4195E-03     13.3512E-03    -15.3722E-03     30.6316E-03    -15.3823E-03     13.2951E-03
             904     4.43142E-03     88.6737E-03    -12.1744E+06    -36.9844E+06    -3.80947E+06    -4.95793E+06    -15.3678E-03     30.7880E-03    -15.4202E-03     16.9443E-03    -15.3700E-03     30.6268E-03    -15.3680E-03     16.8777E-03
             905     5.31766E-03     88.6910E-03    -10.4675E+06    -36.5178E+06    -937.593E+03    -5.44295E+06    -15.3802E-03     30.7973E-03    -15.4171E-03     20.7112E-03    -15.3791E-03     30.6321E-03    -15.3537E-03     20.6376E-03
             906     6.20411E-03     88.7118E-03    -9.12988E+06    -36.9621E+06     1.31028E+06    -5.66393E+06    -15.3921E-03     30.8043E-03    -15.4122E-03     24.6150E-03    -15.3874E-03     30.6322E-03    -15.3389E-03     24.5377E-03
             907     7.09045E-03     88.7362E-03    -7.93639E+06    -37.2942E+06     3.04375E+06    -5.90551E+06    -15.4169E-03     30.8210E-03    -15.4040E-03     28.7062E-03    -15.4090E-03     30.6436E-03    -15.3232E-03     28.6246E-03
             908     7.97698E-03     88.7644E-03    -6.54347E+06    -37.1269E+06     4.59102E+06    -6.42781E+06    -15.4620E-03     30.8560E-03    -15.3940E-03     32.9465E-03    -15.4506E-03     30.6763E-03    -15.3077E-03     32.8565E-03
             909     8.86334E-03     88.7966E-03    -5.43776E+06    -36.5334E+06     5.41529E+06    -7.17138E+06    -15.5228E-03     30.9038E-03    -15.3811E-03     37.2458E-03    -15.5095E-03     30.7259E-03    -15.2931E-03     37.1440E-03
             910     9.74991E-03     88.8327E-03    -4.38228E+06    -37.5084E+06     5.33240E+06    -7.86787E+06    -15.6076E-03     30.9750E-03    -15.3674E-03     41.5835E-03    -15.5902E-03     30.7934E-03    -15.2800E-03     41.4697E-03
             911     10.6362E-03     88.8728E-03    -3.42231E+06    -37.2743E+06     3.90971E+06    -7.94961E+06    -15.7225E-03     31.0705E-03    -15.3480E-03     45.8675E-03    -15.7026E-03     30.8948E-03    -15.2694E-03     45.7487E-03
             912     11.5229E-03     88.9169E-03    -2.65858E+06    -33.4473E+06     3.74851E+06    -7.77615E+06    -15.8423E-03     31.1753E-03    -15.3330E-03     50.1856E-03    -15.8302E-03     31.0242E-03    -15.2619E-03     50.0641E-03
             913     12.4091E-03     88.9649E-03    -2.10750E+06    -34.2630E+06     639.906E+03    -7.60631E+06    -16.0511E-03     31.3654E-03    -15.3143E-03     55.6718E-03    -16.0421E-03     31.2254E-03    -15.2583E-03     55.5460E-03
             914     13.2957E-03     89.0192E-03    -2.04938E+06    -28.6753E+06    -4.23158E+06    -7.78480E+06    -16.2764E-03     31.5597E-03    -15.2833E-03     61.2402E-03    -16.2878E-03     31.4743E-03    -15.2599E-03     61.1049E-03
             915     14.1817E-03     89.0775E-03    -2.03254E+06    -7.64787E+06    -1.70018E+06    -7.79567E+06    -16.4112E-03     31.6815E-03    -15.2703E-03     66.3408E-03    -16.4873E-03     31.7282E-03    -15.2648E-03     66.2025E-03
             916     15.0683E-03     89.1418E-03    -1.25341E+06     7.31794E+06    -7.12389E+06    -7.15569E+06    -16.9927E-03     32.2204E-03    -15.2277E-03     81.7780E-03    -17.1896E-03     32.4596E-03    -15.2721E-03     81.6635E-03
             917     15.9539E-03     89.2286E-03    -1.74529E+06     32.0137E+06    -26.3305E+06    -5.11266E+06    -18.2298E-03     33.3419E-03    -15.1121E-03     111.571E-03    -18.9889E-03     34.2848E-03    -15.2877E-03     111.714E-03
             918     16.8391E-03     89.3491E-03    -2.50950E+06     105.665E+06     14.9980E+06    -1.35791E+06    -16.9865E-03     32.2109E-03    -15.2244E-03     96.5027E-03    -18.0130E-03     33.5601E-03    -15.2990E-03     97.0496E-03
             919     886.293E-06     89.6150E-03    -17.0920E+06    -37.5186E+06    -16.3319E+06    -1.24734E+06    -15.3744E-03     30.7429E-03    -15.3685E-03     3.48103E-03    -15.3814E-03     30.6042E-03    -15.3710E-03     3.46447E-03
             920     1.77251E-03     89.6195E-03    -16.3335E+06    -36.6141E+06    -13.9395E+06    -2.08946E+06    -15.3623E-03     30.7407E-03    -15.3784E-03     6.58082E-03    -15.3707E-03     30.6015E-03    -15.3713E-03     6.55298E-03
             921     2.65881E-03     89.6271E-03    -14.7563E+06    -35.6714E+06    -10.3916E+06    -3.22818E+06    -15.3429E-03     30.7260E-03    -15.3831E-03     9.89866E-03    -15.3500E-03     30.5842E-03    -15.3619E-03     9.85563E-03
             922     3.54519E-03     89.6376E-03    -13.0135E+06    -34.7456E+06    -6.44685E+06    -4.36813E+06    -15.3269E-03     30.7119E-03    -15.3849E-03     13.3486E-03    -15.3326E-03     30.5667E-03    -15.3479E-03     13.2903E-03
             923     4.43147E-03     89.6515E-03    -11.2421E+06    -35.3290E+06    -2.92219E+06    -5.13341E+06    -15.3305E-03     30.7161E-03    -15.3856E-03     16.9576E-03    -15.3317E-03     30.5605E-03    -15.3327E-03     16.8888E-03
             924     5.31793E-03     89.6687E-03    -9.56613E+06    -35.1787E+06    -62.1225E+03    -5.39665E+06    -15.3349E-03     30.7166E-03    -15.3817E-03     20.7317E-03    -15.3324E-03     30.5555E-03    -15.3172E-03     20.6588E-03
             925     6.20428E-03     89.6894E-03    -7.99150E+06    -36.0133E+06     2.33446E+06    -5.52055E+06    -15.3443E-03     30.7203E-03    -15.3761E-03     24.6542E-03    -15.3367E-03     30.5498E-03    -15.3006E-03     24.5788E-03
             926     7.09081E-03     89.7137E-03    -6.23976E+06    -35.6757E+06     4.38420E+06    -6.06665E+06    -15.3671E-03     30.7330E-03    -15.3658E-03     28.7605E-03    -15.3550E-03     30.5593E-03    -15.2831E-03     28.6769E-03
             927     7.97723E-03     89.7419E-03    -4.59829E+06    -35.9329E+06     6.11683E+06    -6.63946E+06    -15.4095E-03     30.7646E-03    -15.3551E-03     33.0015E-03    -15.3923E-03     30.5858E-03    -15.2658E-03     32.9089E-03
             928     8.86381E-03     89.7741E-03    -3.33145E+06    -34.9833E+06     7.34106E+06    -6.93105E+06    -15.4791E-03     30.8212E-03    -15.3421E-03     37.3336E-03    -15.4604E-03     30.6452E-03    -15.2498E-03     37.2350E-03
             929     9.75022E-03     89.8102E-03    -2.76977E+06    -36.0147E+06     7.25829E+06    -7.56580E+06    -15.5805E-03     30.9099E-03    -15.3293E-03     41.6854E-03    -15.5600E-03     30.7305E-03    -15.2368E-03     41.5756E-03
             930     10.6369E-03     89.8504E-03    -2.42261E+06    -36.7501E+06     5.26227E+06    -7.88603E+06    -15.6950E-03     31.0052E-03    -15.3102E-03     46.0031E-03    -15.6727E-03     30.8286E-03    -15.2271E-03     45.8853E-03
             931     11.5232E-03     89.8944E-03    -1.69679E+06    -32.4955E+06     4.87725E+06    -8.13121E+06    -15.8313E-03     31.1261E-03    -15.2948E-03     50.3672E-03    -15.8174E-03     30.9767E-03    -15.2209E-03     50.2412E-03
             932     12.4097E-03     89.9426E-03    -743.324E+03    -34.2700E+06     1.79355E+06    -8.04385E+06    -16.0581E-03     31.3373E-03    -15.2792E-03     55.8644E-03    -16.0438E-03     31.1935E-03    -15.2195E-03     55.7331E-03
             933     13.2959E-03     89.9968E-03    -354.009E+03    -27.7138E+06    -2.59681E+06    -7.61894E+06    -16.3441E-03     31.5970E-03    -15.2530E-03     61.5268E-03    -16.3509E-03     31.5118E-03    -15.2253E-03     61.3936E-03
             934     14.1822E-03     90.0556E-03    -420.168E+03    -7.14943E+06    -106.016E+03    -7.90715E+06    -16.5122E-03     31.7594E-03    -15.2472E-03     66.5411E-03    -16.5835E-03     31.8041E-03    -15.2368E-03     66.4010E-03
             935     15.0683E-03     90.1191E-03    -1.47530E+06     6.33226E+06    -6.46865E+06    -7.10126E+06    -16.9910E-03     32.1998E-03    -15.2088E-03     81.9767E-03    -17.1889E-03     32.4338E-03    -15.2482E-03     81.8631E-03
             936     15.9550E-03     90.2073E-03    -3.79839E+06     28.5498E+06    -25.7801E+06    -4.34985E+06    -18.0931E-03     33.1878E-03    -15.0947E-03     112.590E-03    -18.8567E-03     34.1140E-03    -15.2594E-03     112.746E-03
             937     16.8409E-03     90.3280E-03    -3.44600E+06     102.582E+06     14.6190E+06    -1.81247E+06    -16.9907E-03     32.1857E-03    -15.1951E-03     97.1213E-03    -18.0145E-03     33.5192E-03    -15.2657E-03     97.6653E-03
             938     886.263E-06     90.5927E-03    -16.7454E+06    -35.4240E+06    -15.6651E+06    -649.642E+03    -15.3196E-03     30.6669E-03    -15.3473E-03     3.51090E-03    -15.3289E-03     30.5372E-03    -15.3499E-03     3.50207E-03
             939     1.77260E-03     90.5973E-03    -15.4358E+06    -33.8302E+06    -12.9467E+06    -2.33837E+06    -15.3131E-03     30.6520E-03    -15.3389E-03     6.59037E-03    -15.3225E-03     30.5241E-03    -15.3322E-03     6.55933E-03
             940     2.65897E-03     90.6047E-03    -13.6189E+06    -33.2538E+06    -9.45723E+06    -3.66883E+06    -15.2898E-03     30.6292E-03    -15.3395E-03     9.90101E-03    -15.2961E-03     30.4966E-03    -15.3188E-03     9.85233E-03
             941     3.54529E-03     90.6153E-03    -11.8067E+06    -32.4392E+06    -5.46395E+06    -4.53925E+06    -15.2820E-03     30.6217E-03    -15.3397E-03     13.3624E-03    -15.2864E-03     30.4848E-03    -15.3028E-03     13.3020E-03
             942     4.43174E-03     90.6290E-03    -10.1049E+06    -33.7026E+06    -1.54892E+06    -5.15142E+06    -15.2767E-03     30.6190E-03    -15.3423E-03     16.9798E-03    -15.2766E-03     30.4679E-03    -15.2865E-03     16.9109E-03
             943     5.31812E-03     90.6462E-03    -8.41826E+06    -34.0485E+06     1.21333E+06    -5.42623E+06    -15.2702E-03     30.6064E-03    -15.3362E-03     20.7546E-03    -15.2655E-03     30.4475E-03    -15.2686E-03     20.6814E-03
             944     6.20466E-03     90.6669E-03    -6.56646E+06    -34.6636E+06     3.42230E+06    -5.85423E+06    -15.2826E-03     30.6088E-03    -15.3263E-03     24.6913E-03    -15.2714E-03     30.4414E-03    -15.2494E-03     24.6117E-03
             945     7.09111E-03     90.6912E-03    -4.98442E+06    -34.1861E+06     5.32452E+06    -6.30331E+06    -15.3053E-03     30.6189E-03    -15.3135E-03     28.8291E-03    -15.2903E-03     30.4494E-03    -15.2301E-03     28.7425E-03
             946     7.97770E-03     90.7194E-03    -3.82926E+06    -34.7343E+06     6.85391E+06    -6.64005E+06    -15.3427E-03     30.6441E-03    -15.3013E-03     33.0962E-03    -15.3244E-03     30.4690E-03    -15.2112E-03     33.0037E-03
             947     8.86422E-03     90.7514E-03    -2.86507E+06    -34.0289E+06     7.78184E+06    -6.85751E+06    -15.4157E-03     30.7020E-03    -15.2863E-03     37.4904E-03    -15.3966E-03     30.5293E-03    -15.1938E-03     37.3929E-03
             948     9.75086E-03     90.7877E-03    -1.95372E+06    -34.5331E+06     8.29042E+06    -7.05559E+06    -15.5323E-03     30.8071E-03    -15.2748E-03     41.8576E-03    -15.5112E-03     30.6324E-03    -15.1805E-03     41.7546E-03
             949     10.6372E-03     90.8276E-03    -1.24675E+06    -35.6342E+06     6.56546E+06    -7.72699E+06    -15.6660E-03     30.9240E-03    -15.2580E-03     46.2067E-03    -15.6413E-03     30.7493E-03    -15.1717E-03     46.0911E-03
             950     11.5239E-03     90.8719E-03    -607.984E+03    -31.1643E+06     5.88656E+06    -8.39489E+06    -15.8216E-03     31.0647E-03    -15.2431E-03     50.6446E-03    -15.8056E-03     30.9188E-03    -15.1676E-03     50.5154E-03
             951     12.4102E-03     90.9200E-03    -111.701E+03    -34.1964E+06     2.42046E+06    -8.55005E+06    -16.0941E-03     31.3261E-03    -15.2321E-03     56.1340E-03    -16.0777E-03     31.1810E-03    -15.1702E-03     55.9961E-03
             952     13.2967E-03     90.9746E-03     167.946E+03    -27.9415E+06    -1.99988E+06    -7.75748E+06    -16.3772E-03     31.5883E-03    -15.2111E-03     61.9005E-03    -16.3820E-03     31.5004E-03    -15.1809E-03     61.7655E-03
             953     14.1828E-03     91.0335E-03    -272.246E+03    -5.96758E+06     1.67746E+06    -7.20685E+06    -16.5983E-03     31.8139E-03    -15.2157E-03     66.8239E-03    -16.6737E-03     31.8624E-03    -15.1982E-03     66.6925E-03
             954     15.0690E-03     91.0972E-03    -856.686E+03     4.47908E+06    -4.94730E+06    -6.31413E+06    -17.1099E-03     32.2976E-03    -15.1878E-03     81.9384E-03    -17.3058E-03     32.5208E-03    -15.2178E-03     81.8347E-03
             955     15.9549E-03     91.1845E-03    -593.761E+03     24.6109E+06    -24.6559E+06    -3.84345E+06    -17.8196E-03     32.8885E-03    -15.0688E-03     112.051E-03    -18.5568E-03     33.7824E-03    -15.2270E-03     112.215E-03
             956     16.8423E-03     91.3056E-03    -1.31934E+06     100.898E+06     17.3555E+06    -1.74833E+06    -17.0845E-03     32.2575E-03    -15.1730E-03     96.6658E-03    -18.0913E-03     33.5674E-03    -15.2306E-03     97.2062E-03
             957     886.387E-06     91.5704E-03    -14.3562E+06    -33.4149E+06    -14.4960E+06    -761.159E+03    -15.2614E-03     30.5590E-03    -15.2976E-03     3.56125E-03    -15.2634E-03     30.4341E-03    -15.3008E-03     3.55099E-03
             958     1.77269E-03     91.5748E-03    -13.6287E+06    -30.3127E+06    -12.0309E+06    -2.70417E+06    -15.2544E-03     30.5320E-03    -15.2776E-03     6.57527E-03    -15.2611E-03     30.4177E-03    -15.2741E-03     6.53954E-03
             959     2.65907E-03     91.5823E-03    -12.4372E+06    -30.9547E+06    -8.23162E+06    -3.99202E+06    -15.2365E-03     30.5188E-03    -15.2823E-03     9.92068E-03    -15.2420E-03     30.3941E-03    -15.2605E-03     9.86786E-03
             960     3.54553E-03     91.5928E-03    -10.9204E+06    -30.3898E+06    -4.38502E+06    -4.60750E+06    -15.2183E-03     30.5008E-03    -15.2826E-03     13.3785E-03    -15.2227E-03     30.3713E-03    -15.2446E-03     13.3172E-03
             961     4.43196E-03     91.6066E-03    -9.19644E+06    -32.0542E+06    -515.699E+03    -5.14216E+06    -15.2036E-03     30.4870E-03    -15.2835E-03     16.9884E-03    -15.2028E-03     30.3414E-03    -15.2262E-03     16.9196E-03
             962     5.31850E-03     91.6236E-03    -7.34782E+06    -32.6937E+06     2.05151E+06    -5.63441E+06    -15.1912E-03     30.4649E-03    -15.2737E-03     20.7879E-03    -15.1843E-03     30.3099E-03    -15.2054E-03     20.7121E-03
             963     6.20501E-03     91.6442E-03    -5.75317E+06    -33.1038E+06     3.70332E+06    -6.09058E+06    -15.1937E-03     30.4515E-03    -15.2578E-03     24.7681E-03    -15.1811E-03     30.2902E-03    -15.1829E-03     24.6856E-03
             964     7.09163E-03     91.6685E-03    -4.45319E+06    -33.1900E+06     5.33671E+06    -6.29598E+06    -15.2116E-03     30.4531E-03    -15.2415E-03     28.9325E-03    -15.1954E-03     30.2878E-03    -15.1602E-03     28.8462E-03
             965     7.97826E-03     91.6966E-03    -3.47984E+06    -33.6647E+06     6.98879E+06    -6.29587E+06    -15.2592E-03     30.4868E-03    -15.2277E-03     33.2353E-03    -15.2408E-03     30.3163E-03    -15.1389E-03     33.1475E-03
             966     8.86491E-03     91.7288E-03    -2.88495E+06    -33.1435E+06     7.89749E+06    -6.43229E+06    -15.3317E-03     30.5436E-03    -15.2119E-03     37.6817E-03    -15.3141E-03     30.3752E-03    -15.1202E-03     37.5900E-03
             967     9.75149E-03     91.7649E-03    -2.29074E+06    -33.1939E+06     8.42222E+06    -6.92863E+06    -15.4479E-03     30.6471E-03    -15.1992E-03     42.1296E-03    -15.4305E-03     30.4793E-03    -15.1056E-03     42.0285E-03
             968     10.6382E-03     91.8051E-03    -1.30136E+06    -33.7203E+06     7.36368E+06    -7.92687E+06    -15.6213E-03     30.8064E-03    -15.1851E-03     46.5134E-03    -15.6007E-03     30.6401E-03    -15.0975E-03     46.3955E-03
             969     11.5246E-03     91.8492E-03    -432.570E+03    -30.2287E+06     6.51753E+06    -8.52712E+06    -15.8149E-03     30.9886E-03    -15.1737E-03     51.0265E-03    -15.8002E-03     30.8462E-03    -15.0966E-03     50.8958E-03
             970     12.4111E-03     91.8978E-03     -405.05E+03    -33.8061E+06     2.75964E+06    -8.24155E+06    -16.1314E-03     31.2996E-03    -15.1681E-03     56.5700E-03    -16.1177E-03     31.1564E-03    -15.1047E-03     56.4362E-03
             971     13.2972E-03     91.9520E-03    -920.702E+03    -28.4623E+06    -2.35274E+06    -7.80999E+06    -16.4439E-03     31.5972E-03    -15.1534E-03     62.3137E-03    -16.4531E-03     31.5090E-03    -15.1226E-03     62.1780E-03
             972     14.1835E-03     92.0115E-03    -810.044E+03    -6.08398E+06     2.08524E+06    -6.76202E+06    -16.6357E-03     31.8024E-03    -15.1666E-03     67.2846E-03    -16.7145E-03     31.8506E-03    -15.1462E-03     67.1592E-03
             973     15.0694E-03     92.0752E-03    -1.01306E+06     3.78075E+06    -4.29878E+06    -6.01265E+06    -17.3697E-03     32.5208E-03    -15.1511E-03     82.2903E-03    -17.5676E-03     32.7410E-03    -15.1766E-03     82.1892E-03
             974     15.9555E-03     92.1625E-03    -2.30176E+06     21.7535E+06    -25.6283E+06    -4.73571E+06    -18.5528E-03     33.6127E-03    -15.0599E-03     111.455E-03    -19.2971E-03     34.5003E-03    -15.2162E-03     111.599E-03
             975     16.8413E-03     92.2823E-03    -2.89773E+06     98.4768E+06     14.7655E+06    -1.65973E+06    -17.1222E-03     32.3010E-03    -15.1788E-03     96.1956E-03    -18.1363E-03     33.6116E-03    -15.2436E-03     96.7376E-03
             976     886.348E-06     92.5479E-03    -12.1144E+06    -30.9431E+06    -13.0311E+06    -1.56487E+06    -15.2123E-03     30.4105E-03    -15.1982E-03     3.54096E-03    -15.2088E-03     30.2927E-03    -15.2010E-03     3.52033E-03
             977     1.77285E-03     92.5524E-03    -12.2840E+06    -26.9623E+06    -11.5131E+06    -2.72955E+06    -15.1687E-03     30.3630E-03    -15.1943E-03     6.61191E-03    -15.1743E-03     30.2627E-03    -15.1949E-03     6.57587E-03
             978     2.65932E-03     92.5597E-03    -11.4947E+06    -28.5319E+06    -7.05422E+06    -3.90980E+06    -15.1695E-03     30.3738E-03    -15.2043E-03     9.95146E-03    -15.1755E-03     30.2581E-03    -15.1815E-03     9.89974E-03
             979     3.54576E-03     92.5702E-03    -10.0770E+06    -28.7534E+06    -3.27816E+06    -4.44907E+06    -15.1383E-03     30.3455E-03    -15.2072E-03     13.4029E-03    -15.1425E-03     30.2213E-03    -15.1672E-03     13.3438E-03
             980     4.43232E-03     92.5839E-03    -8.62345E+06    -30.0559E+06    -462.501E+03    -5.07565E+06    -15.1035E-03     30.3038E-03    -15.2002E-03     17.0295E-03    -15.1029E-03     30.1672E-03    -15.1465E-03     16.9617E-03
             981     5.31889E-03     92.6009E-03    -7.12572E+06    -31.1229E+06     1.77779E+06    -5.81237E+06    -15.0817E-03     30.2675E-03    -15.1858E-03     20.8640E-03    -15.0756E-03     30.1204E-03    -15.1214E-03     20.7860E-03
             982     6.20558E-03     92.6215E-03    -5.63008E+06    -31.7973E+06     3.56326E+06    -6.12293E+06    -15.0771E-03     30.2439E-03    -15.1669E-03     24.8702E-03    -15.0655E-03     30.0892E-03    -15.0948E-03     24.7874E-03
             983     7.09227E-03     92.6456E-03    -4.42588E+06    -32.2820E+06     5.20529E+06    -6.23574E+06    -15.0991E-03     30.2470E-03    -15.1480E-03     29.0665E-03    -15.0838E-03     30.0863E-03    -15.0687E-03     28.9812E-03
             984     7.97900E-03     92.6738E-03    -3.27843E+06    -33.0835E+06     7.02904E+06    -6.09525E+06    -15.1440E-03     30.2765E-03    -15.1325E-03     33.4149E-03    -15.1255E-03     30.1085E-03    -15.0446E-03     33.3299E-03
             985     8.86572E-03     92.7058E-03    -2.26168E+06    -32.2899E+06     8.38941E+06    -5.92450E+06    -15.2159E-03     30.3313E-03    -15.1154E-03     37.9261E-03    -15.1970E-03     30.1654E-03    -15.0233E-03     37.8412E-03
             986     9.75253E-03     92.7421E-03    -1.68769E+06    -31.5587E+06     9.03475E+06    -6.42902E+06    -15.3480E-03     30.4485E-03    -15.1006E-03     42.4646E-03    -15.3307E-03     30.2870E-03    -15.0072E-03     42.3703E-03
             987     10.6391E-03     92.7823E-03    -1.65847E+06    -31.4958E+06     8.12176E+06    -7.64229E+06    -15.5493E-03     30.6375E-03    -15.0883E-03     46.9249E-03    -15.5347E-03     30.4817E-03    -14.9996E-03     46.8109E-03
             988     11.5258E-03     92.8266E-03    -2.04274E+06    -29.8982E+06     6.71417E+06    -7.98570E+06    -15.7942E-03     30.8764E-03    -15.0822E-03     51.4861E-03    -15.7882E-03     30.7376E-03    -15.0024E-03     51.3626E-03
             989     12.4121E-03     92.8751E-03    -2.28035E+06    -33.3327E+06     2.84688E+06    -7.72349E+06    -16.1656E-03     31.2487E-03    -15.0832E-03     57.1344E-03    -16.1621E-03     31.1105E-03    -15.0173E-03     57.0074E-03
             990     13.2984E-03     92.9300E-03    -2.12144E+06    -28.0167E+06    -2.00812E+06    -7.81509E+06    -16.5701E-03     31.6495E-03    -15.0794E-03     62.8298E-03    -16.5869E-03     31.5651E-03    -15.0457E-03     62.6938E-03
             991     14.1844E-03     92.9891E-03    -1.80235E+06    -7.14653E+06     1.95568E+06    -7.34408E+06    -16.8894E-03     31.9976E-03    -15.1082E-03     67.5640E-03    -16.9719E-03     32.0427E-03    -15.0855E-03     67.4302E-03
             992     15.0708E-03     93.0534E-03    -1.74152E+06     4.22147E+06    -3.72253E+06    -6.55021E+06    -17.7627E-03     32.8788E-03    -15.1161E-03     82.3495E-03    -17.9680E-03     33.1037E-03    -15.1383E-03     82.2395E-03
             993     15.9556E-03     93.1415E-03    -2.07613E+06     19.6858E+06    -24.0652E+06    -4.28669E+06    -18.7136E-03     33.7627E-03    -15.0491E-03     111.906E-03    -19.4576E-03     34.6389E-03    -15.1950E-03     112.055E-03
             994     16.8393E-03     93.2619E-03    -1.91392E+06     94.7536E+06     13.0129E+06    -1.29371E+06    -16.9948E-03     32.1472E-03    -15.1525E-03     97.4583E-03    -18.0003E-03     33.4446E-03    -15.2220E-03     98.0109E-03
             995     886.520E-06     93.5252E-03    -11.4515E+06    -28.0741E+06    -11.0757E+06    -1.66404E+06    -15.0946E-03     30.1993E-03    -15.1048E-03     3.48922E-03    -15.0947E-03     30.0920E-03    -15.1028E-03     3.46733E-03
             996     1.77305E-03     93.5297E-03    -11.3076E+06    -24.4719E+06    -9.47986E+06    -2.29641E+06    -15.0770E-03     30.1735E-03    -15.0965E-03     6.62721E-03    -15.0843E-03     30.0813E-03    -15.0920E-03     6.59680E-03
             997     2.65955E-03     93.5371E-03    -10.9913E+06    -25.9653E+06    -6.28894E+06    -3.24471E+06    -15.0541E-03     30.1562E-03    -15.1020E-03     9.96138E-03    -15.0624E-03     30.0515E-03    -15.0799E-03     9.91831E-03
             998     3.54614E-03     93.5475E-03    -9.97196E+06    -27.0238E+06    -3.22070E+06    -4.20715E+06    -15.0148E-03     30.1141E-03    -15.0992E-03     13.4487E-03    -15.0211E-03     29.9983E-03    -15.0617E-03     13.3928E-03
             999     4.43278E-03     93.5610E-03    -8.37308E+06    -27.8920E+06    -505.957E+03    -5.04710E+06    -14.9811E-03     30.0688E-03    -15.0877E-03     17.1038E-03    -14.9822E-03     29.9427E-03    -15.0377E-03     17.0365E-03
            1000     5.31951E-03     93.5780E-03    -6.86996E+06    -29.4963E+06     1.87011E+06    -5.74443E+06    -14.9524E-03     30.0244E-03    -15.0720E-03     20.9432E-03    -14.9474E-03     29.8849E-03    -15.0099E-03     20.8663E-03
            1001     6.20628E-03     93.5984E-03    -5.68087E+06    -30.6768E+06      3.6577E+06    -6.05647E+06    -14.9387E-03     29.9899E-03    -15.0512E-03     24.9868E-03    -14.9290E-03     29.8406E-03    -14.9802E-03     24.9050E-03
            1002     7.09309E-03     93.6226E-03    -4.54235E+06    -31.4153E+06     5.20484E+06    -6.08719E+06    -14.9504E-03     29.9790E-03    -15.0287E-03     29.2445E-03    -14.9369E-03     29.8228E-03    -14.9505E-03     29.1614E-03
            1003     7.97994E-03     93.6506E-03    -3.44111E+06    -32.4174E+06     6.76009E+06    -6.14404E+06    -14.9897E-03     29.9980E-03    -15.0083E-03     33.6546E-03    -14.9725E-03     29.8339E-03    -14.9225E-03     33.5692E-03
            1004     8.86688E-03     93.6827E-03    -2.20875E+06    -31.9404E+06     8.16908E+06    -5.94834E+06    -15.0746E-03     30.0632E-03    -14.9886E-03     38.2379E-03    -15.0555E-03     29.8991E-03    -14.8982E-03     38.1530E-03
            1005     9.75368E-03     93.7189E-03    -1.23482E+06    -30.1676E+06     9.55251E+06    -5.85515E+06    -15.2277E-03     30.2018E-03    -14.9741E-03     42.8714E-03    -15.2108E-03     30.0457E-03    -14.8809E-03     42.7848E-03
            1006     10.6406E-03     93.7593E-03    -1.32477E+06    -29.9027E+06     9.56680E+06    -6.13265E+06    -15.4659E-03     30.4335E-03    -14.9676E-03     47.4050E-03    -15.4539E-03     30.2829E-03    -14.8745E-03     47.3109E-03
            1007     11.5271E-03     93.8037E-03    -2.02102E+06    -29.2109E+06     8.23378E+06    -6.54467E+06    -15.7688E-03     30.7371E-03    -14.9683E-03     52.0163E-03    -15.7659E-03     30.5995E-03    -14.8819E-03     51.9116E-03
            1008     12.4136E-03     93.8526E-03    -2.15668E+06    -32.0378E+06     3.72753E+06    -7.45655E+06    -16.1963E-03     31.1690E-03    -14.9728E-03     57.8097E-03    -16.1954E-03     31.0359E-03    -14.9045E-03     57.6863E-03
            1009     13.2996E-03     93.9077E-03    -2.13238E+06    -27.6250E+06    -1.49274E+06    -7.75363E+06    -16.7117E-03     31.6922E-03    -14.9804E-03     63.6251E-03    -16.7302E-03     31.6094E-03    -14.9448E-03     63.4897E-03
            1010     14.1855E-03     93.9675E-03    -2.21580E+06    -7.17650E+06     2.05445E+06    -7.41918E+06    -17.1691E-03     32.1951E-03    -15.0260E-03     68.6383E-03    -17.2552E-03     32.2418E-03    -15.0021E-03     68.5027E-03
            1011     15.0700E-03     94.0321E-03    -2.09380E+06     3.37257E+06    -3.39967E+06    -6.45730E+06    -17.8691E-03     32.9186E-03    -15.0495E-03     84.0986E-03    -18.0787E-03     33.1426E-03    -15.0683E-03     83.9903E-03
            1012     15.9555E-03     94.1205E-03    -1.80881E+06     15.9866E+06    -24.0658E+06    -4.00293E+06    -18.4049E-03     33.3849E-03    -14.9799E-03     112.468E-03    -19.1385E-03     34.2385E-03    -15.1208E-03     112.626E-03
            1013     16.8458E-03     94.2376E-03    -902.656E+03     92.1116E+06     13.8087E+06    -1.83161E+06    -17.3891E-03     32.4791E-03    -15.0899E-03     97.2732E-03    -18.3814E-03     33.7551E-03    -15.1531E-03     97.8109E-03
            1014     886.645E-06     94.5025E-03    -10.3813E+06    -25.3851E+06    -9.53232E+06    -1.16967E+06    -14.9467E-03     29.9355E-03    -14.9888E-03     3.53873E-03    -14.9477E-03     29.8379E-03    -14.9846E-03     3.52325E-03
            1015     1.77320E-03     94.5068E-03    -9.80610E+06    -22.9837E+06    -7.18255E+06    -1.61898E+06    -14.9497E-03     29.9213E-03    -14.9716E-03     6.66703E-03    -14.9550E-03     29.8311E-03    -14.9600E-03     6.64540E-03
            1016     2.65990E-03     94.5142E-03    -9.10097E+06    -23.8983E+06    -4.11366E+06    -2.02521E+06    -14.9052E-03     29.8779E-03    -14.9728E-03     9.99756E-03    -14.9102E-03     29.7777E-03    -14.9455E-03     9.97030E-03
            1017     3.54665E-03     94.5244E-03    -8.47980E+06    -24.5020E+06    -1.30868E+06    -3.45937E+06    -14.8617E-03     29.8253E-03    -14.9637E-03     13.4883E-03    -14.8669E-03     29.7172E-03    -14.9224E-03     13.4421E-03
            1018     4.43343E-03     94.5380E-03    -7.59488E+06    -25.8925E+06     885.222E+03    -4.73044E+06    -14.8279E-03     29.7762E-03    -14.9484E-03     17.1737E-03    -14.8300E-03     29.6569E-03    -14.8954E-03     17.1106E-03
            1019     5.32024E-03     94.5548E-03    -6.71209E+06    -28.0025E+06     2.51692E+06    -5.24772E+06    -14.7941E-03     29.7226E-03    -14.9285E-03     21.0401E-03    -14.7914E-03     29.5894E-03    -14.8656E-03     20.9697E-03
            1020     6.20716E-03     94.5752E-03    -5.71986E+06    -29.1800E+06     3.89830E+06    -5.85244E+06    -14.7670E-03     29.6702E-03    -14.9032E-03     25.1468E-03    -14.7601E-03     29.5281E-03    -14.8331E-03     25.0679E-03
            1021     7.09416E-03     94.5992E-03    -4.47604E+06    -30.8269E+06     5.06906E+06    -6.07545E+06    -14.7641E-03     29.6399E-03    -14.8759E-03     29.4467E-03    -14.7508E-03     29.4866E-03    -14.7994E-03     29.3639E-03
            1022     7.98122E-03     94.6273E-03    -3.42366E+06    -31.4874E+06     6.62777E+06    -5.97263E+06    -14.8062E-03     29.6572E-03    -14.8510E-03     33.9326E-03    -14.7899E-03     29.4977E-03    -14.7673E-03     33.8498E-03
            1023     8.86820E-03     94.6593E-03    -2.64326E+06    -31.6605E+06     8.00567E+06    -5.96048E+06    -14.9072E-03     29.7375E-03    -14.8303E-03     38.6008E-03    -14.8903E-03     29.5755E-03    -14.7405E-03     38.5162E-03
            1024     9.75530E-03     94.6956E-03    -1.87129E+06    -29.7586E+06     9.38128E+06     -5.5215E+06    -15.0804E-03     29.8958E-03    -14.8154E-03     43.3611E-03    -15.0669E-03     29.7428E-03    -14.7226E-03     43.2793E-03
            1025     10.6421E-03     94.7361E-03    -1.16017E+06    -29.3766E+06     10.0259E+06    -5.04960E+06    -15.3614E-03     30.1738E-03    -14.8124E-03     48.0139E-03    -15.3498E-03     30.0248E-03    -14.7180E-03     47.9341E-03
            1026     11.5289E-03     94.7808E-03    -544.002E+03    -27.5956E+06     9.84151E+06    -5.55055E+06    -15.7190E-03     30.5391E-03    -14.8201E-03     52.7426E-03    -15.7133E-03     30.4049E-03    -14.7301E-03     52.6511E-03
            1027     12.4153E-03     94.8299E-03    -410.480E+03    -29.9824E+06     5.38008E+06    -6.92166E+06    -16.2087E-03     31.0401E-03    -14.8314E-03     58.6690E-03    -16.2045E-03     30.9124E-03    -14.7604E-03     58.5528E-03
            1028     13.3016E-03     94.8855E-03    -681.666E+03    -27.7000E+06     -445.44E+03    -7.30965E+06    -16.7721E-03     31.6213E-03    -14.8492E-03     64.6942E-03    -16.7850E-03     31.5348E-03    -14.8103E-03     64.5647E-03
            1029     14.1872E-03     94.9458E-03    -975.839E+03    -6.72991E+06     2.96064E+06    -6.93438E+06    -17.1037E-03     32.0031E-03    -14.8995E-03     69.7178E-03    -17.1858E-03     32.0493E-03    -14.8735E-03     69.5891E-03
            1030     15.0740E-03     95.0107E-03    -929.944E+03     1.73632E+06    -2.53465E+06    -5.80959E+06    -17.8405E-03     32.7689E-03    -14.9284E-03     84.7918E-03    -18.0419E-03     32.9805E-03    -14.9422E-03     84.6923E-03
            1031     15.9601E-03     95.0987E-03    -2.40924E+06     14.3237E+06    -23.5554E+06    -4.59201E+06    -19.4350E-03     34.3287E-03    -14.8937E-03     111.918E-03    -20.1736E-03     35.1779E-03    -15.0287E-03     112.050E-03
            1032     16.8410E-03     95.2161E-03    -2.99413E+06     90.1257E+06     13.6269E+06    -2.75470E+06    -18.2649E-03     33.3258E-03    -15.0609E-03     96.1086E-03    -19.2678E-03     34.5985E-03    -15.1191E-03     96.6151E-03
            1033     886.723E-06     95.4791E-03    -12.0533E+06    -23.1743E+06    -11.6070E+06    -983.432E+03    -14.7671E-03     29.5832E-03    -14.8161E-03     3.53390E-03    -14.7766E-03     29.5020E-03    -14.8230E-03     3.52086E-03
            1034     1.77361E-03     95.4837E-03    -10.9605E+06    -21.9749E+06    -8.65905E+06    -1.40708E+06    -14.7460E-03     29.5377E-03    -14.7917E-03     6.70750E-03    -14.7564E-03     29.4563E-03    -14.7872E-03     6.68866E-03
            1035     2.66039E-03     95.4909E-03    -9.25350E+06    -22.6940E+06    -3.80568E+06    -1.61326E+06    -14.7202E-03     29.5133E-03    -14.7931E-03     10.0528E-03    -14.7282E-03     29.4189E-03    -14.7658E-03     10.0310E-03
            1036     3.54724E-03     95.5012E-03    -7.54782E+06    -21.8040E+06     354.507E+03    -2.48142E+06    -14.6733E-03     29.4591E-03    -14.7858E-03     13.5817E-03    -14.6802E-03     29.3608E-03    -14.7415E-03     13.5483E-03
            1037     4.43419E-03     95.5146E-03    -6.80175E+06    -24.3839E+06     2.91692E+06    -3.38146E+06    -14.6324E-03     29.4047E-03    -14.7723E-03     17.2858E-03    -14.6357E-03     29.2888E-03    -14.7125E-03     17.2402E-03
            1038     5.32124E-03     95.5313E-03    -6.53622E+06    -26.3982E+06     3.64701E+06    -4.06258E+06    -14.5935E-03     29.3398E-03    -14.7463E-03     21.1801E-03    -14.5939E-03     29.2126E-03    -14.6803E-03     21.1252E-03
            1039     6.20832E-03     95.5515E-03    -6.31576E+06    -27.2606E+06     3.69616E+06    -5.08039E+06    -14.5536E-03     29.2659E-03    -14.7123E-03     25.3268E-03    -14.5520E-03     29.1344E-03    -14.6451E-03     25.2581E-03
            1040     7.09549E-03     95.5756E-03    -6.14208E+06    -30.2136E+06     4.09961E+06    -5.56469E+06    -14.5433E-03     29.2247E-03    -14.6814E-03     29.6955E-03    -14.5378E-03     29.0782E-03    -14.6082E-03     29.6196E-03
            1041     7.98269E-03     95.6034E-03    -5.68651E+06    -30.6481E+06     5.40075E+06    -5.59471E+06    -14.5822E-03     29.2351E-03    -14.6528E-03     34.2870E-03    -14.5766E-03     29.0847E-03    -14.5731E-03     34.2095E-03
            1042     8.87000E-03     95.6356E-03    -4.92892E+06    -31.0614E+06     6.88886E+06    -5.65220E+06    -14.6965E-03     29.3275E-03    -14.6310E-03     39.0523E-03    -14.6901E-03     29.1734E-03    -14.5444E-03     38.9721E-03
            1043     9.75709E-03     95.6718E-03    -4.01129E+06    -29.7976E+06     7.87475E+06    -5.47240E+06    -14.8953E-03     29.5099E-03    -14.6146E-03     43.9704E-03    -14.8900E-03     29.3617E-03    -14.5262E-03     43.8898E-03
            1044     10.6443E-03     95.7127E-03    -2.68514E+06    -28.9820E+06     8.75256E+06    -5.31745E+06    -15.2145E-03     29.8275E-03    -14.6131E-03     48.7954E-03    -15.2090E-03     29.6843E-03    -14.5234E-03     48.7128E-03
            1045     11.5310E-03     95.7576E-03    -1.30779E+06    -26.1421E+06     9.90339E+06    -5.63885E+06    -15.6488E-03     30.2790E-03    -14.6302E-03     53.6157E-03    -15.6490E-03     30.1530E-03    -14.5409E-03     53.5235E-03
            1046     12.4176E-03     95.8072E-03    -713.219E+03    -28.1575E+06     6.77558E+06    -6.30586E+06    -16.2407E-03     30.8983E-03    -14.6576E-03     59.5807E-03    -16.2427E-03     30.7782E-03    -14.5819E-03     59.4727E-03
            1047     13.3037E-03     95.8631E-03    -889.682E+03    -27.1776E+06     890.959E+03    -6.95884E+06    -16.8437E-03     31.5346E-03    -14.6909E-03     65.5026E-03    -16.8607E-03     31.4493E-03    -14.6457E-03     65.3777E-03
            1048     14.1897E-03     95.9240E-03    -997.254E+03    -6.93811E+06     4.09167E+06    -6.59831E+06    -17.3182E-03     32.0772E-03    -14.7590E-03     69.9275E-03    -17.4019E-03     32.1209E-03    -14.7271E-03     69.8026E-03
            1049     15.0747E-03     95.9884E-03    -446.380E+03     1.14143E+06    -640.202E+03    -6.26121E+06    -18.4573E-03     33.2816E-03    -14.8243E-03     84.5975E-03    -18.6599E-03     33.4885E-03    -14.8285E-03     84.4878E-03
            1050     15.9585E-03     96.0786E-03    -925.513E+03     12.5577E+06    -21.2086E+06    -4.91219E+06    -20.0825E-03     34.9147E-03    -14.8322E-03     112.801E-03    -20.8276E-03     35.7626E-03    -14.9551E-03     112.924E-03
            1051     16.8445E-03     96.1980E-03    -2.48751E+06     87.6582E+06     13.6367E+06    -1.83283E+06    -18.6872E-03     33.7070E-03    -15.0198E-03     96.3262E-03    -19.6922E-03     34.9748E-03    -15.0751E-03     96.8393E-03
            1052     886.952E-06     96.4558E-03    -14.5280E+06    -21.4689E+06    -14.2755E+06    -986.575E+03    -14.5187E-03     29.1158E-03    -14.5972E-03     3.54962E-03    -14.5391E-03     29.0507E-03    -14.6163E-03     3.53658E-03
            1053     1.77389E-03     96.4600E-03    -14.3776E+06    -20.9956E+06    -11.5731E+06    -1.07428E+06    -14.5085E-03     29.0667E-03    -14.5583E-03     6.74912E-03    -14.5331E-03     28.9994E-03    -14.5648E-03     6.73465E-03
            1054     2.66099E-03     96.4673E-03    -13.2563E+06    -21.5985E+06    -7.61875E+06    -1.63214E+06    -14.4634E-03     29.0164E-03    -14.5530E-03     10.1187E-03    -14.4874E-03     28.9388E-03    -14.5405E-03     10.0967E-03
            1055     3.54811E-03     96.4774E-03    -11.7297E+06    -20.4160E+06    -2.92467E+06    -1.87837E+06    -14.4162E-03     28.9605E-03    -14.5443E-03     13.6737E-03    -14.4412E-03     28.8798E-03    -14.5123E-03     13.6481E-03
            1056     4.43527E-03     96.4908E-03    -10.0555E+06    -23.1612E+06     1.43587E+06    -2.20102E+06    -14.3798E-03     28.9165E-03    -14.5367E-03     17.4040E-03    -14.3990E-03     28.8136E-03    -14.4813E-03     17.3738E-03
            1057     5.32245E-03     96.5074E-03    -8.51655E+06    -24.7857E+06     3.31306E+06    -2.94093E+06    -14.3341E-03     28.8461E-03    -14.5120E-03     21.3338E-03    -14.3462E-03     28.7304E-03    -14.4472E-03     21.2936E-03
            1058     6.20978E-03     96.5276E-03    -7.93498E+06    -25.7913E+06     3.40847E+06    -3.49641E+06    -14.2885E-03     28.7636E-03    -14.4751E-03     25.5261E-03    -14.2967E-03     28.6421E-03    -14.4091E-03     25.4781E-03
            1059     7.09718E-03     96.5514E-03    -8.22539E+06    -29.2266E+06     3.58574E+06    -3.93375E+06    -14.2840E-03     28.7260E-03    -14.4420E-03     29.9816E-03    -14.2895E-03     28.5881E-03    -14.3698E-03     29.9271E-03
            1060     7.98467E-03     96.5793E-03    -8.42196E+06    -29.4217E+06     4.09347E+06    -4.67568E+06    -14.3224E-03     28.7309E-03    -14.4085E-03     34.6784E-03    -14.3301E-03     28.5924E-03    -14.3332E-03     34.6132E-03
            1061     8.87206E-03     96.6113E-03    -7.99630E+06    -30.2934E+06     5.08492E+06    -5.23909E+06    -14.4446E-03     28.8289E-03    -14.3843E-03     39.5824E-03    -14.4518E-03     28.6854E-03    -14.3034E-03     39.5080E-03
            1062     9.75956E-03     96.6478E-03    -6.89400E+06    -29.0594E+06     6.52902E+06    -5.71851E+06    -14.6803E-03     29.0510E-03    -14.3707E-03     44.6518E-03    -14.6883E-03     28.9124E-03    -14.2859E-03     44.5686E-03
            1063     10.6467E-03     96.6888E-03    -5.48013E+06    -28.5401E+06     7.63509E+06    -5.97617E+06    -15.0628E-03     29.4378E-03    -14.3750E-03     49.6378E-03    -15.0702E-03     29.3022E-03    -14.2875E-03     49.5472E-03
            1064     11.5337E-03     96.7342E-03    -4.06610E+06    -25.0253E+06     9.13108E+06    -6.17613E+06    -15.5902E-03     29.9922E-03    -14.4020E-03     54.5875E-03    -15.6045E-03     29.8768E-03    -14.3142E-03     54.4889E-03
            1065     12.4202E-03     96.7842E-03    -2.50092E+06    -27.0101E+06     7.12780E+06    -6.69005E+06    -16.3106E-03     30.7596E-03    -14.4489E-03     60.6553E-03    -16.3240E-03     30.6475E-03    -14.3705E-03     60.5424E-03
            1066     13.3062E-03     96.8409E-03    -1.68158E+06    -26.6071E+06     1.58151E+06    -6.63050E+06    -17.0929E-03     31.5992E-03    -14.5063E-03     66.4845E-03    -17.1162E-03     31.5175E-03    -14.4573E-03     66.3634E-03
            1067     14.1916E-03     96.9019E-03    -1.46804E+06    -6.91127E+06     4.64365E+06    -6.44879E+06    -17.8416E-03     32.4493E-03    -14.6078E-03     71.0833E-03    -17.9303E-03     32.4948E-03    -14.5724E-03     70.9586E-03
            1068     15.0765E-03     96.9682E-03    -2.02882E+06     951.929E+03    -246.499E+03    -5.98118E+06    -19.0071E-03     33.7189E-03    -14.7118E-03     86.3251E-03    -19.2235E-03     33.9322E-03    -14.7115E-03     86.2170E-03
            1069     15.9613E-03     97.0582E-03    -3.59916E+06     10.2080E+06    -20.4720E+06    -4.69859E+06    -20.1924E-03     34.9405E-03    -14.7481E-03     114.045E-03    -20.9542E-03     35.7851E-03    -14.8601E-03     114.175E-03
            1070     16.8453E-03     97.1767E-03    -2.23124E+06     84.8006E+06     13.4417E+06    -2.35441E+06    -19.1574E-03     34.1037E-03    -14.9463E-03     95.7921E-03    -20.1532E-03     35.3536E-03    -14.9988E-03     96.2879E-03
            1071     887.234E-06     97.4316E-03    -17.1263E+06    -20.8342E+06    -15.6526E+06    -3.73289E+03    -14.2525E-03     28.5316E-03    -14.2791E-03     3.58417E-03    -14.2849E-03     28.4754E-03    -14.3023E-03     3.58386E-03
            1072     1.77447E-03     97.4361E-03    -16.8792E+06    -20.2570E+06    -13.6123E+06    -51.6234E+03    -14.2250E-03     28.4938E-03    -14.2687E-03     6.79312E-03    -14.2603E-03     28.4367E-03    -14.2829E-03     6.79193E-03
            1073     2.66171E-03     97.4431E-03    -16.3458E+06    -20.3901E+06    -10.2174E+06    -681.611E+03    -14.1781E-03     28.4423E-03    -14.2641E-03     10.2073E-03    -14.2156E-03     28.3789E-03    -14.2619E-03     10.1977E-03
            1074     3.54904E-03     97.4533E-03    -15.4173E+06    -20.2683E+06    -5.90153E+06    -876.554E+03    -14.1200E-03     28.3765E-03    -14.2565E-03     13.7617E-03    -14.1593E-03     28.3062E-03    -14.2342E-03     13.7492E-03
            1075     4.43645E-03     97.4665E-03    -14.3040E+06    -21.8029E+06    -1.84050E+06    -1.26685E+06    -14.0586E-03     28.3022E-03    -14.2436E-03     17.5335E-03    -14.0962E-03     28.2169E-03    -14.2005E-03     17.5157E-03
            1076     5.32398E-03     97.4830E-03    -13.1813E+06    -23.6947E+06     987.170E+03    -1.96175E+06    -14.0054E-03     28.2259E-03    -14.2204E-03     21.5123E-03    -14.0390E-03     28.1256E-03    -14.1620E-03     21.4850E-03
            1077     6.21158E-03     97.5029E-03    -12.2301E+06    -25.2674E+06     2.13420E+06    -1.98022E+06    -13.9731E-03     28.1594E-03    -14.1863E-03     25.7471E-03    -14.0016E-03     28.0486E-03    -14.1213E-03     25.7190E-03
            1078     7.09924E-03     97.5268E-03    -11.4060E+06    -27.8010E+06     2.42638E+06    -2.48597E+06    -13.9785E-03     28.1285E-03    -14.1500E-03     30.2778E-03    -14.0001E-03     28.0038E-03    -14.0810E-03     30.2424E-03
            1079     7.98691E-03     97.5545E-03    -10.8865E+06    -28.0940E+06     3.06397E+06    -3.29291E+06    -14.0246E-03     28.1404E-03    -14.1158E-03     35.0752E-03    -14.0449E-03     28.0135E-03    -14.0440E-03     35.0283E-03
            1080     8.87471E-03     97.5866E-03    -10.5308E+06    -28.6189E+06     4.37712E+06    -4.47692E+06    -14.1725E-03     28.2662E-03    -14.0937E-03     40.1350E-03    -14.1935E-03     28.1355E-03    -14.0150E-03     40.0710E-03
            1081     9.76226E-03     97.6232E-03    -9.78884E+06    -27.6638E+06     5.86007E+06    -5.71779E+06    -14.4609E-03     28.5461E-03    -14.0852E-03     45.3711E-03    -14.4842E-03     28.4194E-03    -14.0016E-03     45.2885E-03
            1082     10.6498E-03     97.6646E-03    -8.73630E+06    -27.9656E+06     6.66689E+06    -6.20577E+06    -14.9164E-03     29.0142E-03    -14.0977E-03     50.5540E-03    -14.9393E-03     28.8874E-03    -14.0112E-03     50.4611E-03
            1083     11.5367E-03     97.7104E-03    -7.27934E+06    -23.5038E+06     8.01838E+06    -6.92254E+06    -15.5353E-03     29.6705E-03    -14.1353E-03     55.7196E-03    -15.5662E-03     29.5689E-03    -14.0505E-03     55.6118E-03
            1084     12.4233E-03     97.7612E-03    -5.63936E+06    -26.0139E+06     6.25332E+06    -7.77329E+06    -16.3811E-03     30.5831E-03    -14.2020E-03     61.9362E-03    -16.4105E-03     30.4821E-03    -14.1248E-03     61.8096E-03
            1085     13.3092E-03     97.8185E-03    -3.75282E+06    -26.7548E+06     1.04393E+06    -7.66481E+06    -17.3668E-03     31.6536E-03    -14.2868E-03     67.9211E-03    -17.4002E-03     31.5757E-03    -14.2373E-03     67.7862E-03
            1086     14.1944E-03     97.8808E-03    -2.28542E+06    -7.06395E+06     4.47866E+06    -6.67096E+06    -18.2344E-03     32.6544E-03    -14.4200E-03     72.6347E-03    -18.3287E-03     32.7026E-03    -14.3841E-03     72.5059E-03
            1087     15.0789E-03     97.9474E-03    -1.93583E+06    -35.5305E+03     132.191E+03    -5.33776E+06    -19.4387E-03     33.9979E-03    -14.5592E-03     87.3933E-03    -19.6555E-03     34.2073E-03    -14.5556E-03     87.2914E-03
            1088     15.9629E-03     98.0381E-03    -1.66635E+06     8.98488E+06    -18.7993E+06    -4.10311E+06    -20.9797E-03     35.6194E-03    -14.6398E-03     114.365E-03    -21.7346E-03     36.4549E-03    -14.7444E-03     114.488E-03
            1089     16.8464E-03     98.1575E-03    -1.83465E+06     82.5579E+06     13.3924E+06    -2.83348E+06    -20.0234E-03     34.9050E-03    -14.8816E-03     95.7369E-03    -21.0160E-03     36.1453E-03    -14.9317E-03     96.2079E-03
            1090     887.471E-06     98.4071E-03    -19.6963E+06    -22.0590E+06    -18.6062E+06     1.38902E+06    -13.9395E-03     27.8300E-03    -13.8905E-03     3.61999E-03    -13.9787E-03     27.7756E-03    -13.9230E-03     3.63772E-03
            1091     1.77503E-03     98.4113E-03    -19.4286E+06    -20.3911E+06    -15.7681E+06     1.33666E+06    -13.8788E-03     27.7990E-03    -13.9202E-03     6.82014E-03    -13.9234E-03     27.7481E-03    -13.9413E-03     6.83694E-03
            1092     2.66264E-03     98.4185E-03    -19.1231E+06    -19.8472E+06    -11.9040E+06     1.16501E+06    -13.8346E-03     27.7544E-03    -13.9197E-03     10.2971E-03    -13.8843E-03     27.7002E-03    -13.9227E-03     10.3114E-03
            1093     3.55023E-03     98.4284E-03    -18.6176E+06    -20.2371E+06    -8.18822E+06     836.747E+03    -13.7719E-03     27.6838E-03    -13.9119E-03     13.8931E-03    -13.8240E-03     27.6216E-03    -13.8965E-03     13.9029E-03
            1094     4.43797E-03     98.4415E-03    -17.7511E+06    -20.7803E+06    -4.39307E+06     369.901E+03    -13.6941E-03     27.5898E-03    -13.8956E-03     17.7004E-03    -13.7467E-03     27.5183E-03    -13.8617E-03     17.7038E-03
            1095     5.32580E-03     98.4579E-03    -17.0443E+06    -23.0210E+06    -1.07290E+06    -160.176E+03    -13.6461E-03     27.5206E-03    -13.8745E-03     21.7011E-03    -13.6968E-03     27.4323E-03    -13.8218E-03     21.6973E-03
            1096     6.21368E-03     98.4778E-03    -16.2409E+06    -24.8802E+06     409.458E+03    -661.718E+03    -13.6224E-03     27.4652E-03    -13.8428E-03     25.9810E-03    -13.6689E-03     27.3646E-03    -13.7811E-03     25.9703E-03
            1097     7.10163E-03     98.5015E-03    -15.1677E+06    -26.0919E+06     831.411E+03    -1.61637E+06    -13.6237E-03     27.4288E-03    -13.8052E-03     30.5965E-03    -13.6641E-03     27.3204E-03    -13.7412E-03     30.5727E-03
            1098     7.98970E-03     98.5292E-03    -13.9046E+06    -27.2282E+06     2.05005E+06    -2.47698E+06    -13.7032E-03     27.4786E-03    -13.7754E-03     35.5096E-03    -13.7382E-03     27.3617E-03    -13.7055E-03     35.4736E-03
            1099     8.87761E-03     98.5613E-03    -12.6181E+06    -26.0074E+06     4.28800E+06    -3.70483E+06    -13.8945E-03     27.6529E-03    -13.7584E-03     40.7172E-03    -13.9294E-03     27.5383E-03    -13.6809E-03     40.6637E-03
            1100     9.76554E-03     98.5982E-03    -11.7180E+06    -26.3428E+06     5.53574E+06    -5.05560E+06    -14.2376E-03     27.9953E-03    -13.7577E-03     46.1370E-03    -14.2717E-03     27.8783E-03    -13.6749E-03     46.0635E-03
            1101     10.6531E-03     98.6399E-03    -10.6669E+06    -26.3188E+06     6.30141E+06    -6.21572E+06    -14.7653E-03     28.5457E-03    -13.7804E-03     51.5572E-03    -14.7995E-03     28.4303E-03    -13.6952E-03     51.4647E-03
            1102     11.5403E-03     98.6864E-03    -8.99099E+06    -21.5112E+06     7.43131E+06    -7.73348E+06    -15.4835E-03     29.3144E-03    -13.8309E-03     56.9661E-03    -15.5248E-03     29.2259E-03    -13.7496E-03     56.8484E-03
            1103     12.4268E-03     98.7379E-03    -7.13130E+06    -24.7649E+06     5.99040E+06    -8.71471E+06    -16.4649E-03     30.3854E-03    -13.9205E-03     63.3754E-03    -16.5033E-03     30.2932E-03    -13.8443E-03     63.2369E-03
            1104     13.3126E-03     98.7963E-03    -5.74457E+06    -26.5351E+06     415.563E+03    -9.16726E+06    -17.5982E-03     31.6302E-03    -14.0320E-03     69.5130E-03    -17.6418E-03     31.5580E-03    -13.9832E-03     69.3584E-03
            1105     14.1975E-03     98.8595E-03    -4.05615E+06    -8.59104E+06     3.39207E+06    -8.05203E+06    -18.6462E-03     32.8443E-03    -14.1981E-03     74.1392E-03    -18.7471E-03     32.8905E-03    -14.1628E-03     73.9914E-03
            1106     15.0817E-03     98.9272E-03    -2.23997E+06    -1.43963E+06    -59.9155E+03    -5.88473E+06    -20.2015E-03     34.5847E-03    -14.3833E-03     88.8298E-03    -20.4210E-03     34.7914E-03    -14.3782E-03     88.7157E-03
            1107     15.9648E-03     99.0189E-03    -2.26754E+06     7.95776E+06    -17.8952E+06    -4.42623E+06    -21.9204E-03     36.4433E-03    -14.5229E-03     115.477E-03    -22.6850E-03     37.2800E-03    -14.6206E-03     115.581E-03
            1108     16.8475E-03     99.1387E-03    -1.65859E+06     80.8186E+06     13.8348E+06    -3.02105E+06    -20.9269E-03     35.7422E-03    -14.8153E-03     95.9688E-03    -21.9223E-03     36.9785E-03    -14.8609E-03     96.4206E-03
            1109     887.933E-06     99.3817E-03    -23.6284E+06    -25.2980E+06    -23.0259E+06     2.09808E+06    -13.5163E-03     26.9882E-03    -13.4719E-03     3.70963E-03    -13.5641E-03     26.9298E-03    -13.5161E-03     3.73654E-03
            1110     1.77576E-03     99.3859E-03    -23.8665E+06    -22.0512E+06    -20.0833E+06     3.19935E+06    -13.4789E-03     26.9804E-03    -13.5015E-03     6.89009E-03    -13.5371E-03     26.9338E-03    -13.5353E-03     6.93101E-03
            1111     2.66367E-03     99.3929E-03    -23.6262E+06    -20.4133E+06    -15.7657E+06     3.41127E+06    -13.4129E-03     26.9188E-03    -13.5059E-03     10.3791E-03    -13.4786E-03     26.8739E-03    -13.5209E-03     10.4226E-03
            1112     3.55170E-03     99.4029E-03    -22.8229E+06    -19.9395E+06    -11.0837E+06     2.80618E+06    -13.3584E-03     26.8596E-03    -13.5011E-03     14.0041E-03    -13.4277E-03     26.8091E-03    -13.4946E-03     14.0395E-03
            1113     4.43974E-03     99.4158E-03    -21.6852E+06    -20.6759E+06    -6.58164E+06     2.28156E+06    -13.3067E-03     26.7984E-03    -13.4917E-03     17.8209E-03    -13.3759E-03     26.7363E-03    -13.4631E-03     17.8492E-03
            1114     5.32791E-03     99.4321E-03    -20.6247E+06    -22.6145E+06    -3.25118E+06     1.98311E+06    -13.2554E-03     26.7292E-03    -13.4738E-03     21.8798E-03    -13.3215E-03     26.6512E-03    -13.4274E-03     21.9039E-03
            1115     6.21611E-03     99.4519E-03    -19.6491E+06    -23.6889E+06    -1.29437E+06     891.902E+03    -13.2259E-03     26.6711E-03    -13.4452E-03     26.2188E-03    -13.2886E-03     26.5837E-03    -13.3889E-03     26.2284E-03
            1116     7.10445E-03     99.4755E-03    -18.6214E+06    -24.5083E+06    -270.294E+03    -510.529E+03    -13.2506E-03     26.6632E-03    -13.4127E-03     30.9137E-03    -13.3089E-03     26.5692E-03    -13.3515E-03     30.9046E-03
            1117     7.99273E-03     99.5032E-03    -17.1725E+06    -25.4671E+06     979.086E+03    -2.28646E+06    -13.3676E-03     26.7554E-03    -13.3878E-03     35.9570E-03    -13.4198E-03     26.6533E-03    -13.3210E-03     35.9239E-03
            1118     8.88104E-03     99.5355E-03    -15.2437E+06    -24.1997E+06     3.19785E+06    -3.63744E+06    -13.5959E-03     26.9728E-03    -13.3770E-03     41.3332E-03    -13.6448E-03     26.8724E-03    -13.3038E-03     41.2811E-03
            1119     9.76908E-03     99.5726E-03    -13.2855E+06    -24.5209E+06     5.00165E+06    -4.73917E+06    -14.0006E-03     27.3877E-03    -13.3871E-03     46.9692E-03    -14.0442E-03     27.2826E-03    -13.3073E-03     46.9004E-03
            1120     10.6569E-03     99.6147E-03    -11.4289E+06    -23.9117E+06     6.06608E+06    -6.46722E+06    -14.6031E-03     28.0251E-03    -13.4219E-03     52.6550E-03    -14.6439E-03     27.9228E-03    -13.3404E-03     52.5599E-03
            1121     11.5441E-03     99.6619E-03    -9.53432E+06    -18.7634E+06     7.56160E+06    -8.48413E+06    -15.4263E-03     28.9165E-03    -13.4902E-03     58.3667E-03    -15.4744E-03     28.8422E-03    -13.4114E-03     58.2399E-03
            1122     12.4308E-03     99.7144E-03    -7.89759E+06    -24.0365E+06     5.75536E+06    -9.44168E+06    -16.5601E-03     30.1638E-03    -13.6037E-03     65.0184E-03    -16.6032E-03     30.0769E-03    -13.5286E-03     64.8708E-03
            1123     13.3165E-03     99.7740E-03    -7.14235E+06    -25.4130E+06     415.052E+03    -9.46229E+06    -17.8841E-03     31.6310E-03    -13.7469E-03     71.3085E-03    -17.9372E-03     31.5674E-03    -13.6976E-03     71.1496E-03
            1124     14.2011E-03     99.8384E-03    -6.84420E+06    -9.96500E+06     2.03463E+06    -9.16824E+06    -19.1396E-03     33.0901E-03    -13.9504E-03     75.8587E-03    -19.2523E-03     33.1372E-03    -13.9159E-03     75.6947E-03
            1125     15.0848E-03     99.9074E-03    -6.01012E+06    -3.32411E+06    -1.50397E+06    -7.48708E+06    -21.0540E-03     35.2413E-03    -14.1874E-03     90.7300E-03    -21.2930E-03     35.4517E-03    -14.1813E-03     90.5901E-03
            1126     15.9672E-03     100.001E-03    -4.02306E+06     8.03603E+06    -16.3980E+06    -6.37148E+06    -22.9409E-03     37.3367E-03    -14.3958E-03     116.313E-03    -23.7214E-03     38.1790E-03    -14.4836E-03     116.376E-03
            1127     16.8491E-03     100.121E-03    -983.499E+03     77.4114E+06     16.6243E+06    -3.81499E+06    -21.9877E-03     36.7451E-03    -14.7574E-03     95.9768E-03    -22.9828E-03     37.9633E-03    -14.7851E-03     96.3949E-03
            1128     888.286E-06     100.355E-03    -29.0514E+06    -30.1357E+06    -27.8318E+06     2.78516E+06    -12.9947E-03     26.0473E-03    -13.0526E-03     3.74505E-03    -13.0555E-03     25.9795E-03    -13.1060E-03     3.78085E-03
            1129     1.77661E-03     100.360E-03    -28.8095E+06    -25.8596E+06    -25.3124E+06     5.11427E+06    -12.9998E-03     26.0269E-03    -13.0270E-03     6.91711E-03    -13.0697E-03     25.9761E-03    -13.0743E-03     6.98283E-03
            1130     2.66493E-03     100.367E-03    -28.5755E+06    -21.7503E+06    -20.6665E+06     5.70703E+06    -12.9465E-03     25.9761E-03    -13.0296E-03     10.4295E-03    -13.0279E-03     25.9388E-03    -13.0599E-03     10.5026E-03
            1131     3.55332E-03     100.376E-03    -27.9668E+06    -20.1540E+06    -14.8235E+06     5.16954E+06    -12.8977E-03     25.9306E-03    -13.0329E-03     14.1146E-03    -12.9869E-03     25.8920E-03    -13.0373E-03     14.1806E-03
            1132     4.44176E-03     100.389E-03    -27.2103E+06    -21.0806E+06    -10.0492E+06     4.60277E+06    -12.8629E-03     25.8935E-03    -13.0306E-03     17.9552E-03    -12.9541E-03     25.8423E-03    -13.0108E-03     18.0136E-03
            1133     5.33025E-03     100.406E-03    -25.9070E+06    -22.2633E+06    -6.41068E+06     3.81807E+06    -12.8209E-03     25.8394E-03    -13.0186E-03     22.0550E-03    -12.9092E-03     25.7753E-03    -12.9808E-03     22.1030E-03
            1134     6.21891E-03     100.425E-03    -24.2703E+06    -22.0666E+06    -3.63064E+06     2.40967E+06    -12.8080E-03     25.8050E-03    -12.9970E-03     26.4425E-03    -12.8927E-03     25.7357E-03    -12.9480E-03     26.4719E-03
            1135     7.10753E-03     100.449E-03    -22.4151E+06    -22.5090E+06    -1.96895E+06     335.995E+03    -12.8667E-03     25.8397E-03    -12.9731E-03     31.2180E-03    -12.9443E-03     25.7635E-03    -12.9178E-03     31.2201E-03
            1136     7.99618E-03     100.477E-03    -20.4152E+06    -22.5202E+06    -538.463E+03    -2.13867E+06    -13.0048E-03     25.9598E-03    -12.9550E-03     36.4040E-03    -13.0751E-03     25.8792E-03    -12.8955E-03     36.3733E-03
            1137     8.88470E-03     100.509E-03    -18.1628E+06    -22.7150E+06     1.37699E+06    -4.17599E+06    -13.2752E-03     26.2285E-03    -12.9534E-03     41.9712E-03    -13.3379E-03     26.1422E-03    -12.8872E-03     41.9127E-03
            1138     9.77313E-03     100.546E-03    -15.4131E+06    -22.2945E+06     3.56914E+06    -5.63782E+06    -13.7318E-03     26.7058E-03    -12.9740E-03     47.8658E-03    -13.7869E-03     26.6166E-03    -12.9015E-03     47.7860E-03
            1139     10.6611E-03     100.589E-03    -12.1840E+06    -20.7810E+06     5.77000E+06    -7.81620E+06    -14.4213E-03     27.4462E-03    -13.0249E-03     53.8479E-03    -14.4697E-03     27.3608E-03    -12.9482E-03     53.7361E-03
            1140     11.5486E-03     100.637E-03    -9.39949E+06    -16.7530E+06     7.58078E+06    -9.24211E+06    -15.3527E-03     28.4656E-03    -13.1128E-03     59.8683E-03    -15.4029E-03     28.4009E-03    -13.0370E-03     59.7323E-03
            1141     12.4352E-03     100.691E-03    -7.64073E+06    -22.8026E+06     5.64624E+06    -9.91768E+06    -16.6549E-03     29.9053E-03    -13.2503E-03     66.8570E-03    -16.6986E-03     29.8245E-03    -13.1780E-03     66.7035E-03
            1142     13.3207E-03     100.751E-03    -5.65038E+06    -24.7461E+06     463.760E+03    -10.3124E+06    -18.2287E-03     31.6551E-03    -13.4264E-03     73.4172E-03    -18.2763E-03     31.5935E-03    -13.3800E-03     73.2468E-03
            1143     14.2050E-03     100.818E-03    -4.04536E+06    -10.7999E+06     2.44203E+06    -9.07914E+06    -19.6945E-03     33.3688E-03    -13.6742E-03     77.8871E-03    -19.7948E-03     33.4093E-03    -13.6405E-03     77.7223E-03
            1144     15.0881E-03     100.888E-03    -3.11121E+06    -4.39648E+06    -1.08028E+06    -8.01724E+06    -21.7760E-03     35.7339E-03    -13.9579E-03     93.5475E-03    -22.0043E-03     35.9387E-03    -13.9524E-03     93.3966E-03
            1145     15.9691E-03     100.985E-03    -4.70767E+06     6.78669E+06    -16.4101E+06    -7.44634E+06    -24.3845E-03     38.6184E-03    -14.2339E-03     118.617E-03    -25.1759E-03     39.4649E-03    -14.3190E-03     118.644E-03
            1146     16.8501E-03     101.102E-03    -6.17008E+06     73.4459E+06     14.2683E+06    -5.21859E+06    -23.5473E-03     38.2257E-03    -14.6784E-03     95.9475E-03    -24.5696E-03     39.4455E-03    -14.7046E-03     96.3161E-03
            1147     888.719E-06     101.328E-03    -36.6629E+06    -36.0762E+06    -35.8817E+06     3.13418E+06    -12.4586E-03     25.0256E-03    -12.5670E-03     3.80017E-03    -12.5372E-03     24.9508E-03    -12.6410E-03     3.84052E-03
            1148     1.77748E-03     101.332E-03    -35.1936E+06    -31.4075E+06    -31.9915E+06     5.76811E+06    -12.4599E-03     24.9723E-03    -12.5124E-03     6.95456E-03    -12.5439E-03     24.9127E-03    -12.5758E-03     7.02879E-03
            1149     2.66629E-03     101.339E-03    -33.9483E+06    -24.7719E+06    -26.3965E+06     7.79837E+06    -12.4213E-03     24.9282E-03    -12.5069E-03     10.4745E-03    -12.5169E-03     24.8919E-03    -12.5537E-03     10.5748E-03
            1150     3.55512E-03     101.349E-03    -33.3577E+06    -21.2102E+06    -19.8849E+06     8.01551E+06    -12.3882E-03     24.8998E-03    -12.5116E-03     14.2137E-03    -12.4955E-03     24.8710E-03    -12.5319E-03     14.3166E-03
            1151     4.44401E-03     101.362E-03    -32.0094E+06    -21.1931E+06    -13.9029E+06     6.83281E+06    -12.3750E-03     24.8927E-03    -12.5177E-03     18.0922E-03    -12.4843E-03     24.8535E-03    -12.5101E-03     18.1796E-03
            1152     5.33295E-03     101.378E-03    -29.8177E+06    -21.5540E+06    -8.97802E+06     5.22768E+06    -12.3752E-03     24.8931E-03    -12.5179E-03     22.2068E-03    -12.4804E-03     24.8419E-03    -12.4883E-03     22.2732E-03
            1153     6.22189E-03     101.398E-03    -27.1492E+06    -20.2392E+06    -5.40164E+06     3.18234E+06    -12.3989E-03     24.9073E-03    -12.5084E-03     26.6645E-03    -12.4980E-03     24.8538E-03    -12.4667E-03     26.7041E-03
            1154     7.11089E-03     101.421E-03    -24.4216E+06    -19.7285E+06    -3.41833E+06     574.416E+03    -12.4721E-03     24.9668E-03    -12.4947E-03     31.5037E-03    -12.5616E-03     24.9094E-03    -12.4477E-03     31.5092E-03
            1155     7.99986E-03     101.449E-03    -21.9440E+06    -19.4038E+06    -1.88775E+06    -2.14348E+06    -12.6336E-03     25.1199E-03    -12.4863E-03     36.8145E-03    -12.7139E-03     25.0589E-03    -12.4358E-03     36.7841E-03
            1156     8.88879E-03     101.482E-03    -19.5945E+06    -20.0064E+06    -35.8678E+03    -4.75224E+06    -12.9405E-03     25.4359E-03    -12.4955E-03     42.5703E-03    -13.0120E-03     25.3670E-03    -12.4382E-03     42.5049E-03
            1157     9.77737E-03     101.519E-03    -16.7127E+06    -19.5829E+06     2.24739E+06    -7.31019E+06    -13.4375E-03     25.9654E-03    -12.5279E-03     48.7377E-03    -13.5008E-03     25.8933E-03    -12.4640E-03     48.6370E-03
            1158     10.6657E-03     101.563E-03    -13.6451E+06    -17.2661E+06     4.84187E+06    -9.63526E+06    -14.1944E-03     26.7875E-03    -12.5931E-03     55.0847E-03    -14.2535E-03     26.7228E-03    -12.5241E-03     54.9502E-03
            1159     11.5532E-03     101.612E-03    -10.9662E+06    -16.1074E+06     6.05439E+06    -10.5244E+06    -15.2576E-03     27.9577E-03    -12.7001E-03     61.4467E-03    -15.3140E-03     27.9005E-03    -12.6306E-03     61.2949E-03
            1160     12.4400E-03     101.666E-03    -8.15289E+06    -20.3856E+06     5.26491E+06    -11.3079E+06    -16.7347E-03     29.5986E-03    -12.8638E-03     68.8900E-03    -16.7840E-03     29.5313E-03    -12.7961E-03     68.7189E-03
            1161     13.3254E-03     101.729E-03    -5.65019E+06    -24.0318E+06    -183.259E+03    -12.4494E+06    -18.5716E-03     31.6461E-03    -13.0745E-03     75.7822E-03    -18.6203E-03     31.5900E-03    -13.0324E-03     75.5836E-03
            1162     14.2095E-03     101.797E-03    -2.67854E+06    -12.6176E+06     2.15163E+06    -11.3024E+06    -20.4799E-03     33.8565E-03    -13.3766E-03     80.0393E-03    -20.5733E-03     33.8894E-03    -13.3437E-03     79.8425E-03
            1163     15.0921E-03     101.869E-03    -140.724E+03    -5.03394E+06    -741.283E+03    -9.61712E+06    -22.9297E-03     36.6580E-03    -13.7283E-03     94.8658E-03    -23.1485E-03     36.8606E-03    -13.7245E-03     94.6854E-03
            1164     15.9746E-03     101.968E-03    -2.45657E+06     4.17260E+06    -14.3802E+06    -6.83230E+06    -25.1585E-03     39.2369E-03    -14.0783E-03     119.726E-03    -25.9289E-03     40.0550E-03    -14.1527E-03     119.742E-03
            1165     16.8510E-03     102.091E-03    -3.02535E+06     70.3341E+06     13.3930E+06    -4.04731E+06    -24.7858E-03     39.3496E-03    -14.5638E-03     97.1125E-03    -25.7825E-03     40.5465E-03    -14.5944E-03     97.4677E-03
            1166     889.183E-06     102.300E-03    -47.1596E+06    -41.1596E+06    -46.7669E+06     2.06302E+06    -11.9366E-03     23.9014E-03    -11.9649E-03     3.77959E-03    -12.0445E-03     23.8322E-03    -12.0706E-03     3.80615E-03
            1167     1.77844E-03     102.304E-03    -43.9414E+06    -36.8802E+06    -41.9169E+06     3.94702E+06    -11.8911E-03     23.8399E-03    -11.9487E-03     7.01685E-03    -11.9965E-03     23.7799E-03    -12.0411E-03     7.06761E-03
            1168     2.66773E-03     102.311E-03    -39.8065E+06    -30.4670E+06    -34.4884E+06     7.27959E+06    -11.8725E-03     23.8176E-03    -11.9451E-03     10.5485E-03    -11.9774E-03     23.7729E-03    -12.0156E-03     10.6421E-03
            1169     3.55710E-03     102.321E-03    -36.3419E+06    -23.5361E+06    -25.3280E+06     9.51058E+06    -11.8511E-03     23.8053E-03    -11.9542E-03     14.2582E-03    -11.9620E-03     23.7771E-03    -11.9940E-03     14.3805E-03
            1170     4.44641E-03     102.334E-03    -33.9422E+06    -20.4934E+06    -17.0555E+06     8.32538E+06    -11.8667E-03     23.8362E-03    -11.9695E-03     18.2045E-03    -11.9821E-03     23.8078E-03    -11.9758E-03     18.3113E-03
            1171     5.33575E-03     102.350E-03    -30.9048E+06    -20.1075E+06    -10.9725E+06     5.54857E+06    -11.9299E-03     23.9130E-03    -11.9831E-03     22.3581E-03    -12.0396E-03     23.8734E-03    -11.9640E-03     22.4288E-03
            1172     6.22511E-03     102.369E-03    -27.4971E+06    -18.3714E+06    -6.89933E+06     3.22283E+06    -11.9907E-03     23.9793E-03    -11.9886E-03     26.8384E-03    -12.0920E-03     23.9378E-03    -11.9566E-03     26.8788E-03
            1173     7.11445E-03     102.393E-03    -24.8833E+06    -16.6860E+06    -4.60068E+06     756.672E+03    -12.0892E-03     24.0785E-03    -11.9894E-03     31.7253E-03    -12.1835E-03     24.0386E-03    -11.9521E-03     31.7334E-03
            1174     8.00378E-03     102.421E-03    -22.5756E+06    -15.9086E+06    -3.06968E+06    -2.36541E+06    -12.2680E-03     24.2623E-03    -11.9943E-03     37.1311E-03    -12.3547E-03     24.2213E-03    -11.9539E-03     37.0982E-03
            1175     8.89293E-03     102.454E-03    -20.1307E+06    -16.5749E+06    -1.24052E+06    -5.35248E+06    -12.5864E-03     24.6018E-03    -12.0154E-03     43.0840E-03    -12.6636E-03     24.5523E-03    -11.9684E-03     43.0113E-03
            1176     9.78197E-03     102.492E-03    -17.8816E+06    -15.5997E+06     1.13546E+06    -8.41782E+06    -13.1175E-03     25.1773E-03    -12.0598E-03     49.5415E-03    -13.1904E-03     25.1280E-03    -12.0056E-03     49.4271E-03
            1177     10.6704E-03     102.536E-03    -15.7640E+06    -14.4296E+06     3.09534E+06    -10.8001E+06    -13.9271E-03     26.0644E-03    -12.1374E-03     56.2558E-03    -13.9979E-03     26.0191E-03    -12.0781E-03     56.1071E-03
            1178     11.5584E-03     102.586E-03    -13.5612E+06    -14.9967E+06     4.01197E+06    -11.8344E+06    -15.1169E-03     27.3792E-03    -12.2623E-03     63.0683E-03    -15.1846E-03     27.3339E-03    -12.2008E-03     62.9005E-03
            1179     12.4450E-03     102.642E-03    -11.4743E+06    -17.4876E+06     3.62349E+06    -13.1978E+06    -16.7970E-03     29.2476E-03    -12.4507E-03     71.0550E-03    -16.8646E-03     29.2020E-03    -12.3906E-03     70.8600E-03
            1180     13.3305E-03     102.707E-03    -9.20674E+06    -22.2635E+06    -1.80768E+06    -14.7723E+06    -18.9357E-03     31.6353E-03    -12.6996E-03     78.3656E-03    -19.0032E-03     31.5964E-03    -12.6630E-03     78.1364E-03
            1181     14.2139E-03     102.777E-03    -6.70390E+06    -13.9472E+06    -303.535E+03    -14.7505E+06    -21.3801E-03     34.4387E-03    -13.0586E-03     83.0978E-03    -21.4911E-03     34.4773E-03    -13.0302E-03     82.8529E-03
            1182     15.0946E-03     102.852E-03    -3.96255E+06    -7.30678E+06    -2.89217E+06    -12.1041E+06    -24.3610E-03     37.8522E-03    -13.4911E-03     98.4425E-03    -24.6012E-03     38.0608E-03    -13.4893E-03     98.2195E-03
            1183     15.9714E-03     102.952E-03     1.16078E+06     991.247E+03    -11.6946E+06    -7.59617E+06    -25.8198E-03     39.7396E-03    -13.9198E-03     121.222E-03    -26.5596E-03     40.5210E-03    -13.9814E-03     121.208E-03
            1184     16.8572E-03     103.072E-03     3.74254E+06     66.3812E+06     17.2107E+06    -3.01022E+06    -26.0273E-03     40.4874E-03    -14.4601E-03     99.5172E-03    -26.9876E-03     41.6470E-03    -14.4757E-03     99.8508E-03
            1185     889.687E-06     103.271E-03    -60.3147E+06    -42.6559E+06    -60.7495E+06    -467.127E+03    -11.3661E-03     22.6935E-03    -11.3275E-03     3.71937E-03    -11.5174E-03     22.6562E-03    -11.4819E-03     3.71331E-03
            1186     1.77945E-03     103.274E-03    -56.5162E+06    -39.6328E+06    -55.8013E+06    -205.745E+03    -11.3172E-03     22.6654E-03    -11.3482E-03     7.05712E-03    -11.4613E-03     22.6301E-03    -11.4878E-03     7.05433E-03
            1187     2.66925E-03     103.282E-03    -49.6782E+06    -35.8701E+06    -46.9909E+06     1.71855E+06    -11.3217E-03     22.6807E-03    -11.3590E-03     10.6011E-03    -11.4500E-03     22.6415E-03    -11.4699E-03     10.6230E-03
            1188     3.55898E-03     103.291E-03    -40.7752E+06    -28.1063E+06    -34.5775E+06     5.20987E+06    -11.3213E-03     22.7013E-03    -11.3801E-03     14.2784E-03    -11.4343E-03     22.6701E-03    -11.4531E-03     14.3453E-03
            1189     4.44892E-03     103.304E-03    -33.3544E+06    -20.6905E+06    -21.9863E+06     7.13615E+06    -11.3638E-03     22.7712E-03    -11.4073E-03     18.2229E-03    -11.4689E-03     22.7481E-03    -11.4389E-03     18.3145E-03
            1190     5.33868E-03     103.320E-03    -29.6178E+06    -18.0803E+06    -13.4966E+06     5.62011E+06    -11.4636E-03     22.8993E-03    -11.4357E-03     22.3896E-03    -11.5661E-03     22.8716E-03    -11.4341E-03     22.4614E-03
            1191     6.22838E-03     103.340E-03    -27.0664E+06    -16.4429E+06    -8.61637E+06     2.94865E+06    -11.5817E-03     23.0407E-03    -11.4590E-03     26.8854E-03    -11.6811E-03     23.0106E-03    -11.4390E-03     26.9224E-03
            1192     7.11808E-03     103.364E-03    -23.7631E+06    -13.6295E+06    -5.28284E+06     315.466E+03    -11.7128E-03     23.1903E-03    -11.4775E-03     31.8246E-03    -11.8049E-03     23.1649E-03    -11.4497E-03     31.8273E-03
            1193     8.00768E-03     103.392E-03    -21.1225E+06    -12.4268E+06    -3.38014E+06    -2.37673E+06    -11.9087E-03     23.4063E-03    -11.4976E-03     37.3148E-03    -11.9926E-03     23.3809E-03    -11.4659E-03     37.2821E-03
            1194     8.89727E-03     103.425E-03    -19.4888E+06    -12.5497E+06    -1.70333E+06    -5.48924E+06    -12.2379E-03     23.7690E-03    -11.5311E-03     43.4468E-03    -12.3169E-03     23.7392E-03    -11.4932E-03     43.3728E-03
            1195     9.78650E-03     103.463E-03    -17.7971E+06    -11.3007E+06     590.054E+03    -8.72981E+06    -12.7812E-03     24.3681E-03    -11.5869E-03     50.1727E-03    -12.8588E-03     24.3406E-03    -11.5417E-03     50.0550E-03
            1196     10.6754E-03     103.508E-03    -16.3344E+06    -11.8503E+06     2.17235E+06    -10.9003E+06    -13.6379E-03     25.3150E-03    -11.6770E-03     57.2724E-03    -13.7134E-03     25.2841E-03    -11.6253E-03     57.1234E-03
            1197     11.5634E-03     103.559E-03    -15.0776E+06    -12.7421E+06     2.92867E+06    -12.4603E+06    -14.9118E-03     26.7279E-03    -11.8161E-03     64.6602E-03    -14.9879E-03     26.6968E-03    -11.7611E-03     64.4853E-03
            1198     12.4505E-03     103.617E-03    -12.8395E+06    -13.7707E+06     3.23189E+06    -14.7393E+06    -16.7616E-03     28.7856E-03    -12.0240E-03     73.3907E-03    -16.8403E-03     28.7605E-03    -11.9693E-03     73.1767E-03
            1199     13.3356E-03     103.684E-03    -10.1456E+06    -19.7083E+06    -1.40630E+06    -17.0199E+06    -19.1900E-03     31.4966E-03    -12.3066E-03     81.5553E-03    -19.2664E-03     31.4712E-03    -12.2703E-03     81.2972E-03
            1200     14.2188E-03     103.757E-03    -7.75075E+06    -14.5942E+06    -631.244E+03    -16.9299E+06    -21.8007E-03     34.5037E-03    -12.7030E-03     87.2298E-03    -21.9171E-03     34.5427E-03    -12.6738E-03     86.9555E-03
            1201     15.1000E-03     103.835E-03    -5.46522E+06    -10.4557E+06    -3.25539E+06    -14.6058E+06    -24.6837E-03     37.8542E-03    -13.1705E-03     103.189E-03    -24.9240E-03     38.0474E-03    -13.1637E-03     102.932E-03
            1202     15.9817E-03     103.938E-03    -1.57744E+06    -5.07622E+06    -13.2316E+06    -10.0659E+06    -27.9851E-03     41.6574E-03    -13.6723E-03     124.561E-03    -28.7338E-03     42.4210E-03    -13.7288E-03     124.465E-03
            1203     16.8543E-03     104.056E-03    -911.239E+03     61.1051E+06     18.8925E+06    -3.95890E+06    -28.8668E-03     43.2321E-03    -14.3653E-03     102.841E-03    -29.8757E-03     44.4002E-03    -14.3582E-03     103.100E-03
            1204     890.210E-06     104.240E-03    -66.4822E+06    -39.6446E+06    -66.6041E+06    -2.87340E+06    -10.8030E-03     21.5760E-03    -10.7731E-03     3.60922E-03    -10.9810E-03     21.5712E-03    -10.9522E-03     3.57211E-03
            1205     1.78044E-03     104.244E-03    -63.7026E+06    -37.7693E+06    -63.0068E+06    -4.50859E+06    -10.8035E-03     21.6000E-03    -10.7965E-03     7.01849E-03    -10.9759E-03     21.5949E-03    -10.9644E-03     6.96018E-03
            1206     2.67057E-03     104.251E-03    -58.6893E+06    -36.5934E+06    -56.4535E+06    -5.43780E+06    -10.8093E-03     21.6258E-03    -10.8166E-03     10.5205E-03    -10.9678E-03     21.6098E-03    -10.9607E-03     10.4501E-03
            1207     3.56095E-03     104.261E-03    -50.2248E+06    -31.7112E+06    -47.4620E+06    -4.35385E+06    -10.8408E-03     21.6761E-03    -10.8353E-03     14.2030E-03    -10.9772E-03     21.6593E-03    -10.9538E-03     14.1465E-03
            1208     4.45106E-03     104.274E-03    -39.0928E+06    -24.0146E+06    -34.9761E+06    -849.259E+03    -10.8834E-03     21.7469E-03    -10.8635E-03     18.0665E-03    -10.9934E-03     21.7343E-03    -10.9469E-03     18.0551E-03
            1209     5.34139E-03     104.290E-03    -29.3500E+06    -18.4478E+06    -21.1042E+06     2.48508E+06    -10.9697E-03     21.8762E-03    -10.9065E-03     22.2237E-03    -11.0593E-03     21.8573E-03    -10.9427E-03     22.2551E-03
            1210     6.23154E-03     104.310E-03    -24.1727E+06    -14.2351E+06    -10.9914E+06     2.27708E+06    -11.1358E-03     22.0852E-03    -10.9494E-03     26.7598E-03    -11.2205E-03     22.0654E-03    -10.9486E-03     26.7882E-03
            1211     7.12155E-03     104.334E-03    -21.8790E+06    -10.7057E+06    -5.74904E+06    -209.547E+03    -11.3270E-03     22.3127E-03    -10.9858E-03     31.7470E-03    -11.4131E-03     22.2999E-03    -10.9672E-03     31.7430E-03
            1212     8.01159E-03     104.362E-03    -19.2920E+06    -9.06594E+06    -3.17380E+06    -3.04979E+06    -11.5712E-03     22.5927E-03    -11.0215E-03     37.2894E-03    -11.6510E-03     22.5810E-03    -10.9963E-03     37.2482E-03
            1213     8.90135E-03     104.395E-03    -16.3928E+06    -8.71617E+06    -1.03024E+06    -5.72503E+06    -11.9213E-03     22.9896E-03    -11.0683E-03     43.5227E-03    -11.9911E-03     22.9732E-03    -11.0371E-03     43.4461E-03
            1214     9.79099E-03     104.434E-03    -14.8742E+06    -7.33548E+06     1.51707E+06    -8.25627E+06    -12.4601E-03     23.5967E-03    -11.1366E-03     50.5022E-03    -12.5297E-03     23.5830E-03    -11.0968E-03     50.3913E-03
            1215     10.6801E-03     104.480E-03    -13.6776E+06    -8.94220E+06     3.28306E+06    -10.6708E+06    -13.3092E-03     24.5468E-03    -11.2376E-03     57.9883E-03    -13.3764E-03     24.5242E-03    -11.1884E-03     57.8432E-03
            1216     11.5686E-03     104.532E-03    -12.1016E+06    -10.0031E+06     4.50966E+06    -12.3638E+06    -14.6097E-03     25.9945E-03    -11.3848E-03     66.0591E-03    -14.6762E-03     25.9694E-03    -11.3302E-03     65.8869E-03
            1217     12.4557E-03     104.592E-03    -11.1504E+06    -8.59913E+06     5.42831E+06    -15.3221E+06    -16.5081E-03     28.1080E-03    -11.5999E-03     75.6576E-03    -16.5874E-03     28.1015E-03    -11.5441E-03     75.4378E-03
            1218     13.3415E-03     104.661E-03    -10.4466E+06    -16.9455E+06     909.497E+03    -18.0710E+06    -19.0904E-03     30.9889E-03    -11.8985E-03     84.8639E-03    -19.1743E-03     30.9730E-03    -11.8543E-03     84.5936E-03
            1219     14.2247E-03     104.737E-03    -8.76606E+06    -13.8435E+06     1.01796E+06    -19.2243E+06    -21.9227E-03     34.2357E-03    -12.3130E-03     90.8407E-03    -22.0467E-03     34.2766E-03    -12.2751E-03     90.5368E-03
            1220     15.1062E-03     104.818E-03    -5.13970E+06    -12.4861E+06    -1.10339E+06    -18.6143E+06    -25.3870E-03     38.2105E-03    -12.8235E-03     105.592E-03    -25.6206E-03     38.3849E-03    -12.8034E-03     105.276E-03
            1221     15.9839E-03     104.923E-03    -4.30097E+06    -14.5838E+06    -14.3499E+06    -12.3832E+06    -29.9872E-03     43.3938E-03    -13.4067E-03     128.130E-03    -30.7369E-03     44.1185E-03    -13.4510E-03     127.961E-03
            1222     16.8595E-03     105.052E-03    -3.26828E+06     54.5786E+06     22.8125E+06    -3.86516E+06    -31.6176E-03     45.8636E-03    -14.2460E-03     105.700E-03    -32.6442E-03     47.0064E-03    -14.2064E-03     105.897E-03
            1223     890.646E-06     105.208E-03    -56.3595E+06    -33.0959E+06    -55.9837E+06    -3.78529E+06    -10.3479E-03     20.7622E-03    -10.4143E-03     3.53512E-03    -10.5002E-03     20.7600E-03    -10.5645E-03     3.48620E-03
            1224     1.78116E-03     105.212E-03    -55.6296E+06    -32.5950E+06    -54.2778E+06    -6.48548E+06    -10.4140E-03     20.8057E-03    -10.3918E-03     6.81643E-03    -10.5661E-03     20.8021E-03    -10.5352E-03     6.73257E-03
            1225     2.67185E-03     105.219E-03    -53.8910E+06    -32.2277E+06    -51.4732E+06    -9.07311E+06    -10.4415E-03     20.8522E-03    -10.4108E-03     10.2549E-03    -10.5896E-03     20.8439E-03    -10.5433E-03     10.1376E-03
            1226     3.56226E-03     105.229E-03    -51.1122E+06    -30.1907E+06    -48.1649E+06    -11.0774E+06    -10.4722E-03     20.8980E-03    -10.4258E-03     13.8891E-03    -10.6142E-03     20.8910E-03    -10.5487E-03     13.7458E-03
            1227     4.45296E-03     105.242E-03    -45.7263E+06    -26.5885E+06    -43.0242E+06    -10.5360E+06    -10.4830E-03     20.9220E-03    -10.4390E-03     17.6760E-03    -10.6109E-03     20.9179E-03    -10.5492E-03     17.5396E-03
            1228     5.34355E-03     105.258E-03    -36.0962E+06    -21.5643E+06    -33.6499E+06    -7.36763E+06    -10.5300E-03     20.9902E-03    -10.4601E-03     21.7829E-03    -10.6307E-03     20.9837E-03    -10.5448E-03     21.6872E-03
            1229     6.23424E-03     105.279E-03    -25.0937E+06    -15.0444E+06    -20.7543E+06    -3.41029E+06    -10.6667E-03     21.1648E-03    -10.4981E-03     26.2514E-03    -10.7407E-03     21.1564E-03    -10.5436E-03     26.2065E-03
            1230     7.12477E-03     105.302E-03    -17.9073E+06     -8.9553E+06    -8.36826E+06    -1.79822E+06    -10.9173E-03     21.4708E-03    -10.5536E-03     31.2344E-03    -10.9823E-03     21.4648E-03    -10.5565E-03     31.2101E-03
            1231     8.01493E-03     105.331E-03    -15.1960E+06    -5.46239E+06    -2.01184E+06    -3.53550E+06    -11.2395E-03     21.8478E-03    -10.6083E-03     36.8536E-03    -11.3056E-03     21.8464E-03    -10.5884E-03     36.8064E-03
            1232     8.90507E-03     105.364E-03    -13.6830E+06    -5.19132E+06     89.7884E+03    -6.47709E+06    -11.6246E-03     22.2905E-03    -10.6659E-03     43.1829E-03    -11.6874E-03     22.2859E-03    -10.6380E-03     43.0970E-03
            1233     9.79488E-03     105.404E-03    -11.3722E+06    -4.62496E+06     2.87206E+06    -8.28879E+06    -12.1371E-03     22.8800E-03    -10.7429E-03     50.3735E-03    -12.1946E-03     22.8724E-03    -10.7053E-03     50.2628E-03
            1234     10.6844E-03     105.450E-03    -10.0440E+06    -5.27431E+06     5.53677E+06    -10.0707E+06    -12.9226E-03     23.7713E-03    -10.8486E-03     58.2544E-03    -12.9793E-03     23.7575E-03    -10.7987E-03     58.1181E-03
            1235     11.5731E-03     105.504E-03    -9.33971E+06    -7.48889E+06     6.86918E+06    -12.2022E+06    -14.1557E-03     25.1502E-03    -10.9945E-03     67.0071E-03    -14.2137E-03     25.1286E-03    -10.9358E-03     66.8386E-03
            1236     12.4610E-03     105.565E-03    -9.47959E+06    -4.15626E+06     8.47275E+06    -13.4107E+06    -16.0632E-03     27.2668E-03    -11.2037E-03     77.4781E-03    -16.1425E-03     27.2732E-03    -11.1415E-03     77.2852E-03
            1237     13.3470E-03     105.637E-03    -10.7468E+06    -11.7597E+06     4.91576E+06    -17.0470E+06    -18.8321E-03     30.3379E-03    -11.5059E-03     87.6056E-03    -18.9279E-03     30.3398E-03    -11.4487E-03     87.3507E-03
            1238     14.2308E-03     105.717E-03    -9.60263E+06    -10.0944E+06     3.50134E+06    -21.5570E+06    -22.1069E-03     34.0370E-03    -11.9301E-03     94.0258E-03    -22.2406E-03     34.0908E-03    -11.8840E-03     93.6921E-03
            1239     15.1111E-03     105.801E-03    -7.86884E+06    -15.4227E+06    -577.392E+03    -20.8075E+06    -26.4003E-03     38.8891E-03    -12.4888E-03     110.036E-03    -26.6433E-03     39.0514E-03    -12.4579E-03     109.682E-03
            1240     15.9880E-03     105.912E-03    -7.37876E+06    -25.2458E+06    -15.7375E+06    -13.3612E+06    -31.1415E-03     44.2752E-03    -13.1337E-03     134.378E-03    -31.8726E-03     44.9364E-03    -13.1651E-03     134.173E-03
            1241     16.8624E-03     106.042E-03    -4.04032E+06     47.9332E+06     25.3066E+06    -5.56936E+06    -34.1968E-03     48.2704E-03    -14.0736E-03     110.994E-03    -35.2169E-03     49.3735E-03    -14.0107E-03     111.105E-03
            1242     890.846E-06     106.176E-03    -39.9353E+06    -25.8262E+06    -39.3794E+06    -3.55812E+06    -10.1061E-03     20.2967E-03    -10.1906E-03     3.53551E-03    -10.2109E-03     20.2830E-03    -10.2922E-03     3.48947E-03
            1243     1.78177E-03     106.180E-03    -39.7808E+06    -26.1146E+06    -38.4745E+06    -6.34363E+06    -10.1976E-03     20.3589E-03    -10.1614E-03     6.48415E-03    -10.3028E-03     20.3418E-03    -10.2582E-03     6.40205E-03
            1244     2.67248E-03     106.187E-03    -39.4181E+06    -25.7176E+06    -36.9165E+06    -9.41341E+06    -10.2383E-03     20.4224E-03    -10.1841E-03     9.83335E-03    -10.3446E-03     20.4045E-03    -10.2742E-03     9.71150E-03
            1245     3.56339E-03     106.197E-03    -39.0668E+06    -25.0673E+06    -35.0800E+06    -12.0378E+06    -10.2711E-03     20.4765E-03    -10.2053E-03     13.2705E-03    -10.3794E-03     20.4588E-03    -10.2877E-03     13.1146E-03
            1246     4.45411E-03     106.210E-03    -38.3364E+06    -24.1212E+06    -33.6685E+06    -14.1239E+06    -10.2977E-03     20.5172E-03    -10.2195E-03     16.9085E-03    -10.4058E-03     20.5012E-03    -10.2973E-03     16.7255E-03
            1247     5.34495E-03     106.227E-03    -36.0162E+06    -21.8039E+06    -32.1865E+06    -15.1012E+06    -10.3210E-03     20.5458E-03    -10.2249E-03     20.8377E-03    -10.4231E-03     20.5360E-03    -10.3019E-03     20.6419E-03
            1248     6.23578E-03     106.247E-03    -29.8100E+06    -18.0173E+06    -27.2015E+06    -13.3145E+06    -10.3661E-03     20.6015E-03    -10.2354E-03     25.1587E-03    -10.4500E-03     20.5945E-03    -10.3021E-03     24.9859E-03
            1249     7.12667E-03     106.271E-03    -19.9738E+06    -10.5687E+06    -17.8599E+06    -9.25639E+06    -10.5200E-03     20.7790E-03    -10.2590E-03     30.0421E-03    -10.5792E-03     20.7817E-03    -10.3041E-03     29.9215E-03
            1250     8.01746E-03     106.300E-03    -11.6042E+06    -4.18519E+06    -6.30526E+06    -6.24736E+06    -10.8359E-03     21.1472E-03    -10.3114E-03     35.6689E-03    -10.8796E-03     21.1532E-03    -10.3200E-03     35.5868E-03
            1251     8.90776E-03     106.334E-03    -8.33647E+06    -2.06561E+06     1.95273E+06    -6.29791E+06    -11.2801E-03     21.6636E-03    -10.3835E-03     42.1235E-03    -11.3231E-03     21.6641E-03    -10.3587E-03     42.0401E-03
            1252     9.79786E-03     106.373E-03    -8.37093E+06    -2.44239E+06     4.62231E+06    -8.00595E+06    -11.7813E-03     22.2400E-03    -10.4587E-03     49.4629E-03    -11.8288E-03     22.2358E-03    -10.4199E-03     49.3565E-03
            1253     10.6877E-03     106.420E-03    -7.62694E+06    -2.09435E+06     7.43343E+06    -9.57780E+06    -12.4618E-03     23.0169E-03    -10.5551E-03     57.7367E-03    -12.5126E-03     23.0116E-03    -10.5038E-03     57.6081E-03
            1254     11.5771E-03     106.475E-03    -6.72641E+06    -4.41199E+06     10.1571E+06    -11.3667E+06    -13.6237E-03     24.3157E-03    -10.6921E-03     67.0820E-03    -13.6758E-03     24.2989E-03    -10.6252E-03     66.9263E-03
            1255     12.4653E-03     106.538E-03    -6.41244E+06    -3.76845E+06     12.2616E+06    -11.2241E+06    -15.5690E-03     26.4589E-03    -10.8900E-03     78.4371E-03    -15.6357E-03     26.4539E-03    -10.8139E-03     78.2751E-03
            1256     13.3520E-03     106.613E-03    -6.81751E+06    -2.64339E+06     12.4811E+06    -14.0337E+06    -18.4669E-03     29.6517E-03    -11.1848E-03     89.7387E-03    -18.5624E-03     29.6775E-03    -11.1087E-03     89.5257E-03
            1257     14.2355E-03     106.696E-03    -8.55684E+06    -3.48158E+06     9.51755E+06    -21.0183E+06    -22.0932E-03     33.7031E-03    -11.6099E-03     97.2459E-03    -22.2342E-03     33.7740E-03    -11.5449E-03     96.9208E-03
            1258     15.1166E-03     106.784E-03    -9.29287E+06    -20.1139E+06     2.46246E+06    -20.9521E+06    -26.4948E-03     38.6795E-03    -12.1847E-03     113.754E-03    -26.7307E-03     38.8041E-03    -12.1298E-03     113.397E-03
            1259     15.9950E-03     106.899E-03    -7.89629E+06    -33.4758E+06    -16.9987E+06    -15.5998E+06    -32.0049E-03     44.8434E-03    -12.8384E-03     139.097E-03    -32.6727E-03     45.4140E-03    -12.8634E-03     138.826E-03
            1260     16.8680E-03     107.036E-03    -3.10433E+06     39.4779E+06     24.3138E+06    -8.57947E+06    -37.3083E-03     51.1805E-03    -13.8722E-03     118.807E-03    -38.3082E-03     52.2399E-03    -13.8034E-03     118.798E-03
            1261     891.006E-06     107.144E-03    -24.2440E+06    -19.4950E+06    -23.9369E+06    -3.07164E+06    -10.1714E-03     20.2745E-03    -10.1031E-03     3.28019E-03    -10.2293E-03     20.2473E-03    -10.1594E-03     3.24034E-03
            1262     1.78183E-03     107.148E-03    -24.2993E+06    -19.6075E+06    -23.1237E+06    -5.74581E+06    -10.1771E-03     20.3248E-03    -10.1477E-03     6.04660E-03    -10.2366E-03     20.2956E-03    -10.1997E-03     5.97211E-03
            1263     2.67281E-03     107.155E-03    -24.5591E+06    -19.3916E+06    -22.0895E+06    -8.43576E+06    -10.2366E-03     20.4065E-03    -10.1699E-03     9.17172E-03    -10.2993E-03     20.3773E-03    -10.2167E-03     9.06233E-03
            1264     3.56356E-03     107.165E-03    -24.6320E+06    -19.2800E+06    -20.7778E+06    -11.0156E+06    -10.3039E-03     20.5021E-03    -10.1982E-03     12.3416E-03    -10.3692E-03     20.4717E-03    -10.2384E-03     12.1987E-03
            1265     4.45443E-03     107.178E-03    -24.4744E+06    -18.6956E+06    -19.1370E+06    -13.5338E+06    -10.3775E-03     20.6065E-03    -10.2289E-03     15.7176E-03    -10.4453E-03     20.5765E-03    -10.2620E-03     15.5420E-03
            1266     5.34514E-03     107.194E-03    -24.4125E+06    -17.8783E+06    -17.8122E+06    -15.7660E+06    -10.4259E-03     20.6822E-03    -10.2563E-03     19.3472E-03    -10.4967E-03     20.6545E-03    -10.2840E-03     19.1426E-03
            1267     6.23591E-03     107.214E-03    -24.0781E+06    -16.7082E+06    -17.3778E+06    -17.5970E+06    -10.4297E-03     20.7005E-03    -10.2708E-03     23.3840E-03    -10.5012E-03     20.6777E-03    -10.2986E-03     23.1556E-03
            1268     7.12677E-03     107.238E-03    -21.3542E+06    -12.7304E+06    -16.8212E+06    -17.2595E+06    -10.4257E-03     20.6936E-03    -10.2679E-03     27.9907E-03    -10.4904E-03     20.6861E-03    -10.3026E-03     27.7665E-03
            1269     8.01773E-03     107.268E-03    -14.7180E+06    -6.60427E+06    -11.6101E+06    -13.7255E+06    -10.5236E-03     20.7979E-03    -10.2742E-03     33.3743E-03    -10.5718E-03     20.8040E-03    -10.3014E-03     33.1956E-03
            1270     8.90867E-03     107.302E-03    -7.05390E+06    -2.53379E+06    -2.49037E+06    -9.48189E+06    -10.8221E-03     21.1312E-03    -10.3092E-03     39.7694E-03    -10.8513E-03     21.1337E-03    -10.3077E-03     39.6452E-03
            1271     9.79914E-03     107.342E-03    -2.28971E+06    -458.748E+03     5.75248E+06    -7.79225E+06    -11.3153E-03     21.6824E-03    -10.3671E-03     47.2344E-03    -11.3365E-03     21.6772E-03    -10.3344E-03     47.1314E-03
            1272     10.6893E-03     107.389E-03    -1.08716E+06      511.27E+03     11.4677E+06    -8.99366E+06    -12.0068E-03     22.4542E-03    -10.4474E-03     55.8119E-03    -12.0333E-03     22.4454E-03    -10.3892E-03     55.6920E-03
            1273     11.5791E-03     107.445E-03    -1.58757E+06    -3.03421E+06     14.7850E+06    -9.10508E+06    -13.1407E-03     23.7067E-03    -10.5660E-03     65.6308E-03    -13.1734E-03     23.6801E-03    -10.4853E-03     65.5062E-03
            1274     12.4678E-03     107.510E-03    -2.13982E+06    -2.77701E+06     17.7557E+06    -9.64806E+06    -15.0342E-03     25.7788E-03    -10.7446E-03     77.8718E-03    -15.0846E-03     25.7602E-03    -10.6487E-03     77.7332E-03
            1275     13.3548E-03     107.587E-03    -2.32175E+06     3.05618E+06     20.1606E+06    -11.1330E+06    -17.8391E-03     28.8531E-03    -11.0140E-03     90.4128E-03    -17.9238E-03     28.8821E-03    -10.9142E-03     90.2417E-03
            1276     14.2398E-03     107.674E-03    -5.54364E+06     5.79024E+06     20.1184E+06    -14.7452E+06    -21.6969E-03     33.1226E-03    -11.4257E-03     99.3118E-03    -21.8416E-03     33.2101E-03    -11.3255E-03     99.0715E-03
            1277     15.1202E-03     107.767E-03    -7.45739E+06    -18.4473E+06     11.1986E+06    -21.6345E+06    -26.6254E-03     38.6268E-03    -12.0014E-03     115.681E-03    -26.8462E-03     38.7234E-03    -11.9078E-03     115.314E-03
            1278     15.9975E-03     107.885E-03    -2.66706E+06    -40.5940E+06    -12.6925E+06    -20.2150E+06    -32.6820E-03     45.3426E-03    -12.6606E-03     142.661E-03    -33.2501E-03     45.7943E-03    -12.6613E-03     142.292E-03
            1279     16.8702E-03     108.032E-03    -3.64373E+06     28.6914E+06     22.2811E+06    -9.34235E+06    -39.3478E-03     53.0784E-03    -13.7305E-03     128.232E-03    -40.3245E-03     54.0806E-03    -13.6554E-03     128.142E-03
            1280     890.641E-06     108.111E-03    -10.3224E+06    -13.7514E+06    -10.0505E+06    -2.73517E+06    -10.4689E-03     20.8331E-03    -10.3642E-03     2.80034E-03    -10.4857E-03     20.7943E-03    -10.3796E-03     2.76471E-03
            1281     1.78155E-03     108.116E-03    -10.6291E+06    -14.0058E+06    -9.58769E+06    -4.93148E+06    -10.4394E-03     20.8625E-03    -10.4231E-03     5.48759E-03    -10.4584E-03     20.8218E-03    -10.4353E-03     5.42347E-03
            1282     2.67214E-03     108.123E-03    -10.9127E+06    -13.8864E+06    -8.82009E+06    -7.23691E+06    -10.5480E-03     20.9953E-03    -10.4473E-03     8.25824E-03    -10.5698E-03     20.9546E-03    -10.4555E-03     8.16410E-03
            1283     3.56285E-03     108.133E-03    -11.2323E+06    -13.6773E+06    -7.73196E+06    -9.61707E+06    -10.6657E-03     21.1559E-03    -10.4902E-03     11.0871E-03    -10.6910E-03     21.1152E-03    -10.4928E-03     10.9620E-03
            1284     4.45328E-03     108.146E-03    -11.8953E+06    -13.3967E+06    -6.74645E+06    -11.9000E+06    -10.7730E-03     21.3119E-03    -10.5388E-03     14.0606E-03    -10.8036E-03     21.2722E-03    -10.5359E-03     13.9057E-03
            1285     5.34376E-03     108.163E-03    -12.4921E+06    -12.8602E+06    -5.57983E+06    -14.0452E+06    -10.8467E-03     21.4330E-03    -10.5863E-03     17.2880E-03    -10.8830E-03     21.3954E-03    -10.5774E-03     17.1051E-03
            1286     6.23412E-03     108.182E-03    -12.9671E+06    -11.9547E+06    -4.01233E+06    -16.2161E+06    -10.8802E-03     21.5080E-03    -10.6278E-03     20.8967E-03    -10.9227E-03     21.4736E-03    -10.6117E-03     20.6855E-03
            1287     7.12454E-03     108.207E-03    -13.8158E+06    -10.9123E+06    -3.23275E+06    -17.9027E+06    -10.8439E-03     21.4969E-03    -10.6530E-03     25.0428E-03    -10.8934E-03     21.4680E-03    -10.6333E-03     24.8097E-03
            1288     8.01508E-03     108.235E-03    -13.9837E+06    -8.04365E+06    -4.11598E+06    -18.0349E+06    -10.7323E-03     21.3802E-03    -10.6479E-03     29.9204E-03    -10.7858E-03     21.3673E-03    -10.6365E-03     29.6855E-03
            1289     8.90593E-03     108.270E-03    -10.9243E+06    -5.54443E+06    -3.09404E+06    -15.5515E+06    -10.6722E-03     21.3025E-03    -10.6303E-03     35.8005E-03    -10.7156E-03     21.2964E-03    -10.6219E-03     35.5977E-03
            1290     9.79703E-03     108.310E-03    -5.36389E+06    -1.56088E+06     2.23571E+06    -11.7367E+06    -10.8566E-03     21.4808E-03    -10.6243E-03     42.9563E-03    -10.8860E-03     21.4792E-03    -10.6031E-03     42.8026E-03
            1291     10.6877E-03     108.358E-03    -1.52290E+06     1.35455E+06     10.4877E+06    -8.78234E+06    -11.4642E-03     22.1210E-03    -10.6568E-03     51.6972E-03    -11.4915E-03     22.1174E-03    -10.6041E-03     51.5810E-03
            1292     11.5776E-03     108.414E-03    -82.7063E+03    -3.15478E+06     17.4090E+06    -7.82011E+06    -12.6316E-03     23.3759E-03    -10.7443E-03     62.1290E-03    -12.6580E-03     23.3403E-03    -10.6525E-03     62.0230E-03
            1293     12.4667E-03     108.481E-03     319.639E+03    -845.688E+03     22.5941E+06    -7.51026E+06    -14.4787E-03     25.3665E-03    -10.8878E-03     75.0864E-03    -14.5215E-03     25.3419E-03    -10.7741E-03     74.9787E-03
            1294     13.3545E-03     108.560E-03    -1.38145E+06     4.54719E+06     26.2602E+06    -7.51012E+06    -17.1067E-03     28.2287E-03    -11.1220E-03     88.5144E-03    -17.1883E-03     28.2454E-03    -10.9953E-03     88.3954E-03
            1295     14.2395E-03     108.651E-03    -3.02019E+06     12.2179E+06     29.0635E+06    -8.79962E+06    -20.7886E-03     32.2741E-03    -11.4855E-03     99.2218E-03    -20.9274E-03     32.3614E-03    -11.3535E-03     99.0657E-03
            1296     15.1215E-03     108.750E-03    -5.37515E+06    -3.85134E+06     22.7925E+06    -18.0183E+06    -26.0441E-03     38.0596E-03    -12.0155E-03     116.902E-03    -26.2614E-03     38.1784E-03    -11.8882E-03     116.586E-03
            1297     15.9984E-03     108.872E-03    -7.43360E+06    -47.6649E+06    -7.65680E+06    -23.0187E+06    -32.8188E-03     45.4787E-03    -12.6599E-03     146.272E-03    -33.3193E-03     45.8062E-03    -12.6183E-03     145.842E-03
            1298     16.8720E-03     109.026E-03    -3.93593E+06     10.9166E+06     18.5664E+06    -11.7933E+06    -39.9112E-03     53.5979E-03    -13.6867E-03     139.318E-03    -40.8459E-03     54.5048E-03    -13.6040E-03     139.138E-03
            1299     890.297E-06     109.080E-03     850.675E+03    -8.97897E+06     1.25588E+06    -2.27210E+06    -11.0921E-03     22.0988E-03    -11.0068E-03     2.41830E-03    -11.0763E-03     22.0513E-03    -10.9887E-03     2.38865E-03
            1300     1.78042E-03     109.084E-03     600.514E+03    -9.24510E+06     1.45170E+06    -3.99267E+06    -11.1558E-03     22.2284E-03    -11.0727E-03     4.72029E-03    -11.1415E-03     22.1793E-03    -11.0529E-03     4.66814E-03
            1301     2.67064E-03     109.092E-03     140.495E+03    -9.11426E+06     2.09485E+06    -5.97848E+06    -11.2775E-03     22.4012E-03    -11.1237E-03     7.05254E-03    -11.2668E-03     22.3525E-03    -11.1002E-03     6.97439E-03
            1302     3.56050E-03     109.102E-03    -612.039E+03    -8.97737E+06     2.67639E+06    -7.89090E+06    -11.4269E-03     22.6115E-03    -11.1846E-03     9.44005E-03    -11.4210E-03     22.5638E-03    -11.1573E-03     9.33686E-03
            1303     4.45039E-03     109.115E-03    -1.42323E+06    -8.72935E+06     3.46069E+06    -9.82139E+06    -11.5585E-03     22.8100E-03    -11.2515E-03     11.9590E-03    -11.5584E-03     22.7637E-03    -11.2195E-03     11.8305E-03
            1304     5.34008E-03     109.132E-03    -2.43445E+06    -8.37058E+06     4.48984E+06    -11.7036E+06    -11.6690E-03     22.9875E-03    -11.3185E-03     14.6995E-03    -11.6761E-03     22.9432E-03    -11.2804E-03     14.5463E-03
            1305     6.22980E-03     109.152E-03    -4.00554E+06    -7.63025E+06     5.48884E+06    -13.2581E+06    -11.7485E-03     23.1293E-03    -11.3809E-03     17.7608E-03    -11.7662E-03     23.0898E-03    -11.3366E-03     17.5871E-03
            1306     7.11940E-03     109.176E-03    -5.69321E+06    -7.15236E+06     6.56446E+06    -14.6773E+06    -11.7531E-03     23.1872E-03    -11.4341E-03     21.2708E-03    -11.7819E-03     23.1512E-03    -11.3827E-03     21.0785E-03
            1307     8.00913E-03     109.204E-03    -7.45407E+06    -6.08207E+06     7.62745E+06    -15.6851E+06    -11.6386E-03     23.1067E-03    -11.4680E-03     25.4284E-03    -11.6796E-03     23.0773E-03    -11.4103E-03     25.2229E-03
            1308     8.89901E-03     109.238E-03    -9.37182E+06    -5.99767E+06     7.11275E+06    -16.0800E+06    -11.4175E-03     22.8872E-03    -11.4697E-03     30.4602E-03    -11.4677E-03     22.8620E-03    -11.4118E-03     30.2496E-03
            1309     9.78930E-03     109.278E-03    -9.97403E+06    -4.28838E+06     6.50681E+06    -14.4380E+06    -11.2088E-03     22.6492E-03    -11.4404E-03     36.6720E-03    -11.2637E-03     22.6345E-03    -11.3871E-03     36.4827E-03
            1310     10.6801E-03     109.326E-03    -7.35905E+06    -930.872E+03     11.2598E+06    -11.0912E+06    -11.3073E-03     22.7268E-03    -11.4195E-03     44.6988E-03    -11.3612E-03     22.7186E-03    -11.3512E-03     44.5529E-03
            1311     11.5708E-03     109.383E-03    -3.05715E+06    -2.70203E+06     19.5229E+06    -9.01110E+06    -12.1170E-03     23.5612E-03    -11.4442E-03     55.1377E-03    -12.1601E-03     23.5272E-03    -11.3382E-03     55.0177E-03
            1312     12.4601E-03     109.451E-03     568.625E+03    -2.34551E+06     27.0332E+06    -7.19684E+06    -13.7945E-03     25.3218E-03    -11.5273E-03     68.6985E-03    -13.8352E-03     25.2779E-03    -11.3896E-03     68.5984E-03
            1313     13.3478E-03     109.533E-03     3.46132E+06     4.41967E+06     33.7013E+06    -4.64069E+06    -16.2263E-03     27.9207E-03    -11.6944E-03     83.1092E-03    -16.2836E-03     27.9083E-03    -11.5373E-03     83.0335E-03
            1314     14.2340E-03     109.627E-03     3.89531E+06     15.1293E+06     37.9389E+06    -4.72856E+06    -19.4290E-03     31.3990E-03    -11.9700E-03     95.3888E-03    -19.5304E-03     31.4581E-03    -11.8079E-03     95.2957E-03
            1315     15.1172E-03     109.730E-03    -265.055E+03     10.4604E+06     36.0061E+06    -8.25605E+06    -24.0957E-03     36.4921E-03    -12.3964E-03     114.365E-03    -24.2835E-03     36.6119E-03    -12.2312E-03     114.191E-03
            1316     15.9970E-03     109.858E-03    -10.3628E+06    -40.8525E+06     2.42396E+06    -17.2075E+06    -30.8072E-03     43.7297E-03    -12.9224E-03     146.514E-03    -31.2204E-03     43.9545E-03    -12.8360E-03     146.162E-03
            1317     16.8696E-03     110.019E-03    -12.9777E+06    -6.04134E+06    -458.107E+03    -19.5480E+06    -37.9247E-03     51.6363E-03    -13.7117E-03     149.228E-03    -38.7878E-03     52.4344E-03    -13.6864E-03     148.915E-03
            1318     889.379E-06     110.050E-03     8.58545E+06    -5.26995E+06     9.16345E+06    -1.59589E+06    -12.2266E-03     24.3473E-03    -12.1207E-03     1.96413E-03    -12.1891E-03     24.2956E-03    -12.0797E-03     1.94319E-03
            1319     1.77852E-03     110.055E-03     8.25290E+06    -5.37485E+06     9.29559E+06    -3.00849E+06    -12.3562E-03     24.5703E-03    -12.2141E-03     3.78045E-03    -12.3208E-03     24.5180E-03    -12.1718E-03     3.74082E-03
            1320     2.66745E-03     110.062E-03     7.52089E+06    -5.32074E+06     9.55856E+06    -4.45180E+06    -12.5149E-03     24.8079E-03    -12.2930E-03     5.67939E-03    -12.4837E-03     24.7566E-03    -12.2484E-03     5.62069E-03
            1321     3.55645E-03     110.073E-03     6.72976E+06    -5.18498E+06     10.1507E+06    -6.04608E+06    -12.6659E-03     25.0413E-03    -12.3754E-03     7.49951E-03    -12.6397E-03     24.9910E-03    -12.3269E-03     7.41980E-03
            1322     4.44517E-03     110.086E-03     5.66080E+06    -5.07911E+06     10.8644E+06    -7.44528E+06    -12.8183E-03     25.2775E-03    -12.4592E-03     9.47522E-03    -12.7988E-03     25.2284E-03    -12.4057E-03     9.37697E-03
            1323     5.33384E-03     110.103E-03     4.12156E+06    -4.78261E+06     11.5088E+06    -8.67271E+06    -13.0036E-03     25.5497E-03    -12.5461E-03     11.6441E-03    -12.9934E-03     25.5035E-03    -12.4876E-03     11.5295E-03
            1324     6.22221E-03     110.123E-03     2.61617E+06    -4.43496E+06     12.5810E+06    -9.82261E+06    -13.1608E-03     25.7984E-03    -12.6377E-03     14.0178E-03    -13.1604E-03     25.7549E-03    -12.5721E-03     13.8878E-03
            1325     7.11060E-03     110.147E-03     922.330E+03    -3.88689E+06     14.3446E+06    -10.8305E+06    -13.2565E-03     25.9854E-03    -12.7289E-03     16.7339E-03    -13.2682E-03     25.9447E-03    -12.6528E-03     16.5904E-03
            1326     7.99888E-03     110.175E-03    -1.03296E+06    -3.84172E+06     15.9414E+06    -11.4516E+06    -13.2916E-03     26.1024E-03    -12.8108E-03     19.9350E-03    -13.3158E-03     26.0628E-03    -12.7240E-03     19.7830E-03
            1327     8.88727E-03     110.209E-03    -2.73353E+06     -3.7147E+06     17.8068E+06    -11.9889E+06    -13.2287E-03     26.1074E-03    -12.8787E-03     23.8008E-03    -13.2647E-03     26.0685E-03    -12.7803E-03     23.6416E-03
            1328     9.77580E-03     110.249E-03    -3.63179E+06    -4.65823E+06     19.5598E+06    -12.5414E+06    -13.0372E-03     25.9615E-03    -12.9243E-03     28.5993E-03    -13.0792E-03     25.9169E-03    -12.8145E-03     28.4328E-03
            1329     10.6646E-03     110.296E-03    -3.85712E+06    -3.20614E+06     21.6742E+06    -11.4424E+06    -12.7763E-03     25.7169E-03    -12.9405E-03     34.9445E-03    -12.8250E-03     25.6771E-03    -12.8219E-03     34.7923E-03
            1330     11.5539E-03     110.352E-03    -2.75851E+06    -2.51148E+06     26.1910E+06    -10.2850E+06    -12.8027E-03     25.7540E-03    -12.9513E-03     43.7821E-03    -12.8539E-03     25.7100E-03    -12.8127E-03     43.6449E-03
            1331     12.4437E-03     110.421E-03     716.479E+03    -4.78543E+06     31.4064E+06    -8.94199E+06    -13.4723E-03     26.4497E-03    -12.9774E-03     56.1897E-03    -13.5118E-03     26.3834E-03    -12.8145E-03     56.0691E-03
            1332     13.3323E-03     110.504E-03     6.31161E+06     2.26252E+06     38.0703E+06    -6.92505E+06    -14.9012E-03     27.9392E-03    -13.0381E-03     70.8403E-03    -14.9374E-03     27.8956E-03    -12.8602E-03     70.7418E-03
            1333     14.2188E-03     110.601E-03     11.2462E+06     13.1106E+06     45.8572E+06    -2.59042E+06    -17.4040E-03     30.5878E-03    -13.1838E-03     84.6520E-03    -17.4564E-03     30.5939E-03    -12.9898E-03     84.5989E-03
            1334     15.1034E-03     110.708E-03     9.06481E+06     11.8459E+06     45.8736E+06     2.97545E+06    -21.0172E-03     34.4530E-03    -13.4358E-03     104.677E-03    -21.1249E-03     34.5024E-03    -13.2368E-03     104.671E-03
            1335     15.9850E-03     110.840E-03     3.81065E+06    -17.2575E+06     26.2036E+06    -6.26837E+06    -25.6461E-03     39.3920E-03    -13.7459E-03     139.216E-03    -25.8994E-03     39.5222E-03    -13.5954E-03     139.046E-03
            1336     16.8663E-03     111.006E-03     3.32014E+06    -7.27132E+06     5.02660E+06    -18.3474E+06    -30.3346E-03     44.4468E-03    -14.1123E-03     152.828E-03    -30.9148E-03     44.9994E-03    -14.0814E-03     152.557E-03
            1337     887.726E-06     111.023E-03     12.4429E+06    -2.65878E+06     12.6183E+06    -918.339E+03    -13.8908E-03     27.7905E-03    -13.8997E-03     1.46944E-03    -13.8428E-03     27.7413E-03    -13.8508E-03     1.45726E-03
            1338     1.77551E-03     111.028E-03     11.7953E+06    -2.63982E+06     13.1691E+06    -1.91417E+06    -14.1370E-03     28.0879E-03    -13.9509E-03     2.78842E-03    -14.0936E-03     28.0384E-03    -13.8983E-03     2.76279E-03
            1339     2.66307E-03     111.036E-03     11.4761E+06    -2.44156E+06     13.9705E+06    -3.11828E+06    -14.3518E-03     28.4112E-03    -14.0595E-03     3.93127E-03    -14.3114E-03     28.3621E-03    -14.0027E-03     3.88964E-03
            1340     3.55023E-03     111.046E-03     10.9070E+06    -2.48378E+06     14.9119E+06    -4.04409E+06    -14.5068E-03     28.6748E-03    -14.1680E-03     5.06991E-03    -14.4706E-03     28.6249E-03    -14.1057E-03     5.01586E-03
            1341     4.43744E-03     111.060E-03     10.0094E+06    -2.44663E+06     15.9989E+06    -4.87849E+06    -14.7223E-03     28.9989E-03    -14.2765E-03     6.38722E-03    -14.6924E-03     28.9490E-03    -14.2075E-03     6.32187E-03
            1342     5.32430E-03     111.077E-03      9.1183E+06    -2.33220E+06     17.6603E+06    -5.72493E+06    -14.9809E-03     29.3783E-03    -14.3974E-03     7.82808E-03    -14.9582E-03     29.3280E-03    -14.3189E-03     7.75123E-03
            1343     6.21099E-03     111.097E-03     7.97840E+06    -1.95592E+06     19.8236E+06    -6.52161E+06    -15.2686E-03     29.8010E-03    -14.5324E-03     9.40817E-03    -15.2554E-03     29.7512E-03    -14.4420E-03     9.32039E-03
            1344     7.09731E-03     111.121E-03     6.72880E+06    -1.94099E+06     22.1181E+06    -7.00884E+06    -15.5986E-03     30.2802E-03    -14.6815E-03     11.1840E-03    -15.5953E-03     30.2291E-03    -14.5779E-03     11.0892E-03
            1345     7.98343E-03     111.150E-03     5.73412E+06    -1.83426E+06     24.9715E+06    -7.54069E+06    -15.9362E-03     30.7816E-03    -14.8454E-03     13.1833E-03    -15.9425E-03     30.7286E-03    -14.7262E-03     13.0808E-03
            1346     8.86914E-03     111.184E-03     4.80236E+06    -2.02164E+06     27.6107E+06    -8.00715E+06    -16.2143E-03     31.2304E-03    -15.0161E-03     15.5790E-03    -16.2291E-03     31.1742E-03    -14.8821E-03     15.4696E-03
            1347     9.75463E-03     111.223E-03     3.37841E+06    -2.53737E+06     29.7770E+06    -8.58205E+06    -16.4025E-03     31.5883E-03    -15.1858E-03     18.6372E-03    -16.4274E-03     31.5288E-03    -15.0382E-03     18.5197E-03
            1348     10.6401E-03     111.269E-03     2.69426E+06    -3.66979E+06     31.9644E+06    -9.03251E+06    -16.4610E-03     31.8091E-03    -15.3481E-03     22.7371E-03    -16.4915E-03     31.7421E-03    -15.1868E-03     22.6130E-03
            1349     11.5256E-03     111.326E-03     3.08650E+06    -1.86752E+06     35.0939E+06    -8.97265E+06    -16.2940E-03     31.7851E-03    -15.4911E-03     28.6165E-03    -16.3303E-03     31.7223E-03    -15.3174E-03     28.4930E-03
            1350     12.4114E-03     111.393E-03     3.91019E+06    -4.98303E+06     36.5163E+06    -9.61238E+06    -15.7803E-03     31.3770E-03    -15.5967E-03     37.0466E-03    -15.8105E-03     31.2958E-03    -15.4126E-03     36.9153E-03
            1351     13.2987E-03     111.476E-03     5.49829E+06    -88.8718E+03     40.4517E+06    -9.13774E+06    -15.0024E-03     30.6510E-03    -15.6486E-03     48.1173E-03    -15.0383E-03     30.5874E-03    -15.4542E-03     47.9925E-03
            1352     14.1872E-03     111.573E-03     8.85685E+06     5.01598E+06     45.4992E+06    -4.19702E+06    -14.7136E-03     30.3686E-03    -15.6550E-03     61.1135E-03    -14.7509E-03     30.3231E-03    -15.4476E-03     61.0499E-03
            1353     15.0733E-03     111.684E-03     15.8724E+06     5.34228E+06     50.7324E+06     4.40786E+06    -16.2910E-03     31.9588E-03    -15.6678E-03     81.8335E-03    -16.3202E-03     31.9168E-03    -15.4449E-03     81.8690E-03
            1354     15.9596E-03     111.814E-03     22.8157E+06     4.01722E+06     51.3864E+06     549.917E+03    -18.3929E-03     34.0808E-03    -15.6879E-03     114.863E-03    -18.4716E-03     34.1066E-03    -15.4699E-03     114.826E-03
            1355     16.8457E-03     111.982E-03     16.6344E+06    -2.15931E+06     25.0124E+06    -7.85325E+06    -13.2897E-03     28.7247E-03    -15.4350E-03     133.247E-03    -13.4978E-03     28.9154E-03    -15.3309E-03     133.146E-03
            1356     885.838E-06     112.000E-03     15.6933E+06    -997.403E+03     15.7045E+06    -652.401E+03    -16.4023E-03     32.9297E-03    -16.5274E-03     549.385E-06    -16.3451E-03     32.8795E-03    -16.4702E-03     541.132E-06
            1357     1.77128E-03     112.005E-03     15.4621E+06    -883.133E+03     16.7092E+06    -1.17538E+06    -16.6957E-03     33.2189E-03    -16.5232E-03     1.13774E-03    -16.6417E-03     33.1675E-03    -16.4608E-03     1.12184E-03
            1358     2.65627E-03     112.013E-03     15.2092E+06    -797.515E+03     18.0152E+06    -1.66600E+06    -16.8599E-03     33.4879E-03    -16.6280E-03     1.45062E-03    -16.8092E-03     33.4354E-03    -16.5588E-03     1.42803E-03
            1359     3.54148E-03     112.024E-03     14.6659E+06    -843.502E+03     19.5114E+06    -2.05301E+06    -17.1012E-03     33.8430E-03    -16.7417E-03     1.93298E-03    -17.0554E-03     33.7889E-03    -16.6642E-03     1.90499E-03
            1360     4.42617E-03     112.038E-03     14.0908E+06    -808.435E+03     21.7212E+06    -2.49106E+06    -17.4420E-03     34.3243E-03    -16.8823E-03     2.46780E-03    -17.4024E-03     34.2680E-03    -16.7929E-03     2.43370E-03
            1361     5.31064E-03     112.055E-03     13.3949E+06    -656.754E+03     24.3907E+06    -2.97224E+06    -17.8417E-03     34.8943E-03    -17.0526E-03     2.97910E-03    -17.8097E-03     34.8359E-03    -16.9491E-03     2.93829E-03
            1362     6.19470E-03     112.076E-03     12.6047E+06    -718.943E+03     27.0953E+06    -3.20169E+06    -18.3726E-03     35.6272E-03    -17.2547E-03     3.51719E-03    -18.3485E-03     35.5658E-03    -17.1364E-03     3.47283E-03
            1363     7.07822E-03     112.101E-03     11.8244E+06    -547.872E+03     30.3099E+06    -3.54207E+06    -19.0499E-03     36.5483E-03    -17.4983E-03     4.07355E-03    -19.0349E-03     36.4842E-03    -17.3631E-03     4.02409E-03
            1364     7.96087E-03     112.130E-03     10.9044E+06     -683.58E+03     33.2168E+06    -3.73871E+06    -19.8193E-03     37.6030E-03    -17.7837E-03     4.69274E-03    -19.8131E-03     37.5353E-03    -17.6324E-03     4.63986E-03
            1365     8.84282E-03     112.164E-03     9.78822E+06    -590.883E+03     35.7498E+06    -4.00874E+06    -20.6407E-03     38.7484E-03    -18.1077E-03     5.38226E-03    -20.6441E-03     38.6791E-03    -17.9423E-03     5.32484E-03
            1366     9.72400E-03     112.204E-03     8.83509E+06    -1.27233E+06     38.2712E+06    -4.18268E+06    -21.5183E-03     39.9898E-03    -18.4715E-03     6.33612E-03    -21.5296E-03     39.9148E-03    -18.2911E-03     6.27519E-03
            1367     10.6041E-03     112.251E-03     7.60939E+06    -1.41668E+06     39.9977E+06    -5.25659E+06    -22.3932E-03     41.2617E-03    -18.8684E-03     7.72194E-03    -22.4136E-03     41.1853E-03    -18.6774E-03     7.64574E-03
            1368     11.4832E-03     112.306E-03     6.10317E+06    -2.23830E+06     40.2451E+06    -5.55498E+06    -22.8326E-03     42.1118E-03    -19.2791E-03     9.89732E-03    -22.8603E-03     42.0330E-03    -19.0835E-03     9.81624E-03
            1369     12.3620E-03     112.373E-03     4.44827E+06    -1.51034E+06     42.0254E+06    -6.57495E+06    -22.0846E-03     41.7462E-03    -19.6616E-03     13.3203E-03    -22.1248E-03     41.6709E-03    -19.4558E-03     13.2260E-03
            1370     13.2415E-03     112.451E-03     2.25124E+06    -3.26897E+06     42.6779E+06    -6.66830E+06    -19.3745E-03     39.2911E-03    -19.9166E-03     18.4679E-03    -19.4243E-03     39.2094E-03    -19.7017E-03     18.3739E-03
            1371     14.1238E-03     112.545E-03     416.223E+03     1.43461E+06     43.2545E+06    -5.68714E+06    -15.8707E-03     35.8432E-03    -19.9724E-03     26.0113E-03    -15.9377E-03     35.7867E-03    -19.7588E-03     25.9318E-03
            1372     15.0135E-03     112.652E-03     2.81447E+06    -2.37294E+06     46.4804E+06    -3.44430E+06    -15.2057E-03     35.1545E-03    -19.9488E-03     39.8248E-03    -15.2645E-03     35.0743E-03    -19.7171E-03     39.7714E-03
            1373     15.9001E-03     112.787E-03     7.77463E+06     5.79554E+06     52.7915E+06    -473.481E+03    -10.3395E-03     30.1226E-03    -19.7831E-03     59.1267E-03    -10.4120E-03     30.0897E-03    -19.5388E-03     59.1054E-03
            1374     16.7912E-03     112.942E-03     -1.3575E+03     7.79898E+06     31.5067E+06     677.349E+03     3.02498E-03     16.0186E-03    -19.0436E-03     63.8237E-03     2.92714E-03     16.0469E-03    -18.8974E-03     63.8345E-03
            1375     16.8390E-03     56.1050E-03    -2.29676E+06     119.856E+06     23.3368E+06     133.936E+03    -16.8390E-03     32.1037E-03    -15.2647E-03     96.4580E-03    -17.8905E-03     33.5049E-03    -15.3185E-03     97.0232E-03
            1376     15.9537E-03     55.9856E-03    -2.14498E+06     61.6625E+06    -17.7550E+06         942.016    -17.7478E-03     32.8954E-03    -15.1476E-03     111.040E-03    -18.5558E-03     33.9662E-03    -15.3227E-03     111.250E-03
            1377     15.0672E-03     55.8983E-03    -1.81314E+06     27.0010E+06    -1.17076E+06     208.549E+03    -16.6720E-03     31.9586E-03    -15.2866E-03     81.4388E-03    -16.9083E-03     32.2877E-03    -15.3290E-03     81.4210E-03
            1378     14.1811E-03     55.8343E-03    -2.38581E+06     2.62097E+06     2.60467E+06     25.3781E+03    -16.2508E-03     31.6010E-03    -15.3501E-03     65.8632E-03    -16.3494E-03     31.6928E-03    -15.3375E-03     65.8260E-03
            1379     13.2943E-03     55.7760E-03    -2.96646E+06    -25.3774E+06    -1.69730E+06    -36.4029E+03    -16.1965E-03     31.5724E-03    -15.3759E-03     60.6666E-03    -16.2206E-03     31.5008E-03    -15.3433E-03     60.6313E-03
            1380     12.4083E-03     55.7217E-03    -3.29566E+06    -34.5130E+06     2.88828E+06     13.2015E+03    -16.0803E-03     31.4971E-03    -15.4168E-03     55.1040E-03    -16.0801E-03     31.3543E-03    -15.3476E-03     55.0763E-03
            1381     11.5216E-03     55.6737E-03    -3.86023E+06    -36.3383E+06     5.79276E+06    -37.9027E+03    -15.9432E-03     31.3819E-03    -15.4387E-03     49.6613E-03    -15.9360E-03     31.2152E-03    -15.3514E-03     49.6393E-03
            1382     10.6355E-03     55.6296E-03    -4.52802E+06    -43.6976E+06     5.42460E+06     91.8125E+03    -15.8779E-03     31.3297E-03    -15.4518E-03     45.4263E-03    -15.8565E-03     31.1213E-03    -15.3548E-03     45.4110E-03
            1383     9.74905E-03     55.5894E-03    -5.57888E+06    -47.7275E+06     6.43153E+06    -13.3767E+03    -15.7932E-03     31.2600E-03    -15.4668E-03     41.2410E-03    -15.7686E-03     31.0275E-03    -15.3573E-03     41.2283E-03
            1384     8.86287E-03     55.5530E-03    -6.70352E+06    -49.0729E+06     6.24589E+06     104.472E+03    -15.7090E-03     31.1812E-03    -15.4722E-03     36.9930E-03    -15.6852E-03     30.9413E-03    -15.3601E-03     36.9848E-03
            1385     7.97647E-03     55.5207E-03    -8.01957E+06    -52.3129E+06     5.26134E+06     129.917E+03    -15.6388E-03     31.1156E-03    -15.4768E-03     32.7567E-03    -15.6138E-03     30.8612E-03    -15.3630E-03     32.7512E-03
            1386     7.09023E-03     55.4921E-03    -9.49148E+06    -53.6398E+06     3.61948E+06     148.621E+03    -15.5765E-03     31.0521E-03    -15.4757E-03     28.5987E-03    -15.5534E-03     30.7945E-03    -15.3660E-03     28.5950E-03
            1387     6.20390E-03     55.4676E-03    -11.1264E+06    -55.2260E+06     1.19496E+06     143.387E+03    -15.5214E-03     30.9930E-03    -15.4716E-03     24.5492E-03    -15.5000E-03     30.7326E-03    -15.3694E-03     24.5468E-03
            1388     5.31764E-03     55.4465E-03    -13.0049E+06    -57.0868E+06    -1.67158E+06     55.3304E+03    -15.4772E-03     30.9439E-03    -15.4668E-03     20.6651E-03    -15.4578E-03     30.6806E-03    -15.3735E-03     20.6624E-03
            1389     4.43131E-03     55.4292E-03    -14.9982E+06    -59.4431E+06    -5.01618E+06     135.736E+03    -15.4470E-03     30.9079E-03    -15.4610E-03     16.9460E-03    -15.4290E-03     30.6402E-03    -15.3781E-03     16.9452E-03
            1390     3.54505E-03     55.4150E-03    -16.9599E+06    -61.3503E+06    -9.17674E+06     44.0944E+03    -15.4264E-03     30.8771E-03    -15.4508E-03     13.3784E-03    -15.4092E-03     30.6086E-03    -15.3831E-03     13.3770E-03
            1391     2.65877E-03     55.4043E-03    -18.7415E+06    -62.7476E+06    -13.8857E+06     17.3391E+03    -15.4162E-03     30.8532E-03    -15.4371E-03     9.96719E-03    -15.3989E-03     30.5869E-03    -15.3883E-03     9.96600E-03
            1392     1.77251E-03     55.3965E-03    -20.2027E+06    -65.2355E+06    -18.0607E+06     13.4167E+03    -15.4240E-03     30.8481E-03    -15.4242E-03     6.65258E-03    -15.4042E-03     30.5775E-03    -15.3906E-03     6.65184E-03
            1393     886.262E-06     55.3919E-03    -20.9545E+06    -67.5263E+06    -20.4632E+06    -109.642E+03    -15.3996E-03     30.8334E-03    -15.4338E-03     3.51783E-03    -15.3764E-03     30.5562E-03    -15.4078E-03     3.51593E-03
            1394     16.8413E-03     55.1270E-03    -2.79105E+06     119.326E+06     22.8386E+06    -144.877E+03    -16.7445E-03     32.0078E-03    -15.2633E-03     96.8650E-03    -17.7964E-03     33.4072E-03    -15.3181E-03     97.4308E-03
            1395     15.9537E-03     55.0084E-03    -3.23752E+06     61.5836E+06    -18.9453E+06     81.8406E+03    -17.6897E-03     32.8368E-03    -15.1471E-03     111.002E-03    -18.4972E-03     33.9064E-03    -15.3264E-03     111.214E-03
            1396     15.0673E-03     54.9202E-03    -2.64119E+06     27.0730E+06    -1.79190E+06     149.956E+03    -16.7099E-03     31.9989E-03    -15.2890E-03     81.6181E-03    -16.9508E-03     32.3317E-03    -15.3334E-03     81.5995E-03
            1397     14.1805E-03     54.8568E-03    -2.52628E+06     2.62448E+06     2.41816E+06     338.264E+03    -16.2430E-03     31.5964E-03    -15.3533E-03     65.8908E-03    -16.3417E-03     31.6884E-03    -15.3414E-03     65.8577E-03
            1398     13.2945E-03     54.7981E-03    -2.84419E+06    -25.1980E+06    -1.59496E+06     233.598E+03    -16.2240E-03     31.6035E-03    -15.3795E-03     60.7277E-03    -16.2481E-03     31.5327E-03    -15.3468E-03     60.6957E-03
            1399     12.4079E-03     54.7442E-03    -3.25781E+06    -34.5170E+06     2.94639E+06     24.7974E+03    -16.1018E-03     31.5210E-03    -15.4192E-03     55.0897E-03    -16.1015E-03     31.3780E-03    -15.3497E-03     55.0620E-03
            1400     11.5219E-03     54.6959E-03    -3.92377E+06    -36.2595E+06     5.77967E+06     7.10860E+03    -15.9537E-03     31.3934E-03    -15.4397E-03     49.6751E-03    -15.9469E-03     31.2272E-03    -15.3525E-03     49.6537E-03
            1401     10.6353E-03     54.6519E-03    -4.82623E+06    -43.9201E+06     5.31741E+06     23.0864E+03    -15.8878E-03     31.3401E-03    -15.4523E-03     45.4262E-03    -15.8673E-03     31.1312E-03    -15.3551E-03     45.4099E-03
            1402     9.74920E-03     54.6116E-03    -5.80170E+06    -47.5052E+06     6.48083E+06     133.842E+03    -15.7991E-03     31.2657E-03    -15.4665E-03     41.2323E-03    -15.7760E-03     31.0345E-03    -15.3568E-03     41.2215E-03
            1403     8.86277E-03     54.5754E-03    -7.16515E+06    -49.2606E+06     6.05255E+06     6.78155E+03    -15.7116E-03     31.1826E-03    -15.4710E-03     36.9893E-03    -15.6896E-03     30.9427E-03    -15.3589E-03     36.9799E-03
            1404     7.97656E-03     54.5429E-03    -8.53903E+06    -52.2011E+06     5.10464E+06     51.5999E+03    -15.6418E-03     31.1165E-03    -15.4747E-03     32.7508E-03    -15.6193E-03     30.8636E-03    -15.3612E-03     32.7443E-03
            1405     7.09020E-03     54.5145E-03    -10.0723E+06    -53.7439E+06     3.20059E+06     27.0727E+03    -15.5738E-03     31.0460E-03    -15.4722E-03     28.5969E-03    -15.5529E-03     30.7893E-03    -15.3636E-03     28.5918E-03
            1406     6.20395E-03     54.4898E-03    -11.7409E+06    -55.1707E+06     892.041E+03     101.520E+03    -15.5199E-03     30.9880E-03    -15.4681E-03     24.5516E-03    -15.5012E-03     30.7292E-03    -15.3666E-03     24.5486E-03
            1407     5.31762E-03     54.4689E-03    -13.6127E+06    -57.0709E+06    -2.04450E+06     139.329E+03    -15.4790E-03     30.9410E-03    -15.4620E-03     20.6635E-03    -15.4622E-03     30.6792E-03    -15.3697E-03     20.6619E-03
            1408     4.43136E-03     54.4514E-03    -15.5691E+06    -59.4020E+06    -5.46468E+06     49.8464E+03    -15.4460E-03     30.9005E-03    -15.4544E-03     16.9356E-03    -15.4304E-03     30.6345E-03    -15.3730E-03     16.9337E-03
            1409     3.54506E-03     54.4374E-03    -17.4308E+06    -61.1902E+06    -9.58547E+06    -23.0338E+03    -15.4225E-03     30.8653E-03    -15.4429E-03     13.3661E-03    -15.4073E-03     30.5989E-03    -15.3768E-03     13.3638E-03
            1410     2.65878E-03     54.4265E-03    -19.1745E+06    -62.8862E+06    -14.0223E+06    -39.6083E+03    -15.4095E-03     30.8395E-03    -15.4300E-03     9.94977E-03    -15.3940E-03     30.5733E-03    -15.3811E-03     9.94786E-03
            1411     1.77250E-03     54.4189E-03    -20.4898E+06    -65.1627E+06    -18.0895E+06     5.32536E+03    -15.4020E-03     30.8229E-03    -15.4209E-03     6.63674E-03    -15.3837E-03     30.5531E-03    -15.3872E-03     6.63590E-03
            1412     886.244E-06     54.4141E-03    -21.2847E+06    -67.5293E+06    -20.9521E+06    -22.0253E+03    -15.4024E-03     30.8321E-03    -15.4297E-03     3.51212E-03    -15.3801E-03     30.5562E-03    -15.4057E-03     3.51135E-03
            1413     16.8383E-03     54.1489E-03    -2.90798E+06     119.545E+06     22.4952E+06     317.837E+03    -16.6355E-03     31.9031E-03    -15.2676E-03     96.9181E-03    -17.6871E-03     33.3035E-03    -15.3243E-03     97.4915E-03
            1414     15.9534E-03     54.0302E-03    -3.50365E+06     61.5225E+06    -18.1188E+06    -153.564E+03    -17.7780E-03     32.9364E-03    -15.1584E-03     110.804E-03    -18.5868E-03     34.0037E-03    -15.3331E-03     111.012E-03
            1415     15.0670E-03     53.9428E-03    -3.08148E+06     26.7300E+06    -1.38638E+06    -105.615E+03    -16.7672E-03     32.0613E-03    -15.2941E-03     81.2677E-03    -17.0099E-03     32.3920E-03    -15.3354E-03     81.2447E-03
            1416     14.1809E-03     53.8788E-03    -3.30689E+06     2.50606E+06     2.44086E+06     80.2303E+03    -16.1920E-03     31.5480E-03    -15.3560E-03     65.7738E-03    -16.2942E-03     31.6403E-03    -15.3427E-03     65.7376E-03
            1417     13.2942E-03     53.8206E-03    -3.15089E+06    -24.9553E+06    -1.27950E+06     77.7465E+03    -16.2341E-03     31.6176E-03    -15.3835E-03     60.7202E-03    -16.2606E-03     31.5480E-03    -15.3492E-03     60.6861E-03
            1418     12.4082E-03     53.7662E-03    -3.25577E+06    -34.4962E+06     3.28297E+06     69.7566E+03    -16.1148E-03     31.5372E-03    -15.4224E-03     55.0423E-03    -16.1149E-03     31.3938E-03    -15.3512E-03     55.0152E-03
            1419     11.5216E-03     53.7184E-03    -3.90934E+06    -36.1973E+06     6.05498E+06     53.0433E+03    -15.9628E-03     31.4045E-03    -15.4417E-03     49.6803E-03    -15.9564E-03     31.2381E-03    -15.3532E-03     49.6594E-03
            1420     10.6355E-03     53.6740E-03    -4.63048E+06    -43.9775E+06     5.57749E+06     4.78649E+03    -15.8981E-03     31.3514E-03    -15.4534E-03     45.4208E-03    -15.8769E-03     31.1416E-03    -15.3550E-03     45.4042E-03
            1421     9.74908E-03     53.6340E-03    -5.51345E+06    -47.6018E+06     6.67979E+06     59.9655E+03    -15.8072E-03     31.2737E-03    -15.4664E-03     41.2154E-03    -15.7828E-03     31.0413E-03    -15.3560E-03     41.2036E-03
            1422     8.86288E-03     53.5975E-03    -6.58847E+06    -49.1052E+06     6.37249E+06     144.674E+03    -15.7200E-03     31.1899E-03    -15.4699E-03     36.9803E-03    -15.6957E-03     30.9495E-03    -15.3573E-03     36.9727E-03
            1423     7.97651E-03     53.5653E-03    -8.12558E+06    -52.3014E+06     5.25844E+06     68.6445E+03    -15.6472E-03     31.1200E-03    -15.4728E-03     32.7348E-03    -15.6227E-03     30.8657E-03    -15.3588E-03     32.7285E-03
            1424     7.09027E-03     53.5367E-03    -9.81072E+06    -53.6398E+06     3.35136E+06     101.361E+03    -15.5766E-03     31.0460E-03    -15.4694E-03     28.5751E-03    -15.5547E-03     30.7892E-03    -15.3607E-03     28.5709E-03
            1425     6.20393E-03     53.5121E-03    -11.6183E+06    -55.2951E+06     927.175E+03     56.6420E+03    -15.5233E-03     30.9878E-03    -15.4645E-03     24.5316E-03    -15.5039E-03     30.7282E-03    -15.3629E-03     24.5280E-03
            1426     5.31767E-03     53.4911E-03    -13.4154E+06    -57.0309E+06    -1.87940E+06     123.958E+03    -15.4807E-03     30.9384E-03    -15.4577E-03     20.6354E-03    -15.4632E-03     30.6763E-03    -15.3650E-03     20.6337E-03
            1427     4.43137E-03     53.4738E-03    -15.3746E+06    -59.2639E+06    -5.44919E+06     81.2958E+03    -15.4448E-03     30.8932E-03    -15.4484E-03     16.9232E-03    -15.4284E-03     30.6276E-03    -15.3674E-03     16.9216E-03
            1428     3.54509E-03     53.4596E-03    -17.4986E+06    -61.1521E+06    -9.63212E+06    -11.8838E+03    -15.4241E-03     30.8597E-03    -15.4356E-03     13.3661E-03    -15.4093E-03     30.5936E-03    -15.3697E-03     13.3640E-03
            1429     2.65883E-03     53.4489E-03    -19.4676E+06    -62.8807E+06    -14.2371E+06    -54.8443E+03    -15.4079E-03     30.8274E-03    -15.4195E-03     9.93917E-03    -15.3935E-03     30.5620E-03    -15.3712E-03     9.93707E-03
            1430     1.77256E-03     53.4411E-03    -21.0734E+06    -65.2937E+06    -18.4216E+06    -21.4507E+03    -15.3908E-03     30.7988E-03    -15.4081E-03     6.61569E-03    -15.3748E-03     30.5297E-03    -15.3749E-03     6.61450E-03
            1431     886.234E-06     53.4366E-03    -22.1994E+06    -67.4344E+06    -21.4310E+06     119.591E+03    -15.3551E-03     30.8008E-03    -15.4457E-03     3.54498E-03    -15.3368E-03     30.5274E-03    -15.4229E-03     3.54605E-03
            1432     16.8415E-03     53.1720E-03    -2.04808E+06     119.381E+06     23.3253E+06     100.404E+03    -16.8133E-03     32.0768E-03    -15.2635E-03     96.5456E-03    -17.8551E-03     33.4675E-03    -15.3170E-03     97.1085E-03
            1433     15.9534E-03     53.0521E-03    -1.05929E+06     61.5854E+06    -17.3348E+06     472.916E+03    -17.7062E-03     32.8541E-03    -15.1479E-03     110.318E-03    -18.4990E-03     33.9120E-03    -15.3223E-03     110.531E-03
            1434     15.0677E-03     52.9648E-03    -1.37767E+06     26.9528E+06    -787.531E+03     656.965E+03    -16.6046E-03     31.8942E-03    -15.2895E-03     80.9906E-03    -16.8380E-03     32.2205E-03    -15.3305E-03     80.9786E-03
            1435     14.1806E-03     52.9018E-03    -2.45592E+06     2.88855E+06     2.72980E+06     115.735E+03    -16.1774E-03     31.5335E-03    -15.3562E-03     66.0497E-03    -16.2766E-03     31.6264E-03    -15.3432E-03     66.0139E-03
            1436     13.2945E-03     52.8423E-03    -2.86278E+06    -25.1740E+06    -1.40273E+06    -75.1806E+03    -16.2439E-03     31.6280E-03    -15.3840E-03     60.8014E-03    -16.2685E-03     31.5570E-03    -15.3504E-03     60.7654E-03
            1437     12.4079E-03     52.7888E-03    -3.22455E+06    -34.3965E+06     3.18943E+06     97.6372E+03    -16.1164E-03     31.5392E-03    -15.4228E-03     55.0230E-03    -16.1163E-03     31.3963E-03    -15.3523E-03     54.9963E-03
            1438     11.5218E-03     52.7403E-03    -3.74570E+06    -36.1652E+06     6.09169E+06    -22.8543E+03    -15.9809E-03     31.4229E-03    -15.4420E-03     49.7003E-03    -15.9737E-03     31.2564E-03    -15.3536E-03     49.6784E-03
            1439     10.6354E-03     52.6965E-03    -4.51566E+06    -43.9612E+06     5.52502E+06    -18.1163E+03    -15.9091E-03     31.3613E-03    -15.4522E-03     45.4007E-03    -15.8874E-03     31.1514E-03    -15.3543E-03     45.3839E-03
            1440     9.74920E-03     52.6560E-03    -5.47312E+06    -47.6842E+06     6.63751E+06    -28.8718E+03    -15.8150E-03     31.2797E-03    -15.4646E-03     41.1977E-03    -15.7903E-03     31.0469E-03    -15.3544E-03     41.1848E-03
            1441     8.86282E-03     52.6199E-03    -6.60613E+06    -49.1945E+06     6.30749E+06     38.0750E+03    -15.7299E-03     31.1970E-03    -15.4671E-03     36.9598E-03    -15.7055E-03     30.9562E-03    -15.3546E-03     36.9508E-03
            1442     7.97659E-03     52.5874E-03    -7.81828E+06    -52.2510E+06     5.46855E+06     158.886E+03    -15.6548E-03     31.1241E-03    -15.4693E-03     32.6985E-03    -15.6291E-03     30.8694E-03    -15.3549E-03     32.6934E-03
            1443     7.09026E-03     52.5591E-03    -9.36613E+06    -53.6694E+06     3.73635E+06     148.692E+03    -15.5854E-03     31.0507E-03    -15.4654E-03     28.5386E-03    -15.5618E-03     30.7926E-03    -15.3553E-03     28.5350E-03
            1444     6.20400E-03     52.5343E-03    -11.0649E+06    -55.1791E+06     1.29471E+06     135.029E+03    -15.5258E-03     30.9845E-03    -15.4587E-03     24.5018E-03    -15.5044E-03     30.7241E-03    -15.3561E-03     24.4992E-03
            1445     5.31770E-03     52.5135E-03    -12.9527E+06    -57.1028E+06    -1.66992E+06     50.9246E+03    -15.4742E-03     30.9252E-03    -15.4510E-03     20.6100E-03    -15.4546E-03     30.6617E-03    -15.3578E-03     20.6073E-03
            1446     4.43140E-03     52.4960E-03    -14.8140E+06    -59.1982E+06    -5.00866E+06     122.165E+03    -15.4403E-03     30.8829E-03    -15.4425E-03     16.9010E-03    -15.4218E-03     30.6161E-03    -15.3602E-03     16.9000E-03
            1447     3.54511E-03     52.4820E-03    -16.7268E+06    -61.0329E+06    -9.19635E+06     106.559E+03    -15.4176E-03     30.8471E-03    -15.4295E-03     13.3536E-03    -15.3997E-03     30.5798E-03    -15.3627E-03     13.3530E-03
            1448     2.65883E-03     52.4711E-03    -18.5879E+06    -62.9235E+06    -13.6217E+06     74.9844E+03    -15.4038E-03     30.8187E-03    -15.4149E-03     9.93884E-03    -15.3858E-03     30.5509E-03    -15.3648E-03     9.93840E-03
            1449     1.77255E-03     52.4636E-03    -20.2061E+06    -65.2868E+06    -17.5499E+06     114.461E+03    -15.4010E-03     30.8016E-03    -15.4005E-03     6.62256E-03    -15.3820E-03     30.5299E-03    -15.3643E-03     6.62313E-03
            1450     886.315E-06     52.4588E-03    -21.2213E+06    -67.3828E+06    -20.4070E+06    -46.9376E+03    -15.3318E-03     30.7776E-03    -15.4458E-03     3.53851E-03    -15.3102E-03     30.5015E-03    -15.4193E-03     3.53744E-03
            1451     16.8388E-03     52.1933E-03    -2.25369E+06     118.800E+06     23.0784E+06    -272.604E+03    -16.6861E-03     31.9418E-03    -15.2558E-03     96.6510E-03    -17.7301E-03     33.3327E-03    -15.3094E-03     97.2118E-03
            1452     15.9547E-03     52.0743E-03    -3.74043E+06     60.7259E+06    -18.3236E+06     399.269E+03    -17.4843E-03     32.6360E-03    -15.1516E-03     111.272E-03    -18.2939E-03     33.7010E-03    -15.3259E-03     111.492E-03
            1453     15.0668E-03     51.9880E-03    -2.96070E+06     27.4386E+06    -1.51329E+06     541.254E+03    -16.6481E-03     31.9459E-03    -15.2978E-03     81.4666E-03    -16.8888E-03     32.2779E-03    -15.3409E-03     81.4526E-03
            1454     14.1807E-03     51.9234E-03    -2.20799E+06     3.19843E+06     2.93732E+06     448.346E+03    -16.2870E-03     31.6501E-03    -15.3632E-03     66.2521E-03    -16.3861E-03     31.7443E-03    -15.3499E-03     66.2202E-03
            1455     13.2942E-03     51.8651E-03    -2.76981E+06    -24.9761E+06    -1.39687E+06     229.304E+03    -16.2867E-03     31.6728E-03    -15.3861E-03     60.7751E-03    -16.3112E-03     31.6028E-03    -15.3528E-03     60.7429E-03
            1456     12.4081E-03     51.8106E-03    -3.13447E+06    -34.4594E+06     3.13092E+06    -16.5563E+03    -16.1302E-03     31.5533E-03    -15.4230E-03     55.0157E-03    -16.1295E-03     31.4100E-03    -15.3529E-03     54.9875E-03
            1457     11.5216E-03     51.7629E-03    -3.72411E+06    -36.0436E+06     6.01005E+06     23.1943E+03    -16.0006E-03     31.4413E-03    -15.4407E-03     49.6770E-03    -15.9934E-03     31.2755E-03    -15.3530E-03     49.6557E-03
            1458     10.6355E-03     51.7184E-03    -4.57228E+06    -44.0356E+06     5.41948E+06    -28.4986E+03    -15.9201E-03     31.3699E-03    -15.4498E-03     45.3613E-03    -15.8983E-03     31.1599E-03    -15.3522E-03     45.3444E-03
            1459     9.74914E-03     51.6786E-03    -5.59893E+06    -47.6746E+06     6.54421E+06     36.6230E+03    -15.8289E-03     31.2897E-03    -15.4609E-03     41.1657E-03    -15.8046E-03     31.0574E-03    -15.3509E-03     41.1536E-03
            1460     8.86292E-03     51.6419E-03    -6.92345E+06    -49.2680E+06     6.11807E+06     7.56415E+03    -15.7405E-03     31.2020E-03    -15.4615E-03     36.9152E-03    -15.7173E-03     30.9616E-03    -15.3494E-03     36.9058E-03
            1461     7.97662E-03     51.6099E-03    -8.37761E+06    -52.3084E+06     5.08700E+06     24.4823E+03    -15.6590E-03     31.1204E-03    -15.4614E-03     32.6553E-03    -15.6355E-03     30.8668E-03    -15.3480E-03     32.6484E-03
            1462     7.09035E-03     51.5812E-03    -9.81120E+06    -53.6799E+06     3.36215E+06     102.221E+03    -15.5840E-03     31.0400E-03    -15.4560E-03     28.5087E-03    -15.5621E-03     30.7830E-03    -15.3471E-03     28.5045E-03
            1463     6.20405E-03     51.5568E-03    -11.4870E+06    -55.1308E+06     1.05446E+06     119.530E+03    -15.5167E-03     30.9658E-03    -15.4491E-03     24.4693E-03    -15.4970E-03     30.7066E-03    -15.3472E-03     24.4666E-03
            1464     5.31774E-03     51.5357E-03    -13.3019E+06    -56.9713E+06    -1.81947E+06     65.6854E+03    -15.4664E-03     30.9077E-03    -15.4412E-03     20.5871E-03    -15.4486E-03     30.6456E-03    -15.3484E-03     20.5846E-03
            1465     4.43146E-03     51.5184E-03    -15.2365E+06    -59.3283E+06      -5.367E+06       3.986E+03    -15.4322E-03     30.8637E-03    -15.4315E-03     16.8781E-03    -15.4151E-03     30.5975E-03    -15.3502E-03     16.8755E-03
            1466     3.54514E-03     51.5043E-03    -16.9905E+06    -60.9034E+06    -9.51187E+06     20.4632E+03    -15.4033E-03     30.8215E-03    -15.4181E-03     13.3243E-03    -15.3865E-03     30.5557E-03    -15.3528E-03     13.3226E-03
            1467     2.65884E-03     51.4936E-03    -18.6097E+06    -63.0449E+06    -13.6224E+06     60.5955E+03    -15.3880E-03     30.7947E-03    -15.4067E-03     9.90590E-03    -15.3700E-03     30.5264E-03    -15.3564E-03     9.90528E-03
            1468     1.77256E-03     51.4858E-03    -19.8303E+06    -64.9600E+06    -17.4217E+06    -1.62073E+03    -15.3898E-03     30.7845E-03    -15.3946E-03     6.61530E-03    -15.3695E-03     30.5137E-03    -15.3588E-03     6.61437E-03
            1469     886.274E-06     51.4813E-03    -20.4377E+06    -67.5933E+06    -20.0637E+06    -133.222E+03    -15.3718E-03     30.7746E-03    -15.4028E-03     3.49498E-03    -15.3465E-03     30.4958E-03    -15.3754E-03     3.49281E-03
            1470     16.8421E-03     51.2178E-03    -2.18520E+06     117.938E+06     22.4126E+06     321.622E+03    -16.6043E-03     31.8925E-03    -15.2882E-03     98.1744E-03    -17.6644E-03     33.2986E-03    -15.3440E-03     98.7502E-03
            1471     15.9514E-03     51.0963E-03    -2.87711E+06     60.1629E+06    -17.7765E+06     112.958E+03    -17.9555E-03     33.1355E-03    -15.1800E-03     110.806E-03    -18.7658E-03     34.2006E-03    -15.3519E-03     111.010E-03
            1472     15.0671E-03     51.0097E-03    -2.34725E+06     28.0352E+06    -566.795E+03     85.0627E+03    -16.7177E-03     32.0292E-03    -15.3116E-03     80.9633E-03    -16.9559E-03     32.3603E-03    -15.3516E-03     80.9423E-03
            1473     14.1804E-03     50.9460E-03    -3.23641E+06     3.12502E+06     2.61728E+06     277.839E+03    -16.3850E-03     31.7534E-03    -15.3685E-03     66.2762E-03    -16.4893E-03     31.8498E-03    -15.3552E-03     66.2416E-03
            1474     13.2944E-03     50.8868E-03    -2.98013E+06    -24.6213E+06    -1.20586E+06     199.530E+03    -16.3340E-03     31.7213E-03    -15.3873E-03     60.6036E-03    -16.3601E-03     31.6529E-03    -15.3533E-03     60.5708E-03
            1475     12.4080E-03     50.8333E-03    -3.15979E+06    -34.3881E+06     3.22810E+06     31.3862E+03    -16.1547E-03     31.5758E-03    -15.4212E-03     54.9838E-03    -16.1543E-03     31.4328E-03    -15.3506E-03     54.9562E-03
            1476     11.5219E-03     50.7847E-03    -3.77522E+06    -36.1439E+06     6.06671E+06    -12.9100E+03    -16.0167E-03     31.4538E-03    -15.4370E-03     49.5994E-03    -16.0098E-03     31.2875E-03    -15.3488E-03     49.5777E-03
            1477     10.6354E-03     50.7410E-03    -4.55461E+06    -43.9318E+06     5.50132E+06     44.8691E+03    -15.9291E-03     31.3735E-03    -15.4443E-03     45.2877E-03    -15.9076E-03     31.1638E-03    -15.3465E-03     45.2717E-03
            1478     9.74927E-03     50.7004E-03    -5.50911E+06    -47.8440E+06     6.51556E+06     12.4046E+03    -15.8429E-03     31.2963E-03    -15.4534E-03     41.1035E-03    -15.8179E-03     31.0630E-03    -15.3435E-03     41.0911E-03
            1479     8.86297E-03     50.6645E-03    -6.67734E+06    -49.1878E+06     6.25690E+06     144.502E+03    -15.7425E-03     31.1952E-03    -15.4527E-03     36.8448E-03    -15.7184E-03     30.9547E-03    -15.3404E-03     36.8372E-03
            1480     7.97670E-03     50.6319E-03    -8.17285E+06    -52.3204E+06     5.13260E+06     77.2309E+03    -15.6558E-03     31.1072E-03    -15.4515E-03     32.6134E-03    -15.6313E-03     30.8532E-03    -15.3381E-03     32.6072E-03
            1481     7.09042E-03     50.6037E-03    -9.86705E+06    -53.7210E+06     3.33437E+06     55.8195E+03    -15.5769E-03     31.0223E-03    -15.4454E-03     28.4666E-03    -15.5552E-03     30.7653E-03    -15.3366E-03     28.4618E-03
            1482     6.20410E-03     50.5789E-03    -11.5148E+06    -55.0500E+06     1.10890E+06     11.2635E+03    -15.5090E-03     30.9472E-03    -15.4382E-03     24.4340E-03    -15.4897E-03     30.6883E-03    -15.3361E-03     24.4299E-03
            1483     5.31783E-03     50.5582E-03    -13.2659E+06    -57.0034E+06    -1.69383E+06     25.0188E+03    -15.4582E-03     30.8884E-03    -15.4302E-03     20.5586E-03    -15.4403E-03     30.6259E-03    -15.3367E-03     20.5556E-03
            1484     4.43148E-03     50.5406E-03    -15.2135E+06    -59.2132E+06    -5.30791E+06     24.5314E+03    -15.4192E-03     30.8388E-03    -15.4197E-03     16.8573E-03    -15.4022E-03     30.5730E-03    -15.3383E-03     16.8550E-03
            1485     3.54521E-03     50.5267E-03    -17.3622E+06    -61.0523E+06    -9.60019E+06     27.2750E+03    -15.3925E-03     30.7988E-03    -15.4062E-03     13.3156E-03    -15.3772E-03     30.5329E-03    -15.3405E-03     13.3141E-03
            1486     2.65890E-03     50.5158E-03    -19.2404E+06    -62.8498E+06    -14.1964E+06    -3.71594E+03    -15.3742E-03     30.7658E-03    -15.3916E-03     9.90088E-03    -15.3588E-03     30.5002E-03    -15.3435E-03     9.89944E-03
            1487     1.77259E-03     50.5083E-03    -20.6463E+06    -64.9077E+06    -18.3863E+06    -222.486E+03    -15.3657E-03     30.7461E-03    -15.3805E-03     6.61273E-03    -15.3481E-03     30.4782E-03    -15.3483E-03     6.60895E-03
            1488     886.277E-06     50.5035E-03    -21.2853E+06    -67.8962E+06     -20.952E+06    -142.568E+03    -15.3693E-03     30.7538E-03    -15.3846E-03     3.48402E-03    -15.3465E-03     30.4761E-03    -15.3600E-03     3.48172E-03
            1489     16.8340E-03     50.2353E-03    -2.45284E+06     118.563E+06     21.7668E+06    -23.3006E+03    -16.5069E-03     31.8076E-03    -15.3007E-03     98.3006E-03    -17.5634E-03     33.2133E-03    -15.3603E-03     98.8730E-03
            1490     15.9557E-03     50.1184E-03    -2.49952E+06     60.9003E+06    -18.1837E+06     225.955E+03    -18.0087E-03     33.1999E-03    -15.1913E-03     109.642E-03    -18.8007E-03     34.2519E-03    -15.3669E-03     109.839E-03
            1491     15.0667E-03     50.0330E-03    -2.61084E+06     27.5882E+06    -1.23569E+06     552.431E+03    -16.8687E-03     32.1866E-03    -15.3179E-03     81.6530E-03    -17.1093E-03     32.5195E-03    -15.3603E-03     81.6384E-03
            1492     14.1806E-03     49.9672E-03    -2.33717E+06     3.67330E+06     2.93371E+06     99.0365E+03    -16.5315E-03     31.9002E-03    -15.3688E-03     66.1567E-03    -16.6326E-03     31.9977E-03    -15.3560E-03     66.1193E-03
            1493     13.2943E-03     49.9096E-03    -2.55708E+06    -24.9367E+06    -1.41987E+06     46.1312E+03    -16.3575E-03     31.7387E-03    -15.3813E-03     60.4169E-03    -16.3804E-03     31.6682E-03    -15.3485E-03     60.3823E-03
            1494     12.4082E-03     49.8550E-03    -2.85951E+06    -34.0812E+06     3.34139E+06     149.792E+03    -16.1928E-03     31.6061E-03    -15.4133E-03     54.8935E-03    -16.1917E-03     31.4642E-03    -15.3430E-03     54.8673E-03
            1495     11.5218E-03     49.8073E-03    -3.52230E+06    -36.2107E+06     6.00528E+06     20.6995E+03    -16.0219E-03     31.4485E-03    -15.4266E-03     49.4866E-03    -16.0134E-03     31.2816E-03    -15.3390E-03     49.4653E-03
            1496     10.6357E-03     49.7629E-03    -4.37182E+06    -43.9982E+06     5.56832E+06     85.4277E+03    -15.9352E-03     31.3685E-03    -15.4333E-03     45.2153E-03    -15.9127E-03     31.1581E-03    -15.3353E-03     45.1998E-03
            1497     9.74937E-03     49.7230E-03    -5.43847E+06    -47.7379E+06     6.63866E+06     82.6638E+03    -15.8326E-03     31.2743E-03    -15.4417E-03     41.0344E-03    -15.8076E-03     31.0412E-03    -15.3314E-03     41.0228E-03
            1498     8.86310E-03     49.6865E-03    -6.59765E+06    -49.3357E+06     6.35886E+06        -179.631    -15.7302E-03     31.1712E-03    -15.4410E-03     36.7988E-03    -15.7056E-03     30.9296E-03    -15.3281E-03     36.7893E-03
            1499     7.97682E-03     49.6544E-03    -7.83713E+06    -52.2929E+06     5.58604E+06     189.736E+03    -15.6469E-03     31.0876E-03    -15.4407E-03     32.5699E-03    -15.6215E-03     30.8325E-03    -15.3256E-03     32.5651E-03
            1500     7.09049E-03     49.6258E-03    -9.36768E+06    -53.5484E+06     3.77148E+06     57.5915E+03    -15.5664E-03     31.0002E-03    -15.4339E-03     28.4251E-03    -15.5431E-03     30.7426E-03    -15.3238E-03     28.4203E-03
            1501     6.20423E-03     49.6014E-03    -11.0869E+06    -55.0784E+06     1.37614E+06    -40.1207E+03    -15.4994E-03     30.9253E-03    -15.4259E-03     24.4083E-03    -15.4783E-03     30.6653E-03    -15.3231E-03     24.4035E-03
            1502     5.31786E-03     49.5804E-03    -12.9653E+06    -57.0647E+06    -1.55356E+06     27.0712E+03    -15.4471E-03     30.8644E-03    -15.4173E-03     20.5383E-03    -15.4278E-03     30.6010E-03    -15.3235E-03     20.5353E-03
            1503     4.43159E-03     49.5631E-03    -14.9712E+06    -59.2147E+06    -4.92052E+06     86.8607E+03    -15.4083E-03     30.8161E-03    -15.4077E-03     16.8322E-03    -15.3907E-03     30.5494E-03    -15.3248E-03     16.8308E-03
            1504     3.54521E-03     49.5490E-03    -16.9421E+06    -61.0825E+06    -9.21544E+06     162.374E+03    -15.3796E-03     30.7735E-03    -15.3939E-03     13.2869E-03    -15.3627E-03     30.5064E-03    -15.3269E-03     13.2871E-03
            1505     2.65891E-03     49.5383E-03    -18.7925E+06    -62.5794E+06    -13.8996E+06     28.2090E+03    -15.3635E-03     30.7416E-03    -15.3782E-03     9.88219E-03    -15.3467E-03     30.4763E-03    -15.3297E-03     9.88117E-03
            1506     1.77261E-03     49.5306E-03    -20.3644E+06    -64.9833E+06    -18.0854E+06    -66.9365E+03    -15.3554E-03     30.7219E-03    -15.3666E-03     6.59939E-03    -15.3367E-03     30.4528E-03    -15.3333E-03     6.59762E-03
            1507     886.308E-06     49.5260E-03    -21.5085E+06    -68.1078E+06    -20.8656E+06    -127.467E+03    -15.3607E-03     30.7219E-03    -15.3612E-03     3.48279E-03    -15.3388E-03     30.4433E-03    -15.3356E-03     3.48067E-03
            1508     16.8451E-03     49.2575E-03    -1.29991E+06     118.807E+06     22.8895E+06     989.578E+03    -16.2138E-03     31.4702E-03    -15.2564E-03     97.8659E-03    -17.2457E-03     32.8529E-03    -15.3123E-03     98.4565E-03
            1509     15.9498E-03     49.1419E-03    -1.99591E+06     61.1684E+06    -17.4081E+06     309.341E+03    -17.0858E-03     32.2636E-03    -15.1778E-03     109.560E-03    -17.8616E-03     33.2999E-03    -15.3506E-03     109.776E-03
            1510     15.0663E-03     49.0530E-03    -3.53669E+06     27.2623E+06    -1.29876E+06    -590.690E+03    -17.2199E-03     32.5370E-03    -15.3172E-03     81.0128E-03    -17.4686E-03     32.8737E-03    -15.3581E-03     80.9809E-03
            1511     14.1808E-03     48.9902E-03    -2.74751E+06     3.45454E+06     3.09942E+06    -291.051E+03    -16.5336E-03     31.8891E-03    -15.3555E-03     65.3329E-03    -16.6358E-03     31.9848E-03    -15.3410E-03     65.2904E-03
            1512     13.2945E-03     48.9311E-03    -2.78424E+06    -24.8574E+06    -1.15142E+06     28.7959E+03    -16.3055E-03     31.6728E-03    -15.3673E-03     60.2172E-03    -16.3301E-03     31.6026E-03    -15.3329E-03     60.1824E-03
            1513     12.4083E-03     48.8776E-03    -2.87513E+06    -34.2500E+06     3.59505E+06     11.1964E+03    -16.1760E-03     31.5761E-03    -15.4001E-03     54.7238E-03    -16.1750E-03     31.4329E-03    -15.3283E-03     54.6958E-03
            1514     11.5221E-03     48.8292E-03    -3.44139E+06    -35.9985E+06     6.36383E+06     135.613E+03    -15.9970E-03     31.4105E-03    -15.4135E-03     49.4305E-03    -15.9889E-03     31.2439E-03    -15.3244E-03     49.4107E-03
            1515     10.6358E-03     48.7854E-03    -4.26491E+06    -44.2168E+06     5.80709E+06     86.2173E+03    -15.9180E-03     31.3386E-03    -15.4206E-03     45.2065E-03    -15.8950E-03     31.1266E-03    -15.3212E-03     45.1910E-03
            1516     9.74953E-03     48.7450E-03    -5.17535E+06    -47.5406E+06     7.09028E+06     134.671E+03    -15.8142E-03     31.2437E-03    -15.4296E-03     41.0091E-03    -15.7887E-03     31.0106E-03    -15.3177E-03     40.9983E-03
            1517     8.86322E-03     48.7090E-03    -6.48040E+06    -49.3293E+06     6.59439E+06     37.0655E+03    -15.7166E-03     31.1452E-03    -15.4286E-03     36.7885E-03    -15.6918E-03     30.9031E-03    -15.3147E-03     36.7796E-03
            1518     7.97691E-03     48.6765E-03    -7.85682E+06    -52.4156E+06     5.58802E+06    -53.6824E+03    -15.6378E-03     31.0650E-03    -15.4272E-03     32.5450E-03    -15.6123E-03     30.8093E-03    -15.3118E-03     32.5371E-03
            1519     7.09064E-03     48.6483E-03    -9.16090E+06    -53.3196E+06     3.80342E+06    -12.6981E+03    -15.5543E-03     30.9735E-03    -15.4193E-03     28.3975E-03    -15.5303E-03     30.7167E-03    -15.3097E-03     28.3918E-03
            1520     6.20425E-03     48.6236E-03    -10.8575E+06    -55.2957E+06     1.45349E+06     68.8048E+03    -15.4895E-03     30.9014E-03    -15.4118E-03     24.3743E-03    -15.4671E-03     30.6398E-03    -15.3086E-03     24.3709E-03
            1521     5.31799E-03     48.6029E-03    -12.8172E+06    -56.9485E+06    -1.38605E+06     115.538E+03    -15.4381E-03     30.8405E-03    -15.4025E-03     20.4995E-03    -15.4184E-03     30.5772E-03    -15.3082E-03     20.4977E-03
            1522     4.43160E-03     48.5854E-03    -14.7872E+06    -59.3252E+06    -4.82726E+06     73.6897E+03    -15.4019E-03     30.7932E-03    -15.3913E-03     16.7959E-03    -15.3833E-03     30.5255E-03    -15.3080E-03     16.7943E-03
            1523     3.54535E-03     48.5715E-03    -16.6619E+06    -61.0414E+06    -9.03567E+06     117.374E+03    -15.3678E-03     30.7436E-03    -15.3759E-03     13.2423E-03    -15.3498E-03     30.4760E-03    -15.3084E-03     13.2418E-03
            1524     2.65897E-03     48.5607E-03    -18.3678E+06    -62.4109E+06    -13.5741E+06     110.833E+03    -15.3433E-03     30.7034E-03    -15.3601E-03     9.85778E-03    -15.3251E-03     30.4378E-03    -15.3109E-03     9.85783E-03
            1525     1.77265E-03     48.5531E-03    -19.6872E+06    -64.9405E+06    -17.4415E+06     26.1074E+03    -15.3440E-03     30.6928E-03    -15.3488E-03     6.57340E-03    -15.3230E-03     30.4220E-03    -15.3133E-03     6.57284E-03
            1526     886.298E-06     48.5484E-03    -20.4361E+06    -68.2115E+06    -20.0114E+06    -70.2108E+03    -15.3507E-03     30.6860E-03    -15.3353E-03     3.50344E-03    -15.3245E-03     30.4041E-03    -15.3069E-03     3.50205E-03
            1527     16.8381E-03     48.2861E-03    -4.19332E+06     118.794E+06     21.9397E+06     870.972E+03    -16.8863E-03     32.1335E-03    -15.2471E-03     98.0696E-03    -17.9430E-03     33.5334E-03    -15.3036E-03     98.6514E-03
            1528     15.9557E-03     48.1629E-03    -2.75736E+06     61.4123E+06    -17.4961E+06    -219.412E+03    -17.7438E-03     32.8797E-03    -15.1359E-03     110.956E-03    -18.5400E-03     33.9349E-03    -15.3084E-03     111.160E-03
            1529     15.0680E-03     48.0755E-03    -170.356E+03     27.0694E+06     434.088E+03    -718.437E+03    -16.8667E-03     32.1368E-03    -15.2700E-03     79.9568E-03    -17.0960E-03     32.4603E-03    -15.3069E-03     79.9243E-03
            1530     14.1813E-03     48.0119E-03    -1.27439E+06     2.66515E+06     3.66460E+06    -39.9499E+03    -16.1850E-03     31.5090E-03    -15.3240E-03     65.0542E-03    -16.2785E-03     31.5968E-03    -15.3077E-03     65.0164E-03
            1531     13.2950E-03     47.9539E-03    -1.92835E+06    -24.6641E+06    -268.089E+03     72.1083E+03    -16.2114E-03     31.5607E-03    -15.3493E-03     60.3230E-03    -16.2333E-03     31.4890E-03    -15.3121E-03     60.2890E-03
            1532     12.4086E-03     47.8994E-03    -2.47553E+06    -34.3451E+06     3.97039E+06     98.3818E+03    -16.0922E-03     31.4781E-03    -15.3859E-03     54.7893E-03    -16.0895E-03     31.3331E-03    -15.3126E-03     54.7627E-03
            1533     11.5222E-03     47.8519E-03    -3.21610E+06    -36.0832E+06     6.71225E+06     155.617E+03    -15.9752E-03     31.3776E-03    -15.4023E-03     49.5181E-03    -15.9664E-03     31.2097E-03    -15.3118E-03     49.4986E-03
            1534     10.6359E-03     47.8074E-03    -3.99832E+06    -44.0199E+06     6.02873E+06     92.7594E+03    -15.9030E-03     31.3120E-03    -15.4090E-03     45.2315E-03    -15.8792E-03     31.1003E-03    -15.3092E-03     45.2162E-03
            1535     9.74964E-03     47.7676E-03    -4.94462E+06    -47.7405E+06     7.10886E+06     74.3450E+03    -15.8076E-03     31.2252E-03    -15.4176E-03     41.0197E-03    -15.7807E-03     30.9907E-03    -15.3057E-03     41.0082E-03
            1536     8.86332E-03     47.7311E-03    -6.08065E+06    -49.1150E+06     6.77006E+06     166.215E+03    -15.7194E-03     31.1351E-03    -15.4157E-03     36.7773E-03    -15.6931E-03     30.8932E-03    -15.3018E-03     36.7700E-03
            1537     7.97705E-03     47.6990E-03    -7.54043E+06    -52.2545E+06     5.52793E+06    -80.1403E+03    -15.6326E-03     31.0447E-03    -15.4122E-03     32.5158E-03    -15.6056E-03     30.7894E-03    -15.2978E-03     32.5076E-03
            1538     7.09068E-03     47.6706E-03    -9.28841E+06    -53.6119E+06     3.63363E+06    -33.0277E+03    -15.5544E-03     30.9579E-03    -15.4035E-03     28.3562E-03    -15.5304E-03     30.7001E-03    -15.2942E-03     28.3503E-03
            1539     6.20443E-03     47.6461E-03    -11.0345E+06    -55.2786E+06     1.33748E+06     156.197E+03    -15.4845E-03     30.8785E-03    -15.3940E-03     24.3230E-03    -15.4628E-03     30.6175E-03    -15.2911E-03     24.3208E-03
            1540     5.31803E-03     47.6252E-03    -12.8245E+06    -56.9109E+06    -1.43893E+06     101.262E+03    -15.4257E-03     30.8088E-03    -15.3831E-03     20.4572E-03    -15.4061E-03     30.5458E-03    -15.2892E-03     20.4552E-03
            1541     4.43177E-03     47.6079E-03    -14.7286E+06    -59.2773E+06    -4.85176E+06     98.9658E+03    -15.3835E-03     30.7547E-03    -15.3712E-03     16.7693E-03    -15.3647E-03     30.4872E-03    -15.2882E-03     16.7681E-03
            1542     3.54535E-03     47.5939E-03    -16.7286E+06    -61.0778E+06    -9.05029E+06     78.9339E+03    -15.3519E-03     30.7072E-03    -15.3553E-03     13.2243E-03    -15.3341E-03     30.4395E-03    -15.2878E-03     13.2234E-03
            1543     2.65905E-03     47.5832E-03    -18.4658E+06    -62.3190E+06    -13.6026E+06     97.6205E+03    -15.3267E-03     30.6644E-03    -15.3377E-03     9.84711E-03    -15.3091E-03     30.3995E-03    -15.2886E-03     9.84699E-03
            1544     1.77266E-03     47.5755E-03    -19.8394E+06    -64.8120E+06    -17.6632E+06     26.9829E+03    -15.3148E-03     30.6409E-03    -15.3262E-03     6.57576E-03    -15.2944E-03     30.3713E-03    -15.2917E-03     6.57521E-03
            1545     886.392E-06     47.5710E-03    -20.5617E+06    -68.2772E+06    -20.1898E+06    -77.6170E+03    -15.2975E-03     30.6455E-03    -15.3480E-03     3.51298E-03    -15.2717E-03     30.3637E-03    -15.3201E-03     3.51151E-03
            1546     16.8405E-03     47.3050E-03    -3.36219E+06     119.229E+06     21.9193E+06    -692.087E+03    -17.4630E-03     32.7050E-03    -15.2420E-03     95.7889E-03    -18.5142E-03     34.1040E-03    -15.3004E-03     96.3289E-03
            1547     15.9536E-03     47.1847E-03    -967.454E+03     62.4160E+06    -17.6459E+06    -76.8895E+03    -18.2091E-03     33.3060E-03    -15.0969E-03     111.045E-03    -19.0091E-03     34.3753E-03    -15.2742E-03     111.245E-03
            1548     15.0686E-03     47.0981E-03     41.8236E+03     26.5011E+06    -179.436E+03     423.518E+03    -16.4957E-03     31.7261E-03    -15.2304E-03     80.6803E-03    -16.7185E-03     32.0436E-03    -15.2697E-03     80.6650E-03
            1549     14.1815E-03     47.0350E-03    -773.201E+03     2.79612E+06     3.25779E+06     842.313E+03    -15.9517E-03     31.2541E-03    -15.3025E-03     65.8595E-03    -16.0425E-03     31.3427E-03    -15.2891E-03     65.8339E-03
            1550     13.2949E-03     46.9757E-03    -1.47652E+06    -24.5404E+06    -563.568E+03      550.17E+03    -16.1316E-03     31.4705E-03    -15.3389E-03     60.7009E-03    -16.1510E-03     31.3992E-03    -15.3040E-03     60.6734E-03
            1551     12.4086E-03     46.9224E-03    -2.20195E+06    -34.1803E+06     3.82704E+06     368.843E+03    -16.0999E-03     31.4791E-03    -15.3792E-03     55.0254E-03    -16.0958E-03     31.3348E-03    -15.3073E-03     55.0023E-03
            1552     11.5222E-03     46.8736E-03    -2.85606E+06    -36.1253E+06     6.56800E+06     212.969E+03    -16.0025E-03     31.3970E-03    -15.3945E-03     49.6025E-03    -15.9915E-03     31.2286E-03    -15.3051E-03     49.5838E-03
            1553     10.6361E-03     46.8301E-03    -3.75240E+06    -43.8581E+06     5.92584E+06     207.913E+03    -15.9211E-03     31.3201E-03    -15.3990E-03     45.2200E-03    -15.8961E-03     31.1089E-03    -15.3004E-03     45.2062E-03
            1554     9.74968E-03     46.7896E-03    -4.85329E+06    -47.7792E+06     6.87512E+06     117.996E+03    -15.8222E-03     31.2275E-03    -15.4053E-03     41.0104E-03    -15.7944E-03     30.9930E-03    -15.2946E-03     40.9995E-03
            1555     8.86348E-03     46.7536E-03    -5.99711E+06    -49.0930E+06     6.54293E+06     57.4201E+03    -15.7260E-03     31.1272E-03    -15.4012E-03     36.7310E-03    -15.6990E-03     30.8856E-03    -15.2886E-03     36.7224E-03
            1556     7.97711E-03     46.7212E-03    -7.39955E+06    -52.1295E+06     5.59239E+06     194.333E+03    -15.6393E-03     31.0359E-03    -15.3966E-03     32.4663E-03    -15.6119E-03     30.7810E-03    -15.2824E-03     32.4617E-03
            1557     7.09089E-03     46.6930E-03    -9.17808E+06    -53.8043E+06     3.68360E+06     222.968E+03    -15.5577E-03     30.9436E-03    -15.3859E-03     28.2996E-03    -15.5329E-03     30.6845E-03    -15.2761E-03     28.2970E-03
            1558     6.20449E-03     46.6684E-03    -11.0153E+06    -55.1421E+06     1.25191E+06     128.752E+03    -15.4800E-03     30.8528E-03    -15.3728E-03     24.2718E-03    -15.4582E-03     30.5925E-03    -15.2706E-03     24.2693E-03
            1559     5.31822E-03     46.6477E-03    -12.8046E+06    -56.8849E+06    -1.53189E+06     80.1425E+03    -15.4114E-03     30.7715E-03    -15.3601E-03     20.4108E-03    -15.3916E-03     30.5087E-03    -15.2667E-03     20.4085E-03
            1560     4.43177E-03     46.6303E-03    -14.7308E+06    -59.2645E+06    -4.79221E+06     83.4816E+03    -15.3602E-03     30.7085E-03    -15.3483E-03     16.7204E-03    -15.3415E-03     30.4410E-03    -15.2649E-03     16.7189E-03
            1561     3.54548E-03     46.6164E-03    -16.6322E+06    -61.0159E+06    -8.90428E+06     64.4581E+03    -15.3300E-03     30.6624E-03    -15.3324E-03     13.1825E-03    -15.3121E-03     30.3946E-03    -15.2643E-03     13.1814E-03
            1562     2.65908E-03     46.6056E-03    -18.4432E+06    -62.3404E+06    -13.4814E+06     46.2674E+03    -15.3076E-03     30.6213E-03    -15.3136E-03     9.80579E-03    -15.2900E-03     30.3560E-03    -15.2639E-03     9.80501E-03
            1563     1.77276E-03     46.5981E-03    -19.7200E+06    -64.6627E+06    -17.6118E+06     59.1423E+03    -15.2870E-03     30.5882E-03    -15.3012E-03     6.54846E-03    -15.2663E-03     30.3191E-03    -15.2669E-03     6.54833E-03
            1564     886.260E-06     46.5934E-03    -20.5726E+06    -68.3420E+06    -20.1490E+06    -16.8866E+03    -15.2860E-03     30.5976E-03    -15.3115E-03     3.47904E-03    -15.2602E-03     30.3154E-03    -15.2834E-03     3.47836E-03
            1565     16.8416E-03     46.3287E-03    -2.75339E+06     118.908E+06     22.7926E+06    -1.57377E+06    -17.5004E-03     32.7283E-03    -15.2278E-03     97.1533E-03    -18.5543E-03     34.1284E-03    -15.2823E-03     97.6798E-03
            1566     15.9556E-03     46.2060E-03    -3.61930E+06     61.0650E+06    -17.7798E+06    -698.086E+03    -17.6592E-03     32.7561E-03    -15.0969E-03     110.476E-03    -18.4645E-03     33.8169E-03    -15.2691E-03     110.669E-03
            1567     15.0679E-03     46.1214E-03    -3.30729E+06     25.8500E+06    -1.85810E+06     651.208E+03    -16.2302E-03     31.4753E-03    -15.2450E-03     81.2880E-03    -16.4663E-03     31.7967E-03    -15.2870E-03     81.2776E-03
            1568     14.1814E-03     46.0570E-03    -3.28312E+06     2.76456E+06     2.26828E+06     722.588E+03    -16.1817E-03     31.5026E-03    -15.3209E-03     66.6878E-03    -16.2850E-03     31.5976E-03    -15.3089E-03     66.6597E-03
            1569     13.2949E-03     45.9987E-03    -3.10793E+06    -23.8628E+06    -1.09779E+06     589.882E+03    -16.2580E-03     31.6055E-03    -15.3475E-03     61.0259E-03    -16.2859E-03     31.5408E-03    -15.3139E-03     60.9986E-03
            1570     12.4085E-03     45.9441E-03    -2.89934E+06    -34.2312E+06     3.47166E+06     233.159E+03    -16.2103E-03     31.5910E-03    -15.3807E-03     55.0974E-03    -16.2092E-03     31.4480E-03    -15.3095E-03     55.0723E-03
            1571     11.5224E-03     45.8963E-03    -3.33964E+06    -35.9137E+06     6.34349E+06     226.864E+03    -16.0645E-03     31.4538E-03    -15.3894E-03     49.5443E-03    -16.0559E-03     31.2875E-03    -15.3007E-03     49.5257E-03
            1572     10.6360E-03     45.8520E-03    -4.01653E+06    -43.9421E+06     5.67288E+06     178.388E+03    -15.9589E-03     31.3480E-03    -15.3891E-03     45.1660E-03    -15.9348E-03     31.1372E-03    -15.2912E-03     45.1518E-03
            1573     9.74993E-03     45.8121E-03    -4.81866E+06    -47.6004E+06     6.81768E+06     193.180E+03    -15.8502E-03     31.2417E-03    -15.3915E-03     40.9284E-03    -15.8224E-03     31.0081E-03    -15.2815E-03     40.9184E-03
            1574     8.86353E-03     45.7758E-03    -6.13176E+06    -49.0796E+06     6.36527E+06     122.191E+03    -15.7333E-03     31.1174E-03    -15.3841E-03     36.6571E-03    -15.7067E-03     30.8763E-03    -15.2722E-03     36.6493E-03
            1575     7.97734E-03     45.7437E-03    -7.53536E+06    -52.4059E+06     5.48150E+06     240.135E+03    -15.6435E-03     31.0212E-03    -15.3777E-03     32.3881E-03    -15.6162E-03     30.7652E-03    -15.2633E-03     32.3841E-03
            1576     7.09095E-03     45.7153E-03    -8.96284E+06    -53.5878E+06     3.73174E+06     344.020E+03    -15.5511E-03     30.9153E-03    -15.3641E-03     28.2309E-03    -15.5256E-03     30.6569E-03    -15.2548E-03     28.2299E-03
            1577     6.20471E-03     45.6910E-03    -10.6451E+06    -55.0426E+06     1.46353E+06     213.524E+03    -15.4716E-03     30.8214E-03    -15.3498E-03     24.2090E-03    -15.4484E-03     30.5608E-03    -15.2473E-03     24.2076E-03
            1578     5.31828E-03     45.6701E-03    -12.5719E+06    -56.8152E+06    -1.33515E+06     134.445E+03    -15.4023E-03     30.7372E-03    -15.3349E-03     20.3478E-03    -15.3817E-03     30.4742E-03    -15.2410E-03     20.3462E-03
            1579     4.43200E-03     45.6529E-03    -14.5329E+06    -59.2407E+06    -4.68035E+06     73.8745E+03    -15.3442E-03     30.6645E-03    -15.3203E-03     16.6656E-03    -15.3247E-03     30.3966E-03    -15.2367E-03     16.6640E-03
            1580     3.54555E-03     45.6389E-03    -16.5416E+06    -60.9626E+06    -8.78496E+06     84.9255E+03    -15.3014E-03     30.6046E-03    -15.3032E-03     13.1458E-03    -15.2833E-03     30.3368E-03    -15.2347E-03     13.1450E-03
            1581     2.65920E-03     45.6283E-03    -18.3441E+06    -62.2770E+06    -13.3723E+06     21.1785E+03    -15.2769E-03     30.5614E-03    -15.2845E-03     9.77213E-03    -15.2591E-03     30.2962E-03    -15.2344E-03     9.77104E-03
            1582     1.77275E-03     45.6206E-03    -19.7752E+06    -64.6906E+06    -17.4678E+06    -24.0752E+03    -15.2705E-03     30.5388E-03    -15.2684E-03     6.52400E-03    -15.2502E-03     30.2694E-03    -15.2332E-03     6.52280E-03
            1583     886.492E-06     45.6160E-03    -20.3511E+06    -68.3143E+06    -20.0095E+06     117.977E+03    -15.2601E-03     30.5226E-03    -15.2626E-03     3.49571E-03    -15.2334E-03     30.2401E-03    -15.2340E-03     3.49677E-03
            1584     16.8387E-03     45.3439E-03    -2.05190E+06     119.237E+06     23.9313E+06    -661.526E+03    -16.7539E-03     32.0403E-03    -15.2864E-03     99.2499E-03    -17.8137E-03     33.4468E-03    -15.3367E-03     99.8094E-03
            1585     15.9546E-03     45.2317E-03    -4.18249E+06     59.3957E+06    -17.6088E+06    -454.137E+03    -17.8611E-03     33.0357E-03    -15.1747E-03     111.071E-03    -18.6605E-03     34.0823E-03    -15.3428E-03     111.262E-03
            1586     15.0667E-03     45.1433E-03    -4.75219E+06     25.8423E+06    -1.42108E+06     347.894E+03    -16.7839E-03     32.0909E-03    -15.3069E-03     82.6108E-03    -17.0329E-03     32.4188E-03    -15.3446E-03     82.5936E-03
            1587     14.1804E-03     45.0794E-03    -4.30715E+06     3.05557E+06     2.65785E+06    -16.6414E+03    -16.6079E-03     31.9637E-03    -15.3558E-03     66.5063E-03    -16.7177E-03     32.0613E-03    -15.3407E-03     66.4670E-03
            1588     13.2946E-03     45.0205E-03    -3.80626E+06    -23.9189E+06    -1.41971E+06    -180.614E+03    -16.5427E-03     31.8993E-03    -15.3566E-03     60.7717E-03    -16.5737E-03     31.8360E-03    -15.3235E-03     60.7336E-03
            1589     12.4086E-03     44.9665E-03    -3.59712E+06    -33.9057E+06     3.00845E+06    -160.609E+03    -16.3108E-03     31.6857E-03    -15.3749E-03     54.8918E-03    -16.3131E-03     31.5461E-03    -15.3055E-03     54.8614E-03
            1590     11.5223E-03     44.9182E-03    -3.82522E+06    -36.3344E+06     5.87395E+06    -65.0247E+03    -16.1025E-03     31.4807E-03    -15.3782E-03     49.3436E-03    -16.0951E-03     31.3136E-03    -15.2906E-03     49.3211E-03
            1591     10.6363E-03     44.8745E-03    -4.37653E+06    -43.6369E+06     5.50117E+06     67.7173E+03    -15.9809E-03     31.3553E-03    -15.3744E-03     45.0505E-03    -15.9587E-03     31.1467E-03    -15.2773E-03     45.0349E-03
            1592     9.74995E-03     44.8342E-03    -5.24525E+06    -47.8337E+06     6.42810E+06     24.0930E+03    -15.8637E-03     31.2370E-03    -15.3734E-03     40.8332E-03    -15.8371E-03     31.0034E-03    -15.2643E-03     40.8210E-03
            1593     8.86384E-03     44.7983E-03    -6.25487E+06    -49.0198E+06     6.40327E+06     270.556E+03    -15.7444E-03     31.1083E-03    -15.3639E-03     36.5721E-03    -15.7185E-03     30.8677E-03    -15.2518E-03     36.5663E-03
            1594     7.97744E-03     44.7660E-03    -7.64927E+06    -52.4545E+06     5.22923E+06     195.745E+03    -15.6356E-03     30.9892E-03    -15.3536E-03     32.3152E-03    -15.6085E-03     30.7335E-03    -15.2403E-03     32.3107E-03
            1595     7.09123E-03     44.7379E-03    -9.10536E+06    -53.6208E+06     3.71039E+06     218.703E+03    -15.5397E-03     30.8791E-03    -15.3394E-03     28.1597E-03    -15.5148E-03     30.6208E-03    -15.2299E-03     28.1571E-03
            1596     6.20479E-03     44.7133E-03    -10.6947E+06    -54.8309E+06     1.41422E+06     262.205E+03    -15.4572E-03     30.7797E-03    -15.3225E-03     24.1402E-03    -15.4345E-03     30.5203E-03    -15.2204E-03     24.1394E-03
            1597     5.31852E-03     44.6927E-03    -12.4849E+06    -56.8237E+06    -1.32125E+06     213.204E+03    -15.3848E-03     30.6909E-03    -15.3061E-03     20.2812E-03    -15.3637E-03     30.4276E-03    -15.2122E-03     20.2807E-03
            1598     4.43205E-03     44.6754E-03    -14.5390E+06    -59.1296E+06    -4.74294E+06     232.641E+03    -15.3226E-03     30.6117E-03    -15.2891E-03     16.6196E-03    -15.3032E-03     30.3446E-03    -15.2060E-03     16.6201E-03
            1599     3.54572E-03     44.6616E-03    -16.5623E+06    -60.8994E+06    -8.86712E+06     92.8078E+03    -15.2748E-03     30.5451E-03    -15.2703E-03     13.1123E-03    -15.2567E-03     30.2778E-03    -15.2023E-03     13.1116E-03
            1600     2.65923E-03     44.6508E-03    -18.3755E+06    -62.1405E+06    -13.3914E+06     18.2409E+03    -15.2473E-03     30.4976E-03    -15.2502E-03     9.74629E-03    -15.2298E-03     30.2331E-03    -15.2004E-03     9.74517E-03
            1601     1.77289E-03     44.6433E-03    -19.8906E+06    -64.8475E+06    -17.5732E+06     60.9841E+03    -15.2316E-03     30.4662E-03    -15.2347E-03     6.50301E-03    -15.2115E-03     30.1964E-03    -15.1997E-03     6.50292E-03
            1602     886.353E-06     44.6386E-03    -20.8382E+06    -68.1180E+06    -20.4129E+06     183.134E+03    -15.2137E-03     30.4544E-03    -15.2407E-03     3.49611E-03    -15.1891E-03     30.1741E-03    -15.2138E-03     3.49801E-03
            1603     16.8387E-03     44.3685E-03    -409.712E+03     119.258E+06     22.2381E+06     1.29486E+06    -15.9372E-03     31.2132E-03    -15.2760E-03     96.0966E-03    -16.9458E-03     32.5792E-03    -15.3371E-03     96.6835E-03
            1604     15.9493E-03     44.2514E-03    -2.21055E+06     60.0809E+06    -17.2792E+06     409.679E+03    -17.3037E-03     32.5079E-03    -15.2042E-03     108.359E-03    -18.0675E-03     33.5272E-03    -15.3745E-03     108.568E-03
            1605     15.0663E-03     44.1653E-03    -3.72547E+06     25.7200E+06    -1.18788E+06    -1.03913E+06    -17.4762E-03     32.8055E-03    -15.3293E-03     80.7201E-03    -17.7230E-03     33.1338E-03    -15.3671E-03     80.6808E-03
            1606     14.1808E-03     44.1008E-03    -3.19830E+06     3.04668E+06     3.04534E+06    -919.056E+03    -16.7855E-03     32.1353E-03    -15.3498E-03     65.4123E-03    -16.8898E-03     32.2303E-03    -15.3344E-03     65.3607E-03
            1607     13.2949E-03     44.0425E-03    -2.89733E+06    -24.0843E+06    -1.24928E+06    -645.698E+03    -16.5542E-03     31.8962E-03    -15.3419E-03     60.1719E-03    -16.5808E-03     31.8305E-03    -15.3091E-03     60.1276E-03
            1608     12.4088E-03     43.9884E-03    -3.03851E+06    -34.1687E+06     3.02006E+06    -403.192E+03    -16.3156E-03     31.6734E-03    -15.3578E-03     54.5931E-03    -16.3147E-03     31.5316E-03    -15.2887E-03     54.5595E-03
            1609     11.5228E-03     43.9406E-03    -3.73868E+06    -36.4952E+06     5.78849E+06    -147.456E+03    -16.0847E-03     31.4447E-03    -15.3600E-03     49.2211E-03    -16.0764E-03     31.2768E-03    -15.2728E-03     49.1976E-03
            1610     10.6364E-03     43.8966E-03    -4.63752E+06    -43.7850E+06     5.30017E+06     3.78337E+03    -15.9755E-03     31.3309E-03    -15.3554E-03     44.9698E-03    -15.9541E-03     31.1222E-03    -15.2587E-03     44.9534E-03
            1611     9.75031E-03     43.8567E-03    -5.64094E+06    -47.6756E+06     6.21557E+06     28.0071E+03    -15.8636E-03     31.2160E-03    -15.3524E-03     40.7700E-03    -15.8389E-03     30.9840E-03    -15.2440E-03     40.7579E-03
            1612     8.86392E-03     43.8205E-03    -6.77102E+06    -49.4295E+06     5.97291E+06     10.2925E+03    -15.7477E-03     31.0880E-03    -15.3403E-03     36.5012E-03    -15.7232E-03     30.8467E-03    -15.2290E-03     36.4920E-03
            1613     7.97775E-03     43.7885E-03    -7.90490E+06    -52.1830E+06     5.20706E+06     243.328E+03    -15.6346E-03     30.9623E-03    -15.3277E-03     32.2332E-03    -15.6090E-03     30.7083E-03    -15.2145E-03     32.2292E-03
            1614     7.09132E-03     43.7603E-03    -9.43658E+06    -53.6847E+06     3.37477E+06     79.7235E+03    -15.5284E-03     30.8381E-03    -15.3098E-03     28.0833E-03    -15.5046E-03     30.5805E-03    -15.2014E-03     28.0790E-03
            1615     6.20507E-03     43.7359E-03    -10.9546E+06    -54.8493E+06     1.20446E+06     131.862E+03    -15.4361E-03     30.7274E-03    -15.2913E-03     24.0626E-03    -15.4143E-03     30.4685E-03    -15.1899E-03     24.0601E-03
            1616     5.31860E-03     43.7152E-03    -12.6842E+06    -56.8092E+06    -1.57286E+06     259.719E+03    -15.3576E-03     30.6309E-03    -15.2732E-03     20.2105E-03    -15.3372E-03     30.3683E-03    -15.1803E-03     20.2106E-03
            1617     4.43227E-03     43.6980E-03    -14.4868E+06    -59.0265E+06    -4.68868E+06     233.789E+03    -15.2990E-03     30.5547E-03    -15.2557E-03     16.5509E-03    -15.2796E-03     30.2879E-03    -15.1726E-03     16.5514E-03
            1618     3.54578E-03     43.6842E-03    -16.4097E+06    -60.6862E+06    -8.86858E+06     160.325E+03    -15.2530E-03     30.4865E-03    -15.2335E-03     13.0485E-03    -15.2345E-03     30.2200E-03    -15.1660E-03     13.0487E-03
            1619     2.65940E-03     43.6735E-03    -18.2009E+06    -62.1563E+06    -13.4458E+06     62.5313E+03    -15.2109E-03     30.4223E-03    -15.2114E-03     9.70137E-03    -15.1924E-03     30.1576E-03    -15.1622E-03     9.70082E-03
            1620     1.77288E-03     43.6659E-03    -19.5283E+06    -64.9532E+06    -17.4184E+06     221.136E+03    -15.1905E-03     30.3885E-03    -15.1980E-03     6.46462E-03    -15.1687E-03     30.1174E-03    -15.1626E-03     6.46659E-03
            1621     886.482E-06     43.6614E-03    -20.4201E+06    -67.7348E+06    -20.0172E+06     319.433E+03    -15.2050E-03     30.3847E-03    -15.1798E-03     3.45704E-03    -15.1794E-03     30.1052E-03    -15.1520E-03     3.46070E-03
            1622     16.8438E-03     43.3959E-03    -3.46889E+06     120.773E+06     20.9099E+06     1.17377E+06    -16.8377E-03     32.0555E-03    -15.2178E-03     95.3925E-03    -17.8684E-03     33.4420E-03    -15.2833E-03     95.9662E-03
            1623     15.9561E-03     43.2746E-03    -3.30891E+06     61.1001E+06    -18.7391E+06    -235.556E+03    -17.1837E-03     32.3057E-03    -15.1221E-03     109.974E-03    -17.9680E-03     33.3495E-03    -15.2995E-03     110.183E-03
            1624     15.0675E-03     43.1860E-03    -281.444E+03     25.0240E+06    -1.25567E+06    -1.27075E+06    -16.9333E-03     32.2014E-03    -15.2681E-03     80.2121E-03    -17.1576E-03     32.5172E-03    -15.3102E-03     80.1724E-03
            1625     14.1817E-03     43.1232E-03    -566.433E+03     2.40972E+06     3.31720E+06    -900.265E+03    -16.5515E-03     31.8636E-03    -15.3121E-03     65.1500E-03    -16.6416E-03     31.9506E-03    -15.2981E-03     65.0996E-03
            1626     13.2953E-03     43.0645E-03    -1.50414E+06    -24.4840E+06    -659.985E+03    -298.534E+03    -16.4037E-03     31.7217E-03    -15.3180E-03     60.2617E-03    -16.4231E-03     31.6508E-03    -15.2837E-03     60.2225E-03
            1627     12.4092E-03     43.0106E-03    -2.39345E+06    -34.4124E+06     3.41656E+06     43.3614E+03    -16.2439E-03     31.5842E-03    -15.3403E-03     54.6002E-03    -16.2397E-03     31.4394E-03    -15.2698E-03     54.5727E-03
            1628     11.5228E-03     42.9628E-03    -3.42939E+06    -36.5862E+06     6.02477E+06     85.2105E+03    -16.0865E-03     31.4298E-03    -15.3433E-03     49.2431E-03    -16.0768E-03     31.2606E-03    -15.2552E-03     49.2227E-03
            1629     10.6368E-03     42.9189E-03    -4.33997E+06    -43.9049E+06     5.54391E+06     110.373E+03    -15.9868E-03     31.3237E-03    -15.3369E-03     44.9255E-03    -15.9641E-03     31.1136E-03    -15.2392E-03     44.9105E-03
            1630     9.75037E-03     42.8790E-03    -5.36508E+06    -47.5333E+06     6.41436E+06     100.665E+03    -15.8702E-03     31.2009E-03    -15.3307E-03     40.7025E-03    -15.8446E-03     30.9689E-03    -15.2219E-03     40.6914E-03
            1631     8.86425E-03     42.8429E-03    -6.68902E+06    -49.5654E+06     5.94709E+06     90.6444E+03    -15.7539E-03     31.0691E-03    -15.3153E-03     36.4071E-03    -15.7287E-03     30.8270E-03    -15.2039E-03     36.3989E-03
            1632     7.97787E-03     42.8109E-03    -8.24576E+06    -52.2915E+06     4.95906E+06     117.677E+03    -15.6361E-03     30.9347E-03    -15.2986E-03     32.1345E-03    -15.6117E-03     30.6810E-03    -15.1861E-03     32.1289E-03
            1633     7.09167E-03     42.7828E-03    -9.66031E+06    -53.3196E+06     3.20761E+06     63.7044E+03    -15.5174E-03     30.7943E-03    -15.2770E-03     27.9926E-03    -15.4950E-03     30.5391E-03    -15.1696E-03     27.9881E-03
            1634     6.20519E-03     42.7585E-03    -11.3576E+06    -55.1921E+06     978.328E+03    -9.12767E+03    -15.4132E-03     30.6703E-03    -15.2571E-03     23.9775E-03    -15.3927E-03     30.4107E-03    -15.1557E-03     23.9733E-03
            1635     5.31887E-03     42.7378E-03    -13.0211E+06    -56.7135E+06    -1.76833E+06     121.924E+03    -15.3343E-03     30.5705E-03    -15.2362E-03     20.1301E-03    -15.3154E-03     30.3092E-03    -15.1439E-03     20.1285E-03
            1636     4.43237E-03     42.7207E-03    -14.8902E+06    -59.0670E+06    -5.19371E+06     174.636E+03    -15.2725E-03     30.4871E-03    -15.2146E-03     16.4733E-03    -15.2543E-03     30.2214E-03    -15.1334E-03     16.4731E-03
            1637     3.54600E-03     42.7069E-03    -16.7205E+06    -60.4264E+06    -9.29015E+06     143.712E+03    -15.2179E-03     30.4076E-03    -15.1897E-03     12.9867E-03    -15.2007E-03     30.1435E-03    -15.1243E-03     12.9866E-03
            1638     2.65947E-03     42.6963E-03    -18.4183E+06    -62.2667E+06    -13.7895E+06     140.789E+03    -15.1781E-03     30.3434E-03    -15.1653E-03     9.63460E-03    -15.1600E-03     30.0789E-03    -15.1173E-03     9.63507E-03
            1639     1.77300E-03     42.6888E-03    -19.8410E+06    -64.9654E+06    -17.5263E+06     285.470E+03    -15.1555E-03     30.3019E-03    -15.1464E-03     6.41649E-03    -15.1351E-03     30.0313E-03    -15.1111E-03     6.41931E-03
            1640     886.497E-06     42.6841E-03    -20.7757E+06    -67.2155E+06    -20.0436E+06     309.632E+03    -15.1278E-03     30.2698E-03    -15.1420E-03     3.45761E-03    -15.1047E-03     29.9934E-03    -15.1147E-03     3.46115E-03
            1641     16.8381E-03     42.4157E-03    -4.04777E+06     119.049E+06     22.2522E+06    -1.13744E+06    -17.3171E-03     32.5808E-03    -15.2637E-03     96.6769E-03    -18.3848E-03     33.9922E-03    -15.3192E-03     97.2193E-03
            1642     15.9536E-03     42.2974E-03    -718.087E+03     63.3166E+06    -17.5207E+06     911.109E+03    -18.3710E-03     33.4869E-03    -15.1159E-03     111.969E-03    -19.1768E-03     34.5657E-03    -15.2943E-03     112.181E-03
            1643     15.0686E-03     42.2087E-03     444.989E+03     26.7659E+06    -774.625E+03     717.547E+03    -16.7202E-03     31.9595E-03    -15.2393E-03     82.0936E-03    -16.9426E-03     32.2807E-03    -15.2826E-03     82.0814E-03
            1644     14.1814E-03     42.1453E-03    -1.62691E+06     1.66981E+06     1.98075E+06     35.5742E+03    -16.3940E-03     31.6875E-03    -15.2935E-03     65.7960E-03    -16.4861E-03     31.7740E-03    -15.2837E-03     65.7584E-03
            1645     13.2955E-03     42.0867E-03    -2.36317E+06    -24.8285E+06    -1.26512E+06     290.001E+03    -16.4122E-03     31.7192E-03    -15.3069E-03     60.4731E-03    -16.4343E-03     31.6484E-03    -15.2738E-03     60.4416E-03
            1646     12.4091E-03     42.0330E-03    -2.87572E+06    -34.4285E+06     3.25073E+06     404.140E+03    -16.2693E-03     31.5979E-03    -15.3286E-03     54.6899E-03    -16.2672E-03     31.4539E-03    -15.2582E-03     54.6670E-03
            1647     11.5231E-03     41.9849E-03    -3.42034E+06    -36.4567E+06     5.95037E+06     275.731E+03    -16.1349E-03     31.4623E-03    -15.3274E-03     49.1728E-03    -16.1252E-03     31.2938E-03    -15.2398E-03     49.1548E-03
            1648     10.6368E-03     41.9413E-03    -4.30756E+06    -43.9171E+06     5.35883E+06     203.750E+03    -16.0221E-03     31.3378E-03    -15.3156E-03     44.8405E-03    -15.9989E-03     31.1278E-03    -15.2189E-03     44.8266E-03
            1649     9.75074E-03     41.9012E-03    -5.38772E+06    -47.5558E+06     6.48079E+06     252.385E+03    -15.8911E-03     31.1973E-03    -15.3062E-03     40.5923E-03    -15.8657E-03     30.9651E-03    -15.1970E-03     40.5832E-03
            1650     8.86440E-03     41.8653E-03    -6.69832E+06    -49.4838E+06     5.92283E+06     269.668E+03    -15.7540E-03     31.0404E-03    -15.2865E-03     36.2935E-03    -15.7289E-03     30.7988E-03    -15.1754E-03     36.2877E-03
            1651     7.97822E-03     41.8333E-03    -8.05641E+06    -52.2242E+06     5.10924E+06     136.712E+03    -15.6319E-03     30.8992E-03    -15.2673E-03     32.0260E-03    -15.6069E-03     30.6453E-03    -15.1543E-03     32.0208E-03
            1652     7.09180E-03     41.8053E-03    -9.75246E+06    -53.2532E+06     3.42902E+06     96.9561E+03    -15.5078E-03     30.7509E-03    -15.2431E-03     27.8741E-03    -15.4863E-03     30.4957E-03    -15.1346E-03     27.8700E-03
            1653     6.20552E-03     41.7811E-03    -11.5143E+06    -55.0781E+06     964.304E+03     5.78659E+03    -15.3988E-03     30.6171E-03    -15.2184E-03     23.8683E-03    -15.3791E-03     30.3583E-03    -15.1170E-03     23.8643E-03
            1654     5.31903E-03     41.7605E-03    -13.4699E+06    -56.9771E+06    -2.05711E+06     16.2316E+03    -15.3083E-03     30.5019E-03    -15.1936E-03     20.0374E-03    -15.2909E-03     30.2403E-03    -15.1017E-03     20.0344E-03
            1655     4.43265E-03     41.7434E-03    -15.2942E+06    -58.9126E+06    -5.57588E+06     108.108E+03    -15.2357E-03     30.4041E-03    -15.1683E-03     16.3911E-03    -15.2192E-03     30.1403E-03    -15.0886E-03     16.3900E-03
            1656     3.54610E-03     41.7297E-03    -17.0477E+06    -60.4005E+06    -9.69272E+06    -4.79253E+03    -15.1771E-03     30.3186E-03    -15.1414E-03     12.9166E-03    -15.1610E-03     30.0556E-03    -15.0776E-03     12.9146E-03
            1657     2.65963E-03     41.7191E-03    -18.6910E+06    -62.4465E+06    -13.7557E+06     181.267E+03    -15.1413E-03     30.2574E-03    -15.1160E-03     9.58669E-03    -15.1244E-03     29.9923E-03    -15.0672E-03     9.58770E-03
            1658     1.77314E-03     41.7116E-03    -20.1040E+06    -64.7679E+06    -17.5156E+06     297.162E+03    -15.1038E-03     30.1970E-03    -15.0931E-03     6.38531E-03    -15.0850E-03     29.9277E-03    -15.0577E-03     6.38828E-03
            1659     886.562E-06     41.7071E-03    -21.0327E+06    -66.8330E+06    -20.3525E+06     102.597E+03    -15.0574E-03     30.1580E-03    -15.1006E-03     3.42680E-03    -15.0357E-03     29.8844E-03    -15.0750E-03     3.42766E-03
            1660     16.8385E-03     41.4343E-03    -2.99187E+06     117.820E+06     22.4242E+06    -1.44623E+06    -16.6940E-03     31.9767E-03    -15.2827E-03     96.0616E-03    -17.7448E-03     33.3701E-03    -15.3370E-03     96.6021E-03
            1661     15.9544E-03     41.3187E-03    -5.72665E+06     61.5685E+06    -17.2643E+06    -686.888E+03    -18.2708E-03     33.4294E-03    -15.1586E-03     109.395E-03    -19.0851E-03     34.4920E-03    -15.3259E-03     109.582E-03
            1662     15.0671E-03     41.2315E-03    -5.16476E+06     28.1119E+06    -2.47392E+06     716.621E+03    -17.0792E-03     32.3354E-03    -15.2562E-03     81.9314E-03    -17.3323E-03     32.6771E-03    -15.3018E-03     81.9176E-03
            1663     14.1816E-03     41.1669E-03    -4.02781E+06     1.72746E+06      1.1663E+06     291.975E+03    -16.5478E-03     31.8436E-03    -15.2958E-03     65.7400E-03    -16.6507E-03     31.9350E-03    -15.2866E-03     65.7052E-03
            1664     13.2952E-03     41.1092E-03    -4.12868E+06    -24.8712E+06    -1.85689E+06     176.586E+03    -16.4927E-03     31.7938E-03    -15.3011E-03     60.2314E-03    -16.5228E-03     31.7263E-03    -15.2683E-03     60.1982E-03
            1665     12.4094E-03     41.0548E-03    -3.91568E+06    -34.4010E+06     2.84961E+06     20.8878E+03    -16.3547E-03     31.6701E-03    -15.3154E-03     54.5754E-03    -16.3573E-03     31.5284E-03    -15.2455E-03     54.5474E-03
            1666     11.5232E-03     41.0073E-03    -4.22384E+06    -36.4671E+06     5.63903E+06     179.363E+03    -16.1766E-03     31.4845E-03    -15.3079E-03     49.0093E-03    -16.1704E-03     31.3175E-03    -15.2207E-03     48.9900E-03
            1667     10.6372E-03     40.9633E-03    -4.88538E+06    -43.8177E+06     5.25414E+06     200.506E+03    -16.0498E-03     31.3414E-03    -15.2917E-03     44.7117E-03    -16.0294E-03     31.1329E-03    -15.1948E-03     44.6978E-03
            1668     9.75093E-03     40.9237E-03    -5.77183E+06    -47.7351E+06     6.41193E+06     264.459E+03    -15.9042E-03     31.1823E-03    -15.2780E-03     40.4498E-03    -15.8803E-03     30.9498E-03    -15.1684E-03     40.4408E-03
            1669     8.86477E-03     40.8877E-03    -6.81101E+06    -49.1921E+06     6.21906E+06     196.671E+03    -15.7513E-03     31.0066E-03    -15.2553E-03     36.1747E-03    -15.7277E-03     30.7661E-03    -15.1430E-03     36.1680E-03
            1670     7.97842E-03     40.8559E-03    -8.07709E+06    -52.1803E+06     5.25043E+06     54.2836E+03    -15.6246E-03     30.8567E-03    -15.2322E-03     31.9014E-03    -15.5999E-03     30.6029E-03    -15.1185E-03     31.8951E-03
            1671     7.09218E-03     40.8279E-03    -9.39617E+06    -53.2578E+06     3.61245E+06     75.4576E+03    -15.5021E-03     30.7059E-03    -15.2038E-03     27.7412E-03    -15.4790E-03     30.4499E-03    -15.0949E-03     27.7369E-03
            1672     6.20572E-03     40.8038E-03    -11.1626E+06    -55.0715E+06     1.20179E+06     197.092E+03    -15.3865E-03     30.5615E-03    -15.1749E-03     23.7406E-03    -15.3655E-03     30.3018E-03    -15.0729E-03     23.7391E-03
            1673     5.31935E-03     40.7833E-03    -13.1963E+06    -56.9537E+06    -1.73973E+06     190.772E+03    -15.2804E-03     30.4270E-03    -15.1467E-03     19.9194E-03    -15.2620E-03     30.1647E-03    -15.0537E-03     19.9187E-03
            1674     4.43279E-03     40.7663E-03    -15.2968E+06    -58.7675E+06    -5.41105E+06    -16.8830E+03    -15.1956E-03     30.3136E-03    -15.1179E-03     16.2906E-03    -15.1796E-03     30.0503E-03    -15.0376E-03     16.2880E-03
            1675     3.54634E-03     40.7526E-03    -17.2963E+06    -60.4877E+06    -9.67475E+06     13.8170E+03    -15.1342E-03     30.2224E-03    -15.0882E-03     12.8253E-03    -15.1192E-03     29.9593E-03    -15.0238E-03     12.8236E-03
            1676     2.65976E-03     40.7420E-03    -19.1715E+06    -62.6273E+06    -13.9991E+06     124.522E+03    -15.0795E-03     30.1407E-03    -15.0612E-03     9.51465E-03    -15.0643E-03     29.8758E-03    -15.0126E-03     9.51494E-03
            1677     1.77315E-03     40.7346E-03    -20.5342E+06    -64.4914E+06    -17.9982E+06     105.586E+03    -15.0443E-03     30.0828E-03    -15.0385E-03     6.32020E-03    -15.0273E-03     29.8163E-03    -15.0052E-03     6.32072E-03
            1678     886.585E-06     40.7301E-03    -21.1829E+06    -66.6432E+06    -20.7305E+06     23.0253E+03    -15.0448E-03     30.0532E-03    -15.0084E-03     3.41689E-03    -15.0236E-03     29.7812E-03    -14.9847E-03     3.41672E-03
            1679     16.8419E-03     40.4574E-03     99.0423E+03     118.501E+06     23.4949E+06     1.16125E+06    -16.5467E-03     31.7948E-03    -15.2481E-03     97.1267E-03    -17.5752E-03     33.1762E-03    -15.3026E-03     97.7060E-03
            1680     15.9525E-03     40.3408E-03    -2.96407E+06     59.3551E+06    -16.7591E+06    -93.9176E+03    -17.6600E-03     32.8091E-03    -15.1492E-03     109.771E-03    -18.4511E-03     33.8490E-03    -15.3147E-03     109.974E-03
            1681     15.0680E-03     40.2527E-03    -4.36784E+06     27.9336E+06    -1.39750E+06    -791.461E+03    -17.2912E-03     32.5515E-03    -15.2603E-03     81.0840E-03    -17.5439E-03     32.8920E-03    -15.3015E-03     81.0488E-03
            1682     14.1816E-03     40.1893E-03    -4.31368E+06     1.68314E+06     1.78009E+06    -402.750E+03    -16.6225E-03     31.9110E-03    -15.2886E-03     65.3607E-03    -16.7274E-03     32.0014E-03    -15.2758E-03     65.3166E-03
            1683     13.2958E-03     40.1308E-03    -3.81471E+06    -24.9866E+06    -1.12547E+06    -169.690E+03    -16.5436E-03     31.8317E-03    -15.2881E-03     60.0639E-03    -16.5730E-03     31.7622E-03    -15.2520E-03     60.0260E-03
            1684     12.4095E-03     40.0772E-03    -4.12441E+06    -34.0361E+06     2.96663E+06    -274.919E+03    -16.3849E-03     31.6798E-03    -15.2949E-03     54.4107E-03    -16.3892E-03     31.5400E-03    -15.2248E-03     54.3788E-03
            1685     11.5236E-03     40.0292E-03    -4.50530E+06    -37.0962E+06     5.68574E+06    -241.465E+03    -16.1985E-03     31.4832E-03    -15.2847E-03     48.8753E-03    -16.1929E-03     31.3133E-03    -15.1959E-03     48.8506E-03
            1686     10.6374E-03     39.9858E-03    -5.00600E+06    -43.5772E+06     5.66959E+06     77.2887E+03    -16.0617E-03     31.3266E-03    -15.2649E-03     44.5703E-03    -16.0428E-03     31.1188E-03    -15.1662E-03     44.5548E-03
            1687     9.75131E-03     39.9458E-03    -5.71960E+06    -47.9058E+06     6.40946E+06    -28.5435E+03    -15.9102E-03     31.1560E-03    -15.2458E-03     40.3198E-03    -15.8857E-03     30.9226E-03    -15.1360E-03     40.3070E-03
            1688     8.86504E-03     39.9103E-03    -6.76016E+06    -49.1116E+06     6.34433E+06     131.621E+03    -15.7589E-03     30.9781E-03    -15.2191E-03     36.0230E-03    -15.7353E-03     30.7377E-03    -15.1064E-03     36.0155E-03
            1689     7.97881E-03     39.8783E-03    -8.13363E+06    -51.9271E+06     4.93171E+06    -20.1944E+03    -15.6171E-03     30.8064E-03    -15.1894E-03     31.7636E-03    -15.5925E-03     30.5544E-03    -15.0776E-03     31.7564E-03
            1690     7.09242E-03     39.8506E-03    -9.79391E+06    -53.5959E+06     3.10538E+06     19.8919E+03    -15.4888E-03     30.6461E-03    -15.1573E-03     27.5985E-03    -15.4665E-03     30.3897E-03    -15.0498E-03     27.5935E-03
            1691     6.20608E-03     39.8265E-03    -11.4528E+06    -55.1013E+06     945.891E+03     287.492E+03    -15.3664E-03     30.4910E-03    -15.1246E-03     23.5999E-03    -15.3464E-03     30.2320E-03    -15.0234E-03     23.5995E-03
            1692     5.31959E-03     39.8061E-03    -13.2225E+06    -56.7770E+06    -1.69092E+06     248.392E+03    -15.2541E-03     30.3465E-03    -15.0924E-03     19.7831E-03    -15.2362E-03     30.0850E-03    -14.9994E-03     19.7832E-03
            1693     4.43313E-03     39.7892E-03    -15.2559E+06    -58.5728E+06    -5.12764E+06     156.679E+03    -15.1567E-03     30.2168E-03    -15.0601E-03     16.1687E-03    -15.1411E-03     29.9540E-03    -14.9787E-03     16.1683E-03
            1694     3.54652E-03     39.7755E-03    -17.5156E+06    -60.6842E+06    -9.50217E+06     148.335E+03    -15.0783E-03     30.1059E-03    -15.0276E-03     12.7201E-03    -15.0644E-03     29.8419E-03    -14.9617E-03     12.7201E-03
            1695     2.65994E-03     39.7651E-03    -19.4446E+06    -62.3678E+06    -14.2165E+06     94.8691E+03    -15.0210E-03     30.0167E-03    -14.9958E-03     9.41900E-03    -15.0073E-03     29.7538E-03    -14.9482E-03     9.41892E-03
            1696     1.77334E-03     39.7577E-03    -20.8971E+06    -64.5456E+06    -18.4295E+06    -117.215E+03    -14.9881E-03     29.9557E-03    -14.9676E-03     6.24711E-03    -14.9723E-03     29.6900E-03    -14.9358E-03     6.24476E-03
            1697     886.676E-06     39.7532E-03    -21.6242E+06    -66.5985E+06    -21.1757E+06     22.1746E+03    -14.9577E-03     29.9038E-03    -14.9461E-03     3.34753E-03    -14.9381E-03     29.6333E-03    -14.9240E-03     3.34736E-03
            1698     16.8397E-03     39.4832E-03    -1.60931E+06     118.625E+06     22.8086E+06     644.245E+03    -16.8625E-03     32.1056E-03    -15.2431E-03     96.6072E-03    -17.8948E-03     33.4872E-03    -15.2988E-03     97.1722E-03
            1699     15.9544E-03     39.3614E-03    -935.716E+03     61.4532E+06    -16.7652E+06     1.16536E+06    -17.8824E-03     33.0094E-03    -15.1270E-03     110.834E-03    -18.6715E-03     34.0619E-03    -15.2986E-03     111.052E-03
            1700     15.0679E-03     39.2749E-03    -400.450E+03     27.9724E+06     348.797E+03     273.185E+03    -17.2182E-03     32.4625E-03    -15.2443E-03     80.6917E-03    -17.4519E-03     32.7931E-03    -15.2825E-03     80.6705E-03
            1701     14.1821E-03     39.2112E-03    -2.05254E+06     1.97082E+06     3.24015E+06    -220.765E+03    -16.6389E-03     31.9129E-03    -15.2740E-03     65.3266E-03    -16.7348E-03     31.9991E-03    -15.2577E-03     65.2848E-03
            1702     13.2958E-03     39.1531E-03    -2.58483E+06    -25.3635E+06    -952.742E+03    -485.759E+03    -16.5873E-03     31.8541E-03    -15.2668E-03     60.0676E-03    -16.6102E-03     31.7805E-03    -15.2310E-03     60.0255E-03
            1703     12.4100E-03     39.0991E-03    -2.54655E+06    -33.9714E+06     3.61016E+06    -158.340E+03    -16.4198E-03     31.6907E-03    -15.2709E-03     54.2816E-03    -16.4171E-03     31.5479E-03    -15.1999E-03     54.2513E-03
            1704     11.5238E-03     39.0516E-03    -3.40611E+06    -37.1731E+06     5.85681E+06    -198.533E+03    -16.2148E-03     31.4703E-03    -15.2555E-03     48.7760E-03    -16.2037E-03     31.2982E-03    -15.1674E-03     48.7519E-03
            1705     10.6378E-03     39.0079E-03    -4.29426E+06    -43.9447E+06     5.66258E+06    -128.313E+03    -16.0810E-03     31.3131E-03    -15.2322E-03     44.4121E-03    -16.0579E-03     31.1024E-03    -15.1339E-03     44.3941E-03
            1706     9.75160E-03     38.9684E-03    -5.32895E+06    -47.6000E+06     6.30232E+06     26.9997E+03    -15.9259E-03     31.1334E-03    -15.2075E-03     40.1630E-03    -15.8997E-03     30.9010E-03    -15.0992E-03     40.1511E-03
            1707     8.86545E-03     38.9326E-03    -6.44220E+06    -49.4346E+06     5.94005E+06    -122.313E+03    -15.7717E-03     30.9468E-03    -15.1751E-03     35.8471E-03    -15.7454E-03     30.7049E-03    -15.0643E-03     35.8364E-03
            1708     7.97914E-03     38.9011E-03    -7.74720E+06    -51.8259E+06      5.1409E+06     235.991E+03    -15.6169E-03     30.7590E-03    -15.1422E-03     31.5728E-03    -15.5908E-03     30.5066E-03    -15.0301E-03     31.5689E-03
            1709     7.09284E-03     38.8732E-03    -9.55425E+06    -53.7361E+06     3.13176E+06     263.333E+03    -15.4711E-03     30.5758E-03    -15.1047E-03     27.4153E-03    -15.4474E-03     30.3183E-03    -14.9973E-03     27.4135E-03
            1710     6.20639E-03     38.8493E-03    -11.4245E+06    -55.1201E+06     946.389E+03     209.192E+03    -15.3417E-03     30.4090E-03    -15.0674E-03     23.4196E-03    -15.3215E-03     30.1499E-03    -14.9661E-03     23.4182E-03
            1711     5.31995E-03     38.8290E-03    -13.2261E+06    -56.6171E+06    -1.74456E+06     196.701E+03    -15.2212E-03     30.2508E-03    -15.0296E-03     19.6190E-03    -15.2035E-03     29.9902E-03    -14.9371E-03     19.6185E-03
            1712     4.43338E-03     38.8122E-03    -15.1374E+06    -58.6098E+06    -4.89319E+06     227.727E+03    -15.1129E-03     30.1067E-03    -14.9938E-03     16.0209E-03    -15.0970E-03     29.8431E-03    -14.9113E-03     16.0214E-03
            1713     3.54680E-03     38.7987E-03    -17.1351E+06    -60.5940E+06    -9.06866E+06     307.305E+03    -15.0245E-03     29.9815E-03    -14.9570E-03     12.5909E-03    -15.0094E-03     29.7168E-03    -14.8897E-03     12.5930E-03
            1714     2.66013E-03     38.7883E-03    -19.1223E+06    -62.0808E+06    -13.9482E+06     125.600E+03    -14.9560E-03     29.8762E-03    -14.9201E-03     9.31250E-03    -14.9415E-03     29.6138E-03    -14.8721E-03     9.31284E-03
            1715     1.77344E-03     38.7809E-03    -20.7983E+06    -64.5596E+06    -18.2271E+06     59.8423E+03    -14.9125E-03     29.8024E-03    -14.8899E-03     6.20234E-03    -14.8965E-03     29.5362E-03    -14.8572E-03     6.20228E-03
            1716     886.761E-06     38.7765E-03    -22.1989E+06    -66.6348E+06    -21.3664E+06     50.6485E+03    -14.8645E-03     29.7423E-03    -14.8778E-03     3.25592E-03    -14.8475E-03     29.4728E-03    -14.8558E-03     3.25615E-03
            1717     16.8408E-03     38.5039E-03    -3.20286E+06     118.877E+06     21.9083E+06    -321.081E+03    -17.2036E-03     32.4526E-03    -15.2490E-03     96.2022E-03    -18.2469E-03     33.8430E-03    -15.3072E-03     96.7472E-03
            1718     15.9540E-03     38.3842E-03    -2.41998E+06     61.7333E+06    -18.1734E+06    -249.132E+03    -18.2120E-03     33.3238E-03    -15.1119E-03     111.277E-03    -19.0125E-03     34.3877E-03    -15.2887E-03     111.472E-03
            1719     15.0683E-03     38.2962E-03    -1.34260E+06     27.3319E+06    -745.788E+03     626.703E+03    -17.1493E-03     32.3732E-03    -15.2239E-03     80.7446E-03    -17.3832E-03     32.7016E-03    -15.2653E-03     80.7283E-03
            1720     14.1821E-03     38.2336E-03    -831.012E+03     3.18673E+06     3.46568E+06     584.193E+03    -16.7081E-03     31.9614E-03    -15.2532E-03     65.1142E-03    -16.7999E-03     32.0514E-03    -15.2393E-03     65.0826E-03
            1721     13.2963E-03     38.1747E-03    -1.50678E+06    -25.2242E+06    -1.27708E+06    -290.390E+03    -16.6291E-03     31.8692E-03    -15.2402E-03     59.9569E-03    -16.6460E-03     31.7950E-03    -15.2078E-03     59.9174E-03
            1722     12.4102E-03     38.1215E-03    -2.18285E+06    -34.7040E+06     3.11992E+06    -86.5217E+03    -16.4528E-03     31.6942E-03    -15.2414E-03     54.1028E-03    -16.4463E-03     31.5478E-03    -15.1723E-03     54.0735E-03
            1723     11.5243E-03     38.0736E-03    -2.77770E+06    -36.6611E+06     5.88013E+06     159.982E+03    -16.2473E-03     31.4690E-03    -15.2217E-03     48.6111E-03    -16.2337E-03     31.2984E-03    -15.1351E-03     48.5917E-03
            1724     10.6381E-03     38.0303E-03    -3.83695E+06    -44.4384E+06     5.30846E+06     84.2373E+03    -16.1090E-03     31.3019E-03    -15.1929E-03     44.2220E-03    -16.0824E-03     31.0885E-03    -15.0963E-03     44.2067E-03
            1725     9.75208E-03     37.9907E-03    -4.93145E+06    -47.3424E+06     6.40493E+06     166.056E+03    -15.9486E-03     31.1122E-03    -15.1635E-03     39.9516E-03    -15.9209E-03     30.8803E-03    -15.0557E-03     39.9415E-03
            1726     8.86584E-03     37.9552E-03    -6.41439E+06    -49.4553E+06     5.81514E+06     114.567E+03    -15.7810E-03     30.9057E-03    -15.1247E-03     35.6324E-03    -15.7543E-03     30.6638E-03    -15.0146E-03     35.6248E-03
            1727     7.97963E-03     37.9236E-03    -8.02528E+06    -52.3035E+06     5.01108E+06     252.038E+03    -15.6165E-03     30.7029E-03    -15.0864E-03     31.3444E-03    -15.5909E-03     30.4486E-03    -14.9739E-03     31.3408E-03
            1728     7.09325E-03     37.8961E-03    -9.42186E+06    -53.3874E+06     3.29338E+06     438.419E+03    -15.4518E-03     30.4942E-03    -15.0424E-03     27.2009E-03    -15.4281E-03     30.2380E-03    -14.9349E-03     27.2013E-03
            1729     6.20684E-03     37.8722E-03    -11.0904E+06    -55.1615E+06     1.12409E+06     275.015E+03    -15.3080E-03     30.3080E-03    -15.0000E-03     23.2167E-03    -15.2863E-03     30.0478E-03    -14.8983E-03     23.2162E-03
            1730     5.32032E-03     37.8521E-03    -13.0372E+06     -56.432E+06    -1.59867E+06     227.997E+03    -15.1765E-03     30.1334E-03    -14.9569E-03     19.4245E-03    -15.1583E-03     29.8733E-03    -14.8642E-03     19.4243E-03
            1731     4.43375E-03     37.8353E-03    -15.0936E+06    -58.7271E+06    -5.02372E+06     214.146E+03    -15.0590E-03     29.9744E-03    -14.9154E-03     15.8426E-03    -15.0425E-03     29.7104E-03    -14.8335E-03     15.8430E-03
            1732     3.54708E-03     37.8219E-03    -17.0214E+06    -60.4200E+06    -9.13184E+06     218.048E+03    -14.9588E-03     29.8327E-03    -14.8738E-03     12.4534E-03    -14.9433E-03     29.5687E-03    -14.8072E-03     12.4544E-03
            1733     2.66039E-03     37.8116E-03    -18.7599E+06    -61.9353E+06    -13.6356E+06     231.928E+03    -14.8792E-03     29.7141E-03    -14.8349E-03     9.20211E-03    -14.8635E-03     29.4515E-03    -14.7861E-03     9.20384E-03
            1734     1.77361E-03     37.8044E-03    -20.3120E+06    -64.4666E+06    -17.6835E+06     173.972E+03    -14.8215E-03     29.6273E-03    -14.8058E-03     6.10557E-03    -14.8039E-03     29.3601E-03    -14.7713E-03     6.10700E-03
            1735     886.780E-06     37.7999E-03    -21.1258E+06    -66.4416E+06    -20.4037E+06     6.70070E+03    -14.7833E-03     29.5802E-03    -14.7969E-03     3.19773E-03    -14.7625E-03     29.3087E-03    -14.7720E-03     3.19741E-03
            1736     16.8393E-03     37.5254E-03    -2.41099E+06     118.957E+06     22.0624E+06    -308.364E+03    -17.2651E-03     32.5111E-03    -15.2461E-03     96.0422E-03    -18.3020E-03     33.8978E-03    -15.3047E-03     96.5820E-03
            1737     15.9545E-03     37.4056E-03    -2.59151E+06     60.8818E+06    -18.6601E+06    -331.641E+03    -18.3088E-03     33.4114E-03    -15.1026E-03     110.775E-03    -19.1053E-03     34.4690E-03    -15.2805E-03     110.964E-03
            1738     15.0684E-03     37.3185E-03    -2.30260E+06     26.8331E+06    -2.03365E+06    -207.289E+03    -17.2670E-03     32.4705E-03    -15.2035E-03     80.6915E-03    -17.5027E-03     32.7993E-03    -15.2493E-03     80.6638E-03
            1739     14.1826E-03     37.2550E-03    -2.14479E+06     3.46605E+06     2.37599E+06     188.057E+03    -16.7668E-03     31.9931E-03    -15.2263E-03     64.9288E-03    -16.8638E-03     32.0879E-03    -15.2163E-03     64.8918E-03
            1740     13.2966E-03     37.1971E-03    -2.07338E+06    -24.6621E+06    -1.39935E+06     332.757E+03    -16.6642E-03     31.8754E-03    -15.2112E-03     59.7869E-03    -16.6844E-03     31.8048E-03    -15.1795E-03     59.7554E-03
            1741     12.4107E-03     37.1432E-03    -2.62433E+06    -35.1733E+06     2.71057E+06     121.363E+03    -16.4802E-03     31.6878E-03    -15.2076E-03     53.9293E-03    -16.4745E-03     31.5401E-03    -15.1393E-03     53.9027E-03
            1742     11.5247E-03     37.0960E-03    -3.44215E+06    -36.6407E+06     5.59214E+06     300.946E+03    -16.2816E-03     31.4643E-03    -15.1827E-03     48.3930E-03    -16.2708E-03     31.2949E-03    -15.0966E-03     48.3755E-03
            1743     10.6387E-03     37.0524E-03    -4.18848E+06    -44.2753E+06     5.06276E+06     264.626E+03    -16.1374E-03     31.2844E-03    -15.1469E-03     44.0245E-03    -16.1123E-03     31.0725E-03    -15.0513E-03     44.0117E-03
            1744     9.75254E-03     37.0132E-03    -5.26306E+06    -47.6490E+06     6.29875E+06     359.955E+03    -15.9721E-03     31.0841E-03    -15.1120E-03     39.7104E-03    -15.9454E-03     30.8513E-03    -15.0037E-03     39.7028E-03
            1745     8.86641E-03     36.9776E-03    -6.61944E+06    -49.1805E+06     5.86275E+06     524.001E+03    -15.7858E-03     30.8514E-03    -15.0656E-03     35.3822E-03    -15.7604E-03     30.6110E-03    -14.9554E-03     35.3799E-03
            1746     7.98012E-03     36.9464E-03    -8.15921E+06    -52.4514E+06     4.83617E+06     343.532E+03    -15.6071E-03     30.6270E-03    -15.0199E-03     31.0958E-03    -15.5817E-03     30.3724E-03    -14.9078E-03     31.0934E-03
            1747     7.09379E-03     36.9188E-03    -9.81861E+06    -53.3332E+06     3.13291E+06     330.023E+03    -15.4288E-03     30.3980E-03    -14.9692E-03     26.9639E-03    -15.4069E-03     30.1429E-03    -14.8620E-03     26.9630E-03
            1748     6.20732E-03     36.8952E-03    -11.5023E+06    -54.9414E+06     783.907E+03     345.772E+03    -15.2628E-03     30.1824E-03    -14.9195E-03     22.9938E-03    -15.2430E-03     29.9244E-03    -14.8193E-03     22.9943E-03
            1749     5.32076E-03     36.8751E-03    -13.3356E+06    -56.4491E+06    -1.88731E+06     280.103E+03    -15.1159E-03     29.9878E-03    -14.8720E-03     19.2208E-03    -15.0987E-03     29.7284E-03    -14.7802E-03     19.2214E-03
            1750     4.43414E-03     36.8586E-03    -15.2733E+06    -58.5347E+06    -5.26350E+06     233.756E+03    -14.9900E-03     29.8158E-03    -14.8259E-03     15.6644E-03    -14.9743E-03     29.5534E-03    -14.7452E-03     15.6650E-03
            1751     3.54742E-03     36.8453E-03    -17.3071E+06    -60.4130E+06    -9.45666E+06     151.454E+03    -14.8782E-03     29.6586E-03    -14.7804E-03     12.2979E-03    -14.8637E-03     29.3956E-03    -14.7150E-03     12.2981E-03
            1752     2.66060E-03     36.8351E-03    -19.1100E+06    -61.8354E+06    -13.8642E+06     138.408E+03    -14.7944E-03     29.5324E-03    -14.7380E-03     9.07994E-03    -14.7802E-03     29.2711E-03    -14.6900E-03     9.08048E-03
            1753     1.77380E-03     36.8279E-03    -20.3281E+06    -64.2266E+06    -17.8089E+06    -18.8998E+03    -14.7332E-03     29.4362E-03    -14.7030E-03     6.00340E-03    -14.7159E-03     29.1704E-03    -14.6694E-03     6.00236E-03
            1754     886.924E-06     36.8236E-03    -21.1717E+06    -66.5038E+06    -20.6208E+06    -38.3014E+03    -14.6816E-03     29.3684E-03    -14.6868E-03     3.14054E-03    -14.6607E-03     29.0970E-03    -14.6628E-03     3.13964E-03
            1755     16.8413E-03     36.5467E-03    -3.64996E+06     119.079E+06     20.8637E+06     293.693E+03    -17.4015E-03     32.6296E-03    -15.2281E-03     96.0463E-03    -18.4404E-03     34.0177E-03    -15.2911E-03     96.5897E-03
            1756     15.9544E-03     36.4277E-03    -4.77443E+06     61.7295E+06    -19.1534E+06    -323.971E+03    -18.3202E-03     33.4027E-03    -15.0825E-03     110.347E-03    -19.1235E-03     34.4637E-03    -15.2609E-03     110.536E-03
            1757     15.0688E-03     36.3399E-03    -3.99342E+06     26.8017E+06    -2.72971E+06    -983.789E+03    -17.2844E-03     32.4640E-03    -15.1795E-03     80.5103E-03    -17.5271E-03     32.7955E-03    -15.2263E-03     80.4724E-03
            1758     14.1828E-03     36.2772E-03    -3.35290E+06     2.48901E+06     1.73170E+06    -558.108E+03    -16.7962E-03     31.9957E-03    -15.1995E-03     64.7800E-03    -16.8964E-03     32.0878E-03    -15.1896E-03     64.7333E-03
            1759     13.2971E-03     36.2189E-03    -3.15647E+06    -24.7113E+06    -1.63472E+06     212.232E+03    -16.7139E-03     31.8939E-03    -15.1800E-03     59.6381E-03    -16.7390E-03     31.8248E-03    -15.1477E-03     59.6049E-03
            1760     12.4111E-03     36.1656E-03    -3.19457E+06    -35.0430E+06     2.58240E+06     333.861E+03    -16.5289E-03     31.6984E-03    -15.1696E-03     53.7939E-03    -16.5259E-03     31.5522E-03    -15.1012E-03     53.7700E-03
            1761     11.5252E-03     36.1180E-03    -3.71587E+06    -36.8803E+06     5.49653E+06     320.028E+03    -16.3277E-03     31.4655E-03    -15.1378E-03     48.1927E-03    -16.3176E-03     31.2954E-03    -15.0515E-03     48.1754E-03
            1762     10.6392E-03     36.0750E-03    -4.58993E+06    -43.9787E+06     5.03157E+06     366.649E+03    -16.1736E-03     31.2677E-03    -15.0941E-03     43.7973E-03    -16.1508E-03     31.0579E-03    -14.9985E-03     43.7858E-03
            1763     9.75317E-03     36.0355E-03    -5.52840E+06    -48.0172E+06     6.03996E+06     405.281E+03    -15.9918E-03     31.0426E-03    -15.0508E-03     39.4579E-03    -15.9654E-03     30.8086E-03    -14.9430E-03     39.4510E-03
            1764     8.86700E-03     36.0004E-03    -6.60914E+06    -49.1173E+06     5.93958E+06     621.183E+03    -15.7898E-03     30.7872E-03    -14.9974E-03     35.1113E-03    -15.7646E-03     30.5469E-03    -14.8869E-03     35.1104E-03
            1765     7.98075E-03     35.9690E-03    -8.02759E+06    -52.1072E+06     4.94107E+06     551.541E+03    -15.5951E-03     30.5386E-03    -14.9435E-03     30.8266E-03    -15.5697E-03     30.2853E-03    -14.8316E-03     30.8270E-03
            1766     7.09437E-03     35.9419E-03    -9.63334E+06    -53.3653E+06     3.26734E+06     364.765E+03    -15.4013E-03     30.2873E-03    -14.8859E-03     26.6858E-03    -15.3786E-03     30.0315E-03    -14.7782E-03     26.6854E-03
            1767     6.20788E-03     35.9183E-03    -11.3109E+06    -54.7393E+06     974.179E+03     292.052E+03    -15.2138E-03     30.0430E-03    -14.8293E-03     22.7325E-03    -15.1935E-03     29.7855E-03    -14.7286E-03     22.7324E-03
            1768     5.32130E-03     35.8985E-03    -13.0690E+06    -56.4766E+06    -1.83647E+06     282.335E+03    -15.0481E-03     29.8237E-03    -14.7756E-03     18.9812E-03    -15.0297E-03     29.5637E-03    -14.6840E-03     18.9818E-03
            1769     4.43455E-03     35.8820E-03    -15.0691E+06    -58.4094E+06    -5.11268E+06     334.911E+03    -14.9094E-03     29.6347E-03    -14.7252E-03     15.4394E-03    -14.8931E-03     29.3723E-03    -14.6443E-03     15.4415E-03
            1770     3.54778E-03     35.8689E-03    -17.1772E+06    -60.2319E+06    -9.20642E+06     242.042E+03    -14.7931E-03     29.4685E-03    -14.6754E-03     12.0970E-03    -14.7785E-03     29.2058E-03    -14.6092E-03     12.0984E-03
            1771     2.66094E-03     35.8587E-03    -19.0344E+06    -61.6412E+06    -14.0133E+06    -6.49872E+03    -14.6933E-03     29.3200E-03    -14.6268E-03     8.92853E-03    -14.6789E-03     29.0599E-03    -14.5798E-03     8.92723E-03
            1772     1.77398E-03     35.8517E-03    -20.5984E+06    -64.1857E+06    -18.2042E+06    -42.5415E+03    -14.6259E-03     29.2137E-03    -14.5877E-03     5.88945E-03    -14.6094E-03     28.9490E-03    -14.5558E-03     5.88813E-03
            1773     887.011E-06     35.8474E-03    -21.6345E+06    -66.5899E+06    -20.9562E+06     2.78187E+03    -14.5765E-03     29.1348E-03    -14.5583E-03     3.08749E-03    -14.5573E-03     28.8641E-03    -14.5351E-03     3.08712E-03
            1774     16.8399E-03     35.5681E-03    -4.08396E+06     119.949E+06     21.2530E+06     1.08936E+06    -17.6496E-03     32.8623E-03    -15.2127E-03     95.6449E-03    -18.6897E-03     34.2521E-03    -15.2745E-03     96.1927E-03
            1775     15.9554E-03     35.4492E-03    -3.25677E+06     63.1745E+06    -18.8277E+06    -551.262E+03    -18.3488E-03     33.4027E-03    -15.0539E-03     110.090E-03    -19.1449E-03     34.4661E-03    -15.2349E-03     110.274E-03
            1776     15.0692E-03     35.3621E-03    -2.51840E+06     26.4322E+06    -2.49073E+06    -1.15016E+06    -17.2873E-03     32.4379E-03    -15.1506E-03     80.3816E-03    -17.5212E-03     32.7639E-03    -15.1978E-03     80.3411E-03
            1777     14.1834E-03     35.2988E-03    -3.06422E+06     1.67093E+06     1.47558E+06    -680.936E+03    -16.7951E-03     31.9639E-03    -15.1688E-03     64.6811E-03    -16.8918E-03     32.0514E-03    -15.1594E-03     64.6329E-03
            1778     13.2974E-03     35.2411E-03    -3.26354E+06    -25.4018E+06    -2.06868E+06    -97.8016E+03    -16.7787E-03     31.9231E-03    -15.1444E-03     59.4931E-03    -16.8025E-03     31.8512E-03    -15.1132E-03     59.4559E-03
            1779     12.4117E-03     35.1875E-03    -3.44847E+06    -34.8743E+06     2.26576E+06     281.786E+03    -16.5974E-03     31.7234E-03    -15.1259E-03     53.6069E-03    -16.5953E-03     31.5786E-03    -15.0591E-03     53.5823E-03
            1780     11.5258E-03     35.1404E-03    -4.02466E+06    -37.0215E+06     5.16488E+06     326.284E+03    -16.3855E-03     31.4716E-03    -15.0861E-03     47.9994E-03    -16.3761E-03     31.3016E-03    -15.0008E-03     47.9823E-03
            1781     10.6399E-03     35.0971E-03    -4.77512E+06    -43.9754E+06     4.88293E+06     468.624E+03    -16.2239E-03     31.2576E-03    -15.0337E-03     43.5569E-03    -16.2017E-03     31.0482E-03    -14.9386E-03     43.5468E-03
            1782     9.75382E-03     35.0581E-03    -5.85872E+06    -47.9783E+06     5.81195E+06     457.946E+03    -16.0151E-03     30.9959E-03    -14.9808E-03     39.1791E-03    -15.9900E-03     30.7628E-03    -14.8737E-03     39.1730E-03
            1783     8.86770E-03     35.0230E-03    -7.01860E+06    -49.2820E+06     5.63787E+06     454.083E+03    -15.7960E-03     30.7143E-03    -14.9183E-03     34.8107E-03    -15.7721E-03     30.4742E-03    -14.8085E-03     34.8077E-03
            1784     7.98143E-03     34.9921E-03    -8.17135E+06    -51.8437E+06     4.88423E+06     548.327E+03    -15.5841E-03     30.4396E-03    -14.8555E-03     30.5135E-03    -15.5596E-03     30.1879E-03    -14.7441E-03     30.5140E-03
            1785     7.09507E-03     34.9648E-03    -9.64868E+06    -53.1308E+06     3.28209E+06     390.228E+03    -15.3665E-03     30.1560E-03    -14.7894E-03     26.3673E-03    -15.3442E-03     29.9013E-03    -14.6820E-03     26.3673E-03
            1786     6.20854E-03     34.9417E-03    -11.3344E+06    -54.6716E+06     1.03326E+06     258.945E+03    -15.1590E-03     29.8843E-03    -14.7253E-03     22.4249E-03    -15.1391E-03     29.6270E-03    -14.6244E-03     22.4244E-03
            1787     5.32186E-03     34.9219E-03    -13.2723E+06    -56.5346E+06    -1.91746E+06     355.963E+03    -14.9729E-03     29.6372E-03    -14.6643E-03     18.7017E-03    -14.9552E-03     29.3772E-03    -14.5726E-03     18.7033E-03
            1788     4.43512E-03     34.9057E-03    -15.2465E+06    -58.2649E+06    -5.23378E+06     366.531E+03    -14.8135E-03     29.4212E-03    -14.6077E-03     15.1994E-03    -14.7981E-03     29.1600E-03    -14.5273E-03     15.2019E-03
            1789     3.54822E-03     34.8926E-03    -16.9789E+06    -59.8357E+06    -9.24438E+06     99.8463E+03    -14.6825E-03     29.2361E-03    -14.5536E-03     11.9031E-03    -14.6674E-03     28.9751E-03    -14.4884E-03     11.9027E-03
            1790     2.66124E-03     34.8827E-03    -18.5867E+06    -61.6061E+06    -13.6927E+06    -31.1354E+03    -14.5792E-03     29.0832E-03    -14.5041E-03     8.77468E-03    -14.5630E-03     28.8221E-03    -14.4563E-03     8.77308E-03
            1791     1.77422E-03     34.8756E-03    -19.9003E+06    -64.2926E+06    -17.6229E+06     32.7522E+03    -14.5015E-03     28.9669E-03    -14.4654E-03     5.77995E-03    -14.4822E-03     28.6999E-03    -14.4315E-03     5.77961E-03
            1792     887.133E-06     34.8716E-03    -20.6813E+06    -66.5071E+06    -20.1381E+06    -52.1585E+03    -14.4269E-03     28.8933E-03    -14.4665E-03     3.01266E-03    -14.4042E-03     28.6204E-03    -14.4407E-03     3.01159E-03
            1793     16.8422E-03     34.5898E-03    -734.132E+03     120.520E+06     25.5690E+06     787.737E+03    -17.8303E-03     33.0486E-03    -15.2183E-03     95.3983E-03    -18.8566E-03     34.4260E-03    -15.2642E-03     95.9342E-03
            1794     15.9552E-03     34.4710E-03    -775.339E+03     64.7830E+06    -17.4488E+06     451.402E+03    -18.4694E-03     33.5054E-03    -15.0360E-03     109.997E-03    -19.2557E-03     34.5695E-03    -15.2161E-03     110.191E-03
            1795     15.0698E-03     34.3838E-03    -1.69959E+06     26.3530E+06    -2.27608E+06    -152.220E+03    -17.3215E-03     32.4480E-03    -15.1265E-03     80.3766E-03    -17.5508E-03     32.7714E-03    -15.1736E-03     80.3488E-03
            1796     14.1837E-03     34.3211E-03    -2.62310E+06     1.31261E+06     1.50620E+06    -262.183E+03    -16.8635E-03     32.0038E-03    -15.1403E-03     64.8119E-03    -16.9574E-03     32.0887E-03    -15.1308E-03     64.7689E-03
            1797     13.2980E-03     34.2627E-03    -3.16371E+06    -25.9656E+06    -2.23874E+06    -26.2706E+03    -16.8744E-03     31.9829E-03    -15.1085E-03     59.4346E-03    -16.8965E-03     31.9081E-03    -15.0775E-03     59.3981E-03
            1798     12.4122E-03     34.2097E-03    -3.52076E+06    -35.0141E+06     2.22855E+06     261.734E+03    -16.6896E-03     31.7705E-03    -15.0809E-03     53.4365E-03    -16.6874E-03     31.6250E-03    -15.0139E-03     53.4116E-03
            1799     11.5264E-03     34.1624E-03    -4.08614E+06    -36.9873E+06     5.08432E+06     362.882E+03    -16.4697E-03     31.4997E-03    -15.0300E-03     47.8011E-03    -16.4604E-03     31.3298E-03    -14.9450E-03     47.7845E-03
            1800     10.6405E-03     34.1196E-03    -4.88226E+06    -44.2252E+06     4.78748E+06     477.590E+03    -16.2918E-03     31.2583E-03    -14.9665E-03     43.2561E-03    -16.2695E-03     31.0477E-03    -14.8713E-03     43.2462E-03
            1801     9.75461E-03     34.0806E-03    -5.80489E+06    -47.7303E+06     5.96855E+06     604.572E+03    -16.0576E-03     30.9597E-03    -14.9022E-03     38.8277E-03    -16.0326E-03     30.7274E-03    -14.7947E-03     38.8236E-03
            1802     8.86848E-03     34.0458E-03    -7.03228E+06    -49.1796E+06     5.58984E+06     375.867E+03    -15.8111E-03     30.6386E-03    -14.8275E-03     34.4514E-03    -15.7872E-03     30.3990E-03    -14.7181E-03     34.4474E-03
            1803     7.98226E-03     34.0149E-03    -8.31509E+06    -51.8920E+06     4.72183E+06     307.476E+03    -15.5672E-03     30.3211E-03    -14.7539E-03     30.1374E-03    -15.5431E-03     30.0696E-03    -14.6430E-03     30.1348E-03
            1804     7.09583E-03     33.9882E-03    -9.64923E+06    -52.8577E+06     3.09255E+06     355.054E+03    -15.3229E-03     30.0004E-03    -14.6775E-03     26.0041E-03    -15.3007E-03     29.7474E-03    -14.5714E-03     26.0038E-03
            1805     6.20927E-03     33.9650E-03    -11.4447E+06    -54.7897E+06     981.916E+03     437.706E+03    -15.0967E-03     29.7026E-03    -14.6059E-03     22.0766E-03    -15.0770E-03     29.4449E-03    -14.5049E-03     22.0784E-03
            1806     5.32258E-03     33.9456E-03    -13.5330E+06    -56.4830E+06    -1.80481E+06     532.547E+03    -14.8837E-03     29.4214E-03    -14.5377E-03     18.3852E-03    -14.8676E-03     29.1619E-03    -14.4452E-03     18.3892E-03
            1807     4.43567E-03     33.9295E-03    -15.5302E+06    -57.7820E+06    -5.48625E+06     197.732E+03    -14.6954E-03     29.1686E-03    -14.4732E-03     14.9331E-03    -14.6817E-03     28.9106E-03    -14.3943E-03     14.9335E-03
            1808     3.54870E-03     33.9167E-03    -17.3936E+06    -59.6235E+06    -9.76222E+06    -126.144E+03    -14.5485E-03     28.9645E-03    -14.4160E-03     11.6895E-03    -14.5351E-03     28.7060E-03    -14.3531E-03     11.6862E-03
            1809     2.66161E-03     33.9068E-03    -19.0296E+06    -61.7229E+06    -14.0711E+06    -137.988E+03    -14.4410E-03     28.8082E-03    -14.3671E-03     8.60577E-03    -14.4264E-03     28.5476E-03    -14.3204E-03     8.60282E-03
            1810     1.77446E-03     33.9000E-03    -20.2806E+06    -64.3685E+06    -17.9100E+06    -83.7517E+03    -14.3604E-03     28.6903E-03    -14.3299E-03     5.65785E-03    -14.3425E-03     28.4239E-03    -14.2967E-03     5.65603E-03
            1811     887.217E-06     33.8958E-03    -21.0086E+06    -66.4934E+06    -20.6591E+06    -24.9503E+03    -14.2991E-03     28.6229E-03    -14.3238E-03     2.93434E-03    -14.2774E-03     28.3514E-03    -14.3002E-03     2.93364E-03
            1812     16.8396E-03     33.6102E-03    -2.05465E+06     119.521E+06     23.2031E+06    -91.1943E+03    -17.7698E-03     32.9815E-03    -15.2117E-03     95.1016E-03    -18.7974E-03     34.3589E-03    -15.2661E-03     95.6211E-03
            1813     15.9560E-03     33.4924E-03    -3.00335E+06     65.0202E+06    -17.8422E+06     650.954E+03    -18.5971E-03     33.6337E-03    -15.0365E-03     110.074E-03    -19.3978E-03     34.7063E-03    -15.2157E-03     110.269E-03
            1814     15.0697E-03     33.4060E-03    -2.39164E+06     27.2248E+06    -1.83332E+06     587.521E+03    -17.5525E-03     32.6694E-03    -15.1169E-03     80.3187E-03    -17.7868E-03     32.9972E-03    -15.1621E-03     80.2983E-03
            1815     14.1840E-03     33.3426E-03    -2.78696E+06     1.16433E+06     1.61474E+06     163.101E+03    -17.0160E-03     32.1329E-03    -15.1169E-03     64.8443E-03    -17.1106E-03     32.2171E-03    -15.1065E-03     64.8062E-03
            1816     13.2984E-03     33.2847E-03    -3.14400E+06    -26.0988E+06    -2.09223E+06     184.045E+03    -17.0160E-03     32.0895E-03    -15.0736E-03     59.3213E-03    -17.0379E-03     32.0137E-03    -15.0416E-03     59.2872E-03
            1817     12.4128E-03     33.2315E-03    -3.46122E+06    -35.2567E+06     2.36601E+06     263.609E+03    -16.8350E-03     31.8679E-03    -15.0329E-03     53.1785E-03    -16.8321E-03     31.7207E-03    -14.9649E-03     53.1535E-03
            1818     11.5271E-03     33.1846E-03    -4.03653E+06    -36.9488E+06     5.23775E+06     381.673E+03    -16.5934E-03     31.5603E-03    -14.9669E-03     47.4771E-03    -16.5840E-03     31.3902E-03    -14.8813E-03     47.4606E-03
            1819     10.6414E-03     33.1418E-03    -4.72769E+06    -44.3709E+06     4.82480E+06     445.611E+03    -16.3715E-03     31.2601E-03    -14.8886E-03     42.8568E-03    -16.3481E-03     31.0484E-03    -14.7933E-03     42.8465E-03
            1820     9.75547E-03     33.1032E-03    -5.53503E+06    -47.6965E+06     6.03010E+06     516.378E+03    -16.1082E-03     30.9184E-03    -14.8103E-03     38.4086E-03    -16.0819E-03     30.6857E-03    -14.7029E-03     38.4034E-03
            1821     8.86944E-03     33.0685E-03    -6.64459E+06    -48.8730E+06     5.68522E+06     529.910E+03    -15.8282E-03     30.5502E-03    -14.7220E-03     34.0137E-03    -15.8029E-03     30.3113E-03    -14.6131E-03     34.0119E-03
            1822     7.98317E-03     33.0381E-03    -8.18791E+06    -51.8251E+06     4.50368E+06     344.614E+03    -15.5453E-03     30.1808E-03    -14.6355E-03     29.6972E-03    -15.5202E-03     29.9296E-03    -14.5260E-03     29.6951E-03
            1823     7.09676E-03     33.0114E-03    -9.96845E+06    -52.9677E+06     2.74951E+06     423.250E+03    -15.2683E-03     29.8171E-03    -14.5488E-03     25.5772E-03    -15.2470E-03     29.5644E-03    -14.4438E-03     25.5778E-03
            1824     6.21012E-03     32.9887E-03    -11.7399E+06    -54.7924E+06     828.807E+03     567.662E+03    -15.0128E-03     29.4815E-03    -14.4688E-03     21.6797E-03    -14.9943E-03     29.2245E-03    -14.3681E-03     21.6833E-03
            1825     5.32332E-03     32.9694E-03    -13.4295E+06    -56.2359E+06    -1.63757E+06     424.109E+03    -14.7774E-03     29.1710E-03    -14.3936E-03     18.0281E-03    -14.7614E-03     28.9124E-03    -14.3007E-03     18.0308E-03
            1826     4.43638E-03     32.9537E-03    -15.2711E+06    -57.2441E+06    -5.18588E+06     165.318E+03    -14.5689E-03     28.8919E-03    -14.3230E-03     14.6236E-03    -14.5551E-03     28.6357E-03    -14.2438E-03     14.6236E-03
            1827     3.54924E-03     32.9409E-03    -17.2822E+06    -59.5138E+06    -9.58030E+06    -129.849E+03    -14.4033E-03     28.6653E-03    -14.2620E-03     11.4294E-03    -14.3898E-03     28.4069E-03    -14.1985E-03     11.4261E-03
            1828     2.66202E-03     32.9313E-03    -19.1025E+06    -61.8095E+06    -14.3239E+06    -220.126E+03    -14.2815E-03     28.4922E-03    -14.2107E-03     8.40782E-03    -14.2667E-03     28.2318E-03    -14.1650E-03     8.40385E-03
            1829     1.77471E-03     32.9244E-03    -20.5278E+06    -64.5309E+06    -18.1778E+06    -178.414E+03    -14.2040E-03     28.3786E-03    -14.1746E-03     5.50866E-03    -14.1867E-03     28.1121E-03    -14.1421E-03     5.50564E-03
            1830     887.383E-06     32.9206E-03    -21.5166E+06    -66.6168E+06    -20.7132E+06     46.1328E+03    -14.1788E-03     28.3122E-03    -14.1335E-03     2.88566E-03    -14.1593E-03     28.0409E-03    -14.1092E-03     2.88590E-03
            1831     16.8424E-03     32.6330E-03    -2.47870E+06     119.105E+06     22.7489E+06     64.3997E+03    -17.9805E-03     33.2147E-03    -15.2342E-03     96.2993E-03    -19.0198E-03     34.6021E-03    -15.2896E-03     96.8187E-03
            1832     15.9543E-03     32.5131E-03    -2.67199E+06     64.5701E+06    -17.6985E+06     145.807E+03    -19.1495E-03     34.1896E-03    -15.0401E-03     109.011E-03    -19.9434E-03     35.2546E-03    -15.2183E-03     109.180E-03
            1833     15.0701E-03     32.4273E-03    -2.16893E+06     27.6972E+06    -1.46954E+06     605.753E+03    -17.5929E-03     32.6942E-03    -15.1013E-03     79.6410E-03    -17.8240E-03     33.0201E-03    -15.1456E-03     79.6198E-03
            1834     14.1844E-03     32.3646E-03    -2.63008E+06     1.53286E+06     1.82360E+06     413.554E+03    -17.2329E-03     32.3235E-03    -15.0906E-03     64.8175E-03    -17.3277E-03     32.4091E-03    -15.0799E-03     64.7818E-03
            1835     13.2989E-03     32.3062E-03    -2.84746E+06    -26.2930E+06    -2.19845E+06     237.814E+03    -17.2500E-03     32.2791E-03    -15.0291E-03     58.9665E-03    -17.2696E-03     32.2016E-03    -14.9979E-03     58.9326E-03
            1836     12.4136E-03     32.2535E-03    -3.09308E+06    -35.2476E+06     2.39704E+06     423.249E+03    -17.0003E-03     31.9710E-03    -14.9707E-03     52.7186E-03    -16.9952E-03     31.8229E-03    -14.9031E-03     52.6955E-03
            1837     11.5281E-03     32.2065E-03    -3.76037E+06    -37.0104E+06     5.08464E+06     413.605E+03    -16.7105E-03     31.5983E-03    -14.8878E-03     46.9995E-03    -16.6992E-03     31.4275E-03    -14.8032E-03     46.9835E-03
            1838     10.6423E-03     32.1642E-03    -4.57468E+06    -44.3227E+06     4.52566E+06     455.251E+03    -16.4454E-03     31.2389E-03    -14.7935E-03     42.3596E-03    -16.4207E-03     31.0274E-03    -14.6999E-03     42.3496E-03
            1839     9.75655E-03     32.1257E-03    -5.55243E+06    -47.7699E+06     5.64928E+06     482.413E+03    -16.1499E-03     30.8504E-03    -14.7006E-03     37.9114E-03    -16.1229E-03     30.6178E-03    -14.5950E-03     37.9059E-03
            1840     8.87050E-03     32.0916E-03    -6.64913E+06    -48.7469E+06     5.43042E+06     516.239E+03    -15.8323E-03     30.4310E-03    -14.5987E-03     33.4967E-03    -15.8067E-03     30.1930E-03    -14.4912E-03     33.4947E-03
            1841     7.98427E-03     32.0612E-03    -7.95898E+06    -51.7428E+06     4.66859E+06     630.791E+03    -15.5147E-03     30.0158E-03    -14.5011E-03     29.1931E-03    -15.4888E-03     29.7644E-03    -14.3912E-03     29.1949E-03
            1842     7.09779E-03     32.0351E-03    -9.66956E+06    -53.0546E+06     3.04576E+06     695.143E+03    -15.2026E-03     29.6063E-03    -14.4037E-03     25.0987E-03    -15.1801E-03     29.3523E-03    -14.2975E-03     25.1029E-03
            1843     6.21111E-03     32.0125E-03    -11.5000E+06    -54.4875E+06     919.990E+03     533.700E+03    -14.9098E-03     29.2225E-03    -14.3127E-03     21.2429E-03    -14.8906E-03     28.9664E-03    -14.2124E-03     21.2462E-03
            1844     5.32421E-03     31.9937E-03    -13.3827E+06    -55.9493E+06    -1.63618E+06     273.192E+03    -14.6500E-03     28.8800E-03    -14.2300E-03     17.6382E-03    -14.6340E-03     28.6226E-03    -14.1376E-03     17.6390E-03
            1845     4.43709E-03     31.9780E-03    -15.2964E+06    -56.9094E+06    -5.10290E+06     44.4465E+03    -14.4258E-03     28.5794E-03    -14.1536E-03     14.2928E-03    -14.4128E-03     28.3249E-03    -14.0744E-03     14.2913E-03
            1846     3.54989E-03     31.9656E-03    -17.1570E+06    -59.3989E+06    -9.52128E+06    -88.4492E+03    -14.2444E-03     28.3319E-03    -14.0876E-03     11.1650E-03    -14.2304E-03     28.0739E-03    -14.0242E-03     11.1623E-03
            1847     2.66250E-03     31.9560E-03    -18.9452E+06    -61.8708E+06    -14.1985E+06    -136.145E+03    -14.1082E-03     28.1424E-03    -14.0341E-03     8.21013E-03    -14.0927E-03     27.8811E-03    -13.9879E-03     8.20727E-03
            1848     1.77505E-03     31.9494E-03    -20.3991E+06    -64.7354E+06    -18.1587E+06    -69.8214E+03    -14.0291E-03     28.0253E-03    -13.9962E-03     5.38876E-03    -14.0109E-03     27.7576E-03    -13.9635E-03     5.38716E-03
            1849     887.531E-06     31.9453E-03    -21.4437E+06    -66.7198E+06    -20.7682E+06     25.1233E+03    -13.9980E-03     27.9537E-03    -13.9557E-03     2.81234E-03    -13.9780E-03     27.6818E-03    -13.9317E-03     2.81231E-03
            1850     16.8360E-03     31.6484E-03    -3.30366E+06     119.592E+06     22.9958E+06     48.0991E+03    -17.9224E-03     33.1634E-03    -15.2410E-03     96.7543E-03    -18.9609E-03     34.5482E-03    -15.2947E-03     97.2746E-03
            1851     15.9578E-03     31.5347E-03    -3.17622E+06     64.8524E+06    -18.3735E+06    -53.6938E+03    -19.1979E-03     34.2377E-03    -15.0398E-03     107.894E-03    -19.9738E-03     35.2858E-03    -15.2211E-03     108.053E-03
            1852     15.0702E-03     31.4497E-03    -2.72784E+06     26.9616E+06    -2.74212E+06     282.502E+03    -17.9847E-03     33.0702E-03    -15.0854E-03     80.2093E-03    -18.2167E-03     33.3961E-03    -15.1343E-03     80.1824E-03
            1853     14.1847E-03     31.3855E-03    -2.06255E+06     2.04062E+06     1.65253E+06     539.107E+03    -17.6662E-03     32.7170E-03    -15.0508E-03     64.5077E-03    -17.7586E-03     32.8046E-03    -15.0425E-03     64.4721E-03
            1854     13.2999E-03     31.3280E-03    -2.32476E+06    -26.3052E+06    -2.68239E+06     519.247E+03    -17.4758E-03     32.4394E-03    -14.9636E-03     58.3494E-03    -17.4916E-03     32.3613E-03    -14.9355E-03     58.3188E-03
            1855     12.4146E-03     31.2751E-03    -2.82941E+06    -35.3995E+06     1.89873E+06     598.458E+03    -17.1424E-03     32.0297E-03    -14.8873E-03     52.1852E-03    -17.1349E-03     31.8809E-03    -14.8223E-03     52.1643E-03
            1856     11.5291E-03     31.2287E-03    -3.53211E+06    -36.8318E+06     4.74908E+06     685.032E+03    -16.7977E-03     31.5865E-03    -14.7888E-03     46.4314E-03    -16.7848E-03     31.4165E-03    -14.7065E-03     46.4189E-03
            1857     10.6436E-03     31.1865E-03    -4.51693E+06    -44.3614E+06     4.18820E+06     639.330E+03    -16.5001E-03     31.1802E-03    -14.6801E-03     41.7973E-03    -16.4743E-03     30.9688E-03    -14.5883E-03     41.7897E-03
            1858     9.75776E-03     31.1485E-03    -5.61012E+06    -47.6500E+06     5.50610E+06     652.829E+03    -16.1694E-03     30.7430E-03    -14.5736E-03     37.3450E-03    -16.1426E-03     30.5111E-03    -14.4688E-03     37.3419E-03
            1859     8.87178E-03     31.1145E-03    -7.00543E+06    -48.7336E+06     5.31716E+06     619.606E+03    -15.8143E-03     30.2729E-03    -14.4586E-03     32.9326E-03    -15.7902E-03     30.0356E-03    -14.3512E-03     32.9322E-03
            1860     7.98548E-03     31.0848E-03    -8.49198E+06    -51.7768E+06     4.53978E+06     657.050E+03    -15.4625E-03     29.8110E-03    -14.3485E-03     28.6506E-03    -15.4389E-03     29.5603E-03    -14.2384E-03     28.6528E-03
            1861     7.09898E-03     31.0588E-03    -9.81564E+06    -52.9253E+06     3.00316E+06     666.630E+03    -15.1167E-03     29.3558E-03    -14.2391E-03     24.5878E-03    -15.0949E-03     29.1026E-03    -14.1331E-03     24.5918E-03
            1862     6.21218E-03     31.0367E-03    -11.3306E+06    -54.1337E+06     1.03709E+06     564.116E+03    -14.7954E-03     28.9336E-03    -14.1382E-03     20.7705E-03    -14.7761E-03     28.6788E-03    -14.0380E-03     20.7743E-03
            1863     5.32517E-03     31.0180E-03    -13.1200E+06    -55.4922E+06    -1.54411E+06     202.393E+03    -14.5061E-03     28.5530E-03    -14.0469E-03     17.2170E-03    -14.4897E-03     28.2975E-03    -13.9551E-03     17.2170E-03
            1864     4.43797E-03     31.0028E-03    -15.0327E+06    -56.8163E+06    -5.12939E+06    -35.9765E+03    -14.2605E-03     28.2249E-03    -13.9645E-03     13.9318E-03    -14.2462E-03     27.9705E-03    -13.8859E-03     13.9293E-03
            1865     3.55054E-03     30.9905E-03    -17.0418E+06    -59.3420E+06    -9.52068E+06    -51.0638E+03    -14.0669E-03     27.9611E-03    -13.8942E-03     10.8690E-03    -14.0525E-03     27.7031E-03    -13.8311E-03     10.8668E-03
            1866     2.66303E-03     30.9812E-03    -18.8497E+06    -61.9394E+06    -14.1060E+06    -49.2994E+03    -13.9217E-03     27.7592E-03    -13.8375E-03     7.99496E-03    -13.9057E-03     27.4973E-03    -13.7909E-03     7.99326E-03
            1867     1.77537E-03     30.9746E-03    -20.2784E+06    -64.8545E+06    -17.9595E+06     26.5272E+03    -13.8326E-03     27.6302E-03    -13.7976E-03     5.25852E-03    -13.8139E-03     27.3614E-03    -13.7640E-03     5.25818E-03
            1868     887.719E-06     30.9708E-03    -21.0502E+06    -66.6514E+06    -20.6026E+06     107.666E+03    -13.7784E-03     27.5548E-03    -13.7763E-03     2.71829E-03    -13.7568E-03     27.2824E-03    -13.7522E-03     2.71933E-03
            1869     16.8455E-03     30.6707E-03     418.897E+03     120.043E+06     25.4148E+06     903.338E+03    -17.7280E-03     32.9187E-03    -15.1907E-03     95.4562E-03    -18.7301E-03     34.2748E-03    -15.2383E-03     95.9831E-03
            1870     15.9522E-03     30.5559E-03     43.1520E+03     64.2824E+06    -16.9426E+06    -21.1027E+03    -18.4069E-03     33.4171E-03    -15.0102E-03     107.079E-03    -19.1557E-03     34.4433E-03    -15.1882E-03     107.252E-03
            1871     15.0698E-03     30.4695E-03    -2.71340E+06     26.2506E+06    -2.84734E+06    -158.831E+03    -18.6580E-03     33.7089E-03    -15.0509E-03     78.8326E-03    -18.8912E-03     34.0338E-03    -15.0993E-03     78.7947E-03
            1872     14.1861E-03     30.4068E-03    -3.11146E+06     1.94087E+06     1.38710E+06     192.775E+03    -17.9231E-03     32.9052E-03    -14.9821E-03     63.2807E-03    -18.0196E-03     32.9935E-03    -14.9734E-03     63.2395E-03
            1873     13.3009E-03     30.3492E-03    -3.18453E+06    -26.2415E+06    -2.76353E+06     575.438E+03    -17.5321E-03     32.4103E-03    -14.8782E-03     57.7011E-03    -17.5516E-03     32.3334E-03    -14.8493E-03     57.6711E-03
            1874     12.4158E-03     30.2970E-03    -3.27874E+06    -35.5852E+06     1.83146E+06     690.061E+03    -17.2305E-03     32.0193E-03    -14.7888E-03     51.6270E-03    -17.2244E-03     31.8700E-03    -14.7233E-03     51.6073E-03
            1875     11.5305E-03     30.2507E-03    -3.84688E+06    -36.7553E+06     4.89707E+06     807.911E+03    -16.8647E-03     31.5408E-03    -14.6761E-03     45.8819E-03    -16.8533E-03     31.3711E-03    -14.5927E-03     45.8712E-03
            1876     10.6449E-03     30.2090E-03    -4.52471E+06    -44.2266E+06     4.46738E+06     804.859E+03    -16.5408E-03     31.0933E-03    -14.5524E-03     41.2386E-03    -16.5154E-03     30.8819E-03    -14.4594E-03     41.2334E-03
            1877     9.75922E-03     30.1712E-03    -5.45185E+06    -47.6346E+06     5.78838E+06     796.127E+03    -16.1706E-03     30.6019E-03    -14.4312E-03     36.7494E-03    -16.1432E-03     30.3692E-03    -14.3253E-03     36.7483E-03
            1878     8.87314E-03     30.1378E-03    -6.62932E+06    -48.6090E+06     5.58691E+06     859.035E+03    -15.7801E-03     30.0822E-03    -14.3021E-03     32.3405E-03    -15.7546E-03     29.8444E-03    -14.1941E-03     32.3434E-03
            1879     7.98687E-03     30.1083E-03    -8.07964E+06    -51.6403E+06     4.74992E+06     751.483E+03    -15.3996E-03     29.5782E-03    -14.1787E-03     28.0631E-03    -15.3743E-03     29.3272E-03    -14.0683E-03     28.0667E-03
            1880     7.10025E-03     30.0829E-03    -9.87190E+06    -52.7928E+06     3.01431E+06     661.899E+03    -15.0204E-03     29.0772E-03    -14.0568E-03     24.0238E-03    -14.9991E-03     28.8247E-03    -13.9509E-03     24.0278E-03
            1881     6.21340E-03     30.0611E-03    -11.5888E+06    -53.6775E+06     779.510E+03     393.096E+03    -14.6647E-03     28.6082E-03    -13.9435E-03     20.2510E-03    -14.6469E-03     28.3564E-03    -13.8450E-03     20.2527E-03
            1882     5.32627E-03     30.0429E-03    -13.1930E+06    -55.1055E+06    -1.87228E+06     75.1725E+03    -14.3476E-03     28.1903E-03    -13.8427E-03     16.7564E-03    -14.3315E-03     27.9372E-03    -13.7531E-03     16.7548E-03
            1883     4.43886E-03     30.0278E-03    -15.0284E+06    -56.8472E+06    -5.44507E+06    -5.18399E+03    -14.0804E-03     27.8341E-03    -13.7537E-03     13.5395E-03    -14.0656E-03     27.5799E-03    -13.6767E-03     13.5375E-03
            1884     3.55134E-03     30.0159E-03    -16.9153E+06    -59.3635E+06    -9.67397E+06     54.1024E+03    -13.8699E-03     27.5485E-03    -13.6786E-03     10.5464E-03    -13.8545E-03     27.2904E-03    -13.6164E-03     10.5457E-03
            1885     2.66360E-03     30.0067E-03    -18.7284E+06    -61.9056E+06    -13.9648E+06     54.6168E+03    -13.7147E-03     27.3335E-03    -13.6188E-03     7.75769E-03    -13.6984E-03     27.0715E-03    -13.5717E-03     7.75737E-03
            1886     1.77581E-03     30.0003E-03    -20.2233E+06    -64.8573E+06    -17.5330E+06    -82.0683E+03    -13.6066E-03     27.1862E-03    -13.5796E-03     5.11414E-03    -13.5882E-03     26.9167E-03    -13.5439E-03     5.11242E-03
            1887     887.902E-06     29.9964E-03    -21.1083E+06    -66.6813E+06    -20.0216E+06    -125.405E+03    -13.5698E-03     27.1191E-03    -13.5493E-03     2.66688E-03    -13.5492E-03     26.8458E-03    -13.5221E-03     2.66491E-03
            1888     16.8407E-03     29.6972E-03    -2.26433E+06     118.859E+06     23.7444E+06    -350.960E+03    -18.6116E-03     33.7667E-03    -15.1551E-03     94.8017E-03    -19.6255E-03     35.1258E-03    -15.2055E-03     95.2923E-03
            1889     15.9590E-03     29.5766E-03    -2.22743E+06     63.8779E+06    -17.6210E+06     1.24131E+06    -19.1210E-03     34.0557E-03    -14.9346E-03     108.390E-03    -19.8905E-03     35.0951E-03    -15.1121E-03     108.569E-03
            1890     15.0729E-03     29.4899E-03    -841.620E+03     27.5202E+06    -1.16420E+06     988.332E+03    -18.4043E-03     33.3674E-03    -14.9631E-03     78.1183E-03    -18.6273E-03     33.6884E-03    -15.0076E-03     78.0960E-03
            1891     14.1874E-03     29.4280E-03    -2.05897E+06     1.32841E+06     1.83765E+06     472.963E+03    -17.8363E-03     32.7324E-03    -14.8960E-03     62.9585E-03    -17.9258E-03     32.8140E-03    -14.8858E-03     62.9214E-03
            1892     13.3024E-03     29.3709E-03    -2.66959E+06    -26.4062E+06    -2.23709E+06     725.922E+03    -17.6562E-03     32.4413E-03    -14.7851E-03     57.4888E-03    -17.6730E-03     32.3614E-03    -14.7541E-03     57.4607E-03
            1893     12.4172E-03     29.3186E-03    -3.08450E+06    -35.4453E+06     2.21450E+06     770.385E+03    -17.3182E-03     31.9985E-03    -14.6803E-03     51.2109E-03    -17.3113E-03     31.8484E-03    -14.6133E-03     51.1925E-03
            1894     11.5319E-03     29.2730E-03    -3.59014E+06    -36.9100E+06     5.12749E+06     778.265E+03    -16.9473E-03     31.4986E-03    -14.5513E-03     45.3601E-03    -16.9344E-03     31.3270E-03    -14.4669E-03     45.3492E-03
            1895     10.6465E-03     29.2314E-03    -4.32440E+06    -44.0048E+06     4.67631E+06     859.488E+03    -16.5837E-03     30.9941E-03    -14.4104E-03     40.6502E-03    -16.5576E-03     30.7829E-03    -14.3170E-03     40.6459E-03
            1896     9.76073E-03     29.1943E-03    -5.23230E+06    -47.6480E+06     5.79961E+06     845.928E+03    -16.1730E-03     30.4456E-03    -14.2726E-03     36.1231E-03    -16.1443E-03     30.2123E-03    -14.1669E-03     36.1229E-03
            1897     8.87472E-03     29.1611E-03    -6.29110E+06    -48.5026E+06     5.61799E+06     851.652E+03    -15.7449E-03     29.8729E-03    -14.1280E-03     31.6947E-03    -15.7178E-03     29.6350E-03    -14.0205E-03     31.6977E-03
            1898     7.98833E-03     29.1323E-03    -7.58172E+06    -51.5243E+06     4.93495E+06     951.090E+03    -15.3268E-03     29.3177E-03    -13.9909E-03     27.4181E-03    -15.2994E-03     29.0662E-03    -13.8806E-03     27.4245E-03
            1899     7.10172E-03     29.1072E-03    -9.05126E+06    -52.3952E+06     3.51554E+06     787.176E+03    -14.9142E-03     28.7710E-03    -13.8568E-03     23.4038E-03    -14.8900E-03     28.5185E-03    -13.7501E-03     23.4095E-03
            1900     6.21471E-03     29.0859E-03    -10.7647E+06    -53.1804E+06     1.10398E+06     404.098E+03    -14.5221E-03     28.2531E-03    -13.7310E-03     19.6858E-03    -14.5013E-03     28.0021E-03    -13.6328E-03     19.6877E-03
            1901     5.32743E-03     29.0680E-03    -12.8519E+06    -54.9683E+06    -1.91213E+06     225.495E+03    -14.1774E-03     27.7973E-03    -13.6199E-03     16.2555E-03    -14.1597E-03     27.5445E-03    -13.5312E-03     16.2559E-03
            1902     4.43994E-03     29.0534E-03    -14.9503E+06    -56.7310E+06    -5.66879E+06     98.7588E+03    -13.8846E-03     27.4068E-03    -13.5222E-03     13.1156E-03    -13.8692E-03     27.1534E-03    -13.4466E-03     13.1150E-03
            1903     3.55214E-03     29.0416E-03    -16.8708E+06    -59.5124E+06    -9.95029E+06     94.7879E+03    -13.6563E-03     27.0968E-03    -13.4406E-03     10.2142E-03    -13.6401E-03     26.8383E-03    -13.3796E-03     10.2141E-03
            1904     2.66426E-03     29.0327E-03    -18.5351E+06    -61.7298E+06    -14.0546E+06     178.937E+03    -13.4839E-03     26.8600E-03    -13.3761E-03     7.50734E-03    -13.4667E-03     26.5987E-03    -13.3300E-03     7.50867E-03
            1905     1.77620E-03     29.0263E-03    -20.0759E+06    -64.6593E+06    -17.5048E+06    -14.2226E+03    -13.3638E-03     26.6992E-03    -13.3354E-03     4.94033E-03    -13.3450E-03     26.4305E-03    -13.3001E-03     4.93951E-03
            1906     888.086E-06     29.0227E-03    -21.5329E+06    -66.9951E+06    -20.6462E+06    -272.775E+03    -13.3399E-03     26.6279E-03    -13.2880E-03     2.64912E-03    -13.3201E-03     26.3546E-03    -13.2628E-03     2.64527E-03
            1907     16.8419E-03     28.7142E-03    -6.34247E+06     117.765E+06     19.1625E+06    -1.26894E+06    -19.2172E-03     34.3697E-03    -15.1525E-03     94.2786E-03    -20.2510E-03     35.7435E-03    -15.2183E-03     94.7404E-03
            1908     15.9572E-03     28.5973E-03    -5.92833E+06     63.2174E+06    -19.7116E+06     435.516E+03    -20.1943E-03     35.0908E-03    -14.8964E-03     109.059E-03    -20.9875E-03     36.1445E-03    -15.0781E-03     109.212E-03
            1909     15.0729E-03     28.5115E-03    -2.20097E+06     28.0011E+06    -1.67656E+06     1.20134E+06    -18.4735E-03     33.3681E-03    -14.8946E-03     79.1207E-03    -18.7007E-03     33.6918E-03    -14.9404E-03     79.1009E-03
            1910     14.1880E-03     28.4491E-03    -1.68827E+06     1.43248E+06     1.56348E+06     1.37992E+06    -17.9855E-03     32.8027E-03    -14.8172E-03     62.9986E-03    -18.0717E-03     32.8834E-03    -14.8090E-03     62.9731E-03
            1911     13.3034E-03     28.3921E-03    -2.19869E+06    -26.2418E+06    -2.44372E+06     1.07016E+06    -17.8933E-03     32.5814E-03    -14.6881E-03     56.9961E-03    -17.9072E-03     32.5014E-03    -14.6591E-03     56.9722E-03
            1912     12.4186E-03     28.3406E-03    -2.60065E+06    -35.3415E+06     2.14622E+06     925.188E+03    -17.4877E-03     32.0496E-03    -14.5620E-03     50.6621E-03    -17.4780E-03     31.8990E-03    -14.4962E-03     50.6457E-03
            1913     11.5335E-03     28.2949E-03    -3.27460E+06    -36.8106E+06     4.92284E+06     894.008E+03    -17.0436E-03     31.4561E-03    -14.4125E-03     44.7388E-03    -17.0286E-03     31.2845E-03    -14.3297E-03     44.7297E-03
            1914     10.6481E-03     28.2542E-03    -4.09000E+06    -44.0813E+06     4.44018E+06     958.227E+03    -16.6327E-03     30.8860E-03    -14.2534E-03     39.9627E-03    -16.6047E-03     30.6742E-03    -14.1613E-03     39.9599E-03
            1915     9.76244E-03     28.2173E-03    -5.11734E+06    -47.4075E+06     5.62051E+06     1.00183E+06    -16.1776E-03     30.2754E-03    -14.0978E-03     35.4251E-03    -16.1482E-03     30.0432E-03    -13.9936E-03     35.4271E-03
            1916     8.87639E-03     28.1849E-03    -6.47447E+06    -48.5239E+06     5.31563E+06     977.527E+03    -15.7081E-03     29.6447E-03    -13.9366E-03     30.9794E-03    -15.6813E-03     29.4072E-03    -13.8303E-03     30.9842E-03
            1917     7.99003E-03     28.1563E-03    -7.83065E+06    -51.2979E+06     4.50208E+06     905.369E+03    -15.2399E-03     29.0230E-03    -13.7831E-03     26.7284E-03    -15.2134E-03     28.7735E-03    -13.6749E-03     26.7344E-03
            1918     7.10324E-03     28.1319E-03    -9.13409E+06    -51.9387E+06     3.17929E+06     649.925E+03    -14.7866E-03     28.4221E-03    -13.6354E-03     22.7444E-03    -14.7629E-03     28.1724E-03    -13.5310E-03     22.7486E-03
            1919     6.21615E-03     28.1110E-03    -10.6950E+06    -52.9797E+06     1.21498E+06     581.356E+03    -14.3650E-03     27.8651E-03    -13.5001E-03     19.0698E-03    -14.3442E-03     27.6148E-03    -13.4017E-03     19.0741E-03
            1920     5.32875E-03     28.0936E-03    -12.4483E+06    -54.6293E+06    -1.71936E+06     418.312E+03    -13.9891E-03     27.3674E-03    -13.3783E-03     15.7194E-03    -13.9702E-03     27.1153E-03    -13.2896E-03     15.7224E-03
            1921     4.44100E-03     28.0792E-03    -14.2508E+06    -56.6172E+06    -5.31636E+06     222.172E+03    -13.6783E-03     26.9503E-03    -13.2720E-03     12.6624E-03    -13.6601E-03     26.6960E-03    -13.1958E-03     12.6635E-03
            1922     3.55310E-03     28.0679E-03    -16.0355E+06    -59.5420E+06    -9.45981E+06     210.551E+03    -13.4289E-03     26.6118E-03    -13.1828E-03     9.84319E-03    -13.4092E-03     26.3512E-03    -13.1205E-03     9.84457E-03
            1923     2.66495E-03     28.0591E-03    -17.5071E+06    -61.6290E+06    -13.8318E+06     176.787E+03    -13.2338E-03     26.3448E-03    -13.1110E-03     7.22718E-03    -13.2120E-03     26.0822E-03    -13.0654E-03     7.22852E-03
            1924     1.77671E-03     28.0531E-03    -18.2870E+06    -64.2650E+06    -17.0249E+06     25.3202E+03    -13.1160E-03     26.1804E-03    -13.0643E-03     4.77801E-03    -13.0896E-03     25.9102E-03    -13.0297E-03     4.77773E-03
            1925     888.406E-06     28.0492E-03    -18.4772E+06    -67.3504E+06    -18.2667E+06    -213.858E+03    -13.0442E-03     26.0998E-03    -13.0556E-03     2.59285E-03    -13.0120E-03     25.8168E-03    -13.0225E-03     2.58977E-03
            1926     16.8409E-03     27.7335E-03    -2.62109E+06     118.599E+06     22.4908E+06    -60.1087E+03    -19.3481E-03     34.4956E-03    -15.1476E-03     93.9819E-03    -20.3618E-03     35.8558E-03    -15.2033E-03     94.4454E-03
            1927     15.9579E-03     27.6170E-03    -2.49922E+06     62.1593E+06    -18.4191E+06    -1.01229E+06    -20.2588E-03     35.1335E-03    -14.8747E-03     106.959E-03    -21.0273E-03     36.1672E-03    -15.0533E-03     107.086E-03
            1928     15.0738E-03     27.5323E-03    -2.81516E+06     26.3655E+06    -2.33123E+06     346.132E+03    -19.0722E-03     33.9162E-03    -14.8440E-03     77.7929E-03    -19.2984E-03     34.2328E-03    -14.8898E-03     77.7575E-03
            1929     14.1896E-03     27.4699E-03    -3.06091E+06     1.92532E+06     1.27871E+06     1.22152E+06    -18.3237E-03     33.0553E-03    -14.7316E-03     62.3236E-03    -18.4165E-03     33.1404E-03    -14.7236E-03     62.2949E-03
            1930     13.3050E-03     27.4134E-03    -2.74163E+06    -25.8924E+06    -2.59291E+06     1.05120E+06    -18.0572E-03     32.6354E-03    -14.5782E-03     56.2503E-03    -18.0733E-03     32.5573E-03    -14.5496E-03     56.2260E-03
            1931     12.4203E-03     27.3621E-03    -2.75832E+06    -35.3102E+06     2.03306E+06     970.473E+03    -17.6364E-03     32.0680E-03    -14.4316E-03     49.9178E-03    -17.6269E-03     31.9174E-03    -14.3662E-03     49.9020E-03
            1932     11.5352E-03     27.3173E-03    -3.20251E+06    -36.6784E+06     4.93715E+06     988.861E+03    -17.1395E-03     31.4010E-03    -14.2615E-03     44.0302E-03    -17.1239E-03     31.2295E-03    -14.1790E-03     44.0225E-03
            1933     10.6500E-03     27.2767E-03    -3.85379E+06    -44.1261E+06     4.45558E+06     1.04207E+06    -16.6830E-03     30.7656E-03    -14.0826E-03     39.2006E-03    -16.6535E-03     30.5528E-03    -13.9908E-03     39.1992E-03
            1934     9.76429E-03     27.2407E-03    -4.69977E+06    -47.3305E+06     5.66329E+06     1.16563E+06    -16.1795E-03     30.0872E-03    -13.9077E-03     34.6419E-03    -16.1479E-03     29.8545E-03    -13.8040E-03     34.6463E-03
            1935     8.87825E-03     27.2086E-03    -5.73379E+06    -48.3217E+06     5.41637E+06     1.17366E+06    -15.6587E-03     29.3873E-03    -13.7286E-03     30.1976E-03    -15.6285E-03     29.1494E-03    -13.6231E-03     30.2051E-03
            1936     7.99179E-03     27.1809E-03    -7.04152E+06    -50.9255E+06     4.69924E+06     955.444E+03    -15.1487E-03     28.7079E-03    -13.5592E-03     25.9644E-03    -15.1189E-03     28.4587E-03    -13.4516E-03     25.9712E-03
            1937     7.10495E-03     27.1568E-03    -8.71879E+06    -51.6335E+06     3.25867E+06     783.605E+03    -14.6492E-03     28.0464E-03    -13.3971E-03     22.0231E-03    -14.6240E-03     27.7974E-03    -13.2933E-03     22.0292E-03
            1938     6.21772E-03     27.1365E-03    -10.4643E+06    -52.7826E+06     1.43269E+06     564.187E+03    -14.1912E-03     27.4415E-03    -13.2503E-03     18.4087E-03    -14.1699E-03     27.1915E-03    -13.1514E-03     18.4129E-03
            1939     5.33011E-03     27.1195E-03    -12.1692E+06    -54.2963E+06    -1.39680E+06     400.439E+03    -13.7870E-03     26.9046E-03    -13.1175E-03     15.1385E-03    -13.7676E-03     26.6533E-03    -13.0281E-03     15.1414E-03
            1940     4.44225E-03     27.1057E-03    -13.9494E+06    -56.4788E+06    -5.25930E+06     292.013E+03    -13.4483E-03     26.4489E-03    -13.0006E-03     12.1816E-03    -13.4288E-03     26.1946E-03    -12.9247E-03     12.1836E-03
            1941     3.55408E-03     27.0945E-03    -15.5803E+06    -59.4797E+06    -9.35073E+06     221.282E+03    -13.1796E-03     26.0831E-03    -12.9035E-03     9.46422E-03    -13.1578E-03     25.8220E-03    -12.8414E-03     9.46580E-03
            1942     2.66574E-03     27.0862E-03    -16.8036E+06    -61.4451E+06    -13.4641E+06     123.191E+03    -12.9742E-03     25.7986E-03    -12.8244E-03     6.94410E-03    -12.9497E-03     25.5354E-03    -12.7782E-03     6.94479E-03
            1943     1.77720E-03     27.0801E-03    -17.6567E+06    -64.0435E+06    -16.7187E+06    -43.1474E+03    -12.8346E-03     25.6051E-03    -12.7705E-03     4.59849E-03    -12.8058E-03     25.3347E-03    -12.7356E-03     4.59736E-03
            1944     888.602E-06     27.0766E-03    -17.9886E+06    -67.5217E+06    -18.1436E+06    -119.265E+03    -12.7375E-03     25.5086E-03    -12.7711E-03     2.47640E-03    -12.7028E-03     25.2239E-03    -12.7378E-03     2.47454E-03
            1945     16.8438E-03     26.7536E-03    -2.64322E+06     119.442E+06     23.7965E+06     88.9979E+03    -19.8596E-03     34.9769E-03    -15.1172E-03     93.7035E-03    -20.8674E-03     36.3303E-03    -15.1676E-03     94.1498E-03
            1946     15.9588E-03     26.6368E-03    -3.63578E+06     62.0726E+06    -18.8322E+06    -124.263E+03    -20.4535E-03     35.2702E-03    -14.8166E-03     106.490E-03    -21.2184E-03     36.2971E-03    -14.9955E-03     106.619E-03
            1947     15.0751E-03     26.5523E-03    -3.43587E+06     25.1189E+06    -3.37345E+06     236.836E+03    -19.3316E-03     34.0973E-03    -14.7657E-03     77.2018E-03    -19.5551E-03     34.4076E-03    -14.8140E-03     77.1633E-03
            1948     14.1909E-03     26.4909E-03    -2.71870E+06     1.80478E+06     1.27407E+06     528.340E+03    -18.6094E-03     33.2420E-03    -14.6327E-03     61.8477E-03    -18.6993E-03     33.3251E-03    -14.6250E-03     61.8093E-03
            1949     13.3067E-03     26.4345E-03    -2.35978E+06    -25.8071E+06    -2.56251E+06     828.612E+03    -18.2402E-03     32.6964E-03    -14.4562E-03     55.7610E-03    -18.2536E-03     32.6172E-03    -14.4282E-03     55.7338E-03
            1950     12.4220E-03     26.3840E-03    -2.40045E+06    -35.2755E+06     1.91250E+06     976.401E+03    -17.7785E-03     32.0663E-03    -14.2878E-03     49.2302E-03    -17.7665E-03     31.9150E-03    -14.2236E-03     49.2146E-03
            1951     11.5372E-03     26.3393E-03    -2.87717E+06    -36.6650E+06     4.88264E+06     1.03921E+06    -17.2430E-03     31.3396E-03    -14.0966E-03     43.2464E-03    -17.2252E-03     31.1673E-03    -14.0148E-03     43.2396E-03
            1952     10.6519E-03     26.2997E-03    -3.56015E+06    -44.0258E+06     4.30231E+06     1.08104E+06    -16.7327E-03     30.6286E-03    -13.8958E-03     38.3942E-03    -16.7014E-03     30.4158E-03    -13.8053E-03     38.3936E-03
            1953     9.76633E-03     26.2640E-03    -4.28549E+06    -47.4062E+06     5.60658E+06     1.13717E+06    -16.1806E-03     29.8818E-03    -13.7012E-03     33.7890E-03    -16.1465E-03     29.6480E-03    -13.5982E-03     33.7933E-03
            1954     8.88024E-03     26.2328E-03    -5.19957E+06    -48.0101E+06     5.41825E+06     1.15810E+06    -15.6003E-03     29.1031E-03    -13.5028E-03     29.3453E-03    -15.5677E-03     28.8658E-03    -13.3985E-03     29.3529E-03
            1955     7.99374E-03     26.2055E-03    -6.38404E+06    -50.7214E+06     4.93650E+06     1.15517E+06    -15.0411E-03     28.3589E-03    -13.3178E-03     25.1324E-03    -15.0086E-03     28.1093E-03    -13.2103E-03     25.1420E-03
            1956     7.10679E-03     26.1823E-03    -7.81935E+06    -51.2557E+06     3.85062E+06     1.03637E+06    -14.4988E-03     27.6409E-03    -13.1420E-03     21.2435E-03    -14.4704E-03     27.3916E-03    -13.0371E-03     21.2529E-03
            1957     6.21938E-03     26.1624E-03     -9.4945E+06    -52.2715E+06     1.87325E+06     661.861E+03    -14.0013E-03     26.9826E-03    -12.9813E-03     17.7111E-03    -13.9765E-03     26.7331E-03    -12.8824E-03     17.7167E-03
            1958     5.33166E-03     26.1460E-03    -11.3352E+06    -54.2347E+06    -938.284E+03     471.762E+03    -13.5678E-03     26.4063E-03    -12.8384E-03     14.5323E-03    -13.5450E-03     26.1534E-03    -12.7480E-03     14.5362E-03
            1959     4.44351E-03     26.1325E-03    -13.2193E+06    -56.2296E+06    -4.87690E+06     450.903E+03    -13.1985E-03     25.9103E-03    -12.7118E-03     11.6766E-03    -13.1763E-03     25.6557E-03    -12.6355E-03     11.6807E-03
            1960     3.55513E-03     26.1218E-03    -15.0350E+06    -59.3312E+06    -9.07307E+06     300.617E+03    -12.9106E-03     25.5178E-03    -12.6072E-03     9.06305E-03    -12.8868E-03     25.2563E-03    -12.5447E-03     9.06572E-03
            1961     2.66654E-03     26.1136E-03    -16.6690E+06    -61.2856E+06    -13.0979E+06     247.288E+03    -12.6935E-03     25.2150E-03    -12.5215E-03     6.64846E-03    -12.6690E-03     24.9517E-03    -12.4739E-03     6.65080E-03
            1962     1.77783E-03     26.1079E-03    -18.0553E+06    -63.9918E+06    -16.3433E+06     378.619E+03    -12.5346E-03     24.9952E-03    -12.4606E-03     4.40131E-03    -12.5084E-03     24.7251E-03    -12.4233E-03     4.40565E-03
            1963     888.938E-06     26.1043E-03    -19.3746E+06    -67.2207E+06    -18.9492E+06     459.598E+03    -12.4401E-03     24.8675E-03    -12.4274E-03     2.38109E-03    -12.4116E-03     24.5875E-03    -12.3966E-03     2.38671E-03
            1964     16.8418E-03     25.7718E-03    -2.66450E+06     119.084E+06     22.6245E+06     674.140E+03    -20.4275E-03     35.5153E-03    -15.0878E-03     93.3571E-03    -21.4276E-03     36.8630E-03    -15.1435E-03     93.7938E-03
            1965     15.9600E-03     25.6567E-03    -3.79830E+06     62.5836E+06    -19.0966E+06     618.235E+03    -20.9075E-03     35.6671E-03    -14.7596E-03     105.772E-03    -21.6644E-03     36.6881E-03    -14.9404E-03     105.898E-03
            1966     15.0760E-03     25.5724E-03    -3.28943E+06     25.4385E+06    -3.47826E+06    -218.193E+03    -19.5523E-03     34.2373E-03    -14.6850E-03     76.6832E-03    -19.7733E-03     34.5470E-03    -14.7345E-03     76.6370E-03
            1967     14.1924E-03     25.5113E-03    -2.96648E+06     1.19220E+06     641.145E+03    -114.096E+03    -18.8702E-03     33.4004E-03    -14.5301E-03     61.1828E-03    -18.9582E-03     33.4801E-03    -14.5244E-03     61.1354E-03
            1968     13.3082E-03     25.4558E-03    -2.67080E+06    -26.0976E+06    -3.23576E+06     467.908E+03    -18.5119E-03     32.8393E-03    -14.3274E-03     55.0758E-03    -18.5247E-03     32.7594E-03    -14.3018E-03     55.0436E-03
            1969     12.4240E-03     25.4054E-03    -2.44603E+06    -35.4800E+06     1.42231E+06     874.354E+03    -17.9619E-03     32.0947E-03    -14.1329E-03     48.4097E-03    -17.9483E-03     31.9425E-03    -14.0708E-03     48.3929E-03
            1970     11.5392E-03     25.3618E-03    -2.86095E+06    -36.6317E+06     4.48547E+06     1.16268E+06    -17.3505E-03     31.2679E-03    -13.9174E-03     42.3837E-03    -17.3316E-03     31.0959E-03    -13.8377E-03     42.3788E-03
            1971     10.6541E-03     25.3225E-03    -3.56786E+06    -43.8827E+06     3.86945E+06     1.15879E+06    -16.7825E-03     30.4762E-03    -13.6937E-03     37.4967E-03    -16.7504E-03     30.2644E-03    -13.6055E-03     37.4974E-03
            1972     9.76847E-03     25.2878E-03    -4.41038E+06    -47.3341E+06     5.17136E+06     1.11786E+06    -16.1699E-03     29.6478E-03    -13.4779E-03     32.8671E-03    -16.1357E-03     29.4149E-03    -13.3770E-03     32.8715E-03
            1973     8.88242E-03     25.2571E-03    -5.49339E+06    -47.9895E+06     5.08862E+06     1.22814E+06    -15.5341E-03     28.7946E-03    -13.2606E-03     28.4273E-03    -15.5023E-03     28.5583E-03    -13.1576E-03     28.4360E-03
            1974     7.99582E-03     25.2307E-03    -6.73546E+06    -50.3761E+06     4.46193E+06     1.18929E+06    -14.9107E-03     27.9680E-03    -13.0573E-03     24.2624E-03    -14.8796E-03     27.7212E-03    -12.9522E-03     24.2726E-03
            1975     7.10873E-03     25.2079E-03    -7.94456E+06    -50.8960E+06     3.58073E+06     928.145E+03    -14.3232E-03     27.1909E-03    -12.8677E-03     20.4349E-03    -14.2955E-03     26.9439E-03    -12.7645E-03     20.4432E-03
            1976     6.22121E-03     25.1889E-03    -9.33221E+06    -51.8197E+06     1.76921E+06     792.327E+03    -13.7883E-03     26.4833E-03    -12.6951E-03     16.9898E-03    -13.7631E-03     26.2359E-03    -12.5975E-03     16.9973E-03
            1977     5.33319E-03     25.1729E-03    -11.0183E+06    -54.0429E+06    -1.12476E+06     590.086E+03    -13.3253E-03     25.8670E-03    -12.5417E-03     13.9115E-03    -13.3008E-03     25.6148E-03    -12.4530E-03     13.9171E-03
            1978     4.44490E-03     25.1600E-03    -12.7280E+06    -56.1842E+06    -4.65560E+06     614.825E+03    -12.9386E-03     25.3465E-03    -12.4079E-03     11.1502E-03    -12.9143E-03     25.0911E-03    -12.3313E-03     11.1565E-03
            1979     3.55627E-03     25.1496E-03    -14.5153E+06    -59.0297E+06    -8.65158E+06     700.792E+03    -12.6230E-03     24.9193E-03    -12.2963E-03     8.64991E-03    -12.5976E-03     24.6579E-03    -12.2329E-03     8.65782E-03
            1980     2.66741E-03     25.1418E-03    -16.3014E+06    -61.2063E+06    -12.6052E+06     653.199E+03    -12.3832E-03     24.5907E-03    -12.2075E-03     6.34952E-03    -12.3577E-03     24.3266E-03    -12.1581E-03     6.35715E-03
            1981     1.77832E-03     25.1361E-03    -17.6558E+06    -63.7528E+06    -15.8104E+06     704.013E+03    -12.2265E-03     24.3693E-03    -12.1428E-03     4.20507E-03    -12.1994E-03     24.0990E-03    -12.1038E-03     4.21364E-03
            1982     889.210E-06     25.1328E-03    -18.1970E+06    -66.3324E+06    -17.6097E+06     626.590E+03    -12.1260E-03     24.2292E-03    -12.1032E-03     2.29003E-03    -12.0949E-03     23.9500E-03    -12.0687E-03     2.29783E-03
            1983     16.8442E-03     24.7895E-03    -3.38934E+06     119.124E+06     21.9792E+06     774.011E+03    -21.0155E-03     36.0804E-03    -15.0649E-03     92.7501E-03    -22.0101E-03     37.4221E-03    -15.1228E-03     93.1687E-03
            1984     15.9606E-03     24.6761E-03    -2.44427E+06     63.4511E+06    -19.2451E+06     79.8190E+03    -21.4007E-03     36.1018E-03    -14.7011E-03     104.473E-03    -22.1405E-03     37.1140E-03    -14.8858E-03     104.579E-03
            1985     15.0777E-03     24.5922E-03    -1.01395E+06     25.5492E+06    -3.30878E+06     83.4611E+03    -19.9155E-03     34.5131E-03    -14.5976E-03     75.9947E-03    -20.1232E-03     34.8175E-03    -14.6497E-03     75.9497E-03
            1986     14.1937E-03     24.5319E-03    -2.00373E+06     1.04129E+06     642.777E+03     222.132E+03    -19.1648E-03     33.5823E-03    -14.4174E-03     60.3984E-03    -19.2463E-03     33.6584E-03    -14.4128E-03     60.3546E-03
            1987     13.3102E-03     24.4764E-03    -2.41739E+06    -26.5282E+06    -3.63365E+06     259.625E+03    -18.7640E-03     32.9512E-03    -14.1872E-03     54.1583E-03    -18.7734E-03     32.8683E-03    -14.1634E-03     54.1232E-03
            1988     12.4260E-03     24.4273E-03    -2.61218E+06    -35.9527E+06     754.849E+03     779.112E+03    -18.1337E-03     32.0992E-03    -13.9655E-03     47.4657E-03    -18.1187E-03     31.9451E-03    -13.9058E-03     47.4479E-03
            1989     11.5414E-03     24.3840E-03    -2.95453E+06    -36.7196E+06     4.04435E+06     1.16911E+06    -17.4614E-03     31.1868E-03    -13.7254E-03     41.4416E-03    -17.4417E-03     31.0146E-03    -13.6477E-03     41.4370E-03
            1990     10.6564E-03     24.3457E-03    -3.56538E+06    -43.7031E+06     3.55616E+06     1.33588E+06    -16.8243E-03     30.3024E-03    -13.4781E-03     36.5125E-03    -16.7916E-03     30.0917E-03    -13.3918E-03     36.5158E-03
            1991     9.77081E-03     24.3115E-03    -4.51215E+06    -47.1729E+06     4.78116E+06     1.30596E+06    -16.1421E-03     29.3828E-03    -13.2406E-03     31.8830E-03    -16.1079E-03     29.1512E-03    -13.1418E-03     31.8901E-03
            1992     8.88468E-03     24.2819E-03    -5.59731E+06    -48.0314E+06     4.77143E+06     1.33289E+06    -15.4459E-03     28.4507E-03    -13.0048E-03     27.4547E-03    -15.4140E-03     28.2146E-03    -12.9031E-03     27.4650E-03
            1993     7.99801E-03     24.2561E-03    -6.75170E+06    -49.8303E+06     4.20828E+06     1.19780E+06    -14.7659E-03     27.5500E-03    -12.7841E-03     23.3504E-03    -14.7352E-03     27.3063E-03    -12.6810E-03     23.3609E-03
            1994     7.11079E-03     24.2342E-03    -8.16392E+06    -50.5095E+06     3.09349E+06     866.773E+03    -14.1254E-03     26.7057E-03    -12.5802E-03     19.6113E-03    -14.0986E-03     26.4616E-03    -12.4797E-03     19.6189E-03
            1995     6.22302E-03     24.2157E-03    -9.66565E+06    -51.6381E+06     1.31545E+06     719.277E+03    -13.5557E-03     25.9528E-03    -12.3971E-03     16.2553E-03    -13.5318E-03     25.7074E-03    -12.3016E-03     16.2619E-03
            1996     5.33488E-03     24.2005E-03    -11.2574E+06    -53.7800E+06    -1.58333E+06     732.034E+03    -13.0641E-03     25.2984E-03    -12.2343E-03     13.2866E-03    -13.0405E-03     25.0485E-03    -12.1479E-03     13.2940E-03
            1997     4.44629E-03     24.1879E-03    -13.0696E+06    -56.2884E+06    -5.18710E+06     814.038E+03    -12.6547E-03     24.7482E-03    -12.0935E-03     10.6467E-03    -12.6312E-03     24.4935E-03    -12.0189E-03     10.6557E-03
            1998     3.55741E-03     24.1780E-03    -14.7192E+06    -58.7424E+06    -8.85668E+06     936.808E+03    -12.3242E-03     24.3008E-03    -11.9767E-03     8.24718E-03    -12.2999E-03     24.0414E-03    -11.9144E-03     8.25819E-03
            1999     2.66825E-03     24.1704E-03    -16.1010E+06    -60.9426E+06    -12.4630E+06     950.261E+03    -12.0694E-03     23.9541E-03    -11.8846E-03     6.04925E-03    -12.0435E-03     23.6908E-03    -11.8352E-03     6.06075E-03
            2000     1.77897E-03     24.1651E-03    -17.2751E+06    -63.1287E+06    -15.5126E+06     784.273E+03    -11.9044E-03     23.7220E-03    -11.8176E-03     4.00843E-03    -11.8767E-03     23.4539E-03    -11.7786E-03     4.01806E-03
            2001     889.511E-06     24.1618E-03    -18.0750E+06     -65.392E+06    -17.6698E+06     481.171E+03    -11.7934E-03     23.5746E-03    -11.7812E-03     2.13654E-03    -11.7630E-03     23.3000E-03    -11.7486E-03     2.14250E-03
            2002     16.8427E-03     23.8067E-03    -2.12669E+06     119.644E+06     22.5707E+06     478.006E+03    -21.4762E-03     36.5143E-03    -15.0382E-03     91.9877E-03    -22.4536E-03     37.8435E-03    -15.0957E-03     92.3807E-03
            2003     15.9619E-03     23.6947E-03    -2.10953E+06     63.9492E+06    -19.5167E+06     144.977E+03    -21.8312E-03     36.4745E-03    -14.6433E-03     103.415E-03    -22.5588E-03     37.4783E-03    -14.8305E-03     103.509E-03
            2004     15.0786E-03     23.6121E-03    -2.26230E+06     24.8922E+06    -4.64682E+06     318.173E+03    -20.4808E-03     34.9842E-03    -14.5035E-03     75.0916E-03    -20.6893E-03     35.2866E-03    -14.5595E-03     75.0454E-03
            2005     14.1959E-03     23.5518E-03    -2.02184E+06     1.50741E+06     559.477E+03     595.167E+03    -19.4793E-03     33.7707E-03    -14.2914E-03     59.4913E-03    -19.5597E-03     33.8477E-03    -14.2879E-03     59.4515E-03
            2006     13.3121E-03     23.4975E-03    -2.25035E+06    -26.6848E+06    -3.85082E+06     576.828E+03    -18.9461E-03     32.9809E-03    -14.0348E-03     53.2753E-03    -18.9529E-03     32.8961E-03    -14.0121E-03     53.2443E-03
            2007     12.4282E-03     23.4487E-03    -2.46367E+06    -36.4389E+06     334.709E+03     728.213E+03    -18.3079E-03     32.0956E-03    -13.7876E-03     46.4697E-03    -18.2900E-03     31.9386E-03    -13.7295E-03     46.4514E-03
            2008     11.5438E-03     23.4066E-03    -2.76365E+06    -36.9687E+06     3.77529E+06     1.14057E+06    -17.5659E-03     31.0880E-03    -13.5222E-03     40.4180E-03    -17.5440E-03     30.9142E-03    -13.4457E-03     40.4134E-03
            2009     10.6588E-03     23.3688E-03    -3.28579E+06    -43.6875E+06     3.39501E+06     1.43171E+06    -16.8514E-03     30.1026E-03    -13.2511E-03     35.4609E-03    -16.8168E-03     29.8913E-03    -13.1660E-03     35.4658E-03
            2010     9.77324E-03     23.3358E-03    -4.01750E+06    -46.9959E+06     4.84063E+06     1.56288E+06    -16.0967E-03     29.0898E-03    -12.9931E-03     30.8312E-03    -16.0600E-03     28.8580E-03    -12.8949E-03     30.8419E-03
            2011     8.88705E-03     23.3068E-03    -5.06178E+06    -47.7678E+06     4.81699E+06     1.43065E+06    -15.3340E-03     28.0730E-03    -12.7390E-03     26.4383E-03    -15.2997E-03     27.8372E-03    -12.6383E-03     26.4502E-03
            2012     8.00027E-03     23.2820E-03    -6.25867E+06    -49.4306E+06     4.48539E+06     1.26424E+06    -14.5986E-03     27.1030E-03    -12.5044E-03     22.3960E-03    -14.5664E-03     26.8600E-03    -12.4012E-03     22.4076E-03
            2013     7.11285E-03     23.2609E-03    -7.63518E+06    -49.9980E+06     3.33867E+06     1.02920E+06    -13.9112E-03     26.1992E-03    -12.2880E-03     18.7583E-03    -13.8827E-03     25.9564E-03    -12.1878E-03     18.7682E-03
            2014     6.22495E-03     23.2432E-03    -9.19599E+06    -51.4275E+06     1.25871E+06     738.132E+03    -13.3051E-03     25.3999E-03    -12.0947E-03     15.5256E-03    -13.2790E-03     25.1549E-03    -12.0005E-03     15.5326E-03
            2015     5.33650E-03     23.2285E-03    -10.8496E+06    -53.9238E+06    -1.52279E+06     897.891E+03    -12.7915E-03     24.7176E-03    -11.9261E-03     12.6714E-03    -12.7657E-03     24.4663E-03    -11.8398E-03     12.6811E-03
            2016     4.44769E-03     23.2166E-03    -12.5873E+06    -56.1069E+06    -4.99977E+06     1.12868E+06    -12.3619E-03     24.1421E-03    -11.7801E-03     10.1373E-03    -12.3365E-03     23.8873E-03    -11.7055E-03     10.1505E-03
            2017     3.55853E-03     23.2070E-03    -14.3594E+06    -58.5103E+06    -8.72585E+06     1.08972E+06    -12.0208E-03     23.6800E-03    -11.6592E-03     7.85061E-03    -11.9952E-03     23.4211E-03    -11.5972E-03     7.86366E-03
            2018     2.66916E-03     23.1998E-03    -15.8689E+06    -60.4647E+06    -12.3276E+06     1.07421E+06    -11.7616E-03     23.3245E-03    -11.5629E-03     5.76691E-03    -11.7355E-03     23.0631E-03    -11.5139E-03     5.78006E-03
            2019     1.77949E-03     23.1947E-03    -16.9639E+06    -62.3130E+06    -15.3105E+06     864.694E+03    -11.5807E-03     23.0739E-03    -11.4931E-03     3.84005E-03    -11.5530E-03     22.8091E-03    -11.4547E-03     3.85075E-03
            2020     889.805E-06     23.1916E-03    -17.6386E+06    -64.4889E+06    -17.0590E+06     551.669E+03    -11.4908E-03     22.9276E-03    -11.4368E-03     2.00462E-03    -11.4603E-03     22.6560E-03    -11.4030E-03     2.01151E-03
            2021     16.8455E-03     22.8244E-03    -2.50392E+06     118.530E+06     22.4255E+06     408.514E+03    -22.0187E-03     37.0410E-03    -15.0223E-03     92.0378E-03    -22.9909E-03     38.3600E-03    -15.0784E-03     92.4076E-03
            2022     15.9619E-03     22.7132E-03    -3.30578E+06     63.9596E+06    -19.5053E+06     778.846E+03    -22.6635E-03     37.2503E-03    -14.5868E-03     102.047E-03    -23.3848E-03     38.2435E-03    -14.7723E-03     102.127E-03
            2023     15.0807E-03     22.6305E-03    -2.71094E+06     25.8578E+06    -4.59617E+06     377.185E+03    -20.8893E-03     35.2911E-03    -14.4018E-03     73.6011E-03    -21.0965E-03     35.5939E-03    -14.4584E-03     73.5526E-03
            2024     14.1976E-03     22.5724E-03    -2.84486E+06     962.669E+03    -149.707E+03     223.282E+03    -19.7409E-03     33.8999E-03    -14.1590E-03     58.6347E-03    -19.8218E-03     33.9747E-03    -14.1571E-03     58.5897E-03
            2025     13.3142E-03     22.5179E-03    -2.52424E+06    -26.5169E+06    -4.09753E+06     621.639E+03    -19.2086E-03     33.0837E-03    -13.8751E-03     52.3864E-03    -19.2155E-03     32.9995E-03    -13.8535E-03     52.3560E-03
            2026     12.4306E-03     22.4705E-03    -2.35150E+06    -36.7167E+06     166.288E+03     713.529E+03    -18.4749E-03     32.0750E-03    -13.6001E-03     45.3612E-03    -18.4549E-03     31.9159E-03    -13.5427E-03     45.3431E-03
            2027     11.5462E-03     22.4289E-03    -2.59385E+06    -37.3562E+06     3.59670E+06     1.02005E+06    -17.6520E-03     30.9610E-03    -13.3090E-03     39.2916E-03    -17.6279E-03     30.7847E-03    -13.2331E-03     39.2858E-03
            2028     10.6613E-03     22.3924E-03    -2.91448E+06    -43.7523E+06     3.34348E+06     1.38484E+06    -16.8535E-03     29.8685E-03    -13.0149E-03     34.3352E-03    -16.8165E-03     29.6561E-03    -12.9306E-03     34.3399E-03
            2029     9.77573E-03     22.3601E-03    -3.47836E+06    -47.0073E+06     4.89810E+06     1.61589E+06    -16.0244E-03     28.7620E-03    -12.7376E-03     29.7232E-03    -15.9848E-03     28.5290E-03    -12.6399E-03     29.7349E-03
            2030     8.88950E-03     22.3323E-03    -4.42130E+06    -47.3171E+06     5.17894E+06     1.67739E+06    -15.1913E-03     27.6596E-03    -12.4683E-03     25.3853E-03    -15.1548E-03     27.4244E-03    -12.3674E-03     25.4007E-03
            2031     8.00254E-03     22.3083E-03    -5.68974E+06    -49.0087E+06     4.90074E+06     1.38285E+06    -14.4030E-03     26.6247E-03    -12.2217E-03     21.4362E-03    -14.3690E-03     26.3823E-03    -12.1179E-03     21.4495E-03
            2032     7.11500E-03     22.2881E-03    -6.98448E+06    -49.5157E+06     3.81563E+06     1.07662E+06    -13.6740E-03     25.6702E-03    -11.9963E-03     17.9099E-03    -13.6436E-03     25.4282E-03    -11.8953E-03     17.9206E-03
            2033     6.22679E-03     22.2711E-03    -8.51104E+06    -51.2525E+06     1.39419E+06     1.02008E+06    -13.0396E-03     24.8348E-03    -11.7953E-03     14.8090E-03    -13.0104E-03     24.5895E-03    -11.7016E-03     14.8198E-03
            2034     5.33816E-03     22.2571E-03    -10.3329E+06    -54.1466E+06    -1.52987E+06     1.20449E+06    -12.5122E-03     24.1343E-03    -11.6221E-03     12.0731E-03    -12.4835E-03     23.8811E-03    -11.5363E-03     12.0869E-03
            2035     4.44908E-03     22.2457E-03    -12.1280E+06    -55.8603E+06    -4.89922E+06     1.43516E+06    -12.0708E-03     23.5431E-03    -11.4723E-03     9.65041E-03    -12.0435E-03     23.2887E-03    -11.3982E-03     9.66762E-03
            2036     3.55966E-03     22.2367E-03    -13.8544E+06    -58.1200E+06    -8.48523E+06     1.49051E+06    -11.7181E-03     23.0674E-03    -11.3493E-03     7.47248E-03    -11.6909E-03     22.8093E-03    -11.2873E-03     7.49077E-03
            2037     2.66993E-03     22.2297E-03    -15.4701E+06    -59.8020E+06    -12.0825E+06     1.30952E+06    -11.4537E-03     22.7050E-03    -11.2513E-03     5.48644E-03    -11.4268E-03     22.4459E-03    -11.2025E-03     5.50267E-03
            2038     1.78012E-03     22.2249E-03    -16.6111E+06    -61.4306E+06    -15.0228E+06     944.119E+03    -11.2646E-03     22.4467E-03    -11.1822E-03     3.65963E-03    -11.2367E-03     22.1855E-03    -11.1441E-03     3.67139E-03
            2039     890.049E-06     22.2219E-03    -17.4006E+06    -63.4151E+06    -16.9138E+06     492.755E+03    -11.1795E-03     22.3073E-03    -11.1278E-03     1.95983E-03    -11.1497E-03     22.0405E-03    -11.0952E-03     1.96596E-03
            2040     16.8417E-03     21.8398E-03    -2.43824E+06     118.485E+06     23.2979E+06     1.03665E+06    -22.6725E-03     37.6717E-03    -14.9992E-03     91.5700E-03    -23.6333E-03     38.9769E-03    -15.0510E-03     91.9244E-03
            2041     15.9646E-03     21.7293E-03    -3.21193E+06     64.6884E+06    -18.3728E+06     629.179E+03    -23.2173E-03     37.7431E-03    -14.5258E-03     100.219E-03    -23.9193E-03     38.7167E-03    -14.7068E-03     100.277E-03
            2042     15.0822E-03     21.6505E-03    -2.92381E+06     25.8913E+06    -4.81533E+06     104.584E+03    -21.2727E-03     35.5737E-03    -14.3010E-03     72.5520E-03    -21.4766E-03     35.8731E-03    -14.3583E-03     72.4976E-03
            2043     14.1993E-03     21.5917E-03    -2.52758E+06     909.265E+03    -451.135E+03     159.166E+03    -20.1752E-03     34.1987E-03    -14.0234E-03     57.6593E-03    -20.2526E-03     34.2717E-03    -14.0233E-03     57.6125E-03
            2044     13.3166E-03     21.5389E-03    -2.33701E+06    -26.8228E+06    -4.55645E+06     227.062E+03    -19.5035E-03     33.2080E-03    -13.7045E-03     51.1796E-03    -19.5072E-03     33.1214E-03    -13.6850E-03     51.1440E-03
            2045     12.4330E-03     21.4919E-03    -2.14468E+06    -36.8612E+06    -57.6269E+03     651.350E+03    -18.6204E-03     32.0213E-03    -13.4009E-03     44.1186E-03    -18.5980E-03     31.8606E-03    -13.3446E-03     44.1000E-03
            2046     11.5489E-03     21.4517E-03    -2.32162E+06    -37.6717E+06     3.40364E+06     904.535E+03    -17.6924E-03     30.7784E-03    -13.0860E-03     38.0632E-03    -17.6656E-03     30.5998E-03    -13.0110E-03     38.0564E-03
            2047     10.6639E-03     21.4160E-03    -2.74543E+06    -43.9819E+06     3.14536E+06     1.25459E+06    -16.8131E-03     29.5850E-03    -12.7719E-03     33.1516E-03    -16.7742E-03     29.3711E-03    -12.6884E-03     33.1551E-03
            2048     9.77834E-03     21.3850E-03    -3.28271E+06    -47.1045E+06     4.78829E+06     1.59986E+06    -15.9089E-03     28.3873E-03    -12.4784E-03     28.5814E-03    -15.8679E-03     28.1535E-03    -12.3814E-03     28.5933E-03
            2049     8.89190E-03     21.3581E-03    -4.08655E+06    -47.0812E+06     5.35480E+06     1.74576E+06    -15.0128E-03     27.2101E-03    -12.1974E-03     24.3270E-03    -14.9750E-03     26.9752E-03    -12.0964E-03     24.3435E-03
            2050     8.00483E-03     21.3351E-03    -5.03520E+06    -48.2219E+06     5.30088E+06     1.46138E+06    -14.1765E-03     26.1185E-03    -11.9420E-03     20.4867E-03    -14.1408E-03     25.8784E-03    -11.8383E-03     20.5013E-03
            2051     7.11699E-03     21.3158E-03    -6.39861E+06    -49.3635E+06     4.12473E+06     1.20992E+06    -13.4214E-03     25.1328E-03    -11.7114E-03     17.0778E-03    -13.3886E-03     24.8901E-03    -11.6099E-03     17.0904E-03
            2052     6.22865E-03     21.2997E-03    -8.12650E+06    -51.2737E+06     1.44579E+06     1.49470E+06    -12.7703E-03     24.2759E-03    -11.5056E-03     14.1073E-03    -12.7392E-03     24.0297E-03    -11.4123E-03     14.1243E-03
            2053     5.33971E-03     21.2863E-03    -10.0032E+06    -54.0769E+06    -1.77455E+06     1.72265E+06    -12.2259E-03     23.5547E-03    -11.3287E-03     11.4992E-03    -12.1953E-03     23.3017E-03    -11.2447E-03     11.5198E-03
            2054     4.45038E-03     21.2754E-03    -11.8700E+06    -55.6995E+06    -5.11867E+06     1.85417E+06    -11.7803E-03     22.9585E-03    -11.1782E-03     9.19511E-03    -11.7517E-03     22.7048E-03    -11.1058E-03     9.21782E-03
            2055     3.56070E-03     21.2668E-03    -13.6023E+06    -57.5185E+06    -8.48607E+06     1.89375E+06    -11.4303E-03     22.4849E-03    -11.0546E-03     7.12513E-03    -11.4027E-03     22.2294E-03    -10.9939E-03     7.14868E-03
            2056     2.67080E-03     21.2603E-03    -15.0320E+06    -58.8351E+06    -11.8063E+06     1.58542E+06    -11.1620E-03     22.1178E-03    -10.9558E-03     5.22993E-03    -11.1348E-03     21.8625E-03    -10.9077E-03     5.24978E-03
            2057     1.78057E-03     21.2557E-03    -16.2066E+06    -60.3754E+06    -14.6288E+06     1.12405E+06    -10.9711E-03     21.8570E-03    -10.8858E-03     3.46976E-03    -10.9434E-03     21.5998E-03    -10.8479E-03     3.48388E-03
            2058     890.342E-06     21.2529E-03    -16.9744E+06    -62.2924E+06    -16.5551E+06     581.241E+03    -10.8578E-03     21.7127E-03    -10.8548E-03     1.88916E-03    -10.8280E-03     21.4503E-03    -10.8227E-03     1.89644E-03
            2059     16.8479E-03     20.8547E-03    -1.12330E+06     119.403E+06     24.6953E+06     1.25974E+06    -23.3805E-03     38.3146E-03    -14.9341E-03     89.9963E-03    -24.3120E-03     39.5945E-03    -14.9822E-03     90.3257E-03
            2060     15.9639E-03     20.7475E-03    -1.07327E+06     65.0016E+06    -17.3594E+06     708.514E+03    -23.0557E-03     37.4921E-03    -14.4364E-03     98.1328E-03    -23.7239E-03     38.4376E-03    -14.6159E-03     98.1875E-03
            2061     15.0830E-03     20.6680E-03    -1.83905E+06     25.1966E+06    -4.34675E+06     148.653E+03    -21.7858E-03     35.9773E-03    -14.1916E-03     70.6247E-03    -21.9798E-03     36.2669E-03    -14.2472E-03     70.5670E-03
            2062     14.2019E-03     20.6116E-03    -2.12509E+06     1.64556E+06    -224.926E+03     35.4454E+03    -20.5842E-03     34.4571E-03    -13.8729E-03     56.0280E-03    -20.6591E-03     34.5309E-03    -13.8733E-03     55.9785E-03
            2063     13.3189E-03     20.5591E-03    -2.04013E+06    -27.2830E+06    -4.95424E+06     3.03793E+03    -19.6897E-03     33.2103E-03    -13.5207E-03     49.8590E-03    -19.6892E-03     33.1202E-03    -13.5029E-03     49.8207E-03
            2064     12.4358E-03     20.5138E-03    -1.74256E+06    -37.2932E+06    -217.907E+03     422.999E+03    -18.7097E-03     31.9031E-03    -13.1934E-03     42.7831E-03    -18.6834E-03     31.7389E-03    -13.1379E-03     42.7621E-03
            2065     11.5514E-03     20.4744E-03    -1.89672E+06    -37.8854E+06     3.44896E+06     888.094E+03    -17.6785E-03     30.5373E-03    -12.8588E-03     36.8265E-03    -17.6487E-03     30.3563E-03    -12.7838E-03     36.8200E-03
            2066     10.6666E-03     20.4401E-03    -2.35338E+06    -44.3753E+06     3.18447E+06     1.29036E+06    -16.7210E-03     29.2500E-03    -12.5290E-03     31.9528E-03    -16.6793E-03     29.0331E-03    -12.4453E-03     31.9572E-03
            2067     9.78079E-03     20.4100E-03    -2.99565E+06    -47.0661E+06     4.80943E+06     1.54918E+06    -15.7490E-03     27.9720E-03    -12.2230E-03     27.4477E-03    -15.7064E-03     27.7377E-03    -12.1263E-03     27.4593E-03
            2068     8.89433E-03     20.3843E-03    -3.56793E+06    -46.9112E+06     5.47789E+06     1.51705E+06    -14.8068E-03     26.7404E-03    -11.9336E-03     23.2853E-03    -14.7667E-03     26.5052E-03    -11.8330E-03     23.2991E-03
            2069     8.00696E-03     20.3624E-03    -4.42696E+06    -47.6219E+06     5.56940E+06     1.44004E+06    -13.9340E-03     25.6069E-03    -11.6729E-03     19.5505E-03    -13.8964E-03     25.3684E-03    -11.5696E-03     19.5650E-03
            2070     7.11899E-03     20.3440E-03    -5.71797E+06    -49.4430E+06     4.34759E+06     1.54618E+06    -13.1624E-03     24.6025E-03    -11.4401E-03     16.2651E-03    -13.1264E-03     24.3580E-03    -11.3383E-03     16.2822E-03
            2071     6.23032E-03     20.3287E-03    -7.34106E+06    -51.5258E+06     1.70055E+06     2.00855E+06    -12.5012E-03     23.7344E-03    -11.2332E-03     13.4283E-03    -12.4661E-03     23.4855E-03    -11.1394E-03     13.4521E-03
            2072     5.34120E-03     20.3160E-03    -9.12778E+06    -53.7534E+06    -1.44208E+06     2.34450E+06    -11.9510E-03     23.0066E-03    -11.0556E-03     10.9452E-03    -11.9169E-03     22.7535E-03    -10.9717E-03     10.9739E-03
            2073     4.45160E-03     20.3057E-03    -10.9701E+06    -55.4003E+06    -4.80260E+06     2.42442E+06    -11.5060E-03     22.4116E-03    -10.9056E-03     8.74893E-03    -11.4737E-03     22.1576E-03    -10.8333E-03     8.77909E-03
            2074     3.56167E-03     20.2975E-03    -12.6645E+06    -56.6582E+06    -8.06450E+06     2.32694E+06    -11.1565E-03     21.9389E-03    -10.7824E-03     6.78053E-03    -11.1260E-03     21.6857E-03    -10.7222E-03     6.80974E-03
            2075     2.67145E-03     20.2914E-03    -14.1757E+06    -57.6512E+06    -11.2410E+06     1.90119E+06    -10.8964E-03     21.5800E-03    -10.6836E-03     4.98213E-03    -10.8674E-03     21.3286E-03    -10.6356E-03     5.00609E-03
            2076     1.78116E-03     20.2870E-03    -15.2630E+06    -59.0827E+06    -13.9018E+06     1.31607E+06    -10.7112E-03     21.3206E-03    -10.6095E-03     3.29613E-03    -10.6816E-03     21.0675E-03    -10.5712E-03     3.31275E-03
            2077     890.580E-06     20.2843E-03    -15.9272E+06    -61.0438E+06    -15.5257E+06     736.142E+03    -10.5841E-03     21.1552E-03    -10.5710E-03     1.80400E-03    -10.5524E-03     20.8961E-03    -10.5371E-03     1.81331E-03
            2078     16.8463E-03     19.8727E-03    -1.39855E+06     118.176E+06     24.6095E+06     424.249E+03    -24.3581E-03     39.2409E-03    -14.8828E-03     88.6818E-03    -25.2723E-03     40.4984E-03    -14.9291E-03     88.9662E-03
            2079     15.9674E-03     19.7643E-03    -1.82089E+06     65.1912E+06    -17.4829E+06     1.46745E+06    -23.7524E-03     38.0861E-03    -14.3337E-03     97.4492E-03    -24.4117E-03     39.0211E-03    -14.5130E-03     97.4973E-03
            2080     15.0864E-03     19.6861E-03    -1.75730E+06     26.3028E+06    -3.66143E+06     718.449E+03    -22.0605E-03     36.1147E-03    -14.0542E-03     69.0184E-03    -22.2497E-03     36.4017E-03    -14.1081E-03     68.9660E-03
            2081     14.2039E-03     19.6308E-03    -1.62734E+06     1.60511E+06    -70.7642E+03    -94.8780E+03    -20.7472E-03     34.4563E-03    -13.7090E-03     54.6718E-03    -20.8171E-03     34.5263E-03    -13.7094E-03     54.6207E-03
            2082     13.3217E-03     19.5798E-03    -1.42781E+06    -27.2451E+06    -4.84163E+06    -50.8408E+03    -19.8362E-03     33.1693E-03    -13.3331E-03     48.5841E-03    -19.8314E-03     33.0768E-03    -13.3157E-03     48.5455E-03
            2083     12.4382E-03     19.5354E-03    -1.33527E+06    -37.9812E+06    -243.887E+03     240.847E+03    -18.7240E-03     31.7098E-03    -12.9858E-03     41.4633E-03    -18.6935E-03     31.5405E-03    -12.9300E-03     41.4407E-03
            2084     11.5542E-03     19.4976E-03    -1.41132E+06    -38.2877E+06     3.57882E+06     821.958E+03    -17.6184E-03     30.2540E-03    -12.6356E-03     35.6007E-03    -17.5851E-03     30.0695E-03    -12.5601E-03     35.5941E-03
            2085     10.6691E-03     19.4643E-03    -1.71440E+06    -44.6855E+06     3.35579E+06     1.29025E+06    -16.5892E-03     28.8829E-03    -12.2937E-03     30.7757E-03    -16.5436E-03     28.6629E-03    -12.2097E-03     30.7807E-03
            2086     9.78330E-03     19.4356E-03    -2.03683E+06    -46.8964E+06     5.14070E+06     1.42582E+06    -15.5652E-03     27.5445E-03    -11.9792E-03     26.3314E-03    -15.5182E-03     27.3089E-03    -11.8826E-03     26.3419E-03
            2087     8.89648E-03     19.4110E-03    -2.75605E+06    -46.7112E+06     5.73045E+06     1.40162E+06    -14.5869E-03     26.2715E-03    -11.6846E-03     22.2605E-03    -14.5433E-03     26.0356E-03    -11.5842E-03     22.2731E-03
            2088     8.00904E-03     19.3902E-03    -3.71674E+06    -47.4729E+06     5.82774E+06     1.46124E+06    -13.6905E-03     25.1121E-03    -11.4216E-03     18.6329E-03    -13.6499E-03     24.8729E-03    -11.3182E-03     18.6479E-03
            2089     7.12074E-03     19.3728E-03    -5.02355E+06    -49.7594E+06      4.4077E+06     1.88844E+06    -12.9054E-03     24.0932E-03    -11.1878E-03     15.4832E-03    -12.8655E-03     23.8460E-03    -11.0864E-03     15.5048E-03
            2090     6.23193E-03     19.3582E-03    -6.60277E+06    -51.7734E+06     1.79255E+06     2.50006E+06    -12.2444E-03     23.2260E-03    -10.9815E-03     12.7681E-03    -12.2054E-03     22.9745E-03    -10.8879E-03     12.7984E-03
            2091     5.34250E-03     19.3463E-03    -8.25434E+06    -53.4607E+06    -1.09594E+06     2.92682E+06    -11.6985E-03     22.5033E-03    -10.8048E-03     10.4043E-03    -11.6609E-03     22.2498E-03    -10.7208E-03     10.4406E-03
            2092     4.45272E-03     19.3365E-03    -9.95974E+06    -54.8246E+06    -4.36988E+06     3.09250E+06    -11.2561E-03     21.9110E-03    -10.6549E-03     8.30963E-03    -11.2202E-03     21.6578E-03    -10.5828E-03     8.34848E-03
            2093     3.56256E-03     19.3288E-03    -11.5991E+06    -55.5201E+06    -7.66239E+06     2.85332E+06    -10.9059E-03     21.4370E-03    -10.5311E-03     6.43723E-03    -10.8723E-03     21.1874E-03    -10.4721E-03     6.47329E-03
            2094     2.67218E-03     19.3229E-03    -12.8880E+06    -56.2872E+06    -10.6032E+06     2.34666E+06    -10.6397E-03     21.0748E-03    -10.4351E-03     4.72844E-03    -10.6071E-03     20.8274E-03    -10.3878E-03     4.75820E-03
            2095     1.78150E-03     19.3188E-03    -14.0663E+06    -57.5118E+06    -13.0022E+06     1.71953E+06    -10.4659E-03     20.8305E-03    -10.3646E-03     3.15474E-03    -10.4339E-03     20.5822E-03    -10.3258E-03     3.17659E-03
            2096     890.843E-06     19.3163E-03    -14.9360E+06    -59.4007E+06    -14.6310E+06     941.238E+03    -10.3488E-03     20.6674E-03    -10.3186E-03     1.68509E-03    -10.3158E-03     20.4138E-03    -10.2839E-03     1.69706E-03
            2097     16.8470E-03     18.8863E-03    -3.28251E+06     117.167E+06     23.4752E+06     188.525E+03    -25.2821E-03     40.1439E-03    -14.8618E-03     86.7493E-03    -26.1868E-03     41.3848E-03    -14.9095E-03     86.9927E-03
            2098     15.9679E-03     18.7800E-03    -4.28087E+06     65.9051E+06    -16.8591E+06     882.245E+03    -24.8951E-03     39.1523E-03    -14.2572E-03     95.7313E-03    -25.5558E-03     40.0808E-03    -14.4309E-03     95.7470E-03
            2099     15.0875E-03     18.7045E-03    -2.49018E+06     27.8687E+06    -2.34515E+06     287.162E+03    -22.4244E-03     36.3499E-03    -13.9254E-03     67.5847E-03    -22.6135E-03     36.6358E-03    -13.9740E-03     67.5244E-03
            2100     14.2064E-03     18.6500E-03    -1.85868E+06     1.68542E+06     27.3976E+03    -392.104E+03    -20.9317E-03     34.4795E-03    -13.5478E-03     53.4514E-03    -21.0003E-03     34.5475E-03    -13.5474E-03     53.3968E-03
            2101     13.3239E-03     18.6003E-03    -1.41627E+06    -27.4565E+06    -5.07265E+06    -262.536E+03    -19.9267E-03     33.0750E-03    -13.1483E-03     47.1210E-03    -19.9194E-03     32.9800E-03    -13.1318E-03     47.0803E-03
            2102     12.4409E-03     18.5575E-03    -1.04960E+06    -38.4440E+06    -362.183E+03     121.803E+03    -18.6827E-03     31.4674E-03    -12.7848E-03     40.1259E-03    -18.6488E-03     31.2945E-03    -12.7293E-03     40.1026E-03
            2103     11.5565E-03     18.5209E-03    -1.12670E+06    -38.9750E+06     3.26123E+06     665.869E+03    -17.5107E-03     29.9334E-03    -12.4227E-03     34.3909E-03    -17.4739E-03     29.7449E-03    -12.3483E-03     34.3830E-03
            2104     10.6716E-03     18.4890E-03    -1.14062E+06    -44.6957E+06     3.28353E+06     991.814E+03    -16.4410E-03     28.5134E-03    -12.0724E-03     29.6118E-03    -16.3920E-03     28.2922E-03    -11.9896E-03     29.6135E-03
            2105     9.78542E-03     18.4616E-03    -1.33708E+06    -47.0257E+06     5.22579E+06     1.20079E+06    -15.3792E-03     27.1321E-03    -11.7529E-03     25.2205E-03    -15.3284E-03     26.8945E-03    -11.6566E-03     25.2285E-03
            2106     8.89862E-03     18.4381E-03    -1.81699E+06    -46.5036E+06     6.05047E+06     1.41728E+06    -14.3678E-03     25.8232E-03    -11.4554E-03     21.2270E-03    -14.3201E-03     25.5864E-03    -11.3550E-03     21.2401E-03
            2107     8.01082E-03     18.4185E-03    -2.76929E+06    -47.5967E+06     6.07323E+06     1.59525E+06    -13.4551E-03     24.6468E-03    -11.1917E-03     17.7158E-03    -13.4098E-03     24.4051E-03    -11.0883E-03     17.7328E-03
            2108     7.12243E-03     18.4020E-03    -4.03550E+06    -50.3717E+06     4.64126E+06     2.25757E+06    -12.6713E-03     23.6303E-03    -10.9590E-03     14.6892E-03    -12.6259E-03     23.3782E-03    -10.8569E-03     14.7157E-03
            2109     6.23330E-03     18.3883E-03    -5.54004E+06    -51.9009E+06     1.94266E+06     3.04008E+06    -12.0137E-03     22.7657E-03    -10.7519E-03     12.1064E-03    -11.9694E-03     22.5118E-03    -10.6589E-03     12.1438E-03
            2110     5.34376E-03     18.3769E-03    -7.15972E+06    -53.2600E+06    -769.570E+03     3.51200E+06    -11.4741E-03     22.0496E-03    -10.5755E-03     9.84897E-03    -11.4318E-03     21.7951E-03    -10.4918E-03     9.89293E-03
            2111     4.45372E-03     18.3678E-03    -8.69365E+06    -54.0309E+06    -3.75400E+06     3.68079E+06    -11.0321E-03     21.4575E-03    -10.4254E-03     7.85454E-03    -10.9919E-03     21.2055E-03    -10.3532E-03     7.90105E-03
            2112     3.56338E-03     18.3605E-03    -9.97711E+06    -54.0951E+06    -6.79639E+06     3.36799E+06    -10.6769E-03     20.9785E-03    -10.3016E-03     6.08096E-03    -10.6386E-03     20.7324E-03    -10.2427E-03     6.12372E-03
            2113     2.67273E-03     18.3550E-03    -11.1257E+06    -54.8496E+06    -9.52344E+06     2.89697E+06    -10.4073E-03     20.6157E-03    -10.2084E-03     4.46225E-03    -10.3696E-03     20.3714E-03    -10.1603E-03     4.49914E-03
            2114     1.78194E-03     18.3511E-03    -11.9891E+06    -55.4821E+06    -11.5214E+06     2.27649E+06    -10.2233E-03     20.3707E-03    -10.1474E-03     2.98767E-03    -10.1861E-03     20.1274E-03    -10.1072E-03     3.01674E-03
            2115     890.980E-06     18.3487E-03    -12.6017E+06    -57.1969E+06    -12.5653E+06     1.31650E+06    -10.1333E-03     20.2538E-03    -10.1206E-03     1.59431E-03    -10.0947E-03     20.0049E-03    -10.0822E-03     1.61113E-03
            2116     16.8470E-03     17.8990E-03    -3.25839E+06     116.881E+06     22.9678E+06     560.114E+03    -26.4021E-03     41.2288E-03    -14.8267E-03     85.4797E-03    -27.2851E-03     42.4486E-03    -14.8766E-03     85.6894E-03
            2117     15.9697E-03     17.7950E-03    -2.27029E+06     67.1422E+06    -15.8967E+06    -185.260E+03    -25.6469E-03     39.8118E-03    -14.1650E-03     91.8225E-03    -26.2706E-03     40.7122E-03    -14.3385E-03     91.7994E-03
            2118     15.0903E-03     17.7223E-03    -1.15761E+06     28.4690E+06    -1.57029E+06    -377.670E+03    -22.7047E-03     36.4968E-03    -13.7922E-03     65.1002E-03    -22.8800E-03     36.7738E-03    -13.8396E-03     65.0299E-03
            2119     14.2085E-03     17.6692E-03    -1.15577E+06     2.16100E+06     279.661E+03    -511.272E+03    -21.0647E-03     34.4532E-03    -13.3885E-03     51.9666E-03    -21.1281E-03     34.5194E-03    -13.3885E-03     51.9110E-03
            2120     13.3266E-03     17.6209E-03    -1.10716E+06    -27.8267E+06    -5.37008E+06    -532.067E+03    -19.8853E-03     32.8579E-03    -12.9725E-03     45.6990E-03    -19.8736E-03     32.7591E-03    -12.9574E-03     45.6560E-03
            2121     12.4431E-03     17.5799E-03    -926.298E+03    -39.0714E+06    -884.370E+03     8.05149E+03    -18.6129E-03     31.2111E-03    -12.5982E-03     38.8379E-03    -18.5757E-03     31.0346E-03    -12.5446E-03     38.8140E-03
            2122     11.5590E-03     17.5445E-03    -803.477E+03    -39.3201E+06     2.76108E+06     374.241E+03    -17.3944E-03     29.6215E-03    -12.2271E-03     33.2036E-03    -17.3541E-03     29.4308E-03    -12.1551E-03     33.1927E-03
            2123     10.6735E-03     17.5141E-03    -901.381E+03    -44.9408E+06     2.76002E+06     730.204E+03    -16.2953E-03     28.1656E-03    -11.8703E-03     28.4517E-03    -16.2436E-03     27.9432E-03    -11.7900E-03     28.4506E-03
            2124     9.78754E-03     17.4878E-03    -1.15837E+06    -47.1229E+06     5.00536E+06     977.293E+03    -15.2063E-03     26.7536E-03    -11.5473E-03     24.0822E-03    -15.1539E-03     26.5153E-03    -11.4522E-03     24.0876E-03
            2125     8.90039E-03     17.4658E-03    -1.55967E+06    -46.5871E+06     5.75962E+06     1.15806E+06    -14.1647E-03     25.4114E-03    -11.2467E-03     20.1822E-03    -14.1150E-03     25.1741E-03    -11.1481E-03     20.1923E-03
            2126     8.01254E-03     17.4471E-03    -2.13238E+06    -47.9616E+06     5.85497E+06     1.69351E+06    -13.2511E-03     24.2333E-03    -10.9822E-03     16.7810E-03    -13.2017E-03     23.9891E-03    -10.8803E-03     16.7994E-03
            2127     7.12385E-03     17.4317E-03    -3.22278E+06    -51.2035E+06     4.67808E+06     2.62150E+06    -12.4747E-03     23.2245E-03    -10.7499E-03     13.8626E-03    -12.4239E-03     22.9670E-03    -10.6476E-03     13.8940E-03
            2128     6.23465E-03     17.4187E-03    -4.52754E+06    -52.0456E+06     2.25878E+06     3.54286E+06    -11.8184E-03     22.3594E-03    -10.5410E-03     11.3931E-03    -11.7692E-03     22.1028E-03    -10.4477E-03     11.4371E-03
            2129     5.34483E-03     17.4081E-03    -5.78694E+06    -52.8472E+06    -159.253E+03     3.95094E+06    -11.2761E-03     21.6387E-03    -10.3626E-03     9.24006E-03    -11.2284E-03     21.3833E-03    -10.2784E-03     9.28977E-03
            2130     4.45468E-03     17.3994E-03    -6.78246E+06    -53.0707E+06    -2.54232E+06     3.93715E+06    -10.8309E-03     21.0428E-03    -10.2119E-03     7.35051E-03    -10.7843E-03     20.7911E-03    -10.1378E-03     7.40039E-03
            2131     3.56413E-03     17.3926E-03    -7.65707E+06    -52.6658E+06    -5.05622E+06     3.73379E+06    -10.4698E-03     20.5578E-03    -10.0879E-03     5.66559E-03    -10.4245E-03     20.3129E-03    -10.0258E-03     5.71311E-03
            2132     2.67333E-03     17.3874E-03    -8.40132E+06    -53.2522E+06    -7.14096E+06     3.34545E+06    -10.2006E-03     20.1965E-03    -9.99592E-03     4.15135E-03    -10.1550E-03     19.9528E-03    -9.94223E-03     4.19406E-03
            2133     1.78231E-03     17.3838E-03    -8.89786E+06    -53.1477E+06    -8.77540E+06     2.69104E+06    -10.0071E-03     19.9433E-03    -9.93619E-03     2.76961E-03    -9.96176E-03     19.7032E-03    -9.89010E-03     2.80404E-03
            2134     891.109E-06     17.3815E-03    -9.05025E+06    -54.2339E+06    -9.32518E+06     1.63081E+06    -9.91511E-03     19.8385E-03    -9.92337E-03     1.53858E-03    -9.86782E-03     19.5945E-03    -9.87824E-03     1.55946E-03
            2135     16.8481E-03     16.9078E-03    -3.09197E+06     117.050E+06     22.2774E+06    -208.222E+03    -27.4311E-03     42.1888E-03    -14.7577E-03     83.3159E-03    -28.2814E-03     43.3792E-03    -14.8116E-03     83.4790E-03
            2136     15.9724E-03     16.8105E-03    -2.35495E+06     67.4114E+06    -17.1094E+06    -496.745E+03    -25.8513E-03     39.9014E-03    -14.0500E-03     88.2265E-03    -26.4362E-03     40.7669E-03    -14.2299E-03     88.1858E-03
            2137     15.0917E-03     16.7400E-03    -1.28876E+06     29.0126E+06    -2.71469E+06    -277.427E+03    -22.8139E-03     36.4702E-03    -13.6563E-03     63.3507E-03    -22.9810E-03     36.7437E-03    -13.7101E-03     63.2815E-03
            2138     14.2110E-03     16.6884E-03    -1.15717E+06     2.53380E+06    -279.317E+03    -453.624E+03    -21.0164E-03     34.2597E-03    -13.2434E-03     50.7775E-03    -21.0761E-03     34.3252E-03    -13.2468E-03     50.7240E-03
            2139     13.3283E-03     16.6420E-03    -1.21031E+06    -28.2602E+06    -6.22019E+06    -347.361E+03    -19.8536E-03     32.6725E-03    -12.8189E-03     44.5412E-03    -19.8387E-03     32.5711E-03    -12.8072E-03     44.5017E-03
            2140     12.4453E-03     16.6020E-03    -1.07876E+06    -39.4788E+06    -1.76455E+06    -148.351E+03    -18.5812E-03     31.0156E-03    -12.4344E-03     37.5734E-03    -18.5419E-03     30.8375E-03    -12.3845E-03     37.5484E-03
            2141     11.5608E-03     16.5686E-03    -1.14453E+06    -39.6964E+06     1.77172E+06     204.100E+03    -17.3228E-03     29.3759E-03    -12.0532E-03     31.9771E-03    -17.2816E-03     29.1847E-03    -11.9851E-03     31.9647E-03
            2142     10.6756E-03     16.5392E-03    -1.21406E+06    -45.1506E+06     1.83373E+06     463.262E+03    -16.1784E-03     27.8670E-03    -11.6887E-03     27.2394E-03    -16.1262E-03     27.6450E-03    -11.6123E-03     27.2353E-03
            2143     9.78922E-03     16.5146E-03    -1.21822E+06    -47.2150E+06     4.58530E+06     632.076E+03    -15.0642E-03     26.4262E-03    -11.3620E-03     22.8695E-03    -15.0111E-03     26.1879E-03    -11.2688E-03     22.8709E-03
            2144     8.90209E-03     16.4936E-03    -1.44584E+06    -46.7581E+06     5.51320E+06     817.941E+03    -14.0213E-03     25.0782E-03    -11.0568E-03     19.0305E-03    -13.9703E-03     24.8400E-03    -10.9594E-03     19.0364E-03
            2145     8.01399E-03     16.4762E-03    -1.94865E+06    -48.8670E+06     5.22146E+06     1.52305E+06    -13.1017E-03     23.8876E-03    -10.7858E-03     15.7147E-03    -13.0491E-03     23.6394E-03    -10.6860E-03     15.7311E-03
            2146     7.12527E-03     16.4616E-03    -2.68474E+06    -52.1696E+06     4.67461E+06     2.84790E+06    -12.3229E-03     22.8731E-03    -10.5502E-03     12.9019E-03    -12.2680E-03     22.6100E-03    -10.4473E-03     12.9364E-03
            2147     6.23585E-03     16.4496E-03    -3.61185E+06    -52.0379E+06     3.04253E+06     3.69797E+06    -11.6562E-03     21.9932E-03    -10.3369E-03     10.5427E-03    -11.6036E-03     21.7341E-03    -10.2410E-03     10.5888E-03
            2148     5.34598E-03     16.4395E-03    -4.24770E+06    -52.1920E+06     1.00210E+06     3.86002E+06    -11.0976E-03     21.2502E-03    -10.1526E-03     8.51101E-03    -11.0448E-03     20.9942E-03    -10.0657E-03     8.55964E-03
            2149     4.45560E-03     16.4315E-03    -4.79449E+06    -52.1610E+06    -908.917E+03     3.89847E+06    -10.6416E-03     20.6396E-03    -9.99803E-03     6.73259E-03    -10.5887E-03     20.3872E-03    -9.91999E-03     6.78204E-03
            2150     3.56490E-03     16.4251E-03    -5.25094E+06    -51.1971E+06    -2.52384E+06     3.64544E+06    -10.2783E-03     20.1496E-03    -9.87126E-03     5.16268E-03    -10.2267E-03     19.9049E-03    -9.80203E-03     5.20911E-03
            2151     2.67391E-03     16.4203E-03    -5.43101E+06    -51.5940E+06    -3.79318E+06     3.17953E+06    -10.0009E-03     19.7755E-03    -9.77465E-03     3.75656E-03    -9.94769E-03     19.5309E-03    -9.71093E-03     3.79717E-03
            2152     1.78269E-03     16.4168E-03    -5.30832E+06    -50.7465E+06    -4.67786E+06     2.62322E+06    -9.80579E-03     19.5097E-03    -9.70387E-03     2.49095E-03    -9.75191E-03     19.2704E-03    -9.64598E-03     2.52453E-03
            2153     891.450E-06     16.4147E-03    -5.19997E+06    -51.0582E+06    -5.06193E+06     1.69193E+06    -9.68581E-03     19.3524E-03    -9.66655E-03     1.42024E-03    -9.63004E-03     19.1125E-03    -9.61029E-03     1.44194E-03
            2154     16.8516E-03     15.9204E-03    -2.49025E+06     116.989E+06     22.1735E+06    -114.186E+03    -28.0278E-03     42.7422E-03    -14.7144E-03     82.2796E-03    -28.8453E-03     43.9020E-03    -14.7696E-03     82.4145E-03
            2155     15.9721E-03     15.8247E-03    -3.47067E+06     67.0645E+06    -17.2696E+06     81.0843E+03    -26.0540E-03     40.0365E-03    -13.9825E-03     85.7535E-03    -26.6089E-03     40.8674E-03    -14.1610E-03     85.7071E-03
            2156     15.0941E-03     15.7576E-03    -2.74024E+06     29.2512E+06    -3.37291E+06    -579.635E+03    -22.9874E-03     36.5542E-03    -13.5668E-03     61.5190E-03    -23.1536E-03     36.8244E-03    -13.6221E-03     61.4452E-03
            2157     14.2120E-03     15.7082E-03    -2.62190E+06     2.39988E+06    -1.21935E+06    -462.060E+03    -21.1509E-03     34.2862E-03    -13.1352E-03     49.6947E-03    -21.2133E-03     34.3514E-03    -13.1410E-03     49.6419E-03
            2158     13.3302E-03     15.6625E-03    -2.25821E+06    -28.2991E+06    -7.15171E+06    -441.537E+03    -19.9558E-03     32.6489E-03    -12.6931E-03     43.1235E-03    -19.9429E-03     32.5483E-03    -12.6845E-03     43.0836E-03
            2159     12.4468E-03     15.6249E-03    -1.84774E+06    -39.9194E+06    -2.79255E+06    -234.313E+03    -18.5972E-03     30.8906E-03    -12.2934E-03     36.1041E-03    -18.5585E-03     30.7118E-03    -12.2468E-03     36.0788E-03
            2160     11.5626E-03     15.5924E-03    -1.81451E+06    -39.9533E+06     993.372E+03     60.7566E+03    -17.3156E-03     29.2157E-03    -11.9001E-03     30.5842E-03    -17.2757E-03     29.0247E-03    -11.8346E-03     30.5705E-03
            2161     10.6772E-03     15.5649E-03    -1.71359E+06    -45.0839E+06     1.09935E+06     9.63569E+03    -16.1414E-03     27.6640E-03    -11.5226E-03     25.8124E-03    -16.0903E-03     27.4437E-03    -11.4493E-03     25.8029E-03
            2162     9.79091E-03     15.5413E-03    -1.44866E+06    -47.3409E+06     4.13777E+06    -76.7407E+03    -15.0093E-03     26.1943E-03    -11.1850E-03     21.4295E-03    -14.9563E-03     25.9561E-03    -11.0935E-03     21.4221E-03
            2163     8.90364E-03     15.5219E-03    -1.36435E+06    -47.2747E+06     5.60327E+06     368.485E+03    -13.9597E-03     24.8292E-03    -10.8695E-03     17.5916E-03    -13.9075E-03     24.5881E-03    -10.7710E-03     17.5919E-03
            2164     8.01560E-03     15.5054E-03    -1.86798E+06    -50.1282E+06     5.12491E+06     1.47431E+06    -13.0193E-03     23.6039E-03    -10.5846E-03     14.3591E-03    -12.9642E-03     23.3494E-03    -10.4836E-03     14.3751E-03
            2165     7.12672E-03     15.4920E-03    -2.51000E+06    -52.9573E+06     4.78509E+06     2.56139E+06    -12.2051E-03     22.5407E-03    -10.3356E-03     11.6726E-03    -12.1483E-03     22.2731E-03    -10.2312E-03     11.7035E-03
            2166     6.23725E-03     15.4806E-03    -2.64731E+06    -51.8527E+06     4.17151E+06     3.10198E+06    -11.5032E-03     21.6159E-03    -10.1127E-03     9.44670E-03    -11.4476E-03     21.3547E-03    -10.0128E-03     9.48519E-03
            2167     5.34717E-03     15.4715E-03    -2.89713E+06    -51.7387E+06     2.85108E+06     3.44866E+06    -10.9183E-03     20.8387E-03    -9.92039E-03     7.56428E-03    -10.8620E-03     20.5802E-03    -9.82691E-03     7.60768E-03
            2168     4.45668E-03     15.4639E-03    -3.19376E+06    -51.0714E+06     1.20912E+06     3.34989E+06    -10.4444E-03     20.2002E-03    -9.75575E-03     5.94246E-03    -10.3882E-03     19.9478E-03    -9.67102E-03     5.98489E-03
            2169     3.56580E-03     15.4581E-03    -3.15351E+06    -49.8213E+06     125.697E+03     2.90195E+06    -10.0699E-03     19.6891E-03    -9.61926E-03     4.51831E-03    -10.0136E-03     19.4444E-03    -9.54182E-03     4.55520E-03
            2170     2.67462E-03     15.4535E-03    -3.04959E+06    -50.0032E+06    -436.863E+03     2.41480E+06    -9.78076E-03     19.2916E-03    -9.51083E-03     3.24613E-03    -9.72285E-03     19.0466E-03    -9.43609E-03     3.27691E-03
            2171     1.78327E-03     15.4504E-03    -2.88048E+06    -48.8550E+06    -1.47892E+06     1.84085E+06    -9.55515E-03     18.9759E-03    -9.42076E-03     2.15104E-03    -9.49651E-03     18.7380E-03    -9.35314E-03     2.17456E-03
            2172     891.628E-06     15.4484E-03    -2.49645E+06    -48.2918E+06    -2.16013E+06     1.27148E+06    -9.41408E-03     18.7594E-03    -9.34535E-03     1.21276E-03    -9.35301E-03     18.5253E-03    -9.28250E-03     1.22904E-03
            2173     16.8470E-03     14.9294E-03    -2.15837E+06     117.809E+06     22.8468E+06     197.367E+03    -28.3146E-03     43.0374E-03    -14.7228E-03     79.9200E-03    -29.0988E-03     44.1660E-03    -14.7763E-03     80.0339E-03
            2174     15.9742E-03     14.8386E-03    -3.00999E+06     67.5903E+06    -16.0132E+06    -330.299E+03    -26.4828E-03     40.4516E-03    -13.9688E-03     82.2406E-03    -27.0030E-03     41.2477E-03    -14.1425E-03     82.1749E-03
            2175     15.0934E-03     14.7756E-03    -2.30147E+06     28.3986E+06    -3.86478E+06    -666.944E+03    -23.4420E-03     36.9563E-03    -13.5143E-03     59.3262E-03    -23.5967E-03     37.2149E-03    -13.5714E-03     59.2497E-03
            2176     14.2135E-03     14.7268E-03    -2.48107E+06     2.58591E+06    -1.28325E+06    -420.932E+03    -21.5767E-03     34.6269E-03    -13.0502E-03     47.7829E-03    -21.6356E-03     34.6900E-03    -13.0567E-03     47.7305E-03
            2177     13.3314E-03     14.6838E-03    -2.49965E+06    -28.2512E+06    -7.52598E+06    -509.766E+03    -20.1020E-03     32.6823E-03    -12.5803E-03     41.2871E-03    -20.0878E-03     32.5808E-03    -12.5733E-03     41.2471E-03
            2178     12.4485E-03     14.6473E-03    -2.40272E+06    -40.3781E+06    -3.64194E+06    -377.264E+03    -18.7003E-03     30.8604E-03    -12.1601E-03     34.3039E-03    -18.6613E-03     30.6802E-03    -12.1163E-03     34.2774E-03
            2179     11.5641E-03     14.6168E-03    -2.17869E+06    -39.9540E+06     423.402E+03    -256.464E+03    -17.4039E-03     29.1516E-03    -11.7477E-03     28.8097E-03    -17.3642E-03     28.9611E-03    -11.6845E-03     28.7925E-03
            2180     10.6789E-03     14.5903E-03    -2.04806E+06    -44.8270E+06     828.937E+03    -461.591E+03    -16.2353E-03     27.5844E-03    -11.3490E-03     23.9353E-03    -16.1855E-03     27.3658E-03    -11.2769E-03     23.9202E-03
            2181     9.79271E-03     14.5686E-03    -1.99427E+06    -47.2371E+06     3.79541E+06    -802.480E+03    -15.0679E-03     26.0547E-03    -10.9868E-03     19.5180E-03    -15.0170E-03     25.8180E-03    -10.8964E-03     19.5015E-03
            2182     8.90554E-03     14.5501E-03    -2.09300E+06    -48.5693E+06     5.36544E+06    -246.177E+03    -13.9667E-03     24.6159E-03    -10.6492E-03     15.7101E-03    -13.9157E-03     24.3695E-03    -10.5489E-03     15.7027E-03
            2183     8.01745E-03     14.5351E-03    -2.34050E+06    -51.5150E+06     5.62255E+06     1.23373E+06    -12.9777E-03     23.3209E-03    -10.3432E-03     12.5712E-03    -12.9235E-03     23.0593E-03    -10.2370E-03     12.5843E-03
            2184     7.12859E-03     14.5225E-03    -2.60023E+06    -52.9338E+06     5.18815E+06     1.85186E+06    -12.0965E-03     22.1648E-03    -10.0682E-03     10.0484E-03    -12.0407E-03     21.8968E-03    -9.96176E-03     10.0703E-03
            2185     6.23896E-03     14.5122E-03    -2.84755E+06    -52.0605E+06     4.65091E+06     2.10426E+06    -11.3305E-03     21.1571E-03    -9.82652E-03     7.99308E-03    -11.2763E-03     20.8944E-03    -9.72365E-03     8.01883E-03
            2186     5.34876E-03     14.5037E-03    -2.88470E+06    -51.3735E+06     3.91698E+06     2.51672E+06    -10.6928E-03     20.3126E-03    -9.61980E-03     6.30967E-03    -10.6386E-03     20.0544E-03    -9.52154E-03     6.34115E-03
            2187     4.45805E-03     14.4969E-03    -2.76667E+06    -49.8791E+06     2.52973E+06     2.25798E+06    -10.1778E-03     19.6195E-03    -9.44169E-03     4.91957E-03    -10.1231E-03     19.3705E-03    -9.35270E-03     4.94800E-03
            2188     3.56694E-03     14.4914E-03    -2.68321E+06    -48.8068E+06     1.17065E+06     1.81961E+06    -9.77540E-03     19.0691E-03    -9.29374E-03     3.73848E-03    -9.71977E-03     18.8273E-03    -9.21323E-03     3.76146E-03
            2189     2.67556E-03     14.4874E-03    -2.53983E+06    -48.6413E+06     227.305E+03     1.35424E+06    -9.46937E-03     18.6430E-03    -9.17358E-03     2.68651E-03    -9.41185E-03     18.4031E-03    -9.09823E-03     2.70366E-03
            2190     1.78385E-03     14.4845E-03    -2.56019E+06    -47.6940E+06    -926.508E+03     888.693E+03    -9.23521E-03     18.3061E-03    -9.07088E-03     1.75929E-03    -9.17746E-03     18.0727E-03    -9.00264E-03     1.77056E-03
            2191     892.052E-06     14.4828E-03    -2.58485E+06    -46.6345E+06    -2.11069E+06     675.098E+03    -9.06401E-03     18.0373E-03    -8.97330E-03     936.063E-06    -9.00587E-03     17.8115E-03    -8.91249E-03     944.662E-06
            2192     16.8515E-03     13.9376E-03    -1.20396E+06     118.022E+06     23.0985E+06     317.956E+03    -28.5532E-03     43.2701E-03    -14.7169E-03     76.9742E-03    -29.2992E-03     44.3640E-03    -14.7708E-03     77.0639E-03
            2193     15.9719E-03     13.8539E-03    -1.78289E+06     69.2138E+06    -15.4908E+06     105.874E+03    -26.7989E-03     40.7374E-03    -13.9385E-03     77.4616E-03    -27.2816E-03     41.5046E-03    -14.1137E-03     77.3896E-03
            2194     15.0951E-03     13.7908E-03    -3.03335E+06     28.4440E+06    -4.87260E+06    -468.188E+03    -23.9527E-03     37.4004E-03    -13.4477E-03     55.8291E-03    -24.1007E-03     37.6529E-03    -13.5089E-03     55.7528E-03
            2195     14.2147E-03     13.7464E-03    -3.09908E+06     2.24134E+06    -2.00581E+06    -469.254E+03    -21.8520E-03     34.8044E-03    -12.9524E-03     45.0855E-03    -21.9090E-03     34.8642E-03    -12.9612E-03     45.0326E-03
            2196     13.3330E-03     13.7041E-03    -3.19722E+06    -27.9681E+06    -7.70112E+06    -267.484E+03    -20.3287E-03     32.7864E-03    -12.4578E-03     38.9926E-03    -20.3159E-03     32.6854E-03    -12.4511E-03     38.9565E-03
            2197     12.4501E-03     13.6702E-03    -3.02059E+06    -40.4566E+06    -3.91514E+06     -553.17E+03    -18.9352E-03     30.9444E-03    -12.0092E-03     32.0229E-03    -18.8976E-03     30.7639E-03    -11.9657E-03     31.9947E-03
            2198     11.5662E-03     13.6407E-03    -2.82686E+06    -39.9569E+06     140.245E+03    -746.336E+03    -17.6603E-03     29.2236E-03    -11.5633E-03     26.4931E-03    -17.6227E-03     29.0338E-03    -11.5005E-03     26.4700E-03
            2199     10.6812E-03     13.6162E-03    -2.46121E+06    -44.3682E+06     1.25306E+06    -1.05372E+06    -16.4462E-03     27.5758E-03    -11.1296E-03     21.4899E-03    -16.3992E-03     27.3590E-03    -11.0554E-03     21.4675E-03
            2200     9.79518E-03     13.5955E-03    -2.37701E+06    -47.2485E+06     4.70672E+06    -1.30612E+06    -15.2120E-03     25.9435E-03    -10.7315E-03     17.0177E-03    -15.1639E-03     25.7057E-03    -10.6360E-03     16.9950E-03
            2201     8.90812E-03     13.5788E-03    -2.74651E+06    -50.0185E+06     6.00620E+06    -730.918E+03    -14.0140E-03     24.3711E-03    -10.3571E-03     13.2897E-03    -13.9649E-03     24.1173E-03    -10.2506E-03     13.2763E-03
            2202     8.02008E-03     13.5649E-03    -3.03059E+06    -52.8203E+06     6.21034E+06     365.823E+03    -12.9250E-03     22.9408E-03    -10.0158E-03     10.3189E-03    -12.8731E-03     22.6727E-03    -9.90375E-03     10.3209E-03
            2203     7.13113E-03     13.5536E-03    -3.37598E+06    -52.8426E+06     5.97388E+06     1.16416E+06    -11.9490E-03     21.6578E-03    -9.70877E-03     7.99990E-03    -11.8982E-03     21.3901E-03    -9.59738E-03     8.01309E-03
            2204     6.24139E-03     13.5442E-03    -4.02386E+06    -52.1554E+06     4.53906E+06     1.34498E+06    -11.0973E-03     20.5338E-03    -9.43657E-03     6.19341E-03    -11.0485E-03     20.2725E-03    -9.33242E-03     6.20951E-03
            2205     5.35096E-03     13.5366E-03    -4.39584E+06    -50.8691E+06     2.89103E+06     1.14031E+06    -10.3801E-03     19.5833E-03    -9.20321E-03     4.78068E-03    -10.3326E-03     19.3312E-03    -9.10862E-03     4.79452E-03
            2206     4.45993E-03     13.5304E-03    -4.29616E+06    -49.1414E+06     1.55634E+06     881.583E+03    -9.79452E-03     18.8046E-03    -9.01004E-03     3.65683E-03    -9.74705E-03     18.5629E-03    -8.92477E-03     3.66761E-03
            2207     3.56846E-03     13.5256E-03    -4.10253E+06    -48.1703E+06    -84.3836E+03     649.707E+03    -9.33754E-03     18.1920E-03    -8.85445E-03     2.74027E-03    -9.28810E-03     17.9572E-03    -8.77907E-03     2.74824E-03
            2208     2.67660E-03     13.5218E-03    -3.99979E+06    -47.8060E+06    -1.89012E+06     325.424E+03    -9.00979E-03     17.7425E-03    -8.73272E-03     1.97178E-03    -8.95771E-03     17.5120E-03    -8.66705E-03     1.97571E-03
            2209     1.78461E-03     13.5193E-03    -3.84204E+06    -47.2895E+06    -2.74685E+06     132.517E+03    -8.78811E-03     17.4284E-03    -8.64033E-03     1.29641E-03    -8.73472E-03     17.2015E-03    -8.57992E-03     1.29795E-03
            2210     892.369E-06     13.5178E-03    -4.07061E+06    -46.0031E+06    -3.31820E+06     143.144E+03    -8.64721E-03     17.1901E-03    -8.54285E-03     634.886E-06    -8.59564E-03     16.9713E-03    -8.48684E-03     636.648E-06
            2211     16.8479E-03     12.9491E-03    -3.78856E+06     117.311E+06     19.3199E+06     811.341E+03    -29.3483E-03     44.0274E-03    -14.6791E-03     74.8635E-03    -30.0716E-03     45.0979E-03    -14.7471E-03     74.9270E-03
            2212     15.9755E-03     12.8651E-03    -4.97006E+06     70.7514E+06    -13.9571E+06    -117.070E+03    -27.4159E-03     41.2940E-03    -13.8781E-03     72.6465E-03    -27.8825E-03     42.0349E-03    -14.0433E-03     72.5522E-03
            2213     15.0966E-03     12.8085E-03    -3.68870E+06     29.2183E+06    -3.13181E+06    -511.164E+03    -24.0207E-03     37.3751E-03    -13.3544E-03     52.4032E-03    -24.1650E-03     37.6192E-03    -13.4070E-03     52.3273E-03
            2214     14.2163E-03     12.7643E-03    -3.82415E+06     1.52806E+06    -1.40785E+06    -361.011E+03    -22.1189E-03     34.9527E-03    -12.8338E-03     42.4825E-03    -22.1757E-03     35.0055E-03    -12.8375E-03     42.4316E-03
            2215     13.3351E-03     12.7254E-03    -3.77064E+06    -27.5717E+06    -6.71672E+06    -286.073E+03    -20.7302E-03     33.0352E-03    -12.3049E-03     36.2335E-03    -20.7200E-03     32.9332E-03    -12.2931E-03     36.1976E-03
            2216     12.4525E-03     12.6922E-03     -3.6639E+06    -40.1190E+06    -3.11757E+06    -619.928E+03    -19.3602E-03     31.1715E-03    -11.8113E-03     29.3949E-03    -19.3262E-03     30.9911E-03    -11.7634E-03     29.3663E-03
            2217     11.5690E-03     12.6649E-03    -3.53307E+06    -39.5373E+06     1.13539E+06    -1.33582E+06    -18.0701E-03     29.3855E-03    -11.3153E-03     23.6450E-03    -18.0373E-03     29.1965E-03    -11.2472E-03     23.6146E-03
            2218     10.6844E-03     12.6416E-03    -3.14663E+06    -43.9253E+06     2.53241E+06    -2.04395E+06    -16.7212E-03     27.5514E-03    -10.8302E-03     18.5902E-03    -16.6796E-03     27.3355E-03    -10.7493E-03     18.5553E-03
            2219     9.79869E-03     12.6229E-03    -2.77448E+06    -47.8251E+06     6.20231E+06    -1.99305E+06    -15.3526E-03     25.7374E-03    -10.3848E-03     14.1438E-03    -15.3075E-03     25.4948E-03    -10.2804E-03     14.1125E-03
            2220     8.91176E-03     12.6076E-03    -3.15420E+06    -51.3359E+06     7.44261E+06    -1.08578E+06    -14.0230E-03     23.9888E-03    -9.96581E-03     10.6042E-03    -13.9759E-03     23.7267E-03    -9.84958E-03     10.5865E-03
            2221     8.02371E-03     12.5953E-03    -4.20951E+06    -53.7577E+06     6.79953E+06    -144.391E+03    -12.7998E-03     22.3805E-03    -9.58069E-03     7.91251E-03    -12.7532E-03     22.1084E-03    -9.46264E-03     7.90817E-03
            2222     7.13462E-03     12.5851E-03    -5.21397E+06    -53.2857E+06     5.88220E+06     467.655E+03    -11.7113E-03     20.9472E-03    -9.23588E-03     5.87475E-03    -11.6689E-03     20.6801E-03    -9.12165E-03     5.87912E-03
            2223     6.24464E-03     12.5770E-03    -5.78429E+06    -51.7491E+06     3.53867E+06     563.592E+03    -10.7702E-03     19.6981E-03    -8.92795E-03     4.35772E-03    -10.7293E-03     19.4428E-03    -8.82684E-03     4.36387E-03
            2224     5.35387E-03     12.5703E-03    -6.18790E+06    -50.2428E+06     968.087E+03     41.8504E+03    -9.97370E-03     18.6382E-03    -8.66451E-03     3.22692E-03    -9.93326E-03     18.3946E-03    -8.57785E-03     3.22669E-03
            2225     4.46248E-03     12.5649E-03    -6.41281E+06    -48.8591E+06    -935.845E+03    -428.948E+03    -9.31438E-03     17.7644E-03    -8.45002E-03     2.36910E-03    -9.27428E-03     17.5308E-03    -8.37455E-03     2.36305E-03
            2226     3.57052E-03     12.5606E-03    -6.40537E+06    -48.0681E+06    -2.95676E+06    -492.233E+03    -8.79485E-03     17.0762E-03    -8.28135E-03     1.69855E-03    -8.75290E-03     16.8494E-03    -8.21715E-03     1.69185E-03
            2227     2.67820E-03     12.5574E-03    -6.41959E+06    -47.6220E+06    -4.68810E+06    -390.310E+03    -8.42109E-03     16.5802E-03    -8.15913E-03     1.18465E-03    -8.37732E-03     16.3582E-03    -8.10421E-03     1.17939E-03
            2228     1.78552E-03     12.5551E-03    -6.58819E+06    -47.4311E+06    -5.85825E+06    -359.105E+03    -8.18460E-03     16.2647E-03    -8.08006E-03     732.368E-06    -8.14022E-03     16.0455E-03    -8.03102E-03     727.599E-06
            2229     892.775E-06     12.5538E-03    -6.61448E+06    -46.0849E+06    -6.40369E+06    -264.159E+03    -8.08898E-03     16.0948E-03    -8.00578E-03     303.886E-06    -8.04553E-03     15.8837E-03    -7.96138E-03     300.398E-06
            2230     16.8512E-03     11.9532E-03    -2.77841E+06     118.730E+06     20.5145E+06     1.49259E+06    -30.2398E-03     44.8615E-03    -14.6217E-03     71.2659E-03    -30.9239E-03     45.8979E-03    -14.6872E-03     71.3048E-03
            2231     15.9761E-03     11.8793E-03    -2.63033E+06     71.3556E+06    -11.6733E+06     154.053E+03    -27.4926E-03     41.2812E-03    -13.7885E-03     67.3189E-03    -27.9100E-03     41.9767E-03    -13.9466E-03     67.2197E-03
            2232     15.0981E-03     11.8247E-03    -3.05348E+06     28.7467E+06    -1.09266E+06    -169.211E+03    -24.3399E-03     37.5837E-03    -13.2437E-03     49.6119E-03    -24.4748E-03     37.8130E-03    -13.2865E-03     49.5403E-03
            2233     14.2187E-03     11.7828E-03    -3.57854E+06     2.08381E+06     963.431E+03    -150.873E+03    -22.6918E-03     35.3765E-03    -12.6847E-03     39.7479E-03    -22.7479E-03     35.4246E-03    -12.6777E-03     39.6996E-03
            2234     13.3377E-03     11.7455E-03    -3.80559E+06    -27.7516E+06    -5.09447E+06    -367.832E+03    -21.3687E-03     33.4677E-03    -12.0990E-03     33.2468E-03    -21.3584E-03     33.3603E-03    -12.0787E-03     33.2100E-03
            2235     12.4560E-03     11.7144E-03    -3.44348E+06    -39.0236E+06    -1.40964E+06    -955.712E+03    -19.9804E-03     31.5203E-03    -11.5399E-03     26.3682E-03    -19.9480E-03     31.3414E-03    -11.4854E-03     26.3354E-03
            2236     11.5730E-03     11.6884E-03    -3.12951E+06    -38.9148E+06     3.10342E+06    -1.96836E+06    -18.4940E-03     29.4753E-03    -10.9813E-03     20.4930E-03    -18.4621E-03     29.2852E-03    -10.9048E-03     20.4549E-03
            2237     10.6889E-03     11.6674E-03    -3.21538E+06    -43.3280E+06     4.22023E+06    -2.73676E+06    -16.9341E-03     27.3720E-03    -10.4379E-03     15.4990E-03    -16.8957E-03     27.1562E-03    -10.3493E-03     15.4556E-03
            2238     9.80321E-03     11.6503E-03    -3.79468E+06    -48.9957E+06     6.92395E+06    -2.65561E+06    -15.3558E-03     25.2989E-03    -9.94307E-03     11.3259E-03    -15.3149E-03     25.0506E-03    -9.83191E-03     11.2864E-03
            2239     8.91628E-03     11.6370E-03    -4.82633E+06    -53.0553E+06     8.12916E+06    -1.21122E+06    -13.8815E-03     23.3671E-03    -9.48566E-03     8.09616E-03    -13.8411E-03     23.0977E-03    -9.36109E-03     8.07704E-03
            2240     8.02805E-03     11.6262E-03    -6.17502E+06    -54.2401E+06     6.88377E+06    -201.338E+03    -12.5366E-03     21.5990E-03    -9.06242E-03     5.79220E-03    -12.4991E-03     21.3271E-03    -8.94040E-03     5.78729E-03
            2241     7.13873E-03     11.6176E-03    -7.30793E+06    -53.4140E+06     4.49542E+06    -246.265E+03    -11.3605E-03     20.0417E-03    -8.68118E-03     4.11713E-03    -11.3263E-03     19.7789E-03    -8.57065E-03     4.11240E-03
            2242     6.24839E-03     11.6106E-03    -7.91693E+06    -51.3623E+06     1.65163E+06    -562.731E+03    -10.3529E-03     18.6974E-03    -8.34447E-03     2.91647E-03    -10.3205E-03     18.4497E-03    -8.25026E-03     2.90815E-03
            2243     5.35727E-03     11.6050E-03    -8.15060E+06    -49.7606E+06    -1.03949E+06    -932.982E+03    -9.50182E-03     17.5581E-03    -8.05632E-03     2.04278E-03    -9.46897E-03     17.3227E-03    -7.97754E-03     2.03001E-03
            2244     4.46537E-03     11.6004E-03    -8.52993E+06    -48.8847E+06    -3.83238E+06    -1.16119E+06    -8.78970E-03     16.6060E-03    -7.81630E-03     1.39763E-03    -8.75595E-03     16.3795E-03    -7.75221E-03     1.38214E-03
            2245     3.57295E-03     11.5969E-03    -9.13154E+06    -48.4895E+06    -6.32601E+06    -1.06506E+06    -8.22385E-03     15.8499E-03    -7.62608E-03     932.296E-06    -8.19004E-03     15.6299E-03    -7.57416E-03     918.206E-06
            2246     2.68001E-03     11.5941E-03    -9.56329E+06    -48.0524E+06    -8.02037E+06    -772.579E+03    -7.80283E-03     15.2882E-03    -7.48542E-03     593.659E-06    -7.76932E-03     15.0734E-03    -7.44198E-03     583.460E-06
            2247     1.78687E-03     11.5922E-03    -9.89116E+06    -47.7459E+06    -9.07811E+06    -502.674E+03    -7.51617E-03     14.9091E-03    -7.39295E-03     308.721E-06    -7.48319E-03     14.6979E-03    -7.35477E-03     302.095E-06
            2248     893.472E-06     11.5910E-03    -10.0411E+06    -46.6297E+06    -9.98637E+06    -289.072E+03    -7.38000E-03     14.7090E-03    -7.32904E-03     90.2125E-06    -7.34771E-03     14.5055E-03    -7.29680E-03     86.3986E-06
            2249     16.8533E-03     10.9617E-03    -654.393E+03     117.715E+06     24.4531E+06     1.04454E+06    -30.6676E-03     45.2547E-03    -14.5871E-03     69.2860E-03    -31.3107E-03     46.2427E-03    -14.6346E-03     69.2922E-03
            2250     15.9778E-03     10.8926E-03    -1.30139E+06     72.6179E+06    -10.1145E+06     2.06392E+06    -27.9770E-03     41.6853E-03    -13.7083E-03     63.6916E-03    -28.3603E-03     42.3513E-03    -13.8623E-03     63.6087E-03
            2251     15.1004E-03     10.8403E-03    -2.08508E+06     29.6992E+06     95.8194E+03     826.087E+03    -25.3430E-03     38.4522E-03    -13.1092E-03     46.4000E-03    -25.4686E-03     38.6758E-03    -13.1488E-03     46.3379E-03
            2252     14.2214E-03     10.8008E-03    -2.90819E+06     2.29184E+06     2.30854E+06     69.0603E+03    -23.5800E-03     36.0616E-03    -12.4816E-03     36.8311E-03    -23.6314E-03     36.1042E-03    -12.4691E-03     36.7852E-03
            2253     13.3416E-03     10.7651E-03    -2.89843E+06    -26.9197E+06    -3.62897E+06    -545.436E+03    -22.2472E-03     34.0666E-03    -11.8194E-03     29.9859E-03    -22.2335E-03     33.9577E-03    -11.7943E-03     29.9467E-03
            2254     12.4606E-03     10.7361E-03    -2.47258E+06    -38.1784E+06     272.204E+03    -1.55939E+06    -20.5642E-03     31.7504E-03    -11.1862E-03     23.0521E-03    -20.5293E-03     31.5706E-03    -11.1259E-03     23.0120E-03
            2255     11.5781E-03     10.7122E-03    -2.54863E+06    -38.0968E+06     5.21730E+06    -2.32290E+06    -18.7407E-03     29.3092E-03    -10.5685E-03     17.3633E-03    -18.7095E-03     29.1186E-03    -10.4835E-03     17.3212E-03
            2256     10.6940E-03     10.6933E-03    -3.30016E+06    -43.1465E+06     6.24091E+06    -2.75599E+06    -16.9032E-03     26.8836E-03    -9.98042E-03     12.6074E-03    -16.8680E-03     26.6656E-03    -9.88187E-03     12.5642E-03
            2257     9.80834E-03     10.6785E-03    -4.85573E+06    -50.1819E+06     8.24086E+06    -2.31269E+06    -15.1231E-03     24.5765E-03    -9.45339E-03     8.88508E-03    -15.0875E-03     24.3217E-03    -9.33238E-03     8.85027E-03
            2258     8.92112E-03     10.6669E-03    -6.63805E+06    -54.8500E+06     8.61790E+06    -1.28452E+06    -13.5121E-03     22.4847E-03    -8.97262E-03     6.13092E-03    -13.4788E-03     22.2082E-03    -8.84037E-03     6.11105E-03
            2259     8.03257E-03     10.6581E-03    -7.84419E+06    -54.4158E+06     6.44623E+06    -600.633E+03    -12.1017E-03     20.6295E-03    -8.52781E-03     4.28038E-03    -12.0716E-03     20.3598E-03    -8.40530E-03     4.27043E-03
            2260     7.14280E-03     10.6509E-03    -8.74276E+06    -52.9247E+06     2.85410E+06    -939.463E+03    -10.8943E-03     19.0221E-03    -8.12772E-03     3.00621E-03    -10.8656E-03     18.7661E-03    -8.02403E-03     2.99258E-03
            2261     6.25208E-03     10.6453E-03    -9.48404E+06    -51.1325E+06    -438.099E+03    -1.52948E+06    -9.87174E-03     17.6499E-03    -7.77814E-03     2.10871E-03    -9.84447E-03     17.4087E-03    -7.69244E-03     2.08792E-03
            2262     5.36044E-03     10.6407E-03    -10.2098E+06    -49.9115E+06    -3.58701E+06    -1.65677E+06    -9.00541E-03     16.4820E-03    -7.47658E-03     1.46310E-03    -8.97895E-03     16.2525E-03    -7.40734E-03     1.44098E-03
            2263     4.46818E-03     10.6372E-03    -11.0425E+06    -49.3380E+06    -6.64874E+06    -1.34807E+06    -8.29072E-03     15.5111E-03    -7.22033E-03     979.384E-06    -8.26479E-03     15.2900E-03    -7.16602E-03     961.454E-06
            2264     3.57523E-03     10.6343E-03    -11.8785E+06    -49.0437E+06    -9.30664E+06    -1.03592E+06    -7.70788E-03     14.7158E-03    -7.00789E-03     625.900E-06    -7.68268E-03     14.5013E-03    -6.96608E-03     612.151E-06
            2265     2.68191E-03     10.6322E-03    -12.6364E+06    -48.6778E+06    -11.2414E+06    -768.362E+03    -7.24048E-03     14.0811E-03    -6.84060E-03     380.165E-06    -7.21675E-03     13.8723E-03    -6.80791E-03     369.992E-06
            2266     1.78812E-03     10.6306E-03    -13.1805E+06    -48.3034E+06    -12.4397E+06    -452.907E+03    -6.89786E-03     13.6188E-03    -6.72091E-03     200.370E-06    -6.87563E-03     13.4144E-03    -6.69396E-03     194.353E-06
            2267     894.111E-06     10.6297E-03    -13.4557E+06    -47.0566E+06    -13.2224E+06    -252.586E+03    -6.71287E-03     13.3387E-03    -6.62581E-03     64.4926E-06    -6.69230E-03     13.1426E-03    -6.60417E-03     61.1276E-06
            2268     16.8505E-03     9.97069E-03    -1.69643E+06     116.270E+06     23.6163E+06     669.803E+03    -31.5681E-03     46.1358E-03    -14.5677E-03     65.9082E-03    -32.1814E-03     47.0874E-03    -14.6157E-03     65.8775E-03
            2269     15.9779E-03     9.90227E-03    -2.27408E+06     73.6502E+06    -6.64111E+06     1.03974E+06    -29.5003E-03     43.1324E-03    -13.6321E-03     58.2766E-03    -29.8655E-03     43.7706E-03    -13.7688E-03     58.1584E-03
            2270     15.1030E-03     9.85612E-03    -1.62806E+06      30.688E+06     2.65475E+06     991.140E+03    -26.5231E-03     39.4587E-03    -12.9356E-03     42.2796E-03    -26.6431E-03     39.6744E-03    -12.9645E-03     42.2165E-03
            2271     14.2252E-03     9.81717E-03    -2.02489E+06     2.63578E+06     4.02412E+06     515.313E+03    -24.6939E-03     36.9109E-03    -12.2170E-03     33.4925E-03    -24.7404E-03     36.9481E-03    -12.1978E-03     33.4515E-03
            2272     13.3466E-03     9.78419E-03    -2.57116E+06    -25.4258E+06    -1.82310E+06    -401.691E+03    -22.9538E-03     34.4269E-03    -11.4731E-03     26.4865E-03    -22.9410E-03     34.3202E-03    -11.4416E-03     26.4497E-03
            2273     12.4660E-03     9.75752E-03    -3.48326E+06    -37.3833E+06     1.62456E+06    -1.50152E+06    -20.8504E-03     31.6277E-03    -10.7773E-03     19.8520E-03    -20.8225E-03     31.4502E-03    -10.7099E-03     19.8136E-03
            2274     11.5837E-03     9.73628E-03    -4.32249E+06    -37.1483E+06     7.02673E+06    -2.53918E+06    -18.6241E-03     28.7460E-03    -10.1220E-03     14.5606E-03    -18.6051E-03     28.5596E-03    -10.0267E-03     14.5165E-03
            2275     10.6994E-03     9.71989E-03    -5.07716E+06    -43.6433E+06     7.95818E+06    -2.82152E+06    -16.5226E-03     26.0389E-03    -9.51629E-03     10.3183E-03    -16.4978E-03     25.8181E-03    -9.40586E-03     10.2748E-03
            2276     9.81331E-03     9.70739E-03    -6.08696E+06    -51.4797E+06     9.50022E+06    -1.94925E+06    -14.5938E-03     23.5780E-03    -8.98425E-03     7.13180E-03    -14.5642E-03     23.3166E-03    -8.85328E-03     7.10198E-03
            2277     8.92555E-03     9.69809E-03    -7.56801E+06    -55.6275E+06     8.52659E+06    -1.29557E+06    -12.9088E-03     21.4125E-03    -8.50377E-03     4.98578E-03    -12.8788E-03     21.1336E-03    -8.36951E-03     4.96594E-03
            2278     8.03642E-03     9.69083E-03    -8.87431E+06    -54.5380E+06     5.16996E+06    -1.35055E+06    -11.5046E-03     19.5710E-03    -8.06641E-03     3.60989E-03    -11.4776E-03     19.3040E-03    -7.94862E-03     3.59033E-03
            2279     7.14617E-03     9.68535E-03    -9.68467E+06    -52.4435E+06     1.30688E+06    -1.62037E+06    -10.3345E-03     18.0135E-03    -7.67908E-03     2.71803E-03    -10.3089E-03     17.7637E-03    -7.58246E-03     2.69563E-03
            2280     6.25491E-03     9.68086E-03    -10.6241E+06    -51.1946E+06    -2.52396E+06    -1.85823E+06    -9.35729E-03     16.6988E-03    -7.34148E-03     2.07940E-03    -9.33263E-03     16.4620E-03    -7.26446E-03     2.05434E-03
            2281     5.36291E-03     9.67755E-03    -11.8735E+06    -50.5380E+06    -6.11632E+06    -1.65436E+06    -8.53786E-03     15.5874E-03    -7.04955E-03     1.61159E-03    -8.51515E-03     15.3609E-03    -6.98964E-03     1.58946E-03
            2282     4.47011E-03     9.67476E-03    -13.0636E+06    -50.0870E+06    -9.13528E+06    -1.25384E+06    -7.86323E-03     14.6627E-03    -6.79947E-03     1.25635E-03    -7.84272E-03     14.4445E-03    -6.75357E-03     1.23959E-03
            2283     3.57694E-03     9.67276E-03    -14.0090E+06    -49.6271E+06    -11.5082E+06    -824.081E+03    -7.30200E-03     13.8901E-03    -6.58808E-03     955.716E-06    -7.28341E-03     13.6790E-03    -6.55335E-03     944.664E-06
            2284     2.68313E-03     9.67120E-03    -14.7952E+06    -49.1769E+06    -13.4443E+06    -514.821E+03    -6.83484E-03     13.2512E-03    -6.41637E-03     713.562E-06    -6.81799E-03     13.0463E-03    -6.39084E-03     706.635E-06
            2285     1.78902E-03     9.67015E-03    -15.3746E+06    -48.7358E+06    -14.6987E+06    -369.976E+03    -6.48724E-03     12.7755E-03    -6.28821E-03     479.693E-06    -6.47208E-03     12.5754E-03    -6.26874E-03     474.733E-06
            2286     894.613E-06     9.66946E-03    -15.7912E+06    -47.4882E+06    -15.4258E+06    -190.269E+03    -6.28010E-03     12.4630E-03    -6.18293E-03     257.005E-06    -6.26740E-03     12.2714E-03    -6.16830E-03     254.415E-06
            2287     16.8531E-03     8.97227E-03    -2.08041E+06     116.434E+06     23.6906E+06     131.081E+03    -33.0589E-03     47.5346E-03    -14.4757E-03     60.9558E-03    -33.6357E-03     48.4489E-03    -14.5231E-03     60.8784E-03
            2288     15.9827E-03     8.91436E-03    -1.13728E+06     72.3323E+06    -5.31732E+06     666.676E+03    -30.4393E-03     43.9064E-03    -13.4671E-03     51.8451E-03    -30.7637E-03     44.4993E-03    -13.5969E-03     51.7097E-03
            2289     15.1063E-03     8.86896E-03    -2.29577E+06     30.8599E+06     4.79522E+06     1.11982E+06    -27.6375E-03     40.3357E-03    -12.6982E-03     38.2961E-03    -27.7566E-03     40.5425E-03    -12.7157E-03     38.2325E-03
            2290     14.2306E-03     8.83348E-03    -3.02153E+06     3.42836E+06     6.24571E+06     851.269E+03    -25.4984E-03     37.3989E-03    -11.9005E-03     29.9111E-03    -25.5509E-03     37.4350E-03    -11.8699E-03     29.8745E-03
            2291     13.3519E-03     8.80297E-03    -4.24360E+06    -24.3653E+06     312.227E+03     478.325E+03    -23.1920E-03     34.2893E-03    -11.0973E-03     23.2839E-03    -23.1902E-03     34.1852E-03    -11.0543E-03     23.2600E-03
            2292     12.4717E-03     8.77929E-03    -5.26720E+06    -35.3662E+06     4.23026E+06    -1.09424E+06    -20.6438E-03     31.0151E-03    -10.3714E-03     16.9868E-03    -20.6305E-03     30.8455E-03    -10.2913E-03     16.9550E-03
            2293     11.5889E-03     8.76121E-03    -6.07844E+06    -36.1985E+06     9.47031E+06    -2.97082E+06    -18.0534E-03     27.7659E-03    -9.71254E-03     12.4136E-03    -18.0476E-03     27.5828E-03    -9.60388E-03     12.3649E-03
            2294     10.7040E-03     8.74738E-03    -6.75853E+06    -44.2370E+06     9.80545E+06    -3.40343E+06    -15.7567E-03     24.8819E-03    -9.12524E-03     8.88910E-03    -15.7420E-03     24.6578E-03    -9.00227E-03     8.83864E-03
            2295     9.81717E-03     8.73754E-03    -7.56186E+06    -53.2335E+06     10.1694E+06    -2.49140E+06    -13.7691E-03     22.3928E-03    -8.62369E-03     6.35980E-03    -13.7453E-03     22.1237E-03    -8.48469E-03     6.32330E-03
            2296     8.92868E-03     8.73017E-03     -8.4952E+06    -55.8293E+06     7.90228E+06    -1.61885E+06    -12.1167E-03     20.2942E-03    -8.17753E-03     4.83287E-03    -12.0901E-03     20.0164E-03    -8.04474E-03     4.80903E-03
            2297     8.03886E-03     8.72477E-03    -9.54788E+06    -54.3111E+06     3.40098E+06    -1.90029E+06    -10.7922E-03     18.5733E-03    -7.78109E-03     3.92631E-03    -10.7665E-03     18.3111E-03    -7.67149E-03     3.89972E-03
            2298     7.14796E-03     8.72053E-03    -10.6092E+06    -52.6508E+06    -620.910E+03    -2.10272E+06    -9.72558E-03     17.1677E-03    -7.44211E-03     3.34864E-03    -9.70160E-03     16.9210E-03    -7.35348E-03     3.32002E-03
            2299     6.25623E-03     8.71741E-03    -11.7746E+06    -51.7027E+06    -4.35185E+06    -1.71547E+06    -8.85487E-03     16.0074E-03    -7.15250E-03     2.92002E-03    -8.83260E-03     15.7724E-03    -7.08222E-03     2.89679E-03
            2300     5.36373E-03     8.71493E-03    -12.9930E+06    -51.2392E+06    -7.82738E+06    -1.33433E+06    -8.14599E-03     15.0514E-03    -6.90541E-03     2.57205E-03    -8.12540E-03     14.8255E-03    -6.85141E-03     2.55403E-03
            2301     4.47078E-03     8.71314E-03    -13.9909E+06    -50.7509E+06    -10.6714E+06    -967.040E+03    -7.55382E-03     14.2522E-03    -6.69835E-03     2.26829E-03    -7.53477E-03     14.0342E-03    -6.65783E-03     2.25523E-03
            2302     3.57713E-03     8.71171E-03    -14.8745E+06    -50.1912E+06    -12.6639E+06    -627.015E+03    -7.08137E-03     13.6121E-03    -6.53074E-03     1.93415E-03    -7.06463E-03     13.4011E-03    -6.49972E-03     1.92564E-03
            2303     2.68328E-03     8.71083E-03    -15.4224E+06    -49.5407E+06    -13.9799E+06    -426.418E+03    -6.72120E-03     13.1193E-03    -6.39813E-03     1.55102E-03    -6.70619E-03     12.9143E-03    -6.37384E-03     1.54523E-03
            2304     1.78900E-03     8.71013E-03    -15.7314E+06    -49.0234E+06    -14.9623E+06    -321.193E+03    -6.44665E-03     12.7463E-03    -6.29961E-03     1.11430E-03    -6.43248E-03     12.5456E-03    -6.28052E-03     1.10998E-03
            2305     894.553E-06     8.70981E-03    -16.1589E+06    -47.9596E+06    -15.7223E+06    -184.494E+03    -6.27660E-03     12.5115E-03    -6.23487E-03     635.813E-06    -6.26463E-03     12.3185E-03    -6.22051E-03     633.325E-06
            2306     16.8578E-03     7.97858E-03    -2.91923E+06     114.190E+06     23.0242E+06     410.844E+03    -34.4798E-03     48.8399E-03    -14.3601E-03     58.5180E-03    -35.0234E-03     49.7122E-03    -14.4063E-03     58.4082E-03
            2307     15.9838E-03     7.92363E-03    -5.83235E+06     71.3156E+06    -4.19801E+06     1.14885E+06    -31.6362E-03     44.9193E-03    -13.2830E-03     48.2934E-03    -31.9589E-03     45.4868E-03    -13.3990E-03     48.1539E-03
            2308     15.1119E-03     7.88158E-03    -5.28862E+06     32.3343E+06     7.51076E+06     1.19740E+06    -28.6162E-03     41.0531E-03    -12.4369E-03     34.6811E-03    -28.7488E-03     41.2603E-03    -12.4386E-03     34.6174E-03
            2309     14.2352E-03     7.84943E-03    -6.18339E+06     3.20560E+06     8.04051E+06     1.10502E+06    -25.7005E-03     37.2807E-03    -11.5803E-03     26.9316E-03    -25.7677E-03     37.3144E-03    -11.5357E-03     26.9006E-03
            2310     13.3573E-03     7.82198E-03    -6.21816E+06    -22.2653E+06     3.20567E+06     92.8866E+03    -22.8997E-03     33.6554E-03    -10.7557E-03     20.5994E-03    -22.9133E-03     33.5589E-03    -10.6984E-03     20.5728E-03
            2311     12.4763E-03     7.80208E-03    -5.50177E+06    -33.3517E+06     7.77918E+06    -1.84108E+06    -19.8428E-03     29.8855E-03    -10.0427E-03     14.9755E-03    -19.8379E-03     29.7204E-03    -9.94750E-03     14.9360E-03
            2312     11.5928E-03     7.78711E-03    -5.84271E+06    -34.8853E+06     13.0520E+06    -3.33033E+06    -17.0215E-03     26.4490E-03    -9.42757E-03     11.2524E-03    -17.0214E-03     26.2667E-03    -9.30325E-03     11.2001E-03
            2313     10.7068E-03     7.77632E-03    -7.27053E+06    -44.9536E+06     12.1431E+06    -3.88832E+06    -14.6410E-03     23.5431E-03    -8.90213E-03     8.57954E-03    -14.6312E-03     23.3128E-03    -8.76568E-03     8.52347E-03
            2314     9.81899E-03     7.76874E-03    -8.69195E+06    -54.9252E+06     10.3633E+06    -3.11841E+06    -12.7278E-03     21.1963E-03    -8.46846E-03     6.74572E-03    -12.7075E-03     20.9202E-03    -8.32440E-03     6.70149E-03
            2315     8.92958E-03     7.76345E-03    -9.69397E+06    -56.1596E+06     6.55461E+06    -2.53657E+06    -11.2124E-03     19.3062E-03    -8.09378E-03     5.79975E-03    -11.1895E-03     19.0305E-03    -7.96552E-03     5.76427E-03
            2316     8.03899E-03     7.75945E-03    -10.3825E+06    -54.3259E+06     1.84429E+06    -2.39478E+06    -10.0524E-03     17.8300E-03    -7.77766E-03     5.28375E-03    -10.0286E-03     17.5712E-03    -7.67461E-03     5.25089E-03
            2317     7.14750E-03     7.75654E-03    -11.4210E+06    -53.2858E+06    -2.32512E+06    -2.12960E+06    -9.15836E-03     16.6791E-03    -7.52073E-03     4.90432E-03    -9.13508E-03     16.4329E-03    -7.43853E-03     4.87542E-03
            2318     6.25525E-03     7.75433E-03    -12.4457E+06    -52.5056E+06    -5.74056E+06    -1.73016E+06    -8.46013E-03     15.7736E-03    -7.31343E-03     4.57012E-03    -8.43807E-03     15.5376E-03    -7.24796E-03     4.54675E-03
            2319     5.36253E-03     7.75271E-03    -13.1607E+06    -51.8948E+06    -8.56073E+06    -1.23756E+06    -7.91524E-03     15.0636E-03    -7.14834E-03     4.21111E-03    -7.89350E-03     14.8357E-03    -7.09681E-03     4.19438E-03
            2320     4.46922E-03     7.75154E-03    -13.7768E+06    -51.3042E+06    -10.6776E+06    -879.500E+03    -7.50231E-03     14.5237E-03    -7.02139E-03     3.78660E-03    -7.48140E-03     14.3027E-03    -6.98041E-03     3.77471E-03
            2321     3.57573E-03     7.75071E-03    -14.0409E+06    -50.5286E+06    -11.9388E+06    -764.691E+03    -7.20443E-03     14.1324E-03    -6.92795E-03     3.24682E-03    -7.18410E-03     13.9174E-03    -6.89401E-03     3.23658E-03
            2322     2.68189E-03     7.75006E-03    -14.1023E+06    -49.8781E+06    -12.7296E+06    -707.375E+03    -7.00439E-03     13.8659E-03    -6.86148E-03     2.57450E-03    -6.98411E-03     13.6554E-03    -6.83236E-03     2.56512E-03
            2323     1.78803E-03     7.74976E-03    -14.1417E+06    -49.5035E+06    -13.3281E+06    -451.276E+03    -6.87840E-03     13.6940E-03    -6.81557E-03     1.80737E-03    -6.85796E-03     13.4863E-03    -6.78992E-03     1.80138E-03
            2324     894.014E-06     7.74949E-03    -14.2001E+06    -48.4292E+06    -13.9815E+06    -219.215E+03    -6.79216E-03     13.5864E-03    -6.79423E-03     1.00532E-03    -6.77227E-03     13.3857E-03    -6.77332E-03     1.00241E-03
            2325     16.8547E-03     6.98389E-03    -2.37128E+06     114.642E+06     27.2479E+06     1.68154E+06    -36.3680E-03     50.6915E-03    -14.3235E-03     56.0882E-03    -36.8930E-03     51.5363E-03    -14.3501E-03     55.9583E-03
            2326     15.9886E-03     6.92898E-03    -3.67722E+06     72.4317E+06     3.31898E+06     1.07443E+06    -33.5208E-03     46.6707E-03    -13.1499E-03     43.1213E-03    -33.8210E-03     47.2060E-03    -13.2330E-03     42.9603E-03
            2327     15.1153E-03     6.89513E-03    -5.62821E+06     31.5068E+06     11.8585E+06     1.60110E+06    -28.9227E-03     41.1410E-03    -12.2183E-03     31.0942E-03    -29.0539E-03     41.3301E-03    -12.1965E-03     31.0393E-03
            2328     14.2398E-03     6.86473E-03    -6.99840E+06     5.31342E+06     11.0431E+06     879.813E+03    -25.4120E-03     36.7457E-03    -11.3337E-03     24.7039E-03    -25.4880E-03     36.7840E-03    -11.2760E-03     24.6735E-03
            2329     13.3608E-03     6.84245E-03    -6.86083E+06    -19.9815E+06     5.78606E+06    -1.72336E+06    -21.9124E-03     32.4429E-03    -10.5305E-03     18.7212E-03    -21.9348E-03     32.3534E-03    -10.4626E-03     18.6746E-03
            2330     12.4789E-03     6.82586E-03    -6.59979E+06    -31.9727E+06     10.6112E+06    -3.21399E+06    -18.4979E-03     28.3838E-03    -9.88585E-03     14.1642E-03    -18.5041E-03     28.2225E-03    -9.77686E-03     14.1091E-03
            2331     11.5940E-03     6.81468E-03    -7.15644E+06    -34.1030E+06     16.0612E+06    -4.02409E+06    -15.5816E-03     24.9471E-03    -9.36555E-03     11.3780E-03    -15.5935E-03     24.7661E-03    -9.22542E-03     11.3180E-03
            2332     10.7067E-03     6.80645E-03    -8.37244E+06    -45.8068E+06     13.9964E+06    -4.05234E+06    -13.3063E-03     22.2508E-03    -8.94445E-03     9.56533E-03    -13.3035E-03     22.0151E-03    -8.79591E-03     9.50783E-03
            2333     9.81776E-03     6.80118E-03    -9.83308E+06    -55.9952E+06     9.61019E+06    -3.66688E+06    -11.6005E-03     20.2125E-03    -8.61197E-03     8.39217E-03    -11.5833E-03     19.9338E-03    -8.46847E-03     8.34128E-03
            2334     8.92741E-03     6.79746E-03    -10.7875E+06    -56.5543E+06     4.41502E+06    -3.52294E+06    -10.3531E-03     18.6953E-03    -8.34224E-03     7.87148E-03    -10.3320E-03     18.4224E-03    -8.22252E-03     7.82355E-03
            2335     8.03612E-03     6.79474E-03    -11.4225E+06    -55.2104E+06     15.9193E+03    -3.12836E+06    -9.45567E-03     17.5926E-03    -8.13690E-03     7.53265E-03    -9.43315E-03     17.3335E-03    -8.04020E-03     7.49052E-03
            2336     7.14411E-03     6.79272E-03    -11.7358E+06    -53.9897E+06    -3.14715E+06    -2.54841E+06    -8.81791E-03     16.8050E-03    -7.98710E-03     7.13148E-03    -8.79400E-03     16.5569E-03    -7.90754E-03     7.09733E-03
            2337     6.25166E-03     6.79123E-03    -11.9669E+06    -53.3369E+06    -5.99847E+06    -2.12847E+06    -8.36502E-03     16.2442E-03    -7.87918E-03     6.64020E-03    -8.33900E-03     16.0037E-03    -7.81448E-03     6.61182E-03
            2338     5.35877E-03     6.79015E-03    -12.0965E+06    -52.6636E+06    -7.91946E+06    -1.65935E+06    -8.06151E-03     15.8690E-03    -7.80749E-03     6.01734E-03    -8.03427E-03     15.6348E-03    -7.75319E-03     5.99527E-03
            2339     4.46580E-03     6.78932E-03    -11.9268E+06    -51.6767E+06    -8.76966E+06    -1.47032E+06    -7.88046E-03     15.6444E-03    -7.76393E-03     5.26600E-03    -7.85254E-03     15.4161E-03    -7.71555E-03     5.24657E-03
            2340     3.57263E-03     6.78866E-03    -11.5528E+06    -50.9015E+06    -9.43262E+06    -1.46677E+06    -7.77726E-03     15.5154E-03    -7.73810E-03     4.38003E-03    -7.74760E-03     15.2913E-03    -7.69470E-03     4.36078E-03
            2341     2.67950E-03     6.78825E-03    -11.1885E+06    -50.5250E+06    -10.1114E+06    -1.23610E+06    -7.72689E-03     15.4519E-03    -7.72505E-03     3.38086E-03    -7.69492E-03     15.2302E-03    -7.68612E-03     3.36469E-03
            2342     1.78627E-03     6.78786E-03    -11.0246E+06    -50.2784E+06    -10.3947E+06    -838.389E+03    -7.71857E-03     15.4392E-03    -7.72068E-03     2.31738E-03    -7.68570E-03     15.2189E-03    -7.68377E-03     2.30642E-03
            2343     893.183E-06     6.78775E-03    -11.0046E+06    -48.9896E+06    -10.4938E+06    -328.708E+03    -7.72538E-03     15.4321E-03    -7.70668E-03     1.26028E-03    -7.69380E-03     15.2188E-03    -7.67216E-03     1.25596E-03
            2344     16.8572E-03     5.97654E-03    -1.44570E+06     113.502E+06     32.5360E+06     1.03339E+06    -37.3032E-03     51.5750E-03    -14.2719E-03     52.0565E-03    -37.7954E-03     52.3711E-03    -14.2717E-03     51.8968E-03
            2345     15.9909E-03     5.93847E-03    -1.50882E+06     71.3758E+06     6.04807E+06     3.31787E+06    -33.6883E-03     46.7338E-03    -13.0455E-03     37.4604E-03    -33.9473E-03     47.2239E-03    -13.1165E-03     37.3328E-03
            2346     15.1179E-03     5.90617E-03    -5.14453E+06     32.2265E+06     14.6877E+06     3.44409E+06    -28.8459E-03     40.9475E-03    -12.1016E-03     28.5224E-03    -28.9733E-03     41.1289E-03    -12.0675E-03     28.4971E-03
            2347     14.2416E-03     5.88218E-03    -7.11297E+06     9.19749E+06     14.8350E+06     670.774E+03    -24.3615E-03     35.6054E-03    -11.2440E-03     22.5922E-03    -24.4464E-03     35.6552E-03    -11.1728E-03     22.5642E-03
            2348     13.3615E-03     5.86353E-03    -8.74296E+06    -17.1399E+06     9.10216E+06    -2.43489E+06    -20.1595E-03     30.6866E-03    -10.5271E-03     17.8806E-03    -20.1989E-03     30.6080E-03    -10.4441E-03     17.8289E-03
            2349     12.4779E-03     5.85185E-03    -9.54938E+06    -30.7996E+06     13.2043E+06    -4.84053E+06    -16.6349E-03     26.6431E-03    -10.0082E-03     14.7049E-03    -16.6610E-03     26.4878E-03    -9.88366E-03     14.6311E-03
            2350     11.5913E-03     5.84336E-03    -9.82100E+06    -34.4922E+06     18.3370E+06    -5.40807E+06    -13.9030E-03     23.5331E-03    -9.63004E-03     13.0936E-03    -13.9309E-03     23.3506E-03    -9.47410E-03     13.0171E-03
            2351     10.7028E-03     5.83798E-03    -10.6928E+06    -46.9330E+06     14.6977E+06    -4.83544E+06    -11.9797E-03     21.3248E-03    -9.34512E-03     11.9692E-03    -11.9878E-03     21.0858E-03    -9.18808E-03     11.9024E-03
            2352     9.81260E-03     5.83427E-03    -11.4494E+06    -56.3615E+06     8.33542E+06    -4.67747E+06    -10.6787E-03     19.8149E-03    -9.13621E-03     11.2166E-03    -10.6672E-03     19.5385E-03    -8.99620E-03     11.1532E-03
            2353     8.92154E-03     5.83184E-03    -11.8112E+06    -57.2834E+06     2.97124E+06    -4.66824E+06    -9.84779E-03     18.8351E-03    -8.98736E-03     10.7007E-03    -9.82866E-03     18.5621E-03    -8.87231E-03     10.6384E-03
            2354     8.02984E-03     5.82989E-03    -11.6474E+06    -56.0883E+06    -622.797E+03    -4.46542E+06    -9.31165E-03     18.2033E-03    -8.89165E-03     10.1224E-03    -9.28804E-03     17.9410E-03    -8.79655E-03     10.0633E-03
            2355     7.13782E-03     5.82841E-03    -11.0144E+06    -55.1545E+06    -3.22397E+06    -3.99878E+06    -8.98597E-03     17.8215E-03    -8.83557E-03     9.35301E-03    -8.95665E-03     17.5666E-03    -8.75574E-03     9.30037E-03
            2356     6.24553E-03     5.82727E-03    -10.2058E+06    -54.3874E+06    -4.88270E+06    -3.19355E+06    -8.81623E-03     17.6245E-03    -8.80830E-03     8.40373E-03    -8.78151E-03     17.3746E-03    -8.73905E-03     8.36176E-03
            2357     5.35328E-03     5.82635E-03    -9.36836E+06    -53.3590E+06    -5.60717E+06    -2.85387E+06    -8.74338E-03     17.5439E-03    -8.80054E-03     7.35771E-03    -8.70487E-03     17.2989E-03    -8.73762E-03     7.32033E-03
            2358     4.46094E-03     5.82556E-03    -8.48456E+06    -52.2625E+06    -5.74631E+06    -2.69498E+06    -8.72911E-03     17.5335E-03    -8.80442E-03     6.23295E-03    -8.68753E-03     17.2929E-03    -8.74507E-03     6.19778E-03
            2359     3.56869E-03     5.82495E-03    -7.84766E+06    -51.6997E+06    -6.07216E+06    -2.36101E+06    -8.74719E-03     17.5598E-03    -8.81265E-03     5.03207E-03    -8.70274E-03     17.3215E-03    -8.75666E-03     5.00131E-03
            2360     2.67645E-03     5.82443E-03    -7.60824E+06    -51.6327E+06    -6.63963E+06    -1.83181E+06    -8.77802E-03     17.5996E-03    -8.82159E-03     3.80382E-03    -8.73160E-03     17.3621E-03    -8.76889E-03     3.77999E-03
            2361     1.78431E-03     5.82411E-03    -7.42751E+06    -51.4039E+06    -6.78104E+06    -1.27385E+06    -8.80579E-03     17.6371E-03    -8.83130E-03     2.56947E-03    -8.75856E-03     17.4006E-03    -8.77990E-03     2.55289E-03
            2362     892.079E-06     5.82384E-03    -7.40691E+06    -50.0300E+06    -6.81077E+06    -919.366E+03    -8.84252E-03     17.6647E-03    -8.82214E-03     1.38919E-03    -8.79683E-03     17.4357E-03    -8.77291E-03     1.37724E-03
            2363     16.8620E-03     4.98205E-03    -1.52588E+06     109.247E+06     32.3838E+06     2.64571E+06    -37.6766E-03     51.8606E-03    -14.1839E-03     47.3718E-03    -38.1200E-03     52.5932E-03    -14.1782E-03     47.2233E-03
            2364     15.9888E-03     4.94333E-03    -6.77857E+06     69.7427E+06     8.67344E+06     4.63285E+06    -32.2151E-03     45.2120E-03    -12.9968E-03     31.4823E-03    -32.4684E-03     45.6640E-03    -13.0448E-03     31.3946E-03
            2365     15.1178E-03     4.91889E-03    -11.1440E+06     36.4264E+06     18.0307E+06     3.79337E+06    -27.1444E-03     39.2759E-03    -12.1315E-03     24.0618E-03    -27.3056E-03     39.4751E-03    -12.0780E-03     24.0506E-03
            2366     14.2403E-03     4.90024E-03    -12.4747E+06     13.0451E+06     18.0692E+06    -146.801E+03    -21.8266E-03     33.2270E-03    -11.4004E-03     21.2780E-03    -21.9460E-03     33.2965E-03    -11.3109E-03     21.2469E-03
            2367     13.3580E-03     4.88741E-03    -12.1450E+06    -13.0499E+06     13.3690E+06    -4.24175E+06    -17.6053E-03     28.4647E-03    -10.8594E-03     18.9870E-03    -17.6729E-03     28.4043E-03    -10.7560E-03     18.9164E-03
            2368     12.4720E-03     4.87909E-03    -11.1391E+06    -29.8387E+06     15.9258E+06    -7.20566E+06    -14.5404E-03     25.0591E-03    -10.5186E-03     17.3821E-03    -14.5793E-03     24.9065E-03    -10.3796E-03     17.2803E-03
            2369     11.5837E-03     4.87368E-03    -11.4489E+06    -36.2674E+06     19.1218E+06    -7.02296E+06    -12.4815E-03     22.7861E-03    -10.3046E-03     16.4071E-03    -12.5159E-03     22.5957E-03    -10.1398E-03     16.3110E-03
            2370     10.6938E-03     4.86984E-03    -12.3328E+06    -47.9287E+06     14.3295E+06    -6.21820E+06    -11.1990E-03     21.3557E-03    -10.1567E-03     15.2897E-03    -11.2132E-03     21.1144E-03    -9.99767E-03     15.2059E-03
            2371     9.80317E-03     4.86749E-03    -12.5956E+06    -56.5122E+06     7.60335E+06    -6.53062E+06    -10.4803E-03     20.5393E-03    -10.0590E-03     14.2535E-03    -10.4731E-03     20.2647E-03    -9.92076E-03     14.1669E-03
            2372     8.91200E-03     4.86546E-03    -11.5779E+06    -57.9172E+06     2.85551E+06    -7.03827E+06    -10.1077E-03     20.1066E-03    -9.99890E-03     13.1898E-03    -10.0863E-03     19.8301E-03    -9.88386E-03     13.0973E-03
            2373     8.02078E-03     4.86396E-03    -9.87642E+06    -57.2431E+06    -364.398E+03    -6.87277E+06    -9.92120E-03     19.8877E-03    -9.96649E-03     11.9725E-03    -9.88740E-03     19.6166E-03    -9.87099E-03     11.8826E-03
            2374     7.12937E-03     4.86261E-03    -8.30265E+06    -56.8825E+06    -2.75300E+06    -6.01078E+06    -9.84379E-03     19.7974E-03    -9.95365E-03     10.6490E-03    -9.79908E-03     19.5292E-03    -9.87290E-03     10.5706E-03
            2375     6.23812E-03     4.86147E-03    -6.73644E+06    -55.8151E+06    -3.39612E+06    -5.15453E+06    -9.83995E-03     19.7963E-03    -9.95635E-03     9.26023E-03    -9.78796E-03     19.5320E-03    -9.88263E-03     9.19306E-03
            2376     5.34681E-03     4.86052E-03    -5.31081E+06    -54.3184E+06    -2.87858E+06    -4.47123E+06    -9.86588E-03     19.8330E-03    -9.96714E-03     7.88969E-03    -9.80964E-03     19.5733E-03    -9.89507E-03     7.83149E-03
            2377     4.45562E-03     4.85967E-03    -4.50556E+06    -53.4971E+06    -2.73261E+06    -3.86433E+06    -9.89920E-03     19.8774E-03    -9.97818E-03     6.53720E-03    -9.84031E-03     19.6204E-03    -9.90774E-03     6.48697E-03
            2378     3.56443E-03     4.85899E-03    -4.14485E+06    -53.2086E+06    -2.86845E+06    -3.05496E+06    -9.93421E-03     19.9222E-03    -9.98803E-03     5.19467E-03    -9.87370E-03     19.6663E-03    -9.91921E-03     5.15498E-03
            2379     2.67331E-03     4.85844E-03    -4.09039E+06    -53.0829E+06    -3.02290E+06    -2.21704E+06    -9.96515E-03     19.9611E-03    -9.99592E-03     3.88470E-03    -9.90428E-03     19.7059E-03    -9.92813E-03     3.85589E-03
            2380     1.78216E-03     4.85804E-03    -4.42243E+06    -52.7114E+06    -3.69809E+06    -1.57435E+06    -9.98550E-03     19.9833E-03    -9.99785E-03     2.60865E-03    -9.92582E-03     19.7315E-03    -9.93350E-03     2.58820E-03
            2381     891.149E-06     4.85779E-03    -4.61305E+06    -51.8081E+06    -4.54165E+06    -1.03513E+06    -9.97659E-03     19.9882E-03    -10.0116E-03     1.41889E-03    -9.91765E-03     19.7429E-03    -9.95247E-03     1.40545E-03
            2382     16.8603E-03     3.98346E-03    -5.60907E+06     105.173E+06      37.987E+06     5.41341E+06    -38.2533E-03     52.5606E-03    -14.3073E-03     44.6334E-03    -38.6810E-03     53.2324E-03    -14.2617E-03     44.5187E-03
            2383     15.9945E-03     3.95190E-03    -9.64097E+06     69.6988E+06     15.0819E+06     8.99717E+06    -30.4941E-03     43.6449E-03    -13.1508E-03     29.6936E-03    -30.7416E-03     44.0628E-03    -13.1624E-03     29.6879E-03
            2384     15.1160E-03     3.93435E-03    -12.6524E+06     42.9502E+06     20.4444E+06     4.76090E+06    -23.0545E-03     35.4824E-03    -12.4278E-03     24.4067E-03    -23.2288E-03     35.7053E-03    -12.3695E-03     24.4264E-03
            2385     14.2336E-03     3.92197E-03    -14.2663E+06     19.4088E+06     18.7159E+06    -2.76870E+06    -18.2793E-03     30.2180E-03    -11.9387E-03     24.1449E-03    -18.4156E-03     30.3186E-03    -11.8526E-03     24.0886E-03
            2386     13.3476E-03     3.91323E-03    -13.0748E+06    -10.3899E+06     12.4361E+06    -8.03437E+06    -15.2281E-03     26.8496E-03    -11.6215E-03     22.8227E-03    -15.3016E-03     26.8040E-03    -11.5253E-03     22.7076E-03
            2387     12.4596E-03     3.90792E-03    -12.3194E+06    -29.6141E+06     13.5255E+06    -9.38277E+06    -13.3179E-03     24.7738E-03    -11.4559E-03     21.1854E-03    -13.3588E-03     24.6267E-03    -11.3275E-03     21.0578E-03
            2388     11.5703E-03     3.90378E-03    -12.1066E+06    -38.7508E+06     13.4886E+06    -9.09607E+06    -12.2080E-03     23.5637E-03    -11.3557E-03     19.4619E-03    -12.2334E-03     23.3694E-03    -11.2145E-03     19.3404E-03
            2389     10.6806E-03     3.90119E-03    -11.1621E+06    -48.7342E+06     8.10208E+06    -8.49501E+06    -11.6218E-03     22.9029E-03    -11.2811E-03     17.5106E-03    -11.6196E-03     22.6644E-03    -11.1537E-03     17.3983E-03
            2390     9.79056E-03     3.89901E-03    -9.45751E+06    -56.2014E+06     2.58380E+06    -9.35184E+06    -11.3712E-03     22.6011E-03    -11.2299E-03     15.7335E-03    -11.3413E-03     22.3305E-03    -11.1218E-03     15.6110E-03
            2391     8.90060E-03     3.89732E-03    -7.48537E+06    -58.8155E+06    -965.638E+03    -10.0658E+06    -11.2767E-03     22.4710E-03    -11.1944E-03     13.9806E-03    -11.2278E-03     22.1895E-03    -11.1031E-03     13.8494E-03
            2392     8.01048E-03     3.89575E-03    -5.85438E+06    -59.4879E+06    -2.77986E+06    -9.18147E+06    -11.2303E-03     22.4013E-03    -11.1710E-03     12.2432E-03    -11.1696E-03     22.1166E-03    -11.0902E-03     12.1237E-03
            2393     7.12055E-03     3.89447E-03    -4.58262E+06    -59.0318E+06    -3.67542E+06    -7.81922E+06    -11.2015E-03     22.3559E-03    -11.1544E-03     10.5946E-03    -11.1337E-03     22.0728E-03    -11.0806E-03     10.4929E-03
            2394     6.23042E-03     3.89328E-03    -3.53729E+06    -57.5910E+06    -4.25688E+06    -6.75208E+06    -11.1802E-03     22.3207E-03    -11.1405E-03     9.04878E-03    -11.1083E-03     22.0440E-03    -11.0731E-03     8.96106E-03
            2395     5.34043E-03     3.89227E-03    -2.64250E+06    -56.2707E+06    -3.13895E+06    -5.66239E+06    -11.1699E-03     22.3064E-03    -11.1365E-03     7.58701E-03    -11.0971E-03     22.0335E-03    -11.0668E-03     7.51348E-03
            2396     4.45035E-03     3.89142E-03    -2.11568E+06    -55.4111E+06    -2.27104E+06    -4.36225E+06    -11.1577E-03     22.2906E-03    -11.1329E-03     6.21451E-03    -11.0847E-03     22.0198E-03    -11.0608E-03     6.15787E-03
            2397     3.56031E-03     3.89070E-03    -2.14451E+06    -55.1172E+06    -1.98536E+06    -3.24615E+06    -11.1461E-03     22.2745E-03    -11.1284E-03     4.90079E-03    -11.0741E-03     22.0048E-03    -11.0553E-03     4.85864E-03
            2398     2.67022E-03     3.89014E-03    -2.31857E+06    -54.7943E+06    -1.79457E+06    -2.34394E+06    -11.1340E-03     22.2579E-03    -11.1239E-03     3.64343E-03    -11.0635E-03     21.9898E-03    -11.0501E-03     3.61299E-03
            2399     1.78019E-03     3.88972E-03    -2.33738E+06    -54.1461E+06    -2.21275E+06    -1.62475E+06    -11.1208E-03     22.2379E-03    -11.1171E-03     2.43676E-03    -11.0507E-03     21.9737E-03    -11.0463E-03     2.41568E-03
            2400     890.029E-06     3.88952E-03    -2.33286E+06    -53.7171E+06    -2.50691E+06    -926.314E+03    -11.1022E-03     22.2287E-03    -11.1264E-03     1.31885E-03    -11.0320E-03     21.9676E-03    -11.0577E-03     1.30684E-03
            2401     16.8531E-03     2.97826E-03    -8.07633E+06     98.4122E+06     40.9512E+06     7.07741E+06    -35.9888E-03     50.7059E-03    -14.7171E-03     39.9506E-03    -36.3729E-03     51.2931E-03    -14.6433E-03     39.8814E-03
            2402     15.9818E-03     2.96388E-03    -10.4380E+06     70.9614E+06     18.6931E+06     9.78292E+06    -26.2501E-03     39.9962E-03    -13.7461E-03     28.5649E-03    -26.4815E-03     40.3894E-03    -13.7404E-03     28.6079E-03
            2403     15.1023E-03     2.95480E-03    -7.83236E+06     52.7392E+06     21.0809E+06     4.87328E+06    -19.3961E-03     32.6436E-03    -13.2475E-03     29.1269E-03    -19.5563E-03     32.9025E-03    -13.2072E-03     29.1633E-03
            2404     14.2168E-03     2.94602E-03    -9.41872E+06     26.8301E+06     13.2064E+06    -3.77051E+06    -16.3489E-03     29.3015E-03    -12.9526E-03     28.6593E-03    -16.4612E-03     29.4373E-03    -12.9118E-03     28.5966E-03
            2405     13.3299E-03     2.93982E-03    -11.3719E+06    -8.44939E+06     915.619E+03    -9.32641E+06    -14.9346E-03     27.6932E-03    -12.7586E-03     25.5991E-03    -14.9840E-03     27.6695E-03    -12.7253E-03     25.4708E-03
            2406     12.4423E-03     2.93558E-03    -11.5162E+06    -30.4305E+06    -14.7199E+03    -11.3133E+06    -14.0716E-03     26.7271E-03    -12.6555E-03     22.3982E-03    -14.0868E-03     26.5933E-03    -12.5948E-03     22.2475E-03
            2407     11.5544E-03     2.93227E-03    -10.0564E+06    -40.3139E+06    -2.59399E+06    -11.4737E+06    -13.4972E-03     26.0582E-03    -12.5610E-03     19.4486E-03    -13.4864E-03     25.8758E-03    -12.5009E-03     19.2974E-03
            2408     10.6661E-03     2.92996E-03    -7.91457E+06    -49.9686E+06    -8.76153E+06    -11.4596E+06    -13.2084E-03     25.6782E-03    -12.4698E-03     16.8759E-03    -13.1635E-03     25.4530E-03    -12.4297E-03     16.7259E-03
            2409     9.77785E-03     2.92801E-03    -6.00087E+06    -56.4498E+06    -11.7331E+06    -11.3068E+06    -13.0691E-03     25.4688E-03    -12.3997E-03     14.6414E-03    -13.0007E-03     25.2125E-03    -12.3678E-03     14.4939E-03
            2410     8.88936E-03     2.92632E-03    -5.51705E+06    -60.6185E+06    -13.3333E+06    -10.8488E+06    -12.9259E-03     25.2653E-03    -12.3394E-03     12.6433E-03    -12.8466E-03     24.9896E-03    -12.3101E-03     12.5021E-03
            2411     8.00095E-03     2.92492E-03    -5.56412E+06    -62.2946E+06    -12.7738E+06    -9.67079E+06    -12.7882E-03     25.0792E-03    -12.2910E-03     10.8834E-03    -12.7074E-03     24.7944E-03    -12.2565E-03     10.7577E-03
            2412     7.11221E-03     2.92368E-03    -5.46668E+06    -61.5134E+06    -11.0463E+06    -8.19034E+06    -12.6534E-03     24.9023E-03    -12.2488E-03     9.28474E-03    -12.5757E-03     24.6187E-03    -12.2069E-03     9.17834E-03
            2413     6.22355E-03     2.92263E-03    -5.33961E+06    -59.8022E+06    -10.1360E+06    -6.89438E+06    -12.5221E-03     24.7282E-03    -12.2061E-03     7.84840E-03    -12.4475E-03     24.4517E-03    -12.1624E-03     7.75890E-03
            2414     5.33462E-03     2.92167E-03    -5.32593E+06    -58.7224E+06    -9.64781E+06    -5.63139E+06    -12.4069E-03     24.5751E-03    -12.1681E-03     6.53118E-03    -12.3345E-03     24.3031E-03    -12.1235E-03     6.45811E-03
            2415     4.44570E-03     2.92089E-03    -5.27375E+06    -57.8863E+06    -8.11794E+06    -4.20266E+06    -12.3105E-03     24.4516E-03    -12.1411E-03     5.30261E-03    -12.2412E-03     24.1815E-03    -12.0901E-03     5.24807E-03
            2416     3.55664E-03     2.92022E-03    -5.23070E+06    -57.0077E+06    -6.97396E+06    -2.86196E+06    -12.2271E-03     24.3446E-03    -12.1175E-03     4.16016E-03    -12.1605E-03     24.0772E-03    -12.0621E-03     4.12300E-03
            2417     2.66757E-03     2.91971E-03    -5.37078E+06    -56.2677E+06    -6.35418E+06    -2.13838E+06    -12.1608E-03     24.2584E-03    -12.0976E-03     3.08102E-03    -12.0969E-03     23.9940E-03    -12.0400E-03     3.05327E-03
            2418     1.77836E-03     2.91937E-03    -5.31899E+06    -55.7648E+06    -5.68303E+06    -1.63652E+06    -12.1135E-03     24.1969E-03    -12.0834E-03     2.04961E-03    -12.0509E-03     23.9340E-03    -12.0233E-03     2.02838E-03
            2419     889.251E-06     2.91911E-03    -5.16757E+06    -55.4812E+06    -5.45021E+06    -831.958E+03    -12.0849E-03     24.1560E-03    -12.0711E-03     1.10554E-03    -12.0219E-03     23.8945E-03    -12.0104E-03     1.09465E-03
            2420     16.8466E-03     1.98531E-03    -5.12167E+06     94.7242E+06     45.6565E+06     8.40184E+06    -31.7532E-03     47.3577E-03    -15.6045E-03     38.3547E-03    -32.0743E-03     47.8662E-03    -15.5062E-03     38.3437E-03
            2421     15.9652E-03     1.98038E-03    -3.88455E+06     74.8486E+06     26.3919E+06     5.71823E+06    -22.1780E-03     37.0747E-03    -14.8967E-03     29.6991E-03    -22.3727E-03     37.4449E-03    -14.8676E-03     29.7236E-03
            2422     15.0799E-03     1.97625E-03    -2.64700E+06     59.2984E+06     13.8772E+06     2.13912E+06    -18.9479E-03     33.4580E-03    -14.5102E-03     30.8727E-03    -19.0758E-03     33.7467E-03    -14.5229E-03     30.8825E-03
            2423     14.1953E-03     1.96871E-03    -1.98802E+06     32.5414E+06     443.418E+03    -2.18225E+06    -17.9983E-03     32.2255E-03    -14.2272E-03     28.1650E-03    -18.0600E-03     32.3940E-03    -14.2693E-03     28.1276E-03
            2424     13.3106E-03     1.96383E-03    -3.53535E+06    -5.12463E+06    -14.2513E+06    -7.41135E+06    -17.2150E-03     31.2004E-03    -13.9853E-03     22.6795E-03    -17.2065E-03     31.2021E-03    -14.0440E-03     22.5783E-03
            2425     12.4256E-03     1.95989E-03    -4.70987E+06    -29.8464E+06    -18.9804E+06    -11.2364E+06    -16.3134E-03     30.1190E-03    -13.8056E-03     18.6305E-03    -16.2671E-03     30.0049E-03    -13.8504E-03     18.4819E-03
            2426     11.5399E-03     1.95773E-03    -5.03755E+06    -41.9673E+06    -21.3398E+06    -12.1339E+06    -15.6412E-03     29.2923E-03    -13.6511E-03     15.5889E-03    -15.5752E-03     29.1211E-03    -13.6897E-03     15.4300E-03
            2427     10.6536E-03     1.95559E-03    -5.34548E+06    -51.6876E+06    -25.7809E+06    -11.2827E+06    -15.1924E-03     28.6968E-03    -13.5044E-03     13.1969E-03    -15.1072E-03     28.4838E-03    -13.5506E-03     13.0496E-03
            2428     9.76709E-03     1.95398E-03    -6.34543E+06    -58.5366E+06    -26.6734E+06    -10.0169E+06    -14.8167E-03     28.2027E-03    -13.3860E-03     11.1783E-03    -14.7251E-03     27.9580E-03    -13.4253E-03     11.0478E-03
            2429     8.88031E-03     1.95270E-03    -7.44576E+06    -62.6520E+06    -25.5765E+06    -8.72586E+06    -14.4746E-03     27.7598E-03    -13.2851E-03     9.53703E-03    -14.3841E-03     27.4945E-03    -13.3114E-03     9.42347E-03
            2430     7.99301E-03     1.95156E-03    -8.54741E+06    -64.7399E+06    -23.5804E+06    -7.78110E+06    -14.1640E-03     27.3608E-03    -13.1968E-03     8.12361E-03    -14.0788E-03     27.0837E-03    -13.2085E-03     8.02246E-03
            2431     7.10568E-03     1.95060E-03    -9.37907E+06    -63.8526E+06    -21.2086E+06    -6.74397E+06    -13.8839E-03     27.0002E-03    -13.1163E-03     6.88870E-03    -13.8076E-03     26.7253E-03    -13.1161E-03     6.80112E-03
            2432     6.21793E-03     1.94977E-03    -9.98089E+06    -62.0742E+06    -18.6480E+06    -5.59051E+06    -13.6377E-03     26.6829E-03    -13.0452E-03     5.78826E-03    -13.5706E-03     26.4141E-03    -13.0340E-03     5.71569E-03
            2433     5.33010E-03     1.94907E-03    -10.4759E+06    -61.0536E+06    -17.1231E+06    -4.36705E+06    -13.4196E-03     26.3998E-03    -12.9802E-03     4.78837E-03    -13.3586E-03     26.1345E-03    -12.9621E-03     4.73170E-03
            2434     4.44200E-03     1.94843E-03    -10.9637E+06    -60.1419E+06    -16.0708E+06    -3.17174E+06    -13.2313E-03     26.1554E-03    -12.9240E-03     3.87151E-03    -13.1757E-03     25.8938E-03    -12.9013E-03     3.83035E-03
            2435     3.55381E-03     1.94794E-03    -11.2068E+06    -58.7019E+06    -14.6363E+06    -2.19619E+06    -13.0783E-03     25.9580E-03    -12.8797E-03     3.02476E-03    -13.0279E-03     25.7019E-03    -12.8515E-03     2.99625E-03
            2436     2.66542E-03     1.94754E-03    -10.9391E+06    -57.1699E+06    -13.1088E+06    -1.70411E+06    -12.9597E-03     25.8055E-03    -12.8458E-03     2.23046E-03    -12.9125E-03     25.5545E-03    -12.8126E-03     2.20835E-03
            2437     1.77705E-03     1.94725E-03    -10.8149E+06    -57.3361E+06    -11.5848E+06    -1.43583E+06    -12.8781E-03     25.7027E-03    -12.8246E-03     1.48614E-03    -12.8322E-03     25.4485E-03    -12.7837E-03     1.46754E-03
            2438     888.497E-06     1.94711E-03    -11.0312E+06    -57.1885E+06    -10.8166E+06    -671.368E+03    -12.8215E-03     25.6320E-03    -12.8105E-03     805.982E-06    -12.7774E-03     25.3783E-03    -12.7656E-03     797.212E-06
            2439     16.8124E-03     994.723E-06     1.41674E+06     93.3343E+06     50.0759E+06     4.70741E+06    -30.4014E-03     47.5799E-03    -17.1786E-03     39.8111E-03    -30.6521E-03     48.0221E-03    -17.0656E-03     39.7933E-03
            2440     15.9358E-03     997.709E-06     4.69095E+06     77.6758E+06     24.9005E+06     4.47969E+06    -26.3281E-03     42.7562E-03    -16.4280E-03     31.1083E-03    -26.4655E-03     43.1125E-03    -16.4229E-03     31.1429E-03
            2441     15.0566E-03     993.648E-06     4.74183E+06     61.8005E+06     1.09217E+06     1.34372E+06    -24.4837E-03     40.2777E-03    -15.7941E-03     25.1183E-03    -24.5539E-03     40.5802E-03    -15.8851E-03     25.1294E-03
            2442     14.1768E-03     986.351E-06     5.88035E+06     35.9414E+06    -15.0437E+06    -699.954E+03    -22.1251E-03     37.4100E-03    -15.2849E-03     18.4132E-03    -22.1271E-03     37.6039E-03    -15.4208E-03     18.3997E-03
            2443     13.2966E-03     983.017E-06     5.60690E+06    -458.757E+03    -28.3193E+06    -3.77118E+06    -20.0121E-03     34.9115E-03    -14.8994E-03     13.2262E-03    -19.9429E-03     34.9426E-03    -15.0485E-03     13.1744E-03
            2444     12.4139E-03     981.337E-06     3.05863E+06    -28.0832E+06    -34.3695E+06    -7.29841E+06    -18.5327E-03     33.1511E-03    -14.6183E-03     10.5676E-03    -18.4272E-03     33.0563E-03    -14.7539E-03     10.4714E-03
            2445     11.5299E-03     979.691E-06    -190.327E+03    -43.9610E+06    -34.5720E+06    -7.90467E+06    -17.5037E-03     31.9064E-03    -14.4028E-03     8.66041E-03    -17.3909E-03     31.7372E-03    -14.5116E-03     8.55707E-03
            2446     10.6454E-03     978.572E-06    -3.64901E+06    -53.7342E+06    -34.4386E+06    -6.77702E+06    -16.7120E-03     30.9278E-03    -14.2158E-03     7.19858E-03    -16.6025E-03     30.7144E-03    -14.3048E-03     7.11014E-03
            2447     9.76010E-03     977.671E-06    -6.42668E+06    -60.6913E+06    -33.3672E+06    -5.72710E+06    -16.0579E-03     30.1140E-03    -14.0561E-03     6.04449E-03    -15.9537E-03     29.8683E-03    -14.1256E-03     5.96986E-03
            2448     8.87417E-03     976.893E-06    -8.51883E+06    -64.3538E+06    -31.5969E+06    -4.90721E+06    -15.5394E-03     29.4557E-03    -13.9162E-03     5.11140E-03    -15.4429E-03     29.1921E-03    -13.9686E-03     5.04752E-03
            2449     7.98806E-03     976.300E-06    -10.1751E+06    -66.2480E+06    -29.3779E+06    -4.28244E+06    -15.0955E-03     28.8886E-03    -13.7931E-03     4.33885E-03    -15.0077E-03     28.6147E-03    -13.8291E-03     4.28317E-03
            2450     7.10129E-03     975.777E-06    -11.6713E+06    -65.5132E+06    -27.5770E+06    -3.74208E+06    -14.7073E-03     28.3870E-03    -13.6797E-03     3.67160E-03    -14.6306E-03     28.1163E-03    -13.7057E-03     3.62300E-03
            2451     6.21440E-03     975.307E-06    -12.8353E+06    -63.6647E+06    -25.2603E+06    -3.17518E+06    -14.3736E-03     27.9550E-03    -13.5815E-03     3.07397E-03    -14.3088E-03     27.6919E-03    -13.5968E-03     3.03277E-03
            2452     5.32713E-03     974.918E-06    -13.6322E+06    -62.9279E+06    -21.8803E+06    -2.41299E+06    -14.0850E-03     27.5885E-03    -13.5034E-03     2.53478E-03    -14.0302E-03     27.3253E-03    -13.5018E-03     2.50347E-03
            2453     4.43967E-03     974.614E-06    -14.1807E+06    -61.6552E+06    -19.8705E+06    -1.50866E+06    -13.8373E-03     27.2687E-03    -13.4314E-03     2.04452E-03    -13.7900E-03     27.0098E-03    -13.4208E-03     2.02493E-03
            2454     3.55195E-03     974.315E-06    -14.5385E+06    -59.5531E+06    -18.4963E+06    -1.15820E+06    -13.6326E-03     27.0016E-03    -13.3690E-03     1.59321E-03    -13.5920E-03     26.7516E-03    -13.3540E-03     1.57818E-03
            2455     2.66416E-03     974.100E-06    -14.4938E+06    -57.8305E+06    -17.1705E+06    -1.15586E+06    -13.4708E-03     26.7920E-03    -13.3212E-03     1.17335E-03    -13.4344E-03     26.5487E-03    -13.3022E-03     1.15837E-03
            2456     1.77611E-03     973.949E-06    -14.3324E+06    -58.4617E+06    -15.6063E+06    -861.435E+03    -13.3600E-03     26.6529E-03    -13.2930E-03     776.435E-06    -13.3241E-03     26.4039E-03    -13.2654E-03     765.310E-06
            2457     888.124E-06     973.841E-06    -14.4831E+06    -58.5117E+06    -14.5778E+06    -697.670E+03    -13.2899E-03     26.5690E-03    -13.2792E-03     414.349E-06    -13.2553E-03     26.3192E-03    -13.2462E-03     405.620E-06


