********************************************************************************
Field Output Report, written Wed May 29 01:07:30 2024

Source 1
---------

   ODB: G:/Abaqus_calc_2019/1740/Vel_5/odb/zeides_2a_32_red_500_cal_50_vel_5_fric_025.odb
   Step: Step-1
   Frame: Increment  15636981: Step Time =    1.905

Loc 1 : Nodal values from source 1

Output sorted by column "Nodal Label".

Field Output reported at nodes for region: DIE_2A_32_D0_36-1.Region_1
   Computation algorithm: EXTRAPOLATE_COMPUTE_AVERAGE
   Averaged at nodes
   Averaging regions: ODB_REGIONS

      Node Label     COORD.COOR1     COORD.COOR2
                          @Loc 1          @Loc 1
-------------------------------------------------
               1     21.8134E-03     117.917E-03


Field Output reported at nodes for region: DIE_2A_32_D0_36-1.Region_2
   Computation algorithm: EXTRAPOLATE_COMPUTE_AVERAGE
   Averaged at nodes
   Averaging regions: ODB_REGIONS

      Node Label     COORD.COOR1     COORD.COOR2
                          @Loc 1          @Loc 1
-------------------------------------------------
               1     21.8134E-03     117.917E-03


Field Output reported at nodes for part: WIRE-1
   Computation algorithm: EXTRAPOLATE_COMPUTE_AVERAGE
   Averaged at nodes
   Averaging regions: ODB_REGIONS

      Node Label     COORD.COOR1     COORD.COOR2           S.S11           S.S22           S.S33           S.S12         PE.PE11         PE.PE22         PE.PE33         PE.PE12         LE.LE11         LE.LE22         LE.LE33         LE.LE12
                          @Loc 1          @Loc 1          @Loc 1          @Loc 1          @Loc 1          @Loc 1          @Loc 1          @Loc 1          @Loc 1          @Loc 1          @Loc 1          @Loc 1          @Loc 1          @Loc 1
-------------------------------------------------------------------------------------------------------------------------------------------------------------------------------------------------------------------------------------------------
               1    -75.0932E-09     60.4778E-03    -52.6705E+06    -168.030E+06    -52.5218E+06    -266.412E+03    -54.4169E-03     108.824E-03    -54.4071E-03     5.82335E-03    -54.3606E-03     108.138E-03    -54.3497E-03     5.79977E-03
               2     17.0525E-03     62.3639E-03    -2.03435E+06     145.281E+06     100.560E+06     187.052E+03    -50.2545E-03     104.680E-03    -54.4257E-03     66.7882E-03    -52.6344E-03     107.277E-03    -54.1306E-03     69.1379E-03
               3     16.4354E-03     124.311E-03     17.1286E+06    -19.9914E+06     7.36111E+06     2.58497E+06     40.8480E-03     38.9642E-03    -79.8122E-03    -196.402E-06     40.9394E-03     38.8160E-03    -79.7712E-03    -163.174E-06
               4    -334.969E-09     121.048E-03     42.0854E+06    -3.40501E+06     40.2810E+06    -2.25167E+06    -54.6421E-03     109.617E-03    -54.9754E-03    -2.92054E-03    -54.4950E-03     109.471E-03    -54.8301E-03    -2.95869E-03
               5    -226.596E-09    -2.64372E-15    -26.5927E+06    -140.081E+06    -27.5467E+06    -369.331E+03    -50.6429E-03     101.142E-03    -50.4987E-03     615.854E-06    -50.5304E-03     100.521E-03    -50.3948E-03     611.012E-06
               6     16.7294E-03    -2.64372E-15    -7.72349E+06     104.696E+06     80.6215E+06     13.2459E+06    -134.010E-03     200.681E-03    -66.6711E-03     190.684E-03    -135.977E-03     202.729E-03    -66.4086E-03     187.120E-03
               7     852.396E-06     60.4837E-03    -52.2671E+06    -167.145E+06    -51.0498E+06    -277.454E+03    -54.4351E-03     108.848E-03    -54.4132E-03     9.64976E-03    -54.3813E-03     108.164E-03    -54.3503E-03     9.61260E-03
               8     1.70478E-03     60.4973E-03    -50.7889E+06    -164.417E+06    -46.7693E+06    -349.407E+03    -54.4895E-03     108.918E-03    -54.4288E-03     17.7308E-03    -54.4417E-03     108.242E-03    -54.3506E-03     17.6631E-03
               9     2.55716E-03     60.5193E-03    -48.1263E+06    -159.748E+06    -39.7194E+06    -437.657E+03    -54.5676E-03     109.018E-03    -54.4508E-03     26.2242E-03    -54.5292E-03     108.357E-03    -54.3479E-03     26.1209E-03
              10     3.40960E-03     60.5499E-03    -44.7204E+06    -154.002E+06    -31.0963E+06    -312.594E+03    -54.6686E-03     109.142E-03    -54.4738E-03     34.6187E-03    -54.6428E-03     108.501E-03    -54.3411E-03     34.4774E-03
              11     4.26200E-03     60.5887E-03    -41.2283E+06    -145.072E+06    -22.8662E+06    -3.25455E+03    -54.7842E-03     109.270E-03    -54.4860E-03     42.8624E-03    -54.7785E-03     108.669E-03    -54.3302E-03     42.6797E-03
              12     5.11450E-03     60.6359E-03    -37.6511E+06    -139.564E+06    -15.4364E+06     234.791E+03    -54.9379E-03     109.434E-03    -54.4961E-03     50.9008E-03    -54.9509E-03     108.863E-03    -54.3163E-03     50.6682E-03
              13     5.96704E-03     60.6909E-03    -34.1298E+06    -132.890E+06    -9.88692E+06     275.595E+03    -55.1304E-03     109.626E-03    -54.4951E-03     58.7403E-03    -55.1679E-03     109.099E-03    -54.3023E-03     58.4466E-03
              14     6.81953E-03     60.7537E-03    -31.1520E+06    -119.109E+06    -6.57934E+06     319.989E+03    -55.3344E-03     109.809E-03    -54.4744E-03     66.4302E-03    -55.4143E-03     109.374E-03    -54.2894E-03     66.0662E-03
              15     7.67206E-03     60.8241E-03    -28.4046E+06    -112.742E+06    -4.09094E+06     404.849E+03    -55.5715E-03     110.034E-03    -54.4622E-03     73.8336E-03    -55.6944E-03     109.667E-03    -54.2780E-03     73.3871E-03
              16     8.52458E-03     60.9016E-03    -25.8644E+06    -104.519E+06    -3.12132E+06     450.742E+03    -55.8063E-03     110.248E-03    -54.4412E-03     81.1368E-03    -55.9885E-03     109.976E-03    -54.2678E-03     80.5944E-03
              17     9.37717E-03     60.9866E-03    -23.7453E+06    -89.9442E+06    -2.91684E+06     471.231E+03    -56.0621E-03     110.471E-03    -54.4085E-03     88.7518E-03    -56.3354E-03     110.349E-03    -54.2583E-03     88.0973E-03
              18     10.2297E-03     61.0794E-03    -22.0511E+06    -75.9702E+06    -3.03837E+06     365.894E+03    -56.3308E-03     110.708E-03    -54.3769E-03     96.5121E-03    -56.7271E-03     110.765E-03    -54.2500E-03     95.7229E-03
              19     11.0823E-03     61.1797E-03    -20.6178E+06    -56.8312E+06    -3.49866E+06     362.459E+03    -56.5662E-03     110.903E-03    -54.3372E-03     104.311E-03    -57.1401E-03     111.212E-03    -54.2424E-03     103.364E-03
              20     11.9349E-03     61.2881E-03    -19.8232E+06    -28.4008E+06    -3.72142E+06     625.678E+03    -56.7688E-03     111.052E-03    -54.2833E-03     114.031E-03    -57.6246E-03     111.747E-03    -54.2319E-03     112.898E-03
              21     12.7875E-03     61.4077E-03    -19.2095E+06     14.4085E+06    -1.98099E+06     659.417E+03    -57.1644E-03     111.375E-03    -54.2103E-03     130.201E-03    -58.5339E-03     112.733E-03    -54.2133E-03     128.825E-03
              22     13.6405E-03     61.5490E-03    -16.7516E+06     70.7888E+06     8.41133E+06     439.728E+03    -57.9731E-03     112.115E-03    -54.1417E-03     158.535E-03    -60.4275E-03     114.737E-03    -54.1780E-03     156.850E-03
              23     14.4947E-03     61.7244E-03    -13.3328E+06     116.445E+06     38.3811E+06     838.348E+03    -61.6890E-03     115.879E-03    -54.1898E-03     214.856E-03    -67.1101E-03     121.555E-03    -54.1474E-03     212.874E-03
              24     15.3463E-03     61.9841E-03    -10.7215E+06     142.164E+06     81.3373E+06     543.503E+03    -65.6453E-03     120.022E-03    -54.3765E-03     274.187E-03    -76.3073E-03     130.914E-03    -54.1604E-03     273.583E-03
              25     16.1954E-03     62.2916E-03    -5.81530E+06     149.116E+06     101.634E+06    -14.8904E+03    -58.3201E-03     112.776E-03    -54.4560E-03     180.957E-03    -66.3516E-03     121.022E-03    -54.1556E-03     182.585E-03
              26     17.0529E-03     63.4141E-03    -3.72247E+06     144.251E+06     99.2965E+06      57.435E+03    -52.6557E-03     107.026E-03    -54.3703E-03     70.2511E-03    -55.1087E-03     109.690E-03    -54.0776E-03     72.5609E-03
              27     17.0522E-03     64.4782E-03    -919.276E+03     145.526E+06     101.076E+06     966.952E+03    -52.0392E-03     106.398E-03    -54.3588E-03     65.5104E-03    -54.3600E-03     108.940E-03    -54.0631E-03     67.6659E-03
              28     17.0551E-03     65.5278E-03    -1.53260E+06     144.562E+06     100.572E+06    -2.23100E+06    -48.9855E-03     103.408E-03    -54.4220E-03     65.9424E-03    -51.3184E-03     105.958E-03    -54.1266E-03     68.2368E-03
              29     17.0510E-03     66.5762E-03    -6.83911E+06     140.059E+06     96.5262E+06    -618.701E+03    -55.0742E-03     109.382E-03    -54.3079E-03     64.8178E-03    -57.4088E-03     111.911E-03    -54.0185E-03     66.8993E-03
              30     17.0531E-03     67.6473E-03    -2.33125E+06     142.650E+06     99.5573E+06     1.84478E+06    -55.0688E-03     109.379E-03    -54.3104E-03     58.6873E-03    -57.2644E-03     111.785E-03    -54.0161E-03     60.6345E-03
              31     17.0530E-03     68.6949E-03    -1.53003E+06     143.866E+06     100.480E+06    -1.21348E+06    -51.1525E-03     105.543E-03    -54.3909E-03     63.7992E-03    -53.4246E-03     108.029E-03    -54.0949E-03     65.9881E-03
              32     17.0527E-03     69.7598E-03    -3.69357E+06     142.072E+06     99.3218E+06    -352.738E+03    -52.2471E-03     106.639E-03    -54.3919E-03     68.5865E-03    -54.6336E-03     109.229E-03    -54.0959E-03     70.8439E-03
              33     17.0516E-03     70.8169E-03    -967.555E+03     144.098E+06     101.577E+06     1.39362E+06    -51.1683E-03     105.584E-03    -54.4158E-03     68.5825E-03    -53.5639E-03     108.193E-03    -54.1155E-03     70.8607E-03
              34     17.0546E-03     71.8597E-03    -1.29981E+06     143.675E+06     100.897E+06    -786.439E+03    -52.4829E-03     106.830E-03    -54.3470E-03     64.4911E-03    -54.7861E-03     109.346E-03    -54.0490E-03     66.6198E-03
              35     17.0518E-03     72.9268E-03    -5.17678E+06     140.722E+06     97.6144E+06    -1.10862E+06    -55.9214E-03     110.202E-03    -54.2805E-03     64.9495E-03    -58.2696E-03     112.748E-03    -53.9889E-03     66.9896E-03
              36     17.0525E-03     73.9909E-03    -4.65410E+06     141.576E+06     98.4247E+06     976.354E+03    -53.3450E-03     107.720E-03    -54.3751E-03     68.6114E-03    -55.7547E-03     110.331E-03    -54.0815E-03     70.8438E-03
              37     17.0522E-03     75.0423E-03    -667.027E+03     145.084E+06     102.038E+06     1.68851E+06    -48.3346E-03     102.820E-03    -54.4854E-03     68.2182E-03    -50.7018E-03     105.404E-03    -54.1846E-03     70.6565E-03
              38     17.0538E-03     76.0887E-03     1.60423E+06     147.533E+06     104.067E+06     622.637E+03    -47.8240E-03     102.272E-03    -54.4480E-03     64.4560E-03    -50.1078E-03     104.784E-03    -54.1439E-03     66.8113E-03
              39     17.0544E-03     77.1386E-03    -1.83246E+06     144.945E+06     101.083E+06    -2.16377E+06    -53.7302E-03     108.016E-03    -54.2859E-03     62.9060E-03    -56.0169E-03     110.518E-03    -53.9880E-03     64.9456E-03
              40     17.0519E-03     78.2074E-03    -6.90010E+06     142.246E+06     97.4481E+06     121.051E+03    -58.8344E-03     113.048E-03    -54.2133E-03     64.1319E-03    -61.1791E-03     115.591E-03    -53.9223E-03     66.0196E-03
              41     17.0520E-03     79.2739E-03    -3.82164E+06     146.041E+06     100.299E+06     2.04604E+06    -54.3428E-03     108.692E-03    -54.3491E-03     66.9661E-03    -56.7151E-03     111.279E-03    -54.0538E-03     69.1056E-03
              42     17.0533E-03     80.3258E-03    -2.15358E+06     148.598E+06     101.944E+06     402.526E+03    -49.4321E-03     103.888E-03    -54.4563E-03     69.0566E-03    -51.8184E-03     106.499E-03    -54.1590E-03     71.4440E-03
              43     17.0521E-03     81.3748E-03    -1.25010E+06     149.872E+06     102.721E+06     769.600E+03    -49.5876E-03     104.019E-03    -54.4312E-03     64.2288E-03    -51.8629E-03     106.524E-03    -54.1331E-03     66.5248E-03
              44     17.0546E-03     82.4271E-03    -268.930E+03     151.882E+06     103.838E+06     332.781E+03    -50.4284E-03     104.822E-03    -54.3931E-03     60.3879E-03    -52.6257E-03     107.256E-03    -54.0938E-03     62.5433E-03
              45     17.0519E-03     83.4830E-03    -2.38832E+06     152.893E+06     103.320E+06    -122.781E+03    -52.4000E-03     106.759E-03    -54.3593E-03     60.7483E-03    -54.6410E-03     109.235E-03    -54.0609E-03     62.8340E-03
              46     17.0535E-03     84.5415E-03    -4.01772E+06     153.156E+06     102.292E+06     375.303E+03    -55.8237E-03     110.112E-03    -54.2880E-03     64.8593E-03    -58.1653E-03     112.686E-03    -53.9928E-03     66.8696E-03
              47     17.0517E-03     85.6086E-03    -3.93359E+06     154.077E+06     102.082E+06     1.06557E+06    -55.9107E-03     110.201E-03    -54.2906E-03     66.6563E-03    -58.2945E-03     112.823E-03    -53.9979E-03     68.6893E-03
              48     17.0533E-03     86.6673E-03    -3.53156E+06     156.075E+06     103.099E+06     726.131E+03    -52.0115E-03     106.410E-03    -54.3990E-03     68.6813E-03    -54.4506E-03     109.093E-03    -54.1047E-03     70.9849E-03
              49     17.0516E-03     87.7187E-03    -1.83456E+06     157.637E+06     104.130E+06     685.549E+03    -49.5798E-03     104.032E-03    -54.4519E-03     67.9417E-03    -51.9951E-03     106.698E-03    -54.1572E-03     70.3595E-03
              50     17.0540E-03     88.7707E-03    -734.185E+03     158.030E+06     104.278E+06    -467.708E+03    -49.3661E-03     103.782E-03    -54.4157E-03     65.9918E-03    -51.7110E-03     106.383E-03    -54.1224E-03     68.2936E-03
              51     17.0534E-03     89.8228E-03    -5.20789E+06     155.549E+06     102.049E+06    -1.15428E+06    -54.4510E-03     108.750E-03    -54.2994E-03     67.6590E-03    -56.8447E-03     111.382E-03    -54.0071E-03     69.7552E-03
              52     17.0512E-03     90.8913E-03     -260.42E+03     157.612E+06     105.200E+06     1.95934E+06    -52.6379E-03     106.967E-03    -54.3287E-03     62.6450E-03    -54.8917E-03     109.475E-03    -54.0309E-03     64.7034E-03
              53     17.0577E-03     91.9359E-03     23.9503E+03     157.461E+06     105.192E+06    -1.76849E+06    -48.8367E-03     103.220E-03    -54.3837E-03     64.9911E-03    -51.1426E-03     105.782E-03    -54.0861E-03     67.2621E-03
              54     17.0498E-03     92.9903E-03    -5.82895E+06     152.856E+06     101.066E+06    -1.10500E+06    -56.8015E-03     111.007E-03    -54.2054E-03     64.7075E-03    -59.1478E-03     113.583E-03    -53.9132E-03     66.6974E-03
              55     17.0570E-03     94.0601E-03    -4.75498E+06     153.751E+06     102.557E+06     1.08574E+06    -56.6658E-03     110.847E-03    -54.1813E-03     61.2404E-03    -58.8885E-03     113.302E-03    -53.8846E-03     63.0990E-03
              56     17.0526E-03     95.1187E-03    -1.94373E+06     157.320E+06     105.572E+06     1.77441E+06    -47.8923E-03     102.222E-03    -54.3298E-03     64.3249E-03    -50.1812E-03     104.757E-03    -54.0272E-03     66.6943E-03
              57     17.0597E-03     96.1587E-03    -603.177E+03     160.364E+06     107.162E+06     1.34764E+06    -47.8845E-03     102.117E-03    -54.2327E-03     66.4748E-03    -50.2284E-03     104.718E-03    -53.9285E-03     68.8701E-03
              58     17.0565E-03     97.2172E-03    -3.52713E+06     160.770E+06     106.276E+06    -952.739E+03    -55.2740E-03     109.266E-03    -53.9918E-03     65.5534E-03    -57.6213E-03     111.864E-03    -53.6884E-03     67.5092E-03
              59     17.0591E-03     98.2853E-03    -3.40350E+06     161.218E+06     106.069E+06     910.772E+03    -54.9180E-03     108.826E-03    -53.9084E-03     63.8638E-03    -57.2380E-03     111.399E-03    -53.6069E-03     65.8570E-03
              60     17.0631E-03     99.3311E-03    -3.41354E+06     160.573E+06     105.466E+06     29.9971E+03    -50.9410E-03     104.782E-03    -53.8406E-03     65.1639E-03    -53.2790E-03     107.372E-03    -53.5412E-03     67.4044E-03
              61     17.0637E-03     100.394E-03    -4.21004E+06     159.578E+06     105.034E+06     660.149E+03    -52.4723E-03     106.102E-03    -53.6299E-03     67.6718E-03    -54.8702E-03     108.747E-03    -53.3300E-03     69.8822E-03
              62     17.0700E-03     101.445E-03    -3.36306E+06     160.639E+06     106.947E+06     700.036E+03    -53.8645E-03     107.233E-03    -53.3687E-03     66.5681E-03    -56.2140E-03     109.831E-03    -53.0620E-03     68.6496E-03
              63     17.0723E-03     102.505E-03    -485.257E+03     162.581E+06     110.240E+06     2.05636E+06    -52.0504E-03     105.183E-03    -53.1324E-03     63.0653E-03    -54.3212E-03     107.709E-03    -52.8162E-03     65.1972E-03
              64     17.0808E-03     103.553E-03    -898.649E+03     162.472E+06     111.115E+06     45.0902E+03    -54.0009E-03     106.769E-03    -52.7683E-03     66.5092E-03    -56.3803E-03     109.401E-03    -52.4471E-03     68.5937E-03
              65     17.0827E-03     104.617E-03    -3.69693E+06     158.039E+06     108.900E+06    -2.13538E+06    -63.2675E-03     115.540E-03    -52.2728E-03     68.5617E-03    -65.7376E-03     118.244E-03    -51.9521E-03     70.2296E-03
              66     17.0876E-03     105.694E-03    -3.59886E+06     155.016E+06     108.298E+06     233.912E+03    -66.9968E-03     118.958E-03    -51.9611E-03     68.2212E-03    -69.4631E-03     121.648E-03    -51.6392E-03     69.7613E-03
              67     17.0905E-03     106.760E-03    -2.95715E+06     153.465E+06     108.804E+06    -611.712E+03    -66.8805E-03     118.651E-03    -51.7707E-03     71.7657E-03    -69.4087E-03     121.398E-03    -51.4449E-03     73.3932E-03
              68     17.0931E-03     107.834E-03    -3.54237E+06     150.849E+06     108.338E+06    -495.465E+03    -71.6983E-03     123.201E-03    -51.5028E-03     70.0030E-03    -74.2028E-03     125.914E-03    -51.1747E-03     71.3652E-03
              69     17.0949E-03     108.902E-03    -2.60241E+06     147.142E+06     107.561E+06    -1.35023E+06    -79.7646E-03     130.945E-03    -51.1807E-03     66.9212E-03    -82.1828E-03     133.565E-03    -50.8525E-03     67.7695E-03
              70     17.0967E-03     109.998E-03    -4.22099E+06     141.415E+06     104.824E+06    -2.31821E+06    -89.5126E-03     140.344E-03    -50.8310E-03     73.0362E-03    -92.0516E-03     143.068E-03    -50.5058E-03     73.3295E-03
              71     17.0986E-03     111.102E-03    -2.24772E+06     135.661E+06     104.840E+06    -1.76547E+06    -96.5741E-03     147.137E-03    -50.5630E-03     79.8532E-03    -99.2534E-03     149.987E-03    -50.2322E-03     79.7446E-03
              72     17.1000E-03     112.205E-03    -2.78781E+06     128.855E+06     105.985E+06    -2.63853E+06    -103.992E-03     154.314E-03    -50.3223E-03     88.0724E-03    -106.887E-03     157.352E-03    -49.9752E-03     87.4690E-03
              73     17.1007E-03     113.323E-03    -2.47269E+06     120.136E+06     105.161E+06    -2.57332E+06    -115.828E-03     165.805E-03    -49.9773E-03     94.7289E-03    -118.914E-03     169.006E-03    -49.6221E-03     93.2517E-03
              74     17.1026E-03     114.453E-03    -5.43884E+06     107.398E+06     100.332E+06    -6.05698E+06    -129.266E-03     178.842E-03    -49.5766E-03     102.509E-03    -132.600E-03     182.252E-03    -49.2228E-03     99.8868E-03
              75     17.1037E-03     115.603E-03     1.25605E+06     94.1597E+06     102.522E+06    -3.21793E+06    -144.417E-03     193.594E-03    -49.1767E-03     120.219E-03    -148.268E-03     197.497E-03    -48.8024E-03     116.191E-03
              76     17.1050E-03     116.785E-03    -1.12764E+06     91.4137E+06     108.112E+06     1.64810E+06    -156.582E-03     205.485E-03    -48.9034E-03     148.587E-03    -161.503E-03     210.430E-03    -48.4938E-03     142.920E-03
              77     17.1051E-03     117.975E-03    -6.74624E+06     86.3090E+06     113.602E+06    -3.24795E+06    -163.839E-03     212.625E-03    -48.7855E-03     192.203E-03    -170.516E-03     219.276E-03    -48.3329E-03     184.893E-03
              78     17.1076E-03     119.176E-03     4.13575E+06     87.6939E+06     124.100E+06     2.79083E+06    -166.107E-03     214.904E-03    -48.7978E-03     242.443E-03    -174.887E-03     223.675E-03    -48.3105E-03     233.778E-03
              79     17.1076E-03     120.369E-03    -6.89203E+06     87.1426E+06     90.8451E+06    -3.03254E+06    -154.146E-03     203.154E-03    -49.0084E-03     305.555E-03    -164.946E-03     214.001E-03    -48.6705E-03     296.234E-03
              80     17.1127E-03     121.536E-03    -9.05473E+06     40.8944E+06     37.1553E+06    -27.6562E+06    -96.5159E-03     146.863E-03    -50.3473E-03     349.635E-03    -104.599E-03     154.993E-03    -50.2077E-03     344.478E-03
              81     17.1077E-03     122.504E-03    -3.25172E+06     6.07044E+06     23.8599E+06    -10.8383E+06    -6.69800E-03     62.8624E-03    -56.1644E-03     257.176E-03    -9.09889E-03     65.1917E-03    -56.0491E-03     256.869E-03
              82     16.8369E-03     123.371E-03     6.16862E+06    -5.88620E+06     17.5050E+06     9.15741E+06     38.6492E-03     31.6579E-03    -70.3071E-03     79.1922E-03     38.5525E-03     31.6519E-03    -70.2200E-03     79.3555E-03
              83     15.5887E-03     123.915E-03     3.15333E+06     16.4686E+06     50.1685E+06     2.97472E+06     38.0702E-03     42.9514E-03    -81.0217E-03     11.5832E-03     37.9792E-03     42.9467E-03    -80.7993E-03     11.6213E-03
              84     14.7198E-03     123.568E-03    -5.33887E+06     16.0189E+06     88.6841E+06    -6.75664E+06     5.03453E-03     77.2395E-03    -82.2740E-03     8.68847E-03     4.84204E-03     77.1893E-03    -81.8461E-03     8.54519E-03
              85     13.9198E-03     123.176E-03     10.7931E+06    -20.0827E+06     80.4521E+06    -5.47840E+06    -31.2795E-03     112.386E-03    -81.1060E-03    -24.1605E-03    -31.3506E-03     112.106E-03    -80.6903E-03    -24.3708E-03
              86     13.1472E-03     122.828E-03     19.3135E+06    -4.47040E+06     89.1682E+06     5.16924E+06    -41.8330E-03     120.550E-03    -78.7171E-03    -50.8602E-03    -41.8987E-03     120.293E-03    -78.2927E-03    -50.9783E-03
              87     12.3597E-03     122.536E-03     18.9815E+06     4.34163E+06     95.0076E+06     2.41834E+06    -52.5449E-03     128.834E-03    -76.2895E-03    -65.2604E-03    -52.6127E-03     128.612E-03    -75.8483E-03    -65.4594E-03
              88     11.5740E-03     122.284E-03     23.3103E+06    -1.68595E+06     88.7593E+06    -139.624E+03    -62.8509E-03     136.597E-03    -73.7462E-03    -71.4956E-03    -62.8707E-03     136.345E-03    -73.3338E-03    -71.7549E-03
              89     10.7840E-03     122.068E-03     27.7941E+06    -3.61779E+06     88.0065E+06    -196.350E+03    -69.0387E-03     140.209E-03    -71.1699E-03    -69.3576E-03    -69.0282E-03     139.951E-03    -70.7649E-03    -69.6077E-03
              90     9.98763E-03     121.883E-03     31.4905E+06    -1.05357E+06     85.2981E+06    -193.014E+03    -71.8849E-03     140.544E-03    -68.6595E-03    -62.9021E-03    -71.8545E-03     140.311E-03    -68.2772E-03    -63.1278E-03
              91     9.18338E-03     121.726E-03     35.1685E+06     290.544E+03     82.4925E+06    -633.254E+03    -72.4399E-03     138.734E-03    -66.2943E-03    -54.7320E-03    -72.3889E-03     138.520E-03    -65.9333E-03    -54.9317E-03
              92     8.37204E-03     121.592E-03     37.9270E+06    -1.81830E+06     80.0215E+06     578.364E+03    -71.2930E-03     135.408E-03    -64.1149E-03    -46.3231E-03    -71.2225E-03     135.193E-03    -63.7671E-03    -46.4748E-03
              93     7.55389E-03     121.477E-03     38.0497E+06     408.432E+03     74.9781E+06     1.65178E+06    -69.0123E-03     131.146E-03    -62.1339E-03    -38.4726E-03    -68.9376E-03     130.958E-03    -61.8147E-03    -38.5801E-03
              94     6.72894E-03     121.380E-03     37.0432E+06     1.36741E+06     69.5762E+06     873.066E+03    -66.3338E-03     126.722E-03    -60.3885E-03    -31.7324E-03    -66.2578E-03     126.555E-03    -60.0963E-03    -31.8238E-03
              95     5.89865E-03     121.299E-03     36.6907E+06     944.795E+03     64.7038E+06    -336.602E+03    -63.6614E-03     122.540E-03    -58.8781E-03    -26.0292E-03    -63.5797E-03     122.382E-03    -58.6092E-03    -26.1147E-03
              96     5.06368E-03     121.230E-03     37.0226E+06     430.992E+03     57.9389E+06    -1.00678E+06    -61.1787E-03     118.760E-03    -57.5817E-03    -21.1288E-03    -61.0848E-03     118.612E-03    -57.3463E-03    -21.2055E-03
              97     4.22498E-03     121.174E-03     38.0095E+06     74.1667E+03     53.6006E+06    -1.22665E+06    -58.9661E-03     115.484E-03    -56.5183E-03    -16.8359E-03    -58.8605E-03     115.341E-03    -56.3055E-03    -16.9017E-03
              98     3.38316E-03     121.129E-03     39.1204E+06     201.732E+03     50.1611E+06    -1.43850E+06    -57.0372E-03     112.731E-03    -55.6943E-03    -13.1616E-03    -56.9212E-03     112.594E-03    -55.5005E-03    -13.2180E-03
              99     2.53873E-03     121.095E-03     40.1401E+06    -24.2274E+03     46.9048E+06    -1.62548E+06    -55.5726E-03     110.703E-03    -55.1308E-03    -10.0211E-03    -55.4464E-03     110.569E-03    -54.9545E-03    -10.0699E-03
             100     1.69253E-03     121.070E-03     41.1693E+06    -94.4732E+03     44.0638E+06    -1.98070E+06    -54.7012E-03     109.549E-03    -54.8480E-03    -7.52669E-03    -54.5657E-03     109.418E-03    -54.6873E-03    -7.57176E-03
             101     845.075E-06     121.055E-03     41.8843E+06    -1.60537E+06     41.1775E+06    -2.27603E+06    -54.5300E-03     109.405E-03    -54.8754E-03    -4.71425E-03    -54.3862E-03     109.269E-03    -54.7279E-03    -4.75600E-03
             102     95.1285E-09     119.990E-03     36.5338E+06    -6.49596E+06     37.1679E+06    -1.68034E+06    -48.2635E-03     96.7120E-03    -48.4486E-03    -954.978E-06    -48.1314E-03     96.5667E-03    -48.3063E-03    -984.533E-06
             103    -93.0993E-09     118.960E-03     19.0891E+06    -13.9735E+06     19.2443E+06    -2.25168E+06    -37.5042E-03     75.3092E-03    -37.8050E-03     902.575E-06    -37.4184E-03     75.1819E-03    -37.7162E-03     868.020E-06
             104    -403.448E-09     117.947E-03    -3.94646E+06    -21.8114E+06    -5.04581E+06    -1.62969E+06    -30.2866E-03     60.8031E-03    -30.5165E-03     1.43619E-03    -30.2683E-03     60.7066E-03    -30.5044E-03     1.41160E-03
             105     502.130E-09     116.945E-03    -28.4187E+06    -29.5509E+06    -26.1169E+06    -2.74987E+06    -25.6261E-03     51.1145E-03    -25.4884E-03     2.78464E-03    -25.6875E-03     51.0462E-03    -25.5350E-03     2.74675E-03
             106    -331.487E-09     115.952E-03    -55.0229E+06    -41.8501E+06    -55.1961E+06    -5.11839E+06    -22.6992E-03     45.4531E-03    -22.7539E-03     3.96670E-03    -22.8333E-03     45.4044E-03    -22.8894E-03     3.89919E-03
             107     55.7372E-09     114.960E-03    -83.9670E+06    -54.9514E+06    -84.7825E+06    -2.92409E+06    -21.4594E-03     42.9975E-03    -21.5381E-03     4.91616E-03    -21.6762E-03     42.9682E-03    -21.7606E-03     4.87805E-03
             108     60.5884E-09     113.972E-03    -111.041E+06    -62.8816E+06    -110.836E+06    -1.27570E+06    -21.6960E-03     43.2323E-03    -21.5363E-03     5.41881E-03    -21.9990E-03     43.2403E-03    -21.8383E-03     5.40269E-03
             109     92.9004E-09     112.981E-03    -112.656E+06    -62.0593E+06    -114.072E+06     2.22003E+06    -23.1585E-03     46.0820E-03    -22.9235E-03     5.61265E-03    -23.4662E-03     46.1010E-03    -23.2405E-03     5.64217E-03
             110     137.291E-09     111.986E-03    -78.2628E+06    -45.9800E+06    -78.4787E+06     6.88111E+06    -25.8628E-03     51.5835E-03    -25.7207E-03     6.05443E-03    -26.0737E-03     51.5812E-03    -25.9329E-03     6.14443E-03
             111    -133.892E-09     110.984E-03    -43.8644E+06    -26.4306E+06    -41.9734E+06     4.58343E+06    -29.3849E-03     58.7844E-03    -29.3995E-03     6.49300E-03    -29.5052E-03     58.7769E-03    -29.5075E-03     6.55298E-03
             112     111.693E-09     109.974E-03    -26.0952E+06    -20.0653E+06    -25.1586E+06    -588.411E+03    -33.2523E-03     66.4171E-03    -33.1648E-03     6.73240E-03    -33.3174E-03     66.3913E-03    -33.2237E-03     6.72454E-03
             113     57.0954E-09     108.957E-03    -14.5445E+06    -25.5428E+06    -14.1471E+06    -2.88988E+06    -36.9146E-03     73.7827E-03    -36.8682E-03     7.01883E-03    -36.9299E-03     73.6969E-03    -36.8808E-03     6.97972E-03
             114    -158.487E-09     107.932E-03    -8.11601E+06    -37.1563E+06    -8.22309E+06    -3.47897E+06    -40.2514E-03     80.6165E-03    -40.3651E-03     7.07005E-03    -40.2263E-03     80.4548E-03    -40.3406E-03     7.02172E-03
             115     42.7979E-09     106.901E-03    -6.92892E+06    -47.8788E+06    -7.89765E+06    -1.93418E+06    -43.4243E-03     86.7492E-03    -43.3249E-03     6.80634E-03    -43.3781E-03     86.5319E-03    -43.2849E-03     6.77598E-03
             116     214.036E-09     105.864E-03    -14.3870E+06    -56.7554E+06    -13.5410E+06    -2.96203E+06    -46.0556E-03     91.9526E-03    -45.8970E-03     6.63430E-03    -46.0256E-03     91.7100E-03    -45.8615E-03     6.58810E-03
             117    -206.889E-09     104.822E-03    -21.7259E+06    -70.0512E+06    -21.8893E+06    -4.42530E+06    -48.1466E-03     96.2507E-03    -48.1041E-03     6.47133E-03    -48.1219E-03     95.9645E-03    -48.0805E-03     6.40370E-03
             118     252.661E-09     103.777E-03    -27.9188E+06    -84.5672E+06    -28.6219E+06    -3.47154E+06    -49.9567E-03     99.7244E-03    -49.7677E-03     6.35974E-03    -49.9322E-03     99.3844E-03    -49.7477E-03     6.30273E-03
             119    -809.249E-12     102.727E-03    -32.4676E+06    -95.9992E+06    -32.5044E+06    -2.63618E+06    -51.2778E-03     102.379E-03    -51.1017E-03     6.30302E-03    -51.2538E-03     101.995E-03    -51.0779E-03     6.25519E-03
             120     31.7881E-09     101.676E-03    -36.0364E+06    -104.839E+06    -35.8645E+06    -2.17562E+06    -52.2457E-03     104.418E-03    -52.1723E-03     6.15204E-03    -52.2219E-03     103.999E-03    -52.1473E-03     6.10841E-03
             121     47.1236E-09     100.623E-03    -40.9368E+06    -113.558E+06    -41.5721E+06    -2.39431E+06    -52.9512E-03     105.877E-03    -52.9256E-03     6.04583E-03    -52.9311E-03     105.430E-03    -52.9094E-03     5.99791E-03
             122    -106.058E-09     99.5689E-03    -43.6313E+06    -121.714E+06    -43.4200E+06    -1.96430E+06    -53.4212E-03     106.905E-03    -53.4839E-03     5.90202E-03    -53.3999E-03     106.424E-03    -53.4613E-03     5.85847E-03
             123     44.0941E-09     98.5133E-03    -45.0680E+06    -129.170E+06    -44.8940E+06    -2.32187E+06    -53.8121E-03     107.658E-03    -53.8456E-03     5.82516E-03    -53.7851E-03     107.143E-03    -53.8174E-03     5.77631E-03
             124    -53.0301E-09     97.4576E-03    -47.6863E+06    -137.650E+06    -47.8639E+06    -2.37223E+06    -54.0969E-03     108.128E-03    -54.0312E-03     5.82576E-03    -54.0664E-03     107.579E-03    -54.0018E-03     5.77604E-03
             125     156.255E-09     96.4014E-03    -52.0636E+06    -146.413E+06    -52.0420E+06    -2.28163E+06    -54.3190E-03     108.434E-03    -54.1145E-03     5.70487E-03    -54.2917E-03     107.854E-03    -54.0869E-03     5.65614E-03
             126     74.3614E-09     95.3453E-03    -54.0305E+06    -154.251E+06    -54.5425E+06    -1.89373E+06    -54.3235E-03     108.646E-03    -54.3228E-03     5.74954E-03    -54.2910E-03     108.034E-03    -54.2935E-03     5.70526E-03
             127    -324.720E-09     94.2884E-03    -54.6536E+06    -159.219E+06    -54.9326E+06    -900.042E+03    -54.3135E-03     108.811E-03    -54.4974E-03     5.87224E-03    -54.2764E-03     108.175E-03    -54.4619E-03     5.84107E-03
             128     242.472E-09     93.2315E-03    -55.1263E+06    -162.242E+06    -55.0075E+06    -701.602E+03    -54.5077E-03     108.864E-03    -54.3560E-03     5.95110E-03    -54.4684E-03     108.213E-03    -54.3158E-03     5.92280E-03
             129     83.2400E-09     92.1752E-03    -55.6911E+06    -165.245E+06    -55.5635E+06    -710.968E+03    -54.5902E-03     108.858E-03    -54.2680E-03     5.88172E-03    -54.5486E-03     108.194E-03    -54.2254E-03     5.85264E-03
             130     125.652E-09     91.1188E-03    -57.2733E+06    -167.183E+06    -57.5510E+06    -283.725E+03    -54.6093E-03     108.994E-03    -54.3846E-03     5.79297E-03    -54.5699E-03     108.326E-03    -54.3469E-03     5.76916E-03
             131     29.6806E-09     90.0615E-03    -57.1986E+06    -166.897E+06    -57.1782E+06     206.537E+03    -54.6064E-03     109.052E-03    -54.4459E-03     5.85598E-03    -54.5676E-03     108.385E-03    -54.4068E-03     5.83872E-03
             132     72.7186E-09     89.0048E-03    -57.0353E+06    -167.483E+06    -56.7337E+06    -260.263E+03    -54.5302E-03     108.938E-03    -54.4073E-03     5.84887E-03    -54.4904E-03     108.266E-03    -54.3654E-03     5.82596E-03
             133     21.6875E-09     87.9485E-03    -57.4247E+06    -169.020E+06    -57.6643E+06    -657.770E+03    -54.5130E-03     108.914E-03    -54.4011E-03     5.82319E-03    -54.4715E-03     108.237E-03    -54.3611E-03     5.79503E-03
             134     56.1213E-09     86.8913E-03    -57.5392E+06    -170.119E+06    -57.6462E+06    -15.1856E+03    -54.4863E-03     108.937E-03    -54.4512E-03     5.89520E-03    -54.4438E-03     108.255E-03    -54.4093E-03     5.87531E-03
             135    -91.4920E-09     85.8350E-03    -57.1743E+06    -170.158E+06    -57.0612E+06     254.104E+03    -54.4145E-03     108.931E-03    -54.5163E-03     5.84028E-03    -54.3710E-03     108.247E-03    -54.4720E-03     5.82372E-03
             136    -61.4537E-09     84.7782E-03    -57.2244E+06    -170.611E+06    -57.1376E+06    -505.558E+03    -54.4547E-03     108.913E-03    -54.4581E-03     5.61381E-03    -54.4107E-03     108.227E-03    -54.4134E-03     5.58746E-03
             137     194.900E-09     83.7219E-03    -57.0614E+06    -171.576E+06    -57.1954E+06    -448.483E+03    -54.5575E-03     108.882E-03    -54.3241E-03     5.59713E-03    -54.5112E-03     108.191E-03    -54.2785E-03     5.57205E-03
             138     53.5141E-09     82.6650E-03    -56.2797E+06    -171.504E+06    -56.3620E+06     81.9638E+03    -54.4317E-03     108.813E-03    -54.3815E-03     5.67822E-03    -54.3828E-03     108.120E-03    -54.3330E-03     5.66017E-03
             139    -232.316E-09     81.6087E-03    -56.0465E+06    -171.411E+06    -56.1392E+06     101.348E+03    -54.3009E-03     108.764E-03    -54.4633E-03     5.69875E-03    -54.2513E-03     108.071E-03    -54.4142E-03     5.68096E-03
             140     117.950E-09     80.5519E-03    -55.4768E+06    -170.912E+06    -55.4711E+06     35.8763E+03    -54.3801E-03     108.779E-03    -54.3990E-03     5.81424E-03    -54.3293E-03     108.087E-03    -54.3481E-03     5.79515E-03
             141    -51.6007E-09     79.4955E-03    -55.8658E+06    -171.390E+06    -55.9253E+06     29.0933E+03    -54.4299E-03     108.738E-03    -54.3079E-03     5.94778E-03    -54.3797E-03     108.044E-03    -54.2580E-03     5.92843E-03
             142     176.036E-09     78.4389E-03    -55.1065E+06    -170.936E+06    -55.2750E+06     538.027E+03    -54.4850E-03     108.765E-03    -54.2800E-03     6.07176E-03    -54.4327E-03     108.072E-03    -54.2286E-03     6.05896E-03
             143     29.8730E-09     77.3824E-03    -54.5930E+06    -170.213E+06    -54.2945E+06     107.267E+03    -54.5366E-03     108.822E-03    -54.2856E-03     5.95797E-03    -54.4841E-03     108.130E-03    -54.2312E-03     5.93949E-03
             144     178.643E-09     76.3261E-03    -54.4689E+06    -170.180E+06    -54.5555E+06    -108.720E+03    -54.5298E-03     108.818E-03    -54.2881E-03     5.60618E-03    -54.4763E-03     108.126E-03    -54.2352E-03     5.58581E-03
             145     9.00486E-09     75.2700E-03    -54.0443E+06    -169.722E+06    -53.9787E+06     41.1560E+03    -54.4472E-03     108.906E-03    -54.4586E-03     5.56863E-03    -54.3931E-03     108.215E-03    -54.4040E-03     5.55050E-03
             146    -229.877E-09     74.2125E-03    -53.9846E+06    -169.734E+06    -54.1518E+06    -27.1150E+03    -54.3922E-03     108.938E-03    -54.5455E-03     5.76056E-03    -54.3376E-03     108.247E-03    -54.4918E-03     5.74047E-03
             147     172.200E-09     73.1559E-03    -54.0195E+06    -169.537E+06    -53.9489E+06     35.0430E+03    -54.4129E-03     108.806E-03    -54.3927E-03     5.88723E-03    -54.3591E-03     108.116E-03    -54.3383E-03     5.86754E-03
             148    -95.4286E-09     72.0997E-03    -53.8015E+06    -169.347E+06    -53.7732E+06    -200.467E+03    -54.4577E-03     108.757E-03    -54.2998E-03     5.75511E-03    -54.4033E-03     108.068E-03    -54.2451E-03     5.73316E-03
             149     272.683E-09     71.0432E-03    -53.7760E+06    -169.602E+06    -54.0724E+06    -33.4913E+03    -54.5190E-03     108.809E-03    -54.2904E-03     5.73670E-03    -54.4637E-03     108.119E-03    -54.2369E-03     5.71674E-03
             150    -78.8494E-09     69.9864E-03    -54.2796E+06    -169.779E+06    -54.1681E+06     182.900E+03    -54.4352E-03     108.802E-03    -54.3665E-03     5.91317E-03    -54.3820E-03     108.111E-03    -54.3125E-03     5.89532E-03
             151    -12.9949E-09     68.9300E-03    -53.8802E+06    -169.155E+06    -53.6375E+06     60.2917E+03    -54.3303E-03     108.760E-03    -54.4293E-03     5.92951E-03    -54.2768E-03     108.071E-03    -54.3741E-03     5.91028E-03
             152    -77.6419E-09     67.8734E-03    -53.7182E+06    -169.274E+06    -53.9575E+06     29.2163E+03    -54.3500E-03     108.717E-03    -54.3669E-03     5.88655E-03    -54.2950E-03     108.028E-03    -54.3133E-03     5.86721E-03
             153     120.686E-09     66.8172E-03    -53.4787E+06    -169.162E+06    -53.6628E+06     215.594E+03    -54.3714E-03     108.708E-03    -54.3371E-03     5.84714E-03    -54.3158E-03     108.019E-03    -54.2826E-03     5.82994E-03
             154    -123.278E-09     65.7607E-03    -52.6910E+06    -168.200E+06    -52.3983E+06    -47.1973E+03    -54.4528E-03     108.796E-03    -54.3433E-03     5.75585E-03    -54.3965E-03     108.109E-03    -54.2850E-03     5.73505E-03
             155     300.326E-09     64.7042E-03    -52.8094E+06    -168.255E+06    -52.8770E+06    -168.285E+03    -54.5592E-03     108.884E-03    -54.3246E-03     5.82493E-03    -54.5027E-03     108.197E-03    -54.2684E-03     5.80297E-03
             156    -94.0151E-09     63.6472E-03    -53.1492E+06    -168.451E+06    -53.1879E+06     35.8435E+03    -54.4724E-03     108.819E-03    -54.3465E-03     5.86948E-03    -54.4168E-03     108.132E-03    -54.2911E-03     5.85064E-03
             157     85.7394E-09     62.5913E-03    -53.1031E+06    -168.543E+06    -53.0918E+06     107.875E+03    -54.4374E-03     108.767E-03    -54.3296E-03     5.68693E-03    -54.3816E-03     108.079E-03    -54.2736E-03     5.66949E-03
             158     91.3516E-09     61.5345E-03    -52.5616E+06    -168.040E+06    -52.4277E+06     287.825E+03    -54.4743E-03     108.827E-03    -54.3526E-03     5.74225E-03    -54.4175E-03     108.140E-03    -54.2949E-03     5.72676E-03
             159     61.3028E-09     59.4214E-03    -53.1075E+06    -168.600E+06    -53.3981E+06    -319.244E+03    -54.4089E-03     108.822E-03    -54.4131E-03     5.76716E-03    -54.3527E-03     108.135E-03    -54.3586E-03     5.74306E-03
             160    -73.3475E-09     58.3650E-03    -53.1143E+06    -168.505E+06    -53.1675E+06     130.758E+03    -54.3806E-03     108.890E-03    -54.5095E-03     5.75909E-03    -54.3248E-03     108.203E-03    -54.4540E-03     5.74136E-03
             161    -150.494E-09     57.3079E-03    -53.0826E+06    -168.515E+06    -53.1300E+06     84.2586E+03    -54.4104E-03     108.887E-03    -54.4768E-03     5.70364E-03    -54.3545E-03     108.200E-03    -54.4211E-03     5.68523E-03
             162     245.359E-09     56.2517E-03    -52.7114E+06    -168.044E+06    -52.6958E+06    -49.8773E+03    -54.4261E-03     108.796E-03    -54.3701E-03     5.65260E-03    -54.3696E-03     108.110E-03    -54.3135E-03     5.63287E-03
             163    -259.598E-09     55.1952E-03    -52.7801E+06    -168.262E+06    -53.1150E+06    -12.6697E+03    -54.3901E-03     108.757E-03    -54.3671E-03     5.60083E-03    -54.3330E-03     108.071E-03    -54.3122E-03     5.58170E-03
             164     294.560E-09     54.1385E-03     -53.277E+06    -168.446E+06    -53.0977E+06     189.376E+03    -54.4711E-03     108.799E-03    -54.3282E-03     5.72342E-03    -54.4163E-03     108.113E-03    -54.2722E-03     5.70693E-03
             165    -99.4510E-09     53.0820E-03    -53.4006E+06    -168.367E+06    -53.1102E+06    -44.1577E+03    -54.4357E-03     108.819E-03    -54.3832E-03     5.80980E-03    -54.3816E-03     108.133E-03    -54.3271E-03     5.79022E-03
             166    -18.7401E-09     52.0255E-03    -53.5753E+06    -168.868E+06    -53.6539E+06    -212.034E+03    -54.3573E-03     108.782E-03    -54.4243E-03     5.70566E-03    -54.3026E-03     108.094E-03    -54.3700E-03     5.68318E-03
             167     6.58534E-09     50.9688E-03    -53.4196E+06    -168.959E+06    -53.6036E+06    -172.653E+03    -54.3676E-03     108.694E-03    -54.3263E-03     5.65463E-03    -54.3120E-03     108.005E-03    -54.2718E-03     5.63273E-03
             168     58.9604E-09     49.9129E-03    -53.2097E+06    -168.737E+06    -53.3752E+06     194.956E+03    -54.4339E-03     108.729E-03    -54.2947E-03     5.62990E-03    -54.3780E-03     108.041E-03    -54.2398E-03     5.61342E-03
             169     96.0660E-09     48.8560E-03    -53.1586E+06    -168.504E+06    -52.8018E+06     76.5178E+03    -54.5072E-03     108.827E-03    -54.3195E-03     5.65478E-03    -54.4522E-03     108.139E-03    -54.2621E-03     5.63685E-03
             170     57.7382E-09     47.7995E-03    -53.2212E+06    -168.767E+06    -53.2949E+06    -100.865E+03    -54.3991E-03     108.692E-03    -54.2927E-03     5.70748E-03    -54.3433E-03     108.004E-03    -54.2373E-03     5.68690E-03
             171    -46.2216E-09     46.7432E-03    -53.0261E+06    -168.495E+06    -53.1723E+06     102.055E+03    -54.2866E-03     108.533E-03    -54.2465E-03     5.80934E-03    -54.2304E-03     107.846E-03    -54.1912E-03     5.79104E-03
             172     85.5643E-09     45.6869E-03    -52.7043E+06    -168.101E+06    -52.6043E+06     41.5044E+03    -54.3238E-03     108.498E-03    -54.1741E-03     5.89283E-03    -54.2673E-03     107.811E-03    -54.1169E-03     5.87347E-03
             173     115.082E-09     44.6306E-03    -53.1523E+06    -168.379E+06    -52.8735E+06    -190.299E+03    -54.3414E-03     108.344E-03    -54.0030E-03     5.81537E-03    -54.2864E-03     107.657E-03    -53.9462E-03     5.79317E-03
             174     248.483E-09     43.5749E-03    -53.4682E+06    -168.878E+06    -53.7220E+06    -210.918E+03    -54.1668E-03     108.076E-03    -53.9088E-03     5.79302E-03    -54.1114E-03     107.388E-03    -53.8551E-03     5.77051E-03
             175    -190.694E-09     42.5192E-03    -53.4705E+06    -168.728E+06    -53.5059E+06     152.836E+03    -53.9600E-03     107.932E-03    -53.9719E-03     5.80890E-03    -53.9052E-03     107.245E-03    -53.9172E-03     5.79125E-03
             176     96.3155E-09     41.4636E-03    -53.6641E+06    -168.880E+06    -53.6899E+06    -61.7163E+03    -53.8751E-03     107.831E-03    -53.9558E-03     5.80473E-03    -53.8207E-03     107.143E-03    -53.9015E-03     5.78478E-03
             177    -155.657E-09     40.4081E-03    -53.9182E+06    -169.053E+06    -53.9925E+06     217.782E+03    -53.8295E-03     107.502E-03    -53.6721E-03     5.65861E-03    -53.7757E-03     106.814E-03    -53.6187E-03     5.64282E-03
             178     467.649E-09     39.3534E-03    -53.8565E+06    -168.829E+06    -53.7675E+06     314.382E+03    -53.6276E-03     107.076E-03    -53.4481E-03     5.58580E-03    -53.5741E-03     106.389E-03    -53.3940E-03     5.57138E-03
             179    -487.196E-09     38.2992E-03    -53.2889E+06    -168.451E+06    -53.3041E+06    -55.3305E+03    -53.3879E-03     106.800E-03    -53.4118E-03     5.38021E-03    -53.3327E-03     106.113E-03    -53.3568E-03     5.36081E-03
             180     452.126E-09     37.2445E-03    -53.5428E+06    -168.642E+06    -53.4773E+06    -62.9216E+03    -53.2564E-03     106.505E-03    -53.2483E-03     5.31424E-03    -53.2020E-03     105.818E-03    -53.1936E-03     5.29507E-03
             181    -416.029E-09     36.1909E-03     -53.298E+06    -168.243E+06    -53.3498E+06    -117.816E+03    -53.0306E-03     106.157E-03    -53.1266E-03     5.44590E-03    -52.9757E-03     105.472E-03    -53.0721E-03     5.42634E-03
             182     201.471E-09     35.1370E-03    -53.2916E+06    -168.120E+06    -53.4336E+06    -96.9143E+03    -52.8896E-03     105.736E-03    -52.8466E-03     5.31828E-03    -52.8347E-03     105.052E-03    -52.7927E-03     5.29913E-03
             183     71.6122E-09     34.0841E-03    -53.6574E+06    -168.229E+06    -53.5124E+06    -35.4136E+03    -52.6844E-03     105.188E-03    -52.5035E-03     5.42891E-03    -52.6312E-03     104.503E-03    -52.4493E-03     5.41039E-03
             184    -47.9715E-09     33.0318E-03    -53.1715E+06    -167.799E+06    -53.3285E+06     122.345E+03    -52.2971E-03     104.648E-03    -52.3508E-03     5.32838E-03    -52.2423E-03     103.965E-03    -52.2970E-03     5.31201E-03
             185    -82.5718E-09     31.9798E-03    -53.0602E+06    -167.493E+06    -53.1449E+06     166.268E+03    -52.0273E-03     104.052E-03    -52.0245E-03     5.15624E-03    -51.9726E-03     103.369E-03    -51.9704E-03     5.14124E-03
             186     204.394E-09     30.9289E-03    -52.9913E+06    -167.011E+06    -52.7860E+06     119.276E+03    -51.7922E-03     103.353E-03    -51.5612E-03     5.06430E-03    -51.7383E-03     102.673E-03    -51.5061E-03     5.04886E-03
             187     58.6742E-09     29.8783E-03    -52.7247E+06    -166.642E+06    -52.8105E+06     283.836E+03    -51.3363E-03     102.528E-03    -51.1919E-03     4.93326E-03    -51.2817E-03     101.849E-03    -51.1379E-03     4.92011E-03
             188    -87.4031E-09     28.8293E-03    -52.2075E+06    -165.843E+06    -52.1306E+06     31.7091E+03    -50.7464E-03     101.631E-03    -50.8843E-03     4.80793E-03    -50.6912E-03     100.954E-03    -50.8288E-03     4.79172E-03
             189    -130.119E-09     27.7802E-03    -51.8868E+06    -165.415E+06    -52.3428E+06     36.2819E+03    -50.3072E-03     100.654E-03    -50.3469E-03     4.80271E-03    -50.2508E-03     99.9794E-03    -50.2935E-03     4.78689E-03
             190     263.809E-09     26.7330E-03    -52.0838E+06    -164.754E+06    -51.7835E+06     244.480E+03    -49.8408E-03     99.5189E-03    -49.6781E-03     4.81569E-03    -49.7871E-03     98.8469E-03    -49.6226E-03     4.80333E-03
             191    -126.508E-09     25.6871E-03    -51.9989E+06    -164.477E+06    -52.0471E+06     70.7036E+03    -49.2061E-03     98.3247E-03    -49.1187E-03     4.54592E-03    -49.1519E-03     97.6544E-03    -49.0650E-03     4.53158E-03
             192     128.522E-09     24.6424E-03    -52.0931E+06    -164.174E+06    -52.0391E+06     258.852E+03    -48.6028E-03     97.1204E-03    -48.5176E-03     4.35442E-03    -48.5495E-03     96.4516E-03    -48.4642E-03     4.34333E-03
             193     7.05570E-09     23.5984E-03    -51.8201E+06    -163.449E+06    -51.8034E+06     238.731E+03    -47.9834E-03     95.8421E-03    -47.8587E-03     4.35080E-03    -47.9302E-03     95.1763E-03    -47.8056E-03     4.33987E-03
             194     62.4739E-09     22.5566E-03    -51.8465E+06    -162.945E+06     -51.959E+06      31.533E+03    -47.2887E-03     94.5482E-03    -47.2595E-03     4.14295E-03    -47.2362E-03     93.8852E-03    -47.2078E-03     4.12930E-03
             195    -91.3591E-09     21.5157E-03    -51.3728E+06    -161.859E+06    -51.2733E+06     164.319E+03    -46.6909E-03     93.3059E-03    -46.6151E-03     3.87947E-03    -46.6385E-03     92.6466E-03    -46.5623E-03     3.86805E-03
             196     244.318E-09     20.4760E-03    -50.6477E+06    -160.368E+06    -50.7918E+06     535.223E+03    -46.0173E-03     91.9174E-03    -45.9001E-03     3.84354E-03    -45.9642E-03     91.2638E-03    -45.8481E-03     3.83750E-03
             197    -204.437E-09     19.4378E-03    -50.2278E+06    -158.314E+06    -50.3091E+06     629.866E+03    -45.2063E-03     90.3493E-03    -45.1431E-03     3.75704E-03    -45.1547E-03     89.7047E-03    -45.0922E-03     3.75302E-03
             198     265.617E-09     18.4017E-03    -49.4919E+06    -155.865E+06    -49.7688E+06     577.828E+03    -44.3729E-03     88.6955E-03    -44.3226E-03     3.41583E-03    -44.3220E-03     88.0612E-03    -44.2737E-03     3.41195E-03
             199    -248.957E-09     17.3673E-03    -49.3456E+06    -153.591E+06    -49.3189E+06     474.803E+03    -43.3345E-03     86.6949E-03    -43.3604E-03     2.94185E-03    -43.2867E-03     86.0711E-03    -43.3128E-03     2.93740E-03
             200     183.749E-09     16.3349E-03    -49.2203E+06    -151.686E+06    -49.4136E+06     810.884E+03    -42.1826E-03     84.0149E-03    -41.8324E-03     2.17342E-03    -42.1368E-03     83.4005E-03    -41.7881E-03     2.17500E-03
             201     482.547E-09     15.3066E-03    -47.1671E+06    -148.268E+06    -47.1384E+06      976.92E+03    -40.6594E-03     80.7884E-03    -40.1289E-03     1.69915E-03    -40.6116E-03     80.1848E-03    -40.0812E-03     1.70402E-03
             202    -232.706E-09     14.2808E-03    -43.7928E+06    -144.293E+06    -44.2409E+06     1.01263E+06    -38.4525E-03     77.0447E-03    -38.5922E-03     1.30612E-03    -38.3978E-03     76.4518E-03    -38.5407E-03     1.31260E-03
             203    -264.906E-09     13.2592E-03    -41.7346E+06    -140.729E+06    -41.7937E+06     1.27407E+06    -36.1949E-03     72.6168E-03    -36.4219E-03     750.607E-06    -36.1387E-03     72.0351E-03    -36.3663E-03     761.878E-06
             204     370.203E-09     12.2430E-03    -39.0666E+06    -136.207E+06    -38.8091E+06     1.03081E+06    -34.0256E-03     67.8664E-03    -33.8408E-03     660.124E-06    -33.9669E-03     67.2991E-03    -33.7807E-03     668.588E-06
             205    -149.517E-09     11.2307E-03    -36.8795E+06    -132.496E+06    -36.9253E+06     1.05287E+06    -31.7443E-03     63.2862E-03    -31.5418E-03     621.670E-06    -31.6828E-03     62.7316E-03    -31.4809E-03     630.721E-06
             206     282.310E-09     10.2242E-03    -36.3426E+06    -129.767E+06    -35.3444E+06     811.393E+03    -29.9757E-03     59.6765E-03    -29.7008E-03     782.860E-06    -29.9176E-03     59.1327E-03    -29.6367E-03     788.915E-06
             207     76.4993E-09     9.21884E-03    -35.9857E+06    -128.554E+06    -35.4976E+06     5.84684E+03    -28.9288E-03     57.6808E-03    -28.7520E-03     1.31297E-03    -28.8704E-03     57.1428E-03    -28.6909E-03     1.30889E-03
             208    -122.100E-09     8.21611E-03    -36.0862E+06    -128.998E+06    -35.8537E+06    -424.332E+03    -28.9744E-03     57.8837E-03    -28.9093E-03     1.75005E-03    -28.9153E-03     57.3442E-03    -28.8492E-03     1.74073E-03
             209     282.064E-09     7.21115E-03    -36.5096E+06    -130.872E+06    -35.8561E+06    -571.584E+03    -30.4376E-03     60.7580E-03    -30.3204E-03     2.25256E-03    -30.3780E-03     60.2095E-03    -30.2570E-03     2.24174E-03
             210    -231.277E-09     6.20200E-03    -36.0766E+06    -133.348E+06    -36.1869E+06    -671.047E+03    -32.8790E-03     65.8968E-03    -33.0178E-03     2.79249E-03    -32.8133E-03     65.3357E-03    -32.9531E-03     2.78089E-03
             211    -62.4683E-09     5.18668E-03    -34.6189E+06    -135.131E+06    -34.8483E+06    -629.652E+03    -36.2710E-03     72.7198E-03    -36.4489E-03     3.00154E-03    -36.1975E-03     72.1456E-03    -36.3770E-03     2.99068E-03
             212     44.6636E-09     4.16371E-03    -32.5852E+06    -136.634E+06    -32.5781E+06    -339.683E+03    -40.1735E-03     80.4204E-03    -40.2469E-03     2.99741E-03    -40.0909E-03     79.8324E-03    -40.1645E-03     2.99049E-03
             213    -152.712E-09     3.13275E-03    -30.1849E+06    -138.129E+06    -30.6982E+06    -222.174E+03    -43.9926E-03     88.1589E-03    -44.1662E-03     2.72110E-03    -43.8983E-03     87.5573E-03    -44.0757E-03     2.71553E-03
             214    -43.0953E-09     2.09384E-03    -28.6781E+06    -139.256E+06    -28.5927E+06    -158.020E+03    -47.5496E-03     95.0382E-03    -47.4887E-03     2.01849E-03    -47.4484E-03     94.4261E-03    -47.3881E-03     2.01401E-03
             215     342.692E-09     1.04848E-03    -27.6796E+06    -140.002E+06    -27.5057E+06    -222.526E+03    -49.9347E-03     99.6261E-03    -49.6914E-03     1.08524E-03    -49.8282E-03     99.0073E-03    -49.5858E-03     1.08142E-03
             216     855.477E-06    -2.64372E-15    -26.8331E+06    -140.094E+06    -27.2525E+06    -239.927E+03    -50.6911E-03     101.254E-03    -50.5628E-03     915.775E-06    -50.5813E-03     100.632E-03    -50.4570E-03     911.743E-06
             217     1.71062E-03    -2.64372E-15    -26.7194E+06    -139.874E+06    -26.7197E+06    -352.263E+03    -50.8682E-03     101.544E-03    -50.6754E-03     1.70501E-03    -50.7601E-03     100.922E-03    -50.5674E-03     1.69806E-03
             218     2.56552E-03    -2.64372E-15    -26.0996E+06    -139.660E+06    -26.6237E+06    -464.524E+03    -51.1790E-03     101.967E-03    -50.7877E-03     2.67058E-03    -51.0683E-03     101.345E-03    -50.6805E-03     2.66121E-03
             219     3.42022E-03    -2.64372E-15    -25.4588E+06    -139.725E+06    -27.0779E+06    -676.111E+03    -51.6366E-03     102.572E-03    -50.9359E-03     3.64510E-03    -51.5220E-03     101.950E-03    -50.8317E-03     3.63174E-03
             220     4.27435E-03    -2.64372E-15    -24.4228E+06    -139.914E+06    -28.1964E+06    -1.25050E+06    -52.2667E-03     103.394E-03    -51.1272E-03     4.59523E-03    -52.1451E-03     102.771E-03    -51.0299E-03     4.57262E-03
             221     5.12802E-03    -2.64372E-15    -22.7360E+06    -140.397E+06    -30.7549E+06    -2.01787E+06    -53.0656E-03     104.428E-03    -51.3622E-03     5.55265E-03    -52.9312E-03     103.803E-03    -51.2795E-03     5.51823E-03
             222     5.98079E-03    -2.64372E-15    -19.8593E+06    -140.746E+06    -35.2560E+06    -3.61681E+06    -54.0759E-03     105.717E-03    -51.6409E-03     6.61345E-03    -53.9202E-03     105.093E-03    -51.5843E-03     6.55602E-03
             223     6.83270E-03    -2.64372E-15    -15.5030E+06    -135.309E+06    -41.4672E+06    -5.03320E+06    -55.3176E-03     107.280E-03    -51.9620E-03     7.83090E-03    -55.1391E-03     106.686E-03    -51.9507E-03     7.75187E-03
             224     7.68320E-03    -2.64372E-15    -10.4282E+06    -121.423E+06    -48.5069E+06    -5.79090E+06    -56.7839E-03     109.116E-03    -52.3324E-03     9.22550E-03    -56.5902E-03     108.595E-03    -52.3837E-03     9.13247E-03
             225     8.53249E-03    -2.64372E-15    -5.00910E+06    -102.210E+06    -53.2617E+06    -6.35452E+06    -58.5330E-03     111.312E-03    -52.7787E-03     10.9582E-03    -58.3334E-03     110.886E-03    -52.8895E-03     10.8531E-03
             226     9.37969E-03    -2.64372E-15     442.777E+03    -77.3987E+06    -54.7494E+06    -6.62129E+06    -60.5926E-03     113.906E-03    -53.3139E-03     12.8550E-03    -60.4001E-03     113.600E-03    -53.4760E-03     12.7379E-03
             227     10.2255E-03    -2.64372E-15     5.31025E+06    -46.0305E+06    -51.0708E+06    -5.10930E+06    -63.0575E-03     117.015E-03    -53.9576E-03     15.2421E-03    -62.8922E-03     116.853E-03    -54.1539E-03     15.1340E-03
             228     11.0678E-03    -2.64372E-15     7.67923E+06    -6.53793E+06    -41.4052E+06    -2.59230E+06    -66.0882E-03     120.821E-03    -54.7324E-03     18.8158E-03    -65.9835E-03     120.840E-03    -54.9411E-03     18.7273E-03
             229     11.9070E-03    -2.64372E-15     6.53133E+06     34.3507E+06    -24.8709E+06    -39.3755E+03    -69.7366E-03     125.411E-03    -55.6749E-03     22.9265E-03    -69.7233E-03     125.615E-03    -55.8585E-03     22.8431E-03
             230     12.7434E-03    -2.64372E-15     3.80461E+06     61.5725E+06    -282.952E+03     2.55736E+06    -74.7948E-03     131.645E-03    -56.8503E-03     28.1277E-03    -74.8746E-03     131.958E-03    -56.9465E-03     28.0355E-03
             231     13.5733E-03    -2.64372E-15     3.33715E+06     74.4599E+06     25.7325E+06     1.21964E+06    -82.2446E-03     140.549E-03    -58.3041E-03     37.9606E-03    -82.3894E-03     140.894E-03    -58.2883E-03     37.8132E-03
             232     14.3906E-03    -2.64372E-15     8.94687E+06     89.9689E+06     59.7243E+06    -5.95671E+06    -90.7894E-03     150.892E-03    -60.1022E-03     58.1832E-03    -90.9978E-03     151.272E-03    -59.9470E-03     57.8705E-03
             233     15.1923E-03    -2.64372E-15     10.3493E+06     107.629E+06     89.8108E+06    -1.76345E+06    -103.777E-03     166.087E-03    -62.3106E-03     103.790E-03    -104.207E-03     166.658E-03    -62.0326E-03     103.032E-03
             234     15.9682E-03    -2.64372E-15    -286.712E+03     109.434E+06     89.4064E+06     10.2874E+06    -123.301E-03     188.397E-03    -65.0965E-03     163.259E-03    -124.590E-03     189.787E-03    -64.8077E-03     160.936E-03
             235     16.8973E-03     1.18333E-03     517.725E+03     112.728E+06     77.2402E+06     11.1681E+06    -127.457E-03     190.680E-03    -63.2235E-03     162.639E-03    -129.439E-03     192.833E-03    -63.0015E-03     159.128E-03
             236     16.9689E-03     2.34132E-03     3.32061E+06     121.890E+06     78.1956E+06     5.29191E+06    -129.035E-03     187.145E-03    -58.1104E-03     121.577E-03    -131.182E-03     189.521E-03    -57.9010E-03     117.624E-03
             237     16.9975E-03     3.50451E-03    -1.97909E+06     125.100E+06     85.6471E+06     3.32486E+06    -135.770E-03     191.450E-03    -55.6797E-03     99.0034E-03    -138.001E-03     193.870E-03    -55.4299E-03     94.7317E-03
             238     17.0224E-03     4.64519E-03    -1.24185E+06     129.639E+06     90.5124E+06     3.11958E+06    -131.163E-03     185.637E-03    -54.4739E-03     80.6508E-03    -133.245E-03     187.908E-03    -54.2075E-03     76.8096E-03
             239     17.0317E-03     5.77812E-03    -3.68649E+06     131.056E+06     91.1440E+06     1.30843E+06    -127.451E-03     181.337E-03    -53.8865E-03     65.0312E-03    -129.387E-03     183.463E-03    -53.6155E-03     61.6024E-03
             240     17.0328E-03     6.92709E-03    -5.04958E+06     132.343E+06     92.1599E+06     1.50346E+06    -120.013E-03     173.875E-03    -53.8625E-03     59.5163E-03    -121.934E-03     175.983E-03    -53.5863E-03     56.5795E-03
             241     17.0349E-03     8.04180E-03    -2.45666E+06     134.139E+06     93.5617E+06     847.686E+03    -107.358E-03     161.427E-03    -54.0692E-03     57.0864E-03    -109.245E-03     163.508E-03    -53.7923E-03     54.8687E-03
             242     17.0361E-03     9.14510E-03    -505.386E+03     134.383E+06     93.9986E+06    -575.493E+03    -98.7963E-03     152.963E-03    -54.1670E-03     51.4627E-03    -100.571E-03     154.939E-03    -53.8911E-03     49.8248E-03
             243     17.0388E-03     10.2493E-03    -927.778E+03     133.684E+06     93.9424E+06     346.468E+03    -93.9044E-03     148.128E-03    -54.2240E-03     47.0466E-03    -95.6031E-03     150.026E-03    -53.9468E-03     45.8272E-03
             244     17.0365E-03     11.3460E-03    -1.05983E+06     134.115E+06     93.5701E+06     1.23706E+06    -88.0192E-03     142.332E-03    -54.3127E-03     44.6894E-03    -89.6547E-03     144.168E-03    -54.0378E-03     43.8662E-03
             245     17.0421E-03     12.4350E-03    -3.80954E+06     133.550E+06     91.8461E+06    -1.36811E+06    -84.9304E-03     139.252E-03    -54.3216E-03     44.1099E-03    -86.5886E-03     141.104E-03    -54.0505E-03     43.4945E-03
             246     17.0374E-03     13.5252E-03    -3.13203E+06     134.529E+06     93.1541E+06     2.11122E+06    -81.0298E-03     135.401E-03    -54.3714E-03     38.7412E-03    -82.6241E-03     137.193E-03    -54.0961E-03     38.4684E-03
             247     17.0445E-03     14.6108E-03     1.13978E+06     139.332E+06     96.6450E+06     1.44315E+06    -73.4126E-03     127.840E-03    -54.4275E-03     43.7320E-03    -75.0763E-03     129.723E-03    -54.1479E-03     43.8804E-03
             248     17.0442E-03     15.6841E-03    -4.25643E+06     137.438E+06     93.1754E+06    -1.82276E+06    -75.2085E-03     129.496E-03    -54.2870E-03     49.2539E-03    -77.0241E-03     131.515E-03    -54.0143E-03     49.4186E-03
             249     17.0435E-03     16.7778E-03    -3.45539E+06     137.701E+06     94.0379E+06     2.29075E+06    -72.5852E-03     126.873E-03    -54.2879E-03     46.7707E-03    -74.3688E-03     128.862E-03    -54.0124E-03     47.1745E-03
             250     17.0497E-03     17.8457E-03    -525.535E+03     139.392E+06     96.3894E+06    -823.466E+03    -65.7123E-03     120.054E-03    -54.3419E-03     54.8157E-03    -67.6388E-03     122.195E-03    -54.0613E-03     55.6156E-03
             251     17.0464E-03     18.9176E-03    -5.28177E+06     135.865E+06     93.1688E+06    -1.03947E+06    -69.8487E-03     124.078E-03    -54.2289E-03     54.6245E-03    -71.8452E-03     126.268E-03    -53.9524E-03     55.3637E-03
             252     17.0470E-03     19.9978E-03    -3.14072E+06     138.099E+06     95.1749E+06     1.74567E+06    -66.3509E-03     120.635E-03    -54.2839E-03     50.9198E-03    -68.2551E-03     122.742E-03    -54.0037E-03     51.8010E-03
             253     17.0516E-03     21.0620E-03    -1.09174E+06     141.070E+06     97.7621E+06    -1.63819E+06    -61.9251E-03     116.242E-03    -54.3165E-03     59.1226E-03    -63.9755E-03     118.506E-03    -54.0307E-03     60.2906E-03
             254     17.0477E-03     22.1319E-03    -3.37301E+06     138.862E+06     96.3178E+06     441.343E+03    -65.4023E-03     119.644E-03    -54.2416E-03     57.2385E-03    -67.4706E-03     121.915E-03    -53.9565E-03     58.3472E-03
             255     17.0498E-03     23.2043E-03    -1.15493E+06     140.083E+06     97.7635E+06     2.54549E+06    -61.3116E-03     115.629E-03    -54.3173E-03     55.0380E-03    -63.3365E-03     117.864E-03    -54.0299E-03     56.3362E-03
             256     17.0514E-03     24.2620E-03    -952.901E+03     141.885E+06     98.2924E+06    -224.187E+03    -59.4089E-03     113.702E-03    -54.2936E-03     60.6176E-03    -61.5554E-03     116.065E-03    -54.0065E-03     62.0941E-03
             257     17.0510E-03     25.3331E-03    -4.46166E+06     141.163E+06     96.1844E+06    -471.943E+03    -62.7223E-03     116.918E-03    -54.1953E-03     60.8687E-03    -64.9231E-03     119.325E-03    -53.9126E-03     62.2605E-03
             258     17.0508E-03     26.4034E-03    -3.11144E+06     142.365E+06     97.3538E+06     814.443E+03    -59.5177E-03     113.794E-03    -54.2759E-03     61.6979E-03    -61.7418E-03     116.230E-03    -53.9911E-03     63.2911E-03
             259     17.0518E-03     27.4613E-03    -2.08470E+06     143.659E+06     98.5439E+06     880.347E+03    -55.7564E-03     110.113E-03    -54.3570E-03     64.2447E-03    -58.0290E-03     112.603E-03    -54.0696E-03     66.1095E-03
             260     17.0512E-03     28.5219E-03    -4.69254E+06     142.938E+06     96.6293E+06    -655.508E+03    -57.6525E-03     111.949E-03    -54.2968E-03     65.3398E-03    -59.9797E-03     114.487E-03    -54.0141E-03     67.1568E-03
             261     17.0519E-03     29.5854E-03    -4.96372E+06     142.635E+06     96.6716E+06     135.552E+03    -59.0930E-03     113.356E-03    -54.2626E-03     64.3772E-03    -61.3997E-03     115.871E-03    -53.9788E-03     66.1167E-03
             262     17.0511E-03     30.6525E-03    -761.053E+03     145.825E+06     100.552E+06     2.49036E+06    -54.1609E-03     108.533E-03    -54.3716E-03     65.0222E-03    -56.4545E-03     111.050E-03    -54.0792E-03     67.0186E-03
             263     17.0538E-03     31.7034E-03     1.43292E+06     148.408E+06     102.576E+06    -278.799E+03    -50.6320E-03     105.046E-03    -54.4142E-03     66.4596E-03    -52.9734E-03     107.622E-03    -54.1186E-03     68.6382E-03
             264     17.0525E-03     32.7539E-03    -2.04832E+06     145.203E+06     99.7292E+06    -2.05009E+06    -55.4031E-03     109.695E-03    -54.2917E-03     63.9407E-03    -57.7238E-03     112.235E-03    -54.0007E-03     65.8787E-03
             265     17.0520E-03     33.8238E-03    -4.90825E+06     142.482E+06     97.3802E+06    -624.966E+03    -58.8749E-03     113.101E-03    -54.2266E-03     63.7277E-03    -61.1836E-03     115.616E-03    -53.9392E-03     65.4998E-03
             266     17.0526E-03     34.8859E-03    -4.02337E+06     142.725E+06     98.1347E+06     292.948E+03    -56.3037E-03     110.599E-03    -54.2951E-03     64.6564E-03    -58.6245E-03     113.127E-03    -54.0055E-03     66.5981E-03
             267     17.0519E-03     35.9434E-03     786.101E+03     146.245E+06     102.042E+06     2.89719E+06    -51.5775E-03     105.945E-03    -54.3675E-03     66.5169E-03    -53.8867E-03     108.480E-03    -54.0705E-03     68.7230E-03
             268     17.0565E-03     36.9988E-03    -893.573E+03     145.853E+06     100.431E+06    -172.330E+03    -52.8350E-03     107.142E-03    -54.3071E-03     70.5868E-03    -55.2598E-03     109.790E-03    -54.0152E-03     72.7892E-03
             269     17.0496E-03     38.0578E-03      -6.672E+06     140.353E+06     94.8498E+06    -2.88984E+06    -54.1582E-03     108.501E-03    -54.3428E-03     60.6774E-03    -56.4797E-03     111.023E-03    -54.0624E-03     62.7166E-03
             270     17.0529E-03     39.1083E-03    -5.57976E+06     140.912E+06     96.4937E+06     536.939E+03    -51.2136E-03     105.669E-03    -54.4551E-03     62.4245E-03    -53.4977E-03     108.155E-03    -54.1689E-03     64.6467E-03
             271     17.0512E-03     40.1698E-03    -6.69062E+03     145.298E+06     101.303E+06     1.88307E+06    -51.5715E-03     105.963E-03    -54.3915E-03     66.9028E-03    -53.8782E-03     108.493E-03    -54.0956E-03     69.0607E-03
             272     17.0558E-03     41.2235E-03    -551.165E+03     144.742E+06     100.266E+06    -1.89982E+06    -53.3550E-03     107.665E-03    -54.3102E-03     62.3291E-03    -55.5984E-03     110.131E-03    -54.0179E-03     64.2803E-03
             273     17.0503E-03     42.2753E-03    -5.02638E+06     141.587E+06     97.1228E+06    -547.798E+03    -56.6174E-03     110.895E-03    -54.2776E-03     60.7906E-03    -58.8518E-03     113.334E-03    -53.9900E-03     62.7132E-03
             274     17.0530E-03     43.3522E-03    -1.30876E+06     144.619E+06     100.290E+06     2.23469E+06    -52.5501E-03     106.930E-03    -54.3795E-03     61.9868E-03    -54.8011E-03     109.400E-03    -54.0859E-03     64.1222E-03
             275     17.0538E-03     44.3925E-03    -1.37520E+06     144.999E+06     100.199E+06    -1.22001E+06    -49.8368E-03     104.259E-03    -54.4219E-03     68.3144E-03    -52.2405E-03     106.882E-03    -54.1291E-03     70.6750E-03
             276     17.0513E-03     45.4557E-03    -4.42824E+06     142.699E+06     97.8812E+06    -891.807E+03    -55.9973E-03     110.298E-03    -54.3005E-03     68.5385E-03    -58.4288E-03     112.937E-03    -54.0116E-03     70.6394E-03
             277     17.0527E-03     46.5196E-03    -2.19017E+06     144.038E+06     99.7612E+06     1.11154E+06    -53.8945E-03     108.245E-03    -54.3503E-03     65.5078E-03    -56.2270E-03     110.792E-03    -54.0572E-03     67.6135E-03
             278     17.0530E-03     47.5691E-03    -1.37620E+06     144.558E+06     100.293E+06     344.136E+03    -48.9378E-03     103.395E-03    -54.4573E-03     65.8767E-03    -51.2752E-03     105.950E-03    -54.1635E-03     68.2709E-03
             279     17.0524E-03     48.6217E-03    -3.10238E+06     143.685E+06     98.8945E+06    -1.23943E+06    -52.8141E-03     107.185E-03    -54.3707E-03     69.3922E-03    -55.2286E-03     109.812E-03    -54.0801E-03     71.6258E-03
             280     17.0523E-03     49.6867E-03    -2.62908E+06     143.418E+06     99.2855E+06     323.153E+03    -53.6682E-03     108.020E-03    -54.3513E-03     63.9062E-03    -55.9643E-03     110.528E-03    -54.0591E-03     65.9755E-03
             281     17.0529E-03     50.7343E-03    -2.09543E+06     143.421E+06     99.4195E+06     800.443E+03    -50.2573E-03     104.664E-03    -54.4067E-03     64.0417E-03    -52.5341E-03     107.155E-03    -54.1145E-03     66.3057E-03
             282     17.0539E-03     51.7917E-03    -5.48972E+06     141.938E+06     96.8638E+06    -1.62745E+06    -54.9033E-03     109.205E-03    -54.3015E-03     67.3648E-03    -57.2888E-03     111.794E-03    -54.0151E-03     69.4603E-03
             283     17.0500E-03     52.8586E-03    -4.39436E+06     142.254E+06     97.5690E+06     658.001E+03    -55.0899E-03     109.413E-03    -54.3235E-03     64.3618E-03    -57.4060E-03     111.936E-03    -54.0356E-03     66.3892E-03
             284     17.0551E-03     53.9113E-03    -1.32996E+06     144.508E+06     100.245E+06     874.412E+03    -49.4437E-03     103.893E-03    -54.4492E-03     68.0910E-03    -51.7715E-03     106.439E-03    -54.1556E-03     70.4258E-03
             285     17.0507E-03     54.9645E-03    -507.568E+03     145.636E+06     101.137E+06     251.459E+03    -49.0778E-03     103.527E-03    -54.4491E-03     65.5186E-03    -51.3820E-03     106.053E-03    -54.1538E-03     67.8266E-03
             286     17.0550E-03     56.0104E-03    -1.83666E+06     144.445E+06     99.8475E+06    -582.072E+03    -51.7512E-03     106.123E-03    -54.3721E-03     60.7996E-03    -53.9714E-03     108.561E-03    -54.0796E-03     62.9074E-03
             287     17.0510E-03     57.0713E-03    -4.25614E+06     142.875E+06     98.2639E+06    -320.772E+03    -55.4292E-03     109.735E-03    -54.3061E-03     60.7895E-03    -57.6676E-03     112.182E-03    -54.0158E-03     62.7850E-03
             288     17.0527E-03     58.1388E-03    -802.221E+03     145.812E+06     100.960E+06     1.69436E+06    -51.8696E-03     106.255E-03    -54.3854E-03     62.2873E-03    -54.1354E-03     108.743E-03    -54.0908E-03     64.4557E-03
             289     17.0545E-03     59.1833E-03    -1.06335E+06     146.100E+06     100.716E+06    -963.671E+03    -49.9065E-03     104.308E-03    -54.4012E-03     67.6268E-03    -52.2908E-03     106.915E-03    -54.1079E-03     69.9540E-03
             290     17.0516E-03     60.2463E-03    -4.38238E+06     143.931E+06     98.5589E+06    -869.882E+03    -55.8257E-03     110.110E-03    -54.2840E-03     69.0894E-03    -58.2706E-03     112.764E-03    -53.9936E-03     71.1890E-03
             291     17.0531E-03     61.3086E-03    -2.89220E+06     144.808E+06     99.9373E+06     690.179E+03    -55.0973E-03     109.409E-03    -54.3121E-03     67.0989E-03    -57.4809E-03     112.007E-03    -54.0182E-03     69.1746E-03
             292     852.357E-06     61.5403E-03    -52.0236E+06    -166.935E+06    -50.7246E+06     172.546E+03    -54.4579E-03     108.843E-03    -54.3849E-03     9.66149E-03    -54.4036E-03     108.159E-03    -54.3211E-03     9.63057E-03
             293     1.70480E-03     61.5538E-03    -50.5489E+06    -163.915E+06    -46.0368E+06    -181.804E+03    -54.4862E-03     108.914E-03    -54.4279E-03     17.7752E-03    -54.4390E-03     108.239E-03    -54.3471E-03     17.7097E-03
             294     2.55719E-03     61.5759E-03    -48.2369E+06    -159.428E+06    -39.1449E+06    -500.786E+03    -54.5633E-03     109.013E-03    -54.4501E-03     26.2259E-03    -54.5267E-03     108.353E-03    -54.3447E-03     26.1217E-03
             295     3.40958E-03     61.6064E-03    -45.3118E+06    -154.460E+06    -31.4839E+06    -247.639E+03    -54.6537E-03     109.123E-03    -54.4691E-03     34.6376E-03    -54.6297E-03     108.481E-03    -54.3368E-03     34.4971E-03
             296     4.26207E-03     61.6454E-03    -41.9454E+06    -145.446E+06    -23.4149E+06     183.752E+03    -54.7777E-03     109.257E-03    -54.4794E-03     42.8852E-03    -54.7743E-03     108.656E-03    -54.3248E-03     42.7050E-03
             297     5.11454E-03     61.6924E-03    -38.2398E+06    -139.549E+06    -15.6399E+06     163.684E+03    -54.9457E-03     109.438E-03    -54.4918E-03     50.9154E-03    -54.9614E-03     108.867E-03    -54.3122E-03     50.6818E-03
             298     5.96701E-03     61.7474E-03    -34.5053E+06    -133.106E+06    -10.0747E+06     242.845E+03    -55.1404E-03     109.633E-03    -54.4930E-03     58.7477E-03    -55.1791E-03     109.106E-03    -54.3003E-03     58.4536E-03
             299     6.81954E-03     61.8102E-03    -31.0981E+06    -119.339E+06    -6.59052E+06     501.804E+03    -55.3382E-03     109.812E-03    -54.4737E-03     66.4437E-03    -55.4174E-03     109.376E-03    -54.2885E-03     66.0821E-03
             300     7.67208E-03     61.8807E-03    -28.3212E+06    -112.772E+06    -3.93655E+06     534.324E+03    -55.5633E-03     110.025E-03    -54.4618E-03     73.8409E-03    -55.6860E-03     109.658E-03    -54.2769E-03     73.3963E-03
             301     8.52464E-03     61.9582E-03    -25.9833E+06    -104.581E+06    -2.97150E+06     468.106E+03    -55.8101E-03     110.251E-03    -54.4410E-03     81.1452E-03    -55.9931E-03     109.979E-03    -54.2665E-03     80.6028E-03
             302     9.37716E-03     62.0432E-03    -23.8743E+06    -89.9027E+06    -2.93241E+06     349.157E+03    -56.0590E-03     110.467E-03    -54.4075E-03     88.7570E-03    -56.3330E-03     110.345E-03    -54.2572E-03     88.1008E-03
             303     10.2297E-03     62.1360E-03    -22.0801E+06    -76.0751E+06    -3.06299E+06     438.737E+03    -56.3402E-03     110.716E-03    -54.3762E-03     96.5279E-03    -56.7366E-03     110.773E-03    -54.2492E-03     95.7394E-03
             304     11.0823E-03     62.2364E-03    -20.8888E+06    -57.0439E+06    -3.69308E+06     608.239E+03    -56.6020E-03     110.940E-03    -54.3379E-03     104.307E-03    -57.1772E-03     111.249E-03    -54.2434E-03     103.362E-03
             305     11.9347E-03     62.3447E-03    -19.7320E+06    -29.0885E+06    -4.00120E+06     1.07450E+06    -56.8066E-03     111.093E-03    -54.2865E-03     113.954E-03    -57.6610E-03     111.786E-03    -54.2357E-03     112.825E-03
             306     12.7874E-03     62.4644E-03    -18.6083E+06     14.7462E+06    -1.86666E+06     937.934E+03    -57.1607E-03     111.375E-03    -54.2147E-03     129.987E-03    -58.5270E-03     112.733E-03    -54.2185E-03     128.615E-03
             307     13.6408E-03     62.6045E-03    -17.9891E+06     71.3796E+06     9.49054E+06    -563.704E+03    -58.4096E-03     112.578E-03    -54.1680E-03     158.009E-03    -60.8682E-03     115.198E-03    -54.1979E-03     156.294E-03
             308     14.4923E-03     62.7817E-03    -15.7551E+06     115.064E+06     36.5874E+06    -371.621E+03    -62.1545E-03     116.381E-03    -54.2266E-03     216.994E-03    -67.6639E-03     122.137E-03    -54.1876E-03     214.960E-03
             309     15.3423E-03     63.0436E-03    -10.0969E+06     143.115E+06     80.2937E+06     1.21837E+06    -64.7353E-03     119.105E-03    -54.3694E-03     279.905E-03    -75.5531E-03     130.162E-03    -54.1608E-03     279.435E-03
             310     16.1976E-03     63.3473E-03    -5.06307E+06     150.415E+06     102.632E+06     888.294E+03    -58.6115E-03     113.021E-03    -54.4090E-03     185.904E-03    -66.7519E-03     121.379E-03    -54.1066E-03     187.666E-03
             311     852.446E-06     62.5967E-03    -52.3634E+06    -167.202E+06    -51.0538E+06     179.460E+03    -54.4519E-03     108.820E-03    -54.3683E-03     9.65935E-03    -54.3985E-03     108.136E-03    -54.3052E-03     9.62873E-03
             312     1.70479E-03     62.6105E-03    -50.5202E+06    -163.603E+06    -45.4571E+06     195.160E+03    -54.4872E-03     108.909E-03    -54.4222E-03     17.8005E-03    -54.4412E-03     108.235E-03    -54.3390E-03     17.7399E-03
             313     2.55718E-03     62.6325E-03    -48.2186E+06    -159.244E+06    -38.6280E+06     193.765E+03    -54.5477E-03     108.993E-03    -54.4455E-03     26.2158E-03    -54.5121E-03     108.333E-03    -54.3378E-03     26.1205E-03
             314     3.40965E-03     62.6631E-03    -45.4763E+06    -154.768E+06    -31.7522E+06     182.028E+03    -54.6452E-03     109.105E-03    -54.4603E-03     34.6273E-03    -54.6211E-03     108.463E-03    -54.3287E-03     34.4924E-03
             315     4.26209E-03     62.7019E-03    -41.9166E+06    -145.543E+06    -23.5611E+06     47.7535E+03    -54.7749E-03     109.246E-03    -54.4710E-03     42.8933E-03    -54.7710E-03     108.645E-03    -54.3170E-03     42.7115E-03
             316     5.11458E-03     62.7491E-03    -37.9861E+06    -139.575E+06    -15.2867E+06     104.239E+03    -54.9568E-03     109.444E-03    -54.4872E-03     50.9265E-03    -54.9716E-03     108.873E-03    -54.3062E-03     50.6923E-03
             317     5.96704E-03     62.8040E-03    -34.3717E+06    -133.381E+06    -9.93795E+06     215.687E+03    -55.1524E-03     109.643E-03    -54.4902E-03     58.7629E-03    -55.1903E-03     109.114E-03    -54.2967E-03     58.4684E-03
             318     6.81955E-03     62.8668E-03    -31.0313E+06    -119.628E+06    -6.65291E+06     325.623E+03    -55.3381E-03     109.809E-03    -54.4712E-03     66.4660E-03    -55.4165E-03     109.372E-03    -54.2860E-03     66.1021E-03
             319     7.67208E-03     62.9372E-03    -27.9877E+06    -113.022E+06    -3.86223E+06     625.248E+03    -55.5701E-03     110.030E-03    -54.4599E-03     73.8458E-03    -55.6909E-03     109.661E-03    -54.2748E-03     73.4021E-03
             320     8.52461E-03     63.0148E-03    -25.4484E+06    -104.345E+06    -2.69529E+06     593.839E+03    -55.8158E-03     110.255E-03    -54.4397E-03     81.1710E-03    -55.9969E-03     109.984E-03    -54.2650E-03     80.6304E-03
             321     9.37715E-03     63.0998E-03    -23.5136E+06    -89.9469E+06    -2.91331E+06     484.368E+03    -56.0641E-03     110.470E-03    -54.4060E-03     88.7764E-03    -56.3362E-03     110.348E-03    -54.2560E-03     88.1221E-03
             322     10.2297E-03     63.1925E-03    -22.0897E+06    -76.3410E+06    -3.27078E+06     584.333E+03    -56.3434E-03     110.718E-03    -54.3745E-03     96.6205E-03    -56.7391E-03     110.774E-03    -54.2481E-03     95.8345E-03
             323     11.0822E-03     63.2933E-03    -20.7579E+06    -57.4394E+06    -3.80603E+06     929.838E+03    -56.5865E-03     110.922E-03    -54.3357E-03     104.432E-03    -57.1596E-03     111.229E-03    -54.2413E-03     103.493E-03
             324     11.9348E-03     63.4013E-03    -19.4472E+06    -29.4335E+06    -4.16892E+06     807.495E+03    -56.8038E-03     111.086E-03    -54.2826E-03     113.990E-03    -57.6551E-03     111.776E-03    -54.2326E-03     112.859E-03
             325     12.7877E-03     63.5209E-03    -18.0413E+06     15.3782E+06    -1.51606E+06     874.741E+03    -57.3616E-03     111.579E-03    -54.2178E-03     130.061E-03    -58.7270E-03     112.940E-03    -54.2215E-03     128.683E-03
             326     13.6396E-03     63.6613E-03    -17.0696E+06     72.0555E+06     9.72439E+06     1.35174E+06    -58.4985E-03     112.675E-03    -54.1762E-03     158.884E-03    -60.9634E-03     115.307E-03    -54.2073E-03     157.188E-03
             327     14.4927E-03     63.8394E-03    -16.2063E+06     115.255E+06     37.9350E+06    -127.158E+03    -61.4582E-03     115.681E-03    -54.2223E-03     217.428E-03    -66.9641E-03     121.428E-03    -54.1763E-03     215.455E-03
             328     15.3513E-03     64.0987E-03    -12.3257E+06     141.821E+06     80.1989E+06    -1.10853E+06    -64.0639E-03     118.407E-03    -54.3430E-03     274.939E-03    -74.6995E-03     129.269E-03    -54.1298E-03     274.472E-03
             329     16.2079E-03     64.4050E-03    -5.02859E+06     149.820E+06     101.975E+06     149.645E+03    -58.2235E-03     112.608E-03    -54.3843E-03     178.950E-03    -66.1256E-03     120.728E-03    -54.0844E-03     180.595E-03
             330     852.403E-06     63.6534E-03    -52.5288E+06    -167.322E+06    -51.3287E+06     20.2685E+03    -54.4532E-03     108.833E-03    -54.3794E-03     9.70973E-03    -54.4000E-03     108.148E-03    -54.3173E-03     9.67679E-03
             331     1.70480E-03     63.6670E-03    -50.6845E+06    -164.044E+06    -46.0770E+06     284.161E+03    -54.4581E-03     108.878E-03    -54.4195E-03     17.7741E-03    -54.4114E-03     108.202E-03    -54.3386E-03     17.7145E-03
             332     2.55725E-03     63.6891E-03    -47.9663E+06    -159.593E+06    -39.1940E+06     651.791E+03    -54.5391E-03     108.974E-03    -54.4346E-03     26.2109E-03    -54.5009E-03     108.312E-03    -54.3296E-03     26.1216E-03
             333     3.40964E-03     63.7195E-03    -44.7832E+06    -154.392E+06    -31.4598E+06     403.948E+03    -54.6512E-03     109.104E-03    -54.4528E-03     34.6009E-03    -54.6246E-03     108.462E-03    -54.3213E-03     34.4689E-03
             334     4.26212E-03     63.7585E-03    -41.3762E+06    -145.337E+06    -23.0942E+06    -6.40933E+03    -54.7711E-03     109.237E-03    -54.4664E-03     42.8967E-03    -54.7654E-03     108.636E-03    -54.3111E-03     42.7143E-03
             335     5.11459E-03     63.8056E-03    -37.8661E+06    -140.040E+06    -15.5671E+06     150.138E+03    -54.9452E-03     109.425E-03    -54.4798E-03     50.9524E-03    -54.9584E-03     108.852E-03    -54.2997E-03     50.7189E-03
             336     5.96709E-03     63.8607E-03    -34.3936E+06    -133.364E+06    -10.1549E+06     339.964E+03    -55.1467E-03     109.629E-03    -54.4820E-03     58.7881E-03    -55.1843E-03     109.100E-03    -54.2896E-03     58.4954E-03
             337     6.81958E-03     63.9234E-03    -31.2991E+06    -119.823E+06    -7.06749E+06     286.254E+03    -55.3369E-03     109.800E-03    -54.4630E-03     66.5020E-03    -55.4158E-03     109.363E-03    -54.2792E-03     66.1379E-03
             338     7.67214E-03     63.9938E-03    -28.3231E+06    -113.325E+06    -4.51010E+06     264.767E+03    -55.5718E-03     110.023E-03    -54.4514E-03     73.9351E-03    -55.6928E-03     109.654E-03    -54.2685E-03     73.4872E-03
             339     8.52464E-03     64.0714E-03    -25.5975E+06    -104.458E+06    -2.94544E+06     472.144E+03    -55.8127E-03     110.245E-03    -54.4328E-03     81.2489E-03    -55.9939E-03     109.974E-03    -54.2590E-03     80.7071E-03
             340     9.37725E-03     64.1564E-03    -23.5383E+06    -90.1424E+06    -2.78209E+06     770.957E+03    -56.0584E-03     110.459E-03    -54.4007E-03     88.8776E-03    -56.3305E-03     110.336E-03    -54.2498E-03     88.2277E-03
             341     10.2297E-03     64.2492E-03    -21.9973E+06    -76.4660E+06    -3.17034E+06     886.002E+03    -56.2986E-03     110.665E-03    -54.3667E-03     96.7555E-03    -56.6936E-03     110.720E-03    -54.2398E-03     95.9746E-03
             342     11.0824E-03     64.3498E-03    -20.5285E+06    -57.5952E+06    -3.61869E+06     725.331E+03    -56.4933E-03     110.816E-03    -54.3228E-03     104.638E-03    -57.0637E-03     111.120E-03    -54.2276E-03     103.701E-03
             343     11.9350E-03     64.4580E-03    -19.2151E+06    -29.1630E+06    -3.82228E+06     742.567E+03    -56.8263E-03     111.093E-03    -54.2670E-03     114.288E-03    -57.6777E-03     111.784E-03    -54.2159E-03     113.158E-03
             344     12.7874E-03     64.5775E-03    -18.3525E+06     14.7691E+06    -1.68191E+06     868.313E+03    -57.2651E-03     111.464E-03    -54.1986E-03     130.575E-03    -58.6311E-03     112.822E-03    -54.2018E-03     129.201E-03
             345     13.6405E-03     64.7186E-03    -16.3284E+06     71.7967E+06     9.27648E+06     1.19262E+06    -58.1611E-03     112.300E-03    -54.1385E-03     159.431E-03    -60.6112E-03     114.920E-03    -54.1725E-03     157.754E-03
             346     14.4944E-03     64.8945E-03    -13.3397E+06     117.921E+06     40.1679E+06     2.16841E+06    -62.3354E-03     116.540E-03    -54.2049E-03     217.623E-03    -67.8571E-03     122.317E-03    -54.1557E-03     215.627E-03
             347     15.3411E-03     65.1550E-03    -11.8569E+06     143.324E+06     81.8582E+06     1.17792E+06    -65.9301E-03     120.334E-03    -54.4035E-03     275.791E-03    -76.7256E-03     131.357E-03    -54.1848E-03     275.239E-03
             348     16.1851E-03     65.4571E-03    -6.62203E+06     148.778E+06     100.914E+06    -1.30521E+06    -57.5151E-03     111.982E-03    -54.4671E-03     179.994E-03    -65.5539E-03     120.233E-03    -54.1687E-03     181.664E-03
             349     852.312E-06     64.7099E-03    -52.2794E+06    -167.317E+06    -51.3612E+06    -103.676E+03    -54.4809E-03     108.854E-03    -54.3727E-03     9.67146E-03    -54.4265E-03     108.169E-03    -54.3111E-03     9.63680E-03
             350     1.70481E-03     64.7235E-03    -50.7629E+06    -164.638E+06    -47.0736E+06     135.363E+03    -54.4366E-03     108.856E-03    -54.4190E-03     17.7672E-03    -54.3880E-03     108.179E-03    -54.3421E-03     17.7059E-03
             351     2.55722E-03     64.7456E-03    -48.1556E+06    -159.978E+06    -39.8967E+06     306.900E+03    -54.5265E-03     108.954E-03    -54.4272E-03     26.2306E-03    -54.4876E-03     108.292E-03    -54.3249E-03     26.1370E-03
             352     3.40969E-03     64.7762E-03    -44.7524E+06    -154.065E+06    -31.0148E+06     268.921E+03    -54.6408E-03     109.089E-03    -54.4480E-03     34.6119E-03    -54.6152E-03     108.447E-03    -54.3148E-03     34.4783E-03
             353     4.26212E-03     64.8150E-03    -41.2996E+06    -145.295E+06    -23.0059E+06     296.841E+03    -54.7588E-03     109.218E-03    -54.4592E-03     42.9080E-03    -54.7530E-03     108.616E-03    -54.3036E-03     42.7295E-03
             354     5.11465E-03     64.8622E-03    -37.8439E+06    -140.344E+06    -15.9139E+06     332.712E+03    -54.9254E-03     109.395E-03    -54.4694E-03     50.9878E-03    -54.9375E-03     108.821E-03    -54.2906E-03     50.7569E-03
             355     5.96715E-03     64.9171E-03    -34.3442E+06    -133.486E+06    -10.2792E+06     367.304E+03    -55.1257E-03     109.596E-03    -54.4705E-03     58.8258E-03    -55.1627E-03     109.067E-03    -54.2786E-03     58.5339E-03
             356     6.81970E-03     64.9800E-03    -31.0162E+06    -119.744E+06    -6.77719E+06     350.938E+03    -55.3279E-03     109.780E-03    -54.4521E-03     66.5315E-03    -55.4058E-03     109.342E-03    -54.2674E-03     66.1686E-03
             357     7.67222E-03     65.0503E-03    -28.2936E+06    -113.316E+06    -4.26604E+06     230.836E+03    -55.5546E-03     109.995E-03    -54.4404E-03     73.9801E-03    -55.6757E-03     109.626E-03    -54.2564E-03     73.5323E-03
             358     8.52481E-03     65.1281E-03    -26.0235E+06    -104.965E+06    -3.00466E+06     406.688E+03    -55.7880E-03     110.209E-03    -54.4207E-03     81.3155E-03    -55.9704E-03     109.935E-03    -54.2458E-03     80.7736E-03
             359     9.37730E-03     65.2129E-03    -23.9139E+06    -90.5684E+06    -2.73984E+06     757.903E+03    -56.0088E-03     110.395E-03    -54.3865E-03     88.9815E-03    -56.2821E-03     110.270E-03    -54.2342E-03     88.3324E-03
             360     10.2300E-03     65.3059E-03    -21.9627E+06    -76.5104E+06    -2.92361E+06     879.895E+03    -56.2218E-03     110.570E-03    -54.3481E-03     96.8573E-03    -56.6165E-03     110.624E-03    -54.2199E-03     96.0782E-03
             361     11.0827E-03     65.4062E-03    -20.5436E+06    -57.3996E+06    -3.40409E+06     775.513E+03    -56.3918E-03     110.690E-03    -54.2980E-03     104.716E-03    -56.9625E-03     110.994E-03    -54.2020E-03     103.781E-03
             362     11.9355E-03     65.5146E-03    -19.4598E+06    -29.4180E+06    -3.84441E+06     787.609E+03    -56.6947E-03     110.929E-03    -54.2345E-03     114.691E-03    -57.5462E-03     111.618E-03    -54.1829E-03     113.566E-03
             363     12.7882E-03     65.6346E-03    -18.2495E+06     14.5224E+06    -1.63198E+06     838.653E+03    -57.1411E-03     111.300E-03    -54.1594E-03     130.379E-03    -58.5074E-03     112.658E-03    -54.1622E-03     129.005E-03
             364     13.6418E-03     65.7735E-03    -17.6103E+06     70.9856E+06     8.69129E+06     1.10246E+06    -58.2095E-03     112.311E-03    -54.1011E-03     158.785E-03    -60.6590E-03     114.924E-03    -54.1350E-03     157.100E-03
             365     14.4939E-03     65.9525E-03    -15.5044E+06     115.363E+06     34.6468E+06     1.41959E+06    -61.6560E-03     115.779E-03    -54.1228E-03     220.351E-03    -67.2198E-03     121.597E-03    -54.0943E-03     218.381E-03
             366     15.3486E-03     66.2180E-03    -8.40676E+06     147.233E+06     81.9781E+06     1.34979E+06    -64.4021E-03     118.644E-03    -54.2424E-03     282.281E-03    -75.3878E-03     129.885E-03    -54.0338E-03     281.926E-03
             367     16.2111E-03     66.5190E-03    -5.07903E+06     151.910E+06     103.880E+06     331.019E+03    -59.8195E-03     114.134E-03    -54.3149E-03     183.106E-03    -68.0050E-03     122.540E-03    -54.0084E-03     184.836E-03
             368     852.430E-06     65.7665E-03    -52.3052E+06    -167.410E+06    -51.1974E+06     50.1210E+03    -54.4437E-03     108.816E-03    -54.3724E-03     9.63779E-03    -54.3895E-03     108.131E-03    -54.3098E-03     9.60494E-03
             369     1.70478E-03     65.7800E-03    -50.9267E+06    -164.745E+06    -47.1525E+06     28.0229E+03    -54.4535E-03     108.861E-03    -54.4072E-03     17.7858E-03    -54.4054E-03     108.184E-03    -54.3303E-03     17.7232E-03
             370     2.55725E-03     65.8021E-03    -48.4310E+06    -160.018E+06    -39.9573E+06    -107.193E+03    -54.5093E-03     108.930E-03    -54.4211E-03     26.2658E-03    -54.4717E-03     108.269E-03    -54.3187E-03     26.1670E-03
             371     3.40970E-03     65.8326E-03    -45.1782E+06    -154.407E+06    -31.3650E+06     141.211E+03    -54.6134E-03     109.051E-03    -54.4373E-03     34.6412E-03    -54.5889E-03     108.409E-03    -54.3048E-03     34.5062E-03
             372     4.26221E-03     65.8716E-03    -41.6031E+06    -145.557E+06    -23.1805E+06     479.066E+03    -54.7500E-03     109.197E-03    -54.4474E-03     42.9164E-03    -54.7450E-03     108.595E-03    -54.2919E-03     42.7404E-03
             373     5.11470E-03     65.9186E-03    -37.9498E+06    -140.235E+06    -15.6184E+06     420.182E+03    -54.9142E-03     109.374E-03    -54.4596E-03     50.9858E-03    -54.9274E-03     108.800E-03    -54.2793E-03     50.7563E-03
             374     5.96725E-03     65.9738E-03    -34.3076E+06    -133.620E+06    -9.92875E+06     289.276E+03    -55.1036E-03     109.564E-03    -54.4605E-03     58.8272E-03    -55.1406E-03     109.034E-03    -54.2666E-03     58.5346E-03
             375     6.81977E-03     66.0364E-03    -31.0685E+06    -119.810E+06    -6.36065E+06     369.557E+03    -55.3033E-03     109.744E-03    -54.4410E-03     66.5343E-03    -55.3819E-03     109.306E-03    -54.2541E-03     66.1719E-03
             376     7.67234E-03     66.1070E-03    -28.2989E+06    -113.374E+06    -3.82339E+06     529.898E+03    -55.5254E-03     109.953E-03    -54.4280E-03     73.9711E-03    -55.6470E-03     109.583E-03    -54.2417E-03     73.5274E-03
             377     8.52490E-03     66.1844E-03    -25.9243E+06    -105.295E+06    -2.88780E+06     584.890E+03    -55.7409E-03     110.145E-03    -54.4046E-03     81.3245E-03    -55.9224E-03     109.870E-03    -54.2287E-03     80.7855E-03
             378     9.37762E-03     66.2696E-03    -23.8539E+06    -90.8741E+06    -2.78093E+06     654.810E+03    -55.9642E-03     110.331E-03    -54.3670E-03     88.9368E-03    -56.2366E-03     110.204E-03    -54.2146E-03     88.2868E-03
             379     10.2303E-03     66.3621E-03    -22.0922E+06    -76.6297E+06    -2.89296E+06     712.147E+03    -56.1910E-03     110.519E-03    -54.3278E-03     96.7110E-03    -56.5860E-03     110.572E-03    -54.1991E-03     95.9298E-03
             380     11.0831E-03     66.4628E-03    -20.6390E+06    -57.5575E+06    -3.31085E+06     942.174E+03    -56.3785E-03     110.657E-03    -54.2789E-03     104.419E-03    -56.9499E-03     110.961E-03    -54.1821E-03     103.485E-03
             381     11.9358E-03     66.5706E-03    -19.5576E+06    -29.6117E+06    -3.77298E+06     906.524E+03    -56.5526E-03     110.766E-03    -54.2131E-03     114.207E-03    -57.4029E-03     111.452E-03    -54.1607E-03     113.085E-03
             382     12.7890E-03     66.6912E-03    -19.0417E+06     14.4740E+06    -1.61173E+06     1.33474E+06    -57.1642E-03     111.302E-03    -54.1378E-03     130.003E-03    -58.5324E-03     112.659E-03    -54.1392E-03     128.636E-03
             383     13.6406E-03     66.8303E-03    -18.2016E+06     70.4829E+06     7.08069E+06     1.98333E+06    -58.2067E-03     112.283E-03    -54.0759E-03     158.503E-03    -60.6704E-03     114.911E-03    -54.1163E-03     156.822E-03
             384     14.4946E-03     67.0081E-03    -14.7578E+06     115.931E+06     35.9384E+06     150.283E+03    -60.3978E-03     114.482E-03    -54.0843E-03     217.544E-03    -65.8725E-03     120.212E-03    -54.0513E-03     215.637E-03
             385     15.3530E-03     67.2680E-03    -9.89301E+06     146.291E+06     82.5576E+06    -1.19072E+06    -63.7784E-03     117.965E-03    -54.1863E-03     275.596E-03    -74.4972E-03     128.928E-03    -53.9713E-03     275.170E-03
             386     16.1996E-03     67.5756E-03    -5.06496E+06     151.270E+06     103.020E+06     530.761E+03    -60.2783E-03     114.561E-03    -54.2823E-03     175.988E-03    -68.2279E-03     122.731E-03    -53.9792E-03     177.515E-03
             387     852.437E-06     66.8230E-03    -52.8370E+06    -167.840E+06    -51.6210E+06     243.897E+03    -54.4045E-03     108.762E-03    -54.3575E-03     9.67917E-03    -54.3517E-03     108.076E-03    -54.2956E-03     9.64896E-03
             388     1.70486E-03     66.8366E-03    -51.1447E+06    -164.461E+06    -46.4147E+06     136.544E+03    -54.4546E-03     108.845E-03    -54.3907E-03     17.7668E-03    -54.4091E-03     108.169E-03    -54.3102E-03     17.7056E-03
             389     2.55726E-03     66.8586E-03    -48.7475E+06    -159.952E+06    -39.4787E+06     7.83442E+03    -54.5002E-03     108.911E-03    -54.4108E-03     26.2523E-03    -54.4650E-03     108.249E-03    -54.3056E-03     26.1551E-03
             390     3.40978E-03     66.8892E-03    -45.7366E+06    -154.982E+06    -31.8725E+06     181.166E+03    -54.6020E-03     109.027E-03    -54.4247E-03     34.6494E-03    -54.5787E-03     108.383E-03    -54.2930E-03     34.5151E-03
             391     4.26225E-03     66.9280E-03    -42.0969E+06    -145.840E+06    -23.3473E+06     378.394E+03    -54.7440E-03     109.181E-03    -54.4367E-03     42.9073E-03    -54.7408E-03     108.578E-03    -54.2810E-03     42.7301E-03
             392     5.11476E-03     66.9752E-03    -38.1548E+06    -140.076E+06    -15.1183E+06     357.495E+03    -54.9087E-03     109.361E-03    -54.4525E-03     50.9515E-03    -54.9239E-03     108.788E-03    -54.2697E-03     50.7211E-03
             393     5.96727E-03     67.0301E-03    -34.5630E+06    -133.752E+06    -9.81169E+06     375.129E+03    -55.0877E-03     109.540E-03    -54.4523E-03     58.8017E-03    -55.1260E-03     109.009E-03    -54.2573E-03     58.5101E-03
             394     6.81986E-03     67.0931E-03    -31.4030E+06    -120.043E+06    -6.46559E+06     506.971E+03    -55.2732E-03     109.704E-03    -54.4306E-03     66.5070E-03    -55.3530E-03     109.265E-03    -54.2433E-03     66.1465E-03
             395     7.67247E-03     67.1633E-03    -28.5409E+06    -113.574E+06    -3.92378E+06     588.990E+03    -55.5041E-03     109.920E-03    -54.4160E-03     73.9106E-03    -55.6266E-03     109.549E-03    -54.2295E-03     73.4676E-03
             396     8.52509E-03     67.2410E-03    -26.0410E+06    -105.425E+06    -2.94997E+06     673.392E+03    -55.7362E-03     110.129E-03    -54.3929E-03     81.1846E-03    -55.9181E-03     109.853E-03    -54.2170E-03     80.6461E-03
             397     9.37770E-03     67.3258E-03    -23.9767E+06    -90.9900E+06    -2.89119E+06     669.913E+03    -55.9796E-03     110.337E-03    -54.3573E-03     88.7515E-03    -56.2523E-03     110.210E-03    -54.2051E-03     88.1008E-03
             398     10.2303E-03     67.4188E-03    -22.2600E+06    -76.8092E+06    -3.01006E+06     741.595E+03    -56.2283E-03     110.551E-03    -54.3222E-03     96.4375E-03    -56.6240E-03     110.603E-03    -54.1936E-03     95.6550E-03
             399     11.0830E-03     67.5189E-03    -20.7661E+06    -57.8471E+06    -3.41791E+06     802.375E+03    -56.4433E-03     110.722E-03    -54.2790E-03     104.156E-03    -57.0149E-03     111.025E-03    -54.1821E-03     103.219E-03
             400     11.9355E-03     67.6274E-03    -19.5690E+06    -29.8754E+06    -3.73669E+06     1.21511E+06    -56.6915E-03     110.914E-03    -54.2225E-03     113.739E-03    -57.5428E-03     111.601E-03    -54.1695E-03     112.616E-03
             401     12.7883E-03     67.7465E-03    -18.1405E+06     13.0953E+06    -1.71874E+06     1.68291E+06    -56.9968E-03     111.144E-03    -54.1469E-03     129.666E-03    -58.3502E-03     112.484E-03    -54.1482E-03     128.312E-03
             402     13.6421E-03     67.8882E-03    -15.0605E+06     71.7434E+06     10.3566E+06     895.200E+03    -58.1356E-03     112.224E-03    -54.0882E-03     157.830E-03    -60.5756E-03     114.835E-03    -54.1186E-03     156.149E-03
             403     14.4951E-03     68.0622E-03    -12.6187E+06     118.693E+06     41.3261E+06     1.01752E+06    -62.4125E-03     116.585E-03    -54.1724E-03     214.839E-03    -67.8909E-03     122.320E-03    -54.1195E-03     212.815E-03
             404     15.3435E-03     68.3232E-03    -11.9587E+06     145.398E+06     82.8879E+06     1.28482E+06    -65.4869E-03     119.855E-03    -54.3678E-03     275.847E-03    -76.2485E-03     130.850E-03    -54.1468E-03     275.298E-03
             405     16.1969E-03     68.6368E-03    -6.54540E+06     150.828E+06     101.969E+06    -273.621E+03    -58.2063E-03     112.634E-03    -54.4273E-03     180.772E-03    -66.2254E-03     120.869E-03    -54.1266E-03     182.402E-03
             406     852.447E-06     67.8795E-03    -53.1147E+06    -168.091E+06    -52.0627E+06     42.5528E+03    -54.3752E-03     108.742E-03    -54.3668E-03     9.70536E-03    -54.3228E-03     108.056E-03    -54.3064E-03     9.67266E-03
             407     1.70485E-03     67.8930E-03    -51.3443E+06    -164.685E+06    -46.6265E+06     253.748E+03    -54.4308E-03     108.809E-03    -54.3784E-03     17.7523E-03    -54.3856E-03     108.132E-03    -54.2983E-03     17.6925E-03
             408     2.55734E-03     67.9151E-03    -48.8123E+06    -160.089E+06    -39.4246E+06     484.240E+03    -54.5098E-03     108.910E-03    -54.4002E-03     26.2057E-03    -54.4748E-03     108.248E-03    -54.2945E-03     26.1144E-03
             409     3.40977E-03     67.9456E-03    -45.7681E+06    -155.051E+06    -31.8319E+06     353.974E+03    -54.6139E-03     109.034E-03    -54.4197E-03     34.6073E-03    -54.5908E-03     108.390E-03    -54.2877E-03     34.4749E-03
             410     4.26227E-03     67.9846E-03    -42.1356E+06    -145.942E+06    -23.4805E+06     174.685E+03    -54.7339E-03     109.167E-03    -54.4327E-03     42.8781E-03    -54.7305E-03     108.564E-03    -54.2773E-03     42.6982E-03
             411     5.11479E-03     68.0316E-03    -38.3139E+06    -140.300E+06    -15.4295E+06     324.689E+03    -54.8998E-03     109.347E-03    -54.4471E-03     50.9097E-03    -54.9150E-03     108.773E-03    -54.2652E-03     50.6786E-03
             412     5.96732E-03     68.0867E-03    -34.6564E+06    -133.943E+06    -9.93429E+06     520.369E+03    -55.0849E-03     109.533E-03    -54.4476E-03     58.7394E-03    -55.1233E-03     109.001E-03    -54.2528E-03     58.4494E-03
             413     6.81990E-03     68.1494E-03    -31.3189E+06    -120.170E+06    -6.60538E+06     531.663E+03    -55.2810E-03     109.708E-03    -54.4266E-03     66.4316E-03    -55.3600E-03     109.268E-03    -54.2399E-03     66.0710E-03
             414     7.67249E-03     68.2199E-03    -28.4250E+06    -113.829E+06    -3.94559E+06     650.094E+03    -55.5245E-03     109.939E-03    -54.4150E-03     73.7793E-03    -55.6461E-03     109.567E-03    -54.2284E-03     73.3364E-03
             415     8.52503E-03     68.2974E-03    -26.0277E+06    -105.572E+06    -2.86862E+06     793.913E+03    -55.7753E-03     110.171E-03    -54.3960E-03     81.0258E-03    -55.9571E-03     109.894E-03    -54.2195E-03     80.4880E-03
             416     9.37760E-03     68.3825E-03    -24.0908E+06    -91.0120E+06    -2.95289E+06     809.341E+03    -56.0138E-03     110.377E-03    -54.3635E-03     88.6082E-03    -56.2871E-03     110.250E-03    -54.2113E-03     87.9584E-03
             417     10.2302E-03     68.4751E-03    -22.4580E+06    -77.1016E+06    -3.25570E+06     841.505E+03    -56.2576E-03     110.588E-03    -54.3307E-03     96.3381E-03    -56.6532E-03     110.640E-03    -54.2026E-03     95.5568E-03
             418     11.0828E-03     68.5756E-03    -21.2166E+06    -57.9542E+06    -3.70065E+06     905.356E+03    -56.4992E-03     110.789E-03    -54.2902E-03     104.124E-03    -57.0731E-03     111.093E-03    -54.1940E-03     103.187E-03
             419     11.9356E-03     68.6836E-03    -19.7658E+06    -30.4222E+06    -4.06728E+06     980.511E+03    -56.8156E-03     111.055E-03    -54.2391E-03     113.866E-03    -57.6662E-03     111.739E-03    -54.1867E-03     112.739E-03
             420     12.7878E-03     68.8038E-03    -17.7804E+06     13.2698E+06    -1.57012E+06     238.390E+03    -57.2545E-03     111.431E-03    -54.1765E-03     129.155E-03    -58.6097E-03     112.775E-03    -54.1778E-03     127.772E-03
             421     13.6410E-03     68.9418E-03    -16.4684E+06     71.3739E+06     10.7736E+06    -89.2335E+03    -58.5574E-03     112.702E-03    -54.1442E-03     157.347E-03    -60.9970E-03     115.305E-03    -54.1699E-03     155.633E-03
             422     14.4925E-03     69.1226E-03    -15.0362E+06     116.417E+06     38.2138E+06     1.60521E+06    -62.9587E-03     117.189E-03    -54.2304E-03     217.952E-03    -68.5057E-03     122.985E-03    -54.1863E-03     215.898E-03
             423     15.3430E-03     69.3840E-03    -10.3606E+06     147.717E+06     82.2780E+06     2.34109E+06    -64.8066E-03     119.209E-03    -54.4029E-03     277.743E-03    -75.6093E-03     130.261E-03    -54.1906E-03     277.309E-03
             424     16.2017E-03     69.6839E-03    -5.26376E+06     153.361E+06     103.907E+06     739.868E+03    -57.7819E-03     112.223E-03    -54.4409E-03     182.109E-03    -65.8256E-03     120.491E-03    -54.1361E-03     183.913E-03
             425     852.404E-06     68.9359E-03    -53.3566E+06    -168.185E+06    -52.0227E+06     97.9602E+03    -54.3587E-03     108.762E-03    -54.4030E-03     9.69401E-03    -54.3074E-03     108.075E-03    -54.3418E-03     9.66191E-03
             426     1.70490E-03     68.9495E-03    -51.7119E+06    -165.251E+06    -47.3029E+06     262.442E+03    -54.4207E-03     108.803E-03    -54.3825E-03     17.7092E-03    -54.3756E-03     108.125E-03    -54.3044E-03     17.6496E-03
             427     2.55731E-03     68.9715E-03    -48.9164E+06    -160.476E+06    -40.0127E+06     472.565E+03    -54.5122E-03     108.912E-03    -54.4002E-03     26.1875E-03    -54.4763E-03     108.249E-03    -54.2966E-03     26.0959E-03
             428     3.40974E-03     69.0021E-03    -45.4539E+06    -154.772E+06    -31.5442E+06     395.534E+03    -54.6247E-03     109.048E-03    -54.4233E-03     34.5810E-03    -54.6009E-03     108.405E-03    -54.2907E-03     34.4489E-03
             429     4.26224E-03     69.0409E-03    -41.9698E+06    -145.954E+06    -23.5337E+06     238.680E+03    -54.7374E-03     109.174E-03    -54.4361E-03     42.8400E-03    -54.7332E-03     108.570E-03    -54.2813E-03     42.6607E-03
             430     5.11477E-03     69.0882E-03    -38.4038E+06    -140.738E+06    -16.1573E+06     370.425E+03    -54.8985E-03     109.346E-03    -54.4477E-03     50.8563E-03    -54.9125E-03     108.771E-03    -54.2687E-03     50.6257E-03
             431     5.96731E-03     69.1431E-03    -34.7730E+06    -134.059E+06    -10.3008E+06     469.679E+03    -55.1043E-03     109.555E-03    -54.4505E-03     58.6686E-03    -55.1426E-03     109.024E-03    -54.2572E-03     58.3775E-03
             432     6.81984E-03     69.2060E-03    -31.5020E+06    -120.329E+06    -6.75575E+06     539.539E+03    -55.3213E-03     109.755E-03    -54.4342E-03     66.3591E-03    -55.4009E-03     109.316E-03    -54.2478E-03     65.9979E-03
             433     7.67236E-03     69.2763E-03    -28.6523E+06    -114.179E+06    -4.16020E+06     701.526E+03    -55.5592E-03     109.985E-03    -54.4263E-03     73.7019E-03    -55.6811E-03     109.612E-03    -54.2400E-03     73.2592E-03
             434     8.52490E-03     69.3540E-03    -26.1350E+06    -105.822E+06    -2.99260E+06     871.268E+03    -55.8031E-03     110.213E-03    -54.4097E-03     80.9837E-03    -55.9850E-03     109.935E-03    -54.2333E-03     80.4464E-03
             435     9.37746E-03     69.4389E-03    -24.0566E+06    -91.1019E+06    -2.95079E+06     987.351E+03    -56.0353E-03     110.414E-03    -54.3786E-03     88.5384E-03    -56.3082E-03     110.287E-03    -54.2264E-03     87.8907E-03
             436     10.2300E-03     69.5317E-03    -22.5005E+06    -77.2358E+06    -3.27003E+06     1.01404E+06    -56.2880E-03     110.635E-03    -54.3470E-03     96.2785E-03    -56.6835E-03     110.686E-03    -54.2187E-03     95.4989E-03
             437     11.0827E-03     69.6320E-03    -20.9824E+06    -58.2046E+06    -3.68550E+06     1.06393E+06    -56.5269E-03     110.835E-03    -54.3077E-03     104.056E-03    -57.0990E-03     111.136E-03    -54.2113E-03     103.120E-03
             438     11.9351E-03     69.7405E-03    -19.9076E+06    -30.2167E+06    -4.16560E+06     662.355E+03    -56.7665E-03     111.021E-03    -54.2541E-03     113.824E-03    -57.6162E-03     111.704E-03    -54.2023E-03     112.694E-03
             439     12.7882E-03     69.8600E-03    -19.6891E+06     14.6384E+06    -1.97389E+06     417.022E+03    -57.5455E-03     111.742E-03    -54.1964E-03     129.840E-03    -58.9187E-03     113.103E-03    -54.1990E-03     128.449E-03
             440     13.6389E-03     70.0005E-03    -19.8644E+06     70.1339E+06     7.43757E+06     927.541E+03    -58.8766E-03     113.046E-03    -54.1692E-03     158.756E-03    -61.3528E-03     115.679E-03    -54.2049E-03     157.032E-03
             441     14.4928E-03     70.1773E-03    -17.0836E+06     113.960E+06     34.8362E+06     636.088E+03    -61.7037E-03     115.924E-03    -54.2205E-03     219.042E-03    -67.2210E-03     121.684E-03    -54.1868E-03     217.051E-03
             442     15.3496E-03     70.4431E-03    -11.3809E+06     147.475E+06     81.2689E+06    -138.986E+03    -64.6709E-03     119.036E-03    -54.3649E-03     275.815E-03    -75.4347E-03     130.047E-03    -54.1559E-03     275.348E-03
             443     16.1964E-03     70.7393E-03    -4.80398E+06     154.276E+06     104.292E+06     546.314E+03    -58.3363E-03     112.772E-03    -54.4359E-03     179.851E-03    -66.3951E-03     121.059E-03    -54.1312E-03     181.562E-03
             444     852.408E-06     69.9925E-03    -53.5536E+06    -168.560E+06    -52.3391E+06     217.337E+03    -54.4217E-03     108.804E-03    -54.3822E-03     9.67615E-03    -54.3704E-03     108.116E-03    -54.3218E-03     9.64539E-03
             445     1.70478E-03     70.0059E-03    -51.7484E+06    -165.461E+06    -47.6399E+06     209.052E+03    -54.4347E-03     108.836E-03    -54.4011E-03     17.6993E-03    -54.3890E-03     108.157E-03    -54.3243E-03     17.6389E-03
             446     2.55728E-03     70.0281E-03    -49.1137E+06    -160.674E+06    -40.3407E+06     118.571E+03    -54.5070E-03     108.921E-03    -54.4141E-03     26.1871E-03    -54.4713E-03     108.258E-03    -54.3116E-03     26.0910E-03
             447     3.40977E-03     70.0586E-03    -45.7624E+06    -154.931E+06    -31.6563E+06     266.312E+03    -54.6201E-03     109.054E-03    -54.4335E-03     34.5565E-03    -54.5973E-03     108.410E-03    -54.3008E-03     34.4227E-03
             448     4.26219E-03     70.0975E-03    -42.1429E+06    -146.048E+06    -23.5390E+06     456.212E+03    -54.7508E-03     109.196E-03    -54.4455E-03     42.8043E-03    -54.7473E-03     108.593E-03    -54.2903E-03     42.6275E-03
             449     5.11471E-03     70.1445E-03    -38.4865E+06    -140.879E+06    -16.2248E+06     385.915E+03    -54.9227E-03     109.381E-03    -54.4585E-03     50.8320E-03    -54.9368E-03     108.806E-03    -54.2795E-03     50.6012E-03
             450     5.96722E-03     70.1997E-03    -34.9591E+06    -134.307E+06    -10.5657E+06     489.406E+03    -55.1394E-03     109.603E-03    -54.4634E-03     58.6539E-03    -55.1779E-03     109.071E-03    -54.2708E-03     58.3627E-03
             451     6.81970E-03     70.2624E-03    -31.8085E+06    -120.573E+06    -6.93567E+06     681.641E+03    -55.3450E-03     109.795E-03    -54.4498E-03     66.3351E-03    -55.4255E-03     109.355E-03    -54.2635E-03     65.9754E-03
             452     7.67223E-03     70.3330E-03    -28.9990E+06    -114.435E+06    -4.37344E+06     737.552E+03    -55.5762E-03     110.019E-03    -54.4425E-03     73.7065E-03    -55.6992E-03     109.645E-03    -54.2564E-03     73.2641E-03
             453     8.52475E-03     70.4104E-03    -26.4971E+06    -106.110E+06    -3.24561E+06     819.725E+03    -55.8157E-03     110.241E-03    -54.4257E-03     81.0013E-03    -55.9986E-03     109.963E-03    -54.2496E-03     80.4634E-03
             454     9.37728E-03     70.4956E-03    -24.3220E+06    -91.4129E+06    -3.17588E+06     966.891E+03    -56.0593E-03     110.454E-03    -54.3948E-03     88.5465E-03    -56.3326E-03     110.326E-03    -54.2429E-03     87.8984E-03
             455     10.2299E-03     70.5880E-03    -22.3353E+06    -77.2660E+06    -3.24758E+06     1.04062E+06    -56.3079E-03     110.672E-03    -54.3637E-03     96.3399E-03    -56.7027E-03     110.722E-03    -54.2355E-03     95.5603E-03
             456     11.0822E-03     70.6889E-03    -20.7717E+06    -58.3963E+06    -3.71142E+06     955.114E+03    -56.5009E-03     110.823E-03    -54.3223E-03     104.204E-03    -57.0708E-03     111.123E-03    -54.2261E-03     103.268E-03
             457     11.9352E-03     70.7966E-03    -19.6064E+06    -29.9581E+06    -4.00334E+06     1.14006E+06    -56.7609E-03     111.027E-03    -54.2659E-03     113.980E-03    -57.6113E-03     111.713E-03    -54.2141E-03     112.856E-03
             458     12.7874E-03     70.9169E-03    -19.0737E+06     14.0222E+06    -2.08838E+06     1.92797E+06    -57.2431E-03     111.438E-03    -54.1950E-03     130.378E-03    -58.6069E-03     112.790E-03    -54.1981E-03     129.018E-03
             459     13.6417E-03     71.0578E-03    -17.2152E+06     71.1349E+06     8.93796E+06     1.76668E+06    -58.6078E-03     112.757E-03    -54.1492E-03     159.381E-03    -61.0744E-03     115.389E-03    -54.1827E-03     157.685E-03
             460     14.4928E-03     71.2348E-03    -15.2497E+06     115.930E+06     38.2120E+06     662.384E+03    -61.9010E-03     116.111E-03    -54.2101E-03     218.115E-03    -67.4066E-03     121.863E-03    -54.1651E-03     216.127E-03
             461     15.3437E-03     71.4948E-03    -12.7570E+06     146.978E+06     82.2596E+06     42.6096E+03    -64.3409E-03     118.682E-03    -54.3410E-03     278.523E-03    -75.1537E-03     129.733E-03    -54.1244E-03     278.106E-03
             462     16.1990E-03     71.8047E-03    -5.82094E+06     153.767E+06     103.530E+06    -480.593E+03    -58.5153E-03     112.891E-03    -54.3753E-03     181.579E-03    -66.5903E-03     121.191E-03    -54.0722E-03     183.263E-03
             463     852.368E-06     71.0489E-03    -53.2791E+06    -168.632E+06    -52.6296E+06    -105.189E+03    -54.4712E-03     108.817E-03    -54.3459E-03     9.63120E-03    -54.4180E-03     108.129E-03    -54.2873E-03     9.59647E-03
             464     1.70483E-03     71.0625E-03    -51.6814E+06    -165.564E+06    -47.9157E+06    -86.8389E+03    -54.4622E-03     108.872E-03    -54.4102E-03     17.7466E-03    -54.4156E-03     108.194E-03    -54.3348E-03     17.6822E-03
             465     2.55721E-03     71.0845E-03    -49.1535E+06    -160.710E+06    -40.3612E+06     49.4974E+03    -54.5301E-03     108.960E-03    -54.4297E-03     26.1922E-03    -54.4945E-03     108.296E-03    -54.3272E-03     26.0951E-03
             466     3.40964E-03     71.1152E-03    -45.9440E+06    -155.319E+06    -32.1552E+06     169.642E+03    -54.6212E-03     109.068E-03    -54.4469E-03     34.5589E-03    -54.5980E-03     108.424E-03    -54.3159E-03     34.4238E-03
             467     4.26217E-03     71.1540E-03    -42.2364E+06    -146.347E+06    -23.9061E+06     383.964E+03    -54.7649E-03     109.222E-03    -54.4575E-03     42.7999E-03    -54.7609E-03     108.618E-03    -54.3036E-03     42.6220E-03
             468     5.11463E-03     71.2012E-03    -38.5534E+06    -140.919E+06    -15.9826E+06     542.475E+03    -54.9594E-03     109.434E-03    -54.4751E-03     50.8253E-03    -54.9741E-03     108.858E-03    -54.2947E-03     50.5964E-03
             469     5.96709E-03     71.2561E-03    -35.1071E+06    -134.673E+06    -10.5542E+06     629.424E+03    -55.1582E-03     109.640E-03    -54.4813E-03     58.6679E-03    -55.1969E-03     109.106E-03    -54.2879E-03     58.3786E-03
             470     6.81958E-03     71.3191E-03    -31.8612E+06    -120.843E+06    -7.10804E+06     784.140E+03    -55.3470E-03     109.813E-03    -54.4657E-03     66.3545E-03    -55.4271E-03     109.371E-03    -54.2798E-03     65.9963E-03
             471     7.67213E-03     71.3894E-03    -29.0003E+06    -114.548E+06    -4.38863E+06     844.326E+03    -55.5776E-03     110.035E-03    -54.4571E-03     73.7493E-03    -55.7003E-03     109.661E-03    -54.2709E-03     73.3084E-03
             472     8.52461E-03     71.4672E-03    -26.5502E+06    -106.341E+06    -3.39269E+06     850.850E+03    -55.8121E-03     110.250E-03    -54.4380E-03     81.0551E-03    -55.9945E-03     109.971E-03    -54.2623E-03     80.5180E-03
             473     9.37720E-03     71.5519E-03    -24.3838E+06    -91.5631E+06    -3.38511E+06     834.084E+03    -56.0493E-03     110.454E-03    -54.4045E-03     88.6780E-03    -56.3224E-03     110.325E-03    -54.2533E-03     88.0288E-03
             474     10.2296E-03     71.6450E-03    -22.5963E+06    -77.5602E+06    -3.62564E+06     852.622E+03    -56.2702E-03     110.640E-03    -54.3697E-03     96.4684E-03    -56.6650E-03     110.690E-03    -54.2426E-03     95.6876E-03
             475     11.0826E-03     71.7449E-03    -21.0635E+06    -58.3607E+06    -3.86735E+06     893.015E+03    -56.4900E-03     110.816E-03    -54.3261E-03     104.319E-03    -57.0617E-03     111.117E-03    -54.2303E-03     103.382E-03
             476     11.9349E-03     71.8537E-03    -19.5324E+06    -30.4920E+06    -4.30338E+06     912.543E+03    -56.7810E-03     111.050E-03    -54.2689E-03     114.051E-03    -57.6300E-03     111.734E-03    -54.2179E-03     112.923E-03
             477     12.7880E-03     71.9731E-03    -16.8094E+06     12.9090E+06    -1.38885E+06     1.12552E+06    -57.1610E-03     111.360E-03    -54.1990E-03     129.930E-03    -58.5134E-03     112.703E-03    -54.2003E-03     128.561E-03
             478     13.6402E-03     72.1134E-03    -14.7723E+06     70.8952E+06     10.1028E+06     1.86694E+06    -58.1119E-03     112.249E-03    -54.1369E-03     159.107E-03    -60.5542E-03     114.861E-03    -54.1678E-03     157.436E-03
             479     14.4942E-03     72.2931E-03    -13.6562E+06     116.995E+06     39.8142E+06     2.64508E+06    -61.1472E-03     115.309E-03    -54.1613E-03     218.604E-03    -66.6359E-03     121.049E-03    -54.1121E-03     216.693E-03
             480     15.3487E-03     72.5526E-03    -9.64598E+06     150.318E+06     85.9998E+06     1.75328E+06    -63.5509E-03     117.801E-03    -54.2500E-03     279.424E-03    -74.2955E-03     128.795E-03    -54.0240E-03     279.076E-03
             481     16.2059E-03     72.8564E-03    -5.92420E+06     154.666E+06     104.057E+06    -225.119E+03    -59.7866E-03     114.071E-03    -54.2843E-03     182.363E-03    -67.8167E-03     122.327E-03    -53.9797E-03     184.027E-03
             482     852.433E-06     72.1054E-03    -53.3377E+06    -168.357E+06    -52.1609E+06    -223.856E+03    -54.4616E-03     108.812E-03    -54.3506E-03     9.65018E-03    -54.4098E-03     108.125E-03    -54.2900E-03     9.61401E-03
             483     1.70479E-03     72.1190E-03    -51.8541E+06    -165.531E+06    -47.6425E+06    -238.392E+03    -54.4881E-03     108.903E-03    -54.4150E-03     17.7527E-03    -54.4428E-03     108.224E-03    -54.3380E-03     17.6862E-03
             484     2.55719E-03     72.1411E-03    -49.2266E+06    -160.906E+06    -40.5666E+06    -108.768E+03    -54.5476E-03     108.987E-03    -54.4394E-03     26.1896E-03    -54.5118E-03     108.323E-03    -54.3376E-03     26.0904E-03
             485     3.40966E-03     72.1716E-03    -45.9154E+06    -155.541E+06    -32.5106E+06     80.1526E+03    -54.6502E-03     109.109E-03    -54.4587E-03     34.5744E-03    -54.6261E-03     108.464E-03    -54.3292E-03     34.4382E-03
             486     4.26207E-03     72.2106E-03    -42.4763E+06    -146.809E+06    -24.4551E+06     314.786E+03    -54.7887E-03     109.260E-03    -54.4716E-03     42.8235E-03    -54.7844E-03     108.655E-03    -54.3195E-03     42.6449E-03
             487     5.11454E-03     72.2577E-03    -38.8421E+06    -141.306E+06    -16.3715E+06     669.975E+03    -54.9655E-03     109.455E-03    -54.4898E-03     50.8614E-03    -54.9806E-03     108.878E-03    -54.3104E-03     50.6343E-03
             488     5.96698E-03     72.3128E-03    -35.2806E+06    -134.795E+06    -10.5849E+06     786.343E+03    -55.1541E-03     109.649E-03    -54.4951E-03     58.7056E-03    -55.1935E-03     109.116E-03    -54.3014E-03     58.4184E-03
             489     6.81953E-03     72.3755E-03    -32.0439E+06    -121.149E+06    -7.37752E+06     770.300E+03    -55.3430E-03     109.819E-03    -54.4762E-03     66.4144E-03    -55.4232E-03     109.377E-03    -54.2909E-03     66.0563E-03
             490     7.67201E-03     72.4462E-03    -29.1139E+06    -114.678E+06    -4.65284E+06     863.618E+03    -55.5693E-03     110.034E-03    -54.4650E-03     73.8060E-03    -55.6920E-03     109.660E-03    -54.2798E-03     73.3657E-03
             491     8.52461E-03     72.5235E-03    -26.5304E+06    -106.430E+06    -3.42554E+06     829.618E+03    -55.7971E-03     110.242E-03    -54.4446E-03     81.1038E-03    -55.9793E-03     109.962E-03    -54.2690E-03     80.5667E-03
             492     9.37712E-03     72.6088E-03    -24.4543E+06    -91.6933E+06    -3.47494E+06     837.942E+03    -56.0150E-03     110.423E-03    -54.4081E-03     88.6946E-03    -56.2878E-03     110.294E-03    -54.2570E-03     88.0461E-03
             493     10.2299E-03     72.7012E-03    -22.7873E+06    -77.5114E+06    -3.57458E+06     806.559E+03    -56.2900E-03     110.663E-03    -54.3730E-03     96.4100E-03    -56.6863E-03     110.714E-03    -54.2454E-03     95.6277E-03
             494     11.0822E-03     72.8019E-03    -21.3886E+06    -58.5846E+06    -4.08314E+06     782.622E+03    -56.5561E-03     110.888E-03    -54.3322E-03     104.180E-03    -57.1297E-03     111.190E-03    -54.2367E-03     103.239E-03
             495     11.9351E-03     72.9100E-03    -20.2737E+06    -29.9965E+06    -4.36055E+06     439.941E+03    -56.8062E-03     111.085E-03    -54.2792E-03     113.836E-03    -57.6597E-03     111.773E-03    -54.2282E-03     112.700E-03
             496     12.7874E-03     73.0299E-03    -19.5278E+06      12.345E+06    -1.96130E+06    -283.953E+03    -57.2419E-03     111.458E-03    -54.2158E-03     129.683E-03    -58.6124E-03     112.808E-03    -54.2152E-03     128.289E-03
             497     13.6406E-03     73.1700E-03    -17.9746E+06     68.4828E+06     7.83158E+06     716.154E+03    -57.9687E-03     112.118E-03    -54.1497E-03     158.266E-03    -60.4128E-03     114.719E-03    -54.1838E-03     156.584E-03
             498     14.4945E-03     73.3471E-03    -13.6291E+06     116.267E+06     37.6960E+06     2.27143E+06    -60.7707E-03     114.936E-03    -54.1650E-03     215.314E-03    -66.1890E-03     120.609E-03    -54.1254E-03     213.400E-03
             499     15.3505E-03     73.6067E-03    -8.26634E+06     151.915E+06     85.9873E+06     2.04265E+06    -64.2653E-03     118.565E-03    -54.2997E-03     273.074E-03    -74.8227E-03     129.383E-03    -54.0780E-03     272.561E-03
             500     16.1994E-03     73.9135E-03    -5.28079E+06     156.260E+06     105.126E+06     1.26474E+06    -59.3707E-03     113.751E-03    -54.3804E-03     180.430E-03    -67.3020E-03     121.914E-03    -54.0736E-03     182.036E-03
             501     852.432E-06     73.1620E-03    -53.4198E+06    -168.340E+06     -51.993E+06     114.737E+03    -54.4389E-03     108.845E-03    -54.4063E-03     9.68728E-03    -54.3878E-03     108.158E-03    -54.3448E-03     9.65536E-03
             502     1.70475E-03     73.1756E-03    -51.7981E+06    -165.244E+06    -47.0897E+06     3.71131E+03    -54.4829E-03     108.912E-03    -54.4295E-03     17.7282E-03    -54.4386E-03     108.234E-03    -54.3503E-03     17.6651E-03
             503     2.55720E-03     73.1976E-03    -49.3541E+06    -160.912E+06    -40.4438E+06    -219.781E+03    -54.5545E-03     109.003E-03    -54.4484E-03     26.1955E-03    -54.5195E-03     108.339E-03    -54.3457E-03     26.0949E-03
             504     3.40956E-03     73.2283E-03    -46.3141E+06    -156.021E+06    -33.0016E+06     50.0159E+03    -54.6726E-03     109.140E-03    -54.4672E-03     34.5949E-03    -54.6491E-03     108.494E-03    -54.3388E-03     34.4583E-03
             505     4.26201E-03     73.2671E-03    -42.9452E+06    -147.239E+06    -24.8442E+06     457.621E+03    -54.7947E-03     109.276E-03    -54.4818E-03     42.8791E-03    -54.7916E-03     108.670E-03    -54.3302E-03     42.7024E-03
             506     5.11447E-03     73.3144E-03    -39.2533E+06    -141.660E+06    -16.8044E+06     543.355E+03    -54.9545E-03     109.452E-03    -54.4973E-03     50.9318E-03    -54.9705E-03     108.874E-03    -54.3190E-03     50.7032E-03
             507     5.96701E-03     73.3693E-03    -35.3947E+06    -135.057E+06    -10.9091E+06     699.763E+03    -55.1529E-03     109.653E-03    -54.5002E-03     58.7551E-03    -55.1921E-03     109.119E-03    -54.3076E-03     58.4669E-03
             508     6.81945E-03     73.4323E-03    -32.0363E+06    -121.264E+06    -7.36868E+06     824.387E+03    -55.3443E-03     109.826E-03    -54.4816E-03     66.4378E-03    -55.4243E-03     109.383E-03    -54.2962E-03     66.0803E-03
             509     7.67207E-03     73.5026E-03    -29.1797E+06    -114.866E+06    -4.74010E+06     802.046E+03    -55.5701E-03     110.040E-03    -54.4696E-03     73.8226E-03    -55.6927E-03     109.665E-03    -54.2845E-03     73.3813E-03
             510     8.52452E-03     73.5803E-03    -26.7425E+06    -106.480E+06    -3.46215E+06     854.940E+03    -55.8051E-03     110.255E-03    -54.4495E-03     81.0719E-03    -55.9883E-03     109.975E-03    -54.2737E-03     80.5347E-03
             511     9.37720E-03     73.6651E-03    -24.6573E+06    -91.8161E+06    -3.48032E+06     825.942E+03    -56.0497E-03     110.465E-03    -54.4150E-03     88.5953E-03    -56.3237E-03     110.335E-03    -54.2636E-03     87.9454E-03
             512     10.2296E-03     73.7580E-03    -22.8270E+06    -77.5571E+06    -3.66181E+06     821.545E+03    -56.3559E-03     110.739E-03    -54.3831E-03     96.3858E-03    -56.7528E-03     110.790E-03    -54.2559E-03     95.6019E-03
             513     11.0823E-03     73.8584E-03    -21.4686E+06    -58.5326E+06    -4.13442E+06     813.812E+03    -56.6269E-03     110.974E-03    -54.3471E-03     104.136E-03    -57.2014E-03     111.276E-03    -54.2518E-03     103.194E-03
             514     11.9345E-03     73.9667E-03    -20.7179E+06    -29.9725E+06    -4.89555E+06     1.06459E+06    -56.8671E-03     111.163E-03    -54.2963E-03     113.772E-03    -57.7234E-03     111.854E-03    -54.2472E-03     112.642E-03
             515     12.7874E-03     74.0865E-03    -20.8075E+06     13.5837E+06    -2.24850E+06     828.318E+03    -57.3635E-03     111.603E-03    -54.2392E-03     129.444E-03    -58.7402E-03     112.960E-03    -54.2400E-03     128.061E-03
             516     13.6400E-03     74.2261E-03    -19.7906E+06     68.3377E+06     6.10147E+06    -764.271E+03    -58.5255E-03     112.718E-03    -54.1920E-03     157.071E-03    -60.9703E-03     115.317E-03    -54.2319E-03     155.350E-03
             517     14.4923E-03     74.4030E-03    -16.2965E+06     113.703E+06     33.8753E+06    -1.07271E+06    -62.4814E-03     116.752E-03    -54.2702E-03     214.803E-03    -67.9691E-03     122.487E-03    -54.2421E-03     212.735E-03
             518     15.3405E-03     74.6625E-03    -10.9244E+06     149.962E+06     82.6106E+06     1.33262E+06    -65.6945E-03     120.184E-03    -54.4897E-03     274.106E-03    -76.4544E-03     131.198E-03    -54.2783E-03     273.500E-03
             519     16.1948E-03     74.9696E-03    -4.22436E+06     157.350E+06     105.391E+06     2.34292E+06    -57.0436E-03     111.591E-03    -54.5474E-03     180.834E-03    -65.0841E-03     119.870E-03    -54.2425E-03     182.562E-03
             520     852.286E-06     74.2187E-03    -53.3529E+06    -168.568E+06    -52.3858E+06     82.0011E+03    -54.4008E-03     108.895E-03    -54.4939E-03     9.63750E-03    -54.3484E-03     108.207E-03    -54.4340E-03     9.60542E-03
             521     1.70479E-03     74.2321E-03    -51.6355E+06    -165.197E+06    -47.0991E+06     221.728E+03    -54.4643E-03     108.910E-03    -54.4453E-03     17.7444E-03    -54.4192E-03     108.231E-03    -54.3664E-03     17.6843E-03
             522     2.55714E-03     74.2543E-03    -49.3896E+06    -160.889E+06    -40.2622E+06     290.985E+03    -54.5632E-03     109.020E-03    -54.4567E-03     26.2003E-03    -54.5287E-03     108.356E-03    -54.3532E-03     26.1062E-03
             523     3.40960E-03     74.2848E-03    -46.7082E+06    -156.391E+06    -33.2858E+06     287.307E+03    -54.6630E-03     109.136E-03    -54.4728E-03     34.6086E-03    -54.6405E-03     108.489E-03    -54.3447E-03     34.4749E-03
             524     4.26202E-03     74.3238E-03    -43.1791E+06    -147.546E+06    -25.1660E+06     296.271E+03    -54.7836E-03     109.267E-03    -54.4836E-03     42.9021E-03    -54.7808E-03     108.660E-03    -54.3328E-03     42.7234E-03
             525     5.11453E-03     74.3708E-03    -39.2857E+06    -141.778E+06    -16.9212E+06     388.721E+03    -54.9565E-03     109.455E-03    -54.4981E-03     50.9593E-03    -54.9723E-03     108.877E-03    -54.3202E-03     50.7288E-03
             526     5.96694E-03     74.4260E-03    -35.5775E+06    -135.420E+06    -11.2101E+06     430.301E+03    -55.1563E-03     109.657E-03    -54.5008E-03     58.7839E-03    -55.1954E-03     109.122E-03    -54.3089E-03     58.4921E-03
             527     6.81951E-03     74.4888E-03    -32.0190E+06    -121.585E+06    -7.57637E+06     655.406E+03    -55.3555E-03     109.838E-03    -54.4829E-03     66.4544E-03    -55.4348E-03     109.394E-03    -54.2980E-03     66.0945E-03
             528     7.67194E-03     74.5593E-03    -29.1006E+06    -115.111E+06    -4.81033E+06     945.069E+03    -55.5833E-03     110.056E-03    -54.4724E-03     73.8328E-03    -55.7053E-03     109.680E-03    -54.2874E-03     73.3930E-03
             529     8.52455E-03     74.6368E-03    -26.6410E+06    -106.438E+06    -3.65490E+06     895.924E+03    -55.8313E-03     110.284E-03    -54.4527E-03     81.1100E-03    -56.0139E-03     110.005E-03    -54.2780E-03     80.5731E-03
             530     9.37692E-03     74.7219E-03    -24.3777E+06    -91.7391E+06    -3.67579E+06     676.707E+03    -56.1044E-03     110.525E-03    -54.4208E-03     88.6946E-03    -56.3772E-03     110.396E-03    -54.2708E-03     88.0419E-03
             531     10.2296E-03     74.8145E-03    -22.5270E+06    -78.0267E+06    -4.06304E+06     795.778E+03    -56.3679E-03     110.758E-03    -54.3901E-03     96.5754E-03    -56.7620E-03     110.807E-03    -54.2646E-03     95.7918E-03
             532     11.0819E-03     74.9153E-03    -21.1409E+06    -58.5945E+06    -4.44926E+06     1.09222E+06    -56.6150E-03     110.967E-03    -54.3519E-03     104.450E-03    -57.1868E-03     111.269E-03    -54.2585E-03     103.514E-03
             533     11.9345E-03     75.0234E-03    -19.8726E+06    -30.9091E+06    -5.26023E+06     1.48934E+06    -56.9446E-03     111.246E-03    -54.3013E-03     114.126E-03    -57.7956E-03     111.932E-03    -54.2540E-03     113.002E-03
             534     12.7868E-03     75.1432E-03    -18.2179E+06     14.4680E+06    -1.57704E+06     1.78166E+06    -57.5250E-03     111.774E-03    -54.2487E-03     130.115E-03    -58.8904E-03     113.130E-03    -54.2511E-03     128.745E-03
             535     13.6388E-03     75.2837E-03    -17.6400E+06     71.1661E+06     8.79900E+06     817.672E+03    -58.8600E-03     113.078E-03    -54.2177E-03     158.706E-03    -61.3163E-03     115.699E-03    -54.2513E-03     156.997E-03
             536     14.4908E-03     75.4601E-03    -18.0907E+06     113.273E+06     35.1327E+06    -755.144E+03    -63.0937E-03     117.402E-03    -54.3078E-03     219.210E-03    -68.7000E-03     123.244E-03    -54.2701E-03     217.121E-03
             537     15.3445E-03     75.7248E-03    -15.1449E+06     146.796E+06     79.7826E+06    -892.808E+03    -65.5646E-03     120.066E-03    -54.5014E-03     278.290E-03    -76.5323E-03     131.270E-03    -54.2934E-03     277.786E-03
             538     16.1951E-03     76.0245E-03    -5.23724E+06     156.662E+06     104.082E+06     116.753E+03    -56.2905E-03     110.813E-03    -54.5225E-03     179.857E-03    -64.3966E-03     119.155E-03    -54.2216E-03     181.666E-03
             539     852.354E-06     75.2750E-03    -53.5875E+06    -168.697E+06    -52.3481E+06     35.9142E+03    -54.4489E-03     108.901E-03    -54.4524E-03     9.59456E-03    -54.3975E-03     108.213E-03    -54.3918E-03     9.56210E-03
             540     1.70473E-03     75.2888E-03    -52.0001E+06    -165.645E+06    -47.5378E+06     244.439E+03    -54.4840E-03     108.935E-03    -54.4510E-03     17.7901E-03    -54.4394E-03     108.256E-03    -54.3731E-03     17.7300E-03
             541     2.55715E-03     75.3108E-03    -49.3446E+06    -161.299E+06    -40.8878E+06     598.101E+03    -54.5566E-03     109.018E-03    -54.4615E-03     26.1874E-03    -54.5203E-03     108.353E-03    -54.3605E-03     26.0972E-03
             542     3.40954E-03     75.3414E-03    -46.2335E+06    -156.248E+06    -33.3101E+06     535.768E+03    -54.6518E-03     109.126E-03    -54.4745E-03     34.5960E-03    -54.6271E-03     108.479E-03    -54.3475E-03     34.4656E-03
             543     4.26203E-03     75.3803E-03    -42.9907E+06    -147.505E+06    -25.2110E+06     222.127E+03    -54.7781E-03     109.261E-03    -54.4831E-03     42.9052E-03    -54.7743E-03     108.654E-03    -54.3330E-03     42.7255E-03
             544     5.11447E-03     75.4275E-03    -39.4766E+06    -142.118E+06    -17.3628E+06     296.170E+03    -54.9504E-03     109.446E-03    -54.4957E-03     50.9777E-03    -54.9660E-03     108.867E-03    -54.3192E-03     50.7460E-03
             545     5.96701E-03     75.4825E-03    -35.9070E+06    -135.362E+06    -11.4889E+06     363.082E+03    -55.1470E-03     109.645E-03    -54.4978E-03     58.8194E-03    -55.1874E-03     109.111E-03    -54.3069E-03     58.5269E-03
             546     6.81944E-03     75.5455E-03    -32.6858E+06    -122.155E+06    -8.40660E+06     377.814E+03    -55.3462E-03     109.824E-03    -54.4775E-03     66.5229E-03    -55.4267E-03     109.379E-03    -54.2951E-03     66.1597E-03
             547     7.67204E-03     75.6158E-03    -29.4463E+06    -115.448E+06    -5.61357E+06      617.13E+03    -55.5810E-03     110.047E-03    -54.4658E-03     73.9361E-03    -55.7030E-03     109.671E-03    -54.2837E-03     73.4927E-03
             548     8.52446E-03     75.6935E-03    -26.3851E+06    -106.200E+06    -3.95742E+06     525.424E+03    -55.8243E-03     110.270E-03    -54.4461E-03     81.2820E-03    -56.0054E-03     109.992E-03    -54.2737E-03     80.7410E-03
             549     9.37712E-03     75.7785E-03    -24.0373E+06    -91.9236E+06    -3.87966E+06     542.189E+03    -56.0730E-03     110.486E-03    -54.4128E-03     88.9460E-03    -56.3434E-03     110.356E-03    -54.2640E-03     88.2931E-03
             550     10.2295E-03     75.8713E-03    -22.4039E+06    -78.4726E+06    -4.20552E+06     811.937E+03    -56.3091E-03     110.688E-03    -54.3786E-03     96.8586E-03    -56.7017E-03     110.734E-03    -54.2534E-03     96.0771E-03
             551     11.0823E-03     75.9718E-03    -20.8817E+06    -58.9908E+06    -4.50553E+06     1.00599E+06    -56.5285E-03     110.863E-03    -54.3343E-03     104.864E-03    -57.0980E-03     111.162E-03    -54.2410E-03     103.930E-03
             552     11.9348E-03     76.0803E-03    -19.3317E+06    -31.2480E+06    -4.74788E+06     1.11459E+06    -56.8808E-03     111.160E-03    -54.2795E-03     114.751E-03    -57.7298E-03     111.843E-03    -54.2299E-03     113.625E-03
             553     12.7874E-03     76.2003E-03    -18.3570E+06     13.5731E+06    -2.17044E+06     1.45175E+06    -57.1906E-03     111.399E-03    -54.2086E-03     130.857E-03    -58.5534E-03     112.751E-03    -54.2125E-03     129.494E-03
             554     13.6408E-03     76.3404E-03    -17.3304E+06     71.5109E+06     8.83591E+06     2.70686E+06    -58.2714E-03     112.417E-03    -54.1455E-03     160.454E-03    -60.7307E-03     115.043E-03    -54.1799E-03     158.793E-03
             555     14.4940E-03     76.5185E-03    -15.5091E+06     116.014E+06     37.7584E+06     2.64729E+06    -61.9944E-03     116.176E-03    -54.1811E-03     222.276E-03    -67.5926E-03     122.021E-03    -54.1381E-03     220.316E-03
             556     15.3447E-03     76.7828E-03    -12.4749E+06     149.266E+06     82.7051E+06     83.5166E+03    -63.9536E-03     118.240E-03    -54.2862E-03     280.986E-03    -74.8604E-03     129.392E-03    -54.0710E-03     280.702E-03
             557     16.2011E-03     77.0810E-03    -6.19918E+06     155.939E+06     103.912E+06    -1.84838E+06    -58.4623E-03     112.772E-03    -54.3095E-03     180.070E-03    -66.5225E-03     121.062E-03    -54.0071E-03     181.850E-03
             558     852.418E-06     76.3318E-03    -53.8130E+06    -169.017E+06    -52.7012E+06     111.829E+03    -54.5183E-03     108.880E-03    -54.3621E-03     9.58398E-03    -54.4671E-03     108.192E-03    -54.3025E-03     9.55240E-03
             559     1.70472E-03     76.3453E-03    -52.2225E+06    -166.078E+06    -48.0715E+06     348.965E+03    -54.4986E-03     108.943E-03    -54.4443E-03     17.7788E-03    -54.4537E-03     108.262E-03    -54.3681E-03     17.7201E-03
             560     2.55711E-03     76.3675E-03    -49.7974E+06    -161.705E+06    -41.3810E+06     355.120E+03    -54.5364E-03     108.994E-03    -54.4574E-03     26.2385E-03    -54.5011E-03     108.328E-03    -54.3576E-03     26.1454E-03
             561     3.40959E-03     76.3979E-03    -46.5448E+06    -156.263E+06    -33.2069E+06     436.960E+03    -54.6482E-03     109.118E-03    -54.4700E-03     34.6513E-03    -54.6253E-03     108.472E-03    -54.3420E-03     34.5197E-03
             562     4.26201E-03     76.4369E-03    -43.0890E+06    -147.387E+06    -24.9771E+06     484.807E+03    -54.7766E-03     109.256E-03    -54.4795E-03     42.9478E-03    -54.7738E-03     108.650E-03    -54.3282E-03     42.7716E-03
             563     5.11454E-03     76.4840E-03    -39.5949E+06    -142.282E+06    -17.6451E+06     344.797E+03    -54.9366E-03     109.426E-03    -54.4894E-03     51.0136E-03    -54.9522E-03     108.847E-03    -54.3139E-03     50.7828E-03
             564     5.96699E-03     76.5392E-03    -36.0954E+06    -135.433E+06    -12.1311E+06     369.485E+03    -55.1187E-03     109.606E-03    -54.4873E-03     58.8701E-03    -55.1589E-03     109.072E-03    -54.2992E-03     58.5782E-03
             565     6.81959E-03     76.6020E-03    -32.7726E+06    -122.097E+06    -8.59212E+06     269.647E+03    -55.3096E-03     109.775E-03    -54.4656E-03     66.5912E-03    -55.3902E-03     109.331E-03    -54.2840E-03     66.2274E-03
             566     7.67210E-03     76.6724E-03    -29.6067E+06    -115.417E+06    -5.99873E+06    -175.776E+03    -55.5411E-03     109.991E-03    -54.4496E-03     74.0491E-03    -55.6632E-03     109.615E-03    -54.2693E-03     73.5964E-03
             567     8.52472E-03     76.7501E-03    -26.7247E+06    -106.395E+06    -4.30658E+06    -66.1512E+03    -55.7688E-03     110.196E-03    -54.4270E-03     81.4122E-03    -55.9507E-03     109.918E-03    -54.2555E-03     80.8648E-03
             568     9.37723E-03     76.8350E-03    -24.4873E+06    -92.5187E+06    -3.93943E+06     434.806E+03    -55.9850E-03     110.376E-03    -54.3906E-03     89.0769E-03    -56.2565E-03     110.243E-03    -54.2406E-03     88.4244E-03
             569     10.2301E-03     76.9279E-03    -22.6025E+06    -78.5820E+06    -4.13664E+06     634.926E+03    -56.2322E-03     110.583E-03    -54.3507E-03     96.9527E-03    -56.6255E-03     110.629E-03    -54.2246E-03     96.1705E-03
             570     11.0826E-03     77.0283E-03    -20.9462E+06    -59.3449E+06    -4.41468E+06     683.063E+03    -56.4313E-03     110.733E-03    -54.3019E-03     104.917E-03    -57.0009E-03     111.031E-03    -54.2075E-03     103.980E-03
             571     11.9354E-03     77.1369E-03    -19.7207E+06    -31.3649E+06    -4.72154E+06     770.382E+03    -56.5838E-03     110.819E-03    -54.2350E-03     114.906E-03    -57.4328E-03     111.500E-03    -54.1846E-03     113.783E-03
             572     12.7884E-03     77.2569E-03    -18.3943E+06     12.1228E+06    -2.89207E+06     1.55282E+06    -56.8075E-03     110.950E-03    -54.1429E-03     130.406E-03    -58.1633E-03     112.292E-03    -54.1483E-03     129.054E-03
             573     13.6419E-03     77.3954E-03    -16.8414E+06     69.4120E+06     6.25884E+06     2.73075E+06    -57.8703E-03     111.923E-03    -54.0527E-03     159.785E-03    -60.3203E-03     114.541E-03    -54.0976E-03     158.132E-03
             574     14.4956E-03     77.5755E-03    -13.6313E+06     116.838E+06     35.5667E+06     2.18886E+06    -60.3307E-03     114.368E-03    -54.0374E-03     219.848E-03    -65.7989E-03     120.100E-03    -54.0092E-03     217.987E-03
             575     15.3543E-03     77.8382E-03    -7.49886E+06     153.315E+06     85.9322E+06     651.064E+03    -62.6391E-03     116.737E-03    -54.0984E-03     277.617E-03    -73.2552E-03     127.622E-03    -53.8802E-03     277.358E-03
             576     16.2093E-03     78.1381E-03    -5.34692E+06     157.561E+06     105.826E+06     122.490E+03    -61.1237E-03     115.299E-03    -54.1752E-03     179.641E-03    -69.0497E-03     123.459E-03    -53.8668E-03     181.274E-03
             577     852.367E-06     77.3884E-03    -54.0612E+06    -169.362E+06    -53.0780E+06     123.935E+03    -54.4960E-03     108.847E-03    -54.3510E-03     9.71534E-03    -54.4450E-03     108.157E-03    -54.2924E-03     9.68364E-03
             578     1.70475E-03     77.4020E-03    -52.4341E+06    -166.434E+06    -48.6371E+06     224.028E+03    -54.4703E-03     108.894E-03    -54.4236E-03     17.7592E-03    -54.4252E-03     108.213E-03    -54.3494E-03     17.6991E-03
             579     2.55724E-03     77.4239E-03    -49.9872E+06    -161.853E+06    -41.5607E+06     322.276E+03    -54.5344E-03     108.973E-03    -54.4386E-03     26.2645E-03    -54.4996E-03     108.307E-03    -54.3392E-03     26.1711E-03
             580     3.40963E-03     77.4546E-03    -46.9529E+06    -156.535E+06    -33.4549E+06     355.644E+03    -54.6446E-03     109.100E-03    -54.4556E-03     34.6676E-03    -54.6229E-03     108.453E-03    -54.3278E-03     34.5351E-03
             581     4.26211E-03     77.4934E-03    -43.3300E+06    -147.513E+06    -25.0856E+06     434.304E+03    -54.7690E-03     109.236E-03    -54.4672E-03     42.9663E-03    -54.7671E-03     108.630E-03    -54.3159E-03     42.7895E-03
             582     5.11456E-03     77.5406E-03    -39.5578E+06    -142.145E+06    -17.4996E+06     404.857E+03    -54.9204E-03     109.398E-03    -54.4777E-03     51.0269E-03    -54.9362E-03     108.820E-03    -54.3018E-03     50.7971E-03
             583     5.96713E-03     77.5956E-03    -35.8356E+06    -135.478E+06    -12.0436E+06     182.977E+03    -55.0902E-03     109.564E-03    -54.4738E-03     58.8884E-03    -55.1291E-03     109.030E-03    -54.2856E-03     58.5945E-03
             584     6.81967E-03     77.6585E-03    -32.2239E+06    -121.681E+06    -8.22075E+06    -101.988E+03    -55.2740E-03     109.724E-03    -54.4499E-03     66.6080E-03    -55.3530E-03     109.280E-03    -54.2678E-03     66.2398E-03
             585     7.67231E-03     77.7289E-03    -29.2816E+06    -115.013E+06    -5.52525E+06    -347.848E+03    -55.4905E-03     109.922E-03    -54.4317E-03     74.0371E-03    -55.6122E-03     109.548E-03    -54.2501E-03     73.5826E-03
             586     8.52490E-03     77.8066E-03    -26.9938E+06    -107.049E+06    -4.46850E+06    -240.115E+03    -55.7090E-03     110.114E-03    -54.4048E-03     81.3681E-03    -55.8909E-03     109.833E-03    -54.2328E-03     80.8190E-03
             587     9.37766E-03     77.8915E-03    -24.7658E+06    -92.9731E+06    -4.09516E+06     109.518E+03    -55.9480E-03     110.314E-03    -54.3661E-03     88.9665E-03    -56.2200E-03     110.180E-03    -54.2159E-03     88.3098E-03
             588     10.2302E-03     77.9842E-03    -22.6805E+06    -78.6921E+06    -4.12005E+06     252.234E+03    -56.1912E-03     110.517E-03    -54.3258E-03     96.7829E-03    -56.5846E-03     110.562E-03    -54.1994E-03     95.9958E-03
             589     11.0830E-03     78.0849E-03    -21.0946E+06    -59.7238E+06    -4.52503E+06     510.038E+03    -56.3492E-03     110.624E-03    -54.2751E-03     104.625E-03    -56.9187E-03     110.920E-03    -54.1806E-03     103.686E-03
             590     11.9359E-03     78.1929E-03    -19.9527E+06    -31.7087E+06    -4.78790E+06     848.337E+03    -56.4438E-03     110.649E-03    -54.2047E-03     114.238E-03    -57.2910E-03     111.326E-03    -54.1538E-03     113.118E-03
             591     12.7893E-03     78.3129E-03    -18.8626E+06     10.9771E+06    -2.99391E+06     1.21064E+06    -56.9616E-03     111.082E-03    -54.1200E-03     129.356E-03    -58.3174E-03     112.418E-03    -54.1236E-03     127.992E-03
             592     13.6421E-03     78.4516E-03    -16.6053E+06     69.1055E+06     6.63304E+06     1.26306E+06    -58.1379E-03     112.190E-03    -54.0518E-03     158.057E-03    -60.5880E-03     114.807E-03    -54.0948E-03     156.370E-03
             593     14.4952E-03     78.6309E-03    -12.8919E+06     118.152E+06     37.1910E+06     467.212E+03    -60.7260E-03     114.808E-03    -54.0821E-03     214.508E-03    -66.1127E-03     120.461E-03    -54.0488E-03     212.583E-03
             594     15.3489E-03     78.8858E-03    -9.16103E+06     151.887E+06     84.9940E+06     433.266E+03    -64.1523E-03     118.379E-03    -54.2262E-03     271.717E-03    -74.6520E-03     129.138E-03    -54.0082E-03     271.183E-03
             595     16.1999E-03     79.1979E-03    -5.65892E+06     157.449E+06     105.157E+06     1.50293E+06    -60.0183E-03     114.350E-03    -54.3320E-03     179.359E-03    -67.9216E-03     122.488E-03    -54.0264E-03     180.888E-03
             596     852.400E-06     78.4450E-03    -54.6584E+06    -169.742E+06    -53.3324E+06     339.334E+03    -54.4505E-03     108.785E-03    -54.3349E-03     9.75921E-03    -54.4015E-03     108.095E-03    -54.2762E-03     9.73040E-03
             597     1.70487E-03     78.4584E-03    -53.0755E+06    -166.556E+06    -48.3852E+06     119.857E+03    -54.4561E-03     108.856E-03    -54.3999E-03     17.7428E-03    -54.4143E-03     108.175E-03    -54.3234E-03     17.6815E-03
             598     2.55721E-03     78.4806E-03    -50.3390E+06    -162.037E+06    -41.6630E+06     155.608E+03    -54.5380E-03     108.959E-03    -54.4205E-03     26.2475E-03    -54.5045E-03     108.292E-03    -54.3209E-03     26.1520E-03
             599     3.40968E-03     78.5110E-03    -47.0261E+06    -156.736E+06    -33.7682E+06     285.310E+03    -54.6338E-03     109.074E-03    -54.4404E-03     34.6540E-03    -54.6117E-03     108.427E-03    -54.3138E-03     34.5207E-03
             600     4.26214E-03     78.5500E-03    -43.5221E+06    -147.678E+06    -25.2676E+06     347.255E+03    -54.7482E-03     109.201E-03    -54.4526E-03     42.9598E-03    -54.7467E-03     108.594E-03    -54.3017E-03     42.7821E-03
             601     5.11469E-03     78.5971E-03    -39.6320E+06    -141.871E+06    -17.1561E+06     119.823E+03    -54.9026E-03     109.367E-03    -54.4643E-03     51.0027E-03    -54.9196E-03     108.789E-03    -54.2869E-03     50.7692E-03
             602     5.96719E-03     78.6521E-03    -35.6911E+06    -135.228E+06    -11.5514E+06    -164.875E+03    -55.0807E-03     109.542E-03    -54.4612E-03     58.8499E-03    -55.1200E-03     109.008E-03    -54.2711E-03     58.5512E-03
             603     6.81980E-03     78.7149E-03    -32.4076E+06    -121.394E+06    -8.23774E+06    -330.486E+03    -55.2616E-03     109.698E-03    -54.4360E-03     66.5502E-03    -55.3420E-03     109.256E-03    -54.2542E-03     66.1788E-03
             604     7.67240E-03     78.7854E-03    -29.5378E+06    -114.908E+06    -5.54198E+06    -341.923E+03    -55.4815E-03     109.901E-03    -54.4191E-03     73.9112E-03    -55.6047E-03     109.527E-03    -54.2373E-03     73.4563E-03
             605     8.52507E-03     78.8629E-03    -26.9601E+06    -107.355E+06    -4.61816E+06    -240.945E+03    -55.7164E-03     110.110E-03    -54.3937E-03     81.1598E-03    -55.8977E-03     109.828E-03    -54.2220E-03     80.6097E-03
             606     9.37767E-03     78.9479E-03    -24.7567E+06    -93.1183E+06    -4.44227E+06    -273.309E+03    -55.9720E-03     110.329E-03    -54.3571E-03     88.7352E-03    -56.2433E-03     110.195E-03    -54.2084E-03     88.0723E-03
             607     10.2303E-03     79.0407E-03    -22.8962E+06    -79.0796E+06    -4.41161E+06    -88.9891E+03    -56.2119E-03     110.533E-03    -54.3214E-03     96.4270E-03    -56.6055E-03     110.578E-03    -54.1956E-03     95.6339E-03
             608     11.0831E-03     79.1410E-03    -21.2378E+06    -60.2644E+06    -4.69445E+06     257.380E+03    -56.4044E-03     110.681E-03    -54.2766E-03     104.069E-03    -56.9730E-03     110.974E-03    -54.1819E-03     103.125E-03
             609     11.9358E-03     79.2494E-03    -19.8941E+06    -32.3843E+06    -4.84814E+06     887.451E+03    -56.7125E-03     110.933E-03    -54.2209E-03     113.370E-03    -57.5580E-03     111.607E-03    -54.1694E-03     112.243E-03
             610     12.7883E-03     79.3686E-03    -18.5697E+06     11.0944E+06    -2.37028E+06     911.851E+03    -57.3919E-03     111.555E-03    -54.1634E-03     128.761E-03    -58.7492E-03     112.893E-03    -54.1644E-03     127.379E-03
             611     13.6404E-03     79.5091E-03    -16.8749E+06     69.8417E+06     8.82283E+06    -323.482E+03    -58.5201E-03     112.650E-03    -54.1301E-03     157.003E-03    -60.9658E-03     115.258E-03    -54.1628E-03     155.284E-03
             612     14.4934E-03     79.6855E-03    -14.5340E+06     117.670E+06     38.0370E+06     79.7956E+03    -62.3727E-03     116.587E-03    -54.2142E-03     214.740E-03    -67.8328E-03     122.303E-03    -54.1736E-03     212.696E-03
             613     15.3429E-03     79.9455E-03    -11.0452E+06     150.679E+06     83.3316E+06     2.12567E+06    -66.0551E-03     120.481E-03    -54.4262E-03     275.945E-03    -76.8507E-03     131.531E-03    -54.2121E-03     275.315E-03
             614     16.1940E-03     80.2524E-03    -5.59523E+06     158.187E+06     104.890E+06     1.71337E+06    -57.9889E-03     112.491E-03    -54.5016E-03     183.386E-03    -66.1150E-03     120.854E-03    -54.1984E-03     185.042E-03
             615     852.478E-06     79.5014E-03    -55.0271E+06    -170.085E+06    -53.9668E+06     141.392E+03    -54.4203E-03     108.763E-03    -54.3425E-03     9.69600E-03    -54.3718E-03     108.072E-03    -54.2859E-03     9.66469E-03
             616     1.70481E-03     79.5150E-03    -53.0974E+06    -166.611E+06    -48.5719E+06     233.754E+03    -54.4451E-03     108.834E-03    -54.3889E-03     17.7311E-03    -54.4031E-03     108.153E-03    -54.3132E-03     17.6712E-03
             617     2.55730E-03     79.5370E-03    -50.6788E+06    -162.114E+06    -41.5725E+06     164.651E+03    -54.5215E-03     108.932E-03    -54.4106E-03     26.2354E-03    -54.4897E-03     108.265E-03    -54.3099E-03     26.1400E-03
             618     3.40972E-03     79.5676E-03    -47.6552E+06    -157.009E+06    -33.8389E+06     224.159E+03    -54.6213E-03     109.051E-03    -54.4300E-03     34.6373E-03    -54.6018E-03     108.403E-03    -54.3025E-03     34.5031E-03
             619     4.26221E-03     79.6064E-03    -43.8571E+06    -147.459E+06    -25.3414E+06     72.5078E+03    -54.7366E-03     109.178E-03    -54.4415E-03     42.9251E-03    -54.7370E-03     108.573E-03    -54.2908E-03     42.7437E-03
             620     5.11473E-03     79.6536E-03    -39.7764E+06    -141.494E+06    -17.2772E+06    -269.901E+03    -54.9005E-03     109.354E-03    -54.4535E-03     50.9512E-03    -54.9187E-03     108.779E-03    -54.2771E-03     50.7122E-03
             621     5.96727E-03     79.7086E-03    -36.0857E+06    -135.117E+06    -11.7919E+06    -363.879E+03    -55.0949E-03     109.548E-03    -54.4533E-03     58.7590E-03    -55.1362E-03     109.016E-03    -54.2641E-03     58.4571E-03
             622     6.81982E-03     79.7714E-03    -32.6862E+06    -121.131E+06    -8.55858E+06    -440.930E+03    -55.2887E-03     109.720E-03    -54.4315E-03     66.4325E-03    -55.3705E-03     109.281E-03    -54.2513E-03     66.0587E-03
             623     7.67242E-03     79.8418E-03    -29.6875E+06    -114.968E+06    -5.99157E+06    -501.440E+03    -55.5262E-03     109.945E-03    -54.4192E-03     73.7597E-03    -55.6496E-03     109.573E-03    -54.2394E-03     73.3015E-03
             624     8.52494E-03     79.9194E-03    -27.0915E+06    -107.324E+06    -5.02250E+06    -515.169E+03    -55.7842E-03     110.184E-03    -54.3999E-03     80.9992E-03    -55.9659E-03     109.903E-03    -54.2301E-03     80.4438E-03
             625     9.37752E-03     80.0044E-03    -24.8701E+06    -93.0862E+06    -5.02629E+06    -505.873E+03    -56.0338E-03     110.402E-03    -54.3684E-03     88.5445E-03    -56.3050E-03     110.269E-03    -54.2225E-03     87.8770E-03
             626     10.2301E-03     80.0972E-03    -22.9980E+06    -79.4836E+06    -5.09650E+06    -333.272E+03    -56.3000E-03     110.639E-03    -54.3388E-03     96.1893E-03    -56.6925E-03     110.682E-03    -54.2157E-03     95.3913E-03
             627     11.0826E-03     80.1976E-03    -21.5392E+06    -60.8887E+06    -5.58151E+06     34.7481E+03    -56.5718E-03     110.874E-03    -54.3026E-03     103.876E-03    -57.1397E-03     111.166E-03    -54.2110E-03     102.926E-03
             628     11.9350E-03     80.3058E-03    -19.9141E+06    -33.0546E+06    -5.73030E+06     334.092E+03    -56.9387E-03     111.197E-03    -54.2583E-03     113.586E-03    -57.7823E-03     111.869E-03    -54.2101E-03     112.449E-03
             629     12.7872E-03     80.4259E-03    -18.2748E+06     11.2651E+06    -2.92657E+06     319.236E+03    -57.5396E-03     111.748E-03    -54.2080E-03     129.598E-03    -58.8977E-03     113.089E-03    -54.2124E-03     128.207E-03
             630     13.6399E-03     80.5656E-03    -17.4127E+06     70.1622E+06     9.07808E+06     359.976E+03    -58.6306E-03     112.811E-03    -54.1802E-03     158.063E-03    -61.0815E-03     115.423E-03    -54.2113E-03     156.352E-03
             631     14.4919E-03     80.7428E-03    -16.0445E+06     116.430E+06     37.1539E+06     743.136E+03    -62.4840E-03     116.737E-03    -54.2527E-03     218.036E-03    -68.0271E-03     122.528E-03    -54.2125E-03     215.997E-03
             632     15.3456E-03     81.0054E-03    -11.6487E+06     149.941E+06     81.8853E+06     1.47114E+06    -65.5788E-03     120.010E-03    -54.4309E-03     278.450E-03    -76.4871E-03     131.171E-03    -54.2220E-03     277.912E-03
             633     16.1998E-03     81.3104E-03    -4.77331E+06     159.262E+06     105.310E+06     1.35871E+06    -57.5679E-03     112.051E-03    -54.4828E-03     180.699E-03    -65.6709E-03     120.397E-03    -54.1803E-03     182.406E-03
             634     852.329E-06     80.5579E-03    -55.0883E+06    -170.018E+06    -54.0085E+06    -53.0978E+03    -54.3858E-03     108.777E-03    -54.3910E-03     9.66971E-03    -54.3377E-03     108.087E-03    -54.3346E-03     9.63588E-03
             635     1.70487E-03     80.5714E-03    -53.4143E+06    -166.928E+06    -49.1164E+06     27.5016E+03    -54.4311E-03     108.821E-03    -54.3902E-03     17.7556E-03    -54.3895E-03     108.140E-03    -54.3163E-03     17.6928E-03
             636     2.55727E-03     80.5935E-03    -50.6282E+06    -162.286E+06    -41.9538E+06     310.411E+03    -54.5161E-03     108.923E-03    -54.4071E-03     26.1935E-03    -54.4834E-03     108.256E-03    -54.3081E-03     26.0995E-03
             637     3.40975E-03     80.6240E-03    -47.3591E+06    -156.946E+06    -33.9965E+06     177.936E+03    -54.6222E-03     109.049E-03    -54.4266E-03     34.5781E-03    -54.6011E-03     108.401E-03    -54.3003E-03     34.4428E-03
             638     4.26222E-03     80.6630E-03    -43.8305E+06    -147.009E+06    -25.7336E+06    -183.657E+03    -54.7473E-03     109.186E-03    -54.4383E-03     42.8537E-03    -54.7477E-03     108.583E-03    -54.2903E-03     42.6685E-03
             639     5.11474E-03     80.7100E-03    -40.2625E+06    -141.215E+06    -17.9854E+06    -380.980E+03    -54.9181E-03     109.371E-03    -54.4527E-03     50.8737E-03    -54.9382E-03     108.799E-03    -54.2795E-03     50.6328E-03
             640     5.96722E-03     80.7651E-03    -36.4888E+06    -134.815E+06    -12.5322E+06    -658.582E+03    -55.1259E-03     109.582E-03    -54.4559E-03     58.6724E-03    -55.1686E-03     109.053E-03    -54.2702E-03     58.3660E-03
             641     6.81974E-03     80.8279E-03    -32.8757E+06    -120.900E+06    -9.44194E+06    -918.131E+03    -55.3333E-03     109.771E-03    -54.4376E-03     66.3478E-03    -55.4153E-03     109.334E-03    -54.2618E-03     65.9670E-03
             642     7.67224E-03     80.8984E-03    -29.6559E+06    -115.072E+06    -6.76632E+06    -863.658E+03    -55.5752E-03     110.005E-03    -54.4302E-03     73.7052E-03    -55.6974E-03     109.633E-03    -54.2542E-03     73.2414E-03
             643     8.52477E-03     80.9759E-03     -26.935E+06    -107.164E+06    -5.53639E+06    -818.166E+03    -55.8344E-03     110.250E-03    -54.4152E-03     81.0015E-03    -56.0149E-03     109.970E-03    -54.2485E-03     80.4416E-03
             644     9.37724E-03     81.0610E-03    -24.7638E+06    -93.1840E+06    -5.70019E+06    -748.094E+03    -56.0785E-03     110.464E-03    -54.3858E-03     88.5891E-03    -56.3481E-03     110.332E-03    -54.2433E-03     87.9184E-03
             645     10.2297E-03     81.1536E-03    -23.0449E+06    -79.9053E+06    -5.97538E+06    -482.750E+03    -56.3365E-03     110.693E-03    -54.3568E-03     96.4158E-03    -56.7273E-03     110.736E-03    -54.2374E-03     95.6164E-03
             646     11.0823E-03     81.2543E-03    -21.4344E+06    -61.2017E+06    -6.26285E+06    -188.787E+03    -56.5843E-03     110.904E-03    -54.3198E-03     104.342E-03    -57.1502E-03     111.195E-03    -54.2313E-03     103.391E-03
             647     11.9347E-03     81.3625E-03    -20.2470E+06    -33.3052E+06    -6.72824E+06    -276.919E+03    -56.8292E-03     111.096E-03    -54.2670E-03     114.324E-03    -57.6730E-03     111.769E-03    -54.2230E-03     113.183E-03
             648     12.7877E-03     81.4826E-03    -19.4372E+06     11.2320E+06    -4.17280E+06    -99.1994E+03    -57.2948E-03     111.495E-03    -54.2001E-03     130.541E-03    -58.6555E-03     112.839E-03    -54.2091E-03     129.156E-03
             649     13.6401E-03     81.6228E-03    -17.9834E+06     69.6292E+06     6.57200E+06     1.08381E+06    -58.2876E-03     112.431E-03    -54.1432E-03     159.021E-03    -60.7370E-03     115.044E-03    -54.1852E-03     157.335E-03
             650     14.4939E-03     81.7994E-03    -15.6542E+06     116.130E+06     35.9679E+06     1.74243E+06    -62.4196E-03     116.621E-03    -54.2014E-03     219.855E-03    -68.0031E-03     122.457E-03    -54.1673E-03     217.833E-03
             651     15.3454E-03     82.0635E-03    -12.1245E+06     149.382E+06     81.9883E+06     950.664E+03    -65.2875E-03     119.666E-03    -54.3781E-03     277.843E-03    -76.1909E-03     130.818E-03    -54.1671E-03     277.382E-03
             652     16.1962E-03     82.3658E-03    -5.13819E+06     159.356E+06     105.126E+06     289.528E+03    -57.5567E-03     111.990E-03    -54.4337E-03     176.839E-03    -65.5733E-03     120.250E-03    -54.1317E-03     178.553E-03
             653     852.481E-06     81.6143E-03    -55.4597E+06    -170.125E+06    -54.0351E+06     169.166E+03    -54.3569E-03     108.783E-03    -54.4265E-03     9.62795E-03    -54.3104E-03     108.093E-03    -54.3696E-03     9.59705E-03
             654     1.70481E-03     81.6280E-03    -53.9445E+06    -167.030E+06    -49.1006E+06     137.662E+03    -54.4466E-03     108.845E-03    -54.3979E-03     17.7570E-03    -54.4075E-03     108.163E-03    -54.3230E-03     17.6955E-03
             655     2.55726E-03     81.6500E-03    -51.2532E+06    -162.418E+06    -42.3784E+06    -51.4271E+03    -54.5254E-03     108.941E-03    -54.4160E-03     26.1747E-03    -54.4950E-03     108.275E-03    -54.3180E-03     26.0760E-03
             656     3.40968E-03     81.6806E-03    -47.7180E+06    -156.725E+06    -34.0082E+06    -89.5607E+03    -54.6383E-03     109.076E-03    -54.4379E-03     34.5509E-03    -54.6194E-03     108.430E-03    -54.3115E-03     34.4121E-03
             657     4.26216E-03     81.7194E-03    -44.0973E+06    -146.698E+06    -25.8983E+06    -168.152E+03    -54.7710E-03     109.222E-03    -54.4509E-03     42.7968E-03    -54.7730E-03     108.622E-03    -54.3038E-03     42.6116E-03
             658     5.11462E-03     81.7667E-03    -40.2106E+06    -140.637E+06    -18.7194E+06    -602.345E+03    -54.9410E-03     109.405E-03    -54.4636E-03     50.8202E-03    -54.9606E-03     108.836E-03    -54.2950E-03     50.5761E-03
             659     5.96711E-03     81.8216E-03    -36.4103E+06    -134.173E+06    -13.4625E+06    -1.12840E+06    -55.1468E-03     109.613E-03    -54.4667E-03     58.6622E-03    -55.1887E-03     109.089E-03    -54.2867E-03     58.3495E-03
             660     6.81960E-03     81.8845E-03    -33.1020E+06    -120.659E+06    -10.4034E+06    -1.34720E+06    -55.3497E-03     109.799E-03    -54.4495E-03     66.3546E-03    -55.4318E-03     109.366E-03    -54.2786E-03     65.9683E-03
             661     7.67212E-03     81.9549E-03    -30.1133E+06    -115.005E+06    -7.71562E+06    -1.46864E+06    -55.5851E-03     110.027E-03    -54.4423E-03     73.7761E-03    -55.7082E-03     109.658E-03    -54.2705E-03     73.3048E-03
             662     8.52460E-03     82.0326E-03    -27.2963E+06    -107.238E+06    -6.29186E+06    -1.37354E+06    -55.8170E-03     110.243E-03    -54.4261E-03     81.1216E-03    -55.9980E-03     109.965E-03    -54.2625E-03     80.5554E-03
             663     9.37716E-03     82.1175E-03    -24.9289E+06    -93.3907E+06    -6.17005E+06    -1.13600E+06    -56.0319E-03     110.425E-03    -54.3932E-03     88.7615E-03    -56.3010E-03     110.292E-03    -54.2525E-03     88.0872E-03
             664     10.2298E-03     82.2103E-03    -22.8363E+06    -80.1877E+06    -6.32369E+06    -936.134E+03    -56.2643E-03     110.622E-03    -54.3577E-03     96.6834E-03    -56.6530E-03     110.663E-03    -54.2399E-03     95.8799E-03
             665     11.0824E-03     82.3108E-03    -21.0188E+06    -61.5327E+06    -6.54019E+06    -719.585E+03    -56.4227E-03     110.733E-03    -54.3104E-03     104.612E-03    -56.9847E-03     111.021E-03    -54.2234E-03     103.658E-03
             666     11.9353E-03     82.4191E-03    -19.8512E+06    -33.5587E+06    -6.74546E+06    -68.5103E+03    -56.6262E-03     110.871E-03    -54.2451E-03     114.576E-03    -57.4679E-03     111.543E-03    -54.2014E-03     113.441E-03
             667     12.7879E-03     82.5390E-03    -19.3858E+06     10.4483E+06    -4.52301E+06     656.294E+03    -57.0021E-03     111.164E-03    -54.1618E-03     130.645E-03    -58.3564E-03     112.500E-03    -54.1715E-03     129.279E-03
             668     13.6415E-03     82.6792E-03    -18.2097E+06     69.2423E+06     6.03912E+06     600.481E+03    -58.2491E-03     112.345E-03    -54.0959E-03     158.772E-03    -60.6994E-03     114.959E-03    -54.1397E-03     157.080E-03
             669     14.4944E-03     82.8553E-03    -15.7607E+06     116.088E+06     34.1851E+06     1.01115E+06    -62.5041E-03     116.654E-03    -54.1503E-03     220.243E-03    -68.0974E-03     122.505E-03    -54.1249E-03     218.205E-03
             670     15.3463E-03     83.1246E-03    -11.9182E+06     149.223E+06     80.8507E+06     1.10192E+06    -64.7280E-03     119.046E-03    -54.3182E-03     277.544E-03    -75.5730E-03     130.144E-03    -54.1130E-03     277.167E-03
             671     16.2017E-03     83.4203E-03    -5.87618E+06     159.977E+06     105.426E+06     247.650E+03    -58.0647E-03     112.450E-03    -54.3850E-03     176.105E-03    -66.0417E-03     120.668E-03    -54.0813E-03     177.865E-03
             672     852.346E-06     82.6708E-03    -55.7492E+06    -170.480E+06    -54.8282E+06     165.660E+03    -54.4317E-03     108.826E-03    -54.3942E-03     9.61244E-03    -54.3850E-03     108.136E-03    -54.3403E-03     9.58143E-03
             673     1.70482E-03     82.6844E-03    -53.9220E+06    -167.055E+06    -49.6993E+06     185.409E+03    -54.4642E-03     108.881E-03    -54.4165E-03     17.7377E-03    -54.4240E-03     108.200E-03    -54.3445E-03     17.6767E-03
             674     2.55720E-03     82.7065E-03    -51.3424E+06    -162.035E+06    -42.1139E+06    -60.0059E+03    -54.5474E-03     108.985E-03    -54.4377E-03     26.1505E-03    -54.5183E-03     108.321E-03    -54.3388E-03     26.0517E-03
             675     3.40965E-03     82.7371E-03    -48.0944E+06    -156.546E+06    -33.9076E+06    -388.221E+03    -54.6614E-03     109.122E-03    -54.4605E-03     34.5313E-03    -54.6448E-03     108.477E-03    -54.3333E-03     34.3885E-03
             676     4.26203E-03     82.7761E-03    -44.0257E+06    -146.374E+06    -26.1913E+06    -608.807E+03    -54.7848E-03     109.255E-03    -54.4704E-03     42.7895E-03    -54.7865E-03     108.657E-03    -54.3253E-03     42.5984E-03
             677     5.11452E-03     82.8231E-03    -40.0957E+06    -139.706E+06    -19.8144E+06    -1.05920E+06    -54.9523E-03     109.429E-03    -54.4766E-03     50.8434E-03    -54.9711E-03     108.867E-03    -54.3149E-03     50.5934E-03
             678     5.96699E-03     82.8782E-03    -36.4724E+06    -133.451E+06    -14.6745E+06    -1.58713E+06    -55.1443E-03     109.622E-03    -54.4772E-03     58.7001E-03    -55.1858E-03     109.102E-03    -54.3042E-03     58.3818E-03
             679     6.81950E-03     82.9410E-03    -33.0149E+06    -120.356E+06    -10.8204E+06    -1.83843E+06    -55.3337E-03     109.795E-03    -54.4608E-03     66.4052E-03    -55.4151E-03     109.363E-03    -54.2926E-03     66.0129E-03
             680     7.67204E-03     83.0115E-03    -29.9802E+06    -114.679E+06    -7.96185E+06    -1.89430E+06    -55.5576E-03     110.008E-03    -54.4502E-03     73.8463E-03    -55.6800E-03     109.640E-03    -54.2802E-03     73.3700E-03
             681     8.52459E-03     83.0891E-03    -27.4430E+06    -107.283E+06    -6.76477E+06    -1.93145E+06    -55.7595E-03     110.188E-03    -54.4283E-03     81.1691E-03    -55.9401E-03     109.910E-03    -54.2668E-03     80.5967E-03
             682     9.37725E-03     83.1740E-03    -25.0442E+06    -93.5218E+06    -6.63092E+06    -1.81211E+06    -55.9664E-03     110.356E-03    -54.3894E-03     88.7994E-03    -56.2352E-03     110.223E-03    -54.2507E-03     88.1171E-03
             683     10.2299E-03     83.2668E-03    -22.9337E+06    -80.2543E+06    -6.82206E+06    -1.70132E+06    -56.1718E-03     110.519E-03    -54.3472E-03     96.6448E-03    -56.5597E-03     110.560E-03    -54.2317E-03     95.8328E-03
             684     11.0827E-03     83.3673E-03    -21.3641E+06    -62.0374E+06    -7.26850E+06    -1.32600E+06    -56.3119E-03     110.605E-03    -54.2931E-03     104.418E-03    -56.8737E-03     110.892E-03    -54.2085E-03     103.457E-03
             685     11.9355E-03     83.4752E-03    -19.7435E+06    -34.9103E+06    -7.50710E+06    -431.157E+03    -56.5033E-03     110.725E-03    -54.2219E-03     114.270E-03    -57.3404E-03     111.390E-03    -54.1802E-03     113.132E-03
             686     12.7888E-03     83.5955E-03    -18.0679E+06     9.11830E+06    -4.89726E+06     960.348E+03    -56.9783E-03     111.115E-03    -54.1370E-03     129.982E-03    -58.3219E-03     112.441E-03    -54.1485E-03     128.618E-03
             687     13.6417E-03     83.7346E-03    -17.3978E+06     69.2081E+06     6.61935E+06     1.50865E+06    -58.5510E-03     112.637E-03    -54.0855E-03     158.813E-03    -61.0115E-03     115.262E-03    -54.1276E-03     157.115E-03
             688     14.4932E-03     83.9143E-03    -16.0029E+06     116.481E+06     35.3003E+06     490.562E+03    -61.7812E-03     115.914E-03    -54.1332E-03     220.149E-03    -67.3414E-03     121.729E-03    -54.1024E-03     218.163E-03
             689     15.3477E-03     84.1782E-03    -11.1934E+06     149.522E+06     81.7340E+06     315.627E+03    -63.3539E-03     117.591E-03    -54.2368E-03     278.303E-03    -74.0880E-03     128.579E-03    -54.0287E-03     278.011E-03
             690     16.1999E-03     84.4778E-03    -5.93801E+06     160.425E+06     105.249E+06     560.325E+03    -59.3750E-03     113.661E-03    -54.2864E-03     179.539E-03    -67.3409E-03     121.871E-03    -53.9841E-03     181.284E-03
             691     852.378E-06     83.7273E-03    -56.2561E+06    -170.443E+06    -55.3802E+06    -373.327E+03    -54.5070E-03     108.889E-03    -54.3816E-03     9.56877E-03    -54.4621E-03     108.200E-03    -54.3298E-03     9.53067E-03
             692     1.70471E-03     83.7410E-03    -54.3835E+06    -167.169E+06    -50.2360E+06    -156.935E+03    -54.4876E-03     108.934E-03    -54.4462E-03     17.7445E-03    -54.4489E-03     108.254E-03    -54.3762E-03     17.6790E-03
             693     2.55714E-03     83.7631E-03    -51.5011E+06    -161.586E+06    -42.6620E+06    -221.132E+03    -54.5681E-03     109.031E-03    -54.4632E-03     26.1652E-03    -54.5396E-03     108.370E-03    -54.3675E-03     26.0642E-03
             694     3.40948E-03     83.7937E-03    -47.8245E+06    -155.732E+06    -34.3400E+06    -789.007E+03    -54.6668E-03     109.148E-03    -54.4816E-03     34.5458E-03    -54.6494E-03     108.508E-03    -54.3582E-03     34.3979E-03
             695     4.26197E-03     83.8326E-03    -44.0377E+06    -145.983E+06    -26.9468E+06    -1.24700E+06    -54.7819E-03     109.268E-03    -54.4860E-03     42.8236E-03    -54.7831E-03     108.673E-03    -54.3452E-03     42.6244E-03
             696     5.11444E-03     83.8798E-03    -40.2370E+06    -138.740E+06    -20.4978E+06    -1.55660E+06    -54.9503E-03     109.438E-03    -54.4880E-03     50.8863E-03    -54.9702E-03     108.882E-03    -54.3309E-03     50.6300E-03
             697     5.96691E-03     83.9348E-03    -36.5961E+06    -132.482E+06    -15.2354E+06    -2.16505E+06    -55.1319E-03     109.618E-03    -54.4860E-03     58.7227E-03    -55.1745E-03     109.104E-03    -54.3170E-03     58.3970E-03
             698     6.81945E-03     83.9976E-03    -33.1979E+06    -119.966E+06    -11.5377E+06    -2.53813E+06    -55.3128E-03     109.779E-03    -54.4661E-03     66.4418E-03    -55.3946E-03     109.350E-03    -54.3017E-03     66.0406E-03
             699     7.67200E-03     84.0681E-03    -30.0434E+06    -114.499E+06    -8.65007E+06    -2.50687E+06    -55.5229E-03     109.974E-03    -54.4515E-03     73.8401E-03    -55.6448E-03     109.608E-03    -54.2852E-03     73.3561E-03
             700     8.52461E-03     84.1456E-03    -27.2046E+06    -106.997E+06    -7.28626E+06    -2.45987E+06    -55.7275E-03     110.154E-03    -54.4261E-03     81.1084E-03    -55.9067E-03     109.878E-03    -54.2680E-03     80.5290E-03
             701     9.37724E-03     84.2305E-03    -24.8512E+06    -93.4916E+06    -7.24191E+06    -2.52586E+06    -55.9465E-03     110.331E-03    -54.3850E-03     88.7190E-03    -56.2136E-03     110.199E-03    -54.2496E-03     88.0270E-03
             702     10.2300E-03     84.3232E-03    -23.0394E+06    -80.5635E+06    -7.47256E+06    -2.18127E+06    -56.1657E-03     110.509E-03    -54.3430E-03     96.4217E-03    -56.5529E-03     110.550E-03    -54.2302E-03     95.6026E-03
             703     11.0827E-03     84.4234E-03    -21.6466E+06    -62.5762E+06    -7.93685E+06    -1.66192E+06    -56.3639E-03     110.656E-03    -54.2925E-03     104.064E-03    -56.9258E-03     110.942E-03    -54.2101E-03     103.096E-03
             704     11.9355E-03     84.5316E-03    -20.7482E+06    -35.9975E+06    -8.53582E+06    -1.12822E+06    -56.5886E-03     110.817E-03    -54.2283E-03     113.646E-03    -57.4276E-03     111.479E-03    -54.1887E-03     112.496E-03
             705     12.7883E-03     84.6512E-03    -19.4862E+06     7.12265E+06    -6.37424E+06    -45.2942E+03    -57.1327E-03     111.286E-03    -54.1532E-03     129.465E-03    -58.4801E-03     112.608E-03    -54.1671E-03     128.082E-03
             706     13.6409E-03     84.7919E-03    -17.1746E+06     68.1859E+06     4.56668E+06     1.19550E+06    -58.4455E-03     112.542E-03    -54.0965E-03     158.956E-03    -60.9052E-03     115.170E-03    -54.1476E-03     157.255E-03
             707     14.4946E-03     84.9709E-03    -14.5797E+06     117.289E+06     35.5165E+06     1.40438E+06    -60.9008E-03     115.029E-03    -54.1281E-03     217.846E-03    -66.3528E-03     120.742E-03    -54.0994E-03     215.939E-03
             708     15.3496E-03     85.2314E-03    -10.1646E+06     149.945E+06     83.5385E+06     418.293E+03    -63.1153E-03     117.339E-03    -54.2233E-03     275.491E-03    -73.6744E-03     128.151E-03    -54.0083E-03     275.156E-03
             709     16.2083E-03     85.5353E-03    -5.47373E+06     160.866E+06     105.554E+06     454.388E+03    -59.8387E-03     114.118E-03    -54.2796E-03     180.154E-03    -67.7561E-03     122.281E-03    -53.9771E-03     181.800E-03
             710     852.322E-06     84.7841E-03    -56.6977E+06    -169.732E+06    -55.3525E+06    -517.225E+03    -54.4755E-03     108.937E-03    -54.4619E-03     9.56039E-03    -54.4339E-03     108.253E-03    -54.4103E-03     9.52022E-03
             711     1.70470E-03     84.7976E-03    -54.9457E+06    -167.079E+06    -50.7994E+06    -535.816E+03    -54.5146E-03     108.985E-03    -54.4709E-03     17.7542E-03    -54.4780E-03     108.308E-03    -54.4029E-03     17.6839E-03
             712     2.55703E-03     84.8198E-03    -52.1046E+06    -160.713E+06    -44.2892E+06    -976.608E+03    -54.5651E-03     109.043E-03    -54.4778E-03     26.2187E-03    -54.5386E-03     108.389E-03    -54.3907E-03     26.1080E-03
             713     3.40950E-03     84.8503E-03    -48.5973E+06    -154.887E+06    -35.7222E+06    -1.41176E+06    -54.6608E-03     109.152E-03    -54.4912E-03     34.5815E-03    -54.6465E-03     108.519E-03    -54.3747E-03     34.4257E-03
             714     4.26190E-03     84.8892E-03    -44.8600E+06    -145.236E+06    -27.5950E+06    -1.69808E+06    -54.7847E-03     109.281E-03    -54.4962E-03     42.8556E-03    -54.7901E-03     108.692E-03    -54.3585E-03     42.6506E-03
             715     5.11437E-03     84.9364E-03    -40.9274E+06    -137.559E+06    -21.0942E+06    -2.40222E+06    -54.9408E-03     109.436E-03    -54.4955E-03     50.9095E-03    -54.9650E-03     108.888E-03    -54.3422E-03     50.6422E-03
             716     5.96688E-03     84.9914E-03    -36.9110E+06    -131.398E+06    -15.7237E+06    -3.01509E+06    -55.1261E-03     109.618E-03    -54.4914E-03     58.7244E-03    -55.1713E-03     109.111E-03    -54.3260E-03     58.3875E-03
             717     6.81939E-03     85.0541E-03    -33.3131E+06    -119.389E+06    -12.2671E+06    -3.32732E+06    -55.3075E-03     109.777E-03    -54.4692E-03     66.4193E-03    -55.3896E-03     109.352E-03    -54.3091E-03     66.0077E-03
             718     7.67198E-03     85.1246E-03    -30.1321E+06    -114.310E+06    -9.43438E+06    -3.36712E+06    -55.5128E-03     109.966E-03    -54.4535E-03     73.7812E-03    -55.6344E-03     109.602E-03    -54.2912E-03     73.2859E-03
             719     8.52457E-03     85.2020E-03    -27.1757E+06    -106.627E+06    -7.77997E+06    -3.43142E+06    -55.7445E-03     110.174E-03    -54.4291E-03     81.0290E-03    -55.9236E-03     109.900E-03    -54.2740E-03     80.4362E-03
             720     9.37721E-03     85.2870E-03    -24.5651E+06    -93.4258E+06    -7.51158E+06    -3.31247E+06    -55.9906E-03     110.382E-03    -54.3918E-03     88.5627E-03    -56.2563E-03     110.251E-03    -54.2583E-03     87.8592E-03
             721     10.2298E-03     85.3796E-03    -22.3711E+06    -81.2995E+06    -7.71007E+06    -2.73233E+06    -56.2491E-03     110.605E-03    -54.3558E-03     96.1962E-03    -56.6318E-03     110.642E-03    -54.2440E-03     95.3679E-03
             722     11.0824E-03     85.4800E-03    -20.6909E+06    -63.3610E+06    -7.97557E+06    -1.78847E+06    -56.4983E-03     110.812E-03    -54.3137E-03     103.863E-03    -57.0549E-03     111.093E-03    -54.2317E-03     102.890E-03
             723     11.9350E-03     85.5879E-03    -19.6960E+06    -36.8595E+06    -8.44398E+06    -746.069E+03    -56.7789E-03     111.039E-03    -54.2606E-03     113.457E-03    -57.6131E-03     111.697E-03    -54.2208E-03     112.306E-03
             724     12.7875E-03     85.7078E-03    -19.2607E+06     6.02798E+06    -8.07622E+06    -340.705E+03    -57.2908E-03     111.478E-03    -54.1876E-03     129.480E-03    -58.6364E-03     112.800E-03    -54.2088E-03     128.087E-03
             725     13.6406E-03     85.8480E-03    -18.4367E+06     67.3409E+06     2.45897E+06    -408.965E+03    -58.2049E-03     112.331E-03    -54.1265E-03     158.663E-03    -60.6554E-03     114.948E-03    -54.1852E-03     156.956E-03
             726     14.4930E-03     86.0271E-03    -15.0246E+06     117.670E+06     34.3487E+06     156.023E+03    -61.2751E-03     115.444E-03    -54.1691E-03     215.729E-03    -66.7018E-03     121.136E-03    -54.1462E-03     213.766E-03
             727     15.3470E-03     86.2832E-03    -10.3694E+06     149.705E+06     81.8829E+06     1.02781E+06    -64.8057E-03     119.135E-03    -54.3293E-03     274.047E-03    -75.4046E-03     129.991E-03    -54.1219E-03     273.504E-03
             728     16.1931E-03     86.5918E-03    -5.96360E+06     160.556E+06     105.115E+06     1.00193E+06    -58.9209E-03     113.335E-03    -54.4136E-03     181.429E-03    -66.9206E-03     121.578E-03    -54.1122E-03     183.062E-03
             729     852.343E-06     85.8407E-03    -56.6723E+06    -169.111E+06    -55.3174E+06     10.6952E+03    -54.4657E-03     108.963E-03    -54.4971E-03     9.66118E-03    -54.4249E-03     108.281E-03    -54.4463E-03     9.62787E-03
             730     1.70463E-03     85.8543E-03    -55.0046E+06    -165.877E+06    -50.7199E+06    -898.546E+03    -54.5229E-03     109.005E-03    -54.4824E-03     17.7527E-03    -54.4884E-03     108.334E-03    -54.4157E-03     17.6776E-03
             731     2.55705E-03     85.8763E-03    -52.3989E+06    -159.600E+06    -44.4323E+06    -1.59640E+06    -54.5632E-03     109.050E-03    -54.4865E-03     26.2322E-03    -54.5396E-03     108.402E-03    -54.4013E-03     26.1135E-03
             732     3.40943E-03     85.9069E-03    -49.2815E+06    -154.198E+06    -36.3505E+06    -1.79421E+06    -54.6682E-03     109.165E-03    -54.4972E-03     34.5951E-03    -54.6573E-03     108.538E-03    -54.3839E-03     34.4342E-03
             733     4.26187E-03     85.9458E-03    -45.4278E+06    -143.852E+06    -28.2688E+06    -2.43139E+06    -54.7939E-03     109.295E-03    -54.5013E-03     42.8601E-03    -54.8032E-03     108.715E-03    -54.3682E-03     42.6454E-03
             734     5.11435E-03     85.9930E-03    -41.2362E+06    -135.880E+06    -21.4985E+06    -3.41315E+06    -54.9428E-03     109.444E-03    -54.5013E-03     50.8925E-03    -54.9704E-03     108.905E-03    -54.3519E-03     50.6119E-03
             735     5.96682E-03     86.0479E-03    -37.2977E+06    -130.422E+06    -16.3636E+06    -4.06430E+06    -55.1290E-03     109.626E-03    -54.4966E-03     58.7120E-03    -55.1766E-03     109.125E-03    -54.3352E-03     58.3613E-03
             736     6.81934E-03     86.1108E-03    -33.6736E+06    -118.572E+06    -12.8614E+06    -4.32469E+06    -55.3188E-03     109.794E-03    -54.4750E-03     66.3751E-03    -55.4032E-03     109.375E-03    -54.3185E-03     65.9501E-03
             737     7.67189E-03     86.1810E-03    -30.2172E+06    -113.807E+06    -10.0267E+06    -4.57581E+06    -55.5398E-03     110.001E-03    -54.4608E-03     73.7172E-03    -55.6618E-03     109.640E-03    -54.3021E-03     73.2055E-03
             738     8.52447E-03     86.2586E-03    -27.0205E+06    -106.139E+06    -8.40173E+06    -4.64245E+06    -55.7908E-03     110.230E-03    -54.4388E-03     80.9824E-03    -55.9691E-03     109.960E-03    -54.2877E-03     80.3731E-03
             739     9.37696E-03     86.3435E-03    -24.3580E+06    -93.6818E+06    -8.08133E+06    -4.37412E+06    -56.0583E-03     110.465E-03    -54.4068E-03     88.5162E-03    -56.3220E-03     110.333E-03    -54.2760E-03     87.7979E-03
             740     10.2295E-03     86.4362E-03    -22.1801E+06    -81.9709E+06    -8.45355E+06    -3.71384E+06    -56.3338E-03     110.709E-03    -54.3752E-03     96.2154E-03    -56.7139E-03     110.744E-03    -54.2665E-03     95.3731E-03
             741     11.0821E-03     86.5364E-03    -20.0086E+06    -64.7928E+06    -8.67267E+06    -2.74783E+06    -56.5710E-03     110.909E-03    -54.3376E-03     103.970E-03    -57.1216E-03     111.183E-03    -54.2580E-03     102.984E-03
             742     11.9346E-03     86.6448E-03    -17.6317E+06    -38.5120E+06    -8.47350E+06    -1.39927E+06    -56.8793E-03     111.168E-03    -54.2891E-03     113.681E-03    -57.7017E-03     111.816E-03    -54.2500E-03     112.520E-03
             743     12.7873E-03     86.7641E-03    -16.0619E+06     5.23464E+06    -6.93636E+06     182.524E+03    -57.4338E-03     111.657E-03    -54.2233E-03     129.734E-03    -58.7691E-03     112.974E-03    -54.2423E-03     128.342E-03
             744     13.6394E-03     86.9049E-03    -15.9174E+06     67.7948E+06     5.68539E+06     1.16686E+06    -58.4108E-03     112.591E-03    -54.1806E-03     158.147E-03    -60.8437E-03     115.192E-03    -54.2274E-03     156.458E-03
             745     14.4940E-03     87.0817E-03    -15.7748E+06     118.436E+06     36.2636E+06     100.929E+03    -62.2430E-03     116.495E-03    -54.2523E-03     216.158E-03    -67.7385E-03     122.250E-03    -54.2198E-03     214.122E-03
             746     15.3435E-03     87.3440E-03    -12.4123E+06     148.109E+06     79.7852E+06    -143.402E+03    -65.5680E-03     120.006E-03    -54.4375E-03     275.660E-03    -76.3048E-03     130.993E-03    -54.2354E-03     275.054E-03
             747     16.2013E-03     87.6490E-03    -5.64521E+06     160.092E+06     104.082E+06     802.820E+03    -57.6348E-03     112.134E-03    -54.4988E-03     181.631E-03    -65.6782E-03     120.424E-03    -54.2024E-03     183.345E-03
             748     852.326E-06     86.8976E-03    -56.6085E+06    -168.709E+06    -55.4659E+06    -188.917E+03    -54.4902E-03     108.952E-03    -54.4620E-03     9.69434E-03    -54.4495E-03     108.273E-03    -54.4127E-03     9.65845E-03
             749     1.70468E-03     86.9109E-03    -54.5803E+06    -163.991E+06    -49.6429E+06    -885.242E+03    -54.5225E-03     109.004E-03    -54.4811E-03     17.7585E-03    -54.4902E-03     108.339E-03    -54.4124E-03     17.6835E-03
             750     2.55701E-03     86.9331E-03    -52.1016E+06    -158.592E+06    -42.5605E+06    -1.54186E+06    -54.5907E-03     109.087E-03    -54.4965E-03     26.2224E-03    -54.5698E-03     108.442E-03    -54.4038E-03     26.1041E-03
             751     3.40943E-03     86.9635E-03    -48.9424E+06    -153.249E+06    -35.6685E+06    -1.92584E+06    -54.6861E-03     109.193E-03    -54.5072E-03     34.5879E-03    -54.6759E-03     108.569E-03    -54.3924E-03     34.4251E-03
             752     4.26183E-03     87.0025E-03    -45.3113E+06    -141.304E+06    -28.8924E+06    -3.21739E+06    -54.7978E-03     109.302E-03    -54.5038E-03     42.8600E-03    -54.8094E-03     108.734E-03    -54.3777E-03     42.6350E-03
             753     5.11426E-03     87.0496E-03    -41.4198E+06    -134.265E+06    -21.9110E+06    -4.40978E+06    -54.9520E-03     109.459E-03    -54.5065E-03     50.8906E-03    -54.9824E-03     108.929E-03    -54.3613E-03     50.5970E-03
             754     5.96675E-03     87.1046E-03    -37.5909E+06    -129.049E+06    -16.6099E+06    -4.95532E+06    -55.1404E-03     109.644E-03    -54.5038E-03     58.7164E-03    -55.1912E-03     109.152E-03    -54.3452E-03     58.3539E-03
             755     6.81926E-03     87.1673E-03    -33.9374E+06    -117.499E+06    -13.6351E+06    -5.55678E+06    -55.3361E-03     109.817E-03    -54.4808E-03     66.3737E-03    -55.4222E-03     109.405E-03    -54.3294E-03     65.9325E-03
             756     7.67178E-03     87.2377E-03    -30.5514E+06    -112.774E+06    -11.0401E+06    -5.95080E+06    -55.5780E-03     110.046E-03    -54.4677E-03     73.7467E-03    -55.7017E-03     109.693E-03    -54.3150E-03     73.2171E-03
             757     8.52425E-03     87.3151E-03    -27.5997E+06    -105.889E+06    -9.65265E+06    -5.98301E+06    -55.8193E-03     110.267E-03    -54.4480E-03     81.0522E-03    -55.9990E-03     110.001E-03    -54.3027E-03     80.4256E-03
             758     9.37683E-03     87.4002E-03    -25.0710E+06    -93.8762E+06    -9.19800E+06    -5.51637E+06    -56.0736E-03     110.491E-03    -54.4179E-03     88.6505E-03    -56.3388E-03     110.361E-03    -54.2914E-03     87.9178E-03
             759     10.2294E-03     87.4927E-03    -22.8847E+06    -82.6479E+06    -9.50386E+06    -4.92171E+06    -56.3443E-03     110.731E-03    -54.3866E-03     96.4191E-03    -56.7255E-03     110.765E-03    -54.2811E-03     95.5615E-03
             760     11.0818E-03     87.5933E-03    -21.1909E+06    -65.9344E+06    -10.0690E+06    -4.12788E+06    -56.5794E-03     110.927E-03    -54.3474E-03     104.230E-03    -57.1323E-03     111.200E-03    -54.2714E-03     103.226E-03
             761     11.9345E-03     87.7011E-03    -19.7276E+06    -40.1764E+06    -9.79237E+06    -3.19281E+06    -56.9131E-03     111.214E-03    -54.3009E-03     114.055E-03    -57.7428E-03     111.860E-03    -54.2630E-03     112.870E-03
             762     12.7868E-03     87.8215E-03    -18.0238E+06     2.18774E+06    -8.19602E+06    -1.04490E+06    -57.4664E-03     111.704E-03    -54.2375E-03     130.065E-03    -58.8049E-03     113.010E-03    -54.2555E-03     128.658E-03
             763     13.6400E-03     87.9612E-03    -15.6974E+06     66.1953E+06     3.18527E+06     1.64486E+06    -58.6924E-03     112.882E-03    -54.1897E-03     158.751E-03    -61.1267E-03     115.486E-03    -54.2470E-03     157.053E-03
             764     14.4903E-03     88.1393E-03    -13.2601E+06     119.709E+06     35.9351E+06     2.76451E+06    -62.6511E-03     116.925E-03    -54.2744E-03     218.578E-03    -68.2127E-03     122.761E-03    -54.2490E-03     216.554E-03
             765     15.3446E-03     88.4017E-03    -11.3503E+06     149.478E+06     81.1922E+06     1.35036E+06    -65.0170E-03     119.473E-03    -54.4559E-03     276.683E-03    -75.8136E-03     130.524E-03    -54.2502E-03     276.226E-03
             766     16.1924E-03     88.7029E-03    -5.56683E+06     160.254E+06     103.984E+06    -342.460E+03    -56.8413E-03     111.321E-03    -54.4793E-03     179.752E-03    -64.8455E-03     119.572E-03    -54.1837E-03     181.534E-03
             767     852.322E-06     87.9540E-03    -56.7330E+06    -167.623E+06    -55.6039E+06    -859.685E+03    -54.5052E-03     108.939E-03    -54.4334E-03     9.68143E-03    -54.4664E-03     108.265E-03    -54.3861E-03     9.63697E-03
             768     1.70471E-03     87.9677E-03    -54.6582E+06    -162.713E+06    -50.0445E+06    -1.12894E+06    -54.5341E-03     109.010E-03    -54.4762E-03     17.7540E-03    -54.5035E-03     108.353E-03    -54.4112E-03     17.6759E-03
             769     2.55704E-03     87.9897E-03    -51.5341E+06    -157.493E+06    -42.2185E+06    -1.38016E+06    -54.6107E-03     109.111E-03    -54.5008E-03     26.1860E-03    -54.5891E-03     108.470E-03    -54.4088E-03     26.0697E-03
             770     3.40935E-03     88.0203E-03    -47.9656E+06    -151.488E+06    -35.1216E+06    -2.31843E+06    -54.6967E-03     109.210E-03    -54.5136E-03     34.5816E-03    -54.6851E-03     108.592E-03    -54.4000E-03     34.4135E-03
             771     4.26178E-03     88.0591E-03    -44.6566E+06    -138.756E+06    -29.2565E+06    -3.40137E+06    -54.7950E-03     109.299E-03    -54.5042E-03     42.8719E-03    -54.8065E-03     108.744E-03    -54.3846E-03     42.6445E-03
             772     5.11427E-03     88.1063E-03    -41.7969E+06    -132.064E+06    -22.4042E+06    -4.63509E+06    -54.9562E-03     109.464E-03    -54.5074E-03     50.9167E-03    -54.9909E-03     108.946E-03    -54.3674E-03     50.6202E-03
             773     5.96671E-03     88.1612E-03    -38.1744E+06    -126.762E+06    -17.0902E+06    -6.25386E+06    -55.1487E-03     109.654E-03    -54.5056E-03     58.7518E-03    -55.2050E-03     109.175E-03    -54.3519E-03     58.3726E-03
             774     6.81919E-03     88.2240E-03    -33.8777E+06    -115.995E+06    -14.2053E+06    -7.27525E+06    -55.3402E-03     109.823E-03    -54.4826E-03     66.4401E-03    -55.4274E-03     109.419E-03    -54.3363E-03     65.9770E-03
             775     7.67172E-03     88.2942E-03    -30.2528E+06    -112.250E+06    -11.6270E+06    -7.15667E+06    -55.5728E-03     110.042E-03    -54.4693E-03     73.8730E-03    -55.6949E-03     109.692E-03    -54.3208E-03     73.3283E-03
             776     8.52422E-03     88.3720E-03    -27.9474E+06    -105.578E+06    -10.3432E+06    -6.53438E+06    -55.8109E-03     110.259E-03    -54.4485E-03     81.2065E-03    -55.9917E-03     109.996E-03    -54.3066E-03     80.5736E-03
             777     9.37678E-03     88.4566E-03    -26.2876E+06    -93.7645E+06    -10.1807E+06    -6.29670E+06    -56.0349E-03     110.450E-03    -54.4155E-03     88.8575E-03    -56.3048E-03     110.324E-03    -54.2924E-03     88.1159E-03
             778     10.2293E-03     88.5497E-03    -24.6478E+06    -82.8263E+06    -10.7754E+06    -6.01542E+06    -56.2880E-03     110.668E-03    -54.3795E-03     96.6846E-03    -56.6758E-03     110.705E-03    -54.2776E-03     95.8146E-03
             779     11.0821E-03     88.6495E-03    -22.9616E+06    -66.9514E+06    -11.7288E+06    -5.20078E+06    -56.5515E-03     110.887E-03    -54.3358E-03     104.557E-03    -57.1098E-03     111.160E-03    -54.2641E-03     103.540E-03
             780     11.9344E-03     88.7583E-03    -21.7657E+06    -41.2253E+06    -11.9755E+06    -4.01959E+06    -56.8595E-03     111.143E-03    -54.2835E-03     114.548E-03    -57.6957E-03     111.790E-03    -54.2520E-03     113.355E-03
             781     12.7873E-03     88.8777E-03    -20.6191E+06    -549.439E+03    -12.3339E+06    -2.82134E+06    -57.4044E-03     111.613E-03    -54.2084E-03     130.658E-03    -58.7451E-03     112.914E-03    -54.2393E-03     129.234E-03
             782     13.6393E-03     89.0185E-03    -18.6816E+06     62.2323E+06    -2.52785E+06    -777.437E+03    -58.5627E-03     112.710E-03    -54.1471E-03     159.629E-03    -61.0132E-03     115.322E-03    -54.2228E-03     157.902E-03
             783     14.4945E-03     89.1964E-03    -15.1253E+06     117.505E+06     29.9716E+06     1.80690E+06    -61.6127E-03     115.798E-03    -54.1848E-03     220.744E-03    -67.1812E-03     121.643E-03    -54.1834E-03     218.780E-03
             784     15.3442E-03     89.4616E-03    -9.17019E+06     152.926E+06     81.2996E+06     2.89708E+06    -63.4791E-03     117.772E-03    -54.2931E-03     280.492E-03    -74.3205E-03     128.888E-03    -54.0950E-03     280.240E-03
             785     16.2040E-03     89.7587E-03    -5.48292E+06     163.178E+06     106.162E+06     850.174E+03    -58.7736E-03     113.097E-03    -54.3239E-03     182.812E-03    -66.8591E-03     121.435E-03    -54.0218E-03     184.625E-03
             786     852.381E-06     89.0108E-03    -56.5756E+06    -166.013E+06    -55.1521E+06    -613.171E+03    -54.5310E-03     108.976E-03    -54.4454E-03     9.67201E-03    -54.4944E-03     108.310E-03    -54.3984E-03     9.63069E-03
             787     1.70461E-03     89.0244E-03    -55.1933E+06    -161.430E+06    -51.2333E+06    -1.30139E+06    -54.5353E-03     109.022E-03    -54.4862E-03     17.7264E-03    -54.5075E-03     108.373E-03    -54.4283E-03     17.6461E-03
             788     2.55697E-03     89.0465E-03    -52.4866E+06    -155.935E+06    -44.7999E+06    -2.20600E+06    -54.5830E-03     109.078E-03    -54.4954E-03     26.2017E-03    -54.5646E-03     108.450E-03    -54.4172E-03     26.0749E-03
             789     3.40939E-03     89.0770E-03    -48.7937E+06    -149.307E+06    -36.2459E+06    -3.10981E+06    -54.6821E-03     109.190E-03    -54.5075E-03     34.6111E-03    -54.6761E-03     108.586E-03    -54.4015E-03     34.4330E-03
             790     4.26179E-03     89.1158E-03    -44.9847E+06    -137.115E+06    -28.9969E+06    -3.74131E+06    -54.7944E-03     109.299E-03    -54.5041E-03     42.8882E-03    -54.8103E-03     108.752E-03    -54.3850E-03     42.6567E-03
             791     5.11424E-03     89.1629E-03    -41.1342E+06    -129.158E+06    -22.1829E+06    -4.75795E+06    -54.9472E-03     109.451E-03    -54.5034E-03     50.9568E-03    -54.9830E-03     108.946E-03    -54.3674E-03     50.6591E-03
             792     5.96669E-03     89.2179E-03    -37.7429E+06    -122.803E+06    -16.6338E+06    -7.03926E+06    -55.1264E-03     109.626E-03    -54.4995E-03     58.8157E-03    -55.1869E-03     109.165E-03    -54.3498E-03     58.4270E-03
             793     6.81923E-03     89.2805E-03    -34.6278E+06    -114.120E+06    -14.3190E+06    -8.83509E+06    -55.3068E-03     109.782E-03    -54.4755E-03     66.5465E-03    -55.4002E-03     109.389E-03    -54.3314E-03     66.0639E-03
             794     7.67174E-03     89.3510E-03    -31.7833E+06    -112.964E+06    -12.9358E+06    -8.15775E+06    -55.5218E-03     109.979E-03    -54.4571E-03     74.0102E-03    -55.6484E-03     109.629E-03    -54.3119E-03     73.4537E-03
             795     8.52439E-03     89.4283E-03    -29.1183E+06    -105.147E+06    -11.4459E+06    -7.16360E+06    -55.7513E-03     110.182E-03    -54.4303E-03     81.3959E-03    -55.9367E-03     109.924E-03    -54.2929E-03     80.7564E-03
             796     9.37691E-03     89.5135E-03    -26.4732E+06    -93.0574E+06    -10.5141E+06    -7.15007E+06    -55.9715E-03     110.366E-03    -54.3946E-03     89.0222E-03    -56.2427E-03     110.244E-03    -54.2739E-03     88.2710E-03
             797     10.2297E-03     89.6057E-03    -23.9942E+06    -82.8028E+06    -11.0742E+06    -6.96584E+06    -56.2232E-03     110.577E-03    -54.3538E-03     96.9396E-03    -56.6072E-03     110.614E-03    -54.2543E-03     96.0592E-03
             798     11.0822E-03     89.7067E-03    -21.9748E+06    -67.6700E+06    -12.5798E+06    -6.36242E+06    -56.4889E-03     110.792E-03    -54.3033E-03     104.844E-03    -57.0402E-03     111.062E-03    -54.2362E-03     103.815E-03
             799     11.9352E-03     89.8142E-03    -19.9907E+06    -43.1407E+06    -12.9324E+06    -4.81534E+06    -56.7489E-03     110.994E-03    -54.2452E-03     114.780E-03    -57.5717E-03     111.630E-03    -54.2183E-03     113.580E-03
             800     12.7877E-03     89.9351E-03    -19.0788E+06    -2.03994E+06    -12.7805E+06    -2.74832E+06    -57.2239E-03     111.387E-03    -54.1629E-03     130.951E-03    -58.5531E-03     112.678E-03    -54.1962E-03     129.534E-03
             801     13.6412E-03     90.0745E-03    -18.7525E+06     60.3028E+06    -5.69548E+06    -1.59495E+06    -58.4789E-03     112.562E-03    -54.0834E-03     159.993E-03    -60.9300E-03     115.177E-03    -54.1721E-03     158.262E-03
             802     14.4919E-03     90.2533E-03    -17.1743E+06     114.921E+06     26.5500E+06    -404.212E+03    -61.1632E-03     115.285E-03    -54.1216E-03     217.542E-03    -66.6470E-03     121.038E-03    -54.1306E-03     215.596E-03
             803     15.3539E-03     90.5128E-03    -12.0809E+06     150.878E+06     79.1130E+06    -95.0676E+03    -63.4657E-03     117.734E-03    -54.2679E-03     271.912E-03    -74.0348E-03     128.566E-03    -54.0736E-03     271.507E-03
             804     16.2060E-03     90.8174E-03    -4.05918E+06     163.815E+06     106.060E+06     633.002E+03    -58.3193E-03     112.657E-03    -54.3373E-03     175.160E-03    -66.1507E-03     120.748E-03    -54.0386E-03     176.772E-03
             805     852.227E-06     90.0676E-03    -56.8014E+06    -164.642E+06    -55.8450E+06    -267.471E+03    -54.5452E-03     109.019E-03    -54.4734E-03     9.67282E-03    -54.5108E-03     108.360E-03    -54.4315E-03     9.63578E-03
             806     1.70461E-03     90.0811E-03    -55.0700E+06    -159.184E+06    -51.4482E+06    -1.56470E+06    -54.5038E-03     108.999E-03    -54.4956E-03     17.7378E-03    -54.4783E-03     108.362E-03    -54.4421E-03     17.6542E-03
             807     2.55701E-03     90.1031E-03    -52.2782E+06    -153.368E+06    -44.6097E+06    -3.05259E+06    -54.5633E-03     109.056E-03    -54.4925E-03     26.2274E-03    -54.5479E-03     108.440E-03    -54.4174E-03     26.0899E-03
             808     3.40940E-03     90.1337E-03    -48.9641E+06    -147.574E+06    -36.5108E+06    -3.88916E+06    -54.6641E-03     109.164E-03    -54.4999E-03     34.6254E-03    -54.6611E-03     108.569E-03    -54.3975E-03     34.4374E-03
             809     4.26181E-03     90.1725E-03    -44.9529E+06    -134.923E+06    -28.6968E+06    -4.78434E+06    -54.7754E-03     109.271E-03    -54.4960E-03     42.9166E-03    -54.7947E-03     108.735E-03    -54.3787E-03     42.6719E-03
             810     5.11426E-03     90.2196E-03    -40.6445E+06    -126.709E+06    -21.8300E+06    -5.90760E+06    -54.9094E-03     109.401E-03    -54.4912E-03     51.0133E-03    -54.9468E-03     108.907E-03    -54.3577E-03     50.7014E-03
             811     5.96683E-03     90.2745E-03    -36.6428E+06    -118.452E+06    -15.6073E+06    -7.31350E+06    -55.0735E-03     109.555E-03    -54.4820E-03     58.8977E-03    -55.1361E-03     109.113E-03    -54.3351E-03     58.5063E-03
             812     6.81933E-03     90.3372E-03    -33.9757E+06    -111.907E+06    -12.4726E+06    -8.67895E+06    -55.2590E-03     109.720E-03    -54.4614E-03     66.5806E-03    -55.3550E-03     109.335E-03    -54.3122E-03     66.1006E-03
             813     7.67202E-03     90.4073E-03    -31.7782E+06    -113.463E+06    -12.4935E+06    -8.64710E+06    -55.4616E-03     109.899E-03    -54.4370E-03     74.0617E-03    -55.5880E-03     109.546E-03    -54.2888E-03     73.4998E-03
             814     8.52455E-03     90.4850E-03    -28.9412E+06    -103.961E+06    -12.3548E+06    -8.67065E+06    -55.6531E-03     110.048E-03    -54.3949E-03     81.5225E-03    -55.8376E-03     109.796E-03    -54.2639E-03     80.8656E-03
             815     9.37740E-03     90.5697E-03    -25.7045E+06    -92.2702E+06    -11.0490E+06    -8.96512E+06    -55.9011E-03     110.256E-03    -54.3549E-03     89.1715E-03    -56.1685E-03     110.137E-03    -54.2391E-03     88.3987E-03
             816     10.2299E-03     90.6625E-03    -22.8058E+06    -82.8412E+06    -11.5901E+06    -8.69471E+06    -56.1585E-03     110.470E-03    -54.3111E-03     97.0737E-03    -56.5356E-03     110.505E-03    -54.2159E-03     96.1726E-03
             817     11.0830E-03     90.7627E-03    -20.2477E+06    -68.1833E+06    -12.4703E+06    -7.90676E+06    -56.4004E-03     110.660E-03    -54.2595E-03     105.062E-03    -56.9420E-03     110.924E-03    -54.1936E-03     104.015E-03
             818     11.9353E-03     90.8713E-03    -18.4468E+06    -45.6617E+06    -13.2870E+06    -6.22718E+06    -56.6759E-03     110.874E-03    -54.1981E-03     114.867E-03    -57.4863E-03     111.495E-03    -54.1716E-03     113.652E-03
             819     12.7886E-03     90.9906E-03    -16.6983E+06    -5.47804E+06    -12.7817E+06    -3.07563E+06    -57.1440E-03     111.259E-03    -54.1147E-03     130.902E-03    -58.4546E-03     112.528E-03    -54.1465E-03     129.484E-03
             820     13.6410E-03     91.1315E-03    -16.0525E+06     59.1761E+06    -6.02171E+06    -214.671E+03    -58.3602E-03     112.385E-03    -54.0246E-03     160.191E-03    -60.7785E-03     114.974E-03    -54.1172E-03     158.494E-03
             821     14.4958E-03     91.3104E-03    -15.3343E+06     115.784E+06     27.4911E+06     402.985E+03    -62.6743E-03     116.781E-03    -54.1063E-03     218.256E-03    -68.1939E-03     122.577E-03    -54.1145E-03     216.227E-03
             822     15.3383E-03     91.5672E-03    -13.4994E+06     151.021E+06     79.5041E+06     189.820E+03    -65.9346E-03     120.287E-03    -54.3521E-03     276.288E-03    -76.7944E-03     131.403E-03    -54.1540E-03     275.745E-03
             823     16.1857E-03     91.8717E-03    -6.54897E+06     162.639E+06     104.058E+06    -829.253E+03    -57.3012E-03     111.729E-03    -54.4275E-03     180.156E-03    -65.3920E-03     120.072E-03    -54.1335E-03     181.843E-03
             824     852.274E-06     91.1243E-03    -56.6119E+06    -163.254E+06    -56.1711E+06    -849.580E+03    -54.5464E-03     108.976E-03    -54.4300E-03     9.67706E-03    -54.5125E-03     108.325E-03    -54.3921E-03     9.63248E-03
             825     1.70466E-03     91.1378E-03    -54.7526E+06    -155.812E+06    -50.9327E+06    -2.33735E+06    -54.5054E-03     108.984E-03    -54.4788E-03     17.7668E-03    -54.4839E-03     108.363E-03    -54.4282E-03     17.6732E-03
             826     2.55700E-03     91.1598E-03    -51.7684E+06    -150.682E+06    -43.1204E+06    -3.59255E+06    -54.5576E-03     109.045E-03    -54.4873E-03     26.2119E-03    -54.5457E-03     108.439E-03    -54.4093E-03     26.0675E-03
             827     3.40941E-03     91.1903E-03    -48.0970E+06    -145.215E+06    -35.6580E+06    -4.65879E+06    -54.6339E-03     109.124E-03    -54.4899E-03     34.6525E-03    -54.6311E-03     108.538E-03    -54.3879E-03     34.4549E-03
             828     4.26186E-03     91.2292E-03    -44.2429E+06    -132.065E+06    -28.8318E+06    -5.94502E+06    -54.7262E-03     109.201E-03    -54.4745E-03     42.9658E-03    -54.7458E-03     108.678E-03    -54.3630E-03     42.7066E-03
             829     5.11442E-03     91.2762E-03    -40.3552E+06    -124.280E+06    -21.4378E+06    -7.00651E+06    -54.8580E-03     109.326E-03    -54.4679E-03     51.0398E-03    -54.8979E-03     108.844E-03    -54.3364E-03     50.7142E-03
             830     5.96693E-03     91.3310E-03    -36.7642E+06    -115.381E+06    -15.7440E+06    -8.01979E+06    -55.0098E-03     109.461E-03    -54.4509E-03     58.9432E-03    -55.0771E-03     109.034E-03    -54.3090E-03     58.5437E-03
             831     6.81962E-03     91.3938E-03    -33.2481E+06    -109.923E+06    -11.6253E+06    -8.54708E+06    -55.1948E-03     109.626E-03    -54.4311E-03     66.6039E-03    -55.2911E-03     109.248E-03    -54.2816E-03     66.1263E-03
             832     7.67212E-03     91.4638E-03    -30.0938E+06    -112.115E+06    -11.1080E+06    -9.20957E+06    -55.3897E-03     109.794E-03    -54.4044E-03     74.0781E-03    -55.5114E-03     109.443E-03    -54.2537E-03     73.5098E-03
             833     8.52502E-03     91.5412E-03    -27.2287E+06    -101.739E+06    -12.5419E+06    -10.2819E+06    -55.5748E-03     109.923E-03    -54.3484E-03     81.6022E-03    -55.7533E-03     109.680E-03    -54.2241E-03     80.9262E-03
             834     9.37767E-03     91.6262E-03    -24.5391E+06    -91.3900E+06    -11.4155E+06    -10.8931E+06    -55.8236E-03     110.130E-03    -54.3061E-03     89.2761E-03    -56.0855E-03     110.013E-03    -54.1950E-03     88.4803E-03
             835     10.2307E-03     91.7187E-03    -21.8940E+06    -82.4683E+06    -11.5551E+06    -10.7740E+06    -56.0933E-03     110.356E-03    -54.2625E-03     97.1254E-03    -56.4661E-03     110.392E-03    -54.1689E-03     96.1990E-03
             836     11.0831E-03     91.8191E-03    -19.5929E+06    -69.3055E+06    -12.9229E+06    -9.85902E+06    -56.2910E-03     110.498E-03    -54.2073E-03     105.130E-03    -56.8261E-03     110.755E-03    -54.1430E-03     104.062E-03
             837     11.9365E-03     91.9275E-03    -17.5394E+06    -47.9649E+06    -13.7350E+06    -7.72079E+06    -56.6048E-03     110.748E-03    -54.1435E-03     115.020E-03    -57.4054E-03     111.356E-03    -54.1172E-03     113.789E-03
             838     12.7889E-03     92.0472E-03    -15.9238E+06    -10.3753E+06    -14.5763E+06    -4.72233E+06    -57.1707E-03     111.229E-03    -54.0582E-03     131.031E-03    -58.4705E-03     112.478E-03    -54.0929E-03     129.590E-03
             839     13.6424E-03     92.1876E-03    -14.3790E+06     54.7985E+06    -10.4292E+06    -188.388E+03    -58.3831E-03     112.339E-03    -53.9564E-03     160.218E-03    -60.7753E-03     114.905E-03    -54.0672E-03     158.517E-03
             840     14.4943E-03     92.3661E-03    -13.2821E+06     115.038E+06     22.1401E+06     2.68448E+06    -61.2226E-03     115.199E-03    -53.9767E-03     221.292E-03    -66.7323E-03     121.006E-03    -54.0136E-03     219.379E-03
             841     15.3530E-03     92.6345E-03    -10.2614E+06     154.936E+06     80.5688E+06     949.684E+03    -63.6760E-03     117.785E-03    -54.1094E-03     283.473E-03    -74.6357E-03     129.024E-03    -53.9163E-03     283.174E-03
             842     16.2141E-03     92.9300E-03    -6.48732E+06     164.698E+06     106.161E+06    -853.066E+03    -60.4919E-03     114.679E-03    -54.1874E-03     184.146E-03    -68.6918E-03     123.133E-03    -53.8860E-03     185.836E-03
             843     852.432E-06     92.1810E-03    -55.1803E+06    -160.699E+06    -54.2837E+06    -1.34906E+06    -54.5501E-03     108.904E-03    -54.3537E-03     9.69806E-03    -54.5155E-03     108.261E-03    -54.3121E-03     9.64711E-03
             844     1.70465E-03     92.1945E-03    -53.7141E+06    -152.326E+06    -50.0413E+06    -2.67527E+06    -54.5076E-03     108.954E-03    -54.4466E-03     17.7631E-03    -54.4873E-03     108.348E-03    -54.3981E-03     17.6652E-03
             845     2.55705E-03     92.2165E-03    -51.2099E+06    -147.595E+06    -42.9527E+06    -4.14843E+06    -54.5357E-03     108.997E-03    -54.4613E-03     26.2395E-03    -54.5257E-03     108.406E-03    -54.3878E-03     26.0880E-03
             846     3.40948E-03     92.2469E-03    -47.7599E+06    -142.143E+06    -35.0469E+06    -5.49019E+06    -54.5964E-03     109.062E-03    -54.4653E-03     34.6689E-03    -54.5973E-03     108.490E-03    -54.3652E-03     34.4607E-03
             847     4.26201E-03     92.2857E-03    -44.0148E+06    -128.892E+06    -28.5109E+06    -6.79662E+06    -54.6680E-03     109.112E-03    -54.4443E-03     42.9818E-03    -54.6915E-03     108.605E-03    -54.3362E-03     42.7120E-03
             848     5.11453E-03     92.3327E-03    -40.3502E+06    -121.812E+06    -22.0664E+06    -7.82490E+06    -54.7933E-03     109.222E-03    -54.4291E-03     51.0613E-03    -54.8358E-03     108.753E-03    -54.3043E-03     50.7258E-03
             849     5.96719E-03     92.3875E-03    -36.8285E+06    -112.743E+06    -16.7415E+06    -8.56191E+06    -54.9364E-03     109.341E-03    -54.4050E-03     58.9903E-03    -55.0062E-03     108.929E-03    -54.2719E-03     58.5849E-03
             850     6.81980E-03     92.4502E-03    -33.6374E+06    -108.087E+06    -12.8181E+06    -9.40649E+06    -55.1005E-03     109.481E-03    -54.3802E-03     66.6624E-03    -55.1994E-03     109.114E-03    -54.2388E-03     66.1753E-03
             851     7.67268E-03     92.5202E-03    -30.3564E+06    -109.299E+06    -10.8899E+06    -10.4337E+06    -55.3146E-03     109.669E-03    -54.3546E-03     74.1144E-03    -55.4418E-03     109.332E-03    -54.2065E-03     73.5315E-03
             852     8.52530E-03     92.5974E-03    -27.2694E+06    -98.8969E+06    -12.4076E+06    -11.9888E+06    -55.5226E-03     109.819E-03    -54.2965E-03     81.6539E-03    -55.7054E-03     109.590E-03    -54.1756E-03     80.9570E-03
             853     9.37827E-03     92.6824E-03    -24.2725E+06    -89.8746E+06    -11.9317E+06    -12.9202E+06    -55.7510E-03     110.002E-03    -54.2512E-03     89.3556E-03    -56.0126E-03     109.893E-03    -54.1453E-03     88.5355E-03
             854     10.2309E-03     92.7749E-03    -21.5434E+06    -82.1530E+06    -11.8593E+06    -12.8088E+06    -56.0208E-03     110.229E-03    -54.2080E-03     97.2031E-03    -56.3913E-03     110.266E-03    -54.1170E-03     96.2525E-03
             855     11.0841E-03     92.8754E-03    -19.3573E+06    -70.2111E+06    -13.3927E+06    -11.7332E+06    -56.2754E-03     110.430E-03    -54.1544E-03     105.057E-03    -56.8071E-03     110.682E-03    -54.0915E-03     103.964E-03
             856     11.9367E-03     92.9832E-03    -17.5604E+06    -50.9493E+06    -14.7468E+06    -9.70558E+06    -56.5524E-03     110.645E-03    -54.0927E-03     114.911E-03    -57.3465E-03     111.239E-03    -54.0671E-03     113.655E-03
             857     12.7901E-03     93.1039E-03    -16.3210E+06    -14.8355E+06    -15.7328E+06    -5.97948E+06    -57.1600E-03     111.171E-03    -54.0109E-03     130.834E-03    -58.4516E-03     112.398E-03    -54.0444E-03     129.378E-03
             858     13.6426E-03     93.2432E-03    -15.4480E+06     49.0133E+06    -15.1074E+06    -1.83969E+06    -58.2200E-03     112.112E-03    -53.8922E-03     160.253E-03    -60.6065E-03     114.662E-03    -54.0164E-03     158.537E-03
             859     14.4962E-03     93.4240E-03    -11.9688E+06     111.896E+06     15.7829E+06     1.06428E+06    -60.0352E-03     113.911E-03    -53.8755E-03     216.998E-03    -65.4231E-03     119.608E-03    -53.9415E-03     215.142E-03
             860     15.3547E-03     93.6765E-03    -6.48734E+06     157.511E+06     80.3738E+06     2.36757E+06    -62.9308E-03     116.952E-03    -54.0210E-03     273.977E-03    -73.4890E-03     127.813E-03    -53.8381E-03     273.609E-03
             861     16.2028E-03     93.9928E-03    -4.48341E+06     166.663E+06     108.430E+06     1.67355E+06    -60.6459E-03     114.791E-03    -54.1452E-03     177.446E-03    -68.5018E-03     122.908E-03    -53.8382E-03     178.930E-03
             862     852.313E-06     93.2378E-03    -54.5755E+06    -157.421E+06    -53.9360E+06    -1.42743E+06    -54.4652E-03     108.848E-03    -54.3826E-03     9.70310E-03    -54.4328E-03     108.220E-03    -54.3448E-03     9.65150E-03
             863     1.70477E-03     93.2512E-03    -53.0464E+06    -148.749E+06    -50.0798E+06    -2.96086E+06    -54.4383E-03     108.845E-03    -54.4068E-03     17.7487E-03    -54.4198E-03     108.255E-03    -54.3646E-03     17.6473E-03
             864     2.55718E-03     93.2731E-03    -50.7627E+06    -143.965E+06    -43.0644E+06    -4.49396E+06    -54.4944E-03     108.908E-03    -54.4133E-03     26.2596E-03    -54.4872E-03     108.334E-03    -54.3463E-03     26.1039E-03
             865     3.40961E-03     93.3035E-03    -47.6577E+06    -138.567E+06    -35.0915E+06    -6.09482E+06    -54.5582E-03     108.978E-03    -54.4195E-03     34.6751E-03    -54.5636E-03     108.424E-03    -54.3250E-03     34.4594E-03
             866     4.26211E-03     93.3422E-03    -44.0424E+06    -125.569E+06    -28.8229E+06    -7.51052E+06    -54.6068E-03     109.004E-03    -54.3970E-03     43.0008E-03    -54.6347E-03     108.513E-03    -54.2952E-03     42.7223E-03
             867     5.11481E-03     93.3891E-03    -40.3455E+06    -118.956E+06    -22.8047E+06    -8.72291E+06    -54.7132E-03     109.089E-03    -54.3759E-03     51.0993E-03    -54.7586E-03     108.635E-03    -54.2590E-03     50.7533E-03
             868     5.96744E-03     93.4438E-03    -36.5498E+06    -110.430E+06    -17.5468E+06    -9.56088E+06    -54.8494E-03     109.196E-03    -54.3466E-03     59.0305E-03    -54.9198E-03     108.796E-03    -54.2213E-03     58.6136E-03
             869     6.82030E-03     93.5065E-03    -32.9553E+06    -105.675E+06    -12.7940E+06    -10.1178E+06    -55.0252E-03     109.346E-03    -54.3213E-03     66.6783E-03    -55.1239E-03     108.990E-03    -54.1842E-03     66.1834E-03
             870     7.67297E-03     93.5763E-03    -29.8111E+06    -105.738E+06    -10.0825E+06    -11.6682E+06    -55.2451E-03     109.541E-03    -54.2962E-03     74.1474E-03    -55.3755E-03     109.220E-03    -54.1501E-03     73.5500E-03
             871     8.52590E-03     93.6538E-03    -26.8523E+06    -95.2614E+06    -11.3904E+06    -13.5828E+06    -55.4553E-03     109.694E-03    -54.2383E-03     81.7090E-03    -55.6424E-03     109.480E-03    -54.1182E-03     80.9930E-03
             872     9.37865E-03     93.7383E-03    -24.5358E+06    -88.2264E+06    -12.2417E+06    -14.6411E+06    -55.6895E-03     109.879E-03    -54.1897E-03     89.4547E-03    -55.9539E-03     109.779E-03    -54.0874E-03     88.6144E-03
             873     10.2318E-03     93.8311E-03    -22.6999E+06    -81.4641E+06    -12.5831E+06    -14.4723E+06    -55.9868E-03     110.135E-03    -54.1479E-03     97.3231E-03    -56.3624E-03     110.177E-03    -54.0598E-03     96.3531E-03
             874     11.0844E-03     93.9312E-03    -20.8927E+06    -71.0311E+06    -14.2969E+06    -13.6395E+06    -56.3170E-03     110.418E-03    -54.1008E-03     105.171E-03    -56.8541E-03     110.670E-03    -54.0390E-03     104.054E-03
             875     11.9374E-03     94.0398E-03    -19.1949E+06    -53.3313E+06    -16.2546E+06    -11.7866E+06    -56.6589E-03     110.707E-03    -54.0476E-03     114.904E-03    -57.4562E-03     111.293E-03    -54.0237E-03     113.620E-03
             876     12.7901E-03     94.1590E-03    -17.4463E+06    -21.0005E+06    -17.6453E+06    -7.81928E+06    -57.2332E-03     111.211E-03    -53.9773E-03     130.878E-03    -58.5165E-03     112.409E-03    -54.0098E-03     129.401E-03
             877     13.6431E-03     94.3008E-03    -15.5913E+06     45.1953E+06    -13.0639E+06    -3.84030E+06    -58.1376E-03     112.016E-03    -53.8782E-03     159.010E-03    -60.4974E-03     114.519E-03    -53.9865E-03     157.286E-03
             878     14.4978E-03     94.4762E-03    -14.4118E+06     110.281E+06     15.1937E+06    -1.61710E+06    -62.4851E-03     116.411E-03    -53.9262E-03     215.318E-03    -67.9151E-03     122.137E-03    -53.9892E-03     213.265E-03
             879     15.3434E-03     94.7363E-03    -11.3681E+06     153.705E+06     73.2297E+06     1.41732E+06    -66.6307E-03     120.852E-03    -54.2215E-03     274.161E-03    -77.4120E-03     131.926E-03    -54.0617E-03     273.481E-03
             880     16.1987E-03     95.0441E-03    -5.21823E+06     167.536E+06     106.893E+06     2.75328E+06    -57.4186E-03     111.789E-03    -54.3703E-03     179.484E-03    -65.4714E-03     120.108E-03    -54.0712E-03     181.110E-03
             881     852.376E-06     94.2943E-03    -54.4439E+06    -153.657E+06    -54.2363E+06    -1.81765E+06    -54.3253E-03     108.753E-03    -54.4277E-03     9.69197E-03    -54.2973E-03     108.144E-03    -54.3971E-03     9.63532E-03
             882     1.70482E-03     94.3077E-03    -53.3270E+06    -144.788E+06    -50.5463E+06    -3.47813E+06    -54.3667E-03     108.719E-03    -54.3528E-03     17.7696E-03    -54.3546E-03     108.151E-03    -54.3183E-03     17.6618E-03
             883     2.55730E-03     94.3297E-03     -50.822E+06    -140.156E+06    -43.4541E+06    -5.01813E+06    -54.4223E-03     108.775E-03    -54.3527E-03     26.2530E-03    -54.4203E-03     108.221E-03    -54.2930E-03     26.0910E-03
             884     3.40982E-03     94.3600E-03    -47.3404E+06     -134.25E+06    -35.6175E+06    -6.85251E+06    -54.4778E-03     108.830E-03    -54.3523E-03     34.6819E-03    -54.4871E-03     108.298E-03    -54.2671E-03     34.4572E-03
             885     4.26243E-03     94.3986E-03    -43.5650E+06    -122.244E+06    -28.9184E+06    -8.38159E+06    -54.5367E-03     108.867E-03    -54.3301E-03     43.0231E-03    -54.5668E-03     108.392E-03    -54.2343E-03     42.7343E-03
             886     5.11507E-03     94.4454E-03    -39.9883E+06    -115.631E+06    -22.3774E+06    -9.49258E+06    -54.6331E-03     108.943E-03    -54.3099E-03     51.1383E-03    -54.6819E-03     108.504E-03    -54.1961E-03     50.7834E-03
             887     5.96788E-03     94.5001E-03    -36.6636E+06    -107.826E+06    -17.5179E+06    -10.5839E+06    -54.7603E-03     109.038E-03    -54.2777E-03     59.0751E-03    -54.8347E-03     108.650E-03    -54.1557E-03     58.6465E-03
             888     6.82063E-03     94.5625E-03    -33.0734E+06    -103.144E+06    -13.2425E+06    -11.4901E+06    -54.9355E-03     109.183E-03    -54.2472E-03     66.7906E-03    -55.0374E-03     108.839E-03    -54.1159E-03     66.2802E-03
             889     7.67356E-03     94.6325E-03    -29.3978E+06    -101.478E+06    -9.92060E+06    -12.9202E+06    -55.1498E-03     109.369E-03    -54.2191E-03     74.3150E-03    -55.2840E-03     109.067E-03    -54.0789E-03     73.7041E-03
             890     8.52640E-03     94.7096E-03    -26.7114E+06    -91.8048E+06    -10.5632E+06    -14.6203E+06    -55.3646E-03     109.528E-03    -54.1637E-03     81.8977E-03    -55.5566E-03     109.330E-03    -54.0446E-03     81.1713E-03
             891     9.37945E-03     94.7946E-03    -24.9480E+06    -86.1429E+06    -11.7290E+06    -15.3554E+06    -55.6320E-03     109.748E-03    -54.1158E-03     89.6666E-03    -55.9015E-03     109.657E-03    -54.0133E-03     88.8200E-03
             892     10.2322E-03     94.8868E-03    -23.4207E+06    -80.5770E+06    -12.8060E+06    -15.4661E+06    -55.9339E-03     110.007E-03    -54.0733E-03     97.6877E-03    -56.3130E-03     110.054E-03    -53.9865E-03     96.7089E-03
             893     11.0853E-03     94.9878E-03    -22.0840E+06    -70.8148E+06    -15.0596E+06    -15.0277E+06    -56.2944E-03     110.321E-03    -54.0261E-03     105.749E-03    -56.8357E-03     110.576E-03    -53.9667E-03     104.619E-03
             894     11.9380E-03     95.0954E-03    -20.6421E+06    -55.4786E+06    -17.9620E+06    -13.5817E+06    -56.7429E-03     110.720E-03    -53.9768E-03     115.612E-03    -57.5412E-03     111.300E-03    -53.9562E-03     114.307E-03
             895     12.7906E-03     95.2163E-03    -18.8952E+06    -26.0823E+06    -20.6033E+06    -10.6758E+06    -57.4192E-03     111.334E-03    -53.9144E-03     131.721E-03    -58.6983E-03     112.513E-03    -53.9522E-03     130.209E-03
             896     13.6436E-03     95.3555E-03    -17.0964E+06     39.6086E+06    -16.2360E+06    -5.79804E+06    -58.6792E-03     112.516E-03    -53.8368E-03     159.752E-03    -61.0312E-03     114.995E-03    -53.9506E-03     157.984E-03
             897     14.4942E-03     95.5341E-03    -16.0030E+06     106.828E+06     11.8870E+06    -831.055E+03    -63.6136E-03     117.524E-03    -53.9105E-03     220.871E-03    -69.1720E-03     123.370E-03    -53.9828E-03     218.750E-03
             898     15.3480E-03     95.7997E-03    -13.8173E+06     151.282E+06     68.9465E+06     511.484E+03    -66.4187E-03     120.606E-03    -54.1874E-03     280.821E-03    -77.4195E-03     131.895E-03    -54.0420E-03     280.266E-03
             899     16.1937E-03     96.1006E-03    -6.22270E+06     167.361E+06     105.263E+06     567.157E+03    -56.4978E-03     110.789E-03    -54.2912E-03     181.958E-03    -64.6642E-03     119.222E-03    -53.9986E-03     183.767E-03
             900     852.447E-06     95.3507E-03    -53.5521E+06    -148.669E+06    -53.4242E+06    -2.70719E+06    -54.3099E-03     108.617E-03    -54.3071E-03     9.64630E-03    -54.2858E-03     108.031E-03    -54.2810E-03     9.57823E-03
             901     1.70495E-03     95.3643E-03    -52.0599E+06    -140.553E+06    -49.5409E+06    -4.18603E+06    -54.3040E-03     108.591E-03    -54.2866E-03     17.7808E-03    -54.2931E-03     108.040E-03    -54.2550E-03     17.6642E-03
             902     2.55745E-03     95.3860E-03    -49.6008E+06    -135.913E+06    -43.0070E+06    -5.77160E+06    -54.3219E-03     108.601E-03    -54.2789E-03     26.2566E-03    -54.3205E-03     108.066E-03    -54.2249E-03     26.0855E-03
             903     3.41008E-03     95.4163E-03    -46.4107E+06    -129.309E+06    -35.3430E+06    -7.82235E+06    -54.3649E-03     108.633E-03    -54.2677E-03     34.7130E-03    -54.3770E-03     108.123E-03    -54.1897E-03     34.4768E-03
             904     4.26274E-03     95.4548E-03    -42.7611E+06    -118.852E+06    -28.2129E+06    -9.40863E+06    -54.4339E-03     108.678E-03    -54.2442E-03     43.0624E-03    -54.4657E-03     108.218E-03    -54.1509E-03     42.7616E-03
             905     5.11554E-03     95.5015E-03    -38.9629E+06    -112.432E+06    -21.5403E+06    -10.2588E+06    -54.5282E-03     108.749E-03    -54.2211E-03     51.2158E-03    -54.5774E-03     108.324E-03    -54.1093E-03     50.8528E-03
             906     5.96832E-03     95.5561E-03    -35.3704E+06    -104.570E+06    -16.5329E+06    -11.2337E+06    -54.6394E-03     108.824E-03    -54.1850E-03     59.2304E-03    -54.7131E-03     108.449E-03    -54.0648E-03     58.7959E-03
             907     6.82132E-03     95.6186E-03    -32.1581E+06    -99.8037E+06    -12.6513E+06    -12.6953E+06    -54.7907E-03     108.938E-03    -54.1470E-03     67.0431E-03    -54.8930E-03     108.608E-03    -54.0189E-03     66.5206E-03
             908     7.67428E-03     95.6883E-03    -29.1024E+06    -97.6361E+06    -9.67255E+06    -14.2230E+06    -55.0020E-03     109.113E-03    -54.1108E-03     74.6670E-03    -55.1397E-03     108.829E-03    -53.9754E-03     74.0439E-03
             909     8.52732E-03     95.7657E-03    -26.4688E+06    -88.8520E+06    -9.60716E+06    -15.1301E+06    -55.2370E-03     109.293E-03    -54.0556E-03     82.3174E-03    -55.4324E-03     109.106E-03    -53.9364E-03     81.5893E-03
             910     9.38030E-03     95.8501E-03    -24.5242E+06    -83.8805E+06    -10.8189E+06    -15.7613E+06    -55.4990E-03     109.503E-03    -54.0044E-03     90.2400E-03    -55.7695E-03     109.420E-03    -53.9013E-03     89.3944E-03
             911     10.2334E-03     95.9430E-03    -23.0350E+06    -78.9859E+06    -12.6684E+06    -16.1642E+06    -55.8091E-03     109.764E-03    -53.9549E-03     98.4160E-03    -56.1875E-03     109.817E-03    -53.8703E-03     97.4350E-03
             912     11.0865E-03     96.0430E-03    -21.4268E+06    -70.1534E+06    -14.8818E+06    -16.0434E+06    -56.1786E-03     110.083E-03    -53.9048E-03     106.703E-03    -56.7157E-03     110.339E-03    -53.8464E-03     105.569E-03
             913     11.9394E-03     96.1525E-03    -19.9568E+06    -56.4603E+06    -18.2705E+06    -15.2265E+06    -56.6547E-03     110.507E-03    -53.8520E-03     116.678E-03    -57.4461E-03     111.080E-03    -53.8326E-03     115.362E-03
             914     12.7926E-03     96.2713E-03    -18.3465E+06    -29.5435E+06    -22.1240E+06    -12.9295E+06    -57.4451E-03     111.233E-03    -53.7874E-03     133.092E-03    -58.7144E-03     112.396E-03    -53.8286E-03     131.556E-03
             915     13.6445E-03     96.4139E-03    -17.4676E+06     30.8194E+06    -21.0295E+06    -6.98052E+06    -58.9220E-03     112.632E-03    -53.7100E-03     161.657E-03    -61.2776E-03     115.096E-03    -53.8345E-03     159.861E-03
             916     14.4996E-03     96.5895E-03    -15.8398E+06     101.481E+06     4.66795E+06    -887.413E+03    -62.3513E-03     116.077E-03    -53.7259E-03     224.462E-03    -67.9013E-03     121.918E-03    -53.8267E-03     222.435E-03
             917     15.3494E-03     96.8620E-03    -11.6104E+06     152.478E+06     66.7897E+06     661.496E+03    -63.3524E-03     117.237E-03    -53.8848E-03     282.272E-03    -74.2134E-03     128.404E-03    -53.7551E-03     282.046E-03
             918     16.2144E-03     97.1535E-03    -6.38489E+06     167.897E+06     106.012E+06    -259.641E+03    -58.5807E-03     112.569E-03    -53.9885E-03     180.385E-03    -66.6278E-03     120.882E-03    -53.6926E-03     182.196E-03
             919     852.504E-06     96.4072E-03    -51.7591E+06    -142.052E+06    -51.5169E+06    -3.40073E+06    -54.2654E-03     108.418E-03    -54.1530E-03     9.63272E-03    -54.2447E-03     107.860E-03    -54.1296E-03     9.55606E-03
             920     1.70503E-03     96.4205E-03    -50.5191E+06    -136.031E+06    -48.1479E+06    -5.08215E+06    -54.1969E-03     108.383E-03    -54.1865E-03     17.8151E-03    -54.1869E-03     107.851E-03    -54.1567E-03     17.6875E-03
             921     2.55772E-03     96.4423E-03    -48.1061E+06    -131.168E+06    -41.7406E+06    -6.61905E+06    -54.1975E-03     108.370E-03    -54.1725E-03     26.3184E-03    -54.1973E-03     107.854E-03    -54.1212E-03     26.1373E-03
             922     3.41042E-03     96.4724E-03    -44.8488E+06    -123.868E+06    -34.2329E+06    -8.77301E+06    -54.2314E-03     108.385E-03    -54.1531E-03     34.8053E-03    -54.2450E-03     107.899E-03    -54.0797E-03     34.5582E-03
             923     4.26324E-03     96.5109E-03    -41.2185E+06    -115.198E+06    -27.1395E+06    -10.4385E+06    -54.2762E-03     108.401E-03    -54.1247E-03     43.1907E-03    -54.3069E-03     107.955E-03    -54.0336E-03     42.8787E-03
             924     5.11610E-03     96.5574E-03    -37.3154E+06    -109.156E+06    -20.5637E+06    -11.4811E+06    -54.3506E-03     108.443E-03    -54.0922E-03     51.4147E-03    -54.3973E-03     108.029E-03    -53.9827E-03     51.0390E-03
             925     5.96916E-03     96.6120E-03    -33.1903E+06    -101.207E+06    -15.0269E+06    -12.5007E+06    -54.4461E-03     108.494E-03    -54.0480E-03     59.5147E-03    -54.5152E-03     108.130E-03    -53.9283E-03     59.0678E-03
             926     6.82224E-03     96.6741E-03    -29.5243E+06    -96.3069E+06    -10.5879E+06    -13.3627E+06    -54.5790E-03     108.581E-03    -54.0017E-03     67.4248E-03    -54.6752E-03     108.261E-03    -53.8722E-03     66.8990E-03
             927     7.67544E-03     96.7440E-03    -26.8045E+06    -93.7091E+06    -8.06591E+06    -14.6953E+06    -54.7719E-03     108.724E-03    -53.9524E-03     75.2189E-03    -54.9048E-03     108.453E-03    -53.8179E-03     74.5965E-03
             928     8.52868E-03     96.8211E-03    -24.2983E+06    -86.2680E+06    -8.09963E+06    -15.9060E+06    -54.9978E-03     108.886E-03    -53.8879E-03     83.0202E-03    -55.1865E-03     108.705E-03    -53.7680E-03     82.2901E-03
             929     9.38198E-03     96.9059E-03    -21.9498E+06    -81.5816E+06    -8.63533E+06    -16.2857E+06    -55.2682E-03     109.098E-03    -53.8299E-03     91.0623E-03    -55.5305E-03     109.018E-03    -53.7230E-03     90.2187E-03
             930     10.2353E-03     96.9981E-03    -20.0649E+06    -76.8301E+06    -10.3709E+06    -16.6506E+06    -55.6381E-03     109.412E-03    -53.7741E-03     99.4287E-03    -56.0066E-03     109.467E-03    -53.6854E-03     98.4502E-03
             931     11.0884E-03     97.0993E-03    -18.9248E+06    -69.1641E+06    -13.1211E+06     -16.771E+06    -56.0276E-03     109.748E-03    -53.7204E-03     107.772E-03    -56.5546E-03     110.000E-03    -53.6583E-03     106.637E-03
             932     11.9420E-03     97.2073E-03    -17.8517E+06    -56.2002E+06    -16.2021E+06    -16.2610E+06    -56.5764E-03     110.247E-03    -53.6705E-03     117.873E-03    -57.3607E-03     110.815E-03    -53.6441E-03     116.551E-03
             933     12.7944E-03     97.3287E-03    -17.2081E+06    -32.8992E+06    -21.6083E+06    -14.3547E+06    -57.3858E-03     110.994E-03    -53.6078E-03     133.969E-03    -58.6455E-03     112.138E-03    -53.6431E-03     132.420E-03
             934     13.6487E-03     97.4686E-03    -15.7285E+06     21.8884E+06    -22.8323E+06    -8.98185E+06    -59.2188E-03     112.758E-03    -53.5392E-03     162.791E-03    -61.5759E-03     115.203E-03    -53.6623E-03     160.959E-03
             935     14.4982E-03     97.6488E-03    -13.4495E+06     96.1039E+06    -249.118E+03    -2.73190E+06    -61.5542E-03     115.093E-03    -53.5387E-03     221.053E-03    -66.9785E-03     120.811E-03    -53.6598E-03     219.092E-03
             936     15.3602E-03     97.9104E-03    -10.3086E+06     152.013E+06     62.1541E+06    -366.643E+03    -63.1532E-03     116.858E-03    -53.7051E-03     276.160E-03    -73.7626E-03     127.791E-03    -53.5998E-03     275.841E-03
             937     16.2066E-03     98.2115E-03    -5.58242E+06     167.518E+06     105.234E+06     247.096E+03    -59.3680E-03     113.242E-03    -53.8744E-03     177.786E-03    -67.2837E-03     121.428E-03    -53.5830E-03     179.426E-03
             938     852.670E-06     97.4633E-03    -47.4074E+06    -134.683E+06    -46.4683E+06    -3.39466E+06    -54.0702E-03     108.108E-03    -54.0382E-03     9.68411E-03    -54.0458E-03     107.573E-03    -54.0065E-03     9.60794E-03
             939     1.70537E-03     97.4766E-03    -46.1578E+06    -130.894E+06    -42.5886E+06      -5.339E+06    -54.0420E-03     108.081E-03    -54.0393E-03     17.8473E-03    -54.0257E-03     107.560E-03    -53.9956E-03     17.7171E-03
             940     2.55811E-03     97.4982E-03    -43.9271E+06    -125.757E+06    -37.6697E+06    -7.41624E+06    -54.0421E-03     108.059E-03    -54.0173E-03     26.4302E-03    -54.0347E-03     107.559E-03    -53.9596E-03     26.2401E-03
             941     3.41096E-03     97.5283E-03    -41.1173E+06    -118.311E+06    -31.6427E+06    -9.55728E+06    -54.0422E-03     108.029E-03    -53.9865E-03     34.9575E-03    -54.0487E-03     107.561E-03    -53.9135E-03     34.7026E-03
             942     4.26392E-03     97.5665E-03    -37.9005E+06    -111.051E+06    -24.7672E+06    -11.2477E+06    -54.0453E-03     107.994E-03    -53.9489E-03     43.4124E-03    -54.0684E-03     107.560E-03    -53.8567E-03     43.0933E-03
             943     5.11709E-03     97.6130E-03    -34.4251E+06    -105.157E+06    -18.4413E+06    -12.6979E+06    -54.0822E-03     107.984E-03    -53.9017E-03     51.7409E-03    -54.1227E-03     107.582E-03    -53.7915E-03     51.3540E-03
             944     5.97029E-03     97.6672E-03    -30.9409E+06    -97.8883E+06    -13.4729E+06    -13.8191E+06    -54.1473E-03     107.988E-03    -53.8411E-03     59.9625E-03    -54.2113E-03     107.634E-03    -53.7216E-03     59.5047E-03
             945     6.82371E-03     97.7295E-03    -27.5224E+06    -93.4072E+06    -9.26114E+06    -14.4924E+06    -54.2597E-03     108.039E-03    -53.7790E-03     68.0303E-03    -54.3505E-03     107.727E-03    -53.6499E-03     67.4976E-03
             946     7.67722E-03     97.7990E-03    -24.0331E+06    -89.6553E+06    -6.23025E+06    -15.4885E+06    -54.4323E-03     108.146E-03    -53.7139E-03     75.9971E-03    -54.5580E-03     107.886E-03    -53.5802E-03     75.3739E-03
             947     8.53078E-03     97.8764E-03    -21.3054E+06    -83.4233E+06    -5.86446E+06    -16.6101E+06    -54.6517E-03     108.290E-03    -53.6381E-03     83.9143E-03    -54.8305E-03     108.114E-03    -53.5155E-03     83.1860E-03
             948     9.38448E-03     97.9606E-03    -19.1180E+06    -79.4294E+06    -6.10164E+06    -17.1772E+06    -54.9775E-03     108.549E-03    -53.5719E-03     92.1118E-03    -55.2302E-03     108.470E-03    -53.4595E-03     91.2680E-03
             949     10.2379E-03     98.0537E-03    -17.1723E+06    -74.8112E+06    -7.61542E+06    -17.4108E+06    -55.4099E-03     108.922E-03    -53.5120E-03     100.643E-03    -55.7685E-03     108.976E-03    -53.4167E-03     99.6663E-03
             950     11.0917E-03     98.1541E-03    -15.7040E+06    -68.0330E+06    -10.0523E+06    -17.0474E+06    -55.9365E-03     109.399E-03    -53.4629E-03     109.035E-03    -56.4529E-03     109.648E-03    -53.3918E-03     107.906E-03
             951     11.9445E-03     98.2635E-03    -15.0891E+06    -55.6254E+06    -13.1930E+06    -16.5525E+06    -56.6133E-03     110.038E-03    -53.4249E-03     119.220E-03    -57.3894E-03     110.602E-03    -53.3883E-03     117.902E-03
             952     12.7982E-03     98.3840E-03    -14.4052E+06    -34.4627E+06    -18.6202E+06    -15.2880E+06    -57.7462E-03     111.135E-03    -53.3891E-03     135.088E-03    -58.9999E-03     112.270E-03    -53.4113E-03     133.525E-03
             953     13.6494E-03     98.5254E-03    -13.6102E+06     14.1401E+06    -22.4906E+06    -10.8513E+06    -59.3525E-03     112.692E-03    -53.3394E-03     164.477E-03    -61.6920E-03     115.098E-03    -53.4526E-03     162.638E-03
             954     14.5037E-03     98.7074E-03    -12.6946E+06     88.7727E+06    -6.01113E+06    -4.49604E+06    -62.8832E-03     116.244E-03    -53.3603E-03     220.970E-03    -68.3045E-03     121.952E-03    -53.5007E-03     218.924E-03
             955     15.3497E-03     98.9597E-03    -9.97459E+06     151.232E+06     56.0743E+06     186.963E+03    -65.6315E-03     119.256E-03    -53.6245E-03     278.326E-03    -76.3964E-03     130.360E-03    -53.5489E-03     277.801E-03
             956     16.2063E-03     99.2745E-03    -5.79344E+06     167.391E+06     103.172E+06     879.458E+03    -58.3232E-03     112.161E-03    -53.8378E-03     181.959E-03    -66.3914E-03     120.504E-03    -53.5562E-03     183.613E-03
             957     852.811E-06     98.5192E-03    -44.2586E+06    -127.719E+06    -42.9105E+06    -3.20293E+06    -53.8094E-03     107.641E-03    -53.8312E-03     9.71146E-03    -53.7845E-03     107.130E-03    -53.7964E-03     9.63847E-03
             958     1.70572E-03     98.5322E-03    -42.2447E+06    -124.819E+06    -38.2612E+06    -5.44811E+06    -53.8033E-03     107.612E-03    -53.8091E-03     17.9249E-03    -53.7824E-03     107.109E-03    -53.7581E-03     17.7948E-03
             959     2.55869E-03     98.5539E-03    -39.7578E+06    -119.795E+06    -33.3062E+06    -7.88778E+06    -53.7780E-03     107.559E-03    -53.7806E-03     26.5894E-03    -53.7645E-03     107.075E-03    -53.7158E-03     26.3956E-03
             960     3.41178E-03     98.5837E-03    -37.1528E+06    -112.666E+06    -28.2158E+06    -10.1526E+06    -53.7416E-03     107.476E-03    -53.7341E-03     35.2182E-03    -53.7411E-03     107.025E-03    -53.6579E-03     34.9590E-03
             961     4.26505E-03     98.6218E-03    -34.2227E+06    -106.474E+06    -22.2655E+06    -11.9460E+06    -53.7129E-03     107.392E-03    -53.6789E-03     43.7624E-03    -53.7273E-03     106.971E-03    -53.5862E-03     43.4390E-03
             962     5.11845E-03     98.6679E-03    -31.0664E+06    -100.529E+06    -16.1731E+06    -13.4581E+06    -53.6975E-03     107.311E-03    -53.6135E-03     52.2251E-03    -53.7302E-03     106.923E-03    -53.5035E-03     51.8349E-03
             963     5.97211E-03     98.7222E-03    -27.9587E+06    -94.4634E+06    -11.5041E+06    -14.6697E+06    -53.7225E-03     107.256E-03    -53.5336E-03     60.5891E-03    -53.7780E-03     106.910E-03    -53.4136E-03     60.1285E-03
             964     6.82592E-03     98.7839E-03    -24.8424E+06    -90.1256E+06    -7.51398E+06    -15.5678E+06    -53.8164E-03     107.268E-03    -53.4513E-03     68.8468E-03    -53.8992E-03     106.964E-03    -53.3222E-03     68.3105E-03
             965     7.67978E-03     98.8537E-03    -21.8389E+06    -85.7784E+06    -4.50595E+06    -16.8659E+06    -53.9764E-03     107.344E-03    -53.3680E-03     76.9968E-03    -54.0967E-03     107.096E-03    -53.2345E-03     76.3684E-03
             966     8.53385E-03     98.9305E-03    -18.9996E+06    -81.0464E+06     -3.8343E+06    -17.3903E+06    -54.2289E-03     107.510E-03    -53.2811E-03     85.1060E-03    -54.3996E-03     107.337E-03    -53.1552E-03     84.3817E-03
             967     9.38776E-03     99.0154E-03    -16.9340E+06    -76.6883E+06    -3.94704E+06    -17.8283E+06    -54.6157E-03     107.822E-03    -53.2061E-03     93.5282E-03    -54.8613E-03     107.746E-03    -53.0901E-03     92.6910E-03
             968     10.2419E-03     99.1079E-03    -15.3891E+06    -72.9883E+06    -5.47408E+06    -18.2449E+06    -55.1553E-03     108.302E-03    -53.1462E-03     102.247E-03    -55.5076E-03     108.356E-03    -53.0454E-03     101.275E-03
             969     11.0953E-03     99.2094E-03    -13.9529E+06    -67.4580E+06    -8.53772E+06    -17.8210E+06    -55.8416E-03     108.945E-03    -53.1030E-03     110.911E-03    -56.3502E-03     109.189E-03    -53.0276E-03     109.786E-03
             970     11.9490E-03     99.3186E-03    -12.5967E+06    -54.6127E+06    -10.8824E+06    -17.0361E+06    -56.7418E-03     109.827E-03    -53.0852E-03     121.280E-03    -57.5106E-03     110.389E-03    -53.0422E-03     119.964E-03
             971     12.8012E-03     99.4404E-03    -11.9380E+06    -35.5435E+06    -15.8659E+06    -15.6879E+06    -58.0358E-03     111.116E-03    -53.0803E-03     137.778E-03    -59.2867E-03     112.244E-03    -53.0908E-03     136.217E-03
             972     13.6541E-03     99.5830E-03    -12.1204E+06     6.79903E+06    -22.3262E+06    -11.4617E+06    -59.5523E-03     112.605E-03    -53.0523E-03     166.225E-03    -61.8687E-03     114.967E-03    -53.1562E-03     164.389E-03
             973     14.5068E-03     99.7610E-03    -12.2403E+06     80.3180E+06    -13.2209E+06    -4.51146E+06    -63.5048E-03     116.566E-03    -53.0612E-03     224.806E-03    -68.9576E-03     122.299E-03    -53.2260E-03     222.717E-03
             974     15.3609E-03     100.029E-03    -10.1582E+06     149.367E+06     48.8693E+06    -522.164E+03    -66.0334E-03     119.366E-03    -53.3327E-03     282.278E-03    -76.8952E-03     130.580E-03    -53.2902E-03     281.769E-03
             975     16.2123E-03     100.321E-03    -6.10761E+06     168.185E+06     102.322E+06     308.325E+03    -58.9158E-03     112.516E-03    -53.6003E-03     183.427E-03    -67.0558E-03     120.935E-03    -53.3237E-03     185.128E-03
             976     853.158E-06     99.5742E-03    -43.0377E+06    -120.739E+06    -42.2333E+06    -3.31533E+06    -53.4437E-03     106.908E-03    -53.4648E-03     9.85199E-03    -53.4237E-03     106.430E-03    -53.4385E-03     9.77866E-03
             977     1.70629E-03     99.5875E-03    -41.4166E+06    -117.913E+06    -38.2075E+06    -6.06612E+06    -53.4307E-03     106.867E-03    -53.4366E-03     18.1366E-03    -53.4156E-03     106.397E-03    -53.3966E-03     18.0007E-03
             978     2.55960E-03     99.6087E-03    -38.6187E+06    -113.329E+06    -31.8842E+06    -8.78539E+06    -53.3593E-03     106.765E-03    -53.4058E-03     26.8716E-03    -53.3513E-03     106.310E-03    -53.3449E-03     26.6696E-03
             979     3.41307E-03     99.6385E-03    -35.1024E+06    -106.785E+06    -25.7904E+06    -11.0626E+06    -53.2880E-03     106.635E-03    -53.3472E-03     35.6125E-03    -53.2889E-03     106.207E-03    -53.2705E-03     35.3464E-03
             980     4.26670E-03     99.6762E-03    -31.7707E+06    -101.619E+06    -20.2692E+06    -12.8351E+06    -53.2243E-03     106.497E-03    -53.2723E-03     44.2847E-03    -53.2356E-03     106.093E-03    -53.1802E-03     43.9565E-03
             981     5.12060E-03     99.7222E-03    -28.4571E+06    -95.7352E+06    -14.5978E+06    -14.3855E+06    -53.1720E-03     106.357E-03    -53.1848E-03     52.9095E-03    -53.1997E-03     105.986E-03    -53.0777E-03     52.5160E-03
             982     5.97470E-03     99.7760E-03    -25.1417E+06    -90.8171E+06    -9.37528E+06    -15.5289E+06    -53.1676E-03     106.256E-03    -53.0888E-03     61.4455E-03    -53.2155E-03     105.920E-03    -52.9675E-03     60.9847E-03
             983     6.82897E-03     99.8378E-03    -22.0343E+06    -86.3857E+06    -5.57087E+06    -16.5327E+06    -53.2294E-03     106.214E-03    -52.9851E-03     69.9205E-03    -53.3038E-03     105.920E-03    -52.8557E-03     69.3853E-03
             984     7.68350E-03     99.9071E-03    -19.1815E+06    -81.7785E+06    -2.61947E+06    -17.7092E+06    -53.3875E-03     106.270E-03    -52.8821E-03     78.3220E-03    -53.4996E-03     106.031E-03    -52.7488E-03     77.6991E-03
             985     8.53796E-03     99.9842E-03    -16.9237E+06    -79.2343E+06    -2.31031E+06    -18.2512E+06    -53.6912E-03     106.474E-03    -52.7827E-03     86.7235E-03    -53.8523E-03     106.300E-03    -52.6548E-03     86.0066E-03
             986     9.39261E-03     100.069E-03    -14.8866E+06    -73.7141E+06      -2.272E+06    -18.3447E+06    -54.1598E-03     106.859E-03    -52.6990E-03     95.4608E-03    -54.3974E-03     106.788E-03    -52.5818E-03     94.6370E-03
             987     10.2467E-03     100.162E-03    -13.3358E+06    -71.1200E+06    -3.40279E+06    -18.6677E+06    -54.8327E-03     107.476E-03    -52.6430E-03     104.509E-03    -55.1759E-03     107.529E-03    -52.5375E-03     103.552E-03
             988     11.1011E-03     100.264E-03    -12.1520E+06    -66.1871E+06    -7.16797E+06    -18.6970E+06    -55.7244E-03     108.333E-03    -52.6085E-03     113.511E-03    -56.2247E-03     108.576E-03    -52.5307E-03     112.393E-03
             989     11.9542E-03     100.374E-03    -11.2340E+06    -54.4348E+06    -9.77154E+06    -17.8928E+06    -56.7867E-03     109.399E-03    -52.6122E-03     124.115E-03    -57.5495E-03     109.957E-03    -52.5659E-03     122.806E-03
             990     12.8077E-03     100.496E-03    -11.1550E+06    -37.0024E+06    -14.0911E+06    -15.7383E+06    -58.2047E-03     110.844E-03    -52.6395E-03     140.610E-03    -59.4514E-03     111.961E-03    -52.6401E-03     139.063E-03
             991     13.6602E-03     100.639E-03    -11.3840E+06      55.295E+03    -21.2974E+06    -11.7067E+06    -60.3632E-03     113.024E-03    -52.6611E-03     168.384E-03    -62.6791E-03     115.362E-03    -52.7512E-03     166.529E-03
             992     14.5111E-03     100.820E-03    -10.0696E+06     71.3538E+06    -20.4867E+06    -5.34268E+06    -63.8081E-03     116.485E-03    -52.6769E-03     225.790E-03    -69.2238E-03     122.178E-03    -52.8682E-03     223.701E-03
             993     15.3646E-03     101.082E-03    -7.69877E+06     147.269E+06     41.2821E+06     131.868E+03    -65.7238E-03     118.680E-03    -52.9561E-03     280.715E-03    -76.4461E-03     129.778E-03    -52.9521E-03     280.259E-03
             994     16.2172E-03     101.385E-03    -5.07016E+06     169.011E+06     102.496E+06     1.23114E+06    -59.6812E-03     112.979E-03    -53.2975E-03     181.114E-03    -67.6948E-03     121.277E-03    -53.0228E-03     182.772E-03
             995     853.588E-06     100.629E-03    -40.3341E+06    -112.844E+06    -39.8472E+06    -3.80765E+06    -52.9280E-03     105.850E-03    -52.9218E-03     9.99626E-03    -52.9094E-03     105.403E-03    -52.8989E-03     9.91824E-03
             996     1.70722E-03     100.642E-03    -38.6219E+06    -110.118E+06    -35.8185E+06    -6.93115E+06    -52.8694E-03     105.768E-03    -52.8989E-03     18.3601E-03    -52.8549E-03     105.330E-03    -52.8623E-03     18.2160E-03
             997     2.56098E-03     100.663E-03    -36.0815E+06    -105.961E+06    -30.3490E+06    -10.0863E+06    -52.7738E-03     105.625E-03    -52.8508E-03     27.2355E-03    -52.7657E-03     105.200E-03    -52.7966E-03     27.0214E-03
             998     3.41493E-03     100.692E-03    -32.9835E+06    -100.983E+06    -23.9949E+06    -12.3394E+06    -52.6486E-03     105.428E-03    -52.7792E-03     36.1344E-03    -52.6492E-03     105.022E-03    -52.7050E-03     35.8585E-03
             999     4.26918E-03     100.730E-03    -29.5137E+06    -96.3357E+06    -17.9659E+06    -14.0182E+06    -52.5436E-03     105.230E-03    -52.6861E-03     44.9902E-03    -52.5535E-03     104.845E-03    -52.5935E-03     44.6556E-03
            1000     5.12364E-03     100.775E-03    -26.1098E+06    -90.8690E+06    -12.9600E+06    -15.5751E+06    -52.4691E-03     105.044E-03    -52.5748E-03     53.8139E-03    -52.4927E-03     104.690E-03    -52.4700E-03     53.4167E-03
            1001     5.97836E-03     100.829E-03    -22.9915E+06    -87.2835E+06    -8.16153E+06    -16.5037E+06    -52.4293E-03     104.887E-03    -52.4582E-03     62.5958E-03    -52.4708E-03     104.561E-03    -52.3391E-03     62.1371E-03
            1002     6.83336E-03     100.890E-03    -20.0579E+06    -82.1296E+06    -4.37435E+06    -17.5195E+06    -52.4629E-03     104.795E-03    -52.3324E-03     71.3710E-03    -52.5319E-03     104.514E-03    -52.2061E-03     70.8410E-03
            1003     7.68846E-03     100.959E-03    -17.4949E+06    -78.4440E+06    -1.64011E+06    -18.4174E+06    -52.6330E-03     104.844E-03    -52.2107E-03     80.1085E-03    -52.7384E-03     104.613E-03    -52.0798E-03     79.4976E-03
            1004     8.54380E-03     101.036E-03    -15.1287E+06    -76.5210E+06    -733.845E+03    -18.9468E+06    -52.9920E-03     105.092E-03    -52.1005E-03     88.8896E-03    -53.1448E-03     104.922E-03    -51.9713E-03     88.1878E-03
            1005     9.39880E-03     101.121E-03    -13.0794E+06    -71.6665E+06    -969.154E+03    -19.1853E+06    -53.5585E-03     105.567E-03    -52.0087E-03     98.0461E-03    -53.7856E-03     105.496E-03    -51.8907E-03     97.2380E-03
            1006     10.2540E-03     101.215E-03    -11.3985E+06    -68.8815E+06    -1.32628E+06    -19.0297E+06    -54.4255E-03     106.385E-03    -51.9591E-03     107.526E-03    -54.7595E-03     106.437E-03    -51.8493E-03     106.591E-03
            1007     11.1081E-03     101.317E-03    -10.3169E+06    -64.5330E+06    -5.23847E+06    -19.1162E+06    -55.5397E-03     107.480E-03    -51.9405E-03     116.937E-03    -56.0312E-03     107.721E-03    -51.8582E-03     115.839E-03
            1008     11.9621E-03     101.429E-03    -9.99230E+06    -54.8342E+06    -8.64715E+06    -18.1564E+06    -56.8650E-03     108.837E-03    -51.9723E-03     127.686E-03    -57.6200E-03     109.387E-03    -51.9216E-03     126.395E-03
            1009     12.8149E-03     101.552E-03    -9.87506E+06    -39.4860E+06    -12.7346E+06    -15.5534E+06    -58.7074E-03     110.756E-03    -52.0486E-03     144.294E-03    -59.9500E-03     111.860E-03    -52.0407E-03     142.761E-03
            1010     13.6664E-03     101.697E-03    -10.2141E+06    -4.42960E+06    -19.5804E+06    -11.8176E+06    -61.2740E-03     113.411E-03    -52.1370E-03     172.256E-03    -63.6002E-03     115.742E-03    -52.2137E-03     170.395E-03
            1011     14.5183E-03     101.878E-03    -11.6536E+06     65.4637E+06    -25.1886E+06    -7.01232E+06    -65.7938E-03     118.019E-03    -52.2256E-03     228.204E-03    -71.2674E-03     123.757E-03    -52.4296E-03     226.020E-03
            1012     15.3680E-03     102.141E-03    -10.3887E+06     141.114E+06     30.1057E+06    -1.56324E+06    -67.6344E-03     120.238E-03    -52.6035E-03     280.490E-03    -78.4604E-03     131.441E-03    -52.6426E-03     279.925E-03
            1013     16.2216E-03     102.440E-03    -4.26562E+06     167.950E+06     99.0991E+06     1.65252E+06    -59.2347E-03     112.270E-03    -53.0356E-03     178.675E-03    -67.2679E-03     120.597E-03    -52.7775E-03     180.337E-03
            1014     854.123E-06     101.682E-03    -35.6670E+06    -104.022E+06    -35.0189E+06    -4.08528E+06    -52.1983E-03     104.372E-03    -52.1736E-03     10.1822E-03    -52.1761E-03     103.956E-03    -52.1462E-03     10.1026E-03
            1015     1.70846E-03     101.695E-03    -34.2547E+06    -101.181E+06    -32.3288E+06    -7.85728E+06    -52.0928E-03     104.239E-03    -52.1457E-03     18.6748E-03    -52.0743E-03     103.833E-03    -52.1110E-03     18.5226E-03
            1016     2.56289E-03     101.715E-03    -32.0190E+06    -98.0159E+06    -27.5636E+06    -11.1049E+06    -51.9518E-03     104.029E-03    -52.0777E-03     27.6786E-03    -51.9384E-03     103.634E-03    -52.0269E-03     27.4575E-03
            1017     3.41761E-03     101.745E-03    -29.5220E+06    -94.7913E+06    -21.8113E+06    -13.4761E+06    -51.7879E-03     103.773E-03    -51.9854E-03     36.7779E-03    -51.7824E-03     103.390E-03    -51.9142E-03     36.4961E-03
            1018     4.27258E-03     101.782E-03    -26.4601E+06    -90.4857E+06    -16.0887E+06    -15.4507E+06    -51.6403E-03     103.510E-03    -51.8698E-03     45.8832E-03    -51.6446E-03     103.146E-03    -51.7807E-03     45.5418E-03
            1019     5.12785E-03     101.827E-03    -23.2548E+06    -86.4768E+06    -11.2837E+06    -16.6290E+06    -51.5165E-03     103.253E-03    -51.7360E-03     54.9656E-03    -51.5322E-03     102.911E-03    -51.6334E-03     54.5698E-03
            1020     5.98344E-03     101.880E-03    -20.2302E+06    -83.1077E+06    -6.95251E+06    -17.6197E+06    -51.4410E-03     103.033E-03    -51.5925E-03     64.0740E-03    -51.4731E-03     102.719E-03    -51.4774E-03     63.6197E-03
            1021     6.83928E-03     101.941E-03    -17.3223E+06    -78.3920E+06    -3.18243E+06    -18.4005E+06    -51.4609E-03     102.904E-03    -51.4430E-03     73.2408E-03    -51.5187E-03     102.631E-03    -51.3201E-03     72.7222E-03
            1022     7.69541E-03     102.010E-03    -15.0959E+06    -75.4563E+06    -281.285E+03    -18.6575E+06    -51.6509E-03     102.953E-03    -51.3025E-03     82.4531E-03    -51.7446E-03     102.726E-03    -51.1726E-03     81.8659E-03
            1023     8.55142E-03     102.087E-03    -13.4917E+06    -73.0912E+06     622.597E+03    -19.3889E+06    -52.0699E-03     103.247E-03    -51.1769E-03     91.7748E-03    -52.2141E-03     103.082E-03    -51.0483E-03     91.0981E-03
            1024     9.40761E-03     102.172E-03    -12.0193E+06    -69.6564E+06     80.7631E+03    -19.7504E+06    -52.8014E-03     103.882E-03    -51.0804E-03     101.476E-03    -53.0196E-03     103.810E-03    -50.9616E-03     100.694E-03
            1025     10.2630E-03     102.267E-03    -10.5501E+06    -67.0286E+06    -308.177E+03    -19.6833E+06    -53.8716E-03     104.909E-03    -51.0377E-03     111.565E-03    -54.1976E-03     104.961E-03    -50.9267E-03     110.656E-03
            1026     11.1182E-03     102.370E-03    -9.66208E+06    -63.0824E+06    -3.96674E+06    -19.2081E+06    -55.2604E-03     106.302E-03    -51.0412E-03     121.462E-03    -55.7455E-03     106.540E-03    -50.9556E-03     120.397E-03
            1027     11.9722E-03     102.482E-03    -9.32463E+06    -55.1155E+06    -7.78554E+06    -18.1057E+06    -57.0593E-03     108.173E-03    -51.1134E-03     132.649E-03    -57.8107E-03     108.718E-03    -51.0589E-03     131.384E-03
            1028     12.8250E-03     102.608E-03    -9.36699E+06    -42.2802E+06    -12.1890E+06    -15.5592E+06    -59.3808E-03     110.635E-03    -51.2544E-03     149.488E-03    -60.6290E-03     111.735E-03    -51.2405E-03     147.965E-03
            1029     13.6774E-03     102.754E-03    -10.2079E+06    -8.94018E+06    -18.4444E+06    -11.0717E+06    -62.4221E-03     113.852E-03    -51.4296E-03     177.341E-03    -64.7722E-03     116.187E-03    -51.4940E-03     175.480E-03
            1030     14.5267E-03     102.939E-03    -12.0155E+06     61.5173E+06    -26.1930E+06    -5.96226E+06    -67.7319E-03     119.340E-03    -51.6077E-03     233.870E-03    -73.3072E-03     125.167E-03    -51.8105E-03     231.629E-03
            1031     15.3750E-03     103.203E-03    -13.3180E+06     136.889E+06     23.7065E+06    -2.53256E+06    -69.3855E-03     121.454E-03    -52.0680E-03     284.941E-03    -80.3852E-03     132.823E-03    -52.1286E-03     284.364E-03
            1032     16.2212E-03     103.497E-03    -7.17777E+06     165.278E+06     94.9829E+06    -812.280E+03    -60.7330E-03     113.339E-03    -52.6061E-03     181.693E-03    -68.9105E-03     121.803E-03    -52.3604E-03     183.371E-03
            1033     855.137E-06     102.733E-03    -31.7466E+06    -94.1762E+06    -31.7219E+06    -4.68600E+06    -51.1982E-03     102.322E-03    -51.1233E-03     10.3971E-03    -51.1754E-03     101.944E-03    -51.0993E-03     10.3125E-03
            1034     1.71016E-03     102.746E-03    -30.4089E+06    -91.2185E+06    -29.2357E+06    -8.69783E+06    -51.0378E-03     102.148E-03    -51.1102E-03     19.0551E-03    -51.0187E-03     101.782E-03    -51.0800E-03     18.8970E-03
            1035     2.56555E-03     102.766E-03    -28.9005E+06    -89.8250E+06    -25.3325E+06    -12.0727E+06    -50.8583E-03     101.884E-03    -51.0257E-03     28.2463E-03    -50.8438E-03     101.521E-03    -50.9802E-03     28.0205E-03
            1036     3.42118E-03     102.795E-03    -26.4132E+06    -87.7854E+06    -20.5801E+06    -14.6565E+06    -50.6515E-03     101.562E-03    -50.9105E-03     37.5800E-03    -50.6411E-03     101.206E-03    -50.8478E-03     37.2939E-03
            1037     4.27716E-03     102.832E-03    -23.8520E+06    -84.5556E+06    -15.5855E+06    -16.4877E+06    -50.4325E-03     101.201E-03    -50.7687E-03     46.9876E-03    -50.4310E-03     100.860E-03    -50.6894E-03     46.6475E-03
            1038     5.13351E-03     102.876E-03    -21.4322E+06    -81.9503E+06    -10.8861E+06    -17.7774E+06    -50.2455E-03     100.853E-03    -50.6078E-03     56.4236E-03    -50.2562E-03     100.528E-03    -50.5123E-03     56.0318E-03
            1039     5.99022E-03     102.929E-03    -18.4946E+06    -78.2784E+06    -6.71066E+06    -19.0197E+06    -50.1327E-03     100.565E-03    -50.4325E-03     65.9500E-03    -50.1590E-03     100.267E-03    -50.3257E-03     65.5010E-03
            1040     6.84728E-03     102.990E-03    -15.8828E+06    -75.8246E+06    -3.27835E+06    -19.3138E+06    -50.1452E-03     100.402E-03    -50.2565E-03     75.5959E-03    -50.1933E-03     100.133E-03    -50.1399E-03     75.0939E-03
            1041     7.70450E-03     103.059E-03    -13.3423E+06    -72.2441E+06    -118.764E+03    -19.3657E+06    -50.3570E-03     100.448E-03    -50.0910E-03     85.3990E-03    -50.4388E-03     100.226E-03    -49.9674E-03     84.8360E-03
            1042     8.56195E-03     103.136E-03    -11.1636E+06    -70.4260E+06     1.60242E+06    -19.3705E+06    -50.8927E-03     100.845E-03    -49.9523E-03     95.3574E-03    -51.0210E-03     100.679E-03    -49.8259E-03     94.7185E-03
            1043     9.41893E-03     103.221E-03    -10.5104E+06    -67.4731E+06     1.03014E+06    -19.0480E+06    -51.8205E-03     101.674E-03    -49.8532E-03     105.782E-03    -52.0252E-03     101.598E-03    -49.7350E-03     105.050E-03
            1044     10.2756E-03     103.317E-03    -10.3666E+06    -64.1585E+06     584.970E+03    -19.8278E+06    -53.1744E-03     102.998E-03    -49.8232E-03     116.514E-03    -53.4946E-03     103.051E-03    -49.7122E-03     115.644E-03
            1045     11.1314E-03     103.421E-03    -9.57213E+06    -62.9516E+06    -2.92793E+06    -19.4686E+06    -55.0278E-03     104.894E-03    -49.8661E-03     126.928E-03    -55.5068E-03     105.124E-03    -49.7756E-03     125.897E-03
            1046     11.9858E-03     103.536E-03    -9.35025E+06    -54.8279E+06    -6.43861E+06    -17.8280E+06    -57.4144E-03     107.417E-03    -50.0026E-03     138.395E-03    -58.1695E-03     107.963E-03    -49.9417E-03     137.159E-03
            1047     12.8389E-03     103.663E-03    -10.1653E+06    -45.8207E+06    -10.8057E+06    -14.9902E+06    -60.3975E-03     110.641E-03    -50.2437E-03     154.984E-03    -61.6609E-03     111.737E-03    -50.2166E-03     153.473E-03
            1048     13.6889E-03     103.813E-03    -11.4526E+06    -13.8262E+06    -17.0071E+06    -9.98969E+06    -63.9995E-03     114.539E-03    -50.5394E-03     182.478E-03    -66.3977E-03     116.897E-03    -50.5878E-03     180.599E-03
            1049     14.5392E-03     103.999E-03    -12.0760E+06     56.2026E+06    -23.7824E+06    -5.06058E+06    -68.3528E-03     119.163E-03    -50.8101E-03     238.884E-03    -73.9767E-03     125.012E-03    -50.9930E-03     236.671E-03
            1050     15.3884E-03     104.269E-03    -10.4965E+06     135.813E+06     28.7558E+06    -2.11039E+06    -69.3117E-03     120.618E-03    -51.3063E-03     287.698E-03    -80.2770E-03     131.945E-03    -51.3443E-03     287.211E-03
            1051     16.2455E-03     104.556E-03    -6.38913E+06     165.938E+06     97.6700E+06    -1.75846E+06    -65.5680E-03     117.550E-03    -51.9817E-03     182.971E-03    -73.7471E-03     126.013E-03    -51.7247E-03     184.482E-03
            1052     856.058E-06     103.782E-03    -27.8450E+06    -82.4862E+06    -28.4264E+06    -5.79016E+06    -49.8379E-03     99.6154E-03    -49.7775E-03     10.5843E-03    -49.8172E-03     99.2858E-03    -49.7596E-03     10.4885E-03
            1053     1.71254E-03     103.794E-03    -27.2498E+06    -81.1585E+06    -26.7145E+06    -9.58359E+06    -49.6342E-03     99.3776E-03    -49.7434E-03     19.4746E-03    -49.6173E-03     99.0532E-03    -49.7198E-03     19.3112E-03
            1054     2.56904E-03     103.814E-03    -25.9215E+06    -80.9956E+06    -23.5602E+06    -12.8075E+06    -49.4299E-03     99.0672E-03    -49.6372E-03     28.9252E-03    -49.4151E-03     98.7409E-03    -49.6000E-03     28.6993E-03
            1055     3.42590E-03     103.843E-03    -24.4299E+06    -80.2541E+06    -20.0453E+06    -15.6536E+06    -49.1602E-03     98.6577E-03    -49.4974E-03     38.5609E-03    -49.1502E-03     98.3339E-03    -49.4459E-03     38.2752E-03
            1056     4.28321E-03     103.879E-03    -22.4392E+06    -78.7347E+06    -15.9300E+06    -17.4899E+06    -48.8629E-03     98.1887E-03    -49.3257E-03     48.3074E-03    -48.8598E-03     97.8723E-03    -49.2587E-03     47.9719E-03
            1057     5.14097E-03     103.923E-03    -19.8788E+06    -76.4493E+06    -11.5326E+06    -19.0572E+06    -48.6059E-03     97.7355E-03    -49.1296E-03     58.1660E-03    -48.6119E-03     97.4328E-03    -49.0476E-03     57.7802E-03
            1058     5.99914E-03     103.975E-03    -17.9437E+06    -74.2042E+06    -8.04458E+06    -19.7997E+06    -48.4479E-03     97.3670E-03    -48.9191E-03     68.1797E-03    -48.4697E-03     97.0847E-03    -48.8257E-03     67.7486E-03
            1059     6.85768E-03     104.035E-03    -16.1684E+06    -72.6941E+06    -4.95217E+06    -20.1784E+06    -48.4621E-03     97.1739E-03    -48.7118E-03     78.4007E-03    -48.5059E-03     96.9163E-03    -48.6077E-03     77.9210E-03
            1060     7.71652E-03     104.104E-03    -14.3941E+06    -69.3885E+06    -2.33520E+06    -20.3445E+06    -48.7507E-03     97.2714E-03    -48.5207E-03     88.8638E-03    -48.8287E-03     97.0584E-03    -48.4109E-03     88.3271E-03
            1061     8.57526E-03     104.182E-03    -13.2810E+06    -69.2506E+06    -287.520E+03    -19.4531E+06    -49.4489E-03     97.8247E-03    -48.3758E-03     99.5444E-03    -49.5748E-03     97.6582E-03    -48.2576E-03     98.9476E-03
            1062     9.43379E-03     104.268E-03    -12.0377E+06    -65.2728E+06     332.614E+03    -18.7894E+06    -50.6659E-03     98.9521E-03    -48.2862E-03     110.657E-03    -50.8675E-03     98.8781E-03    -48.1725E-03     109.973E-03
            1063     10.2916E-03     104.364E-03    -11.5113E+06    -60.9977E+06     1.20243E+06    -18.7752E+06    -52.5137E-03     100.807E-03    -48.2930E-03     121.981E-03    -52.8338E-03     100.866E-03    -48.1818E-03     121.167E-03
            1064     11.1478E-03     104.472E-03    -12.6345E+06    -62.5579E+06    -2.40794E+06    -18.7134E+06    -55.0117E-03     103.420E-03    -48.4083E-03     132.837E-03    -55.5013E-03     103.650E-03    -48.3113E-03     131.849E-03
            1065     12.0026E-03     104.588E-03    -13.9395E+06    -55.3890E+06    -5.65592E+06    -17.0243E+06    -58.1621E-03     106.815E-03    -48.6525E-03     144.622E-03    -58.9459E-03     107.369E-03    -48.5802E-03     143.412E-03
            1066     12.8541E-03     104.720E-03    -14.7700E+06    -49.1327E+06    -9.94883E+06    -14.4328E+06    -61.8580E-03     110.891E-03    -49.0330E-03     160.973E-03    -63.1645E-03     112.000E-03    -48.9901E-03     159.458E-03
            1067     13.7047E-03     104.872E-03    -13.4928E+06    -17.2801E+06    -14.1807E+06    -11.4058E+06    -66.2835E-03     115.782E-03    -49.4984E-03     188.106E-03    -68.7634E-03     118.194E-03    -49.5247E-03     186.147E-03
            1068     14.5512E-03     105.062E-03    -11.0342E+06     51.5424E+06    -15.7265E+06    -6.76686E+06    -70.3113E-03     120.281E-03    -49.9698E-03     238.252E-03    -75.9404E-03     126.100E-03    -50.1071E-03     235.953E-03
            1069     15.4041E-03     105.325E-03    -7.77501E+06     132.617E+06     35.2710E+06    -3.25221E+06    -72.1495E-03     122.808E-03    -50.6584E-03     281.594E-03    -82.9537E-03     133.953E-03    -50.6631E-03     280.750E-03
            1070     16.2460E-03     105.622E-03    -4.46559E+06     165.598E+06     98.9896E+06    -1.06810E+06    -69.7208E-03     121.268E-03    -51.5471E-03     180.161E-03    -77.7904E-03     129.623E-03    -51.2858E-03     181.275E-03
            1071     857.740E-06     104.828E-03    -22.0478E+06    -69.6786E+06    -22.0078E+06    -6.08399E+06    -48.0623E-03     96.1409E-03    -48.0786E-03     10.8262E-03    -48.0404E-03     95.8575E-03    -48.0556E-03     10.7301E-03
            1072     1.71540E-03     104.840E-03    -22.1011E+06    -70.7632E+06    -21.5388E+06    -9.94140E+06    -47.8681E-03     95.8679E-03    -47.9998E-03     19.9779E-03    -47.8477E-03     95.5800E-03    -47.9728E-03     19.8166E-03
            1073     2.57355E-03     104.859E-03    -21.2684E+06    -71.8920E+06    -19.9164E+06    -13.4176E+06    -47.6030E-03     95.4730E-03    -47.8701E-03     29.6973E-03    -47.5824E-03     95.1792E-03    -47.8346E-03     29.4740E-03
            1074     3.43204E-03     104.887E-03    -20.1665E+06    -72.5028E+06    -17.2648E+06    -15.9990E+06    -47.2685E-03     94.9701E-03    -47.7015E-03     39.6255E-03    -47.2506E-03     94.6729E-03    -47.6535E-03     39.3501E-03
            1075     4.29098E-03     104.922E-03    -19.0932E+06    -72.2730E+06    -15.3680E+06    -18.2978E+06    -46.9009E-03     94.3913E-03    -47.4904E-03     49.7617E-03    -46.8881E-03     94.0984E-03    -47.4348E-03     49.4355E-03
            1076     5.15045E-03     104.966E-03    -18.4706E+06    -71.4853E+06    -13.4143E+06    -19.3044E+06    -46.5712E-03     93.8233E-03    -47.2521E-03     60.0849E-03    -46.5699E-03     93.5412E-03    -47.1888E-03     59.7212E-03
            1077     6.01049E-03     105.018E-03    -17.7237E+06    -70.1283E+06    -10.3141E+06    -19.8921E+06    -46.3761E-03     93.3837E-03    -47.0075E-03     70.6352E-03    -46.3926E-03     93.1178E-03    -46.9317E-03     70.2340E-03
            1078     6.87089E-03     105.078E-03    -16.7201E+06    -69.0099E+06    -7.45749E+06    -20.4665E+06    -46.4415E-03     93.2134E-03    -46.7719E-03     81.4837E-03    -46.4805E-03     92.9692E-03    -46.6849E-03     81.0370E-03
            1079     7.73150E-03     105.146E-03    -16.8142E+06    -68.2503E+06    -5.16621E+06    -19.2770E+06    -46.9019E-03     93.4734E-03    -46.5716E-03     92.6241E-03    -46.9779E-03     93.2621E-03    -46.4741E-03     92.1427E-03
            1080     8.59201E-03     105.224E-03    -17.2768E+06    -66.9318E+06    -2.56819E+06    -18.7032E+06    -47.8968E-03     94.3346E-03    -46.4379E-03     103.992E-03    -48.0293E-03     94.1754E-03    -46.3286E-03     103.450E-03
            1081     9.45192E-03     105.311E-03    -16.9905E+06    -63.2753E+06    -1.28318E+06    -19.0691E+06    -49.6105E-03     96.0015E-03    -46.3910E-03     115.763E-03    -49.8241E-03     95.9336E-03    -46.2810E-03     115.119E-03
            1082     10.3105E-03     105.410E-03    -16.4281E+06    -60.0396E+06     350.429E+03    -17.9591E+06    -52.0906E-03     98.5663E-03    -46.4757E-03     127.582E-03    -52.4245E-03     98.6277E-03    -46.3631E-03     126.818E-03
            1083     11.1675E-03     105.519E-03    -16.5956E+06    -61.5932E+06    -985.701E+03    -16.3929E+06    -55.3449E-03     102.055E-03    -46.7103E-03     138.880E-03    -55.8548E-03     102.290E-03    -46.6018E-03     137.949E-03
            1084     12.0213E-03     105.641E-03    -17.2224E+06    -55.5071E+06    -3.52195E+06    -15.7162E+06    -59.2550E-03     106.356E-03    -47.1008E-03     151.075E-03    -60.0669E-03     106.920E-03    -47.0129E-03     149.891E-03
            1085     12.8732E-03     105.776E-03    -15.6431E+06    -49.0343E+06    -7.17828E+06    -15.7369E+06    -63.9856E-03     111.644E-03    -47.6588E-03     167.247E-03    -65.3378E-03     112.788E-03    -47.6009E-03     165.681E-03
            1086     13.7205E-03     105.932E-03    -13.3669E+06    -19.9649E+06    -10.7359E+06    -13.9583E+06    -69.2796E-03     117.623E-03    -48.3432E-03     193.582E-03    -71.8298E-03     120.086E-03    -48.3486E-03     191.503E-03
            1087     14.5659E-03     106.128E-03    -11.8417E+06     46.1497E+06    -10.7317E+06    -9.76273E+06    -75.2178E-03     124.323E-03    -49.1050E-03     240.482E-03    -80.9983E-03     130.257E-03    -49.2084E-03     237.862E-03
            1088     15.4036E-03     106.386E-03    -9.68505E+06     128.063E+06     37.8079E+06    -3.86853E+06    -78.5714E-03     128.707E-03    -50.1354E-03     283.870E-03    -89.7962E-03     140.243E-03    -50.1180E-03     282.438E-03
            1089     16.2478E-03     106.692E-03    -5.76088E+06     163.541E+06     98.0654E+06    -504.965E+03    -72.7533E-03     124.026E-03    -51.2724E-03     184.475E-03    -81.1642E-03     132.713E-03    -51.0109E-03     185.296E-03
            1090     859.416E-06     105.869E-03    -13.9159E+06    -57.4664E+06    -13.1262E+06    -5.37981E+06    -45.9355E-03     91.8373E-03    -45.9018E-03     11.0555E-03    -45.9034E-03     91.5900E-03    -45.8639E-03     10.9726E-03
            1091     1.71924E-03     105.881E-03    -13.4866E+06    -59.7383E+06    -12.8064E+06    -9.73217E+06    -45.6820E-03     91.5249E-03    -45.8429E-03     20.4446E-03    -45.6467E-03     91.2663E-03    -45.8008E-03     20.2934E-03
            1092     2.57915E-03     105.900E-03    -14.0291E+06    -63.3308E+06    -13.6096E+06    -12.8941E+06    -45.3648E-03     91.0527E-03    -45.6879E-03     30.4569E-03    -45.3286E-03     90.7808E-03    -45.6438E-03     30.2518E-03
            1093     3.43961E-03     105.927E-03    -14.8683E+06    -64.3286E+06    -15.4467E+06    -15.7240E+06    -44.9515E-03     90.4254E-03    -45.4739E-03     40.7005E-03    -44.9195E-03     90.1565E-03    -45.4363E-03     40.4447E-03
            1094     4.30061E-03     105.962E-03    -16.0078E+06    -66.3003E+06    -15.7942E+06    -17.4431E+06    -44.5146E-03     89.7408E-03    -45.2262E-03     51.2198E-03    -44.4909E-03     89.4703E-03    -45.1859E-03     50.9257E-03
            1095     5.16226E-03     106.005E-03    -17.2572E+06    -67.1752E+06    -15.1577E+06    -18.0395E+06    -44.1463E-03     89.1012E-03    -44.9549E-03     62.0222E-03    -44.1372E-03     88.8358E-03    -44.9082E-03     61.7013E-03
            1096     6.02437E-03     106.056E-03    -18.5427E+06    -65.5371E+06    -14.3224E+06    -18.8022E+06    -43.9818E-03     88.6578E-03    -44.6760E-03     73.1483E-03    -43.9954E-03     88.4139E-03    -44.6257E-03     72.7933E-03
            1097     6.88696E-03     106.115E-03    -20.9299E+06    -67.1807E+06    -11.8173E+06    -18.0078E+06    -44.2138E-03     88.6517E-03    -44.4379E-03     84.6020E-03    -44.2599E-03     88.4188E-03    -44.3692E-03     84.2240E-03
            1098     7.74953E-03     106.184E-03    -22.8354E+06    -66.7388E+06    -8.73817E+06    -17.1253E+06    -44.9887E-03     89.2490E-03    -44.2603E-03     96.3475E-03    -45.0795E-03     89.0468E-03    -44.1741E-03     95.9341E-03
            1099     8.61170E-03     106.263E-03    -23.0177E+06    -63.6435E+06    -5.09792E+06    -17.4733E+06    -46.4834E-03     90.6607E-03    -44.1773E-03     108.369E-03    -46.6324E-03     90.5165E-03    -44.0771E-03     107.883E-03
            1100     9.47267E-03     106.352E-03    -23.4424E+06    -61.3592E+06    -2.70155E+06    -17.5135E+06    -48.8180E-03     93.0416E-03    -44.2236E-03     120.788E-03    -49.0520E-03     92.9823E-03    -44.1142E-03     120.204E-03
            1101     10.3321E-03     106.453E-03    -23.8999E+06    -59.4300E+06    -1.15522E+06    -17.2320E+06    -52.0013E-03     96.4319E-03    -44.4306E-03     133.249E-03    -52.3625E-03     96.5007E-03    -44.3156E-03     132.526E-03
            1102     11.1886E-03     106.567E-03    -22.2632E+06    -61.3874E+06    -1.63676E+06    -16.8113E+06    -56.0074E-03     100.825E-03    -44.8172E-03     145.213E-03    -56.5449E-03     101.070E-03    -44.7041E-03     144.296E-03
            1103     12.0427E-03     106.692E-03    -18.6166E+06    -53.3485E+06    -1.27782E+06    -16.9351E+06    -60.7826E-03     106.175E-03    -45.3920E-03     157.745E-03    -61.6224E-03     106.763E-03    -45.2941E-03     156.542E-03
            1104     12.8923E-03     106.833E-03    -16.2848E+06    -47.8061E+06    -4.20470E+06    -17.4424E+06    -66.5197E-03     112.683E-03    -46.1635E-03     174.586E-03    -67.9284E-03     113.877E-03    -46.0916E-03     172.951E-03
            1105     13.7378E-03     106.996E-03    -15.7361E+06    -22.8744E+06    -8.41579E+06    -15.6574E+06    -72.5517E-03     119.638E-03    -47.0864E-03     200.355E-03    -75.1983E-03     122.173E-03    -47.0725E-03     198.144E-03
            1106     14.5801E-03     107.194E-03    -15.3207E+06     40.7420E+06    -8.00742E+06    -11.5650E+06    -79.6186E-03     127.726E-03    -48.1075E-03     248.316E-03    -85.6424E-03     133.864E-03    -48.1844E-03     245.396E-03
            1107     15.4213E-03     107.467E-03    -12.1094E+06     122.360E+06     37.9507E+06    -6.20480E+06    -84.2978E-03     133.712E-03    -49.4140E-03     290.298E-03    -95.9745E-03     145.671E-03    -49.3841E-03     288.381E-03
            1108     16.2564E-03     107.760E-03    -6.24436E+06     160.872E+06     96.3154E+06    -1.75801E+06    -78.2385E-03     129.084E-03    -50.8456E-03     184.973E-03    -86.9022E-03     138.018E-03    -50.5882E-03     185.393E-03
            1109     861.794E-06     106.906E-03    -7.94323E+06    -46.0795E+06    -9.02682E+06    -4.70161E+06    -43.3141E-03     86.6172E-03    -43.3031E-03     11.2944E-03    -43.2745E-03     86.4120E-03    -43.2699E-03     11.2244E-03
            1110     1.72359E-03     106.917E-03    -9.87992E+06    -49.7873E+06    -10.6693E+06    -8.65022E+06    -43.0444E-03     86.2614E-03    -43.2170E-03     20.8879E-03    -43.0081E-03     86.0436E-03    -43.1839E-03     20.7584E-03
            1111     2.58599E-03     106.936E-03    -11.4843E+06    -54.9747E+06    -13.3724E+06    -11.6790E+06    -42.6668E-03     85.7065E-03    -43.0397E-03     31.1705E-03    -42.6291E-03     85.4709E-03    -43.0102E-03     30.9927E-03
            1112     3.44875E-03     106.962E-03    -13.8504E+06    -57.1326E+06    -16.7504E+06    -13.9069E+06    -42.2062E-03     85.0054E-03    -42.7992E-03     41.7033E-03    -42.1753E-03     84.7704E-03    -42.7800E-03     41.4870E-03
            1113     4.31221E-03     106.996E-03    -17.3231E+06    -61.9931E+06    -18.7318E+06    -14.5293E+06    -41.7433E-03     84.2728E-03    -42.5295E-03     52.5723E-03    -41.7244E-03     84.0260E-03    -42.5082E-03     52.3366E-03
            1114     5.17618E-03     107.038E-03    -20.9897E+06    -62.3816E+06    -20.8785E+06    -15.3148E+06    -41.4086E-03     83.6409E-03    -42.2323E-03     63.8156E-03    -41.4110E-03     83.4072E-03    -42.2158E-03     63.5556E-03
            1115     6.04086E-03     107.088E-03    -25.4239E+06    -63.5151E+06    -20.6279E+06    -14.5210E+06    -41.4316E-03     83.3939E-03    -41.9623E-03     75.4578E-03    -41.4653E-03     83.1711E-03    -41.9365E-03     75.1882E-03
            1116     6.90552E-03     107.148E-03    -29.3559E+06    -65.5092E+06    -16.8249E+06    -13.4929E+06    -41.9965E-03     83.7619E-03    -41.7654E-03     87.4514E-03    -42.0697E-03     83.5466E-03    -41.7120E-03     87.1653E-03
            1117     7.76999E-03     107.217E-03    -31.3215E+06    -63.1227E+06    -12.3885E+06    -14.5398E+06    -43.2440E-03     84.9013E-03    -41.6573E-03     99.8147E-03    -43.3653E-03     84.7229E-03    -41.5823E-03     99.4700E-03
            1118     8.63344E-03     107.298E-03    -32.4775E+06    -61.0212E+06    -8.30717E+06    -15.4796E+06    -45.3209E-03     86.9997E-03    -41.6788E-03     112.547E-03    -45.5040E-03     86.8748E-03    -41.5848E-03     112.123E-03
            1119     9.49546E-03     107.389E-03    -32.4580E+06    -59.1888E+06    -4.79979E+06    -15.8403E+06    -48.2797E-03     90.1398E-03    -41.8602E-03     125.702E-03    -48.5476E-03     90.0963E-03    -41.7513E-03     125.171E-03
            1120     10.3550E-03     107.494E-03    -30.3155E+06    -56.0809E+06    -2.32622E+06    -17.5408E+06    -52.1378E-03     94.3577E-03    -42.2199E-03     139.052E-03    -52.5275E-03     94.4476E-03    -42.1063E-03     138.353E-03
            1121     11.2120E-03     107.612E-03    -26.6970E+06    -59.7343E+06    -2.80240E+06    -19.6799E+06    -56.9375E-03     99.7204E-03    -42.7830E-03     151.890E-03    -57.5004E-03     99.9851E-03    -42.6717E-03     150.949E-03
            1122     12.0646E-03     107.743E-03    -23.9691E+06    -52.0761E+06    -2.06484E+06    -19.4939E+06    -62.5573E-03     106.120E-03    -43.5624E-03     165.301E-03    -63.4455E-03     106.745E-03    -43.4624E-03     164.053E-03
            1123     12.9133E-03     107.891E-03    -21.5481E+06    -45.9236E+06    -3.72770E+06    -19.6898E+06    -68.8609E-03     113.413E-03    -44.5517E-03     182.904E-03    -70.3484E-03     114.672E-03    -44.4725E-03     181.197E-03
            1124     13.7578E-03     108.061E-03    -17.0835E+06    -25.1117E+06    -7.66643E+06    -18.8837E+06    -75.9633E-03     121.668E-03    -45.7049E-03     208.527E-03    -78.7196E-03     124.298E-03    -45.6820E-03     206.147E-03
            1125     14.5974E-03     108.266E-03    -12.2286E+06     35.0422E+06    -4.23994E+06    -13.0212E+06    -84.3624E-03     131.372E-03    -47.0092E-03     254.593E-03    -90.5699E-03     137.674E-03    -47.0635E-03     251.337E-03
            1126     15.4332E-03     108.541E-03    -9.95574E+06     116.839E+06     40.9877E+06    -6.53883E+06    -89.2726E-03     137.881E-03    -48.6084E-03     292.619E-03    -101.083E-03     149.953E-03    -48.5584E-03     290.217E-03
            1127     16.2636E-03     108.847E-03    -6.21518E+06     156.859E+06     95.0486E+06    -2.74193E+06    -84.6619E-03     135.007E-03    -50.3451E-03     183.371E-03    -93.2990E-03     143.904E-03    -50.0883E-03     183.265E-03
            1128     864.356E-06     107.937E-03    -9.28334E+06    -36.6422E+06    -10.2862E+06    -4.00352E+06    -40.1931E-03     80.4812E-03    -40.2881E-03     11.5260E-03    -40.1720E-03     80.3266E-03    -40.2730E-03     11.4686E-03
            1129     1.72904E-03     107.948E-03    -11.5902E+06    -41.1028E+06    -13.7143E+06    -6.87433E+06    -39.9645E-03     80.1042E-03    -40.1396E-03     21.2029E-03    -39.9445E-03     79.9359E-03    -40.1318E-03     21.1034E-03
            1130     2.59389E-03     107.966E-03    -14.5062E+06    -47.2641E+06    -17.5601E+06    -10.0476E+06    -39.5507E-03     79.5023E-03    -39.9516E-03     31.7041E-03    -39.5320E-03     79.3143E-03    -39.9498E-03     31.5582E-03
            1131     3.45950E-03     107.991E-03    -18.8136E+06    -53.9041E+06    -21.8013E+06    -9.96283E+06    -39.0878E-03     78.7947E-03    -39.7068E-03     42.4841E-03    -39.0768E-03     78.5878E-03    -39.7104E-03     42.3336E-03
            1132     4.32551E-03     108.025E-03    -24.3603E+06    -58.1539E+06    -26.4114E+06    -9.62741E+06    -38.7106E-03     78.1387E-03    -39.4281E-03     53.6736E-03    -38.7174E-03     77.9283E-03    -39.4405E-03     53.5201E-03
            1133     5.19229E-03     108.066E-03    -30.8664E+06    -59.7235E+06    -28.0443E+06    -9.28453E+06    -38.6057E-03     77.7719E-03    -39.1662E-03     65.2782E-03    -38.6453E-03     77.5705E-03    -39.1750E-03     65.1186E-03
            1134     6.05911E-03     108.116E-03    -36.2523E+06    -62.8092E+06    -24.8892E+06    -8.50574E+06    -38.9759E-03     77.9496E-03    -38.9737E-03     77.3340E-03    -39.0511E-03     77.7447E-03    -38.9545E-03     77.1675E-03
            1135     6.92591E-03     108.176E-03    -38.4370E+06    -61.4808E+06    -20.3074E+06    -9.94034E+06    -39.9706E-03     78.8328E-03    -38.8622E-03     89.8941E-03    -40.0807E-03     78.6466E-03    -38.8188E-03     89.6818E-03
            1136     7.79186E-03     108.247E-03    -38.7800E+06    -59.8026E+06    -14.3678E+06    -11.5774E+06    -41.7590E-03     80.6362E-03    -38.8771E-03     102.960E-03    -41.9090E-03     80.4775E-03    -38.8060E-03     102.683E-03
            1137     8.65659E-03     108.329E-03    -38.0936E+06    -57.3989E+06    -8.62565E+06    -13.0472E+06    -44.4003E-03     83.4455E-03    -39.0452E-03     116.481E-03    -44.6052E-03     83.3363E-03    -38.9498E-03     116.117E-03
            1138     9.51913E-03     108.424E-03    -35.7159E+06    -55.4371E+06    -4.91504E+06    -15.7034E+06    -47.9184E-03     87.3004E-03    -39.3820E-03     130.554E-03    -48.1978E-03     87.2705E-03    -39.2744E-03     130.054E-03
            1139     10.3793E-03     108.533E-03    -32.4604E+06    -50.3267E+06    -1.93125E+06    -18.8743E+06    -52.4210E-03     92.3326E-03    -39.9117E-03     144.991E-03    -52.8246E-03     92.4483E-03    -39.8013E-03     144.297E-03
            1140     11.2357E-03     108.656E-03    -30.0514E+06    -56.6912E+06    -2.78246E+06    -21.3729E+06    -57.9457E-03     98.6117E-03    -40.6661E-03     158.924E-03    -58.5341E-03     98.9008E-03    -40.5542E-03     157.972E-03
            1141     12.0881E-03     108.794E-03    -26.4715E+06    -50.9033E+06    -3.06323E+06    -22.2214E+06    -64.2470E-03     105.889E-03    -41.6422E-03     173.331E-03    -65.1703E-03     106.548E-03    -41.5453E-03     172.037E-03
            1142     12.9357E-03     108.949E-03    -21.0645E+06    -41.7019E+06    -2.06634E+06    -23.8109E+06    -71.4497E-03     114.302E-03    -42.8526E-03     191.253E-03    -72.9975E-03     115.635E-03    -42.7719E-03     189.436E-03
            1143     13.7781E-03     109.126E-03    -17.0502E+06    -28.4047E+06    -7.31110E+06    -22.9970E+06    -80.0347E-03     124.300E-03    -44.2654E-03     216.852E-03    -82.9095E-03     127.036E-03    -44.2360E-03     214.250E-03
            1144     14.6146E-03     109.341E-03    -15.1472E+06     25.5594E+06    -4.37059E+06    -16.4551E+06    -89.7701E-03     135.650E-03    -45.8795E-03     262.707E-03    -96.2082E-03     142.139E-03    -45.9165E-03     259.033E-03
            1145     15.4426E-03     109.626E-03    -11.4917E+06     110.786E+06     41.0855E+06    -8.35264E+06    -94.3492E-03     142.118E-03    -47.7693E-03     298.522E-03    -106.387E-03     154.390E-03    -47.7079E-03     295.594E-03
            1146     16.2756E-03     109.927E-03    -6.28227E+06     152.614E+06     92.2368E+06    -3.34912E+06    -91.6898E-03     141.497E-03    -49.8076E-03     188.453E-03    -100.464E-03     150.525E-03    -49.5586E-03     187.816E-03
            1147     867.379E-06     108.962E-03    -14.7703E+06    -29.8611E+06    -15.0201E+06    -3.21283E+06    -36.7970E-03     73.6316E-03    -36.8345E-03     11.5565E-03    -36.8063E-03     73.5255E-03    -36.8449E-03     11.5123E-03
            1148     1.73486E-03     108.972E-03    -17.0963E+06    -34.4175E+06    -19.2031E+06    -4.59811E+06    -36.4965E-03     73.2028E-03    -36.7063E-03     21.2871E-03    -36.5052E-03     73.0833E-03    -36.7276E-03     21.2230E-03
            1149     2.60293E-03     108.989E-03    -22.9513E+06    -43.2886E+06    -25.3316E+06    -4.99074E+06    -36.1178E-03     72.6278E-03    -36.5101E-03     31.8829E-03    -36.1346E-03     72.4819E-03    -36.5407E-03     31.8115E-03
            1150     3.47132E-03     109.014E-03    -30.3367E+06    -53.6696E+06    -32.1057E+06    -3.81092E+06    -35.7779E-03     72.0590E-03    -36.2811E-03     42.8687E-03    -35.8076E-03     71.8827E-03    -36.3198E-03     42.8099E-03
            1151     4.34043E-03     109.046E-03    -37.2363E+06    -55.9371E+06    -35.1860E+06    -2.89636E+06    -35.6635E-03     71.7227E-03    -36.0592E-03     54.2848E-03    -35.7217E-03     71.5514E-03    -36.1000E-03     54.2333E-03
            1152     5.20946E-03     109.087E-03    -42.1670E+06    -59.4714E+06    -31.6179E+06    -2.44283E+06    -35.9606E-03     71.8719E-03    -35.9113E-03     66.2146E-03    -36.0470E-03     71.6885E-03    -35.9220E-03     66.1606E-03
            1153     6.07851E-03     109.138E-03    -44.0202E+06    -59.4244E+06    -26.1293E+06    -4.03962E+06    -36.7638E-03     72.6031E-03    -35.8393E-03     78.7311E-03    -36.8746E-03     72.4219E-03    -35.8199E-03     78.6419E-03
            1154     6.94691E-03     109.199E-03    -44.0875E+06    -56.7566E+06    -20.1979E+06    -7.09212E+06    -38.2192E-03     74.0880E-03    -35.8688E-03     91.9074E-03    -38.3566E-03     73.9256E-03    -35.8236E-03     91.7537E-03
            1155     7.81439E-03     109.271E-03    -42.8163E+06    -56.3172E+06    -13.9369E+06    -9.75359E+06    -40.4818E-03     76.5200E-03    -36.0383E-03     105.766E-03    -40.6482E-03     76.3747E-03    -35.9642E-03     105.537E-03
            1156     8.67994E-03     109.356E-03    -39.5837E+06    -52.0520E+06    -8.22173E+06    -12.9531E+06    -43.5659E-03     79.9260E-03    -36.3601E-03     120.224E-03    -43.7761E-03     79.8346E-03    -36.2683E-03     119.888E-03
            1157     9.54345E-03     109.455E-03    -35.8163E+06    -49.9663E+06    -4.08588E+06    -16.5081E+06    -47.6027E-03     84.4644E-03    -36.8617E-03     135.426E-03    -47.8819E-03     84.4510E-03    -36.7577E-03     134.942E-03
            1158     10.4037E-03     109.569E-03    -33.2896E+06    -45.2948E+06    -1.31237E+06    -18.8357E+06    -52.7193E-03     90.2844E-03    -37.5650E-03     151.182E-03    -53.1297E-03     90.4200E-03    -37.4576E-03     150.511E-03
            1159     11.2603E-03     109.699E-03    -29.9802E+06    -50.2771E+06    -1.63460E+06    -22.9293E+06    -58.8628E-03     97.3633E-03    -38.5005E-03     166.373E-03    -59.4656E-03     97.6866E-03    -38.3923E-03     165.413E-03
            1160     12.1120E-03     109.844E-03    -24.5825E+06    -47.5505E+06    -3.44157E+06    -27.0924E+06    -65.9930E-03     105.658E-03    -39.6653E-03     181.875E-03    -66.9348E-03     106.355E-03    -39.5779E-03     180.506E-03
            1161     12.9585E-03     110.007E-03    -20.8021E+06    -39.7737E+06    -2.53553E+06    -26.5840E+06    -74.4982E-03     115.603E-03    -41.1052E-03     200.807E-03    -76.1127E-03     117.012E-03    -41.0301E-03     198.880E-03
            1162     13.7982E-03     110.195E-03    -19.4281E+06    -30.0919E+06    -6.67628E+06    -25.4881E+06    -84.7122E-03     127.518E-03    -42.8062E-03     227.574E-03    -87.7626E-03     130.415E-03    -42.7678E-03     224.728E-03
            1163     14.6303E-03     110.421E-03    -16.0514E+06     15.3911E+06    -5.13370E+06    -20.0052E+06    -94.9160E-03     139.639E-03    -44.7228E-03     270.727E-03    -101.512E-03     146.249E-03    -44.7475E-03     266.656E-03
            1164     15.4632E-03     110.712E-03    -10.8488E+06     101.687E+06     38.2670E+06    -11.1289E+06    -100.563E-03     147.489E-03    -46.9256E-03     300.404E-03    -112.604E-03     159.743E-03    -46.8659E-03     296.723E-03
            1165     16.2835E-03     111.019E-03    -5.37186E+06     146.896E+06     89.8306E+06    -4.85013E+06    -99.0486E-03     148.382E-03    -49.3336E-03     191.419E-03    -107.858E-03     157.435E-03    -49.0897E-03     190.039E-03
            1166     870.472E-06     109.979E-03    -27.6398E+06    -25.5480E+06    -27.7299E+06    -1.28294E+06    -33.1132E-03     66.2486E-03    -33.1354E-03     11.3477E-03    -33.1745E-03     66.2009E-03    -33.1969E-03     11.3308E-03
            1167     1.74136E-03     109.989E-03    -32.6183E+06    -33.5116E+06    -34.5169E+06    -91.1391E+03    -32.8215E-03     65.8385E-03    -33.0170E-03     21.0945E-03    -32.8865E-03     65.7677E-03    -33.0937E-03     21.0929E-03
            1168     2.61246E-03     110.005E-03    -39.7877E+06    -44.5843E+06    -40.5535E+06     2.70271E+06    -32.5967E-03     65.4527E-03    -32.8561E-03     31.6537E-03    -32.6727E-03     65.3458E-03    -32.9365E-03     31.6881E-03
            1169     3.48404E-03     110.029E-03    -46.2941E+06    -53.9175E+06    -41.9963E+06     3.50811E+06    -32.5719E-03     65.2968E-03    -32.7249E-03     42.7249E-03    -32.6649E-03     65.1550E-03    -32.7896E-03     42.7690E-03
            1170     4.35546E-03     110.061E-03    -50.2509E+06    -56.1182E+06    -39.4026E+06     3.34039E+06    -32.8509E-03     65.4926E-03    -32.6417E-03     54.3348E-03    -32.9650E-03     65.3427E-03    -32.6845E-03     54.3742E-03
            1171     5.22694E-03     110.103E-03    -51.1387E+06    -57.1764E+06    -34.2793E+06     1.35149E+06    -33.5537E-03     66.1857E-03    -32.6320E-03     66.6041E-03    -33.6806E-03     66.0269E-03    -32.6463E-03     66.6115E-03
            1172     6.09779E-03     110.154E-03    -49.3024E+06    -54.3935E+06    -27.0332E+06    -2.58322E+06    -34.7851E-03     67.4992E-03    -32.7141E-03     79.6084E-03    -34.9232E-03     67.3471E-03    -32.6989E-03     79.5525E-03
            1173     6.96786E-03     110.217E-03    -45.9183E+06    -52.5759E+06    -19.0848E+06    -5.83925E+06    -36.6673E-03     69.5804E-03    -32.9131E-03     93.4665E-03    -36.8148E-03     69.4333E-03    -32.8657E-03     93.3462E-03
            1174     7.83634E-03     110.292E-03    -41.8348E+06    -50.3500E+06    -12.6121E+06     -9.8866E+06    -39.2672E-03     72.5061E-03    -33.2389E-03     108.227E-03    -39.4307E-03     72.3786E-03    -33.1682E-03     108.017E-03
            1175     8.70321E-03     110.380E-03    -37.4094E+06    -46.1703E+06    -7.36321E+06    -14.2772E+06    -42.7032E-03     76.4148E-03    -33.7117E-03     123.745E-03    -42.9018E-03     76.3380E-03    -33.6273E-03     123.416E-03
            1176     9.56735E-03     110.483E-03    -34.1279E+06    -45.8481E+06    -3.42686E+06    -16.2291E+06    -47.2117E-03     81.5806E-03    -34.3689E-03     140.243E-03    -47.4787E-03     81.5738E-03    -34.2700E-03     139.789E-03
            1177     10.4283E-03     110.603E-03    -30.7884E+06    -39.2304E+06    -25.9464E+03    -19.1228E+06    -52.8316E-03     88.0587E-03    -35.2270E-03     157.483E-03    -53.2320E-03     88.2110E-03    -35.1257E-03     156.833E-03
            1178     11.2848E-03     110.739E-03    -26.2829E+06    -39.9138E+06     1.15611E+06    -25.6980E+06    -59.5998E-03     95.9226E-03    -36.3228E-03     174.225E-03    -60.2032E-03     96.2885E-03    -36.2210E-03     173.246E-03
            1179     12.1365E-03     110.893E-03    -23.4279E+06    -44.2914E+06    -2.83751E+06    -29.4834E+06    -67.7373E-03     105.408E-03    -37.6702E-03     191.362E-03    -68.7012E-03     106.141E-03    -37.5862E-03     189.952E-03
            1180     12.9817E-03     111.066E-03    -21.4060E+06    -41.3783E+06    -3.54247E+06    -27.9297E+06    -77.5005E-03     116.824E-03    -39.3235E-03     212.146E-03    -79.1833E-03     118.296E-03    -39.2501E-03     210.129E-03
            1181     13.8196E-03     111.266E-03    -17.0777E+06    -25.5901E+06    -4.00759E+06    -28.1710E+06    -89.1420E-03     130.417E-03    -41.2755E-03     240.860E-03    -92.3532E-03     133.492E-03    -41.2336E-03     237.783E-03
            1182     14.6496E-03     111.505E-03    -11.7915E+06     5.02651E+06    -6.32904E+06    -25.1831E+06    -101.387E-03     144.883E-03    -43.4957E-03     282.016E-03    -108.208E-03     151.701E-03    -43.5175E-03     277.378E-03
            1183     15.4673E-03     111.800E-03    -7.50635E+06     87.2428E+06     33.3562E+06    -12.3177E+06    -108.820E-03     154.886E-03    -46.0657E-03     310.039E-03    -121.298E-03     167.553E-03    -46.0146E-03     305.301E-03
            1184     16.2853E-03     112.120E-03    -4.19654E+06     142.282E+06     89.1315E+06    -3.30682E+06    -107.158E-03     156.042E-03    -48.8837E-03     200.981E-03    -116.397E-03     165.514E-03    -48.6383E-03     198.698E-03
            1185     873.897E-06     110.988E-03    -47.9162E+06    -29.2431E+06    -45.6882E+06     5.58477E+06    -29.3271E-03     58.6919E-03    -29.3648E-03     10.9930E-03    -29.4583E-03     58.6811E-03    -29.4814E-03     11.0663E-03
            1186     1.74786E-03     110.998E-03    -55.3126E+06    -38.4704E+06    -52.2026E+06     7.74490E+06    -29.2671E-03     58.5699E-03    -29.3028E-03     20.5472E-03    -29.4124E-03     58.5327E-03    -29.4278E-03     20.6494E-03
            1187     2.62213E-03     111.014E-03    -59.7632E+06    -48.3806E+06    -53.5610E+06     8.96700E+06    -29.3588E-03     58.6331E-03    -29.2743E-03     30.9843E-03    -29.5096E-03     58.5544E-03    -29.3853E-03     31.1034E-03
            1188     3.49614E-03     111.038E-03    -60.4440E+06    -54.2663E+06    -49.2723E+06     8.13062E+06    -29.6912E-03     58.9892E-03    -29.2980E-03     42.0689E-03    -29.8427E-03     58.8757E-03    -29.3780E-03     42.1776E-03
            1189     4.37009E-03     111.071E-03    -58.3907E+06    -55.2217E+06    -43.2699E+06     5.56207E+06    -30.3503E-03     59.7246E-03    -29.3743E-03     53.8668E-03    -30.4989E-03     59.5948E-03    -29.4259E-03     53.9411E-03
            1190     5.24338E-03     111.113E-03    -54.2789E+06    -52.3333E+06    -35.8294E+06     1.36627E+06    -31.4174E-03     60.9397E-03    -29.5224E-03     66.4736E-03    -31.5619E-03     60.8093E-03    -29.5469E-03     66.4893E-03
            1191     6.11604E-03     111.165E-03    -49.8281E+06    -49.2558E+06    -27.4135E+06    -3.06737E+06    -32.9926E-03     62.7582E-03    -29.7655E-03     79.9801E-03    -33.1361E-03     62.6290E-03    -29.7589E-03     79.9286E-03
            1192     6.98741E-03     111.230E-03    -44.9903E+06    -47.4811E+06    -20.0015E+06    -7.49297E+06    -35.1549E-03     65.2680E-03    -30.1131E-03     94.5358E-03    -35.2979E-03     65.1404E-03    -30.0790E-03     94.4081E-03
            1193     7.85745E-03     111.308E-03    -39.0707E+06    -42.9962E+06    -12.7000E+06    -12.3055E+06    -38.0085E-03     68.5877E-03    -30.5792E-03     110.187E-03    -38.1603E-03     68.4848E-03    -30.5237E-03     109.963E-03
            1194     8.72527E-03     111.400E-03    -34.3063E+06    -41.8443E+06    -6.89090E+06    -15.2681E+06    -41.7732E-03     72.9659E-03    -31.1927E-03     126.802E-03    -41.9524E-03     72.8948E-03    -31.1167E-03     126.483E-03
            1195     9.59047E-03     111.508E-03    -29.5469E+06    -42.2312E+06    -2.71149E+06    -17.3437E+06    -46.6054E-03     78.5833E-03    -31.9779E-03     144.694E-03    -46.8428E-03     78.5739E-03    -31.8874E-03     144.253E-03
            1196     10.4520E-03     111.634E-03    -23.7569E+06    -30.8024E+06     2.68926E+06    -21.4354E+06    -52.6186E-03     85.5761E-03    -32.9576E-03     163.628E-03    -52.9864E-03     85.7430E-03    -32.8650E-03     162.978E-03
            1197     11.3094E-03     111.778E-03    -20.6650E+06    -31.3138E+06     4.52726E+06    -25.6049E+06    -60.0470E-03     94.2320E-03    -34.1851E-03     182.212E-03    -60.6317E-03     94.6200E-03    -34.0871E-03     181.260E-03
            1198     12.1608E-03     111.940E-03    -20.1817E+06    -40.5557E+06    -261.150E+03    -27.8890E+06    -69.1317E-03     104.816E-03    -35.6847E-03     201.516E-03    -70.0996E-03     105.571E-03    -35.5979E-03     200.130E-03
            1199     13.0055E-03     112.125E-03    -18.6341E+06    -40.0013E+06    -1.62563E+06    -29.7774E+06    -80.0253E-03     117.535E-03    -37.5098E-03     224.664E-03    -81.7554E-03     119.064E-03    -37.4329E-03     222.571E-03
            1200     13.8422E-03     112.338E-03    -16.1335E+06    -19.8698E+06    -1.35183E+06    -31.5680E+06    -92.9826E-03     132.641E-03    -39.6583E-03     255.806E-03    -96.3310E-03     135.868E-03    -39.6129E-03     252.524E-03
            1201     14.6695E-03     112.593E-03    -15.5545E+06    -4.96277E+06    -6.81110E+06    -28.5350E+06    -106.958E-03     149.084E-03    -42.1258E-03     297.923E-03    -114.057E-03     156.134E-03    -42.1301E-03     292.799E-03
            1202     15.4916E-03     112.904E-03    -13.3890E+06     69.4753E+06     22.9564E+06    -17.4490E+06    -117.188E-03     162.168E-03    -44.9801E-03     324.710E-03    -130.199E-03     175.316E-03    -44.9466E-03     318.847E-03
            1203     16.3026E-03     113.230E-03    -6.59253E+06     134.311E+06     80.6834E+06    -6.33555E+06    -118.158E-03     166.399E-03    -48.2413E-03     211.194E-03    -127.842E-03     176.307E-03    -48.0231E-03     207.702E-03
            1204     877.085E-06     111.990E-03    -77.2544E+06    -44.7501E+06    -75.3180E+06     10.3632E+06    -25.9044E-03     51.6896E-03    -25.7852E-03     10.4041E-03    -26.1166E-03     51.6869E-03    -25.9849E-03     10.5396E-03
            1205     1.75412E-03     112.000E-03    -75.1563E+06    -45.6419E+06    -68.0279E+06     13.2310E+06    -26.1389E-03     52.0549E-03    -25.9160E-03     19.7276E-03    -26.3498E-03     52.0335E-03    -26.0810E-03     19.9017E-03
            1206     2.63061E-03     112.016E-03    -72.3715E+06    -50.9884E+06    -61.5816E+06     11.3900E+06    -26.6016E-03     52.6637E-03    -26.0622E-03     30.0308E-03    -26.7995E-03     52.6018E-03    -26.1912E-03     30.1828E-03
            1207     3.50702E-03     112.041E-03    -68.3638E+06    -53.4911E+06    -56.4809E+06     8.10194E+06    -27.2575E-03     53.4961E-03    -26.2385E-03     41.0672E-03    -27.4386E-03     53.4079E-03    -26.3442E-03     41.1778E-03
            1208     4.38283E-03     112.074E-03    -62.6520E+06    -50.8697E+06    -49.3788E+06     2.94184E+06    -28.1976E-03     54.6610E-03    -26.4634E-03     52.9358E-03    -28.3639E-03     54.5671E-03    -26.5457E-03     52.9795E-03
            1209     5.25806E-03     112.118E-03    -55.7947E+06    -46.9781E+06    -40.0655E+06    -2.33485E+06    -29.5181E-03     56.2774E-03    -26.7593E-03     65.7851E-03    -29.6700E-03     56.1803E-03    -26.8106E-03     65.7579E-03
            1210     6.13218E-03     112.172E-03    -48.5877E+06    -44.4141E+06    -30.8116E+06    -6.32477E+06    -31.3021E-03     58.4375E-03    -27.1354E-03     79.7365E-03    -31.4382E-03     58.3325E-03    -27.1546E-03     79.6505E-03
            1211     7.00514E-03     112.239E-03    -41.9369E+06    -40.4089E+06    -22.1711E+06    -10.8346E+06    -33.6468E-03     61.2488E-03    -27.6021E-03     94.9056E-03    -33.7763E-03     61.1502E-03    -27.5935E-03     94.7462E-03
            1212     7.87634E-03     112.320E-03    -37.3788E+06    -37.3735E+06    -14.3254E+06    -14.5590E+06    -36.7216E-03     64.9059E-03    -28.1844E-03     111.361E-03    -36.8626E-03     64.8231E-03    -28.1476E-03     111.125E-03
            1213     8.74547E-03     112.416E-03    -33.3403E+06    -38.1035E+06    -8.33221E+06    -16.8415E+06    -40.6769E-03     69.5805E-03    -28.9035E-03     129.061E-03    -40.8429E-03     69.5170E-03    -28.8416E-03     128.744E-03
            1214     9.61160E-03     112.529E-03    -27.6854E+06    -34.4570E+06    -2.66458E+06    -21.9433E+06    -45.6899E-03     75.4682E-03    -29.7782E-03     148.402E-03    -45.9129E-03     75.4784E-03    -29.7014E-03     147.931E-03
            1215     10.4745E-03     112.661E-03    -22.1656E+06    -26.7013E+06     2.75816E+06    -24.6852E+06    -52.0402E-03     82.8852E-03    -30.8450E-03     169.061E-03    -52.3852E-03     83.0492E-03    -30.7604E-03     168.406E-03
            1216     11.3325E-03     112.814E-03    -19.4024E+06    -26.5310E+06     5.60018E+06    -24.2752E+06    -60.0055E-03     92.1657E-03    -32.1602E-03     189.771E-03    -60.5710E-03     92.5528E-03    -32.0656E-03     188.876E-03
            1217     12.1847E-03     112.986E-03    -18.1705E+06    -34.6858E+06     2.95820E+06    -26.7380E+06    -69.8660E-03     103.628E-03    -33.7619E-03     211.645E-03    -70.8262E-03     104.393E-03    -33.6705E-03     210.302E-03
            1218     13.0296E-03     113.183E-03    -16.3703E+06    -33.1673E+06     2.86680E+06    -31.1088E+06    -81.9412E-03     117.650E-03    -35.7089E-03     237.462E-03    -83.6995E-03     119.227E-03    -35.6227E-03     235.333E-03
            1219     13.8658E-03     113.411E-03    -15.3210E+06    -16.9786E+06     2.11242E+06    -31.9009E+06    -96.3098E-03     134.321E-03    -38.0111E-03     270.625E-03    -99.7505E-03     137.644E-03    -37.9537E-03     267.205E-03
            1220     14.6931E-03     113.682E-03    -14.9050E+06    -12.8642E+06    -2.09550E+06    -26.9017E+06    -112.038E-03     152.736E-03    -40.6988E-03     312.084E-03    -119.244E-03     159.855E-03    -40.6691E-03     306.586E-03
            1221     15.5080E-03     114.007E-03    -12.6965E+06     57.9126E+06     26.0245E+06    -19.7938E+06    -125.774E-03     169.628E-03    -43.8536E-03     338.246E-03    -139.137E-03     183.082E-03    -43.7890E-03     331.140E-03
            1222     16.3085E-03     114.355E-03    -8.18881E+06     121.048E+06     77.4108E+06    -10.9662E+06    -130.391E-03     177.954E-03    -47.5629E-03     222.216E-03    -140.505E-03     188.250E-03    -47.3395E-03     217.193E-03
            1223     879.545E-06     112.985E-03    -106.745E+06    -59.5988E+06    -106.192E+06     4.25299E+06    -23.2752E-03     46.3264E-03    -23.0512E-03     9.69965E-03    -23.5683E-03     46.3372E-03    -23.3410E-03     9.75600E-03
            1224     1.75874E-03     112.995E-03    -94.1636E+06    -52.3000E+06    -91.8786E+06     6.71331E+06    -23.6281E-03     46.8946E-03    -23.2664E-03     18.5384E-03    -23.8896E-03     46.9022E-03    -23.5135E-03     18.6280E-03
            1225     2.63767E-03     113.013E-03    -81.7146E+06    -50.7155E+06    -79.6724E+06     5.22434E+06    -24.2832E-03     47.7641E-03    -23.4809E-03     28.6156E-03    -24.5019E-03     47.7434E-03    -23.6872E-03     28.6878E-03
            1226     3.51575E-03     113.038E-03    -70.4693E+06    -50.5059E+06    -67.8523E+06     1.22039E+06    -25.2367E-03     48.9991E-03    -23.7624E-03     39.6727E-03    -25.4160E-03     48.9453E-03    -23.9262E-03     39.6948E-03
            1227     4.39321E-03     113.073E-03    -60.7115E+06    -44.1964E+06    -56.4159E+06    -3.82954E+06    -26.4258E-03     50.5279E-03    -24.1020E-03     51.5778E-03    -26.5814E-03     50.4744E-03    -24.2320E-03     51.5352E-03
            1228     5.26979E-03     113.118E-03    -52.9880E+06    -42.3619E+06    -45.9420E+06    -7.94237E+06    -27.9111E-03     52.4200E-03    -24.5088E-03     64.5062E-03    -28.0460E-03     52.3495E-03    -24.6003E-03     64.4092E-03
            1229     6.14543E-03     113.175E-03    -46.6533E+06    -38.6285E+06    -35.8874E+06    -11.5271E+06    -29.7838E-03     54.7639E-03    -24.9801E-03     78.6520E-03    -29.9090E-03     54.6902E-03    -25.0358E-03     78.5038E-03
            1230     7.01971E-03     113.244E-03    -40.9107E+06    -34.3727E+06    -25.7240E+06    -14.9955E+06    -32.2374E-03     57.7724E-03    -25.5350E-03     94.2456E-03    -32.3610E-03     57.7033E-03    -25.5544E-03     94.0410E-03
            1231     7.89227E-03     113.328E-03    -35.7992E+06    -34.2356E+06    -16.1403E+06    -16.2320E+06    -35.4199E-03     61.6198E-03    -26.1999E-03     111.336E-03    -35.5471E-03     61.5452E-03    -26.1790E-03     111.093E-03
            1232     8.76243E-03     113.428E-03    -30.8917E+06    -31.2241E+06    -8.27151E+06    -19.6765E+06    -39.4117E-03     66.3914E-03    -26.9797E-03     129.977E-03    -39.5623E-03     66.3456E-03    -26.9309E-03     129.646E-03
            1233     9.63016E-03     113.547E-03    -27.6279E+06    -26.1689E+06    -2.31315E+06    -24.0515E+06    -44.5416E-03     72.4447E-03    -27.9031E-03     150.627E-03    -44.7561E-03     72.4752E-03    -27.8366E-03     150.161E-03
            1234     10.4939E-03     113.685E-03    -27.0970E+06    -25.0983E+06     1.20906E+06    -25.5241E+06    -51.1388E-03     80.1569E-03    -29.0181E-03     172.938E-03    -51.4788E-03     80.3086E-03    -28.9364E-03     172.316E-03
            1235     11.3534E-03     113.846E-03    -24.6581E+06    -23.1366E+06     5.00376E+06    -26.4112E+06    -59.4619E-03     89.8375E-03    -30.3756E-03     195.837E-03    -60.0189E-03     90.2113E-03    -30.2813E-03     194.968E-03
            1236     12.2068E-03     114.029E-03    -19.6747E+06    -28.1507E+06     7.04735E+06    -29.1500E+06    -70.0453E-03     102.084E-03    -32.0386E-03     220.087E-03    -70.9867E-03     102.837E-03    -31.9340E-03     218.764E-03
            1237     13.0524E-03     114.239E-03    -15.2973E+06    -25.8474E+06     8.66139E+06    -32.6885E+06    -83.3450E-03     117.409E-03    -34.0643E-03     248.394E-03    -85.0848E-03     118.981E-03    -33.9613E-03     246.263E-03
            1238     13.8885E-03     114.483E-03    -12.2623E+06    -18.1668E+06     7.36843E+06    -31.8693E+06    -99.5498E-03     136.050E-03    -36.4998E-03     283.138E-03    -102.991E-03     139.365E-03    -36.4189E-03     279.610E-03
            1239     14.7132E-03     114.771E-03    -8.71029E+06    -20.0861E+06     5.99197E+06    -26.4180E+06    -117.665E-03     157.070E-03    -39.4050E-03     325.467E-03    -124.863E-03     164.154E-03    -39.3333E-03     319.549E-03
            1240     15.5263E-03     115.119E-03    -4.54043E+06     50.5075E+06     33.2776E+06    -18.9870E+06    -133.616E-03     176.433E-03    -42.8172E-03     355.836E-03    -147.375E-03     190.266E-03    -42.7175E-03     347.523E-03
            1241     16.3271E-03     115.490E-03    -780.677E+03     106.991E+06     80.4236E+06    -9.02947E+06    -142.361E-03     189.275E-03    -46.9141E-03     241.648E-03    -153.142E-03     200.210E-03    -46.6660E-03     235.031E-03
            1242     880.741E-06     113.976E-03    -108.644E+06    -60.5137E+06    -107.723E+06    -3.13343E+06    -21.7957E-03     43.4182E-03    -21.6225E-03     9.03283E-03    -22.0948E-03     43.4297E-03    -21.9158E-03     8.99304E-03
            1243     1.76127E-03     113.987E-03    -101.434E+06    -52.8347E+06    -100.926E+06    -5.53279E+06    -22.1012E-03     43.8763E-03    -21.7751E-03     17.0269E-03    -22.3852E-03     43.9053E-03    -22.0561E-03     16.9570E-03
            1244     2.64162E-03     114.005E-03    -91.2712E+06    -47.2751E+06    -92.3389E+06    -7.49555E+06    -22.7065E-03     44.6584E-03    -21.9519E-03     26.4240E-03    -22.9599E-03     44.6877E-03    -22.2127E-03     26.3300E-03
            1245     3.52152E-03     114.032E-03    -80.5470E+06    -44.3821E+06    -82.6309E+06    -11.2638E+06    -23.6490E-03     45.8575E-03    -22.2084E-03     36.9974E-03    -23.8665E-03     45.8710E-03    -22.4405E-03     36.8563E-03
            1246     4.40037E-03     114.068E-03    -70.3056E+06    -38.1319E+06    -72.3626E+06    -14.5607E+06    -24.8935E-03     47.4352E-03    -22.5417E-03     48.7431E-03    -25.0831E-03     47.4496E-03    -22.7463E-03     48.5607E-03
            1247     5.27818E-03     114.115E-03    -60.4853E+06    -37.1555E+06    -61.1316E+06    -17.2980E+06    -26.4856E-03     49.4502E-03    -22.9646E-03     61.7723E-03    -26.6434E-03     49.4386E-03    -23.1287E-03     61.5546E-03
            1248     6.15479E-03     114.173E-03    -50.4046E+06    -32.9172E+06    -46.4362E+06    -19.8915E+06    -28.5003E-03     51.9802E-03    -23.4799E-03     76.1677E-03    -28.6361E-03     51.9549E-03    -23.5913E-03     75.9138E-03
            1249     7.03007E-03     114.246E-03    -41.4916E+06    -31.0383E+06    -30.5011E+06    -20.8086E+06    -31.0616E-03     55.1589E-03    -24.0973E-03     92.0010E-03    -31.1829E-03     55.1113E-03    -24.1446E-03     91.7271E-03
            1250     7.90353E-03     114.333E-03    -33.8008E+06    -32.3213E+06    -17.8803E+06    -20.8490E+06    -34.1920E-03     58.9967E-03    -24.8046E-03     109.371E-03    -34.3025E-03     58.9244E-03    -24.7982E-03     109.079E-03
            1251     8.77511E-03     114.437E-03    -28.5513E+06    -24.1164E+06    -7.43731E+06    -21.7055E+06    -38.1207E-03     63.7247E-03    -25.6040E-03     128.675E-03    -38.2573E-03     63.6961E-03    -25.5648E-03     128.337E-03
            1252     9.64369E-03     114.560E-03    -26.3643E+06    -21.8335E+06     184.574E+03    -22.8870E+06    -43.3140E-03     69.8617E-03    -26.5477E-03     150.368E-03    -43.5077E-03     69.8841E-03    -26.4769E-03     149.950E-03
            1253     10.5091E-03     114.705E-03    -23.8091E+06    -21.1286E+06     6.39835E+06    -23.8799E+06    -50.0588E-03     77.7364E-03    -27.6776E-03     174.085E-03    -50.3568E-03     77.8569E-03    -27.5804E-03     173.532E-03
            1254     11.3695E-03     114.874E-03    -20.8950E+06    -16.7703E+06     11.5917E+06    -27.4142E+06    -58.7528E-03     87.7978E-03    -29.0449E-03     198.930E-03    -59.2535E-03     88.1322E-03    -28.9324E-03     198.110E-03
            1255     12.2239E-03     115.068E-03    -17.8568E+06    -22.0629E+06     13.9538E+06    -31.4726E+06    -70.0586E-03     100.794E-03    -30.7351E-03     225.494E-03    -70.9338E-03     101.489E-03    -30.6075E-03     224.213E-03
            1256     13.0699E-03     115.292E-03    -15.5003E+06    -20.0628E+06     15.2049E+06    -33.7898E+06    -84.6336E-03     117.452E-03    -32.8188E-03     256.096E-03    -86.2974E-03     118.949E-03    -32.6912E-03     254.002E-03
            1257     13.9061E-03     115.553E-03    -13.7003E+06    -20.6329E+06     12.5495E+06    -33.8169E+06    -102.597E-03     137.966E-03    -35.3696E-03     292.828E-03    -105.931E-03     141.147E-03    -35.2571E-03     289.234E-03
            1258     14.7292E-03     115.863E-03    -10.0272E+06    -26.2703E+06     12.0521E+06    -32.3284E+06    -122.236E-03     160.674E-03    -38.4378E-03     336.203E-03    -129.181E-03     167.461E-03    -38.3249E-03     329.996E-03
            1259     15.5405E-03     116.228E-03    -4.26565E+06     33.5655E+06     30.5114E+06    -22.5195E+06    -140.283E-03     182.298E-03    -42.0142E-03     369.500E-03    -154.002E-03     196.040E-03    -41.9042E-03     360.098E-03
            1260     16.3349E-03     116.628E-03    -1.01170E+06     90.5764E+06     77.1309E+06    -5.76198E+06    -152.530E-03     198.946E-03    -46.4160E-03     264.047E-03    -163.994E-03     210.518E-03    -46.1602E-03     255.734E-03
            1261     880.938E-06     114.966E-03    -83.5482E+06    -51.1670E+06    -83.5743E+06    -5.67776E+06    -21.5703E-03     43.1126E-03    -21.5424E-03     8.07652E-03    -21.7924E-03     43.0995E-03    -21.7649E-03     8.00273E-03
            1262     1.76183E-03     114.977E-03    -82.1762E+06    -44.9414E+06    -78.9573E+06    -10.5140E+06    -21.9336E-03     43.5590E-03    -21.6254E-03     15.1919E-03    -22.1650E-03     43.5681E-03    -21.8359E-03     15.0554E-03
            1263     2.64223E-03     114.996E-03    -79.4753E+06    -39.9448E+06    -73.9774E+06    -14.4873E+06    -22.4946E-03     44.2974E-03    -21.8028E-03     23.5226E-03    -22.7269E-03     44.3203E-03    -21.9996E-03     23.3347E-03
            1264     3.52218E-03     115.023E-03    -75.9852E+06    -35.0903E+06    -70.9871E+06    -18.7633E+06    -23.1892E-03     45.2071E-03    -22.0179E-03     32.8923E-03    -23.4154E-03     45.2448E-03    -22.2118E-03     32.6495E-03
            1265     4.40186E-03     115.061E-03    -71.4187E+06    -31.1614E+06    -66.3412E+06    -22.8836E+06    -24.1346E-03     46.4175E-03    -22.2829E-03     43.6267E-03    -24.3503E-03     46.4613E-03    -22.4658E-03     43.3315E-03
            1266     5.28078E-03     115.109E-03    -65.1107E+06    -29.4756E+06    -58.7747E+06    -26.5532E+06    -25.5187E-03     48.1431E-03    -22.6243E-03     56.0051E-03    -25.7160E-03     48.1750E-03    -22.7811E-03     55.6632E-03
            1267     6.15846E-03     115.170E-03    -58.0857E+06    -27.6632E+06    -48.8607E+06    -29.2197E+06    -27.4359E-03     50.4975E-03    -23.0616E-03     70.2561E-03    -27.6153E-03     50.5142E-03    -23.1815E-03     69.8792E-03
            1268     7.03439E-03     115.244E-03    -49.9954E+06    -28.8403E+06    -37.8531E+06    -29.4131E+06    -29.8939E-03     53.4996E-03    -23.6057E-03     86.3151E-03    -30.0491E-03     53.4848E-03    -23.6806E-03     85.9320E-03
            1269     7.90851E-03     115.335E-03    -40.9465E+06    -29.3360E+06    -25.7964E+06    -29.4639E+06    -32.9985E-03     57.2581E-03    -24.2596E-03     104.136E-03    -33.1321E-03     57.2172E-03    -24.2866E-03     103.741E-03
            1270     8.78067E-03     115.442E-03    -31.2424E+06    -24.0499E+06    -11.1494E+06    -27.3871E+06    -37.0138E-03     62.0563E-03    -25.0425E-03     123.927E-03    -37.1457E-03     62.0245E-03    -25.0181E-03     123.534E-03
            1271     9.65044E-03     115.571E-03    -23.2989E+06    -20.4346E+06     2.87249E+06    -23.7995E+06    -42.1976E-03     68.1789E-03    -25.9813E-03     146.081E-03    -42.3564E-03     68.1745E-03    -25.9036E-03     145.682E-03
            1272     10.5163E-03     115.721E-03    -19.5044E+06    -17.3183E+06     12.9464E+06    -23.3945E+06    -48.9633E-03     76.0632E-03    -27.0999E-03     170.814E-03    -49.2084E-03     76.1407E-03    -26.9818E-03     170.319E-03
            1273     11.3779E-03     115.899E-03    -17.6967E+06    -8.49465E+06     20.8983E+06    -25.9266E+06    -57.9599E-03     86.4177E-03    -28.4578E-03     197.402E-03    -58.3943E-03     86.6996E-03    -28.3153E-03     196.677E-03
            1274     12.2328E-03     116.104E-03    -16.0096E+06    -13.6183E+06     23.0425E+06    -31.5123E+06    -70.0163E-03     100.169E-03    -30.1530E-03     226.123E-03    -70.7914E-03     100.774E-03    -29.9948E-03     224.938E-03
            1275     13.0793E-03     116.342E-03    -14.0878E+06    -18.5371E+06     22.4447E+06    -32.3295E+06    -85.7748E-03     118.054E-03    -32.2792E-03     259.154E-03    -87.2659E-03     119.367E-03    -32.1197E-03     257.185E-03
            1276     13.9137E-03     116.622E-03    -12.0623E+06    -15.5317E+06     21.8198E+06    -33.5660E+06    -104.630E-03     139.532E-03    -34.9016E-03     297.967E-03    -107.662E-03     142.407E-03    -34.7525E-03     294.493E-03
            1277     14.7368E-03     116.951E-03    -8.66505E+06    -28.8507E+06     19.5887E+06    -35.6495E+06    -125.316E-03     163.361E-03    -38.0448E-03     343.137E-03    -131.620E-03     169.480E-03    -37.8925E-03     336.973E-03
            1278     15.5459E-03     117.338E-03    -9.71243E+06     10.4383E+06     25.3925E+06    -23.4247E+06    -145.661E-03     187.337E-03    -41.6764E-03     384.216E-03    -158.845E-03     200.458E-03    -41.5505E-03     374.178E-03
            1279     16.3382E-03     117.771E-03    -9.93239E+06     72.8408E+06     72.6351E+06    -8.17665E+06    -159.587E-03     205.783E-03    -46.1962E-03     296.620E-03    -171.841E-03     218.065E-03    -45.9242E-03     286.840E-03
            1280     880.051E-06     115.956E-03    -54.6546E+06    -39.1304E+06    -53.9050E+06    -6.59032E+06    -22.8209E-03     45.5964E-03    -22.7755E-03     6.74598E-03    -22.9593E-03     45.5585E-03    -22.9090E-03     6.65872E-03
            1281     1.75985E-03     115.968E-03    -53.4725E+06    -34.2710E+06    -50.0207E+06    -10.2358E+06    -23.2333E-03     46.1217E-03    -22.8884E-03     12.8858E-03    -23.3790E-03     46.1006E-03    -23.0113E-03     12.7497E-03
            1282     2.63920E-03     115.987E-03    -51.4109E+06    -29.6836E+06    -44.1739E+06    -14.7531E+06    -23.8405E-03     46.9470E-03    -23.1065E-03     19.8741E-03    -23.9916E-03     46.9379E-03    -23.2097E-03     19.6776E-03
            1283     3.51812E-03     116.015E-03    -49.0528E+06    -25.0574E+06    -38.3799E+06    -18.9753E+06    -24.4884E-03     47.8573E-03    -23.3689E-03     27.6451E-03    -24.6435E-03     47.8602E-03    -23.4533E-03     27.3921E-03
            1284     4.39652E-03     116.053E-03    -47.7400E+06    -21.4933E+06    -34.0747E+06    -23.1319E+06    -25.2247E-03     48.8728E-03    -23.6481E-03     36.5499E-03    -25.3854E-03     48.8861E-03    -23.7181E-03     36.2418E-03
            1285     5.27454E-03     116.103E-03    -47.5688E+06    -20.3434E+06    -30.6274E+06    -27.2072E+06    -26.1732E-03     50.1264E-03    -23.9532E-03     47.0117E-03    -26.3406E-03     50.1410E-03    -24.0078E-03     46.6500E-03
            1286     6.15186E-03     116.165E-03    -47.5779E+06    -20.8591E+06    -27.9096E+06    -30.0419E+06    -27.4292E-03     51.7234E-03    -24.2942E-03     59.5634E-03    -27.6005E-03     51.7323E-03    -24.3346E-03     59.1650E-03
            1287     7.02837E-03     116.242E-03    -46.4800E+06    -23.1759E+06    -26.3293E+06    -33.0053E+06    -29.1837E-03     53.8675E-03    -24.6837E-03     74.5077E-03    -29.3493E-03     53.8619E-03    -24.7144E-03     74.0707E-03
            1288     7.90357E-03     116.335E-03    -43.0190E+06    -24.7400E+06    -22.3816E+06    -35.1852E+06    -31.8534E-03     57.0214E-03    -25.1679E-03     92.1505E-03    -32.0080E-03     57.0003E-03    -25.1816E-03     91.6818E-03
            1289     8.77612E-03     116.446E-03    -37.3794E+06    -24.7140E+06    -13.8240E+06    -35.3240E+06    -35.7247E-03     61.5302E-03    -25.8055E-03     112.519E-03    -35.8730E-03     61.4985E-03    -25.7846E-03     112.035E-03
            1290     9.64545E-03     116.578E-03    -29.1545E+06    -24.4220E+06    -1.59462E+06    -31.1850E+06    -40.9458E-03     67.5823E-03    -26.6365E-03     135.483E-03    -41.0968E-03     67.5481E-03    -26.5668E-03     135.017E-03
            1291     10.5119E-03     116.735E-03    -20.1391E+06    -16.1075E+06     14.5765E+06    -26.3948E+06    -47.9164E-03     75.6144E-03    -27.6980E-03     161.113E-03    -48.1190E-03     75.6466E-03    -27.5725E-03     160.631E-03
            1292     11.3733E-03     116.920E-03    -13.4650E+06    -4.14481E+06     28.1613E+06    -25.3621E+06    -57.1613E-03     86.1907E-03    -29.0294E-03     188.794E-03    -57.5001E-03     86.3862E-03    -28.8631E-03     188.163E-03
            1293     12.2284E-03     117.136E-03    -11.6466E+06    -3.30503E+06     33.1595E+06    -26.9009E+06    -69.5903E-03     100.300E-03    -30.7092E-03     219.502E-03    -70.2118E-03     100.774E-03    -30.5217E-03     218.513E-03
            1294     13.0735E-03     117.388E-03    -11.0729E+06    -16.1512E+06      31.352E+06    -30.9135E+06    -85.7703E-03     118.603E-03    -32.8329E-03     255.308E-03    -86.9756E-03     119.624E-03    -32.6367E-03     253.573E-03
            1295     13.9087E-03     117.685E-03    -7.80043E+06    -9.88132E+06     34.0726E+06    -32.0524E+06    -104.700E-03     140.144E-03    -35.4447E-03     296.296E-03    -107.198E-03     142.485E-03    -35.2487E-03     293.188E-03
            1296     14.7313E-03     118.033E-03    -9.23377E+06    -23.9931E+06     30.9198E+06    -32.6114E+06    -124.865E-03     163.382E-03    -38.5174E-03     344.538E-03    -130.179E-03     168.493E-03    -38.3146E-03     338.946E-03
            1297     15.5431E-03     118.442E-03    -6.45412E+06    -15.3345E+06     25.8205E+06    -22.9946E+06    -146.132E-03     188.102E-03    -41.9701E-03     396.430E-03    -157.837E-03     199.662E-03    -41.8094E-03     386.675E-03
            1298     16.3412E-03     118.908E-03     1.89112E+06     55.3492E+06     76.5059E+06    -4.47968E+06    -161.633E-03     207.922E-03    -46.2891E-03     332.107E-03    -174.115E-03     220.403E-03    -45.9895E-03     321.619E-03
            1299     877.600E-06     116.950E-03    -28.2319E+06    -27.8501E+06    -25.7365E+06    -5.04508E+06    -25.7779E-03     51.3681E-03    -25.5903E-03     5.12224E-03    -25.8418E-03     51.3072E-03    -25.6376E-03     5.05272E-03
            1300     1.75503E-03     116.962E-03    -27.4150E+06    -23.6323E+06    -23.7715E+06    -9.57777E+06    -26.2264E-03     52.0335E-03    -25.8071E-03     9.98171E-03    -26.2961E-03     51.9896E-03    -25.8519E-03     9.84944E-03
            1301     2.63190E-03     116.983E-03    -26.2293E+06    -19.7574E+06    -18.9621E+06    -13.4428E+06    -26.9051E-03     52.9866E-03    -26.0815E-03     15.1840E-03    -26.9823E-03     52.9542E-03    -26.1097E-03     14.9971E-03
            1302     3.50806E-03     117.012E-03    -25.3735E+06    -16.0758E+06    -13.3106E+06    -16.5817E+06    -27.7068E-03     54.1275E-03    -26.4207E-03     20.9305E-03    -27.7947E-03     54.1053E-03    -26.4272E-03     20.6977E-03
            1303     4.38354E-03     117.051E-03    -24.8186E+06    -12.6334E+06    -9.00288E+06    -19.3034E+06    -28.5169E-03     55.3075E-03    -26.7906E-03     27.5996E-03    -28.6150E-03     55.2972E-03    -26.7813E-03     27.3264E-03
            1304     5.25824E-03     117.100E-03    -24.8521E+06    -11.7224E+06    -5.07650E+06    -22.0466E+06    -29.2290E-03     56.4000E-03    -27.1710E-03     35.5671E-03    -29.3365E-03     56.3907E-03    -27.1434E-03     35.2538E-03
            1305     6.13260E-03     117.163E-03    -25.0594E+06    -13.1308E+06    -1.27358E+06    -24.9990E+06    -29.8876E-03     57.4295E-03    -27.5419E-03     45.2431E-03    -30.0019E-03     57.4100E-03    -27.4929E-03     44.8887E-03
            1306     7.00674E-03     117.240E-03    -25.9046E+06    -14.6399E+06     1.05789E+06    -27.8862E+06    -30.7787E-03     58.6778E-03    -27.8992E-03     57.1395E-03    -30.9005E-03     58.6509E-03    -27.8351E-03     56.7464E-03
            1307     7.88023E-03     117.335E-03    -28.3416E+06    -17.7513E+06     192.963E+03    -31.1705E+06    -32.2743E-03     60.5446E-03    -28.2702E-03     72.1023E-03    -32.4045E-03     60.5090E-03    -28.2024E-03     71.6667E-03
            1308     8.75287E-03     117.448E-03    -30.7482E+06    -19.5828E+06    -320.709E+03    -33.7826E+06    -34.8774E-03     63.5959E-03    -28.7185E-03     90.7624E-03    -35.0195E-03     63.5591E-03    -28.6471E-03     90.2912E-03
            1309     9.62333E-03     117.585E-03    -30.2437E+06    -25.0401E+06     2.31583E+06    -35.2778E+06    -39.2985E-03     68.6341E-03    -29.3356E-03     113.356E-03    -39.4446E-03     68.5768E-03    -29.2438E-03     112.852E-03
            1310     10.4890E-03     117.746E-03    -25.1517E+06    -19.6598E+06     13.2184E+06    -32.9483E+06    -45.9726E-03     76.1811E-03    -30.2084E-03     139.945E-03    -46.1476E-03     76.1589E-03    -30.0774E-03     139.429E-03
            1311     11.3494E-03     117.939E-03    -18.7589E+06    -3.82155E+06     29.5315E+06    -29.2236E+06    -55.3182E-03     86.7294E-03    -31.4112E-03     169.548E-03    -55.5870E-03     86.8332E-03    -31.2308E-03     168.969E-03
            1312     12.2027E-03     118.163E-03    -13.3671E+06    -2.05330E+06     39.6669E+06    -25.7441E+06    -67.8964E-03     100.906E-03    -33.0091E-03     202.319E-03    -68.3431E-03     101.184E-03    -32.7884E-03     201.534E-03
            1313     13.0486E-03     118.430E-03    -13.0051E+06    -5.51107E+06     43.9851E+06    -26.3624E+06    -83.6194E-03     118.679E-03    -35.0596E-03     239.514E-03    -84.4944E-03     119.363E-03    -34.8128E-03     238.173E-03
            1314     13.8829E-03     118.741E-03    -18.1256E+06    -7.47431E+06     45.9040E+06    -30.5755E+06    -100.929E-03     138.482E-03    -37.5535E-03     281.650E-03    -102.762E-03     140.094E-03    -37.2869E-03     279.182E-03
            1315     14.7079E-03     119.106E-03    -16.4758E+06    -15.7315E+06     49.4504E+06    -33.3607E+06    -119.484E-03     159.906E-03    -40.4215E-03     331.218E-03    -123.452E-03     163.619E-03    -40.1276E-03     326.639E-03
            1316     15.5260E-03     119.529E-03    -13.5281E+06    -37.3200E+06     28.6302E+06    -30.5697E+06    -138.514E-03     181.973E-03    -43.4581E-03     390.732E-03    -147.441E-03     190.640E-03    -43.2412E-03     382.521E-03
            1317     16.3298E-03     120.031E-03    -10.9568E+06     17.8627E+06     47.8614E+06    -14.4183E+06    -150.934E-03     197.926E-03    -46.9917E-03     364.311E-03    -162.534E-03     209.427E-03    -46.7624E-03     354.429E-03
            1318     873.723E-06     117.952E-03    -4.03126E+06    -18.2969E+06    -3.51148E+06    -3.73311E+06    -30.5947E-03     61.1475E-03    -30.5528E-03     3.15193E-03    -30.5846E-03     61.0661E-03    -30.5380E-03     3.09643E-03
            1319     1.74668E-03     117.965E-03    -4.11768E+06    -13.4591E+06     40.3056E+03    -7.92962E+06    -31.2891E-03     62.0432E-03    -30.7541E-03     6.31062E-03    -31.2925E-03     61.9810E-03    -30.7284E-03     6.19325E-03
            1320     2.61911E-03     117.986E-03    -3.68653E+06    -11.6860E+06     3.77670E+06    -11.1699E+06    -32.1286E-03     63.2542E-03    -31.1257E-03     9.34193E-03    -32.1389E-03     63.1957E-03    -31.0845E-03     9.17427E-03
            1321     3.49067E-03     118.016E-03    -2.96022E+06    -8.96542E+06     8.07415E+06    -13.1853E+06    -33.0662E-03     64.6357E-03    -31.5695E-03     12.7562E-03    -33.0846E-03     64.5848E-03    -31.5118E-03     12.5532E-03
            1322     4.36112E-03     118.056E-03    -2.72535E+06    -6.27079E+06     13.2496E+06    -14.7694E+06    -33.9771E-03     66.0388E-03    -32.0617E-03     16.8617E-03    -34.0080E-03     65.9955E-03    -31.9824E-03     16.6282E-03
            1323     5.23083E-03     118.107E-03    -3.25813E+06    -5.32956E+06     17.5904E+06    -16.0603E+06    -34.7674E-03     67.3361E-03    -32.5687E-03     21.9517E-03    -34.8114E-03     67.2944E-03    -32.4683E-03     21.6916E-03
            1324     6.09981E-03     118.169E-03    -5.11583E+06    -5.87082E+06     20.2366E+06    -17.9432E+06    -35.4358E-03     68.5038E-03    -33.0680E-03     28.2355E-03    -35.4956E-03     68.4613E-03    -32.9509E-03     27.9418E-03
            1325     6.96807E-03     118.246E-03    -7.51840E+06    -7.96233E+06     21.9312E+06    -19.9984E+06    -36.0124E-03     69.5671E-03    -33.5547E-03     36.1942E-03    -36.0877E-03     69.5186E-03    -33.4226E-03     35.8664E-03
            1326     7.83592E-03     118.340E-03    -9.68380E+06    -9.69097E+06     23.6542E+06    -22.1124E+06    -36.6333E-03     70.6657E-03    -34.0324E-03     46.4679E-03    -36.7236E-03     70.6129E-03    -33.8860E-03     46.1079E-03
            1327     8.70324E-03     118.453E-03    -12.6190E+06    -13.0336E+06     23.6558E+06    -24.3681E+06    -37.6820E-03     72.2005E-03    -34.5185E-03     59.9779E-03    -37.7861E-03     72.1390E-03    -34.3630E-03     59.5872E-03
            1328     9.56960E-03     118.591E-03    -17.3160E+06    -17.1957E+06     22.0176E+06    -27.1653E+06    -39.8909E-03     74.9579E-03    -35.0670E-03     77.9050E-03    -40.0145E-03     74.8896E-03    -34.9069E-03     77.4775E-03
            1329     10.4344E-03     118.756E-03    -21.2684E+06    -17.9784E+06     23.0431E+06    -30.8362E+06    -44.1444E-03     79.9199E-03    -35.7754E-03     101.144E-03    -44.2970E-03     79.8618E-03    -35.6033E-03     100.661E-03
            1330     11.2948E-03     118.953E-03    -20.5204E+06    -6.24285E+06     32.3422E+06    -30.1469E+06    -51.3699E-03     88.1304E-03    -36.7605E-03     129.732E-03    -51.5761E-03     88.1454E-03    -36.5600E-03     129.219E-03
            1331     12.1479E-03     119.188E-03    -16.6986E+06    -3.26552E+06     43.9796E+06    -27.2511E+06    -62.4947E-03     100.640E-03    -38.1456E-03     163.425E-03    -62.7844E-03     100.732E-03    -37.8968E-03     162.825E-03
            1332     12.9902E-03     119.463E-03    -11.4661E+06    -4.30365E+06     57.6639E+06    -21.8750E+06    -76.7260E-03     116.725E-03    -39.9995E-03     201.702E-03    -77.2246E-03     117.002E-03    -39.6883E-03     200.851E-03
            1333     13.8243E-03     119.788E-03    -7.36771E+06     2.14940E+06     67.6970E+06    -18.8580E+06    -92.1962E-03     134.456E-03    -42.2600E-03     242.120E-03    -93.2223E-03     135.268E-03    -41.9140E-03     240.604E-03
            1334     14.6528E-03     120.158E-03    -12.6751E+06    -2.79681E+06     62.4675E+06    -22.5857E+06    -108.516E-03     153.343E-03    -44.8274E-03     288.129E-03    -110.807E-03     155.399E-03    -44.4926E-03     285.144E-03
            1335     15.4677E-03     120.599E-03    -19.4382E+06    -33.0270E+06     42.1799E+06    -24.3049E+06    -120.187E-03     167.654E-03    -47.4670E-03     343.785E-03    -125.262E-03     172.420E-03    -47.1800E-03     338.625E-03
            1336     16.2940E-03     121.095E-03    -14.5265E+06    -8.97563E+06     32.3494E+06    -25.9339E+06    -109.969E-03     159.519E-03    -49.5506E-03     361.673E-03    -117.489E-03     166.881E-03    -49.3548E-03     355.910E-03
            1337     867.212E-06     118.966E-03     18.6619E+06    -10.1285E+06     18.7644E+06    -3.33760E+06    -38.0005E-03     75.8830E-03    -37.8825E-03     1.31602E-03    -37.9225E-03     75.7756E-03    -37.8010E-03     1.26219E-03
            1338     1.73421E-03     118.980E-03     17.9281E+06    -5.73448E+06     20.1362E+06    -5.68681E+06    -38.9048E-03     77.0957E-03    -38.1910E-03     1.76973E-03    -38.8399E-03     77.0090E-03    -38.1080E-03     1.67461E-03
            1339     2.59991E-03     119.002E-03     17.2327E+06    -5.28187E+06     24.0532E+06    -7.86564E+06    -39.7774E-03     78.4577E-03    -38.6803E-03     2.19971E-03    -39.7229E-03     78.3691E-03    -38.5774E-03     2.06439E-03
            1340     3.46455E-03     119.034E-03     16.5695E+06    -4.00580E+06     27.8969E+06    -9.26071E+06    -40.7495E-03     79.9710E-03    -39.2216E-03     3.10745E-03    -40.7066E-03     79.8850E-03    -39.1003E-03     2.94100E-03
            1341     4.32820E-03     119.075E-03     15.9647E+06    -2.24508E+06     31.8141E+06    -9.73909E+06    -41.8321E-03     81.6539E-03    -39.8218E-03     4.39661E-03    -41.8020E-03     81.5729E-03    -39.6826E-03     4.20965E-03
            1342     5.19055E-03     119.126E-03     15.0210E+06    -1.56810E+06     35.4885E+06    -9.70846E+06    -43.0054E-03     83.4921E-03    -40.4867E-03     6.19174E-03    -42.9885E-03     83.4119E-03    -40.3288E-03     5.98930E-03
            1343     6.05143E-03     119.189E-03     13.7053E+06    -1.19242E+06     38.8913E+06    -9.84201E+06    -44.1449E-03     85.3561E-03    -41.2113E-03     8.57764E-03    -44.1430E-03     85.2766E-03    -41.0349E-03     8.35650E-03
            1344     6.91092E-03     119.266E-03     11.7996E+06    -2.29434E+06     42.4459E+06    -11.1622E+06    -45.1289E-03     87.1159E-03    -41.9870E-03     11.8513E-03    -45.1439E-03     87.0307E-03    -41.7886E-03     11.5956E-03
            1345     7.76905E-03     119.359E-03     9.14080E+06    -4.39554E+06     44.7739E+06    -12.5065E+06    -45.9168E-03     88.7126E-03    -42.7958E-03     16.4100E-03    -45.9501E-03     88.6202E-03    -42.5789E-03     16.1200E-03
            1346     8.62571E-03     119.471E-03     5.96610E+06    -7.20443E+06     45.4667E+06    -13.4229E+06    -46.5474E-03     90.1807E-03    -43.6333E-03     22.9203E-03    -46.5992E-03     90.0812E-03    -43.4042E-03     22.6041E-03
            1347     9.48119E-03     119.606E-03     3.86923E+06    -9.63065E+06     46.5317E+06    -15.5485E+06    -47.1700E-03     91.6863E-03    -44.5163E-03     32.3622E-03    -47.2364E-03     91.5797E-03    -44.2753E-03     32.0092E-03
            1348     10.3349E-03     119.770E-03     2.86964E+06    -9.06472E+06     48.8782E+06    -19.1438E+06    -48.2373E-03     93.7129E-03    -45.4755E-03     45.9010E-03    -48.3192E-03     93.6117E-03    -45.2222E-03     45.4976E-03
            1349     11.1865E-03     119.967E-03     485.759E+03    -6.88595E+06     51.9169E+06    -20.5170E+06    -50.6439E-03     97.2170E-03    -46.5732E-03     65.0076E-03    -50.7529E-03     97.1332E-03    -46.3043E-03     64.5836E-03
            1350     12.0349E-03     120.203E-03    -1.73955E+06    -1.17783E+06     59.9245E+06    -18.9593E+06    -55.6034E-03     103.520E-03    -47.9168E-03     91.0518E-03    -55.7615E-03     103.476E-03    -47.6130E-03     90.6285E-03
            1351     12.8775E-03     120.487E-03     130.907E+03    -5.50456E+06     70.3908E+06    -18.4023E+06    -63.2668E-03     112.854E-03    -49.5876E-03     122.798E-03    -63.4809E-03     112.831E-03    -49.2278E-03     122.295E-03
            1352     13.7115E-03     120.815E-03     4.18619E+06    -2.23408E+06     74.6166E+06    -11.1635E+06    -74.0083E-03     125.573E-03    -51.5651E-03     159.038E-03    -74.3869E-03     125.735E-03    -51.1949E-03     158.345E-03
            1353     14.5295E-03     121.196E-03     5.33635E+06     7.95070E+06     77.6133E+06    -654.118E+03    -86.7831E-03     140.680E-03    -53.8966E-03     198.890E-03    -87.6354E-03     141.345E-03    -53.5278E-03     197.669E-03
            1354     15.3485E-03     121.626E-03     16.5754E+06    -7.78356E+06     78.5249E+06    -8.27347E+06    -86.6942E-03     142.852E-03    -56.1578E-03     243.311E-03    -88.3863E-03     144.343E-03    -55.7779E-03     241.240E-03
            1355     16.1666E-03     122.107E-03     12.5671E+06    -7.70502E+06     50.1810E+06    -14.9134E+06    -43.4448E-03     100.099E-03    -56.6542E-03     262.223E-03    -45.7444E-03     102.268E-03    -56.4103E-03     260.815E-03
            1356     859.127E-06     119.998E-03     36.0605E+06    -3.99968E+06     36.3848E+06    -2.48000E+06    -48.5084E-03     97.0087E-03    -48.5002E-03    -2.09273E-03    -48.3811E-03     96.8777E-03    -48.3648E-03    -2.13716E-03
            1357     1.71620E-03     120.013E-03     34.9437E+06    -1.43080E+06     36.6099E+06    -3.31607E+06    -49.0653E-03     97.7858E-03    -48.7205E-03    -4.13414E-03    -48.9473E-03     97.6691E-03    -48.5861E-03    -4.19906E-03
            1358     2.57305E-03     120.036E-03     33.6554E+06    -1.22866E+06     40.1165E+06    -3.70933E+06    -49.8964E-03     99.0331E-03    -49.1367E-03    -5.88419E-03    -49.7901E-03     98.9140E-03    -48.9831E-03    -5.96513E-03
            1359     3.42886E-03     120.069E-03     32.3504E+06    -933.345E+03       44.02E+06    -4.21572E+06    -51.1148E-03     100.824E-03    -49.7091E-03    -7.63397E-03    -51.0214E-03     100.702E-03    -49.5346E-03    -7.73385E-03
            1360     4.28317E-03     120.111E-03     31.0903E+06    -381.131E+03     46.6043E+06    -4.16825E+06    -52.6890E-03     103.132E-03    -50.4432E-03    -9.55973E-03    -52.6070E-03     103.011E-03    -50.2548E-03    -9.67315E-03
            1361     5.13544E-03     120.165E-03     30.2047E+06     48.3860E+03     50.4949E+06    -3.74259E+06    -54.5163E-03     105.869E-03    -51.3526E-03    -11.6749E-03    -54.4458E-03     105.744E-03    -51.1440E-03    -11.7991E-03
            1362     5.98536E-03     120.230E-03     29.7204E+06     589.054E+03     56.2551E+06    -3.29269E+06    -56.4827E-03     108.915E-03    -52.4328E-03    -13.9594E-03    -56.4246E-03     108.785E-03    -52.1955E-03    -14.0969E-03
            1363     6.83260E-03     120.308E-03     29.1169E+06     938.578E+03     61.3801E+06    -2.83323E+06    -58.4984E-03     112.166E-03    -53.6672E-03    -16.4539E-03    -58.4527E-03     112.028E-03    -53.4039E-03    -16.6078E-03
            1364     7.67673E-03     120.402E-03     27.9031E+06    -1.07601E+06     64.7519E+06    -2.89901E+06    -60.3973E-03     115.450E-03    -55.0522E-03    -19.0979E-03    -60.3616E-03     115.296E-03    -54.7673E-03    -19.2779E-03
            1365     8.51778E-03     120.513E-03     27.1600E+06    -3.18867E+06     68.0460E+06    -3.57156E+06    -61.9337E-03     118.522E-03    -56.5884E-03    -21.7240E-03    -61.9058E-03     118.351E-03    -56.2829E-03    -21.9396E-03
            1366     9.35498E-03     120.647E-03     26.6189E+06    -3.15455E+06     71.2727E+06    -5.45382E+06    -62.6982E-03     120.961E-03    -58.2626E-03    -23.6966E-03    -62.6808E-03     120.782E-03    -57.9403E-03    -23.9627E-03
            1367     10.1886E-03     120.806E-03     23.8287E+06    -3.02464E+06     74.0139E+06    -6.89025E+06    -62.3000E-03     122.360E-03    -60.0601E-03    -23.9341E-03    -62.3049E-03     122.178E-03    -59.7202E-03    -24.2403E-03
            1368     11.0189E-03     120.996E-03     19.9988E+06    -4.55384E+06     77.1714E+06    -6.87404E+06    -60.7117E-03     122.687E-03    -61.9749E-03    -21.0332E-03    -60.7438E-03     122.494E-03    -61.6114E-03    -21.3533E-03
            1369     11.8450E-03     121.224E-03     17.0109E+06    -1.51687E+06     80.8424E+06    -6.33709E+06    -57.8275E-03     121.815E-03    -63.9871E-03    -12.8768E-03    -57.8909E-03     121.635E-03    -63.6053E-03    -13.1904E-03
            1370     12.6676E-03     121.497E-03     12.9310E+06     1.61493E+06     85.6228E+06    -6.22873E+06    -53.7730E-03     119.845E-03    -66.0724E-03     2.25655E-03    -53.8768E-03     119.689E-03    -65.6653E-03     1.96109E-03
            1371     13.4865E-03     121.818E-03     6.72945E+06    -9.10788E+06     77.4260E+06    -4.47047E+06    -51.6113E-03     119.819E-03    -68.2073E-03     26.4237E-03    -51.7399E-03     119.649E-03    -67.8167E-03     26.1522E-03
            1372     14.3061E-03     122.194E-03     14.9053E+06    -5.29579E+06     87.1057E+06     1.59334E+06    -51.7167E-03     122.257E-03    -70.5407E-03     58.2707E-03    -51.9054E-03     122.177E-03    -70.1191E-03     57.9377E-03
            1373     15.1023E-03     122.624E-03     20.1068E+06     11.0206E+06     95.3103E+06    -5.39073E+06    -30.0801E-03     102.212E-03    -72.1322E-03     94.2948E-03    -30.3763E-03     102.329E-03    -71.7008E-03     93.8125E-03
            1374     15.9565E-03     123.039E-03     9.91910E+06     4.10002E+06     50.1949E+06    -3.51663E+06     15.1187E-03     56.2680E-03    -71.3867E-03     96.2018E-03     14.8968E-03     56.3696E-03    -71.1560E-03     96.0073E-03
            1375     16.2027E-03     61.2362E-03    -4.60751E+06     150.142E+06     102.999E+06     101.835E+03    -60.0117E-03     114.307E-03    -54.2953E-03     179.729E-03    -67.9254E-03     122.439E-03    -53.9913E-03     181.314E-03
            1376     15.3491E-03     60.9256E-03    -9.62923E+06     142.275E+06     81.1502E+06    -339.553E+03    -63.2059E-03     117.429E-03    -54.2229E-03     274.108E-03    -73.7216E-03     128.180E-03    -54.0095E-03     273.715E-03
            1377     14.4940E-03     60.6715E-03    -14.9858E+06     114.075E+06     35.4794E+06     974.582E+03    -60.1796E-03     114.327E-03    -54.1478E-03     217.505E-03    -65.5948E-03     119.992E-03    -54.1141E-03     215.634E-03
            1378     13.6402E-03     60.4913E-03    -17.4208E+06     71.0390E+06     7.86547E+06     1.71978E+06    -58.3001E-03     112.452E-03    -54.1517E-03     159.635E-03    -60.7770E-03     115.096E-03    -54.1901E-03     157.944E-03
            1379     12.7878E-03     60.3518E-03    -18.3694E+06     15.4423E+06    -1.64766E+06     452.345E+03    -57.3141E-03     111.524E-03    -54.2094E-03     130.209E-03    -58.6821E-03     112.886E-03    -54.2134E-03     128.825E-03
            1380     11.9348E-03     60.2312E-03    -19.3527E+06    -28.7403E+06    -3.95523E+06     56.7831E+03    -56.7603E-03     111.038E-03    -54.2778E-03     114.203E-03    -57.6116E-03     111.730E-03    -54.2278E-03     113.065E-03
            1381     11.0823E-03     60.1232E-03    -20.4483E+06    -56.7530E+06    -3.42644E+06     462.128E+03    -56.5259E-03     110.861E-03    -54.3352E-03     104.249E-03    -57.0982E-03     111.169E-03    -54.2404E-03     103.305E-03
            1382     10.2297E-03     60.0226E-03    -21.9761E+06    -75.9673E+06    -3.02749E+06     398.405E+03    -56.3178E-03     110.695E-03    -54.3767E-03     96.4755E-03    -56.7136E-03     110.751E-03    -54.2498E-03     95.6870E-03
            1383     9.37714E-03     59.9300E-03    -23.7467E+06    -89.9584E+06    -2.84414E+06     408.452E+03    -56.0630E-03     110.472E-03    -54.4091E-03     88.6819E-03    -56.3363E-03     110.350E-03    -54.2584E-03     88.0263E-03
            1384     8.52460E-03     59.8450E-03    -25.7283E+06    -104.348E+06    -2.97819E+06     442.334E+03    -55.8135E-03     110.255E-03    -54.4410E-03     81.1054E-03    -55.9955E-03     109.983E-03    -54.2673E-03     80.5628E-03
            1385     7.67208E-03     59.7675E-03    -28.0202E+06    -112.548E+06    -3.80269E+06     302.647E+03    -55.5666E-03     110.029E-03    -54.4621E-03     73.8036E-03    -55.6883E-03     109.662E-03    -54.2773E-03     73.3557E-03
            1386     6.81955E-03     59.6971E-03    -30.7596E+06    -118.934E+06    -6.33719E+06     128.882E+03    -55.3229E-03     109.798E-03    -54.4751E-03     66.4216E-03    -55.4014E-03     109.363E-03    -54.2897E-03     66.0551E-03
            1387     5.96697E-03     59.6343E-03    -33.9954E+06    -132.999E+06    -9.95031E+06     153.677E+03    -55.1316E-03     109.628E-03    -54.4959E-03     58.7351E-03    -55.1681E-03     109.100E-03    -54.3035E-03     58.4399E-03
            1388     5.11453E-03     59.5793E-03    -37.4344E+06    -139.335E+06    -15.3736E+06     147.701E+03    -54.9446E-03     109.441E-03    -54.4965E-03     50.8933E-03    -54.9569E-03     108.871E-03    -54.3171E-03     50.6596E-03
            1389     4.26204E-03     59.5322E-03    -41.0270E+06    -144.696E+06    -23.0584E+06    -87.8112E+03    -54.7845E-03     109.269E-03    -54.4845E-03     42.8625E-03    -54.7781E-03     108.670E-03    -54.3305E-03     42.6786E-03
            1390     3.40957E-03     59.4932E-03    -44.6487E+06    -154.124E+06    -31.2090E+06    -51.0049E+03    -54.6632E-03     109.138E-03    -54.4747E-03     34.6093E-03    -54.6367E-03     108.496E-03    -54.3425E-03     34.4711E-03
            1391     2.55719E-03     59.4627E-03    -48.0456E+06    -159.720E+06    -39.5800E+06     70.8707E+03    -54.5550E-03     109.012E-03    -54.4566E-03     26.2314E-03    -54.5165E-03     108.350E-03    -54.3533E-03     26.1343E-03
            1392     1.70476E-03     59.4406E-03    -50.8004E+06    -164.530E+06    -46.9769E+06    -108.282E+03    -54.4964E-03     108.933E-03    -54.4370E-03     17.7605E-03    -54.4483E-03     108.257E-03    -54.3597E-03     17.6959E-03
            1393     852.412E-06     59.4272E-03    -52.5041E+06    -167.546E+06    -51.7413E+06    -258.214E+03    -54.4458E-03     108.866E-03    -54.4200E-03     9.63750E-03    -54.3916E-03     108.181E-03    -54.3596E-03     9.60074E-03
            1394     16.2060E-03     60.1730E-03    -5.54094E+06     149.549E+06     101.948E+06    -517.474E+03    -59.2491E-03     113.543E-03    -54.2944E-03     182.816E-03    -67.2787E-03     121.789E-03    -53.9935E-03     184.621E-03
            1395     15.3512E-03     59.8810E-03    -9.93219E+06     141.935E+06     81.1907E+06     824.615E+03    -63.0071E-03     117.286E-03    -54.2784E-03     279.700E-03    -73.7104E-03     128.222E-03    -54.0638E-03     279.457E-03
            1396     14.4916E-03     59.6137E-03    -14.5229E+06     114.640E+06     37.7801E+06     1.63420E+06    -61.5141E-03     115.726E-03    -54.2115E-03     220.648E-03    -67.0256E-03     121.483E-03    -54.1678E-03     218.699E-03
            1397     13.6403E-03     59.4348E-03    -16.5224E+06     71.8721E+06     9.97849E+06     819.446E+03    -58.6938E-03     112.868E-03    -54.1743E-03     159.180E-03    -61.1624E-03     115.504E-03    -54.2047E-03     157.463E-03
            1398     12.7873E-03     59.2949E-03    -17.5938E+06     15.6838E+06    -1.28047E+06     409.834E+03    -57.3735E-03     111.583E-03    -54.2090E-03     129.939E-03    -58.7374E-03     112.943E-03    -54.2126E-03     128.553E-03
            1399     11.9351E-03     59.1748E-03    -18.9918E+06    -28.8303E+06    -3.82766E+06     436.117E+03    -56.7955E-03     111.069E-03    -54.2731E-03     114.067E-03    -57.6445E-03     111.759E-03    -54.2229E-03     112.933E-03
            1400     11.0823E-03     59.0665E-03    -20.5591E+06    -56.9202E+06    -3.50382E+06     476.060E+03    -56.4931E-03     110.823E-03    -54.3297E-03     104.270E-03    -57.0650E-03     111.130E-03    -54.2349E-03     103.327E-03
            1401     10.2298E-03     58.9661E-03    -22.0715E+06    -75.7436E+06    -3.02566E+06     598.223E+03    -56.3048E-03     110.677E-03    -54.3724E-03     96.4217E-03    -56.7012E-03     110.735E-03    -54.2457E-03     95.6359E-03
            1402     9.37717E-03     58.8734E-03    -24.0046E+06    -89.8343E+06    -2.91785E+06     424.461E+03    -56.0448E-03     110.450E-03    -54.4055E-03     88.6303E-03    -56.3192E-03     110.329E-03    -54.2550E-03     87.9752E-03
            1403     8.52464E-03     58.7885E-03    -26.0438E+06    -104.077E+06    -3.19931E+06     139.571E+03    -55.7979E-03     110.236E-03    -54.4376E-03     81.0960E-03    -55.9815E-03     109.966E-03    -54.2649E-03     80.5497E-03
            1404     7.67209E-03     58.7109E-03    -28.2459E+06    -112.485E+06    -4.30901E+06    -22.1999E+03    -55.5476E-03     110.007E-03    -54.4590E-03     73.8141E-03    -55.6697E-03     109.642E-03    -54.2765E-03     73.3624E-03
            1405     6.81951E-03     58.6405E-03    -31.0099E+06    -119.004E+06    -6.67900E+06     159.876E+03    -55.3223E-03     109.796E-03    -54.4741E-03     66.4263E-03    -55.4014E-03     109.362E-03    -54.2899E-03     66.0604E-03
            1406     5.96703E-03     58.5777E-03    -34.3118E+06    -132.872E+06    -10.0580E+06     120.532E+03    -55.1330E-03     109.629E-03    -54.4956E-03     58.7314E-03    -55.1711E-03     109.102E-03    -54.3035E-03     58.4358E-03
            1407     5.11450E-03     58.5227E-03    -37.8392E+06    -139.190E+06    -15.8177E+06    -62.4804E+03    -54.9439E-03     109.438E-03    -54.4944E-03     50.9092E-03    -54.9578E-03     108.870E-03    -54.3168E-03     50.6727E-03
            1408     4.26203E-03     58.4756E-03    -41.4753E+06    -144.617E+06    -23.3070E+06     3.91267E+03    -54.7850E-03     109.268E-03    -54.4832E-03     42.8763E-03    -54.7806E-03     108.671E-03    -54.3299E-03     42.6935E-03
            1409     3.40960E-03     58.4367E-03    -45.0809E+06    -154.379E+06    -31.3279E+06     102.879E+03    -54.6545E-03     109.129E-03    -54.4750E-03     34.5879E-03    -54.6297E-03     108.487E-03    -54.3424E-03     34.4517E-03
            1410     2.55711E-03     58.4061E-03    -48.2031E+06    -159.652E+06    -39.3822E+06     224.749E+03    -54.5476E-03     109.007E-03    -54.4598E-03     26.2039E-03    -54.5102E-03     108.346E-03    -54.3553E-03     26.1090E-03
            1411     1.70471E-03     58.3841E-03    -50.7639E+06    -164.306E+06    -46.6026E+06     250.813E+03    -54.4830E-03     108.930E-03    -54.4472E-03     17.7320E-03    -54.4356E-03     108.254E-03    -54.3683E-03     17.6720E-03
            1412     852.339E-06     58.3705E-03    -52.5466E+06    -167.504E+06    -51.5845E+06     145.420E+03    -54.4184E-03     108.894E-03    -54.4755E-03     9.61662E-03    -54.3647E-03     108.209E-03    -54.4143E-03     9.58528E-03
            1413     16.1949E-03     59.1212E-03    -6.63201E+06     147.900E+06     99.8586E+06    -631.315E+03    -57.0992E-03     111.557E-03    -54.4582E-03     181.031E-03    -65.1276E-03     119.798E-03    -54.1638E-03     182.844E-03
            1414     15.3378E-03     58.8181E-03    -12.9232E+06     139.358E+06     79.9484E+06    -242.549E+03    -65.2487E-03     119.684E-03    -54.4352E-03     276.707E-03    -76.0073E-03     130.659E-03    -54.2188E-03     276.246E-03
            1415     14.4940E-03     58.5564E-03    -14.2536E+06     115.381E+06     41.1732E+06     23.3658E+03    -62.8569E-03     117.119E-03    -54.2626E-03     218.319E-03    -68.3903E-03     122.892E-03    -54.2034E-03     216.259E-03
            1416     13.6402E-03     58.3784E-03    -15.7661E+06     72.5576E+06     11.5398E+06     574.555E+03    -58.6218E-03     112.790E-03    -54.1684E-03     158.705E-03    -61.0819E-03     115.418E-03    -54.1931E-03     156.995E-03
            1417     12.7879E-03     58.2378E-03    -17.7700E+06     15.9592E+06    -1.22673E+06     896.664E+03    -57.3091E-03     111.509E-03    -54.1996E-03     129.687E-03    -58.6709E-03     112.868E-03    -54.2031E-03     128.310E-03
            1418     11.9351E-03     58.1185E-03    -19.2954E+06    -28.6237E+06    -3.88465E+06     849.193E+03    -56.7384E-03     111.005E-03    -54.2663E-03     114.011E-03    -57.5892E-03     111.697E-03    -54.2162E-03     112.884E-03
            1419     11.0824E-03     58.0099E-03    -20.6345E+06    -56.7769E+06    -3.60695E+06     671.837E+03    -56.5061E-03     110.830E-03    -54.3235E-03     104.369E-03    -57.0788E-03     111.138E-03    -54.2293E-03     103.429E-03
            1420     10.2298E-03     57.9095E-03    -22.1476E+06    -75.7202E+06    -3.17316E+06     549.292E+03    -56.2870E-03     110.653E-03    -54.3661E-03     96.4184E-03    -56.6834E-03     110.711E-03    -54.2401E-03     95.6324E-03
            1421     9.37725E-03     57.8168E-03    -23.6161E+06    -89.5205E+06    -2.92548E+06     452.257E+03    -56.0165E-03     110.417E-03    -54.4006E-03     88.6560E-03    -56.2892E-03     110.297E-03    -54.2512E-03     88.0020E-03
            1422     8.52465E-03     57.7319E-03    -25.7439E+06    -103.651E+06    -3.21659E+06     163.567E+03    -55.7720E-03     110.207E-03    -54.4352E-03     81.1157E-03    -55.9545E-03     109.940E-03    -54.2637E-03     80.5702E-03
            1423     7.67206E-03     57.6544E-03    -28.5151E+06    -112.534E+06    -4.58018E+06     5.46090E+03    -55.5513E-03     110.009E-03    -54.4579E-03     73.8170E-03    -55.6742E-03     109.645E-03    -54.2763E-03     73.3658E-03
            1424     6.81954E-03     57.5839E-03    -31.3695E+06    -119.074E+06    -6.89302E+06    -37.6635E+03    -55.3297E-03     109.802E-03    -54.4725E-03     66.4151E-03    -55.4102E-03     109.369E-03    -54.2888E-03     66.0465E-03
            1425     5.96699E-03     57.5211E-03    -34.3281E+06    -132.717E+06    -9.86449E+06    -48.2480E+03    -55.1331E-03     109.627E-03    -54.4944E-03     58.7116E-03    -55.1717E-03     109.102E-03    -54.3015E-03     58.4137E-03
            1426     5.11452E-03     57.4661E-03    -37.8389E+06    -139.152E+06    -15.7818E+06    -23.1493E+03    -54.9450E-03     109.437E-03    -54.4920E-03     50.8912E-03    -54.9590E-03     108.868E-03    -54.3142E-03     50.6552E-03
            1427     4.26203E-03     57.4190E-03    -41.5155E+06    -144.794E+06    -23.5958E+06     25.9589E+03    -54.7807E-03     109.260E-03    -54.4793E-03     42.8480E-03    -54.7758E-03     108.662E-03    -54.3271E-03     42.6657E-03
            1428     3.40958E-03     57.3801E-03    -45.0193E+06    -154.443E+06    -31.4961E+06     180.367E+03    -54.6578E-03     109.129E-03    -54.4707E-03     34.5678E-03    -54.6323E-03     108.486E-03    -54.3389E-03     34.4328E-03
            1429     2.55720E-03     57.3496E-03    -48.2859E+06    -159.666E+06    -39.3710E+06     210.424E+03    -54.5514E-03     109.005E-03    -54.4540E-03     26.1982E-03    -54.5145E-03     108.344E-03    -54.3493E-03     26.1030E-03
            1430     1.70481E-03     57.3274E-03    -50.8501E+06    -164.037E+06     -46.065E+06     181.082E+03    -54.4708E-03     108.914E-03    -54.4428E-03     17.7250E-03    -54.4249E-03     108.239E-03    -54.3616E-03     17.6641E-03
            1431     852.353E-06     57.3140E-03    -52.4765E+06    -167.226E+06    -51.0901E+06     148.584E+03    -54.4253E-03     108.883E-03    -54.4581E-03     9.58502E-03    -54.3723E-03     108.199E-03    -54.3949E-03     9.55373E-03
            1432     16.1962E-03     58.0645E-03    -4.53167E+06     149.577E+06     101.963E+06     803.921E+03    -58.1153E-03     112.523E-03    -54.4072E-03     175.374E-03    -65.9637E-03     120.590E-03    -54.1077E-03     177.042E-03
            1433     15.3516E-03     57.7611E-03    -11.3721E+06     140.310E+06     79.0995E+06    -1.04216E+06    -64.2942E-03     118.637E-03    -54.3427E-03     272.937E-03    -74.9219E-03     129.493E-03    -54.1342E-03     272.458E-03
            1434     14.4925E-03     57.5001E-03    -15.9298E+06     112.852E+06     36.2066E+06    -1.66212E+06    -61.8596E-03     116.053E-03    -54.1933E-03     217.328E-03    -67.3854E-03     121.818E-03    -54.1528E-03     215.302E-03
            1435     13.6408E-03     57.3209E-03    -17.8302E+06     70.8915E+06     9.11138E+06    -179.459E+03    -58.4195E-03     112.559E-03    -54.1393E-03     158.412E-03    -60.8818E-03     115.183E-03    -54.1707E-03     156.697E-03
            1436     12.7879E-03     57.1818E-03    -18.5904E+06     15.9078E+06    -1.42086E+06     1.03016E+06    -57.0800E-03     111.270E-03    -54.1896E-03     129.785E-03    -58.4422E-03     112.626E-03    -54.1928E-03     128.418E-03
            1437     11.9350E-03     57.0617E-03    -19.6432E+06    -28.1600E+06    -3.82437E+06     936.399E+03    -56.7369E-03     111.001E-03    -54.2638E-03     114.186E-03    -57.5915E-03     111.697E-03    -54.2136E-03     113.059E-03
            1438     11.0825E-03     56.9534E-03    -20.7392E+06    -56.3596E+06    -3.51715E+06     550.229E+03    -56.5236E-03     110.844E-03    -54.3203E-03     104.372E-03    -57.0977E-03     111.155E-03    -54.2261E-03     103.430E-03
            1439     10.2298E-03     56.8529E-03    -21.8413E+06    -75.6228E+06    -3.00950E+06     298.392E+03    -56.2507E-03     110.615E-03    -54.3639E-03     96.4595E-03    -56.6453E-03     110.672E-03    -54.2376E-03     95.6718E-03
            1440     9.37724E-03     56.7603E-03    -23.4110E+06    -89.3680E+06    -2.73929E+06     233.308E+03    -56.0028E-03     110.404E-03    -54.4009E-03     88.7120E-03    -56.2749E-03     110.283E-03    -54.2510E-03     88.0557E-03
            1441     8.52461E-03     56.6754E-03    -25.3472E+06    -103.599E+06    -2.77688E+06     384.115E+03    -55.7919E-03     110.228E-03    -54.4365E-03     81.1294E-03    -55.9732E-03     109.960E-03    -54.2634E-03     80.5866E-03
            1442     7.67210E-03     56.5977E-03    -27.8294E+06    -112.161E+06    -3.96735E+06     323.801E+03    -55.5674E-03     110.025E-03    -54.4573E-03     73.7917E-03    -55.6883E-03     109.660E-03    -54.2741E-03     73.3443E-03
            1443     6.81956E-03     56.5274E-03    -30.8408E+06    -118.884E+06    -6.70801E+06    -45.1170E+03    -55.3338E-03     109.803E-03    -54.4690E-03     66.3935E-03    -55.4122E-03     109.369E-03    -54.2854E-03     66.0248E-03
            1444     5.96706E-03     56.4646E-03    -34.3277E+06    -132.839E+06    -10.0295E+06    -97.0047E+03    -55.1407E-03     109.630E-03    -54.4891E-03     58.6994E-03    -55.1790E-03     109.104E-03    -54.2968E-03     58.4009E-03
            1445     5.11456E-03     56.4096E-03    -37.9786E+06    -139.178E+06    -15.6708E+06     3.89716E+03    -54.9474E-03     109.434E-03    -54.4863E-03     50.8734E-03    -54.9622E-03     108.865E-03    -54.3078E-03     50.6378E-03
            1446     4.26209E-03     56.3624E-03    -41.6369E+06    -144.934E+06    -23.6942E+06     72.8689E+03    -54.7730E-03     109.245E-03    -54.4718E-03     42.8273E-03    -54.7683E-03     108.647E-03    -54.3198E-03     42.6456E-03
            1447     3.40961E-03     56.3235E-03    -45.1344E+06    -154.517E+06    -31.6317E+06     145.978E+03    -54.6527E-03     109.115E-03    -54.4625E-03     34.5632E-03    -54.6275E-03     108.473E-03    -54.3312E-03     34.4277E-03
            1448     2.55718E-03     56.2929E-03    -48.1340E+06    -159.444E+06    -39.1336E+06     109.695E+03    -54.5488E-03     108.994E-03    -54.4453E-03     26.1768E-03    -54.5118E-03     108.334E-03    -54.3400E-03     26.0802E-03
            1449     1.70472E-03     56.2710E-03    -50.6207E+06    -163.974E+06    -46.1842E+06    -2.50308E+03    -54.4811E-03     108.906E-03    -54.4248E-03     17.7266E-03    -54.4340E-03     108.231E-03    -54.3446E-03     17.6633E-03
            1450     852.403E-06     56.2572E-03    -52.2354E+06    -167.082E+06    -51.1303E+06    -43.0712E+03    -54.4449E-03     108.837E-03    -54.3917E-03     9.58461E-03    -54.3909E-03     108.153E-03    -54.3294E-03     9.55104E-03
            1451     16.2094E-03     57.0100E-03    -4.34662E+06     150.302E+06     103.150E+06     620.936E+03    -59.2689E-03     113.586E-03    -54.3171E-03     178.438E-03    -67.2127E-03     121.749E-03    -54.0130E-03     180.164E-03
            1452     15.3447E-03     56.7087E-03    -8.06449E+06     143.627E+06     81.7665E+06     1.31854E+06    -63.6988E-03     117.969E-03    -54.2698E-03     279.248E-03    -74.4850E-03     128.999E-03    -54.0576E-03     278.922E-03
            1453     14.4946E-03     56.4420E-03    -14.3472E+06     113.367E+06     34.6652E+06     416.968E+03    -61.7146E-03     115.871E-03    -54.1563E-03     219.627E-03    -67.2766E-03     121.684E-03    -54.1266E-03     217.628E-03
            1454     13.6413E-03     56.2656E-03    -18.2288E+06     69.0113E+06     6.80736E+06    -145.386E+03    -58.1880E-03     112.313E-03    -54.1251E-03     158.586E-03    -60.6375E-03     114.923E-03    -54.1646E-03     156.883E-03
            1455     12.7877E-03     56.1253E-03    -19.7399E+06     15.1733E+06    -2.25134E+06     269.125E+03    -57.0786E-03     111.270E-03    -54.1911E-03     130.317E-03    -58.4455E-03     112.627E-03    -54.1957E-03     128.941E-03
            1456     11.9351E-03     56.0052E-03    -20.0259E+06    -27.6696E+06    -3.94515E+06     293.888E+03    -56.7877E-03     111.053E-03    -54.2658E-03     114.358E-03    -57.6453E-03     111.753E-03    -54.2164E-03     113.222E-03
            1457     11.0824E-03     55.8967E-03    -20.5828E+06    -56.3099E+06    -3.55165E+06     155.562E+03    -56.5126E-03     110.834E-03    -54.3217E-03     104.397E-03    -57.0854E-03     111.144E-03    -54.2280E-03     103.450E-03
            1458     10.2299E-03     55.7965E-03    -21.9920E+06    -75.4096E+06    -3.15809E+06     218.954E+03    -56.2566E-03     110.622E-03    -54.3655E-03     96.5141E-03    -56.6520E-03     110.681E-03    -54.2400E-03     95.7257E-03
            1459     9.37714E-03     55.7037E-03    -23.9025E+06    -89.3950E+06    -2.96181E+06     217.277E+03    -56.0369E-03     110.438E-03    -54.4013E-03     88.7230E-03    -56.3112E-03     110.319E-03    -54.2518E-03     88.0660E-03
            1460     8.52467E-03     55.6187E-03    -25.9991E+06    -103.616E+06    -3.22738E+06     158.426E+03    -55.8148E-03     110.248E-03    -54.4329E-03     81.0999E-03    -55.9987E-03     109.981E-03    -54.2611E-03     80.5538E-03
            1461     7.67214E-03     55.5412E-03    -28.1546E+06    -111.937E+06    -4.40650E+06     94.2280E+03    -55.5673E-03     110.018E-03    -54.4512E-03     73.7811E-03    -55.6895E-03     109.656E-03    -54.2701E-03     73.3308E-03
            1462     6.81959E-03     55.4708E-03    -30.8214E+06    -118.747E+06    -6.77999E+06     209.330E+03    -55.3377E-03     109.801E-03    -54.4634E-03     66.3834E-03    -55.4161E-03     109.368E-03    -54.2804E-03     66.0179E-03
            1463     5.96707E-03     55.4080E-03    -34.1579E+06    -132.748E+06    -9.95355E+06     104.060E+03    -55.1465E-03     109.629E-03    -54.4827E-03     58.6926E-03    -55.1841E-03     109.103E-03    -54.2905E-03     58.3966E-03
            1464     5.11461E-03     55.3530E-03    -37.8908E+06    -139.297E+06    -15.3635E+06     44.6860E+03    -54.9442E-03     109.425E-03    -54.4803E-03     50.8608E-03    -54.9589E-03     108.855E-03    -54.3002E-03     50.6257E-03
            1465     4.26210E-03     55.3059E-03    -41.7168E+06    -144.965E+06    -23.1727E+06     138.260E+03    -54.7720E-03     109.238E-03    -54.4657E-03     42.8246E-03    -54.7684E-03     108.639E-03    -54.3109E-03     42.6438E-03
            1466     3.40967E-03     55.2670E-03    -45.2235E+06    -154.287E+06    -31.3605E+06    -41.0679E+03    -54.6471E-03     109.100E-03    -54.4532E-03     34.5698E-03    -54.6230E-03     108.459E-03    -54.3207E-03     34.4320E-03
            1467     2.55723E-03     55.2364E-03    -48.2582E+06    -159.432E+06    -39.1824E+06    -190.872E+03    -54.5509E-03     108.982E-03    -54.4312E-03     26.1668E-03    -54.5144E-03     108.322E-03    -54.3260E-03     26.0666E-03
            1468     1.70488E-03     55.2143E-03    -50.6981E+06    -164.030E+06    -46.2801E+06    -66.8281E+03    -54.4739E-03     108.878E-03    -54.4043E-03     17.7076E-03    -54.4270E-03     108.203E-03    -54.3244E-03     17.6436E-03
            1469     852.447E-06     55.2008E-03    -52.2557E+06    -167.167E+06    -51.3019E+06    -1.72467E+03    -54.4104E-03     108.789E-03    -54.3786E-03     9.55538E-03    -54.3561E-03     108.105E-03    -54.3169E-03     9.52244E-03
            1470     16.1928E-03     55.9543E-03    -5.79559E+06     148.386E+06     101.071E+06    -1.12162E+06    -58.2933E-03     112.693E-03    -54.3996E-03     177.695E-03    -66.2794E-03     120.892E-03    -54.1010E-03     179.381E-03
            1471     15.3480E-03     55.6506E-03    -11.1794E+06     141.271E+06     80.8817E+06     36.1719E+03    -64.7372E-03     119.094E-03    -54.3566E-03     279.112E-03    -75.5975E-03     130.181E-03    -54.1409E-03     278.690E-03
            1472     14.4933E-03     55.3860E-03    -14.3672E+06     114.258E+06     37.5682E+06     2.00728E+06    -61.9908E-03     116.212E-03    -54.2208E-03     220.759E-03    -67.5826E-03     122.049E-03    -54.1778E-03     218.771E-03
            1473     13.6399E-03     55.2090E-03    -17.3952E+06     70.7619E+06     8.00603E+06     1.23343E+06    -58.5837E-03     112.749E-03    -54.1658E-03     159.171E-03    -61.0460E-03     115.378E-03    -54.2031E-03     157.472E-03
            1474     12.7877E-03     55.0689E-03    -18.9509E+06     15.8963E+06    -2.13677E+06    -389.366E+03    -57.4374E-03     111.645E-03    -54.2072E-03     130.501E-03    -58.8072E-03     113.010E-03    -54.2135E-03     129.106E-03
            1475     11.9349E-03     54.9484E-03    -19.5906E+06    -28.2295E+06    -4.22463E+06    -408.707E+03    -56.8450E-03     111.115E-03    -54.2697E-03     114.363E-03    -57.6990E-03     111.811E-03    -54.2215E-03     113.217E-03
            1476     11.0824E-03     54.8402E-03    -20.7744E+06    -56.3974E+06    -3.84269E+06     135.416E+03    -56.5183E-03     110.842E-03    -54.3237E-03     104.257E-03    -57.0913E-03     111.152E-03    -54.2310E-03     103.311E-03
            1477     10.2297E-03     54.7399E-03    -22.2786E+06    -75.4045E+06    -3.38976E+06     193.172E+03    -56.3018E-03     110.667E-03    -54.3652E-03     96.4426E-03    -56.6986E-03     110.727E-03    -54.2405E-03     95.6526E-03
            1478     9.37730E-03     54.6471E-03    -23.7761E+06    -89.3030E+06    -3.03318E+06     165.609E+03    -56.0650E-03     110.462E-03    -54.3975E-03     88.6701E-03    -56.3390E-03     110.344E-03    -54.2487E-03     88.0117E-03
            1479     8.52469E-03     54.5622E-03    -25.7174E+06    -103.467E+06    -3.14957E+06     75.7496E+03    -55.8052E-03     110.234E-03    -54.4283E-03     81.0823E-03    -55.9881E-03     109.967E-03    -54.2567E-03     80.5351E-03
            1480     7.67215E-03     54.4846E-03    -28.3212E+06    -111.975E+06    -4.42131E+06     27.5213E+03    -55.5714E-03     110.018E-03    -54.4467E-03     73.7782E-03    -55.6944E-03     109.656E-03    -54.2654E-03     73.3269E-03
            1481     6.81963E-03     54.4142E-03    -31.1365E+06    -118.798E+06    -6.87849E+06     5.88137E+03    -55.3458E-03     109.803E-03    -54.4572E-03     66.3683E-03    -55.4256E-03     109.370E-03    -54.2742E-03     66.0001E-03
            1482     5.96715E-03     54.3514E-03    -34.1732E+06    -132.703E+06    -9.93051E+06     154.652E+03    -55.1385E-03     109.614E-03    -54.4755E-03     58.6714E-03    -55.1762E-03     109.088E-03    -54.2832E-03     58.3761E-03
            1483     5.11463E-03     54.2965E-03    -37.8074E+06    -139.299E+06    -15.5020E+06     209.418E+03    -54.9404E-03     109.412E-03    -54.4719E-03     50.8504E-03    -54.9544E-03     108.843E-03    -54.2926E-03     50.6176E-03
            1484     4.26217E-03     54.2493E-03    -41.4521E+06    -144.791E+06    -23.2031E+06     30.2839E+03    -54.7705E-03     109.227E-03    -54.4565E-03     42.8207E-03    -54.7658E-03     108.628E-03    -54.3025E-03     42.6386E-03
            1485     3.40968E-03     54.2104E-03    -44.9261E+06    -154.040E+06    -31.1698E+06    -101.765E+03    -54.6400E-03     109.084E-03    -54.4442E-03     34.5791E-03    -54.6151E-03     108.443E-03    -54.3115E-03     34.4407E-03
            1486     2.55725E-03     54.1798E-03    -48.2778E+06    -159.558E+06    -39.4301E+06    -178.523E+03    -54.5320E-03     108.955E-03    -54.4230E-03     26.2166E-03    -54.4951E-03     108.295E-03    -54.3188E-03     26.1167E-03
            1487     1.70483E-03     54.1578E-03    -50.9306E+06    -164.235E+06    -46.5627E+06    -176.589E+03    -54.4485E-03     108.854E-03    -54.4054E-03     17.7499E-03    -54.4020E-03     108.179E-03    -54.3262E-03     17.6844E-03
            1488     852.374E-06     54.1444E-03    -52.6300E+06    -167.253E+06    -51.2562E+06     39.1576E+03    -54.4417E-03     108.806E-03    -54.3638E-03     9.61047E-03    -54.3892E-03     108.122E-03    -54.3013E-03     9.57803E-03
            1489     16.2022E-03     54.8928E-03    -5.27563E+06     148.612E+06     100.925E+06     163.021E+03    -57.2027E-03     111.708E-03    -54.5054E-03     180.682E-03    -65.3272E-03     120.049E-03    -54.2086E-03     182.424E-03
            1490     15.3447E-03     54.5962E-03    -13.3512E+06     138.985E+06     78.0481E+06    -560.325E+03    -65.7598E-03     120.223E-03    -54.4633E-03     279.404E-03    -76.7430E-03     131.426E-03    -54.2552E-03     278.865E-03
            1491     14.4909E-03     54.3285E-03    -16.4421E+06     113.228E+06     37.9414E+06    -224.396E+03    -62.9015E-03     117.187E-03    -54.2856E-03     219.541E-03    -68.5146E-03     123.034E-03    -54.2363E-03     217.468E-03
            1492     13.6397E-03     54.1512E-03    -16.1762E+06     72.5800E+06     11.8330E+06     399.722E+03    -58.7982E-03     112.998E-03    -54.1996E-03     157.687E-03    -61.2558E-03     115.621E-03    -54.2222E-03     155.968E-03
            1493     12.7873E-03     54.0120E-03    -17.0968E+06     16.5363E+06    -560.170E+03     84.2665E+03    -57.5515E-03     111.766E-03    -54.2148E-03     129.634E-03    -58.9181E-03     113.132E-03    -54.2168E-03     128.237E-03
            1494     11.9351E-03     53.8916E-03    -19.2004E+06    -28.7392E+06    -3.98854E+06     89.8260E+03    -56.8610E-03     111.128E-03    -54.2672E-03     113.989E-03    -57.7120E-03     111.821E-03    -54.2176E-03     112.849E-03
            1495     11.0824E-03     53.7838E-03    -20.8063E+06    -56.3827E+06    -3.55895E+06     98.0725E+03    -56.5164E-03     110.836E-03    -54.3192E-03     104.094E-03    -57.0901E-03     111.146E-03    -54.2251E-03     103.145E-03
            1496     10.2300E-03     53.6832E-03    -22.0637E+06    -75.3164E+06    -3.17667E+06     75.4999E+03    -56.2960E-03     110.655E-03    -54.3592E-03     96.3953E-03    -56.6924E-03     110.715E-03    -54.2339E-03     95.6034E-03
            1497     9.37727E-03     53.5906E-03    -23.7768E+06    -89.2239E+06    -2.82744E+06    -5.49018E+03    -56.0335E-03     110.426E-03    -54.3928E-03     88.6643E-03    -56.3079E-03     110.308E-03    -54.2431E-03     88.0038E-03
            1498     8.52474E-03     53.5055E-03    -25.7909E+06    -103.456E+06    -2.93493E+06    -29.6997E+03    -55.7956E-03     110.221E-03    -54.4253E-03     81.0893E-03    -55.9791E-03     109.954E-03    -54.2525E-03     80.5408E-03
            1499     7.67220E-03     53.4281E-03    -28.0186E+06    -112.016E+06    -4.19095E+06     41.1855E+03    -55.5758E-03     110.019E-03    -54.4432E-03     73.8090E-03    -55.6976E-03     109.656E-03    -54.2611E-03     73.3579E-03
            1500     6.81970E-03     53.3576E-03    -30.9198E+06    -118.791E+06    -6.88758E+06     80.7269E+03    -55.3499E-03     109.802E-03    -54.4517E-03     66.3758E-03    -55.4285E-03     109.369E-03    -54.2691E-03     66.0087E-03
            1501     5.96716E-03     53.2949E-03    -34.4222E+06    -132.920E+06    -10.1625E+06     126.972E+03    -55.1390E-03     109.608E-03    -54.4689E-03     58.6778E-03    -55.1773E-03     109.082E-03    -54.2771E-03     58.3823E-03
            1502     5.11468E-03     53.2398E-03    -37.8910E+06    -139.076E+06    -15.7095E+06     125.856E+03    -54.9307E-03     109.395E-03    -54.4644E-03     50.8590E-03    -54.9451E-03     108.827E-03    -54.2864E-03     50.6253E-03
            1503     4.26217E-03     53.1928E-03    -41.4815E+06    -144.601E+06    -23.4256E+06    -7.37075E+03    -54.7585E-03     109.208E-03    -54.4499E-03     42.8428E-03    -54.7539E-03     108.611E-03    -54.2972E-03     42.6604E-03
            1504     3.40972E-03     53.1539E-03    -45.1188E+06    -154.091E+06    -31.0799E+06    -57.5390E+03    -54.6285E-03     109.070E-03    -54.4413E-03     34.5982E-03    -54.6046E-03     108.429E-03    -54.3078E-03     34.4605E-03
            1505     2.55725E-03     53.1234E-03    -48.3992E+06    -159.479E+06    -39.2419E+06    -72.6447E+03    -54.5080E-03     108.933E-03    -54.4253E-03     26.1999E-03    -54.4720E-03     108.273E-03    -54.3200E-03     26.1015E-03
            1506     1.70475E-03     53.1013E-03    -51.0054E+06    -164.369E+06    -46.7876E+06    -138.317E+03    -54.4431E-03     108.856E-03    -54.4133E-03     17.7197E-03    -54.3965E-03     108.181E-03    -54.3349E-03     17.6549E-03
            1507     852.402E-06     53.0878E-03    -52.7523E+06    -167.394E+06    -51.5693E+06    -114.214E+03    -54.4326E-03     108.829E-03    -54.3962E-03     9.63741E-03    -54.3801E-03     108.145E-03    -54.3348E-03     9.60299E-03
            1508     16.1903E-03     53.8410E-03    -4.69794E+06     149.087E+06     101.686E+06     1.49959E+06    -57.5210E-03     112.021E-03    -54.5002E-03     181.186E-03    -65.5401E-03     120.258E-03    -54.2011E-03     182.851E-03
            1509     15.3399E-03     53.5304E-03    -10.4742E+06     141.342E+06     80.5450E+06     863.739E+03    -65.6904E-03     120.127E-03    -54.4363E-03     274.260E-03    -76.4534E-03     131.120E-03    -54.2234E-03     273.647E-03
            1510     14.4945E-03     53.2719E-03    -15.2118E+06     113.679E+06     37.7503E+06    -1.40129E+06    -62.4113E-03     116.644E-03    -54.2327E-03     215.276E-03    -67.9199E-03     122.392E-03    -54.1867E-03     213.212E-03
            1511     13.6406E-03     53.0947E-03    -17.8516E+06     70.3647E+06     9.25262E+06    -1.35492E+06    -58.3695E-03     112.522E-03    -54.1522E-03     157.595E-03    -60.8251E-03     115.137E-03    -54.1821E-03     155.868E-03
            1512     12.7881E-03     52.9548E-03    -18.6063E+06     15.8566E+06    -1.28263E+06     259.715E+03    -57.3292E-03     111.521E-03    -54.1917E-03     129.257E-03    -58.6990E-03     112.885E-03    -54.1941E-03     127.867E-03
            1513     11.9352E-03     52.8354E-03    -19.3104E+06    -28.0714E+06    -3.56465E+06     336.276E+03    -56.7627E-03     111.017E-03    -54.2540E-03     113.834E-03    -57.6151E-03     111.711E-03    -54.2031E-03     112.699E-03
            1514     11.0826E-03     52.7269E-03    -20.2462E+06    -56.5704E+06    -3.38507E+06    -37.7911E+03    -56.4665E-03     110.776E-03    -54.3094E-03     104.152E-03    -57.0372E-03     111.084E-03    -54.2149E-03     103.203E-03
            1515     10.2299E-03     52.6269E-03    -21.7137E+06    -75.3192E+06    -2.96437E+06     104.502E+03    -56.2504E-03     110.604E-03    -54.3532E-03     96.4501E-03    -56.6453E-03     110.663E-03    -54.2274E-03     95.6594E-03
            1516     9.37735E-03     52.5338E-03    -23.4990E+06    -89.0775E+06    -2.81576E+06     62.9765E+03    -56.0099E-03     110.399E-03    -54.3886E-03     88.7113E-03    -56.2829E-03     110.280E-03    -54.2394E-03     88.0525E-03
            1517     8.52475E-03     52.4492E-03    -25.6960E+06    -103.409E+06    -3.04122E+06    -53.3518E+03    -55.7940E-03     110.216E-03    -54.4220E-03     81.1267E-03    -55.9769E-03     109.949E-03    -54.2500E-03     80.5782E-03
            1518     7.67222E-03     52.3713E-03    -28.3866E+06    -112.215E+06    -4.57307E+06        -715.410    -55.5650E-03     110.005E-03    -54.4402E-03     73.8365E-03    -55.6877E-03     109.642E-03    -54.2592E-03     73.3853E-03
            1519     6.81966E-03     52.3011E-03    -31.2460E+06    -118.872E+06    -7.06374E+06     203.560E+03    -55.3362E-03     109.787E-03    -54.4508E-03     66.4107E-03    -55.4160E-03     109.354E-03    -54.2685E-03     66.0456E-03
            1520     5.96719E-03     52.2382E-03    -34.3489E+06    -132.731E+06    -10.0286E+06     126.984E+03    -55.1471E-03     109.616E-03    -54.4689E-03     58.7069E-03    -55.1855E-03     109.090E-03    -54.2768E-03     58.4116E-03
            1521     5.11471E-03     52.1834E-03    -37.9441E+06    -139.016E+06    -15.4715E+06    -37.4675E+03    -54.9324E-03     109.397E-03    -54.4644E-03     50.8795E-03    -54.9475E-03     108.829E-03    -54.2852E-03     50.6438E-03
            1522     4.26217E-03     52.1362E-03    -41.5767E+06    -144.527E+06    -23.1303E+06    -17.1308E+03    -54.7516E-03     109.202E-03    -54.4505E-03     42.8594E-03    -54.7480E-03     108.605E-03    -54.2963E-03     42.6771E-03
            1523     3.40969E-03     52.0974E-03    -45.1238E+06    -154.084E+06    -30.9980E+06    -38.8918E+03    -54.6280E-03     109.069E-03    -54.4414E-03     34.5909E-03    -54.6042E-03     108.428E-03    -54.3075E-03     34.4535E-03
            1524     2.55724E-03     52.0668E-03    -48.4894E+06    -159.464E+06    -39.1025E+06    -70.6252E+03    -54.5257E-03     108.948E-03    -54.4219E-03     26.1720E-03    -54.4904E-03     108.288E-03    -54.3159E-03     26.0736E-03
            1525     1.70486E-03     52.0448E-03    -51.2325E+06    -164.370E+06    -46.5886E+06    -103.280E+03    -54.4477E-03     108.850E-03    -54.4019E-03     17.7014E-03    -54.4025E-03     108.174E-03    -54.3222E-03     17.6372E-03
            1526     852.384E-06     52.0312E-03    -52.9822E+06    -167.655E+06    -51.7174E+06    -170.358E+03    -54.3843E-03     108.793E-03    -54.4089E-03     9.58961E-03    -54.3323E-03     108.109E-03    -54.3475E-03     9.55426E-03
            1527     16.2051E-03     52.7855E-03    -5.18316E+06     148.950E+06     101.868E+06     594.225E+03    -59.9295E-03     114.240E-03    -54.3106E-03     178.215E-03    -67.8036E-03     122.329E-03    -54.0097E-03     179.799E-03
            1528     15.3545E-03     52.4768E-03    -8.75050E+06     143.297E+06     83.0774E+06     729.523E+03    -63.5430E-03     117.783E-03    -54.2405E-03     274.907E-03    -74.1381E-03     128.615E-03    -54.0202E-03     274.501E-03
            1529     14.4936E-03     52.2169E-03    -13.4930E+06     114.688E+06     37.3101E+06     618.997E+03    -60.7463E-03     114.886E-03    -54.1393E-03     217.824E-03    -66.2262E-03     120.616E-03    -54.0995E-03     215.903E-03
            1530     13.6409E-03     52.0375E-03    -17.1407E+06     69.7865E+06     7.17235E+06    -149.731E+03    -58.3018E-03     112.417E-03    -54.1148E-03     158.593E-03    -60.7548E-03     115.036E-03    -54.1553E-03     156.881E-03
            1531     12.7880E-03     51.8988E-03    -18.9031E+06     15.1279E+06    -2.16475E+06    -656.035E+03    -57.1429E-03     111.316E-03    -54.1730E-03     129.614E-03    -58.5091E-03     112.675E-03    -54.1783E-03     128.220E-03
            1532     11.9354E-03     51.7785E-03    -19.3252E+06    -28.1506E+06    -3.93476E+06    -250.051E+03    -56.6899E-03     110.936E-03    -54.2460E-03     114.062E-03    -57.5414E-03     111.630E-03    -54.1968E-03     112.921E-03
            1533     11.0826E-03     51.6709E-03    -20.4243E+06    -56.5267E+06    -3.69455E+06     91.8530E+03    -56.4377E-03     110.744E-03    -54.3061E-03     104.331E-03    -57.0085E-03     111.052E-03    -54.2130E-03     103.385E-03
            1534     10.2300E-03     51.5700E-03    -21.8155E+06    -75.3758E+06    -3.17083E+06    -11.3025E+03    -56.2414E-03     110.594E-03    -54.3525E-03     96.5597E-03    -56.6362E-03     110.653E-03    -54.2274E-03     95.7683E-03
            1535     9.37734E-03     51.4776E-03    -23.3203E+06    -89.0308E+06    -2.88568E+06     13.7122E+03    -56.0201E-03     110.408E-03    -54.3884E-03     88.7905E-03    -56.2921E-03     110.290E-03    -54.2399E-03     88.1313E-03
            1536     8.52474E-03     51.3923E-03    -25.4174E+06    -103.555E+06    -2.83914E+06     242.198E+03    -55.8010E-03     110.224E-03    -54.4229E-03     81.1692E-03    -55.9825E-03     109.956E-03    -54.2501E-03     80.6249E-03
            1537     7.67224E-03     51.3150E-03    -28.1203E+06    -112.196E+06    -4.11737E+06     365.047E+03    -55.5574E-03     110.000E-03    -54.4425E-03     73.8235E-03    -55.6793E-03     109.636E-03    -54.2596E-03     73.3773E-03
            1538     6.81966E-03     51.2444E-03    -31.1192E+06    -118.728E+06    -6.95151E+06     84.5196E+03    -55.3224E-03     109.775E-03    -54.4529E-03     66.4301E-03    -55.4018E-03     109.343E-03    -54.2704E-03     66.0639E-03
            1539     5.96713E-03     51.1818E-03    -34.2969E+06    -132.654E+06    -9.96459E+06     5.05436E+03    -55.1380E-03     109.611E-03    -54.4729E-03     58.7094E-03    -55.1763E-03     109.085E-03    -54.2807E-03     58.4129E-03
            1540     5.11463E-03     51.1268E-03    -37.8670E+06    -138.892E+06    -15.2296E+06    -5.28195E+03    -54.9529E-03     109.422E-03    -54.4688E-03     50.8688E-03    -54.9681E-03     108.853E-03    -54.2886E-03     50.6335E-03
            1541     4.26220E-03     51.0798E-03    -41.6439E+06    -144.539E+06    -22.8991E+06    -118.648E+03    -54.7723E-03     109.224E-03    -54.4515E-03     42.8319E-03    -54.7694E-03     108.626E-03    -54.2960E-03     42.6482E-03
            1542     3.40970E-03     51.0408E-03    -45.2274E+06    -154.071E+06    -30.9467E+06    -118.352E+03    -54.6311E-03     109.069E-03    -54.4383E-03     34.5692E-03    -54.6078E-03     108.428E-03    -54.3040E-03     34.4308E-03
            1543     2.55729E-03     51.0103E-03    -48.4505E+06    -159.507E+06    -39.1348E+06    -106.093E+03    -54.5299E-03     108.946E-03    -54.4157E-03     26.1771E-03    -54.4943E-03     108.285E-03    -54.3098E-03     26.0782E-03
            1544     1.70484E-03     50.9883E-03    -51.1495E+06    -164.443E+06    -46.6942E+06    -44.2527E+03    -54.4627E-03     108.849E-03    -54.3863E-03     17.7026E-03    -54.4168E-03     108.173E-03    -54.3071E-03     17.6390E-03
            1545     852.453E-06     50.9748E-03    -52.8838E+06    -167.797E+06    -51.8515E+06    -88.1703E+03    -54.4006E-03     108.749E-03    -54.3480E-03     9.55415E-03    -54.3477E-03     108.063E-03    -54.2873E-03     9.51989E-03
            1546     16.2052E-03     51.7245E-03    -6.78757E+06     147.821E+06     100.489E+06    -511.158E+03    -59.4480E-03     113.765E-03    -54.3175E-03     184.701E-03    -67.5794E-03     122.106E-03    -54.0195E-03     186.447E-03
            1547     15.3454E-03     51.4274E-03    -10.1932E+06     142.140E+06     81.3454E+06     660.395E+03    -64.4272E-03     118.707E-03    -54.2797E-03     282.759E-03    -75.3337E-03     129.846E-03    -54.0643E-03     282.387E-03
            1548     14.4937E-03     51.1588E-03    -13.3240E+06     115.852E+06     39.4152E+06     1.03804E+06    -61.9815E-03     116.151E-03    -54.1696E-03     220.256E-03    -67.5411E-03     121.960E-03    -54.1212E-03     218.259E-03
            1549     13.6411E-03     50.9820E-03    -15.1182E+06     71.9059E+06     10.8966E+06     654.537E+03    -58.2048E-03     112.330E-03    -54.1256E-03     158.474E-03    -60.6435E-03     114.939E-03    -54.1535E-03     156.786E-03
            1550     12.7880E-03     50.8418E-03    -17.0468E+06     14.9901E+06    -1.50373E+06    -68.7886E+03    -57.0903E-03     111.268E-03    -54.1778E-03     129.946E-03    -58.4483E-03     112.623E-03    -54.1824E-03     128.562E-03
            1551     11.9352E-03     50.7225E-03    -19.2001E+06    -28.8117E+06     -4.0807E+06    -2.40517E+03    -56.7039E-03     110.957E-03    -54.2531E-03     114.146E-03    -57.5544E-03     111.649E-03    -54.2039E-03     113.008E-03
            1552     11.0825E-03     50.6139E-03    -20.6012E+06    -56.2323E+06    -3.52900E+06    -11.1662E+03    -56.4534E-03     110.767E-03    -54.3135E-03     104.414E-03    -57.0260E-03     111.077E-03    -54.2198E-03     103.467E-03
            1553     10.2299E-03     50.5138E-03    -21.9179E+06    -75.4084E+06    -3.11349E+06    -114.632E+03    -56.2704E-03     110.629E-03    -54.3587E-03     96.6295E-03    -56.6661E-03     110.688E-03    -54.2332E-03     95.8362E-03
            1554     9.37725E-03     50.4208E-03    -23.8814E+06    -89.2256E+06    -2.94991E+06     50.5736E+03    -56.0485E-03     110.441E-03    -54.3929E-03     88.8279E-03    -56.3231E-03     110.323E-03    -54.2436E-03     88.1688E-03
            1555     8.52477E-03     50.3360E-03    -26.0575E+06    -103.833E+06    -3.12517E+06     252.854E+03    -55.8066E-03     110.232E-03    -54.4251E-03     81.1712E-03    -55.9903E-03     109.963E-03    -54.2524E-03     80.6272E-03
            1556     7.67217E-03     50.2583E-03    -28.2923E+06    -112.032E+06    -4.18506E+06     263.162E+03    -55.5652E-03     110.009E-03    -54.4438E-03     73.8279E-03    -55.6880E-03     109.646E-03    -54.2613E-03     73.3806E-03
            1557     6.81967E-03     50.1880E-03    -30.9492E+06    -118.360E+06    -6.80810E+06     151.644E+03    -55.3349E-03     109.788E-03    -54.4533E-03     66.3987E-03    -55.4142E-03     109.357E-03    -54.2709E-03     66.0333E-03
            1558     5.96711E-03     50.1251E-03    -34.2314E+06    -132.639E+06    -10.1076E+06    -77.3553E+03    -55.1412E-03     109.613E-03    -54.4714E-03     58.6597E-03    -55.1788E-03     109.087E-03    -54.2800E-03     58.3622E-03
            1559     5.11466E-03     50.0702E-03    -37.7610E+06    -138.903E+06    -15.2730E+06    -69.7403E+03    -54.9584E-03     109.425E-03    -54.4667E-03     50.8000E-03    -54.9730E-03     108.857E-03    -54.2869E-03     50.5641E-03
            1560     4.26217E-03     50.0232E-03    -41.5382E+06    -144.469E+06    -22.7123E+06    -10.6932E+03    -54.7866E-03     109.234E-03    -54.4477E-03     42.7626E-03    -54.7834E-03     108.637E-03    -54.2916E-03     42.5803E-03
            1561     3.40977E-03     49.9844E-03    -45.2818E+06    -153.996E+06    -30.8680E+06    -208.894E+03    -54.6284E-03     109.060E-03    -54.4314E-03     34.5323E-03    -54.6056E-03     108.419E-03    -54.2968E-03     34.3928E-03
            1562     2.55725E-03     49.9538E-03    -48.5310E+06    -159.724E+06    -39.5405E+06    -205.208E+03    -54.5066E-03     108.916E-03    -54.4094E-03     26.1827E-03    -54.4705E-03     108.255E-03    -54.3051E-03     26.0827E-03
            1563     1.70485E-03     49.9318E-03    -51.0223E+06    -164.637E+06    -46.9523E+06     21.3912E+03    -54.4479E-03     108.836E-03    -54.3885E-03     17.7238E-03    -54.4007E-03     108.160E-03    -54.3105E-03     17.6610E-03
            1564     852.484E-06     49.9182E-03    -52.6170E+06    -167.643E+06    -51.6106E+06     161.498E+03    -54.4299E-03     108.767E-03    -54.3367E-03     9.55404E-03    -54.3763E-03     108.081E-03    -54.2754E-03     9.52315E-03
            1565     16.1911E-03     50.6730E-03    -5.66964E+06     148.116E+06     100.863E+06    -415.312E+03    -58.1634E-03     112.603E-03    -54.4394E-03     179.350E-03    -66.1445E-03     120.797E-03    -54.1417E-03     180.974E-03
            1566     15.3429E-03     50.3617E-03    -11.1331E+06     140.939E+06     80.3604E+06    -1.09346E+06    -65.6667E-03     120.031E-03    -54.3640E-03     275.584E-03    -76.4090E-03     131.001E-03    -54.1504E-03     274.995E-03
            1567     14.4947E-03     50.1034E-03    -14.4651E+06     114.610E+06     38.7181E+06    -573.269E+03    -61.9765E-03     116.162E-03    -54.1857E-03     217.195E-03    -67.4799E-03     121.909E-03    -54.1373E-03     215.179E-03
            1568     13.6407E-03     49.9255E-03    -16.6758E+06     71.0475E+06     9.82967E+06     153.882E+03    -58.0886E-03     112.222E-03    -54.1337E-03     159.089E-03    -60.5435E-03     114.842E-03    -54.1634E-03     157.397E-03
            1569     12.7877E-03     49.7856E-03    -18.1656E+06     15.4765E+06    -1.53182E+06     879.452E+03    -57.1904E-03     111.381E-03    -54.1910E-03     130.093E-03    -58.5565E-03     112.742E-03    -54.1947E-03     128.719E-03
            1570     11.9351E-03     49.6656E-03    -19.2524E+06    -28.0565E+06    -3.70437E+06     272.841E+03    -56.7234E-03     110.986E-03    -54.2629E-03     114.068E-03    -57.5761E-03     111.682E-03    -54.2129E-03     112.933E-03
            1571     11.0825E-03     49.5577E-03    -20.4347E+06    -56.4239E+06    -3.58695E+06    -132.032E+03    -56.4741E-03     110.795E-03    -54.3212E-03     104.416E-03    -57.0459E-03     111.105E-03    -54.2277E-03     103.466E-03
            1572     10.2298E-03     49.4570E-03    -22.0809E+06    -75.4514E+06    -3.22794E+06     59.9285E+03    -56.3096E-03     110.674E-03    -54.3645E-03     96.6514E-03    -56.7063E-03     110.734E-03    -54.2393E-03     95.8593E-03
            1573     9.37731E-03     49.3643E-03    -23.8384E+06    -89.5078E+06    -3.11669E+06     144.433E+03    -56.0807E-03     110.476E-03    -54.3958E-03     88.7865E-03    -56.3543E-03     110.357E-03    -54.2470E-03     88.1283E-03
            1574     8.52466E-03     49.2793E-03    -25.8379E+06    -103.818E+06    -3.18434E+06     178.743E+03    -55.8292E-03     110.255E-03    -54.4254E-03     81.1220E-03    -56.0117E-03     109.986E-03    -54.2533E-03     80.5768E-03
            1575     7.67221E-03     49.2018E-03    -28.2995E+06    -111.881E+06    -4.29122E+06     51.7845E+03    -55.5932E-03     110.034E-03    -54.4409E-03     73.7565E-03    -55.7160E-03     109.672E-03    -54.2591E-03     73.3063E-03
            1576     6.81965E-03     49.1313E-03    -31.0569E+06    -118.278E+06    -6.89139E+06     6.70438E+03    -55.3615E-03     109.808E-03    -54.4467E-03     66.3079E-03    -55.4412E-03     109.378E-03    -54.2646E-03     65.9405E-03
            1577     5.96722E-03     49.0686E-03    -34.1532E+06    -132.384E+06    -10.1501E+06    -31.0588E+03    -55.1565E-03     109.617E-03    -54.4602E-03     58.5804E-03    -55.1940E-03     109.092E-03    -54.2694E-03     58.2835E-03
            1578     5.11471E-03     49.0137E-03    -37.7576E+06    -139.081E+06    -15.5924E+06    -142.442E+03    -54.9465E-03     109.399E-03    -54.4526E-03     50.7396E-03    -54.9602E-03     108.830E-03    -54.2741E-03     50.5029E-03
            1579     4.26226E-03     48.9666E-03    -41.3079E+06    -144.432E+06    -22.7860E+06    -106.760E+03    -54.7682E-03     109.203E-03    -54.4347E-03     42.6961E-03    -54.7637E-03     108.605E-03    -54.2793E-03     42.5127E-03
            1580     3.40976E-03     48.9278E-03    -44.8493E+06    -153.936E+06    -30.9121E+06    -13.3274E+03    -54.6252E-03     109.043E-03    -54.4177E-03     34.4488E-03    -54.6003E-03     108.402E-03    -54.2840E-03     34.3118E-03
            1581     2.55733E-03     48.8974E-03    -48.3855E+06    -159.950E+06    -39.8320E+06     36.3056E+03    -54.4902E-03     108.885E-03    -54.3947E-03     26.1208E-03    -54.4526E-03     108.223E-03    -54.2917E-03     26.0240E-03
            1582     1.70482E-03     48.8752E-03    -51.0889E+06    -164.685E+06    -46.9560E+06    -3.31031E+03    -54.3966E-03     108.785E-03    -54.3885E-03     17.6854E-03    -54.3497E-03     108.108E-03    -54.3104E-03     17.6223E-03
            1583     852.295E-06     48.8618E-03    -52.6400E+06    -167.485E+06    -51.2563E+06     4.49597E+03    -54.4365E-03     108.792E-03    -54.3557E-03     9.55005E-03    -54.3837E-03     108.107E-03    -54.2928E-03     9.51713E-03
            1584     16.2047E-03     49.6122E-03    -4.79654E+06     149.245E+06     102.141E+06    -74.2927E+03    -59.3722E-03     113.723E-03    -54.3507E-03     178.408E-03    -67.3022E-03     121.870E-03    -54.0495E-03     180.026E-03
            1585     15.3532E-03     49.3099E-03    -10.2720E+06     141.960E+06     80.7539E+06    -736.536E+03    -64.0017E-03     118.283E-03    -54.2815E-03     276.349E-03    -74.6941E-03     129.209E-03    -54.0687E-03     275.928E-03
            1586     14.4930E-03     49.0477E-03    -15.5056E+06     112.901E+06     34.8452E+06    -403.737E+03    -61.0914E-03     115.260E-03    -54.1684E-03     219.130E-03    -66.6089E-03     121.022E-03    -54.1354E-03     217.179E-03
            1587     13.6402E-03     48.8689E-03    -18.2779E+06     70.0851E+06     6.68648E+06     315.250E+03    -58.4292E-03     112.572E-03    -54.1429E-03     159.229E-03    -60.8939E-03     115.201E-03    -54.1846E-03     157.519E-03
            1588     12.7878E-03     48.7288E-03    -19.0432E+06     16.0868E+06    -2.17433E+06    -78.9001E+03    -57.2294E-03     111.427E-03    -54.1981E-03     129.968E-03    -58.6009E-03     112.795E-03    -54.2047E-03     128.579E-03
            1589     11.9350E-03     48.6092E-03    -19.3850E+06    -28.0382E+06    -4.14909E+06    -74.4270E+03    -56.7245E-03     110.994E-03    -54.2697E-03     114.133E-03    -57.5774E-03     111.691E-03    -54.2217E-03     112.993E-03
            1590     11.0823E-03     48.5011E-03    -20.6384E+06    -56.3996E+06    -3.83181E+06     243.436E+03    -56.5443E-03     110.871E-03    -54.3271E-03     104.467E-03    -57.1178E-03     111.183E-03    -54.2346E-03     103.520E-03
            1591     10.2298E-03     48.4004E-03    -22.2797E+06    -75.5428E+06    -3.54785E+06     127.922E+03    -56.3637E-03     110.729E-03    -54.3657E-03     96.6173E-03    -56.7608E-03     110.789E-03    -54.2416E-03     95.8252E-03
            1592     9.37719E-03     48.3076E-03    -24.0025E+06    -89.4770E+06    -3.25143E+06     93.1327E+03    -56.1140E-03     110.508E-03    -54.3935E-03     88.6912E-03    -56.3881E-03     110.388E-03    -54.2452E-03     88.0319E-03
            1593     8.52480E-03     48.2227E-03    -25.9162E+06    -103.696E+06    -3.23146E+06    -67.7184E+03    -55.8745E-03     110.293E-03    -54.4186E-03     81.0111E-03    -56.0574E-03     110.025E-03    -54.2468E-03     80.4622E-03
            1594     7.67226E-03     48.1451E-03    -28.1032E+06    -111.872E+06    -4.27951E+06    -21.3869E+03    -55.6213E-03     110.050E-03    -54.4290E-03     73.6472E-03    -55.7430E-03     109.687E-03    -54.2474E-03     73.1959E-03
            1595     6.81984E-03     48.0748E-03    -30.9783E+06    -118.293E+06    -6.98961E+06     48.3323E+03    -55.3720E-03     109.802E-03    -54.4302E-03     66.2151E-03    -55.4510E-03     109.372E-03    -54.2487E-03     65.8484E-03
            1596     5.96730E-03     48.0120E-03    -34.3870E+06    -132.236E+06    -10.1844E+06    -12.1935E+03    -55.1541E-03     109.595E-03    -54.4409E-03     58.4990E-03    -55.1929E-03     109.072E-03    -54.2502E-03     58.2025E-03
            1597     5.11485E-03     47.9572E-03    -37.8972E+06    -138.868E+06    -15.5219E+06    -221.159E+03    -54.9358E-03     109.367E-03    -54.4309E-03     50.6657E-03    -54.9506E-03     108.799E-03    -54.2522E-03     50.4281E-03
            1598     4.26232E-03     47.9101E-03    -41.4919E+06    -144.670E+06    -23.1497E+06    -350.263E+03    -54.7409E-03     109.151E-03    -54.4106E-03     42.6213E-03    -54.7364E-03     108.553E-03    -54.2564E-03     42.4350E-03
            1599     3.40986E-03     47.8714E-03    -44.9439E+06    -154.420E+06    -31.4255E+06     92.1007E+03    -54.6040E-03     108.997E-03    -54.3931E-03     34.3827E-03    -54.5781E-03     108.355E-03    -54.2612E-03     34.2471E-03
            1600     2.55739E-03     47.8409E-03    -48.0892E+06    -159.748E+06    -39.4505E+06     414.701E+03    -54.4847E-03     108.854E-03    -54.3692E-03     26.0497E-03    -54.4465E-03     108.192E-03    -54.2651E-03     25.9575E-03
            1601     1.70491E-03     47.8189E-03    -50.7511E+06    -164.322E+06    -46.6150E+06     156.694E+03    -54.3922E-03     108.743E-03    -54.3504E-03     17.6242E-03    -54.3446E-03     108.067E-03    -54.2716E-03     17.5633E-03
            1602     852.478E-06     47.8053E-03    -52.5690E+06    -167.639E+06    -51.7094E+06    -58.8935E+03    -54.3790E-03     108.696E-03    -54.3175E-03     9.55244E-03    -54.3250E-03     108.011E-03    -54.2567E-03     9.51874E-03
            1603     16.2012E-03     48.5550E-03    -5.94902E+06     148.523E+06     100.893E+06    -422.059E+03    -58.3632E-03     112.774E-03    -54.4107E-03     185.026E-03    -66.5191E-03     121.143E-03    -54.1129E-03     186.816E-03
            1604     15.3419E-03     48.2547E-03    -11.3340E+06     141.271E+06     79.5768E+06     330.680E+03    -64.8163E-03     119.197E-03    -54.3809E-03     281.340E-03    -75.7511E-03     130.362E-03    -54.1714E-03     280.901E-03
            1605     14.4928E-03     47.9903E-03    -15.3553E+06     114.190E+06     37.4430E+06     340.411E+03    -62.6918E-03     116.926E-03    -54.2344E-03     219.366E-03    -68.2776E-03     122.754E-03    -54.1904E-03     217.307E-03
            1606     13.6407E-03     47.8122E-03    -17.1987E+06     71.4479E+06     9.65112E+06    -338.796E+03    -58.4954E-03     112.656E-03    -54.1609E-03     158.455E-03    -60.9477E-03     115.273E-03    -54.1913E-03     156.740E-03
            1607     12.7876E-03     47.6724E-03    -18.2127E+06     15.4420E+06    -2.12288E+06    -537.169E+03    -57.1123E-03     111.318E-03    -54.2055E-03     130.090E-03    -58.4777E-03     112.680E-03    -54.2121E-03     128.700E-03
            1608     11.9347E-03     47.5527E-03    -19.6772E+06    -28.7865E+06    -4.39349E+06     127.516E+03    -56.8082E-03     111.088E-03    -54.2796E-03     114.193E-03    -57.6623E-03     111.783E-03    -54.2312E-03     113.053E-03
            1609     11.0823E-03     47.4443E-03    -21.0105E+06    -56.1644E+06    -3.72355E+06     233.107E+03    -56.6464E-03     110.977E-03    -54.3308E-03     104.412E-03    -57.2229E-03     111.290E-03    -54.2375E-03     103.463E-03
            1610     10.2298E-03     47.3438E-03    -22.2605E+06    -75.4563E+06    -3.36480E+06     114.481E+03    -56.4380E-03     110.800E-03    -54.3617E-03     96.4736E-03    -56.8354E-03     110.860E-03    -54.2369E-03     95.6800E-03
            1611     9.37739E-03     47.2510E-03    -23.8733E+06    -89.3072E+06    -3.24319E+06     24.8195E+03    -56.1613E-03     110.543E-03    -54.3819E-03     88.5617E-03    -56.4349E-03     110.424E-03    -54.2340E-03     87.9010E-03
            1612     8.52487E-03     47.1660E-03    -26.0045E+06    -103.492E+06    -3.44470E+06    -93.4645E+03    -55.9012E-03     110.302E-03    -54.4008E-03     80.8829E-03    -56.0843E-03     110.035E-03    -54.2302E-03     80.3336E-03
            1613     7.67248E-03     47.0885E-03    -28.6613E+06    -112.060E+06    -4.69774E+06    -157.858E+03    -55.6367E-03     110.043E-03    -54.4065E-03     73.5327E-03    -55.7601E-03     109.681E-03    -54.2260E-03     73.0797E-03
            1614     6.81993E-03     47.0182E-03    -31.4129E+06    -118.467E+06    -7.09169E+06     53.4808E+03    -55.3655E-03     109.771E-03    -54.4051E-03     66.0936E-03    -55.4461E-03     109.340E-03    -54.2232E-03     65.7272E-03
            1615     5.96749E-03     46.9555E-03    -34.4852E+06    -131.873E+06    -10.2795E+06    -36.5801E+03    -55.1390E-03     109.551E-03    -54.4118E-03     58.3985E-03    -55.1785E-03     109.030E-03    -54.2220E-03     58.1018E-03
            1616     5.11498E-03     46.9006E-03    -38.0274E+06    -138.624E+06    -15.7502E+06    -371.874E+03    -54.9188E-03     109.317E-03    -54.3987E-03     50.5674E-03    -54.9341E-03     108.751E-03    -54.2213E-03     50.3281E-03
            1617     4.26251E-03     46.8537E-03    -41.7891E+06    -145.132E+06    -23.5930E+06    -220.551E+03    -54.7190E-03     109.095E-03    -54.3757E-03     42.5331E-03    -54.7146E-03     108.495E-03    -54.2226E-03     42.3487E-03
            1618     3.40996E-03     46.8149E-03    -45.4699E+06    -154.836E+06    -31.8589E+06     15.5720E+03    -54.5676E-03     108.925E-03    -54.3569E-03     34.3139E-03    -54.5430E-03     108.281E-03    -54.2258E-03     34.1777E-03
            1619     2.55745E-03     46.7845E-03    -48.4112E+06    -159.661E+06    -39.2864E+06     117.280E+03    -54.4606E-03     108.793E-03    -54.3319E-03     26.0004E-03    -54.4243E-03     108.131E-03    -54.2266E-03     25.9047E-03
            1620     1.70502E-03     46.7625E-03    -50.7368E+06    -164.059E+06    -46.1194E+06     320.521E+03    -54.3793E-03     108.680E-03    -54.3012E-03     17.6059E-03    -54.3327E-03     108.005E-03    -54.2204E-03     17.5474E-03
            1621     852.530E-06     46.7490E-03    -52.4386E+06    -167.365E+06    -51.3238E+06     248.028E+03    -54.3103E-03     108.575E-03    -54.2652E-03     9.60435E-03    -54.2565E-03     107.891E-03    -54.2031E-03     9.57456E-03
            1622     16.1916E-03     47.5016E-03    -5.54305E+06     148.642E+06     100.892E+06     214.182E+03    -57.5508E-03     112.059E-03    -54.5082E-03     180.990E-03    -65.6054E-03     120.329E-03    -54.2112E-03     182.669E-03
            1623     15.3439E-03     47.1927E-03    -12.0317E+06     140.305E+06     79.2966E+06    -207.992E+03    -66.1502E-03     120.590E-03    -54.4399E-03     275.554E-03    -76.9184E-03     131.584E-03    -54.2295E-03     274.916E-03
            1624     14.4935E-03     46.9317E-03    -14.8932E+06     114.522E+06     38.9872E+06    -1.05658E+06    -62.5026E-03     116.739E-03    -54.2365E-03     215.480E-03    -67.9852E-03     122.462E-03    -54.1860E-03     213.416E-03
            1625     13.6406E-03     46.7567E-03    -16.4859E+06     71.2119E+06     10.9029E+06    -737.736E+03    -58.1475E-03     112.312E-03    -54.1647E-03     158.299E-03    -60.5980E-03     114.925E-03    -54.1895E-03     156.596E-03
            1626     12.7873E-03     46.6158E-03    -18.6087E+06     15.0383E+06    -1.75404E+06     356.317E+03    -57.2187E-03     111.433E-03    -54.2140E-03     130.248E-03    -58.5856E-03     112.792E-03    -54.2176E-03     128.867E-03
            1627     11.9349E-03     46.4960E-03    -20.1707E+06    -28.5482E+06    -4.42569E+06     168.563E+03    -56.9102E-03     111.188E-03    -54.2781E-03     114.026E-03    -57.7673E-03     111.885E-03    -54.2296E-03     112.884E-03
            1628     11.0823E-03     46.3875E-03    -21.1279E+06    -56.3799E+06    -3.86056E+06    -86.9057E+03    -56.7152E-03     111.037E-03    -54.3214E-03     104.232E-03    -57.2913E-03     111.349E-03    -54.2283E-03     103.277E-03
            1629     10.2300E-03     46.2870E-03    -22.3052E+06    -75.0974E+06    -3.33594E+06    -69.3749E+03    -56.4939E-03     110.839E-03    -54.3454E-03     96.2765E-03    -56.8916E-03     110.901E-03    -54.2208E-03     95.4798E-03
            1630     9.37756E-03     46.1943E-03    -23.8372E+06    -89.4703E+06    -3.36833E+06    -161.057E+03    -56.1994E-03     110.558E-03    -54.3588E-03     88.3704E-03    -56.4720E-03     110.438E-03    -54.2114E-03     87.7070E-03
            1631     8.52514E-03     46.1094E-03    -25.8017E+06    -103.544E+06    -3.28143E+06     106.563E+03    -55.9090E-03     110.282E-03    -54.3735E-03     80.7277E-03    -56.0908E-03     110.015E-03    -54.2024E-03     80.1812E-03
            1632     7.67267E-03     46.0319E-03    -28.3596E+06    -111.832E+06    -4.25928E+06     53.0274E+03    -55.6374E-03     110.013E-03    -54.3759E-03     73.3660E-03    -55.7600E-03     109.651E-03    -54.1939E-03     72.9159E-03
            1633     6.82026E-03     45.9617E-03    -31.3585E+06    -118.793E+06    -6.99589E+06    -97.9180E+03    -55.3621E-03     109.731E-03    -54.3694E-03     65.9412E-03    -55.4419E-03     109.298E-03    -54.1866E-03     65.5731E-03
            1634     5.96771E-03     45.8990E-03    -34.5734E+06    -131.442E+06    -11.1502E+06    -68.1675E+03    -55.1191E-03     109.485E-03    -54.3662E-03     58.2577E-03    -55.1581E-03     108.967E-03    -54.1812E-03     57.9611E-03
            1635     5.11522E-03     45.8442E-03    -38.1067E+06    -138.494E+06    -16.8845E+06    -287.653E+03    -54.8864E-03     109.236E-03    -54.3492E-03     50.4290E-03    -54.9005E-03     108.672E-03    -54.1776E-03     50.1912E-03
            1636     4.26264E-03     45.7973E-03    -41.7357E+06    -145.758E+06    -24.0126E+06    -117.103E+03    -54.6924E-03     109.020E-03    -54.3274E-03     42.4119E-03    -54.6861E-03     108.418E-03    -54.1756E-03     42.2293E-03
            1637     3.41016E-03     45.7587E-03    -45.1301E+06    -154.660E+06    -31.9397E+06     58.2940E+03    -54.5370E-03     108.841E-03    -54.3038E-03     34.2093E-03    -54.5108E-03     108.198E-03    -54.1738E-03     34.0739E-03
            1638     2.55763E-03     45.7282E-03    -48.3849E+06    -159.832E+06    -39.6780E+06    -86.9110E+03    -54.3995E-03     108.676E-03    -54.2768E-03     25.9418E-03    -54.3622E-03     108.015E-03    -54.1732E-03     25.8437E-03
            1639     1.70506E-03     45.7062E-03    -50.8984E+06    -164.111E+06    -46.1980E+06    -38.1114E+03    -54.3014E-03     108.559E-03    -54.2573E-03     17.5549E-03    -54.2554E-03     107.883E-03    -54.1766E-03     17.4919E-03
            1640     852.515E-06     45.6928E-03    -52.2654E+06    -166.990E+06    -50.8136E+06     40.6488E+03    -54.2934E-03     108.506E-03    -54.2121E-03     9.60581E-03    -54.2402E-03     107.822E-03    -54.1482E-03     9.57324E-03
            1641     16.2022E-03     46.4456E-03    -4.55867E+06     149.547E+06     102.406E+06     487.702E+03    -59.6844E-03     114.025E-03    -54.3406E-03     178.717E-03    -67.5799E-03     122.138E-03    -54.0389E-03     180.282E-03
            1642     15.3490E-03     46.1346E-03     -9.4103E+06     142.564E+06     81.1848E+06    -57.7215E+03    -63.7726E-03     118.036E-03    -54.2631E-03     274.162E-03    -74.3163E-03     128.817E-03    -54.0502E-03     273.704E-03
            1643     14.4942E-03     45.8775E-03    -14.9130E+06     113.220E+06     34.8362E+06    -376.034E+03    -60.4420E-03     114.605E-03    -54.1626E-03     216.946E-03    -65.8613E-03     120.272E-03    -54.1310E-03     215.029E-03
            1644     13.6398E-03     45.6996E-03    -18.6932E+06     69.4346E+06     6.18787E+06    -321.214E+03    -58.3542E-03     112.506E-03    -54.1519E-03     158.745E-03    -60.8168E-03     115.131E-03    -54.1945E-03     157.030E-03
            1645     12.7878E-03     45.5594E-03    -19.5303E+06     15.2962E+06    -2.47922E+06    -190.246E+03    -57.4760E-03     111.677E-03    -54.2012E-03     129.884E-03    -58.8481E-03     113.042E-03    -54.2075E-03     128.487E-03
            1646     11.9350E-03     45.4391E-03    -19.7461E+06    -28.3699E+06    -4.38539E+06    -240.589E+03    -56.9410E-03     111.196E-03    -54.2552E-03     113.847E-03    -57.7948E-03     111.892E-03    -54.2073E-03     112.700E-03
            1647     11.0827E-03     45.3308E-03    -20.6898E+06    -56.3432E+06    -3.84364E+06    -105.078E+03    -56.7419E-03     111.036E-03    -54.2939E-03     103.995E-03    -57.3151E-03     111.347E-03    -54.2014E-03     103.040E-03
            1648     10.2303E-03     45.2301E-03    -22.3405E+06    -75.2012E+06    -3.38614E+06    -60.3151E+03    -56.5009E-03     110.815E-03    -54.3138E-03     96.0236E-03    -56.8976E-03     110.875E-03    -54.1893E-03     95.2277E-03
            1649     9.37792E-03     45.1377E-03    -24.4560E+06    -89.3947E+06    -3.43451E+06     7.92734E+03    -56.1946E-03     110.518E-03    -54.3236E-03     88.1321E-03    -56.4695E-03     110.399E-03    -54.1757E-03     87.4715E-03
            1650     8.52548E-03     45.0528E-03    -26.6477E+06    -103.719E+06    -3.83550E+06    -220.207E+03    -55.9057E-03     110.238E-03    -54.3321E-03     80.5608E-03    -56.0902E-03     109.971E-03    -54.1623E-03     80.0107E-03
            1651     7.67306E-03     44.9754E-03    -28.6922E+06    -111.770E+06    -4.67144E+06    -136.860E+03    -55.6199E-03     109.950E-03    -54.3298E-03     73.2034E-03    -55.7432E-03     109.588E-03    -54.1495E-03     72.7517E-03
            1652     6.82051E-03     44.9052E-03    -31.4118E+06    -118.962E+06    -7.11874E+06     78.3270E+03    -55.3466E-03     109.667E-03    -54.3204E-03     65.7775E-03    -55.4259E-03     109.233E-03    -54.1379E-03     65.4123E-03
            1653     5.96807E-03     44.8427E-03    -34.7687E+06    -131.185E+06    -11.8667E+06     17.1886E+03    -55.0930E-03     109.402E-03    -54.3091E-03     58.1097E-03    -55.1321E-03     108.886E-03    -54.1278E-03     57.8148E-03
            1654     5.11551E-03     44.7879E-03    -38.3193E+06    -138.402E+06    -17.5110E+06    -55.1889E+03    -54.8488E-03     109.137E-03    -54.2886E-03     50.3050E-03    -54.8630E-03     108.575E-03    -54.1199E-03     50.0708E-03
            1655     4.26298E-03     44.7411E-03    -41.9714E+06    -146.020E+06    -23.8950E+06    -137.289E+03    -54.6488E-03     108.916E-03    -54.2669E-03     42.3082E-03    -54.6434E-03     108.312E-03    -54.1138E-03     42.1257E-03
            1656     3.41038E-03     44.7024E-03    -45.3855E+06    -154.667E+06    -31.9084E+06    -97.8381E+03    -54.4881E-03     108.726E-03    -54.2378E-03     34.1191E-03    -54.4631E-03     108.083E-03    -54.1073E-03     33.9821E-03
            1657     2.55780E-03     44.6721E-03    -48.2825E+06    -159.695E+06    -39.5951E+06    -52.5270E+03    -54.3354E-03     108.542E-03    -54.2064E-03     25.8437E-03    -54.2978E-03     107.881E-03    -54.1029E-03     25.7464E-03
            1658     1.70517E-03     44.6501E-03    -50.7373E+06    -164.180E+06    -46.5930E+06    -264.279E+03    -54.2308E-03     108.414E-03    -54.1834E-03     17.4677E-03    -54.1833E-03     107.739E-03    -54.1048E-03     17.4020E-03
            1659     852.557E-06     44.6367E-03    -52.5003E+06    -167.326E+06    -51.3781E+06    -293.188E+03    -54.2706E-03     108.359E-03    -54.0887E-03     9.53086E-03    -54.2172E-03     107.675E-03    -54.0268E-03     9.49413E-03
            1660     16.2061E-03     45.3839E-03    -5.24480E+06     149.530E+06     102.117E+06    -319.182E+03    -59.7565E-03     114.061E-03    -54.3049E-03     183.921E-03    -67.8164E-03     122.338E-03    -54.0035E-03     185.660E-03
            1661     15.3514E-03     45.0882E-03    -9.45392E+06     143.007E+06     81.7554E+06     913.617E+03    -63.5827E-03     117.852E-03    -54.2694E-03     280.946E-03    -74.3374E-03     128.844E-03    -54.0542E-03     280.605E-03
            1662     14.4918E-03     44.8211E-03    -14.3363E+06     114.382E+06     36.7924E+06     1.56547E+06    -61.5429E-03     115.724E-03    -54.1815E-03     219.863E-03    -67.0445E-03     121.474E-03    -54.1426E-03     217.893E-03
            1663     13.6406E-03     44.6423E-03    -17.0239E+06     70.4046E+06     8.04852E+06     255.785E+03    -58.6339E-03     112.771E-03    -54.1375E-03     158.241E-03    -61.0785E-03     115.382E-03    -54.1746E-03     156.524E-03
            1664     12.7880E-03     44.5026E-03    -18.4729E+06     14.7262E+06    -2.45758E+06    -863.361E+03    -57.4856E-03     111.654E-03    -54.1685E-03     129.464E-03    -58.8510E-03     113.013E-03    -54.1753E-03     128.056E-03
            1665     11.9357E-03     44.3825E-03    -19.4897E+06    -28.8200E+06    -4.43327E+06    -411.021E+03    -56.9843E-03     111.202E-03    -54.2178E-03     113.767E-03    -57.8354E-03     111.895E-03    -54.1699E-03     112.617E-03
            1666     11.0831E-03     44.2739E-03    -20.9004E+06    -56.4548E+06    -4.01271E+06     62.3813E+03    -56.7366E-03     110.988E-03    -54.2514E-03     103.869E-03    -57.3093E-03     111.298E-03    -54.1593E-03     102.918E-03
            1667     10.2308E-03     44.1735E-03    -22.4965E+06    -75.3100E+06    -3.51352E+06     197.157E+03    -56.4780E-03     110.747E-03    -54.2685E-03     95.8229E-03    -56.8740E-03     110.805E-03    -54.1442E-03     95.0316E-03
            1668     9.37834E-03     44.0810E-03    -24.1265E+06    -89.1746E+06    -3.28771E+06     99.9276E+03    -56.1767E-03     110.452E-03    -54.2755E-03     87.9693E-03    -56.4498E-03     110.333E-03    -54.1276E-03     87.3110E-03
            1669     8.52593E-03     43.9963E-03    -26.1481E+06    -103.293E+06    -3.68267E+06    -173.468E+03    -55.8989E-03     110.178E-03    -54.2792E-03     80.3615E-03    -56.0812E-03     109.912E-03    -54.1099E-03     79.8127E-03
            1670     7.67345E-03     43.9189E-03    -28.9084E+06    -112.220E+06    -5.10108E+06    -287.960E+03    -55.5977E-03     109.869E-03    -54.2714E-03     73.0147E-03    -55.7203E-03     109.505E-03    -54.0922E-03     72.5619E-03
            1671     6.82101E-03     43.8488E-03    -31.6073E+06    -118.977E+06    -7.41427E+06    -127.565E+03    -55.3062E-03     109.564E-03    -54.2579E-03     65.6053E-03    -55.3856E-03     109.130E-03    -54.0766E-03     65.2384E-03
            1672     5.96841E-03     43.7864E-03    -34.4666E+06    -131.313E+06    -10.8957E+06     43.0569E+03    -55.0545E-03     109.303E-03    -54.2483E-03     57.9420E-03    -55.0930E-03     108.784E-03    -54.0624E-03     57.6482E-03
            1673     5.11587E-03     43.7317E-03    -38.0220E+06    -138.401E+06    -16.3371E+06     262.402E+03    -54.8069E-03     109.031E-03    -54.2237E-03     50.1578E-03    -54.8211E-03     108.466E-03    -54.0496E-03     49.9284E-03
            1674     4.26324E-03     43.6849E-03    -41.9385E+06    -145.643E+06    -23.8874E+06     69.5394E+03    -54.5907E-03     108.782E-03    -54.1913E-03     42.1843E-03    -54.5856E-03     108.180E-03    -54.0387E-03     42.0051E-03
            1675     3.41065E-03     43.6463E-03    -45.5420E+06    -154.726E+06    -32.0051E+06    -297.606E+03    -54.4178E-03     108.577E-03    -54.1592E-03     34.0154E-03    -54.3932E-03     107.934E-03    -54.0289E-03     33.8765E-03
            1676     2.55802E-03     43.6160E-03    -48.5748E+06    -159.734E+06    -39.6493E+06    -328.658E+03    -54.2772E-03     108.399E-03    -54.1221E-03     25.7588E-03    -54.2409E-03     107.739E-03    -54.0183E-03     25.6584E-03
            1677     1.70539E-03     43.5942E-03    -51.0638E+06    -164.352E+06    -46.6888E+06    -134.870E+03    -54.1744E-03     108.257E-03    -54.0827E-03     17.4167E-03    -54.1281E-03     107.582E-03    -54.0038E-03     17.3529E-03
            1678     852.746E-06     43.5806E-03    -52.8262E+06    -167.656E+06    -51.8092E+06    -108.146E+03    -54.1468E-03     108.132E-03    -53.9857E-03     9.51354E-03    -54.0939E-03     107.448E-03    -53.9250E-03     9.47929E-03
            1679     16.1943E-03     44.3316E-03    -6.64116E+06     147.719E+06     99.9187E+06    -574.090E+03    -57.7582E-03     112.226E-03    -54.4682E-03     182.724E-03    -65.8364E-03     120.516E-03    -54.1732E-03     184.456E-03
            1680     15.3381E-03     44.0242E-03    -12.5851E+06     140.372E+06     80.1413E+06    -93.3408E+03    -66.0915E-03     120.502E-03    -54.4106E-03     277.491E-03    -76.8971E-03     131.529E-03    -54.1952E-03     276.909E-03
            1681     14.4954E-03     43.7642E-03    -14.4012E+06     115.698E+06     40.8369E+06    -27.9615E+03    -63.0198E-03     117.226E-03    -54.2062E-03     217.252E-03    -68.5412E-03     122.988E-03    -54.1489E-03     215.175E-03
            1682     13.6413E-03     43.5861E-03    -15.8365E+06     71.9356E+06     11.1819E+06     275.626E+03    -58.5521E-03     112.654E-03    -54.1023E-03     158.144E-03    -60.9907E-03     115.260E-03    -54.1278E-03     156.440E-03
            1683     12.7886E-03     43.4457E-03    -17.4465E+06     14.9653E+06    -1.94564E+06     283.727E+03    -57.3700E-03     111.496E-03    -54.1261E-03     129.532E-03    -58.7284E-03     112.851E-03    -54.1322E-03     128.145E-03
            1684     11.9361E-03     43.3259E-03    -19.6292E+06    -29.1975E+06    -4.68804E+06     199.046E+03    -57.0235E-03     111.197E-03    -54.1740E-03     113.714E-03    -57.8749E-03     111.889E-03    -54.1266E-03     112.571E-03
            1685     11.0837E-03     43.2172E-03    -21.2499E+06    -56.5016E+06    -4.18355E+06     128.778E+03    -56.7384E-03     110.941E-03    -54.2027E-03     103.813E-03    -57.3117E-03     111.251E-03    -54.1109E-03     102.863E-03
            1686     10.2313E-03     43.1170E-03    -22.4880E+06    -75.2349E+06    -3.70353E+06     23.9838E+03    -56.4663E-03     110.681E-03    -54.2150E-03     95.6908E-03    -56.8610E-03     110.740E-03    -54.0918E-03     94.8985E-03
            1687     9.37891E-03     43.0244E-03    -24.0010E+06    -88.9988E+06    -3.22329E+06    -94.3859E+03    -56.1807E-03     110.399E-03    -54.2179E-03     87.8299E-03    -56.4528E-03     110.279E-03    -54.0701E-03     87.1700E-03
            1688     8.52648E-03     42.9398E-03    -26.0463E+06    -103.121E+06    -3.43656E+06    -48.4812E+03    -55.8846E-03     110.101E-03    -54.2167E-03     80.1715E-03    -56.0663E-03     109.834E-03    -54.0466E-03     79.6254E-03
            1689     7.67405E-03     42.8625E-03    -28.4277E+06    -112.209E+06    -4.83774E+06    -61.0525E+03    -55.5724E-03     109.775E-03    -54.2030E-03     72.8243E-03    -55.6924E-03     109.410E-03    -54.0233E-03     72.3756E-03
            1690     6.82145E-03     42.7926E-03    -31.4853E+06    -119.077E+06    -7.51583E+06    -168.626E+03    -55.2707E-03     109.454E-03    -54.1829E-03     65.4269E-03    -55.3487E-03     109.019E-03    -54.0022E-03     65.0606E-03
            1691     5.96892E-03     42.7302E-03    -35.0090E+06    -131.705E+06    -11.3125E+06     41.4081E+03    -55.0065E-03     109.174E-03    -54.1676E-03     57.7457E-03    -55.0462E-03     108.655E-03    -53.9824E-03     57.4529E-03
            1692     5.11631E-03     42.6756E-03    -38.4424E+06    -138.375E+06    -16.7113E+06     197.289E+03    -54.7458E-03     108.883E-03    -54.1370E-03     49.9764E-03    -54.7614E-03     108.319E-03    -53.9642E-03     49.7470E-03
            1693     4.26367E-03     42.6289E-03    -41.6992E+06    -145.175E+06    -23.9638E+06     72.7845E+03    -54.5173E-03     108.617E-03    -54.0999E-03     42.0266E-03    -54.5113E-03     108.017E-03    -53.9488E-03     41.8481E-03
            1694     3.41097E-03     42.5904E-03    -45.1734E+06    -154.554E+06    -31.9268E+06    -105.365E+03    -54.3330E-03     108.399E-03    -54.0658E-03     33.8836E-03    -54.3069E-03     107.756E-03    -53.9358E-03     33.7477E-03
            1695     2.55823E-03     42.5602E-03    -48.6707E+06    -159.925E+06    -39.9304E+06    -197.874E+03    -54.1827E-03     108.210E-03    -54.0268E-03     25.6754E-03    -54.1462E-03     107.548E-03    -53.9240E-03     25.5771E-03
            1696     1.70554E-03     42.5383E-03    -51.4585E+06    -164.694E+06    -47.1271E+06    -139.602E+03    -54.0659E-03     108.057E-03    -53.9914E-03     17.3867E-03    -54.0204E-03     107.381E-03    -53.9136E-03     17.3232E-03
            1697     852.780E-06     42.5250E-03    -53.0214E+06    -167.679E+06    -51.7981E+06     35.6118E+03    -53.9858E-03     107.960E-03    -53.9742E-03     9.52435E-03    -53.9339E-03     107.275E-03    -53.9131E-03     9.49208E-03
            1698     16.1956E-03     43.2714E-03    -4.80910E+06     148.867E+06     101.464E+06     770.880E+03    -58.9243E-03     113.307E-03    -54.3823E-03     176.352E-03    -66.8407E-03     121.441E-03    -54.0839E-03     177.922E-03
            1699     15.3526E-03     42.9680E-03    -11.2494E+06     140.820E+06     79.3045E+06    -1.38606E+06    -64.9353E-03     119.214E-03    -54.2788E-03     272.494E-03    -75.5854E-03     130.094E-03    -54.0702E-03     271.925E-03
            1700     14.4930E-03     42.7064E-03    -15.1261E+06     114.120E+06     36.7332E+06    -1.69864E+06    -61.7227E-03     115.825E-03    -54.1027E-03     215.090E-03    -67.1738E-03     121.521E-03    -54.0626E-03     213.077E-03
            1701     13.6420E-03     42.5298E-03    -17.2505E+06     70.6482E+06     8.65531E+06    -215.011E+03    -58.2016E-03     112.246E-03    -54.0445E-03     158.086E-03    -60.6442E-03     114.853E-03    -54.0787E-03     156.388E-03
            1702     12.7891E-03     42.3893E-03    -18.9360E+06     15.0518E+06    -2.45689E+06     923.924E+03    -57.3594E-03     111.444E-03    -54.0851E-03     129.959E-03    -58.7254E-03     112.804E-03    -54.0917E-03     128.581E-03
            1703     11.9367E-03     42.2690E-03    -19.8896E+06    -28.4136E+06    -4.56923E+06     489.918E+03    -57.0609E-03     111.191E-03    -54.1303E-03     113.749E-03    -57.9148E-03     111.887E-03    -54.0831E-03     112.609E-03
            1704     11.0843E-03     42.1607E-03    -20.7789E+06    -56.3660E+06    -4.08687E+06    -89.5603E+03    -56.7767E-03     110.929E-03    -54.1524E-03     103.698E-03    -57.3469E-03     111.237E-03    -54.0610E-03     102.745E-03
            1705     10.2319E-03     42.0603E-03    -22.1517E+06    -75.2127E+06    -3.62893E+06    -47.4945E+03    -56.4830E-03     110.641E-03    -54.1582E-03     95.5971E-03    -56.8753E-03     110.698E-03    -54.0352E-03     94.8050E-03
            1706     9.37952E-03     41.9680E-03    -24.1007E+06    -88.8808E+06    -3.36382E+06     32.1579E+03    -56.1918E-03     110.346E-03    -54.1537E-03     87.7148E-03    -56.4637E-03     110.226E-03    -54.0067E-03     87.0575E-03
            1707     8.52709E-03     41.8833E-03    -26.2998E+06    -103.194E+06    -3.59442E+06    -96.4221E+03    -55.8830E-03     110.028E-03    -54.1455E-03     80.0074E-03    -56.0649E-03     109.761E-03    -53.9757E-03     79.4619E-03
            1708     7.67459E-03     41.8063E-03    -28.8317E+06    -112.222E+06    -5.08513E+06    -22.3109E+03    -55.5603E-03     109.684E-03    -54.1235E-03     72.6173E-03    -55.6813E-03     109.319E-03    -53.9443E-03     72.1701E-03
            1709     6.82210E-03     41.7364E-03    -31.7456E+06    -119.118E+06    -7.57655E+06     145.976E+03    -55.2418E-03     109.337E-03    -54.0957E-03     65.2124E-03    -55.3205E-03     108.903E-03    -53.9148E-03     64.8511E-03
            1710     5.96948E-03     41.6742E-03    -34.9254E+06    -131.793E+06    -11.3465E+06     103.557E+03    -54.9529E-03     109.025E-03    -54.0725E-03     57.5434E-03    -54.9917E-03     108.505E-03    -53.8875E-03     57.2524E-03
            1711     5.11682E-03     41.6197E-03    -38.3130E+06    -138.244E+06    -16.8845E+06    -44.0230E+03    -54.6671E-03     108.702E-03    -54.0353E-03     49.7980E-03    -54.6816E-03     108.139E-03    -53.8637E-03     49.5664E-03
            1712     4.26409E-03     41.5731E-03    -41.9179E+06    -145.152E+06    -23.9360E+06    -39.5420E+03    -54.4184E-03     108.415E-03    -53.9969E-03     41.8824E-03    -54.4135E-03     107.816E-03    -53.8453E-03     41.7034E-03
            1713     3.41133E-03     41.5347E-03    -45.4892E+06    -154.501E+06    -31.6837E+06     109.649E+03    -54.2320E-03     108.194E-03    -53.9619E-03     33.7792E-03    -54.2078E-03     107.552E-03    -53.8304E-03     33.6468E-03
            1714     2.55856E-03     41.5045E-03    -48.7686E+06    -159.870E+06    -39.8069E+06     119.342E+03    -54.0598E-03     107.984E-03    -53.9238E-03     25.5618E-03    -54.0239E-03     107.322E-03    -53.8203E-03     25.4683E-03
            1715     1.70566E-03     41.4828E-03    -51.3945E+06    -164.713E+06    -47.3177E+06    -25.1451E+03    -53.9283E-03     107.830E-03    -53.9017E-03     17.3035E-03    -53.8821E-03     107.154E-03    -53.8250E-03     17.2418E-03
            1716     852.769E-06     41.4694E-03    -53.0755E+06    -167.813E+06    -52.1098E+06    -81.9393E+03    -53.8793E-03     107.806E-03    -53.9268E-03     9.50438E-03    -53.8269E-03     107.121E-03    -53.8670E-03     9.47089E-03
            1717     16.2124E-03     42.2232E-03    -4.23390E+06     150.165E+06     103.065E+06     340.265E+03    -60.8373E-03     115.090E-03    -54.2524E-03     180.079E-03    -68.8992E-03     123.371E-03    -53.9486E-03     181.629E-03
            1718     15.3462E-03     41.9109E-03    -7.35844E+06     144.273E+06     82.2185E+06     1.12010E+06    -64.0424E-03     118.194E-03    -54.1513E-03     278.179E-03    -74.8230E-03     129.221E-03    -53.9387E-03     277.781E-03
            1719     14.4984E-03     41.6522E-03    -14.3859E+06     113.304E+06     33.5267E+06     826.865E+03    -60.8060E-03     114.840E-03    -54.0340E-03     217.911E-03    -66.2464E-03     120.534E-03    -54.0098E-03     215.998E-03
            1720     13.6423E-03     41.4740E-03    -18.9100E+06     69.3318E+06     5.00511E+06     496.761E+03    -58.3006E-03     112.315E-03    -54.0144E-03     159.865E-03    -60.7638E-03     114.943E-03    -54.0624E-03     158.171E-03
            1721     12.7895E-03     41.3325E-03    -20.1134E+06     15.4061E+06    -3.39712E+06    -61.0228E+03    -57.6805E-03     111.736E-03    -54.0557E-03     130.396E-03    -59.0553E-03     113.104E-03    -54.0658E-03     128.997E-03
            1722     11.9371E-03     41.2123E-03    -19.9294E+06    -28.0796E+06    -4.97790E+06    -364.250E+03    -57.1682E-03     111.254E-03    -54.0859E-03     113.752E-03    -58.0212E-03     111.951E-03    -54.0412E-03     112.601E-03
            1723     11.0848E-03     41.1039E-03    -20.7047E+06    -56.4764E+06    -4.47071E+06    -58.6466E+03    -56.8301E-03     110.929E-03    -54.0990E-03     103.518E-03    -57.3982E-03     111.236E-03    -54.0094E-03     102.566E-03
            1724     10.2325E-03     41.0039E-03    -22.2496E+06    -75.2652E+06    -3.88784E+06     102.689E+03    -56.5247E-03     110.621E-03    -54.0967E-03     95.4693E-03    -56.9165E-03     110.678E-03    -53.9747E-03     94.6795E-03
            1725     9.38010E-03     40.9114E-03    -23.8731E+06    -88.7478E+06    -3.47492E+06     43.3433E+03    -56.2188E-03     110.302E-03    -54.0830E-03     87.5224E-03    -56.4890E-03     110.182E-03    -53.9371E-03     86.8656E-03
            1726     8.52774E-03     40.8271E-03    -25.9931E+06    -103.309E+06    -3.33847E+06     203.174E+03    -55.8934E-03     109.961E-03    -54.0671E-03     79.7499E-03    -56.0734E-03     109.691E-03    -53.8963E-03     79.2088E-03
            1727     7.67534E-03     40.7501E-03    -28.8369E+06    -112.183E+06    -4.91175E+06     283.239E+03    -55.5502E-03     109.585E-03    -54.0350E-03     72.3774E-03    -55.6710E-03     109.220E-03    -53.8551E-03     71.9351E-03
            1728     6.82276E-03     40.6804E-03    -31.7927E+06    -118.978E+06    -7.58928E+06      56.689E+03    -55.2027E-03     109.200E-03    -53.9971E-03     64.9938E-03    -55.2813E-03     108.765E-03    -53.8165E-03     64.6325E-03
            1729     5.97012E-03     40.6183E-03    -34.8186E+06    -131.731E+06    -11.2181E+06    -31.8837E+03    -54.8832E-03     108.851E-03    -53.9674E-03     57.3493E-03    -54.9213E-03     108.330E-03    -53.7820E-03     57.0579E-03
            1730     5.11743E-03     40.5640E-03    -38.3112E+06    -138.235E+06    -16.8776E+06     55.1229E+03    -54.5751E-03     108.500E-03    -53.9249E-03     49.6212E-03    -54.5893E-03     107.936E-03    -53.7533E-03     49.3922E-03
            1731     4.26459E-03     40.5176E-03    -42.0791E+06    -145.216E+06    -23.9377E+06     97.0184E+03    -54.3154E-03     108.199E-03    -53.8833E-03     41.7336E-03    -54.3109E-03     107.599E-03    -53.7314E-03     41.5575E-03
            1732     3.41172E-03     40.4792E-03    -45.6747E+06    -154.552E+06    -31.7094E+06     49.3901E+03    -54.1139E-03     107.961E-03    -53.8468E-03     33.6531E-03    -54.0904E-03     107.318E-03    -53.7150E-03     33.5208E-03
            1733     2.55880E-03     40.4492E-03    -48.7940E+06    -159.791E+06    -39.6979E+06     73.0870E+03    -53.9436E-03     107.752E-03    -53.8086E-03     25.4355E-03    -53.9080E-03     107.091E-03    -53.7046E-03     25.3421E-03
            1734     1.70588E-03     40.4276E-03    -51.3596E+06    -164.538E+06    -47.0020E+06     135.166E+03    -53.8386E-03     107.616E-03    -53.7777E-03     17.2114E-03    -53.7929E-03     106.941E-03    -53.6997E-03     17.1521E-03
            1735     852.928E-06     40.4141E-03    -53.2114E+06    -167.814E+06    -52.0773E+06     177.574E+03    -53.8177E-03     107.536E-03    -53.7185E-03     9.39834E-03    -53.7661E-03     106.852E-03    -53.6584E-03     9.36861E-03
            1736     16.1910E-03     41.1565E-03    -5.23094E+06     148.372E+06     100.835E+06    -1.83631E+06    -59.3041E-03     113.613E-03    -54.3088E-03     178.633E-03    -67.2726E-03     121.797E-03    -54.0122E-03     180.202E-03
            1737     15.3531E-03     40.8568E-03    -11.7772E+06     140.589E+06     80.3840E+06     535.031E+03    -64.1996E-03     118.451E-03    -54.2513E-03     278.282E-03    -74.9649E-03     129.440E-03    -54.0362E-03     277.904E-03
            1738     14.4920E-03     40.5973E-03    -15.3097E+06     114.004E+06     38.0744E+06     2.82146E+06    -61.8115E-03     115.946E-03    -54.1344E-03     220.955E-03    -67.3677E-03     121.742E-03    -54.0871E-03     219.024E-03
            1739     13.6411E-03     40.4159E-03    -17.1723E+06     72.0916E+06     9.02488E+06     1.15288E+06    -59.4902E-03     113.541E-03    -54.0509E-03     160.126E-03    -61.9859E-03     116.206E-03    -54.0854E-03     158.384E-03
            1740     12.7898E-03     40.2758E-03    -18.0583E+06     16.3565E+06    -2.23328E+06    -658.478E+03    -58.0349E-03     112.065E-03    -54.0299E-03     129.795E-03    -59.4051E-03     113.435E-03    -54.0386E-03     128.377E-03
            1741     11.9377E-03     40.1553E-03    -19.6842E+06    -28.8684E+06    -5.10199E+06    -302.579E+03    -57.2876E-03     111.326E-03    -54.0382E-03     113.410E-03    -58.1379E-03     112.019E-03    -53.9933E-03     112.256E-03
            1742     11.0855E-03     40.0474E-03    -21.3127E+06    -56.4883E+06    -4.55230E+06     62.1661E+03    -56.8667E-03     110.907E-03    -54.0406E-03     103.211E-03    -57.4367E-03     111.214E-03    -53.9505E-03     102.260E-03
            1743     10.2331E-03     39.9472E-03    -22.5333E+06    -75.2386E+06    -3.89175E+06    -149.933E+03    -56.5765E-03     110.605E-03    -54.0281E-03     95.2347E-03    -56.9690E-03     110.661E-03    -53.9058E-03     94.4413E-03
            1744     9.38095E-03     39.8551E-03    -24.0605E+06    -88.8656E+06    -3.42258E+06    -36.1692E+03    -56.2368E-03     110.241E-03    -54.0042E-03     87.2644E-03    -56.5070E-03     110.120E-03    -53.8576E-03     86.6072E-03
            1745     8.52855E-03     39.7708E-03    -26.1687E+06    -103.703E+06    -3.37471E+06     323.257E+03    -55.8739E-03     109.853E-03    -53.9794E-03     79.5239E-03    -56.0532E-03     109.581E-03    -53.8079E-03     78.9858E-03
            1746     7.67605E-03     39.6941E-03    -28.5163E+06    -111.872E+06    -4.47405E+06     434.032E+03    -55.5177E-03     109.458E-03    -53.9400E-03     72.1755E-03    -55.6373E-03     109.092E-03    -53.7589E-03     71.7367E-03
            1747     6.82350E-03     39.6245E-03    -31.3465E+06    -118.497E+06    -7.19145E+06     99.7971E+03    -55.1575E-03     109.051E-03    -53.8935E-03     64.7824E-03    -55.2346E-03     108.617E-03    -53.7122E-03     64.4233E-03
            1748     5.97082E-03     39.5627E-03    -34.7185E+06    -131.950E+06    -11.0040E+06    -16.0823E+03    -54.8153E-03     108.672E-03    -53.8567E-03     57.1357E-03    -54.8524E-03     108.149E-03    -53.6701E-03     56.8459E-03
            1749     5.11797E-03     39.5085E-03    -38.2916E+06    -138.330E+06    -16.6675E+06     188.077E+03    -54.4939E-03     108.301E-03    -53.8070E-03     49.4140E-03    -54.5079E-03     107.736E-03    -53.6342E-03     49.1880E-03
            1750     4.26511E-03     39.4622E-03    -41.9117E+06    -145.058E+06    -23.7801E+06     177.534E+03    -54.2260E-03     107.983E-03    -53.7568E-03     41.5332E-03    -54.2209E-03     107.383E-03    -53.6046E-03     41.3592E-03
            1751     3.41217E-03     39.4240E-03    -45.5139E+06    -154.434E+06    -31.6307E+06     58.7356E+03    -54.0004E-03     107.713E-03    -53.7128E-03     33.4476E-03    -53.9762E-03     107.071E-03    -53.5810E-03     33.3164E-03
            1752     2.55916E-03     39.3941E-03    -48.8685E+06    -159.845E+06    -39.7431E+06    -2.99512E+03    -53.8278E-03     107.495E-03    -53.6668E-03     25.2671E-03    -53.7924E-03     106.833E-03    -53.5629E-03     25.1733E-03
            1753     1.70613E-03     39.3724E-03    -51.4868E+06    -164.520E+06    -46.8798E+06     106.591E+03    -53.7347E-03     107.352E-03    -53.6172E-03     17.1170E-03    -53.6899E-03     106.676E-03    -53.5384E-03     17.0578E-03
            1754     853.180E-06     39.3591E-03    -53.1913E+06    -167.608E+06    -51.7800E+06     273.982E+03    -53.6648E-03     107.184E-03    -53.5192E-03     9.32491E-03    -53.6138E-03     106.500E-03    -53.4580E-03     9.29672E-03
            1755     16.2096E-03     40.0986E-03    -4.71957E+06     148.791E+06     100.779E+06     1.30510E+06    -57.5310E-03     111.967E-03    -54.4356E-03     181.041E-03    -65.5542E-03     120.209E-03    -54.1406E-03     182.797E-03
            1756     15.3407E-03     39.8048E-03    -13.9855E+06     138.536E+06     76.9036E+06    -849.846E+03    -65.2875E-03     119.677E-03    -54.3894E-03     278.235E-03    -76.1904E-03     130.798E-03    -54.1855E-03     277.725E-03
            1757     14.4931E-03     39.5361E-03    -16.8716E+06     113.668E+06     38.9110E+06    -2.04122E+06    -64.0197E-03     118.207E-03    -54.1868E-03     218.274E-03    -69.6777E-03     124.095E-03    -54.1326E-03     216.085E-03
            1758     13.6429E-03     39.3587E-03    -15.4256E+06     72.9260E+06     13.6356E+06    -635.412E+03    -59.5997E-03     113.629E-03    -54.0289E-03     157.212E-03    -62.0767E-03     116.270E-03    -54.0441E-03     155.437E-03
            1759     12.7905E-03     39.2183E-03    -17.1244E+06     16.0900E+06    -589.556E+03     753.731E+03    -57.9196E-03     111.903E-03    -53.9837E-03     129.166E-03    -59.2852E-03     113.267E-03    -53.9852E-03     127.767E-03
            1760     11.9385E-03     39.0986E-03    -19.4719E+06    -28.5625E+06    -4.07267E+06     503.616E+03    -57.3242E-03     111.310E-03    -53.9858E-03     113.064E-03    -58.1739E-03     112.001E-03    -53.9365E-03     111.920E-03
            1761     11.0862E-03     38.9908E-03    -20.6969E+06    -56.2233E+06    -3.64986E+06    -138.184E+03    -56.9116E-03     110.890E-03    -53.9784E-03     103.056E-03    -57.4787E-03     111.195E-03    -53.8851E-03     102.104E-03
            1762     10.2341E-03     38.8908E-03    -22.0155E+06    -75.1459E+06    -3.37278E+06    -187.785E+03    -56.6096E-03     110.565E-03    -53.9554E-03     95.1280E-03    -56.9993E-03     110.620E-03    -53.8314E-03     94.3352E-03
            1763     9.38171E-03     38.7987E-03    -23.8619E+06    -89.4140E+06    -3.29527E+06     22.5272E+03    -56.2488E-03     110.170E-03    -53.9217E-03     87.0939E-03    -56.5160E-03     110.045E-03    -53.7740E-03     86.4394E-03
            1764     8.52931E-03     38.7147E-03    -25.8647E+06    -103.878E+06    -3.29310E+06     260.091E+03    -55.8707E-03     109.757E-03    -53.8865E-03     79.3074E-03    -56.0472E-03     109.483E-03    -53.7149E-03     78.7706E-03
            1765     7.67683E-03     38.6381E-03    -28.2347E+06    -111.774E+06    -4.29983E+06     278.391E+03    -55.4875E-03     109.325E-03    -53.8380E-03     71.9078E-03    -55.6051E-03     108.959E-03    -53.6565E-03     71.4688E-03
            1766     6.82422E-03     38.5688E-03    -30.9976E+06    -118.015E+06    -6.89115E+06     210.734E+03    -55.1041E-03     108.887E-03    -53.7828E-03     64.4889E-03    -55.1798E-03     108.454E-03    -53.6011E-03     64.1330E-03
            1767     5.97148E-03     38.5072E-03    -34.2215E+06    -132.134E+06    -10.2529E+06     141.334E+03    -54.7646E-03     108.504E-03    -53.7393E-03     56.8473E-03    -54.7995E-03     107.978E-03    -53.5493E-03     56.5610E-03
            1768     5.11871E-03     38.4533E-03    -37.8597E+06    -138.467E+06    -15.7053E+06     285.302E+03    -54.4305E-03     108.109E-03    -53.6788E-03     49.1428E-03    -54.4432E-03     107.542E-03    -53.5017E-03     48.9192E-03
            1769     4.26574E-03     38.4071E-03    -41.6817E+06    -144.775E+06    -23.5158E+06     319.459E+03    -54.1297E-03     107.743E-03    -53.6133E-03     41.2837E-03    -54.1239E-03     107.143E-03    -53.4605E-03     41.1126E-03
            1770     3.41273E-03     38.3691E-03    -45.4106E+06    -154.284E+06    -31.4918E+06     199.141E+03    -53.8855E-03     107.444E-03    -53.5583E-03     33.2449E-03    -53.8611E-03     106.802E-03    -53.4262E-03     33.1163E-03
            1771     2.55963E-03     38.3392E-03    -48.7518E+06    -159.747E+06    -39.7259E+06     124.960E+03    -53.6949E-03     107.195E-03    -53.5005E-03     25.1522E-03    -53.6589E-03     106.535E-03    -53.3969E-03     25.0607E-03
            1772     1.70649E-03     38.3177E-03    -51.3846E+06    -164.545E+06    -47.1199E+06     24.5843E+03    -53.5529E-03     107.000E-03    -53.4476E-03     17.0450E-03    -53.5071E-03     106.325E-03    -53.3701E-03     16.9853E-03
            1773     853.243E-06     38.3044E-03    -52.8995E+06    -167.495E+06    -51.7691E+06    -41.8065E+03    -53.4370E-03     106.855E-03    -53.4177E-03     9.18854E-03    -53.3846E-03     106.171E-03    -53.3569E-03     9.15638E-03
            1774     16.1854E-03     39.0489E-03    -6.34640E+06     147.970E+06     100.706E+06     1.68082E+06    -58.7432E-03     113.217E-03    -54.4734E-03     177.198E-03    -66.6935E-03     121.378E-03    -54.1752E-03     178.801E-03
            1775     15.3444E-03     38.7379E-03    -7.15773E+06     144.800E+06     83.4089E+06     1.65895E+06    -66.4944E-03     120.841E-03    -54.3465E-03     273.071E-03    -77.2196E-03     131.812E-03    -54.1290E-03     272.400E-03
            1776     14.4973E-03     38.4783E-03    -12.0800E+06     115.502E+06     36.3257E+06    -941.080E+03    -63.2053E-03     117.272E-03    -54.0664E-03     215.145E-03    -68.7246E-03     123.053E-03    -54.0348E-03     213.006E-03
            1777     13.6437E-03     38.3022E-03    -18.3486E+06     69.0741E+06     4.62956E+06    -1.01727E+06    -59.0039E-03     112.930E-03    -53.9262E-03     158.090E-03    -61.4633E-03     115.556E-03    -53.9766E-03     156.340E-03
            1778     12.7913E-03     38.1615E-03    -19.3477E+06     15.7074E+06    -2.58370E+06     398.782E+03    -57.9383E-03     111.866E-03    -53.9280E-03     129.614E-03    -59.3080E-03     113.231E-03    -53.9357E-03     128.214E-03
            1779     11.9390E-03     38.0417E-03    -18.8196E+06    -27.5012E+06    -3.75001E+06     168.789E+03    -57.3580E-03     111.289E-03    -53.9311E-03     113.007E-03    -58.2023E-03     111.980E-03    -53.8827E-03     111.863E-03
            1780     11.0870E-03     37.9342E-03    -19.5939E+06    -56.2868E+06    -3.60426E+06    -8.55377E+03    -57.0053E-03     110.920E-03    -53.9143E-03     102.947E-03    -57.5650E-03     111.220E-03    -53.8223E-03     101.997E-03
            1781     10.2346E-03     37.8343E-03    -21.4083E+06    -75.2706E+06    -3.26633E+06     274.090E+03    -56.6783E-03     110.559E-03    -53.8802E-03     94.9277E-03    -57.0635E-03     110.610E-03    -53.7564E-03     94.1423E-03
            1782     9.38248E-03     37.7425E-03    -23.5178E+06    -89.4743E+06    -3.42573E+06     299.825E+03    -56.2959E-03     110.129E-03    -53.8328E-03     86.7570E-03    -56.5595E-03     110.001E-03    -53.6861E-03     86.1079E-03
            1783     8.53015E-03     37.6586E-03    -25.7974E+06    -103.950E+06    -3.54226E+06     257.039E+03    -55.8900E-03     109.674E-03    -53.7840E-03     78.9386E-03    -56.0646E-03     109.398E-03    -53.6136E-03     78.4032E-03
            1784     7.67773E-03     37.5823E-03    -28.2256E+06    -111.619E+06    -4.58057E+06     228.756E+03    -55.4669E-03     109.189E-03    -53.7223E-03     71.5393E-03    -55.5833E-03     108.823E-03    -53.5425E-03     71.1013E-03
            1785     6.82507E-03     37.5133E-03    -31.0865E+06    -118.016E+06    -7.06126E+06     228.797E+03    -55.0558E-03     108.712E-03    -53.6564E-03     64.1131E-03    -55.1310E-03     108.279E-03    -53.4755E-03     63.7590E-03
            1786     5.97233E-03     37.4519E-03    -34.4646E+06    -132.006E+06    -10.4462E+06     293.803E+03    -54.6950E-03     108.297E-03    -53.6016E-03     56.4955E-03    -54.7304E-03     107.771E-03    -53.4124E-03     56.2126E-03
            1787     5.11942E-03     37.3982E-03    -38.1496E+06    -138.650E+06    -15.8269E+06     314.369E+03    -54.3395E-03     107.870E-03    -53.5308E-03     48.8379E-03    -54.3528E-03     107.302E-03    -53.3536E-03     48.6159E-03
            1788     4.26644E-03     37.3522E-03    -41.7904E+06    -144.542E+06    -23.2015E+06     383.969E+03    -54.0073E-03     107.464E-03    -53.4568E-03     41.0333E-03    -54.0026E-03     106.865E-03    -53.3026E-03     40.8641E-03
            1789     3.41328E-03     37.3144E-03    -45.3612E+06    -154.058E+06    -31.2949E+06     288.430E+03    -53.7431E-03     107.137E-03    -53.3934E-03     33.0682E-03    -53.7188E-03     106.495E-03    -53.2608E-03     32.9417E-03
            1790     2.56005E-03     37.2847E-03    -48.6336E+06    -159.594E+06    -39.6732E+06     193.356E+03    -53.5309E-03     106.861E-03    -53.3305E-03     25.0300E-03    -53.4946E-03     106.201E-03    -53.2269E-03     24.9402E-03
            1791     1.70674E-03     37.2633E-03    -51.1297E+06    -164.378E+06    -47.1255E+06     66.1615E+03    -53.3667E-03     106.647E-03    -53.2808E-03     16.9327E-03    -53.3199E-03     105.972E-03    -53.2039E-03     16.8741E-03
            1792     853.338E-06     37.2502E-03    -52.8199E+06    -167.471E+06    -51.8371E+06    -53.3189E+03    -53.2767E-03     106.532E-03    -53.2550E-03     9.09726E-03    -53.2239E-03     105.848E-03    -53.1947E-03     9.06529E-03
            1793     16.2100E-03     37.9889E-03    -7.03430E+06     147.520E+06     100.123E+06    -2.23823E+06    -60.4217E-03     114.739E-03    -54.3174E-03     176.205E-03    -68.3292E-03     122.855E-03    -54.0205E-03     177.721E-03
            1794     15.3552E-03     37.6847E-03    -8.84250E+06     143.473E+06     84.5958E+06     588.155E+03    -65.1834E-03     119.383E-03    -54.1995E-03     275.948E-03    -75.8048E-03     130.236E-03    -53.9717E-03     275.437E-03
            1795     14.4950E-03     37.4229E-03    -11.8604E+06     115.624E+06     38.8106E+06     3.87127E+06    -61.9165E-03     115.935E-03    -54.0183E-03     218.698E-03    -67.3801E-03     121.654E-03    -53.9747E-03     216.757E-03
            1796     13.6428E-03     37.2443E-03    -15.1347E+06     71.3578E+06     6.74917E+06     2.43473E+06    -59.3834E-03     113.293E-03    -53.9095E-03     158.276E-03    -61.8238E-03     115.913E-03    -53.9573E-03     156.562E-03
            1797     12.7915E-03     37.1044E-03    -17.5727E+06     16.2690E+06    -2.74680E+06    -632.446E+03    -58.1504E-03     112.035E-03    -53.8845E-03     129.097E-03    -59.5083E-03     113.396E-03    -53.8963E-03     127.682E-03
            1798     11.9396E-03     36.9848E-03    -18.8990E+06    -28.1193E+06     -4.7971E+06    -362.395E+03    -57.4776E-03     111.349E-03    -53.8714E-03     112.663E-03    -58.3164E-03     112.035E-03    -53.8272E-03     111.513E-03
            1799     11.0875E-03     36.8775E-03    -20.3341E+06    -56.5823E+06    -4.49640E+06     486.656E+03    -57.1361E-03     110.976E-03    -53.8403E-03     102.472E-03    -57.6964E-03     111.277E-03    -53.7513E-03     101.527E-03
            1800     10.2357E-03     36.7778E-03    -22.0437E+06    -75.4005E+06    -3.92442E+06     578.175E+03    -56.7754E-03     110.565E-03    -53.7893E-03     94.3891E-03    -57.1609E-03     110.616E-03    -53.6676E-03     93.6077E-03
            1801     9.38346E-03     36.6862E-03    -23.8257E+06    -89.1495E+06    -3.58587E+06     584.847E+03    -56.3206E-03     110.048E-03    -53.7273E-03     86.2502E-03    -56.5845E-03     109.921E-03    -53.5814E-03     85.6061E-03
            1802     8.53119E-03     36.6027E-03    -25.9613E+06    -103.713E+06    -3.73953E+06     327.847E+03    -55.8784E-03     109.543E-03    -53.6649E-03     78.4672E-03    -56.0526E-03     109.268E-03    -53.4955E-03     77.9343E-03
            1803     7.67867E-03     36.5267E-03    -28.4641E+06    -111.622E+06    -4.74000E+06     225.630E+03    -55.4331E-03     109.024E-03    -53.5911E-03     71.0943E-03    -55.5495E-03     108.657E-03    -53.4117E-03     70.6579E-03
            1804     6.82608E-03     36.4579E-03    -31.3192E+06    -118.053E+06    -7.12564E+06     304.535E+03    -54.9977E-03     108.511E-03    -53.5131E-03     63.7087E-03    -55.0731E-03     108.077E-03    -53.3321E-03     63.3570E-03
            1805     5.97324E-03     36.3968E-03    -34.5260E+06    -131.957E+06    -10.2193E+06     352.530E+03    -54.5997E-03     108.048E-03    -53.4480E-03     56.1261E-03    -54.6353E-03     107.522E-03    -53.2577E-03     55.8455E-03
            1806     5.12031E-03     36.3434E-03    -38.0893E+06    -138.537E+06    -15.6955E+06     319.065E+03    -54.2053E-03     107.573E-03    -53.3682E-03     48.4968E-03    -54.2181E-03     107.005E-03    -53.1906E-03     48.2765E-03
            1807     4.26714E-03     36.2977E-03    -41.7885E+06    -144.480E+06    -23.1848E+06     238.791E+03    -53.8615E-03     107.149E-03    -53.2877E-03     40.7464E-03    -53.8566E-03     106.550E-03    -53.1335E-03     40.5767E-03
            1808     3.41388E-03     36.2601E-03    -45.3218E+06    -153.848E+06    -31.1355E+06     270.626E+03    -53.5873E-03     106.806E-03    -53.2187E-03     32.8341E-03    -53.5632E-03     106.165E-03    -53.0856E-03     32.7085E-03
            1809     2.56051E-03     36.2306E-03    -48.5947E+06    -159.403E+06    -39.5100E+06     189.125E+03    -53.3519E-03     106.504E-03    -53.1523E-03     24.8174E-03    -53.3158E-03     105.844E-03    -53.0483E-03     24.7284E-03
            1810     1.70703E-03     36.2094E-03    -51.2255E+06    -164.262E+06    -46.9573E+06     166.069E+03    -53.1813E-03     106.285E-03    -53.1038E-03     16.7930E-03    -53.1352E-03     105.610E-03    -53.0262E-03     16.7362E-03
            1811     853.586E-06     36.1962E-03    -52.8216E+06    -167.267E+06    -51.7304E+06     44.7951E+03    -53.0724E-03     106.179E-03    -53.1063E-03     9.13165E-03    -53.0200E-03     105.496E-03    -53.0458E-03     9.10137E-03
            1812     16.1972E-03     36.9255E-03    -6.25969E+06     147.849E+06     99.3043E+06    -1.31821E+06    -58.9340E-03     113.252E-03    -54.3182E-03     184.117E-03    -66.9928E-03     121.526E-03    -54.0270E-03     185.787E-03
            1813     15.3433E-03     36.6299E-03    -15.1733E+06     137.028E+06     76.9459E+06    -2.55061E+06    -65.8579E-03     120.092E-03    -54.2337E-03     279.109E-03    -76.6382E-03     131.081E-03    -54.0257E-03     278.516E-03
            1814     14.4953E-03     36.3640E-03    -17.5800E+06     112.668E+06     40.7255E+06    -848.821E+03    -63.5389E-03     117.575E-03    -54.0360E-03     217.476E-03    -69.0587E-03     123.314E-03    -53.9702E-03     215.357E-03
            1815     13.6448E-03     36.1870E-03    -15.5970E+06     74.2883E+06     14.3814E+06     1.12607E+06    -59.3756E-03     113.256E-03    -53.8805E-03     156.454E-03    -61.8084E-03     115.856E-03    -53.8937E-03     154.731E-03
            1816     12.7924E-03     36.0473E-03    -16.1098E+06     17.6307E+06    -967.703E+03     1.03094E+06    -58.0834E-03     111.900E-03    -53.8169E-03     128.215E-03    -59.4329E-03     113.258E-03    -53.8240E-03     126.825E-03
            1817     11.9405E-03     35.9280E-03    -18.8901E+06    -28.9683E+06    -4.60482E+06     738.691E+03    -57.5747E-03     111.366E-03    -53.7914E-03     111.927E-03    -58.4107E-03     112.045E-03    -53.7450E-03     110.789E-03
            1818     11.0888E-03     35.8206E-03    -20.9742E+06    -56.4936E+06    -4.34024E+06     753.862E+03    -57.1935E-03     110.938E-03    -53.7444E-03     101.902E-03    -57.7557E-03     111.238E-03    -53.6538E-03     100.961E-03
            1819     10.2368E-03     35.7214E-03    -22.4571E+06    -75.2902E+06    -3.94225E+06     706.215E+03    -56.7946E-03     110.473E-03    -53.6782E-03     93.8227E-03    -57.1806E-03     110.523E-03    -53.5562E-03     93.0437E-03
            1820     9.38469E-03     35.6301E-03    -24.1742E+06    -88.9502E+06    -3.43243E+06     532.885E+03    -56.3039E-03     109.908E-03    -53.6042E-03     85.7838E-03    -56.5684E-03     109.781E-03    -53.4573E-03     85.1407E-03
            1821     8.53231E-03     35.5469E-03    -26.1151E+06    -103.287E+06    -3.46801E+06     339.332E+03    -55.8462E-03     109.376E-03    -53.5296E-03     77.9936E-03    -56.0208E-03     109.101E-03    -53.3593E-03     77.4629E-03
            1822     7.67991E-03     35.4712E-03    -28.5579E+06    -111.704E+06    -4.62686E+06     246.290E+03    -55.3738E-03     108.817E-03    -53.4435E-03     70.6244E-03    -55.4895E-03     108.448E-03    -53.2632E-03     70.1906E-03
            1823     6.82714E-03     35.4029E-03    -31.4038E+06    -118.015E+06    -7.01786E+06     289.241E+03    -54.9081E-03     108.262E-03    -53.3540E-03     63.2813E-03    -54.9831E-03     107.827E-03    -53.1724E-03     62.9319E-03
            1824     5.97430E-03     35.3420E-03    -34.6164E+06    -131.895E+06    -10.2767E+06     254.919E+03    -54.4821E-03     107.760E-03    -53.2780E-03     55.7197E-03    -54.5173E-03     107.234E-03    -53.0880E-03     55.4401E-03
            1825     5.12119E-03     35.2890E-03    -38.1085E+06    -138.385E+06    -15.7154E+06     210.961E+03    -54.0625E-03     107.252E-03    -53.1899E-03     48.1278E-03    -54.0750E-03     106.684E-03    -53.0125E-03     47.9083E-03
            1826     4.26792E-03     35.2435E-03    -41.7401E+06    -144.415E+06    -23.2532E+06     203.370E+03    -53.7037E-03     106.806E-03    -53.1019E-03     40.4205E-03    -53.6982E-03     106.207E-03    -52.9482E-03     40.2520E-03
            1827     3.41454E-03     35.2062E-03    -45.3663E+06    -153.787E+06    -31.1610E+06     186.442E+03    -53.4109E-03     106.438E-03    -53.0274E-03     32.5541E-03    -53.3867E-03     105.797E-03    -52.8944E-03     32.4287E-03
            1828     2.56101E-03     35.1768E-03    -48.6147E+06    -159.218E+06    -39.3373E+06     217.742E+03    -53.1649E-03     106.122E-03    -52.9572E-03     24.6068E-03    -53.1293E-03     105.463E-03    -52.8525E-03     24.5191E-03
            1829     1.70741E-03     35.1557E-03    -51.2369E+06    -164.081E+06    -46.8297E+06     143.979E+03    -52.9907E-03     105.894E-03    -52.9033E-03     16.6396E-03    -52.9451E-03     105.220E-03    -52.8252E-03     16.5831E-03
            1830     853.590E-06     35.1427E-03    -52.8138E+06    -167.102E+06    -51.7081E+06    -17.2821E+03    -52.9051E-03     105.770E-03    -52.8644E-03     8.99641E-03    -52.8530E-03     105.087E-03    -52.8041E-03     8.96555E-03
            1831     16.1985E-03     35.8755E-03    -4.02145E+06     149.430E+06     101.420E+06     1.59744E+06    -59.2675E-03     113.628E-03    -54.3605E-03     179.418E-03    -67.2119E-03     121.794E-03    -54.0642E-03     180.906E-03
            1832     15.3483E-03     35.5663E-03    -12.0689E+06     139.359E+06     77.6848E+06    -805.194E+03    -66.9811E-03     121.175E-03    -54.1941E-03     272.772E-03    -77.6155E-03     132.036E-03    -53.9902E-03     271.994E-03
            1833     14.4993E-03     35.3064E-03    -17.3471E+06     111.353E+06     35.9185E+06    -3.57849E+06    -63.3320E-03     117.246E-03    -53.9142E-03     214.069E-03    -68.7736E-03     122.917E-03    -53.8709E-03     211.920E-03
            1834     13.6458E-03     35.1309E-03    -19.6584E+06     70.6590E+06     9.07349E+06    -2.83093E+06    -59.0554E-03     112.819E-03    -53.7636E-03     156.878E-03    -61.5079E-03     115.426E-03    -53.7922E-03     155.116E-03
            1835     12.7937E-03     34.9900E-03    -19.6607E+06     17.0099E+06    -1.73309E+06     828.543E+03    -58.0893E-03     111.810E-03    -53.7207E-03     128.158E-03    -59.4531E-03     113.169E-03    -53.7255E-03     126.766E-03
            1836     11.9421E-03     34.8713E-03    -19.8878E+06    -28.2132E+06    -4.32543E+06     1.48006E+06    -57.5565E-03     111.243E-03    -53.6866E-03     111.619E-03    -58.3977E-03     111.926E-03    -53.6385E-03     110.490E-03
            1837     11.0900E-03     34.7640E-03    -20.9786E+06    -56.2366E+06    -3.91109E+06     794.334E+03    -57.1848E-03     110.816E-03    -53.6310E-03     101.603E-03    -57.7460E-03     111.114E-03    -53.5386E-03     100.665E-03
            1838     10.2382E-03     34.6650E-03    -22.2522E+06    -74.9390E+06    -3.48717E+06     568.795E+03    -56.7694E-03     110.324E-03    -53.5548E-03     93.4174E-03    -57.1532E-03     110.373E-03    -53.4314E-03     92.6393E-03
            1839     9.38591E-03     34.5742E-03    -23.7249E+06    -88.7353E+06    -3.05493E+06     402.534E+03    -56.3045E-03     109.773E-03    -53.4683E-03     85.3490E-03    -56.5658E-03     109.644E-03    -53.3205E-03     84.7064E-03
            1840     8.53369E-03     34.4912E-03    -25.7255E+06    -103.081E+06    -3.01571E+06     356.069E+03    -55.8040E-03     109.185E-03    -53.3808E-03     77.5217E-03    -55.9758E-03     108.908E-03    -53.2091E-03     76.9941E-03
            1841     7.68108E-03     34.4161E-03    -28.2202E+06    -111.663E+06     -4.4855E+06     328.200E+03    -55.3062E-03     108.587E-03    -53.2811E-03     70.1667E-03    -55.4190E-03     108.217E-03    -53.1007E-03     69.7369E-03
            1842     6.82839E-03     34.3479E-03    -31.0419E+06    -117.926E+06    -7.07951E+06     255.383E+03    -54.8198E-03     107.998E-03    -53.1781E-03     62.8160E-03    -54.8919E-03     107.562E-03    -52.9975E-03     62.4690E-03
            1843     5.97536E-03     34.2876E-03    -34.1861E+06    -131.780E+06    -10.1782E+06     209.235E+03    -54.3622E-03     107.453E-03    -53.0909E-03     55.2340E-03    -54.3947E-03     106.926E-03    -52.9011E-03     54.9564E-03
            1844     5.12220E-03     34.2348E-03    -37.8028E+06    -138.370E+06    -15.4987E+06     248.755E+03    -53.9236E-03     106.916E-03    -52.9921E-03     47.6656E-03    -53.9343E-03     106.346E-03    -52.8141E-03     47.4486E-03
            1845     4.26883E-03     34.1898E-03    -41.6392E+06    -144.281E+06    -23.2651E+06     247.122E+03    -53.5341E-03     106.426E-03    -52.8924E-03     40.0092E-03    -53.5278E-03     105.828E-03    -52.7391E-03     39.8430E-03
            1846     3.41524E-03     34.1526E-03    -45.2728E+06    -153.708E+06    -31.2779E+06     191.559E+03    -53.2161E-03     106.025E-03    -52.8090E-03     32.1925E-03    -53.1912E-03     105.385E-03    -52.6769E-03     32.0685E-03
            1847     2.56155E-03     34.1236E-03    -48.5544E+06    -159.127E+06    -39.4101E+06     141.567E+03    -52.9653E-03     105.696E-03    -52.7304E-03     24.3041E-03    -52.9293E-03     105.037E-03    -52.6263E-03     24.2164E-03
            1848     1.70773E-03     34.1025E-03    -51.0726E+06    -163.844E+06    -46.7415E+06     139.567E+03    -52.7878E-03     105.450E-03    -52.6619E-03     16.4085E-03    -52.7418E-03     104.776E-03    -52.5839E-03     16.3526E-03
            1849     854.052E-06     34.0897E-03    -52.8858E+06    -167.024E+06    -51.7031E+06     64.4616E+03    -52.6988E-03     105.266E-03    -52.5671E-03     8.95205E-03    -52.6471E-03     104.584E-03    -52.5067E-03     8.92249E-03
            1850     16.2030E-03     34.8164E-03    -4.29565E+06     150.005E+06     102.914E+06     1.31474E+06    -62.0683E-03     116.297E-03    -54.2284E-03     179.460E-03    -70.0310E-03     124.478E-03    -53.9251E-03     180.816E-03
            1851     15.3536E-03     34.5079E-03    -7.22042E+06     144.152E+06     82.7418E+06     2.08650E+06    -65.9634E-03     119.985E-03    -54.0216E-03     273.929E-03    -76.5521E-03     130.820E-03    -53.8064E-03     273.286E-03
            1852     14.4984E-03     34.2515E-03    -12.9628E+06     114.103E+06     34.9284E+06     290.719E+03    -61.9436E-03     115.730E-03    -53.7864E-03     215.152E-03    -67.3349E-03     121.379E-03    -53.7584E-03     213.153E-03
            1853     13.6466E-03     34.0728E-03    -18.3410E+06     68.2342E+06     4.70718E+06    -1.40471E+06    -59.2423E-03     112.909E-03    -53.6668E-03     157.622E-03    -61.6975E-03     115.528E-03    -53.7156E-03     155.862E-03
            1854     12.7954E-03     33.9336E-03    -21.1630E+06     14.1243E+06    -3.87272E+06    -770.945E+03    -58.2266E-03     111.853E-03    -53.6264E-03     128.213E-03    -59.5897E-03     113.202E-03    -53.6356E-03     126.796E-03
            1855     11.9430E-03     33.8144E-03    -21.2559E+06    -27.7843E+06    -4.71304E+06     196.051E+03    -57.5810E-03     111.165E-03    -53.5842E-03     111.752E-03    -58.4270E-03     111.851E-03    -53.5367E-03     110.609E-03
            1856     11.0915E-03     33.7075E-03    -21.2087E+06    -55.9201E+06    -3.98288E+06     240.338E+03    -57.2222E-03     110.741E-03    -53.5183E-03     101.457E-03    -57.7819E-03     111.038E-03    -53.4264E-03     100.514E-03
            1857     10.2393E-03     33.6089E-03    -22.0733E+06    -74.8063E+06    -3.49534E+06     167.863E+03    -56.8320E-03     110.260E-03    -53.4278E-03     93.1488E-03    -57.2126E-03     110.307E-03    -53.3048E-03     92.3680E-03
            1858     9.38739E-03     33.5182E-03    -23.4592E+06    -88.6552E+06    -3.33131E+06     242.715E+03    -56.3350E-03     109.658E-03    -53.3229E-03     84.9033E-03    -56.5922E-03     109.527E-03    -53.1770E-03     84.2617E-03
            1859     8.53498E-03     33.4360E-03    -25.4400E+06    -103.203E+06    -3.20545E+06     421.030E+03    -55.7983E-03     109.017E-03    -53.2188E-03     77.0098E-03    -55.9661E-03     108.737E-03    -53.0483E-03     76.4864E-03
            1860     7.68249E-03     33.3610E-03    -27.9171E+06    -111.386E+06    -4.64805E+06     455.873E+03    -55.2718E-03     108.373E-03    -53.1009E-03     69.5864E-03    -55.3816E-03     108.001E-03    -52.9221E-03     69.1614E-03
            1861     6.82964E-03     33.2935E-03    -30.7860E+06    -117.841E+06    -7.37724E+06     337.097E+03    -54.7398E-03     107.720E-03    -52.9800E-03     62.1907E-03    -54.8089E-03     107.283E-03    -52.8014E-03     61.8476E-03
            1862     5.97665E-03     33.2333E-03    -34.1700E+06    -131.732E+06    -10.5926E+06     393.464E+03    -54.2477E-03     107.124E-03    -52.8759E-03     54.6320E-03    -54.2786E-03     106.596E-03    -52.6883E-03     54.3593E-03
            1863     5.12337E-03     33.1811E-03    -37.8685E+06    -138.236E+06    -15.8965E+06     352.135E+03    -53.7714E-03     106.533E-03    -52.7614E-03     47.1027E-03    -53.7814E-03     105.964E-03    -52.5855E-03     46.8891E-03
            1864     4.26983E-03     33.1363E-03    -41.4985E+06    -144.153E+06    -23.2992E+06     290.838E+03    -53.3476E-03     105.997E-03    -52.6490E-03     39.5045E-03    -53.3403E-03     105.398E-03    -52.4963E-03     39.3406E-03
            1865     3.41615E-03     33.0996E-03    -45.1029E+06    -153.549E+06    -31.2897E+06     265.779E+03    -53.0056E-03     105.558E-03    -52.5524E-03     31.7678E-03    -52.9798E-03     104.918E-03    -52.4208E-03     31.6461E-03
            1866     2.56227E-03     33.0706E-03    -48.4318E+06    -158.992E+06    -39.4980E+06     215.092E+03    -52.7252E-03     105.187E-03    -52.4616E-03     23.9891E-03    -52.6885E-03     104.528E-03    -52.3583E-03     23.9033E-03
            1867     1.70835E-03     33.0499E-03    -51.0599E+06    -163.783E+06    -46.8706E+06     185.828E+03    -52.5158E-03     104.903E-03    -52.3868E-03     16.2088E-03    -52.4696E-03     104.230E-03    -52.3096E-03     16.1542E-03
            1868     854.059E-06     33.0372E-03    -52.6387E+06    -166.749E+06    -51.6140E+06     142.375E+03    -52.3620E-03     104.715E-03    -52.3529E-03     8.82615E-03    -52.3095E-03     104.034E-03    -52.2929E-03     8.79791E-03
            1869     16.2053E-03     33.7535E-03    -5.87165E+06     148.411E+06     101.460E+06    -953.791E+03    -62.2911E-03     116.441E-03    -54.1496E-03     178.142E-03    -70.1568E-03     124.518E-03    -53.8490E-03     179.545E-03
            1870     15.3524E-03     33.4540E-03    -8.58425E+06     142.809E+06     83.0054E+06     153.695E+03    -64.8861E-03     118.860E-03    -53.9734E-03     274.869E-03    -75.4305E-03     129.640E-03    -53.7530E-03     274.350E-03
            1871     14.5003E-03     33.1949E-03    -11.9136E+06     115.731E+06     38.7292E+06     2.53716E+06    -62.3153E-03     116.092E-03    -53.7771E-03     217.584E-03    -67.7499E-03     121.783E-03    -53.7340E-03     215.594E-03
            1872     13.6479E-03     33.0158E-03    -15.2252E+06     70.1427E+06     7.93580E+06     2.33477E+06    -59.7185E-03     113.353E-03    -53.6346E-03     158.411E-03    -62.1622E-03     115.969E-03    -53.6746E-03     156.682E-03
            1873     12.7956E-03     32.8765E-03    -17.7246E+06     14.2173E+06    -2.45311E+06     142.535E+03    -58.4819E-03     112.046E-03    -53.5645E-03     128.340E-03    -59.8284E-03     113.388E-03    -53.5717E-03     126.930E-03
            1874     11.9445E-03     32.7576E-03    -19.2233E+06    -28.2421E+06    -4.36242E+06    -616.206E+03    -57.8132E-03     111.312E-03    -53.4992E-03     111.688E-03    -58.6455E-03     111.989E-03    -53.4522E-03     110.534E-03
            1875     11.0923E-03     32.6511E-03    -20.3763E+06    -56.0808E+06    -4.53140E+06    -148.586E+03    -57.3999E-03     110.808E-03    -53.4081E-03     101.214E-03    -57.9508E-03     111.101E-03    -53.3199E-03     100.267E-03
            1876     10.2408E-03     32.5525E-03    -21.7243E+06    -74.8664E+06    -4.00180E+06     65.6556E+03    -56.9829E-03     110.278E-03    -53.2947E-03     92.6209E-03    -57.3580E-03     110.321E-03    -53.1747E-03     91.8402E-03
            1877     9.38865E-03     32.4627E-03    -23.5311E+06    -88.8501E+06    -4.10826E+06     258.309E+03    -56.4146E-03     109.579E-03    -53.1648E-03     84.2355E-03    -56.6680E-03     109.446E-03    -53.0224E-03     83.5967E-03
            1878     8.53650E-03     32.3805E-03    -25.6422E+06    -103.443E+06    -3.98385E+06     550.393E+03    -55.8540E-03     108.890E-03    -53.0359E-03     76.2811E-03    -56.0192E-03     108.608E-03    -52.8686E-03     75.7616E-03
            1879     7.68402E-03     32.3063E-03    -28.1882E+06    -111.018E+06    -5.00394E+06     613.841E+03    -55.2607E-03     108.154E-03    -52.8936E-03     68.8023E-03    -55.3700E-03     107.784E-03    -52.7168E-03     68.3818E-03
            1880     6.83126E-03     32.2391E-03    -31.1262E+06    -117.712E+06    -7.70093E+06     524.388E+03    -54.6554E-03     107.406E-03    -52.7502E-03     61.4199E-03    -54.7246E-03     106.969E-03    -52.5729E-03     61.0818E-03
            1881     5.97810E-03     32.1797E-03    -34.2959E+06    -131.679E+06    -10.8984E+06     502.770E+03    -54.1086E-03     106.735E-03    -52.6260E-03     53.9156E-03    -54.1387E-03     106.207E-03    -52.4398E-03     53.6468E-03
            1882     5.12473E-03     32.1277E-03    -37.7109E+06    -137.949E+06    -16.2059E+06      400.94E+03    -53.5902E-03     106.083E-03    -52.4930E-03     46.4496E-03    -53.5986E-03     105.515E-03    -52.3193E-03     46.2389E-03
            1883     4.27108E-03     32.0835E-03    -41.3827E+06    -144.134E+06    -23.5080E+06     350.191E+03    -53.1261E-03     105.492E-03    -52.3659E-03     38.9487E-03    -53.1175E-03     104.893E-03    -52.2145E-03     38.7874E-03
            1884     3.41714E-03     32.0469E-03    -44.9632E+06    -153.369E+06    -31.2880E+06     411.225E+03    -52.7426E-03     105.001E-03    -52.2582E-03     31.3356E-03    -52.7161E-03     104.361E-03    -52.1271E-03     31.2174E-03
            1885     2.56306E-03     32.0185E-03    -48.3012E+06    -158.789E+06    -39.4909E+06     388.482E+03    -52.4313E-03     104.592E-03    -52.1610E-03     23.6685E-03    -52.3940E-03     103.934E-03    -52.0582E-03     23.5861E-03
            1886     1.70869E-03     31.9978E-03    -50.9444E+06    -163.500E+06    -46.7723E+06     276.658E+03    -52.2094E-03     104.295E-03    -52.0857E-03     15.9695E-03    -52.1630E-03     103.623E-03    -52.0087E-03     15.9167E-03
            1887     854.507E-06     31.9853E-03    -52.5428E+06    -166.443E+06    -51.4516E+06     181.258E+03    -52.0739E-03     104.114E-03    -52.0398E-03     8.63593E-03    -52.0217E-03     103.434E-03    -51.9795E-03     8.60884E-03
            1888     16.2050E-03     32.6958E-03    -5.50090E+06     148.277E+06     101.020E+06    -1.62685E+06    -60.6949E-03     114.952E-03    -54.2567E-03     179.337E-03    -68.6141E-03     123.085E-03    -53.9586E-03     180.843E-03
            1889     15.3514E-03     32.3990E-03    -11.5074E+06     139.206E+06     80.8428E+06    -919.581E+03    -66.3127E-03     120.414E-03    -54.1016E-03     277.468E-03    -76.9892E-03     131.310E-03    -53.8826E-03     276.857E-03
            1890     14.4979E-03     32.1360E-03    -14.9933E+06     113.366E+06     39.5823E+06     945.419E+03    -64.0624E-03     117.907E-03    -53.8448E-03     218.802E-03    -69.5758E-03     123.655E-03    -53.7896E-03     216.684E-03
            1891     13.6471E-03     31.9584E-03    -15.3047E+06     72.2732E+06     9.90751E+06     2.08926E+06    -60.3983E-03     114.027E-03    -53.6290E-03     158.042E-03    -62.8349E-03     116.637E-03    -53.6621E-03     156.294E-03
            1892     12.7966E-03     31.8186E-03    -15.4346E+06     16.2698E+06    -2.38145E+06     1.18614E+06    -58.9000E-03     112.408E-03    -53.5076E-03     127.900E-03    -60.2366E-03     113.754E-03    -53.5207E-03     126.495E-03
            1893     11.9448E-03     31.7010E-03    -17.3624E+06    -28.3801E+06    -4.58591E+06     782.979E+03    -58.2236E-03     111.633E-03    -53.4097E-03     110.981E-03    -59.0432E-03     112.304E-03    -53.3664E-03     109.839E-03
            1894     11.0938E-03     31.5941E-03    -19.8714E+06    -55.7845E+06    -4.85183E+06     639.506E+03    -57.6954E-03     110.979E-03    -53.2834E-03     100.432E-03    -58.2407E-03     111.270E-03    -53.1979E-03     99.4937E-03
            1895     10.2421E-03     31.4965E-03    -22.0195E+06     -74.933E+06    -4.66658E+06     395.144E+03    -57.1461E-03     110.283E-03    -53.1374E-03     91.6775E-03    -57.5182E-03     110.325E-03    -53.0202E-03     90.9017E-03
            1896     9.39044E-03     31.4068E-03    -23.9538E+06    -89.0443E+06    -4.44005E+06     514.797E+03    -56.5298E-03     109.508E-03    -52.9787E-03     83.2286E-03    -56.7818E-03     109.372E-03    -52.8371E-03     82.5944E-03
            1897     8.53832E-03     31.3255E-03    -26.1058E+06    -103.446E+06    -4.51165E+06     637.004E+03    -55.8766E-03     108.696E-03    -52.8190E-03     75.3058E-03    -56.0409E-03     108.413E-03    -52.6537E-03     74.7899E-03
            1898     7.68591E-03     31.2516E-03    -28.4103E+06    -110.890E+06    -5.20721E+06     622.370E+03    -55.2101E-03     107.861E-03    -52.6514E-03     67.8786E-03    -55.3185E-03     107.490E-03    -52.4754E-03     67.4611E-03
            1899     6.83304E-03     31.1853E-03    -30.9946E+06    -117.459E+06    -7.68939E+06     545.427E+03    -54.5542E-03     107.038E-03    -52.4838E-03     60.5575E-03    -54.6216E-03     106.601E-03    -52.3070E-03     60.2226E-03
            1900     5.97988E-03     31.1262E-03    -34.0327E+06    -131.565E+06    -10.9805E+06     453.558E+03    -53.9426E-03     106.279E-03    -52.3368E-03     53.1212E-03    -53.9703E-03     105.751E-03    -52.1516E-03     52.8548E-03
            1901     5.12632E-03     31.0750E-03    -37.5407E+06    -137.824E+06    -16.4427E+06     540.965E+03    -53.3653E-03     105.550E-03    -52.1845E-03     45.7377E-03    -53.3718E-03     104.981E-03    -52.0125E-03     45.5315E-03
            1902     4.27242E-03     31.0310E-03    -41.2372E+06    -143.986E+06    -23.8849E+06     599.307E+03    -52.8590E-03     104.901E-03    -52.0419E-03     38.3217E-03    -52.8487E-03     104.302E-03    -51.8927E-03     38.1660E-03
            1903     3.41829E-03     30.9951E-03    -44.8864E+06    -153.256E+06    -31.5066E+06     583.617E+03    -52.4344E-03     104.359E-03    -51.9243E-03     30.8130E-03    -52.4069E-03     103.719E-03    -51.7946E-03     30.6988E-03
            1904     2.56386E-03     30.9668E-03    -48.1205E+06    -158.430E+06    -39.3875E+06     520.159E+03    -52.1010E-03     103.923E-03    -51.8219E-03     23.2617E-03    -52.0633E-03     103.266E-03    -51.7193E-03     23.1823E-03
            1905     1.70945E-03     30.9466E-03    -50.7026E+06    -163.075E+06    -46.5705E+06     373.136E+03    -51.8728E-03     103.615E-03    -51.7422E-03     15.6976E-03    -51.8261E-03     102.945E-03    -51.6651E-03     15.6471E-03
            1906     854.622E-06     30.9340E-03    -52.3892E+06    -166.013E+06    -51.2203E+06     208.145E+03    -51.7863E-03     103.421E-03    -51.6350E-03     8.49797E-03    -51.7342E-03     102.743E-03    -51.5744E-03     8.47166E-03
            1907     16.1933E-03     31.6346E-03    -5.68934E+06     148.942E+06     100.178E+06    -647.363E+03    -59.3331E-03     113.737E-03    -54.4039E-03     179.033E-03    -67.2527E-03     121.875E-03    -54.1107E-03     180.468E-03
            1908     15.3447E-03     31.3358E-03    -14.4541E+06     136.853E+06     78.0492E+06    -1.69494E+06    -68.2612E-03     122.475E-03    -54.2139E-03     273.041E-03    -78.9024E-03     133.324E-03    -54.0011E-03     272.155E-03
            1909     14.4985E-03     31.0767E-03    -16.8069E+06     111.696E+06     38.4947E+06    -1.75949E+06    -65.0763E-03     118.927E-03    -53.8507E-03     214.518E-03    -70.5571E-03     124.633E-03    -53.7959E-03     212.289E-03
            1910     13.6485E-03     30.8998E-03    -17.9965E+06     71.5776E+06     8.49278E+06    -595.408E+03    -60.6450E-03     114.219E-03    -53.5736E-03     155.966E-03    -63.0781E-03     116.817E-03    -53.6088E-03     154.177E-03
            1911     12.7969E-03     30.7614E-03    -18.9533E+06     15.8093E+06    -3.99956E+06     832.020E+03    -59.2564E-03     112.675E-03    -53.4188E-03     126.653E-03    -60.6019E-03     114.021E-03    -53.4343E-03     125.234E-03
            1912     11.9467E-03     30.6429E-03    -19.9246E+06    -27.8940E+06    -5.57563E+06     1.54668E+06    -58.5713E-03     111.855E-03    -53.2835E-03     109.688E-03    -59.3996E-03     112.530E-03    -53.2420E-03     108.548E-03
            1913     11.0955E-03     30.5377E-03    -20.8968E+06    -55.0601E+06    -4.86406E+06     1.13868E+06    -57.9271E-03     111.049E-03    -53.1216E-03     99.2003E-03    -58.4750E-03     111.341E-03    -53.0358E-03     98.2653E-03
            1914     10.2443E-03     30.4399E-03    -22.3826E+06    -74.6168E+06    -4.62423E+06     888.010E+03    -57.2737E-03     110.216E-03    -52.9420E-03     90.5960E-03    -57.6444E-03     110.255E-03    -52.8245E-03     89.8278E-03
            1915     9.39260E-03     30.3514E-03    -24.3514E+06    -88.9698E+06    -4.45177E+06     745.205E+03    -56.5828E-03     109.336E-03    -52.7529E-03     82.1519E-03    -56.8337E-03     109.197E-03    -52.6108E-03     81.5230E-03
            1916     8.54056E-03     30.2705E-03    -26.2995E+06    -103.158E+06    -4.68483E+06     481.454E+03    -55.8505E-03     108.414E-03    -52.5633E-03     74.2794E-03    -56.0131E-03     108.130E-03    -52.3990E-03     73.7651E-03
            1917     7.68804E-03     30.1976E-03    -28.3363E+06    -110.879E+06    -5.66862E+06     331.327E+03    -55.1185E-03     107.487E-03    -52.3684E-03     66.8878E-03    -55.2236E-03     107.114E-03    -52.1949E-03     66.4705E-03
            1918     6.83516E-03     30.1316E-03    -30.8734E+06    -117.411E+06    -8.07465E+06     474.664E+03    -54.4075E-03     106.584E-03    -52.1769E-03     59.5996E-03    -54.4720E-03     106.146E-03    -52.0023E-03     59.2676E-03
            1919     5.98182E-03     30.0735E-03    -34.0647E+06    -131.489E+06    -11.4018E+06     670.139E+03    -53.7417E-03     105.749E-03    -52.0074E-03     52.2443E-03    -53.7677E-03     105.220E-03    -51.8243E-03     51.9842E-03
            1920     5.12809E-03     30.0226E-03    -37.7069E+06    -137.838E+06    -16.8792E+06     802.751E+03    -53.1122E-03     104.947E-03    -51.8351E-03     44.9556E-03    -53.1179E-03     104.379E-03    -51.6650E-03     44.7560E-03
            1921     4.27402E-03     29.9795E-03    -41.3697E+06    -143.667E+06    -24.2871E+06     837.508E+03    -52.5589E-03     104.233E-03    -51.6746E-03     37.6188E-03    -52.5484E-03     103.637E-03    -51.5277E-03     37.4690E-03
            1922     3.41958E-03     29.9438E-03    -44.8388E+06    -152.960E+06    -31.5269E+06     722.571E+03    -52.1005E-03     103.644E-03    -51.5437E-03     30.2234E-03    -52.0727E-03     103.006E-03    -51.4145E-03     30.1133E-03
            1923     2.56495E-03     29.9161E-03    -48.0254E+06    -158.015E+06    -39.2607E+06     576.235E+03    -51.7297E-03     103.160E-03    -51.4303E-03     22.8172E-03    -51.6921E-03     102.505E-03    -51.3278E-03     22.7402E-03
            1924     1.70994E-03     29.8959E-03    -50.4774E+06    -162.612E+06    -46.3426E+06     394.461E+03    -51.4846E-03     102.828E-03    -51.3431E-03     15.3966E-03    -51.4377E-03     102.159E-03    -51.2659E-03     15.3474E-03
            1925     855.137E-06     29.8837E-03    -52.1058E+06    -165.543E+06    -51.0226E+06     298.517E+03    -51.3659E-03     102.615E-03    -51.2495E-03     8.31809E-03    -51.3133E-03     101.939E-03    -51.1890E-03     8.29340E-03
            1926     16.2009E-03     30.5782E-03    -3.99534E+06     150.872E+06     101.759E+06     1.75229E+06    -61.0559E-03     115.371E-03    -54.3147E-03     176.524E-03    -68.8335E-03     123.375E-03    -54.0188E-03     177.801E-03
            1927     15.3518E-03     30.2738E-03    -11.0026E+06     140.581E+06     76.2298E+06    -458.101E+03    -67.5019E-03     121.557E-03    -54.0546E-03     268.766E-03    -77.9225E-03     132.216E-03    -53.8613E-03     267.865E-03
            1928     14.5010E-03     30.0178E-03    -16.9465E+06     110.794E+06     30.8801E+06    -2.33204E+06    -64.2640E-03     117.955E-03    -53.6907E-03     211.764E-03    -69.6440E-03     123.578E-03    -53.6724E-03     209.572E-03
            1929     13.6495E-03     29.8422E-03    -19.9672E+06     68.6283E+06     5.88207E+06    -1.36405E+06    -60.7466E-03     114.193E-03    -53.4463E-03     155.026E-03    -63.1798E-03     116.782E-03    -53.4874E-03     153.216E-03
            1930     12.7996E-03     29.7028E-03    -21.1026E+06     14.9827E+06    -3.68462E+06     293.801E+03    -59.5093E-03     112.787E-03    -53.2776E-03     125.414E-03    -60.8553E-03     114.122E-03    -53.2872E-03     123.982E-03
            1931     11.9486E-03     29.5858E-03    -21.3887E+06    -27.5486E+06    -6.34414E+06     412.331E+03    -58.6790E-03     111.784E-03    -53.1053E-03     108.570E-03    -59.5077E-03     112.458E-03    -53.0661E-03     107.416E-03
            1932     11.0979E-03     29.4805E-03    -21.6835E+06    -55.2452E+06    -5.52854E+06     652.996E+03    -58.0456E-03     110.962E-03    -52.9166E-03     98.1058E-03    -58.5912E-03     111.251E-03    -52.8326E-03     97.1657E-03
            1933     10.2467E-03     29.3841E-03    -22.6062E+06    -74.3579E+06    -5.06387E+06     1.00380E+06    -57.3495E-03     110.057E-03    -52.7072E-03     89.5603E-03    -57.7165E-03     110.094E-03    -52.5919E-03     88.7968E-03
            1934     9.39503E-03     29.2957E-03    -24.0881E+06    -88.5180E+06    -4.66552E+06     816.776E+03    -56.5807E-03     109.070E-03    -52.4896E-03     81.0943E-03    -56.8265E-03     108.930E-03    -52.3497E-03     80.4711E-03
            1935     8.54301E-03     29.2161E-03    -26.0431E+06    -102.560E+06    -4.84536E+06     408.415E+03    -55.8073E-03     108.079E-03    -52.2721E-03     73.1861E-03    -55.9660E-03     107.796E-03    -52.1098E-03     72.6754E-03
            1936     7.69054E-03     29.1436E-03    -28.4955E+06    -110.972E+06    -6.45163E+06     268.395E+03    -55.0084E-03     107.056E-03    -52.0478E-03     65.8402E-03    -55.1104E-03     106.682E-03    -51.8778E-03     65.4269E-03
            1937     6.83751E-03     29.0788E-03    -31.3265E+06    -117.685E+06    -8.81252E+06     583.163E+03    -54.2250E-03     106.057E-03    -51.8316E-03     58.5868E-03    -54.2883E-03     105.617E-03    -51.6596E-03     58.2608E-03
            1938     5.98402E-03     29.0211E-03    -34.5270E+06    -131.528E+06    -11.9414E+06     921.029E+03    -53.5099E-03     105.149E-03    -51.6391E-03     51.2856E-03    -53.5358E-03     104.620E-03    -51.4580E-03     51.0329E-03
            1939     5.13012E-03     28.9712E-03    -37.9733E+06    -137.683E+06    -17.3336E+06     1.02662E+06    -52.8331E-03     104.277E-03    -51.4441E-03     44.0863E-03    -52.8386E-03     103.709E-03    -51.2761E-03     43.8932E-03
            1940     4.27574E-03     28.9284E-03    -41.4325E+06    -143.267E+06    -24.3340E+06     895.344E+03    -52.2304E-03     103.495E-03    -51.2642E-03     36.8638E-03    -52.2201E-03     102.899E-03    -51.1181E-03     36.7177E-03
            1941     3.42108E-03     28.8935E-03    -44.7691E+06    -152.527E+06    -31.4338E+06     723.062E+03    -51.7303E-03     102.846E-03    -51.1154E-03     29.5957E-03    -51.7025E-03     102.209E-03    -50.9865E-03     29.4880E-03
            1942     2.56602E-03     28.8660E-03    -47.8258E+06    -157.526E+06    -39.1372E+06     539.650E+03    -51.3274E-03     102.313E-03    -50.9852E-03     22.3307E-03    -51.2894E-03     101.659E-03    -50.8832E-03     22.2550E-03
            1943     1.71092E-03     28.8463E-03    -50.3506E+06    -162.220E+06    -46.2823E+06     440.635E+03    -51.0375E-03     101.925E-03    -50.8870E-03     15.0797E-03    -50.9905E-03     101.257E-03    -50.8102E-03     15.0323E-03
            1944     855.401E-06     28.8340E-03    -51.8149E+06    -164.975E+06    -50.6896E+06     228.670E+03    -50.8320E-03     101.698E-03    -50.8661E-03     8.14936E-03    -50.7792E-03     101.023E-03    -50.8052E-03     8.12439E-03
            1945     16.2060E-03     29.5202E-03    -4.60839E+06     150.971E+06     102.123E+06     1.20828E+06    -63.3093E-03     117.471E-03    -54.1615E-03     178.034E-03    -71.0771E-03     125.462E-03    -53.8631E-03     179.250E-03
            1946     15.3539E-03     29.2156E-03    -7.58533E+06     143.918E+06     81.0324E+06     2.52053E+06    -66.6589E-03     120.550E-03    -53.8915E-03     272.162E-03    -77.0509E-03     131.191E-03    -53.6840E-03     271.394E-03
            1947     14.5019E-03     28.9608E-03    -14.1504E+06     112.569E+06     31.6456E+06     1.52356E+06    -64.0354E-03     117.589E-03    -53.5538E-03     213.240E-03    -69.3937E-03     123.205E-03    -53.5383E-03     211.110E-03
            1948     13.6522E-03     28.7826E-03    -18.6136E+06     68.2469E+06     2.92613E+06    -221.930E+03    -61.2499E-03     114.535E-03    -53.2850E-03     154.585E-03    -63.6644E-03     117.117E-03    -53.3423E-03     152.767E-03
            1949     12.8017E-03     28.6455E-03    -19.8433E+06     14.3775E+06    -4.97853E+06     -594.34E+03    -59.6989E-03     112.790E-03    -53.0912E-03     124.721E-03    -61.0273E-03     114.114E-03    -53.1082E-03     123.278E-03
            1950     11.9513E-03     28.5281E-03    -20.2709E+06    -27.8373E+06    -6.61514E+06    -81.8141E+03    -58.8113E-03     111.709E-03    -52.8973E-03     107.781E-03    -59.6260E-03     112.372E-03    -52.8606E-03     106.623E-03
            1951     11.1004E-03     28.4240E-03    -21.3892E+06    -55.7118E+06    -6.07238E+06     334.939E+03    -58.1312E-03     110.813E-03    -52.6814E-03     97.0992E-03    -58.6675E-03     111.093E-03    -52.6000E-03     96.1589E-03
            1952     10.2493E-03     28.3279E-03    -22.4897E+06    -74.5385E+06    -5.59531E+06      586.64E+03    -57.4095E-03     109.852E-03    -52.4426E-03     88.4160E-03    -57.7695E-03     109.884E-03    -52.3298E-03     87.6516E-03
            1953     9.39783E-03     28.2409E-03    -23.6247E+06    -88.0426E+06    -4.98810E+06     653.923E+03    -56.5727E-03     108.767E-03    -52.1941E-03     79.9357E-03    -56.8117E-03     108.624E-03    -52.0571E-03     79.3159E-03
            1954     8.54578E-03     28.1616E-03    -25.5487E+06    -102.344E+06    -4.74763E+06     734.815E+03    -55.7287E-03     107.678E-03    -51.9497E-03     72.0126E-03    -55.8817E-03     107.391E-03    -51.7880E-03     71.5118E-03
            1955     7.69321E-03     28.0905E-03    -28.3312E+06    -110.907E+06    -6.52559E+06     891.374E+03    -54.8757E-03     106.572E-03    -51.6968E-03     64.6864E-03    -54.9739E-03     106.195E-03    -51.5275E-03     64.2865E-03
            1956     6.84009E-03     28.0262E-03    -31.4347E+06    -117.766E+06    -9.15524E+06     844.372E+03    -54.0371E-03     105.489E-03    -51.4517E-03     57.4944E-03    -54.0981E-03     105.047E-03    -51.2811E-03     57.1768E-03
            1957     5.98647E-03     27.9696E-03    -34.5704E+06    -131.655E+06    -11.9554E+06     1.02682E+06    -53.2582E-03     104.492E-03    -51.2338E-03     50.2495E-03    -53.2825E-03     103.961E-03    -51.0525E-03     50.0027E-03
            1958     5.13231E-03     27.9203E-03    -37.9078E+06    -137.262E+06    -17.1988E+06     1.06163E+06    -52.5167E-03     103.531E-03    -51.0143E-03     43.1571E-03    -52.5215E-03     102.964E-03    -50.8462E-03     42.9684E-03
            1959     4.27772E-03     27.8784E-03    -41.2768E+06    -142.831E+06    -24.2204E+06     841.260E+03    -51.8652E-03     102.678E-03    -50.8126E-03     36.0597E-03    -51.8541E-03     102.083E-03    -50.6667E-03     35.9162E-03
            1960     3.42267E-03     27.8439E-03    -44.5593E+06    -152.122E+06    -31.5321E+06     690.673E+03    -51.3208E-03     101.964E-03    -50.6435E-03     28.9332E-03    -51.2919E-03     101.329E-03    -50.5160E-03     28.8276E-03
            1961     2.56736E-03     27.8170E-03    -47.6655E+06    -157.113E+06    -39.2182E+06     612.340E+03    -50.8771E-03     101.375E-03    -50.4976E-03     21.8454E-03    -50.8385E-03     100.723E-03    -50.3968E-03     21.7726E-03
            1962     1.71164E-03     27.7975E-03    -50.1056E+06    -161.691E+06    -46.1313E+06     446.119E+03    -50.5459E-03     100.938E-03    -50.3918E-03     14.7463E-03    -50.4986E-03     100.272E-03    -50.3154E-03     14.7002E-03
            1963     855.895E-06     27.7857E-03    -51.4808E+06    -164.442E+06    -50.6620E+06     168.790E+03    -50.3551E-03     100.704E-03    -50.3492E-03     8.00651E-03    -50.3015E-03     100.032E-03    -50.2894E-03     7.98132E-03
            1964     16.2033E-03     28.4551E-03    -7.31960E+06     148.878E+06     99.2416E+06    -253.676E+03    -63.0605E-03     117.258E-03    -54.1972E-03     178.779E-03    -70.8917E-03     125.304E-03    -53.9063E-03     179.991E-03
            1965     15.3540E-03     28.1616E-03    -11.7221E+06     141.286E+06     79.2882E+06     936.231E+03    -68.4996E-03     122.397E-03    -53.8971E-03     273.657E-03    -78.9851E-03     133.112E-03    -53.6885E-03     272.734E-03
            1966     14.5033E-03     27.8991E-03    -13.4968E+06     114.503E+06     36.4131E+06     2.39339E+06    -65.6712E-03     119.154E-03    -53.4832E-03     213.295E-03    -71.0453E-03     124.782E-03    -53.4476E-03     211.069E-03
            1967     13.6541E-03     27.7250E-03    -15.0405E+06     71.3501E+06     7.13185E+06     1.93011E+06    -61.5730E-03     114.713E-03    -53.1396E-03     153.250E-03    -63.9509E-03     117.270E-03    -53.1856E-03     151.460E-03
            1968     12.8040E-03     27.5867E-03    -17.9704E+06     14.6535E+06    -4.57461E+06     368.648E+03    -59.9190E-03     112.820E-03    -52.9014E-03     124.023E-03    -61.2289E-03     114.132E-03    -52.9195E-03     122.592E-03
            1969     11.9538E-03     27.4712E-03    -19.9831E+06    -28.3611E+06    -6.83509E+06     110.235E+03    -59.0748E-03     111.749E-03    -52.6742E-03     106.744E-03    -59.8793E-03     112.402E-03    -52.6383E-03     105.588E-03
            1970     11.1034E-03     27.3671E-03    -21.0082E+06    -55.7475E+06    -6.16343E+06     275.361E+03    -58.2685E-03     110.691E-03    -52.4220E-03     95.9956E-03    -58.7957E-03     110.963E-03    -52.3415E-03     95.0584E-03
            1971     10.2524E-03     27.2724E-03    -22.1123E+06    -74.6653E+06    -5.79500E+06     277.445E+03    -57.4485E-03     109.598E-03    -52.1497E-03     87.1825E-03    -57.8000E-03     109.623E-03    -52.0383E-03     86.4198E-03
            1972     9.40085E-03     27.1859E-03    -23.6649E+06    -88.1437E+06    -5.45572E+06     578.838E+03    -56.5402E-03     108.409E-03    -51.8691E-03     78.6989E-03    -56.7736E-03     108.262E-03    -51.7343E-03     78.0846E-03
            1973     8.54881E-03     27.1080E-03    -25.7877E+06    -102.794E+06    -5.11835E+06     1.19488E+06    -55.6314E-03     107.227E-03    -51.5956E-03     70.7712E-03    -55.7802E-03     106.934E-03    -51.4347E-03     70.2829E-03
            1974     7.69617E-03     27.0375E-03    -28.3426E+06    -110.513E+06    -6.39218E+06     1.43646E+06    -54.7272E-03     106.040E-03    -51.3131E-03     63.4363E-03    -54.8231E-03     105.662E-03    -51.1437E-03     63.0495E-03
            1975     6.84296E-03     26.9745E-03    -31.0971E+06    -117.271E+06    -8.94865E+06     1.12383E+06    -53.8284E-03     104.866E-03    -51.0372E-03     56.2897E-03    -53.8862E-03     104.423E-03    -50.8668E-03     55.9814E-03
            1976     5.98912E-03     26.9186E-03    -34.1437E+06    -131.780E+06    -11.5705E+06     1.02384E+06    -52.9759E-03     103.768E-03    -50.7925E-03     49.1286E-03    -52.9966E-03     103.234E-03    -50.6097E-03     48.8866E-03
            1977     5.13476E-03     26.8704E-03    -37.4274E+06    -136.765E+06    -16.7548E+06     1.06350E+06    -52.1642E-03     102.711E-03    -50.5473E-03     42.1553E-03    -52.1667E-03     102.144E-03    -50.3785E-03     41.9709E-03
            1978     4.27978E-03     26.8291E-03    -40.9150E+06    -142.425E+06    -24.2552E+06     925.976E+03    -51.4571E-03     101.780E-03    -50.3225E-03     35.2061E-03    -51.4439E-03     101.186E-03    -50.1779E-03     35.0673E-03
            1979     3.42445E-03     26.7954E-03    -44.4274E+06    -151.736E+06    -31.5140E+06     855.504E+03    -50.8727E-03     101.008E-03    -50.1357E-03     28.2206E-03    -50.8433E-03     100.374E-03    -50.0088E-03     28.1200E-03
            1980     2.56862E-03     26.7689E-03    -47.5216E+06    -156.588E+06    -39.0141E+06     635.407E+03    -50.3805E-03     100.357E-03    -49.9764E-03     21.2824E-03    -50.3420E-03     99.7069E-03    -49.8755E-03     21.2119E-03
            1981     1.71264E-03     26.7499E-03    -49.8884E+06    -161.189E+06    -45.9773E+06     367.140E+03    -50.0379E-03     99.8956E-03    -49.8578E-03     14.3640E-03    -49.9903E-03     99.2320E-03    -49.7816E-03     14.3181E-03
            1982     856.313E-06     26.7382E-03    -51.4912E+06    -163.891E+06    -50.3292E+06     269.108E+03    -49.8769E-03     99.6209E-03    -49.7441E-03     7.86760E-03    -49.8245E-03     98.9506E-03    -49.6834E-03     7.84454E-03
            1983     16.1988E-03     27.3959E-03    -5.61218E+06     148.366E+06     99.7298E+06     691.909E+03    -63.1839E-03     117.427E-03    -54.2430E-03     176.050E-03    -70.9609E-03     125.422E-03    -53.9514E-03     177.128E-03
            1984     15.3501E-03     27.0950E-03    -11.4636E+06     140.223E+06     77.3820E+06     373.019E+03    -70.2465E-03     124.103E-03    -53.8560E-03     268.531E-03    -80.6295E-03     134.718E-03    -53.6558E-03     267.405E-03
            1985     14.5063E-03     26.8391E-03    -15.3758E+06     113.025E+06     34.5611E+06     620.164E+03    -66.1811E-03     119.530E-03    -53.3490E-03     209.790E-03    -71.4708E-03     125.066E-03    -53.3178E-03     207.515E-03
            1986     13.6566E-03     26.6663E-03    -17.3896E+06     71.9261E+06     6.81754E+06     1.78846E+06    -61.7018E-03     114.671E-03    -52.9693E-03     152.323E-03    -64.0714E-03     117.215E-03    -53.0143E-03     150.534E-03
            1987     12.8067E-03     26.5289E-03    -18.2808E+06     16.8835E+06    -4.46024E+06     1.71528E+06    -60.3143E-03     113.009E-03    -52.6946E-03     123.074E-03    -61.6182E-03     114.321E-03    -52.7148E-03     121.656E-03
            1988     11.9568E-03     26.4134E-03    -19.3246E+06    -28.0152E+06    -6.79942E+06     462.224E+03    -59.2810E-03     111.709E-03    -52.4284E-03     105.530E-03    -60.0730E-03     112.353E-03    -52.3938E-03     104.382E-03
            1989     11.1065E-03     26.3109E-03    -20.5976E+06    -55.8362E+06    -6.31743E+06     321.264E+03    -58.4086E-03     110.548E-03    -52.1399E-03     94.7934E-03    -58.9258E-03     110.813E-03    -52.0607E-03     93.8615E-03
            1990     10.2556E-03     26.2167E-03    -22.1794E+06    -74.6459E+06    -6.11633E+06     590.471E+03    -57.4845E-03     109.317E-03    -51.8323E-03     85.9565E-03    -57.8296E-03     109.336E-03    -51.7225E-03     85.2043E-03
            1991     9.40419E-03     26.1316E-03    -24.1197E+06    -88.6229E+06    -5.96213E+06     853.217E+03    -56.5113E-03     108.030E-03    -51.5184E-03     77.3855E-03    -56.7402E-03     107.876E-03    -51.3847E-03     76.7816E-03
            1992     8.55208E-03     26.0545E-03    -26.0983E+06    -103.270E+06    -5.51997E+06     1.35193E+06    -55.5391E-03     106.750E-03    -51.2112E-03     69.4465E-03    -55.6841E-03     106.452E-03    -51.0512E-03     68.9671E-03
            1993     7.69941E-03     25.9854E-03    -28.1994E+06    -109.993E+06    -6.26084E+06     1.45990E+06    -54.5571E-03     105.453E-03    -50.8963E-03     62.1238E-03    -54.6498E-03     105.074E-03    -50.7273E-03     61.7439E-03
            1994     6.84603E-03     25.9232E-03    -30.7840E+06    -116.759E+06    -8.66039E+06     1.31131E+06    -53.5783E-03     104.169E-03    -50.5903E-03     55.0227E-03    -53.6332E-03     103.725E-03    -50.4197E-03     54.7227E-03
            1995     5.99202E-03     25.8686E-03    -33.9605E+06    -131.528E+06    -11.8308E+06     1.20230E+06    -52.6606E-03     102.976E-03    -50.3152E-03     47.9575E-03    -52.6786E-03     102.441E-03    -50.1344E-03     47.7233E-03
            1996     5.13732E-03     25.8211E-03    -37.4864E+06    -136.497E+06    -17.1614E+06     1.12987E+06    -51.7912E-03     101.835E-03    -50.0434E-03     41.0895E-03    -51.7925E-03     101.268E-03    -49.8770E-03     40.9106E-03
            1997     4.28208E-03     25.7809E-03    -41.0057E+06    -142.019E+06    -24.0338E+06     1.14936E+06    -51.0210E-03     100.819E-03    -49.7981E-03     34.2601E-03    -51.0083E-03     100.226E-03    -49.6529E-03     34.1279E-03
            1998     3.42626E-03     25.7478E-03    -44.3437E+06    -151.100E+06    -30.9231E+06     867.713E+03    -50.3781E-03     99.9720E-03    -49.5939E-03     27.4326E-03    -50.3495E-03     99.3392E-03    -49.4651E-03     27.3352E-03
            1999     2.57016E-03     25.7221E-03    -47.3799E+06    -156.050E+06    -38.5856E+06     556.374E+03    -49.8562E-03     99.2751E-03    -49.4190E-03     20.6696E-03    -49.8181E-03     98.6267E-03    -49.3169E-03     20.6003E-03
            2000     1.71353E-03     25.7034E-03    -49.8456E+06    -160.689E+06    -45.7536E+06     380.383E+03    -49.4933E-03     98.7774E-03    -49.2842E-03     13.9967E-03    -49.4464E-03     98.1158E-03    -49.2077E-03     13.9525E-03
            2001     856.927E-06     25.6919E-03    -51.4254E+06    -163.464E+06    -50.3264E+06     161.139E+03    -49.2809E-03     98.4544E-03    -49.1735E-03     7.62013E-03    -49.2289E-03     97.7861E-03    -49.1135E-03     7.59641E-03
            2002     16.2036E-03     26.3337E-03    -4.87310E+06     148.553E+06     100.934E+06     728.677E+03    -65.1638E-03     119.274E-03    -54.1101E-03     173.476E-03    -72.8159E-03     127.143E-03    -53.8137E-03     174.367E-03
            2003     15.3604E-03     26.0324E-03    -9.18497E+06     140.995E+06     82.7419E+06     1.35525E+06    -69.3440E-03     123.039E-03    -53.6949E-03     266.131E-03    -79.5715E-03     133.494E-03    -53.4724E-03     265.036E-03
            2004     14.5083E-03     25.7814E-03    -14.4909E+06     111.775E+06     37.0264E+06     2.18522E+06    -65.5630E-03     118.766E-03    -53.2033E-03     209.169E-03    -70.7946E-03     124.236E-03    -53.1593E-03     206.965E-03
            2005     13.6583E-03     25.6065E-03    -17.9296E+06     71.7899E+06     5.67798E+06     1.60798E+06    -62.3743E-03     115.165E-03    -52.7910E-03     151.912E-03    -64.7381E-03     117.704E-03    -52.8407E-03     150.094E-03
            2006     12.8098E-03     25.4705E-03    -18.4270E+06     18.4502E+06    -4.34752E+06     768.044E+03    -60.7073E-03     113.177E-03    -52.4694E-03     121.689E-03    -62.0021E-03     114.484E-03    -52.4912E-03     120.253E-03
            2007     11.9600E-03     25.3561E-03    -18.8104E+06    -27.5766E+06    -6.76501E+06     859.408E+03    -59.4394E-03     111.603E-03    -52.1633E-03     104.408E-03    -60.2192E-03     112.237E-03    -52.1299E-03     103.270E-03
            2008     11.1098E-03     25.2544E-03    -20.3652E+06    -55.8522E+06    -6.36953E+06     1.05561E+06    -58.5164E-03     110.357E-03    -51.8408E-03     93.5098E-03    -59.0247E-03     110.613E-03    -51.7621E-03     92.5925E-03
            2009     10.2591E-03     25.1616E-03    -22.2928E+06    -74.5812E+06    -6.17062E+06     1.18081E+06    -57.5511E-03     109.048E-03    -51.4967E-03     84.6048E-03    -57.8900E-03     109.061E-03    -51.3871E-03     83.8665E-03
            2010     9.40767E-03     25.0775E-03    -24.2802E+06    -88.7438E+06    -6.10358E+06     1.36584E+06    -56.5032E-03     107.648E-03    -51.1445E-03     75.9749E-03    -56.7271E-03     107.488E-03    -51.0111E-03     75.3844E-03
            2011     8.55566E-03     25.0018E-03    -26.3301E+06    -103.099E+06    -5.81033E+06     1.19493E+06    -55.4332E-03     106.233E-03    -50.7995E-03     68.0425E-03    -55.5747E-03     105.932E-03    -50.6409E-03     67.5681E-03
            2012     7.70285E-03     24.9336E-03    -28.3678E+06    -109.912E+06    -6.81942E+06     1.18716E+06    -54.3502E-03     104.800E-03    -50.4500E-03     60.7584E-03    -54.4395E-03     104.418E-03    -50.2836E-03     60.3822E-03
            2013     6.84930E-03     24.8728E-03    -30.9072E+06    -116.619E+06    -9.05204E+06     1.52179E+06    -53.3012E-03     103.416E-03    -50.1144E-03     53.6983E-03    -53.3537E-03     102.971E-03    -49.9458E-03     53.4077E-03
            2014     5.99500E-03     24.8193E-03    -34.0818E+06    -130.924E+06    -11.7242E+06     1.50291E+06    -52.3265E-03     102.139E-03    -49.8121E-03     46.7063E-03    -52.3441E-03     101.604E-03    -49.6314E-03     46.4816E-03
            2015     5.14008E-03     24.7730E-03    -37.4972E+06    -136.147E+06    -16.5410E+06     1.23474E+06    -51.3992E-03     100.914E-03    -49.5149E-03     39.9462E-03    -51.4006E-03     100.347E-03    -49.3458E-03     39.7734E-03
            2016     4.28447E-03     24.7336E-03    -40.7916E+06    -141.477E+06    -23.3208E+06     974.373E+03    -50.5573E-03     99.8018E-03    -49.2444E-03     33.2694E-03    -50.5444E-03     99.2095E-03    -49.0968E-03     33.1390E-03
            2017     3.42834E-03     24.7014E-03    -44.0185E+06    -150.495E+06    -30.6287E+06     780.401E+03    -49.8487E-03     98.8685E-03    -49.0197E-03     26.6367E-03    -49.8192E-03     98.2372E-03    -48.8908E-03     26.5413E-03
            2018     2.57157E-03     24.6762E-03    -47.2378E+06    -155.558E+06    -38.4199E+06     610.493E+03    -49.3063E-03     98.1362E-03    -48.8298E-03     20.0682E-03    -49.2682E-03     97.4895E-03    -48.7279E-03     20.0020E-03
            2019     1.71470E-03     24.6582E-03    -49.8601E+06    -160.177E+06    -45.6207E+06     363.240E+03    -48.9095E-03     97.5910E-03    -48.6816E-03     13.5635E-03    -48.8634E-03     96.9317E-03    -48.6051E-03     13.5206E-03
            2020     857.323E-06     24.6469E-03    -51.5178E+06    -163.127E+06    -50.3669E+06     256.870E+03    -48.6667E-03     97.2351E-03    -48.5684E-03     7.34857E-03    -48.6155E-03     96.5686E-03    -48.5090E-03     7.32705E-03
            2021     16.2101E-03     25.2691E-03    -5.42504E+06     147.224E+06     100.129E+06     654.963E+03    -66.0028E-03     120.016E-03    -54.0134E-03     174.470E-03    -73.5690E-03     127.796E-03    -53.7184E-03     175.348E-03
            2022     15.3568E-03     24.9742E-03    -10.4047E+06     139.705E+06     81.3966E+06     1.85519E+06    -69.0668E-03     122.666E-03    -53.5988E-03     269.402E-03    -79.2702E-03     133.092E-03    -53.3793E-03     268.338E-03
            2023     14.5084E-03     24.7204E-03    -14.7390E+06     112.737E+06     40.0671E+06     1.79738E+06    -66.8471E-03     119.954E-03    -53.1067E-03     209.991E-03    -72.1207E-03     125.459E-03    -53.0484E-03     207.696E-03
            2024     13.6618E-03     24.5463E-03    -15.2649E+06     73.6764E+06     10.8339E+06     1.42042E+06    -63.2186E-03     115.845E-03    -52.6266E-03     150.096E-03    -65.5568E-03     118.359E-03    -52.6571E-03     148.248E-03
            2025     12.8128E-03     24.4121E-03    -16.9225E+06     18.5793E+06    -3.46509E+06     1.32290E+06    -60.8917E-03     113.128E-03    -52.2359E-03     120.329E-03    -62.1643E-03     114.416E-03    -52.2556E-03     118.904E-03
            2026     11.9633E-03     24.2988E-03    -19.3014E+06    -27.5470E+06    -6.87673E+06     1.58444E+06    -59.6639E-03     111.556E-03    -51.8920E-03     103.288E-03    -60.4370E-03     112.183E-03    -51.8584E-03     102.161E-03
            2027     11.1133E-03     24.1982E-03    -20.8909E+06    -55.4239E+06    -6.32480E+06     1.65442E+06    -58.6779E-03     110.208E-03    -51.5297E-03     92.2600E-03    -59.1816E-03     110.459E-03    -51.4506E-03     91.3551E-03
            2028     10.2627E-03     24.1066E-03    -22.2890E+06    -74.4374E+06    -5.98711E+06     1.58645E+06    -57.6483E-03     108.793E-03    -51.1443E-03     83.1588E-03    -57.9810E-03     108.799E-03    -51.0340E-03     82.4316E-03
            2029     9.41145E-03     24.0238E-03    -23.7482E+06    -88.5251E+06    -5.86956E+06     1.57841E+06    -56.4842E-03     107.235E-03    -50.7508E-03     74.4851E-03    -56.7003E-03     107.070E-03    -50.6174E-03     73.9046E-03
            2030     8.55936E-03     23.9494E-03    -25.7426E+06    -102.523E+06    -5.59647E+06     1.54177E+06    -55.3085E-03     105.676E-03    -50.3680E-03     66.5527E-03    -55.4435E-03     105.372E-03    -50.2100E-03     66.0906E-03
            2031     7.70644E-03     23.8827E-03    -28.4217E+06    -109.654E+06    -6.57688E+06     1.23051E+06    -54.1390E-03     104.125E-03    -49.9856E-03     59.2977E-03    -54.2256E-03     103.740E-03    -49.8183E-03     58.9296E-03
            2032     6.85270E-03     23.8231E-03    -30.7888E+06    -116.804E+06    -8.50210E+06     1.14911E+06    -53.0141E-03     102.634E-03    -49.6197E-03     52.2837E-03    -53.0636E-03     102.184E-03    -49.4483E-03     51.9951E-03
            2033     5.99822E-03     23.7709E-03    -33.1743E+06    -130.503E+06    -10.5012E+06     1.45769E+06    -51.9650E-03     101.254E-03    -49.2892E-03     45.3901E-03    -51.9784E-03     100.717E-03    -49.1044E-03     45.1709E-03
            2034     5.14296E-03     23.7257E-03    -36.3276E+06    -135.405E+06    -15.3054E+06     1.24588E+06    -50.9611E-03     99.9271E-03    -48.9660E-03     38.7760E-03    -50.9581E-03     99.3588E-03    -48.7935E-03     38.6087E-03
            2035     4.28697E-03     23.6875E-03    -39.9548E+06    -141.148E+06    -23.2075E+06     1.06294E+06    -50.0665E-03     98.7365E-03    -48.6700E-03     32.2604E-03    -50.0491E-03     98.1435E-03    -48.5235E-03     32.1355E-03
            2036     3.43029E-03     23.6562E-03    -43.7159E+06    -149.950E+06    -30.6947E+06     1.06733E+06    -49.3250E-03     97.7502E-03    -48.4252E-03     25.8025E-03    -49.2941E-03     97.1208E-03    -48.2979E-03     25.7141E-03
            2037     2.57325E-03     23.6317E-03    -47.0698E+06    -154.883E+06    -38.2813E+06     734.896E+03    -48.7355E-03     96.9539E-03    -48.2184E-03     19.4330E-03    -48.6973E-03     96.3098E-03    -48.1170E-03     19.3708E-03
            2038     1.71567E-03     23.6140E-03    -49.6891E+06    -159.729E+06    -45.7704E+06     478.817E+03    -48.3024E-03     96.3586E-03    -48.0562E-03     13.0825E-03    -48.2557E-03     95.7013E-03    -47.9814E-03     13.0428E-03
            2039     857.978E-06     23.6034E-03    -51.3187E+06    -162.559E+06    -50.2816E+06     318.692E+03    -48.0520E-03     95.9761E-03    -47.9240E-03     7.13717E-03    -48.0007E-03     95.3119E-03    -47.8653E-03     7.11726E-03
            2040     16.2029E-03     24.2061E-03    -5.78159E+06     145.107E+06     98.7201E+06     471.024E+03    -65.7225E-03     119.837E-03    -54.1146E-03     174.572E-03    -73.3199E-03     127.643E-03    -53.8230E-03     175.331E-03
            2041     15.3572E-03     23.9140E-03    -11.4060E+06     138.812E+06     80.9469E+06     1.24202E+06    -72.2179E-03     125.841E-03    -53.6235E-03     268.061E-03    -82.4662E-03     136.307E-03    -53.4035E-03     266.701E-03
            2042     14.5115E-03     23.6554E-03    -13.6126E+06     114.213E+06     40.4824E+06     714.632E+03    -68.5174E-03     121.493E-03    -52.9758E-03     206.543E-03    -73.7514E-03     126.967E-03    -52.9193E-03     204.110E-03
            2043     13.6644E-03     23.4871E-03    -16.6922E+06     72.7368E+06     8.38136E+06     1.13935E+06    -63.2259E-03     115.640E-03    -52.4145E-03     147.861E-03    -65.5336E-03     118.123E-03    -52.4538E-03     146.020E-03
            2044     12.8156E-03     23.3533E-03    -18.8193E+06     18.6373E+06    -3.78965E+06     2.43246E+06    -61.1591E-03     113.162E-03    -52.0031E-03     119.278E-03    -62.4268E-03     114.440E-03    -52.0218E-03     117.869E-03
            2045     11.9666E-03     23.2416E-03    -19.8505E+06    -26.7212E+06    -6.20896E+06     2.14906E+06    -59.9702E-03     111.590E-03    -51.6194E-03     101.966E-03    -60.7392E-03     112.211E-03    -51.5829E-03     100.846E-03
            2046     11.1168E-03     23.1420E-03    -20.9301E+06    -55.2486E+06    -5.96587E+06     1.73841E+06    -58.9028E-03     110.112E-03    -51.2092E-03     90.8530E-03    -59.3992E-03     110.355E-03    -51.1286E-03     89.9529E-03
            2047     10.2665E-03     23.0518E-03    -22.0920E+06    -73.8855E+06    -5.48524E+06     1.65778E+06    -57.7310E-03     108.510E-03    -50.7790E-03     81.5804E-03    -58.0568E-03     108.511E-03    -50.6672E-03     80.8605E-03
            2048     9.41531E-03     22.9705E-03    -23.5872E+06    -88.4186E+06    -5.36504E+06     1.50026E+06    -56.4477E-03     106.793E-03    -50.3454E-03     72.9036E-03    -56.6577E-03     106.621E-03    -50.2098E-03     72.3301E-03
            2049     8.56317E-03     22.8977E-03    -25.3183E+06    -102.364E+06    -4.93883E+06     1.75376E+06    -55.1812E-03     105.106E-03    -49.9249E-03     64.9824E-03    -55.3103E-03     104.796E-03    -49.7645E-03     64.5312E-03
            2050     7.71021E-03     22.8324E-03    -27.3854E+06    -108.657E+06    -5.59559E+06     1.54060E+06    -53.9278E-03     103.434E-03    -49.5063E-03     57.7580E-03    -54.0082E-03     103.048E-03    -49.3370E-03     57.4017E-03
            2051     6.85631E-03     22.7743E-03    -30.4736E+06    -116.998E+06    -8.72761E+06     1.32096E+06    -52.7025E-03     101.807E-03    -49.1049E-03     50.8332E-03    -52.7469E-03     101.354E-03    -48.9347E-03     50.5543E-03
            2052     6.00150E-03     22.7234E-03    -34.0585E+06    -130.081E+06    -12.5526E+06     1.32741E+06    -51.5557E-03     100.295E-03    -48.7395E-03     44.0759E-03    -51.5689E-03     99.7621E-03    -48.5642E-03     43.8620E-03
            2053     5.14584E-03     22.6795E-03    -37.4125E+06    -134.847E+06    -17.2599E+06     1.16903E+06    -50.4955E-03     98.8904E-03    -48.3948E-03     37.5768E-03    -50.4943E-03     98.3277E-03    -48.2314E-03     37.4143E-03
            2054     4.28942E-03     22.6424E-03     -40.792E+06    -141.096E+06    -23.5973E+06     1.30656E+06    -49.5688E-03     97.6549E-03    -48.0861E-03     31.1865E-03    -49.5541E-03     97.0629E-03    -47.9403E-03     31.0693E-03
            2055     3.43245E-03     22.6121E-03    -43.9652E+06    -149.052E+06    -30.6663E+06     1.12129E+06    -48.7909E-03     96.6108E-03    -47.8199E-03     24.9245E-03    -48.7619E-03     95.9856E-03    -47.6934E-03     24.8404E-03
            2056     2.57481E-03     22.5884E-03    -46.9300E+06    -154.424E+06    -38.4403E+06     872.164E+03    -48.1494E-03     95.7439E-03    -47.5945E-03     18.7483E-03    -48.1107E-03     95.1018E-03    -47.4947E-03     18.6905E-03
            2057     1.71683E-03     22.5714E-03    -49.4622E+06    -158.954E+06    -45.4146E+06     728.231E+03    -47.6807E-03     95.1039E-03    -47.4232E-03     12.6161E-03    -47.6344E-03     94.4495E-03    -47.3481E-03     12.5813E-03
            2058     858.464E-06     22.5609E-03    -51.1755E+06    -161.836E+06    -50.1025E+06     281.631E+03    -47.3933E-03     94.6995E-03    -47.3062E-03     6.86439E-03    -47.3425E-03     94.0385E-03    -47.2478E-03     6.84466E-03
            2059     16.1989E-03     23.1418E-03    -4.73470E+06     145.901E+06     100.262E+06     749.221E+03    -67.6652E-03     121.737E-03    -54.0721E-03     166.789E-03    -75.0704E-03     129.353E-03    -53.7755E-03     167.281E-03
            2060     15.3574E-03     22.8409E-03    -10.2667E+06     139.732E+06     81.8053E+06    -644.461E+03    -72.4473E-03     125.917E-03    -53.4699E-03     260.544E-03    -82.4576E-03     136.150E-03    -53.2486E-03     259.056E-03
            2061     14.5158E-03     22.5954E-03    -14.5028E+06     111.796E+06     36.3025E+06     1.06200E+06    -67.7576E-03     120.535E-03    -52.7779E-03     203.999E-03    -72.8729E-03     125.891E-03    -52.7375E-03     201.629E-03
            2062     13.6667E-03     22.4269E-03    -17.5762E+06     71.7149E+06     5.68715E+06     2.25742E+06    -63.5654E-03     115.779E-03    -52.2139E-03     146.948E-03    -65.8549E-03     118.245E-03    -52.2639E-03     145.110E-03
            2063     12.8187E-03     22.2947E-03    -18.4184E+06     19.1009E+06    -2.74540E+06     1.85692E+06    -61.6687E-03     113.440E-03    -51.7718E-03     117.718E-03    -62.9227E-03     114.705E-03    -51.7865E-03     116.292E-03
            2064     11.9699E-03     22.1840E-03    -18.6143E+06    -26.2471E+06    -5.12262E+06     1.94389E+06    -60.3061E-03     111.641E-03    -51.3347E-03     100.429E-03    -61.0599E-03     112.250E-03    -51.2953E-03     99.3071E-03
            2065     11.1207E-03     22.0859E-03    -19.4664E+06    -54.8033E+06    -5.17205E+06     2.07060E+06    -59.1043E-03     109.979E-03    -50.8750E-03     89.1430E-03    -59.5852E-03     110.212E-03    -50.7932E-03     88.2524E-03
            2066     10.2704E-03     21.9973E-03    -21.1098E+06    -73.6570E+06    -5.27378E+06     2.05300E+06    -57.7714E-03     108.171E-03    -50.3997E-03     79.8610E-03    -58.0841E-03     108.163E-03    -50.2886E-03     79.1551E-03
            2067     9.41923E-03     21.9177E-03    -23.3472E+06    -88.0602E+06    -5.46957E+06     2.18490E+06    -56.4067E-03     106.332E-03    -49.9255E-03     71.1489E-03    -56.6089E-03     106.155E-03    -49.7913E-03     70.5931E-03
            2068     8.56714E-03     21.8464E-03    -25.5378E+06    -101.526E+06    -5.95083E+06     1.42412E+06    -55.0367E-03     104.499E-03    -49.4622E-03     63.2959E-03    -55.1611E-03     104.190E-03    -49.3078E-03     62.8498E-03
            2069     7.71398E-03     21.7828E-03    -27.4113E+06    -108.776E+06    -7.42050E+06     1.37935E+06    -53.6847E-03     102.691E-03    -49.0061E-03     56.1271E-03    -53.7581E-03     102.302E-03    -48.8457E-03     55.7776E-03
            2070     6.85985E-03     21.7263E-03    -29.8415E+06    -117.145E+06    -9.91685E+06     2.31169E+06    -52.3761E-03     100.952E-03    -48.5763E-03     49.2431E-03    -52.4120E-03     100.495E-03    -48.4127E-03     48.9851E-03
            2071     6.00474E-03     21.6769E-03    -33.2913E+06    -128.946E+06    -13.0549E+06     2.18732E+06    -51.1610E-03     99.3456E-03    -48.1847E-03     42.5858E-03    -51.1688E-03     98.8154E-03    -48.0147E-03     42.3900E-03
            2072     5.14877E-03     21.6344E-03    -37.2119E+06    -134.317E+06    -17.5244E+06     1.54710E+06    -50.0450E-03     97.8621E-03    -47.8171E-03     36.1996E-03    -50.0415E-03     97.3005E-03    -47.6561E-03     36.0477E-03
            2073     4.29203E-03     21.5985E-03    -40.6705E+06    -140.546E+06    -23.7302E+06     1.05610E+06    -49.0592E-03     96.5449E-03    -47.4857E-03     29.9891E-03    -49.0433E-03     95.9545E-03    -47.3416E-03     29.8733E-03
            2074     3.43450E-03     21.5692E-03    -43.8283E+06    -148.627E+06    -31.0938E+06      978.44E+03    -48.2245E-03     95.4239E-03    -47.1994E-03     23.9361E-03    -48.1942E-03     94.8005E-03    -47.0758E-03     23.8539E-03
            2075     2.57646E-03     21.5463E-03    -46.8693E+06    -153.905E+06    -38.7292E+06     1.03582E+06    -47.5416E-03     94.5032E-03    -46.9616E-03     17.9708E-03    -47.5025E-03     93.8637E-03    -46.8641E-03     17.9178E-03
            2076     1.71788E-03     21.5300E-03    -49.2329E+06    -158.110E+06    -45.3027E+06     768.892E+03    -47.0390E-03     93.8263E-03    -46.7873E-03     12.1264E-03    -46.9928E-03     93.1754E-03    -46.7131E-03     12.0938E-03
            2077     859.054E-06     21.5199E-03    -50.7713E+06    -160.831E+06    -49.6902E+06     412.761E+03    -46.7637E-03     93.4300E-03    -46.6663E-03     6.57190E-03    -46.7129E-03     92.7728E-03    -46.6079E-03     6.55479E-03
            2078     16.2160E-03     22.0729E-03    -3.66497E+06     146.509E+06     101.397E+06     571.266E+03    -69.3720E-03     123.337E-03    -53.9647E-03     170.546E-03    -76.8098E-03     130.988E-03    -53.6648E-03     171.022E-03
            2079     15.3697E-03     21.7855E-03    -9.31344E+06     139.357E+06     83.1222E+06     1.18762E+06    -72.2011E-03     125.548E-03    -53.3472E-03     264.758E-03    -82.2214E-03     135.789E-03    -53.1202E-03     263.352E-03
            2080     14.5138E-03     21.5329E-03    -14.9848E+06     110.977E+06     37.7768E+06     1.34255E+06    -68.4643E-03     121.123E-03    -52.6583E-03     204.454E-03    -73.5457E-03     126.435E-03    -52.6086E-03     202.061E-03
            2081     13.6692E-03     21.3651E-03    -14.6491E+06     72.1447E+06     7.24869E+06     1.32300E+06    -64.4351E-03     116.466E-03    -52.0314E-03     144.681E-03    -66.6691E-03     118.884E-03    -52.0785E-03     142.809E-03
            2082     12.8220E-03     21.2360E-03    -14.8551E+06     18.8621E+06     -3.0491E+06     2.08095E+06    -62.1864E-03     113.701E-03    -51.5151E-03     115.784E-03    -63.4038E-03     114.942E-03    -51.5361E-03     114.355E-03
            2083     11.9737E-03     21.1261E-03    -16.5899E+06    -26.1241E+06    -5.18485E+06     2.59727E+06    -60.6439E-03     111.671E-03    -51.0273E-03     98.6728E-03    -61.3730E-03     112.264E-03    -50.9913E-03     97.5632E-03
            2084     11.1245E-03     21.0300E-03    -18.2988E+06    -54.1997E+06    -5.56603E+06     2.71552E+06    -59.2313E-03     109.751E-03    -50.5200E-03     87.2271E-03    -59.6942E-03     109.973E-03    -50.4428E-03     86.3537E-03
            2085     10.2744E-03     20.9430E-03    -19.9613E+06    -73.6432E+06    -5.83675E+06     2.82875E+06    -57.8228E-03     107.825E-03    -50.0024E-03     77.9411E-03    -58.1194E-03     107.807E-03    -49.8959E-03     77.2547E-03
            2086     9.42334E-03     20.8652E-03    -21.3413E+06    -87.3195E+06    -5.86349E+06     2.78031E+06    -56.3621E-03     105.847E-03    -49.4852E-03     69.1654E-03    -56.5468E-03     105.663E-03    -49.3570E-03     68.6276E-03
            2087     8.57111E-03     20.7958E-03    -23.5833E+06    -100.245E+06    -5.90952E+06     2.52224E+06    -54.8905E-03     103.875E-03    -48.9841E-03     61.2963E-03    -55.0007E-03     103.562E-03    -48.8341E-03     60.8744E-03
            2088     7.71788E-03     20.7339E-03    -27.2889E+06    -109.112E+06    -7.86967E+06     2.32290E+06    -53.4351E-03     101.929E-03    -48.4940E-03     54.1521E-03    -53.5018E-03     101.535E-03    -48.3356E-03     53.8243E-03
            2089     6.86352E-03     20.6792E-03    -30.4874E+06    -117.360E+06    -10.2668E+06     2.46547E+06    -52.0511E-03     100.083E-03    -48.0314E-03     47.3353E-03    -52.0858E-03     99.6222E-03    -47.8683E-03     47.0877E-03
            2090     6.00820E-03     20.6314E-03    -32.9845E+06    -127.914E+06    -12.7079E+06     2.73077E+06    -50.7632E-03     98.3708E-03    -47.6076E-03     40.8079E-03    -50.7688E-03     97.8421E-03    -47.4379E-03     40.6266E-03
            2091     5.15191E-03     20.5903E-03    -35.8904E+06    -132.759E+06    -17.3469E+06     1.99653E+06    -49.5690E-03     96.7775E-03    -47.2085E-03     34.6152E-03    -49.5595E-03     96.2196E-03    -47.0507E-03     34.4757E-03
            2092     4.29468E-03     20.5557E-03    -39.3536E+06     -140.12E+06    -24.3132E+06     1.40033E+06    -48.5202E-03     95.3717E-03    -46.8515E-03     28.6072E-03    -48.4963E-03     94.7812E-03    -46.7128E-03     28.5011E-03
            2093     3.43677E-03     20.5275E-03    -43.0831E+06    -148.322E+06    -31.6685E+06     1.55170E+06    -47.6286E-03     94.1767E-03    -46.5481E-03     22.7762E-03    -47.5934E-03     93.5539E-03    -46.4289E-03     22.7054E-03
            2094     2.57812E-03     20.5056E-03    -46.3622E+06    -153.030E+06    -39.0978E+06     1.32136E+06    -46.9155E-03     93.2117E-03    -46.2961E-03     17.0610E-03    -46.8742E-03     92.5759E-03    -46.2025E-03     17.0146E-03
            2095     1.71902E-03     20.4899E-03    -48.6807E+06    -157.234E+06    -45.7203E+06     983.422E+03    -46.3917E-03     92.4981E-03    -46.1064E-03     11.4376E-03    -46.3432E-03     91.8512E-03    -46.0364E-03     11.4098E-03
            2096     859.523E-06     20.4802E-03    -50.1149E+06    -159.592E+06    -49.5065E+06     678.343E+03    -46.0935E-03     92.0585E-03    -45.9651E-03     6.25043E-03    -46.0414E-03     91.4062E-03    -45.9085E-03     6.23776E-03
            2097     16.1976E-03     21.0033E-03    -5.96109E+06     143.905E+06     98.3075E+06    -177.721E+03    -68.6771E-03     122.731E-03    -54.0536E-03     171.461E-03    -76.0624E-03     130.321E-03    -53.7621E-03     171.799E-03
            2098     15.3518E-03     20.7134E-03    -10.8841E+06     137.357E+06     83.4888E+06     919.528E+03    -75.0488E-03     128.435E-03    -53.3864E-03     260.982E-03    -84.9842E-03     138.577E-03    -53.1523E-03     259.250E-03
            2099     14.5196E-03     20.4684E-03    -12.4580E+06     113.389E+06     43.1536E+06     476.451E+03    -70.3720E-03     122.918E-03    -52.5461E-03     198.827E-03    -75.3663E-03     128.145E-03    -52.4767E-03     196.284E-03
            2100     13.6725E-03     20.3047E-03    -15.5728E+06     71.5113E+06     5.34742E+06     783.275E+03    -64.7160E-03     116.511E-03    -51.7948E-03     141.820E-03    -66.8921E-03     118.870E-03    -51.8492E-03     139.951E-03
            2101     12.8252E-03     20.1759E-03    -17.3000E+06     17.6482E+06    -6.95081E+06     2.11054E+06    -62.5217E-03     113.748E-03    -51.2260E-03     113.622E-03    -63.7202E-03     114.968E-03    -51.2613E-03     112.194E-03
            2102     11.9776E-03     20.0687E-03    -18.1276E+06    -25.9541E+06    -6.79321E+06     3.20151E+06    -60.8754E-03     111.574E-03    -50.6990E-03     96.5164E-03    -61.5923E-03     112.155E-03    -50.6690E-03     95.4214E-03
            2103     11.1286E-03     19.9741E-03    -19.3823E+06    -53.7484E+06    -6.72873E+06     3.26910E+06    -59.3734E-03     109.520E-03    -50.1466E-03     85.1627E-03    -59.8269E-03     109.734E-03    -50.0742E-03     84.3061E-03
            2104     10.2787E-03     19.8891E-03    -20.4390E+06    -72.9444E+06    -6.36425E+06     2.86552E+06    -57.9066E-03     107.490E-03    -49.5837E-03     75.7145E-03    -58.1947E-03     107.465E-03    -49.4802E-03     75.0390E-03
            2105     9.42761E-03     19.8133E-03    -21.7803E+06    -87.1838E+06    -6.59899E+06     2.83955E+06    -56.3320E-03     105.351E-03    -49.0188E-03     66.8482E-03    -56.5088E-03     105.160E-03    -48.8938E-03     66.3226E-03
            2106     8.57550E-03     19.7458E-03    -23.8470E+06    -100.399E+06    -5.90087E+06     3.90965E+06    -54.7602E-03     103.236E-03    -48.4758E-03     58.9196E-03    -54.8642E-03     102.916E-03    -48.3251E-03     58.5269E-03
            2107     7.72211E-03     19.6859E-03    -26.5766E+06    -107.672E+06    -6.55228E+06     4.02069E+06    -53.2090E-03     101.153E-03    -47.9443E-03     51.7896E-03    -53.2705E-03     100.757E-03    -47.7824E-03     51.4942E-03
            2108     6.86760E-03     19.6329E-03    -30.0163E+06    -116.966E+06    -10.2872E+06     3.24008E+06    -51.7146E-03     99.1503E-03    -47.4357E-03     45.0819E-03    -51.7431E-03     98.6870E-03    -47.2740E-03     44.8542E-03
            2109     6.01196E-03     19.5869E-03    -33.5130E+06    -126.980E+06    -14.7849E+06     2.80839E+06    -50.3159E-03     97.2826E-03    -46.9667E-03     38.7349E-03    -50.3193E-03     96.7592E-03    -46.8079E-03     38.5637E-03
            2110     5.15522E-03     19.5473E-03    -36.6605E+06    -131.132E+06    -19.6318E+06     2.24486E+06    -49.0393E-03     95.5750E-03    -46.5358E-03     32.7498E-03    -49.0304E-03     95.0275E-03    -46.3906E-03     32.6210E-03
            2111     4.29762E-03     19.5142E-03    -39.9618E+06    -140.028E+06    -25.5253E+06     2.17769E+06    -47.9314E-03     94.0912E-03    -46.1598E-03     26.9469E-03    -47.9075E-03     93.5024E-03    -46.0265E-03     26.8568E-03
            2112     3.43911E-03     19.4872E-03    -43.1096E+06    -147.428E+06    -32.3582E+06     2.17224E+06    -46.9821E-03     92.8168E-03    -45.8347E-03     21.3817E-03    -46.9464E-03     92.1985E-03    -45.7202E-03     21.3236E-03
            2113     2.57998E-03     19.4663E-03    -45.8941E+06    -152.002E+06    -39.4513E+06     1.88913E+06    -46.2334E-03     91.7979E-03    -45.5645E-03     16.0099E-03    -46.1903E-03     91.1666E-03    -45.4748E-03     15.9742E-03
            2114     1.72036E-03     19.4512E-03    -48.2665E+06    -155.952E+06    -45.3674E+06     1.55202E+06    -45.6854E-03     91.0426E-03    -45.3572E-03     10.7029E-03    -45.6370E-03     90.4008E-03    -45.2880E-03     10.6844E-03
            2115     860.381E-06     19.4422E-03    -49.7558E+06    -157.857E+06    -49.0089E+06     970.708E+03    -45.3282E-03     90.5346E-03    -45.2065E-03     5.90640E-03    -45.2774E-03     89.8897E-03    -45.1505E-03     5.89859E-03
            2116     16.2063E-03     19.9404E-03    -5.16552E+06     145.384E+06     99.2714E+06     529.104E+03    -71.4193E-03     125.357E-03    -53.9373E-03     161.458E-03    -78.3821E-03     132.530E-03    -53.6442E-03     161.475E-03
            2117     15.3711E-03     19.6425E-03    -10.0254E+06     138.763E+06     78.4610E+06    -1.40226E+06    -74.3347E-03     127.474E-03    -53.1389E-03     251.972E-03    -83.7638E-03     137.132E-03    -52.9332E-03     250.125E-03
            2118     14.5210E-03     19.4054E-03    -15.2096E+06     109.945E+06     33.6606E+06    -172.736E+03    -69.4589E-03     121.747E-03    -52.2885E-03     194.943E-03    -74.2844E-03     126.811E-03    -52.2575E-03     192.452E-03
            2119     13.6758E-03     19.2432E-03    -18.3789E+06     71.0946E+06     4.90647E+06     1.95613E+06    -65.2787E-03     116.839E-03    -51.5605E-03     140.204E-03    -67.4378E-03     119.171E-03    -51.6124E-03     138.330E-03
            2120     12.8296E-03     19.1165E-03    -20.0681E+06     17.3968E+06    -6.75442E+06     2.00429E+06    -62.8903E-03     113.832E-03    -50.9416E-03     111.751E-03    -64.0756E-03     115.027E-03    -50.9715E-03     110.326E-03
            2121     11.9815E-03     19.0111E-03    -20.7772E+06    -26.6682E+06    -8.84416E+06     2.45893E+06    -61.1940E-03     111.546E-03    -50.3516E-03     94.3151E-03    -61.8996E-03     112.109E-03    -50.3270E-03     93.2182E-03
            2122     11.1330E-03     18.9185E-03    -20.8913E+06    -53.0033E+06    -7.77353E+06     2.92153E+06    -59.6640E-03     109.407E-03    -49.7429E-03     82.7035E-03    -60.1084E-03     109.612E-03    -49.6747E-03     81.8520E-03
            2123     10.2832E-03     18.8354E-03    -21.9564E+06    -72.3865E+06    -7.32685E+06     2.94065E+06    -58.0468E-03     107.168E-03    -49.1211E-03     72.9685E-03    -58.3279E-03     107.135E-03    -49.0209E-03     72.3067E-03
            2124     9.43250E-03     18.7617E-03    -24.0191E+06    -87.6522E+06    -7.91270E+06     3.49950E+06    -56.3292E-03     104.829E-03    -48.4997E-03     63.9880E-03    -56.5034E-03     104.630E-03    -48.3773E-03     63.4844E-03
            2125     8.58025E-03     18.6964E-03    -25.8586E+06    -100.558E+06    -8.30912E+06     3.78556E+06    -54.6496E-03     102.545E-03    -47.8951E-03     56.1255E-03    -54.7512E-03     102.222E-03    -47.7534E-03     55.7447E-03
            2126     7.72690E-03     18.6385E-03    -26.9959E+06    -106.641E+06    -8.07436E+06     3.91815E+06    -52.9912E-03     100.301E-03    -47.3098E-03     48.9806E-03    -53.0474E-03     99.9063E-03    -47.1564E-03     48.6964E-03
            2127     6.87216E-03     18.5877E-03    -28.8081E+06    -116.230E+06    -10.2499E+06     4.31526E+06    -51.3586E-03     98.1152E-03    -46.7566E-03     42.3361E-03    -51.3772E-03     97.6488E-03    -46.5975E-03     42.1335E-03
            2128     6.01619E-03     18.5435E-03    -31.9421E+06    -125.374E+06    -14.9295E+06     4.00294E+06    -49.8354E-03     96.0762E-03    -46.2408E-03     36.1690E-03    -49.8294E-03     95.5551E-03    -46.0873E-03     36.0230E-03
            2129     5.15910E-03     18.5057E-03    -35.8851E+06    -130.038E+06    -20.5020E+06     3.42065E+06    -48.4561E-03     94.2260E-03    -45.7699E-03     30.4240E-03    -48.4412E-03     93.6816E-03    -45.6319E-03     30.3187E-03
            2130     4.30093E-03     18.4740E-03    -39.7420E+06    -139.236E+06    -26.3692E+06     3.05458E+06    -47.2591E-03     92.6220E-03    -45.3629E-03     24.9163E-03    -47.2324E-03     92.0364E-03    -45.2352E-03     24.8442E-03
            2131     3.44194E-03     18.4484E-03    -43.2859E+06    -146.328E+06    -32.6520E+06     2.73074E+06    -46.2409E-03     91.2545E-03    -45.0136E-03     19.6989E-03    -46.2063E-03     90.6414E-03    -44.9019E-03     19.6532E-03
            2132     2.58212E-03     18.4284E-03    -46.2332E+06    -150.649E+06    -39.4099E+06     2.37492E+06    -45.4092E-03     90.1374E-03    -44.7282E-03     14.7367E-03    -45.3692E-03     89.5127E-03    -44.6398E-03     14.7111E-03
            2133     1.72170E-03     18.4142E-03    -48.1988E+06    -154.220E+06    -44.8755E+06     1.71399E+06    -44.8243E-03     89.3467E-03    -44.5224E-03     9.88109E-03    -44.7786E-03     88.7124E-03    -44.4532E-03     9.86736E-03
            2134     860.887E-06     18.4056E-03    -49.2238E+06    -155.624E+06    -48.3974E+06     949.091E+03    -44.4891E-03     88.8703E-03    -44.3812E-03     5.44661E-03    -44.4398E-03     88.2348E-03    -44.3261E-03     5.43993E-03
            2135     16.2168E-03     18.8634E-03    -5.40744E+06     145.875E+06     98.9002E+06    -15.7105E+03    -73.4473E-03     127.293E-03    -53.8453E-03     167.865E-03    -80.5503E-03     134.608E-03    -53.5545E-03     167.816E-03
            2136     15.3674E-03     18.5840E-03    -9.77856E+06     140.379E+06     77.1359E+06     1.43659E+06    -75.3160E-03     128.314E-03    -52.9986E-03     258.828E-03    -84.7992E-03     138.038E-03    -52.8022E-03     256.970E-03
            2137     14.5229E-03     18.3395E-03    -15.2921E+06     108.957E+06     28.8538E+06     1.67183E+06    -70.5691E-03     122.672E-03    -52.1026E-03     195.471E-03    -75.3070E-03     127.659E-03    -52.0942E-03     192.953E-03
            2138     13.6790E-03     18.1810E-03    -17.4409E+06     70.0422E+06     3.63276E+06     2.20860E+06    -66.0362E-03     117.362E-03    -51.3261E-03     137.286E-03    -68.1299E-03     119.632E-03    -51.3842E-03     135.404E-03
            2139     12.8326E-03     18.0568E-03    -18.8155E+06     18.0785E+06    -5.90722E+06     2.90466E+06    -63.6083E-03     114.250E-03    -50.6419E-03     109.283E-03    -64.7585E-03     115.415E-03    -50.6703E-03     107.868E-03
            2140     11.9860E-03     17.9531E-03    -20.0438E+06    -26.2446E+06    -10.2120E+06     2.38573E+06    -61.8671E-03     111.830E-03    -49.9631E-03     91.4532E-03    -62.5434E-03     112.372E-03    -49.9470E-03     90.3586E-03
            2141     11.1379E-03     17.8629E-03    -21.2430E+06    -53.2247E+06    -9.09663E+06     2.53301E+06    -60.1495E-03     109.424E-03    -49.2745E-03     79.3911E-03    -60.5734E-03     109.610E-03    -49.2120E-03     78.5436E-03
            2142     10.2889E-03     17.7819E-03    -22.5220E+06    -72.5264E+06    -8.53111E+06     3.52310E+06    -58.2768E-03     106.852E-03    -48.5750E-03     69.3779E-03    -58.5418E-03     106.804E-03    -48.4798E-03     68.7376E-03
            2143     9.43801E-03     17.7109E-03    -23.8590E+06    -87.6936E+06    -8.63173E+06     3.93728E+06    -56.3840E-03     104.266E-03    -47.8820E-03     60.3309E-03    -56.5429E-03     104.054E-03    -47.7634E-03     59.8484E-03
            2144     8.58601E-03     17.6477E-03    -25.3010E+06    -99.4194E+06    -9.48769E+06     3.61972E+06    -54.5592E-03     101.762E-03    -47.2026E-03     52.4749E-03    -54.6475E-03     101.435E-03    -47.0692E-03     52.1072E-03
            2145     7.73250E-03     17.5921E-03    -27.2730E+06    -106.752E+06    -9.91704E+06     3.46528E+06    -52.7335E-03     99.2833E-03    -46.5498E-03     45.3563E-03    -52.7802E-03     98.8831E-03    -46.4051E-03     45.0809E-03
            2146     6.87765E-03     17.5435E-03    -29.5322E+06    -116.495E+06    -10.9090E+06     4.45341E+06    -50.9500E-03     96.8906E-03    -45.9406E-03     38.8386E-03    -50.9650E-03     96.4189E-03    -45.7834E-03     38.6507E-03
            2147     6.02136E-03     17.5015E-03    -32.1550E+06    -123.828E+06    -15.0989E+06     5.08818E+06    -49.2673E-03     94.6345E-03    -45.3671E-03     32.9554E-03    -49.2602E-03     94.1174E-03    -45.2165E-03     32.8349E-03
            2148     5.16376E-03     17.4655E-03    -35.0820E+06    -128.700E+06    -20.8918E+06     4.76018E+06    -47.7461E-03     92.5927E-03    -44.8466E-03     27.5535E-03    -47.7257E-03     92.0514E-03    -44.7135E-03     27.4752E-03
            2149     4.30502E-03     17.4356E-03    -38.4587E+06    -137.902E+06    -26.2377E+06     4.51506E+06    -46.4339E-03     90.8382E-03    -44.4043E-03     22.4651E-03    -46.4010E-03     90.2553E-03    -44.2798E-03     22.4197E-03
            2150     3.44523E-03     17.4113E-03    -42.2533E+06    -144.494E+06    -32.2021E+06     3.95593E+06    -45.3313E-03     89.3598E-03    -44.0285E-03     17.6933E-03    -45.2937E-03     88.7526E-03    -43.9187E-03     17.6694E-03
            2151     2.58468E-03     17.3925E-03    -45.5248E+06    -148.477E+06    -39.0122E+06     2.83366E+06    -44.4378E-03     88.1615E-03    -43.7237E-03     13.1791E-03    -44.3974E-03     87.5455E-03    -43.6374E-03     13.1639E-03
            2152     1.72342E-03     17.3791E-03    -47.8401E+06    -152.175E+06    -45.0059E+06     1.73216E+06    -43.8071E-03     87.3156E-03    -43.5085E-03     8.84510E-03    -43.7621E-03     86.6910E-03    -43.4435E-03     8.83460E-03
            2153     861.858E-06     17.3708E-03    -49.0790E+06    -153.531E+06    -48.3987E+06     859.849E+03    -43.4506E-03     86.8432E-03    -43.3926E-03     4.83658E-03    -43.4035E-03     86.2178E-03    -43.3408E-03     4.83021E-03
            2154     16.1964E-03     17.7921E-03    -6.35735E+06     143.415E+06     96.3570E+06    -445.040E+03    -72.8428E-03     126.797E-03    -53.9538E-03     164.181E-03    -79.7786E-03     133.939E-03    -53.6708E-03     163.899E-03
            2155     15.3624E-03     17.5067E-03    -12.0917E+06     137.477E+06     76.5104E+06     1.17312E+06    -78.3385E-03     131.353E-03    -53.0141E-03     249.034E-03    -87.5540E-03     140.791E-03    -52.8133E-03     246.813E-03
            2156     14.5268E-03     17.2743E-03    -14.1410E+06     110.300E+06     33.3344E+06     2.59943E+06    -72.2945E-03     124.238E-03    -51.9436E-03     187.694E-03    -76.8516E-03     129.040E-03    -51.9164E-03     185.088E-03
            2157     13.6820E-03     17.1186E-03    -17.6112E+06     69.2527E+06     4.23708E+06     3.02946E+06    -66.6983E-03     117.738E-03    -51.0399E-03     133.409E-03    -68.7218E-03     119.933E-03    -51.0936E-03     131.532E-03
            2158     12.8376E-03     16.9959E-03    -19.3983E+06     18.8916E+06    -6.58127E+06     3.05683E+06    -64.5293E-03     114.791E-03    -50.2615E-03     105.149E-03    -65.6403E-03     115.919E-03    -50.2937E-03     103.726E-03
            2159     11.9914E-03     16.8951E-03    -20.0655E+06    -25.1200E+06    -10.8756E+06     2.73496E+06    -62.6638E-03     112.144E-03    -49.4800E-03     87.2522E-03    -63.3097E-03     112.661E-03    -49.4689E-03     86.1653E-03
            2160     11.1444E-03     16.8067E-03    -21.0134E+06    -53.8583E+06    -9.85647E+06     2.96003E+06    -60.7353E-03     109.426E-03    -48.6904E-03     74.8572E-03    -61.1303E-03     109.584E-03    -48.6311E-03     74.0265E-03
            2161     10.2955E-03     16.7292E-03    -22.0505E+06     -72.834E+06    -9.11069E+06     3.50094E+06    -58.6391E-03     106.529E-03    -47.8899E-03     64.6813E-03    -58.8796E-03     106.459E-03    -47.7979E-03     64.0571E-03
            2162     9.44529E-03     16.6602E-03    -22.9700E+06    -87.2730E+06    -8.64147E+06     3.85756E+06    -56.5447E-03     103.644E-03    -47.0990E-03     55.5442E-03    -56.6834E-03     103.416E-03    -46.9824E-03     55.0789E-03
            2163     8.59334E-03     16.6000E-03    -24.3870E+06    -98.3390E+06    -9.52048E+06     3.93003E+06    -54.4520E-03     100.776E-03    -46.3244E-03     47.6325E-03    -54.5244E-03     100.441E-03    -46.1941E-03     47.2876E-03
            2164     7.73980E-03     16.5467E-03    -26.4750E+06    -106.787E+06    -10.5401E+06     4.16785E+06    -52.3712E-03     97.9575E-03    -45.5863E-03     40.6434E-03    -52.4033E-03     97.5472E-03    -45.4457E-03     40.3952E-03
            2165     6.88461E-03     16.5008E-03    -29.3017E+06    -117.212E+06    -11.7819E+06     5.00526E+06    -50.3721E-03     95.2763E-03    -44.9041E-03     34.4090E-03    -50.3767E-03     94.7950E-03    -44.7506E-03     34.2443E-03
            2166     6.02786E-03     16.4610E-03    -32.2684E+06    -122.768E+06    -15.5969E+06     5.64715E+06    -48.4962E-03     92.7640E-03    -44.2677E-03     28.9822E-03    -48.4857E-03     92.2483E-03    -44.1209E-03     28.8827E-03
            2167     5.16963E-03     16.4273E-03    -35.3404E+06    -127.306E+06    -21.3458E+06     5.73883E+06    -46.8043E-03     90.5010E-03    -43.6967E-03     24.0871E-03    -46.7833E-03     89.9645E-03    -43.5676E-03     24.0329E-03
            2168     4.31004E-03     16.3991E-03    -38.4737E+06    -136.395E+06    -26.8979E+06     5.68969E+06    -45.3650E-03     88.5807E-03    -43.2157E-03     19.5743E-03    -45.3314E-03     88.0042E-03    -43.0966E-03     19.5532E-03
            2169     3.44941E-03     16.3764E-03    -41.3048E+06    -141.679E+06    -32.1103E+06     4.97085E+06    -44.1929E-03     87.0057E-03    -42.8128E-03     15.3626E-03    -44.1536E-03     86.4098E-03    -42.7081E-03     15.3587E-03
            2170     2.58781E-03     16.3588E-03    -44.0501E+06    -145.651E+06    -38.0573E+06     3.66858E+06    -43.2735E-03     85.7588E-03    -42.4854E-03     11.3660E-03    -43.2305E-03     85.1527E-03    -42.4006E-03     11.3664E-03
            2171     1.72563E-03     16.3462E-03    -46.6060E+06    -149.523E+06    -43.8398E+06     2.45115E+06    -42.6134E-03     84.8499E-03    -42.2365E-03     7.63711E-03    -42.5675E-03     84.2347E-03    -42.1713E-03     7.63903E-03
            2172     862.848E-06     16.3385E-03    -48.4843E+06    -151.304E+06    -47.8694E+06     1.32622E+06    -42.2693E-03     84.2515E-03    -41.9822E-03     4.00784E-03    -42.2232E-03     83.6355E-03    -41.9318E-03     4.00952E-03
            2173     16.2123E-03     16.7203E-03    -4.12567E+06     144.756E+06     98.5959E+06     1.09529E+06    -76.3975E-03     130.203E-03    -53.8052E-03     156.030E-03    -82.9573E-03     136.977E-03    -53.5161E-03     155.467E-03
            2174     15.3748E-03     16.4332E-03    -9.93178E+06     136.502E+06     74.4086E+06     746.747E+03    -77.5014E-03     130.242E-03    -52.7407E-03     241.912E-03    -86.2715E-03     139.246E-03    -52.5522E-03     239.657E-03
            2175     14.5305E-03     16.2103E-03    -16.1189E+06     107.244E+06     29.9561E+06     2.67054E+06    -72.3508E-03     124.004E-03    -51.6530E-03     183.608E-03    -76.7401E-03     128.630E-03    -51.6354E-03     181.016E-03
            2176     13.6881E-03     16.0541E-03    -17.5965E+06     70.1271E+06     6.18343E+06     3.75650E+06    -68.4421E-03     119.120E-03    -50.6776E-03     130.002E-03    -70.4088E-03     121.255E-03    -50.7228E-03     128.079E-03
            2177     12.8440E-03     15.9355E-03    -18.4768E+06     20.2790E+06    -6.02878E+06     3.30371E+06    -65.8227E-03     115.575E-03    -49.7528E-03     100.472E-03    -66.8820E-03     116.659E-03    -49.7855E-03     99.0407E-03
            2178     11.9991E-03     15.8358E-03    -19.3789E+06    -24.6463E+06    -10.5579E+06     2.99462E+06    -63.6107E-03     112.452E-03    -48.8416E-03     82.1219E-03    -64.2147E-03     112.931E-03    -48.8305E-03     81.0461E-03
            2179     11.1527E-03     15.7514E-03    -20.0074E+06    -53.9820E+06    -10.2092E+06     3.18121E+06    -61.4524E-03     109.373E-03    -47.9210E-03     69.1478E-03    -61.8099E-03     109.498E-03    -47.8647E-03     68.3361E-03
            2180     10.3047E-03     15.6761E-03    -20.8298E+06    -72.8590E+06    -9.35536E+06     3.56422E+06    -59.1544E-03     106.144E-03    -46.9894E-03     58.7043E-03    -59.3636E-03     106.048E-03    -46.9004E-03     58.1004E-03
            2181     9.45487E-03     15.6107E-03    -22.1275E+06    -86.9284E+06    -8.80538E+06     3.96958E+06    -56.7140E-03     102.784E-03    -46.0704E-03     49.5173E-03    -56.8296E-03     102.539E-03    -45.9563E-03     49.0754E-03
            2182     8.60316E-03     15.5531E-03    -23.6635E+06    -97.9413E+06    -9.82742E+06     4.33768E+06    -54.2403E-03     99.4195E-03    -45.1792E-03     41.7585E-03    -54.2948E-03     99.0710E-03    -45.0520E-03     41.4416E-03
            2183     7.74945E-03     15.5032E-03    -25.6849E+06    -106.990E+06    -11.1401E+06     5.08231E+06    -51.8191E-03     96.1604E-03    -44.3413E-03     35.0865E-03    -51.8355E-03     95.7382E-03    -44.2046E-03     34.8716E-03
            2184     6.89375E-03     15.4598E-03    -28.1863E+06    -117.378E+06    -11.7862E+06     6.02188E+06    -49.5359E-03     93.1160E-03    -43.5800E-03     29.2836E-03    -49.5273E-03     92.6248E-03    -43.4279E-03     29.1508E-03
            2185     6.03624E-03     15.4229E-03    -31.2006E+06    -121.864E+06    -15.2780E+06     6.59228E+06    -47.4327E-03     90.3113E-03    -42.8786E-03     24.3825E-03    -47.4135E-03     89.7930E-03    -42.7331E-03     24.3110E-03
            2186     5.17702E-03     15.3914E-03    -34.3647E+06    -126.066E+06    -20.5647E+06     6.79322E+06    -45.5763E-03     87.8347E-03    -42.2585E-03     20.0949E-03    -45.5500E-03     87.2985E-03    -42.1287E-03     20.0673E-03
            2187     4.31638E-03     15.3653E-03    -37.4137E+06    -134.208E+06    -25.9121E+06     6.51818E+06    -44.0277E-03     85.7640E-03    -41.7363E-03     16.2167E-03    -43.9913E-03     85.1934E-03    -41.6170E-03     16.2165E-03
            2188     3.45448E-03     15.3441E-03    -40.2657E+06    -138.505E+06    -31.4015E+06     5.48288E+06    -42.7710E-03     84.0685E-03    -41.2975E-03     12.6465E-03    -42.7310E-03     83.4847E-03    -41.1952E-03     12.6569E-03
            2189     2.59180E-03     15.3278E-03    -42.7467E+06    -142.695E+06    -36.7604E+06     4.35963E+06    -41.8032E-03     82.7466E-03    -40.9434E-03     9.27923E-03    -41.7593E-03     82.1508E-03    -40.8583E-03     9.29410E-03
            2190     1.72826E-03     15.3162E-03    -44.7912E+06    -146.297E+06    -41.5474E+06     3.21389E+06    -41.1017E-03     81.7684E-03    -40.6667E-03     6.24487E-03    -41.0544E-03     81.1630E-03    -40.5973E-03     6.26037E-03
            2191     864.509E-06     15.3089E-03    -46.4173E+06    -147.957E+06    -45.4169E+06     1.77274E+06    -40.7359E-03     81.0735E-03    -40.3376E-03     3.26154E-03    -40.6878E-03     80.4676E-03    -40.2828E-03     3.27105E-03
            2192     16.2158E-03     15.6426E-03    -5.56343E+06     142.863E+06     97.4444E+06     907.677E+03    -78.5115E-03     132.280E-03    -53.7684E-03     161.825E-03    -85.1298E-03     139.103E-03    -53.4803E-03     161.074E-03
            2193     15.3730E-03     15.3687E-03    -9.56108E+06     135.411E+06     75.8568E+06     3.80362E+06    -80.1156E-03     132.737E-03    -52.6210E-03     246.481E-03    -88.8899E-03     141.738E-03    -52.4242E-03     244.005E-03
            2194     14.5325E-03     15.1398E-03    -13.8210E+06     107.491E+06     30.7406E+06     3.98509E+06    -75.4978E-03     126.866E-03    -51.3680E-03     180.361E-03    -79.7814E-03     131.393E-03    -51.3501E-03     177.575E-03
            2195     13.6934E-03     14.9892E-03    -16.1289E+06     71.7453E+06     4.60316E+06     3.56985E+06    -70.7160E-03     120.898E-03    -50.1817E-03     123.951E-03    -72.5804E-03     122.947E-03    -50.2393E-03     121.969E-03
            2196     12.8525E-03     14.8726E-03    -16.8217E+06     21.6533E+06    -6.63640E+06     3.23643E+06    -67.5681E-03     116.647E-03    -49.0785E-03     94.5743E-03    -68.5610E-03     117.676E-03    -49.1186E-03     93.1242E-03
            2197     12.0091E-03     14.7775E-03    -17.1173E+06    -24.3521E+06    -10.4573E+06     3.45743E+06    -64.9696E-03     112.967E-03    -47.9971E-03     75.7820E-03    -65.5185E-03     113.399E-03    -47.9892E-03     74.7164E-03
            2198     11.1638E-03     14.6951E-03    -18.0667E+06    -53.4332E+06    -9.82061E+06     3.69193E+06    -62.3783E-03     109.287E-03    -46.9090E-03     62.4199E-03    -62.6926E-03     109.377E-03    -46.8545E-03     61.6323E-03
            2199     10.3168E-03     14.6240E-03    -19.2310E+06    -72.9065E+06    -9.35170E+06     4.03594E+06    -59.6559E-03     105.472E-03    -45.8164E-03     51.7498E-03    -59.8306E-03     105.347E-03    -45.7296E-03     51.1749E-03
            2200     9.46747E-03     14.5618E-03    -20.6385E+06    -86.6763E+06    -8.60903E+06     4.57902E+06    -56.7448E-03     101.496E-03    -44.7509E-03     42.7099E-03    -56.8337E-03     101.229E-03    -44.6384E-03     42.3017E-03
            2201     8.61572E-03     14.5082E-03    -22.6376E+06    -97.9125E+06    -9.47329E+06     5.17637E+06    -53.8365E-03     97.5693E-03    -43.7327E-03     35.2329E-03    -53.8719E-03     97.2045E-03    -43.6053E-03     34.9524E-03
            2202     7.76152E-03     14.4615E-03    -24.8261E+06    -107.171E+06    -11.1862E+06     5.95089E+06    -51.0405E-03     93.8243E-03    -42.7839E-03     28.9860E-03    -51.0418E-03     93.3897E-03    -42.6484E-03     28.8058E-03
            2203     6.90514E-03     14.4217E-03    -27.2128E+06    -117.319E+06    -11.8876E+06     6.88747E+06    -48.4529E-03     90.3834E-03    -41.9305E-03     23.6803E-03    -48.4321E-03     89.8840E-03    -41.7803E-03     23.5790E-03
            2204     6.04661E-03     14.3875E-03    -29.8151E+06    -120.882E+06    -14.4297E+06     7.48014E+06    -46.1063E-03     87.2630E-03    -41.1567E-03     19.3172E-03    -46.0779E-03     86.7415E-03    -41.0104E-03     19.2741E-03
            2205     5.18623E-03     14.3587E-03    -32.5359E+06    -124.593E+06    -18.4034E+06     7.60482E+06    -44.0737E-03     84.5536E-03    -40.4798E-03     15.6562E-03    -44.0404E-03     84.0157E-03    -40.3440E-03     15.6527E-03
            2206     4.32426E-03     14.3346E-03    -35.3536E+06    -131.487E+06    -22.9389E+06     7.19050E+06    -42.3816E-03     82.2898E-03    -39.9082E-03     12.4703E-03    -42.3411E-03     81.7234E-03    -39.7810E-03     12.4896E-03
            2207     3.46111E-03     14.3152E-03    -38.0561E+06    -135.160E+06    -29.0618E+06     6.09179E+06    -40.9968E-03     80.4231E-03    -39.4264E-03     9.64923E-03    -40.9527E-03     79.8482E-03    -39.3205E-03     9.67581E-03
            2208     2.59667E-03     14.3003E-03    -40.5966E+06    -139.476E+06    -35.0095E+06     4.79743E+06    -39.9503E-03     78.9944E-03    -39.0441E-03     7.06001E-03    -39.9022E-03     78.4083E-03    -38.9581E-03     7.08648E-03
            2209     1.73170E-03     14.2896E-03    -42.5530E+06    -142.613E+06    -39.6074E+06     3.41946E+06    -39.1811E-03     77.9408E-03    -38.7597E-03     4.70106E-03    -39.1306E-03     77.3475E-03    -38.6892E-03     4.72303E-03
            2210     865.780E-06     14.2832E-03    -43.5557E+06    -144.008E+06    -42.8699E+06     1.82258E+06    -38.6496E-03     77.2668E-03    -38.6172E-03     2.43888E-03    -38.5966E-03     76.6726E-03    -38.5595E-03     2.45103E-03
            2211     16.1971E-03     14.5632E-03    -5.99558E+06     140.100E+06     95.2752E+06     821.259E+03    -80.1068E-03     133.944E-03    -53.8369E-03     152.790E-03    -86.4227E-03     140.459E-03    -53.5550E-03     151.593E-03
            2212     15.3692E-03     14.2849E-03    -12.3901E+06     131.895E+06      75.595E+06     1.08743E+06    -84.7736E-03     137.247E-03    -52.4737E-03     232.718E-03    -93.1315E-03     145.810E-03    -52.2690E-03     229.628E-03
            2213     14.5416E-03     14.0688E-03    -12.7401E+06     107.590E+06     34.3689E+06     2.78797E+06    -78.5885E-03     129.517E-03    -50.9287E-03     168.987E-03    -82.6095E-03     133.776E-03    -50.8944E-03     165.992E-03
            2214     13.7037E-03     13.9219E-03    -14.0559E+06     72.2814E+06     5.35008E+06     3.83981E+06    -72.6787E-03     122.181E-03    -49.5028E-03     116.608E-03    -74.4251E-03     124.120E-03    -49.5604E-03     114.587E-03
            2215     12.8635E-03     13.8093E-03    -15.1439E+06     23.1971E+06    -6.14411E+06     3.73764E+06    -69.4756E-03     117.678E-03    -48.2021E-03     87.4288E-03    -70.3955E-03     118.645E-03    -48.2445E-03     85.9697E-03
            2216     12.0221E-03     13.7174E-03    -16.3067E+06    -24.0281E+06    -10.9087E+06     3.76056E+06    -66.4997E-03     113.415E-03    -46.9156E-03     68.4097E-03    -66.9979E-03     113.803E-03    -46.9116E-03     67.3521E-03
            2217     11.1785E-03     13.6398E-03    -17.1167E+06    -52.9435E+06    -10.0102E+06     4.42931E+06    -63.3237E-03     108.957E-03    -45.6333E-03     55.0753E-03    -63.5983E-03     109.013E-03    -45.5818E-03     54.3175E-03
            2218     10.3320E-03     13.5723E-03    -18.4113E+06    -72.5646E+06    -9.49290E+06     4.80730E+06    -59.9894E-03     104.355E-03    -44.3660E-03     44.4545E-03    -60.1338E-03     104.205E-03    -44.2816E-03     43.9174E-03
            2219     9.48287E-03     13.5149E-03    -20.0615E+06    -86.8541E+06    -8.65511E+06     5.40747E+06    -56.6051E-03     99.7515E-03    -43.1465E-03     35.6132E-03    -56.6717E-03     99.4642E-03    -43.0347E-03     35.2440E-03
            2220     8.63088E-03     13.4651E-03    -21.8341E+06    -97.5873E+06    -8.75890E+06     6.15172E+06    -53.2626E-03     95.2549E-03    -41.9922E-03     28.4408E-03    -53.2819E-03     94.8759E-03    -41.8628E-03     28.1997E-03
            2221     7.77624E-03     13.4228E-03    -23.9136E+06    -107.235E+06    -10.4354E+06     6.83507E+06    -50.0786E-03     91.0013E-03    -40.9227E-03     22.6314E-03    -50.0667E-03     90.5543E-03    -40.7847E-03     22.4866E-03
            2222     6.91888E-03     13.3863E-03    -26.1855E+06    -116.904E+06    -11.0508E+06     7.58863E+06    -47.1572E-03     87.1227E-03    -39.9654E-03     17.9011E-03    -47.1264E-03     86.6160E-03    -39.8132E-03     17.8296E-03
            2223     6.05926E-03     13.3557E-03    -28.7002E+06    -119.858E+06    -12.1697E+06     7.98202E+06    -44.5419E-03     83.6525E-03    -39.1107E-03     14.1742E-03    -44.5083E-03     83.1268E-03    -38.9561E-03     14.1544E-03
            2224     5.19749E-03     13.3295E-03    -31.3161E+06    -122.618E+06    -16.1810E+06     7.90182E+06    -42.2707E-03     80.6319E-03    -38.3612E-03     11.2763E-03    -42.2346E-03     80.0960E-03    -38.2189E-03     11.2899E-03
            2225     4.33399E-03     13.3080E-03    -33.7238E+06    -128.743E+06    -21.2312E+06     7.32263E+06    -40.3784E-03     78.1121E-03    -37.7337E-03     8.89256E-03    -40.3347E-03     77.5528E-03    -37.6042E-03     8.92384E-03
            2226     3.46879E-03     13.2904E-03    -36.1075E+06    -131.898E+06    -26.8663E+06     6.48293E+06    -38.8709E-03     76.0903E-03    -37.2194E-03     6.86314E-03    -38.8241E-03     75.5247E-03    -37.1102E-03     6.90241E-03
            2227     2.60269E-03     13.2770E-03    -38.3634E+06    -135.763E+06    -32.8378E+06     5.21849E+06    -37.7347E-03     74.5543E-03    -36.8196E-03     5.00985E-03    -37.6836E-03     73.9799E-03    -36.7313E-03     5.04709E-03
            2228     1.73548E-03     13.2674E-03    -40.1002E+06    -138.498E+06    -37.5301E+06     3.53491E+06    -36.9337E-03     73.4691E-03    -36.5354E-03     3.29095E-03    -36.8797E-03     72.8895E-03    -36.4641E-03     3.31785E-03
            2229     868.073E-06     13.2617E-03    -41.2460E+06    -140.110E+06    -40.5787E+06     1.97187E+06    -36.4071E-03     72.8294E-03    -36.4223E-03     1.60122E-03    -36.3514E-03     72.2480E-03    -36.3622E-03     1.61728E-03
            2230     16.2191E-03     13.4850E-03    -3.36576E+06     141.675E+06     98.0172E+06     2.23010E+06    -86.0246E-03     139.657E-03    -53.6319E-03     148.037E-03    -92.0875E-03     145.927E-03    -53.3424E-03     146.331E-03
            2231     15.3884E-03     13.2060E-03    -8.34254E+06     133.998E+06     77.9130E+06     1.84951E+06    -87.4338E-03     139.441E-03    -52.0076E-03     226.391E-03    -95.3808E-03     147.609E-03    -51.8002E-03     222.955E-03
            2232     14.5506E-03     12.9966E-03    -14.3258E+06     104.350E+06     31.7553E+06     1.77247E+06    -80.5583E-03     130.829E-03    -50.2709E-03     162.238E-03    -84.3253E-03     134.824E-03    -50.2427E-03     159.142E-03
            2233     13.7148E-03     12.8532E-03    -15.7792E+06     71.2039E+06     1.05938E+06     3.17653E+06    -75.3043E-03     123.935E-03    -48.6307E-03     110.363E-03    -76.9477E-03     125.773E-03    -48.7057E-03     108.275E-03
            2234     12.8781E-03     12.7446E-03    -16.2370E+06     24.6822E+06    -9.78342E+06     4.33918E+06    -71.5211E-03     118.622E-03    -47.1010E-03     80.2356E-03    -72.3747E-03     119.535E-03    -47.1622E-03     78.7749E-03
            2235     12.0381E-03     12.6574E-03    -17.0888E+06    -23.1618E+06    -11.7673E+06     4.49747E+06    -67.8860E-03     113.500E-03    -45.6136E-03     61.0636E-03    -68.3405E-03     113.846E-03    -45.6141E-03     60.0300E-03
            2236     11.1954E-03     12.5844E-03    -18.1671E+06    -53.0214E+06    -11.1729E+06     4.81716E+06    -64.1143E-03     108.248E-03    -44.1338E-03     47.7034E-03    -64.3584E-03     108.273E-03    -44.0864E-03     46.9761E-03
            2237     10.3496E-03     12.5223E-03    -19.1619E+06    -71.9469E+06    -9.43953E+06     5.46702E+06    -60.1762E-03     102.869E-03    -42.6926E-03     37.2794E-03    -60.3008E-03     102.698E-03    -42.6077E-03     36.7812E-03
            2238     9.50056E-03     12.4695E-03    -20.3414E+06    -86.9136E+06    -8.54000E+06     5.96524E+06    -56.2746E-03     97.5907E-03    -41.3161E-03     28.7673E-03    -56.3256E-03     97.2862E-03    -41.2033E-03     28.4349E-03
            2239     8.64836E-03     12.4249E-03    -21.9642E+06    -97.4879E+06    -8.01173E+06     6.78535E+06    -52.4953E-03     92.5213E-03    -40.0259E-03     22.0773E-03    -52.5047E-03     92.1302E-03    -39.8928E-03     21.8709E-03
            2240     7.79291E-03     12.3869E-03    -24.0205E+06    -106.884E+06    -8.72212E+06     7.59014E+06    -48.9081E-03     87.7488E-03    -38.8408E-03     16.8907E-03    -48.8919E-03     87.2935E-03    -38.6946E-03     16.7782E-03
            2241     6.93459E-03     12.3548E-03    -26.1786E+06    -115.874E+06    -9.65793E+06     7.82917E+06    -45.6258E-03     83.4068E-03    -37.7810E-03     12.9359E-03    -45.5935E-03     82.8983E-03    -37.6234E-03     12.8861E-03
            2242     6.07349E-03     12.3276E-03    -27.9904E+06    -118.508E+06    -10.2033E+06     7.66305E+06    -42.7133E-03     79.5625E-03    -36.8492E-03     10.0135E-03    -42.6780E-03     79.0366E-03    -36.6878E-03     10.0042E-03
            2243     5.21006E-03     12.3048E-03    -29.8992E+06    -120.917E+06    -14.0268E+06     7.68902E+06    -40.2104E-03     76.2517E-03    -36.0412E-03     7.85943E-03    -40.1711E-03     75.7174E-03    -35.8927E-03     7.88124E-03
            2244     4.34448E-03     12.2858E-03    -32.4178E+06    -125.865E+06    -19.8716E+06     7.40222E+06    -38.1487E-03     73.5180E-03    -35.3694E-03     6.19727E-03    -38.1035E-03     72.9683E-03    -35.2392E-03     6.23769E-03
            2245     3.47749E-03     12.2705E-03    -34.8048E+06    -128.830E+06    -25.3772E+06     6.35467E+06    -36.5312E-03     71.3649E-03    -34.8337E-03     4.82724E-03    -36.4840E-03     70.8100E-03    -34.7233E-03     4.87061E-03
            2246     2.60903E-03     12.2585E-03    -36.5382E+06    -131.909E+06    -30.9556E+06     5.15916E+06    -35.3374E-03     69.7642E-03    -34.4269E-03     3.55368E-03    -35.2852E-03     69.2035E-03    -34.3374E-03     3.59403E-03
            2247     1.73989E-03     12.2501E-03    -37.9291E+06    -134.409E+06    -35.3982E+06     3.67164E+06    -34.5299E-03     68.6761E-03    -34.1462E-03     2.35613E-03    -34.4740E-03     68.1107E-03    -34.0733E-03     2.38719E-03
            2248     869.903E-06     12.2448E-03    -38.8438E+06    -135.868E+06    -38.0572E+06     1.95266E+06    -34.1204E-03     68.0591E-03    -33.9387E-03     1.21590E-03    -34.0625E-03     67.4917E-03    -33.8757E-03     1.23275E-03
            2249     16.2101E-03     12.3906E-03    -5.21893E+06     139.283E+06     96.4752E+06     587.935E+03    -90.2851E-03     143.763E-03    -53.4776E-03     151.012E-03    -96.3068E-03     149.981E-03    -53.1896E-03     148.804E-03
            2250     15.3848E-03     12.1228E-03    -7.84479E+06     133.628E+06     79.8425E+06     3.17530E+06    -92.1191E-03     143.739E-03    -51.6201E-03     223.453E-03    -99.8626E-03     151.698E-03    -51.4032E-03     219.511E-03
            2251     14.5601E-03     11.9203E-03    -11.3521E+06     104.554E+06     32.8577E+06     4.26172E+06    -84.9212E-03     134.504E-03    -49.5824E-03     155.043E-03    -88.4747E-03     138.294E-03    -49.5533E-03     151.732E-03
            2252     13.7294E-03     11.7818E-03    -15.7539E+06     71.6718E+06    -1.29907E+06     4.48647E+06    -78.4877E-03     126.123E-03    -47.6356E-03     102.670E-03    -80.0123E-03     127.851E-03    -47.7232E-03     100.535E-03
            2253     12.8940E-03     11.6789E-03    -18.1785E+06     25.8959E+06    -9.79096E+06     4.29203E+06    -73.5129E-03     119.381E-03    -45.8677E-03     72.9246E-03    -74.3082E-03     120.233E-03    -45.9278E-03     71.4624E-03
            2254     12.0559E-03     11.5971E-03    -18.6018E+06    -22.4613E+06    -10.8725E+06     4.74479E+06    -69.0987E-03     113.269E-03    -44.1703E-03     53.9109E-03    -69.5169E-03     113.574E-03    -44.1651E-03     52.9031E-03
            2255     11.2142E-03     11.5300E-03    -19.1183E+06    -52.4181E+06    -11.0755E+06     5.14177E+06    -64.6401E-03     107.137E-03    -42.4972E-03     40.6679E-03    -64.8586E-03     107.135E-03    -42.4489E-03     39.9756E-03
            2256     10.3688E-03     11.4737E-03    -19.9497E+06    -71.8634E+06    -9.04242E+06     5.51310E+06    -60.0859E-03     100.981E-03    -40.8951E-03     30.7337E-03    -60.1940E-03     100.790E-03    -40.8072E-03     30.2680E-03
            2257     9.51959E-03     11.4267E-03    -21.2501E+06    -86.6867E+06    -7.62442E+06     6.36827E+06    -55.6097E-03     94.9953E-03    -39.3856E-03     22.9623E-03    -55.6532E-03     94.6784E-03    -39.2672E-03     22.6647E-03
            2258     8.66661E-03     11.3875E-03    -22.8261E+06     -97.402E+06    -7.08745E+06     6.92727E+06    -51.3688E-03     89.3561E-03    -37.9874E-03     17.0777E-03    -51.3753E-03     88.9568E-03    -37.8485E-03     16.8981E-03
            2259     7.81019E-03     11.3547E-03    -24.2868E+06    -106.536E+06    -6.77082E+06     7.62144E+06    -47.4171E-03     84.1393E-03    -36.7222E-03     12.7479E-03    -47.4006E-03     83.6782E-03    -36.5663E-03     12.6556E-03
            2260     6.95035E-03     11.3272E-03    -25.9104E+06    -113.783E+06    -7.97004E+06     7.51453E+06    -43.8333E-03     79.4299E-03    -35.5966E-03     9.69698E-03    -43.8022E-03     78.9261E-03    -35.4339E-03     9.65828E-03
            2261     6.08760E-03     11.3041E-03    -27.7194E+06    -116.996E+06    -9.86463E+06     6.67689E+06    -40.7101E-03     75.3284E-03    -34.6183E-03     7.59820E-03    -40.6746E-03     74.8076E-03    -34.4577E-03     7.58745E-03
            2262     5.22224E-03     11.2846E-03    -29.7364E+06    -120.294E+06    -13.1795E+06     7.15401E+06    -38.0889E-03     71.8770E-03    -33.7881E-03     6.06146E-03    -38.0501E-03     71.3436E-03    -33.6365E-03     6.08423E-03
            2263     4.35491E-03     11.2685E-03    -31.8429E+06    -122.722E+06    -18.0141E+06     7.13224E+06    -35.9430E-03     69.0433E-03    -33.1003E-03     4.93913E-03    -35.9018E-03     68.5055E-03    -32.9663E-03     4.98149E-03
            2264     3.48565E-03     11.2552E-03    -33.8002E+06    -125.583E+06    -23.5546E+06     5.75010E+06    -34.2645E-03     66.8208E-03    -32.5563E-03     3.98852E-03    -34.2195E-03     66.2780E-03    -32.4429E-03     4.02776E-03
            2265     2.61530E-03     11.2450E-03    -35.3181E+06    -128.561E+06    -29.2249E+06     4.46500E+06    -33.0496E-03     65.1989E-03    -32.1493E-03     3.04727E-03    -32.9986E-03     64.6506E-03    -32.0578E-03     3.08106E-03
            2266     1.74392E-03     11.2374E-03    -36.1919E+06    -130.547E+06    -33.1780E+06     3.17625E+06    -32.2575E-03     64.1278E-03    -31.8703E-03     2.07238E-03    -32.2017E-03     63.5760E-03    -31.7944E-03     2.09841E-03
            2267     872.219E-06     11.2331E-03    -36.6745E+06    -131.920E+06    -35.8483E+06     1.73692E+06    -31.8528E-03     63.5038E-03    -31.6510E-03     1.08746E-03    -31.7929E-03     62.9498E-03    -31.5858E-03     1.10213E-03
            2268     16.2155E-03     11.2984E-03    -4.52788E+06     137.937E+06     95.6570E+06    -154.960E+03    -94.3434E-03     147.684E-03    -53.3410E-03     145.364E-03    -100.049E-03     153.587E-03    -53.0561E-03     142.619E-03
            2269     15.3964E-03     11.0322E-03    -10.4913E+06     129.683E+06     79.0975E+06     365.763E+03    -97.1545E-03     148.351E-03    -51.1970E-03     211.289E-03    -104.410E-03     155.802E-03    -50.9743E-03     206.750E-03
            2270     14.5726E-03     10.8383E-03    -13.8224E+06     101.968E+06     36.9354E+06     4.11613E+06    -89.2796E-03     138.121E-03    -48.8411E-03     144.440E-03    -92.5776E-03     141.626E-03    -48.7842E-03     140.935E-03
            2271     13.7442E-03     10.7087E-03    -14.5765E+06     73.0509E+06     2.40533E+06     5.99057E+06    -81.5416E-03     128.122E-03    -46.5808E-03     94.4356E-03    -82.9419E-03     129.725E-03    -46.6535E-03     92.2863E-03
            2272     12.9117E-03     10.6122E-03    -15.3833E+06     28.4390E+06    -8.55834E+06     5.66474E+06    -75.3590E-03     119.911E-03    -44.5520E-03     65.4946E-03    -76.0724E-03     120.697E-03    -44.6137E-03     64.0687E-03
            2273     12.0747E-03     10.5372E-03    -17.2712E+06    -21.8834E+06    -10.2560E+06     5.50549E+06    -69.9105E-03     112.572E-03    -42.6613E-03     47.0810E-03    -70.2800E-03     112.833E-03    -42.6558E-03     46.1183E-03
            2274     11.2335E-03     10.4767E-03    -19.0420E+06    -51.4756E+06    -10.7254E+06     5.87773E+06    -64.6108E-03     105.449E-03    -40.8377E-03     34.5815E-03    -64.8033E-03     105.423E-03    -40.7891E-03     33.9382E-03
            2275     10.3879E-03     10.4272E-03    -20.9136E+06    -71.5607E+06    -8.67216E+06     6.16902E+06    -59.3879E-03     98.5158E-03    -39.1279E-03     25.6228E-03    -59.4853E-03     98.3109E-03    -39.0372E-03     25.2013E-03
            2276     9.53786E-03     10.3867E-03    -22.6086E+06    -86.2724E+06    -6.97512E+06     6.37571E+06    -54.3955E-03     91.9418E-03    -37.5463E-03     18.9644E-03    -54.4379E-03     91.6185E-03    -37.4233E-03     18.6965E-03
            2277     8.68371E-03     10.3535E-03    -23.7742E+06    -96.5683E+06    -6.16928E+06     6.40008E+06    -49.7433E-03     85.8514E-03    -36.1081E-03     14.1741E-03    -49.7520E-03     85.4512E-03    -35.9644E-03     14.0110E-03
            2278     7.82561E-03     10.3261E-03    -24.8046E+06    -106.351E+06    -5.56770E+06     6.57556E+06    -45.5473E-03     80.3808E-03    -34.8335E-03     10.8738E-03    -45.5329E-03     79.9172E-03    -34.6711E-03     10.7850E-03
            2279     6.96411E-03     10.3036E-03    -26.0130E+06    -111.631E+06    -5.96857E+06     6.61148E+06    -41.8685E-03     75.5847E-03    -33.7162E-03     8.71222E-03    -41.8430E-03     75.0880E-03    -33.5464E-03     8.67375E-03
            2280     6.09951E-03     10.2846E-03    -28.1715E+06    -115.649E+06    -9.05275E+06     6.32778E+06    -38.7322E-03     71.4830E-03    -32.7508E-03     7.28692E-03    -38.7017E-03     70.9682E-03    -32.5875E-03     7.27967E-03
            2281     5.23243E-03     10.2688E-03    -30.4964E+06    -119.407E+06    -12.6609E+06      6.0448E+06    -36.1402E-03     68.0813E-03    -31.9411E-03     6.25055E-03    -36.1072E-03     67.5528E-03    -31.7870E-03     6.26432E-03
            2282     4.36316E-03     10.2554E-03    -31.9091E+06    -120.119E+06    -15.9202E+06     5.50598E+06    -34.0526E-03     65.3287E-03    -31.2761E-03     5.40232E-03    -34.0187E-03     64.8012E-03    -31.1352E-03     5.42709E-03
            2283     3.49241E-03     10.2445E-03    -33.2036E+06    -122.471E+06    -21.0830E+06     4.53160E+06    -32.4293E-03     63.1729E-03    -30.7436E-03     4.54101E-03    -32.3894E-03     62.6413E-03    -30.6232E-03     4.56666E-03
            2284     2.62024E-03     10.2357E-03    -34.4891E+06    -125.606E+06    -27.0510E+06     3.15444E+06    -31.2403E-03     61.5788E-03    -30.3386E-03     3.58156E-03    -31.1926E-03     61.0411E-03    -30.2417E-03     3.59980E-03
            2285     1.74730E-03     10.2294E-03    -35.2750E+06    -127.612E+06    -31.2717E+06     1.90725E+06    -30.4407E-03     60.5000E-03    -30.0594E-03     2.51523E-03    -30.3872E-03     59.9589E-03    -29.9795E-03     2.52570E-03
            2286     873.742E-06     10.2252E-03    -35.9576E+06    -129.097E+06    -34.2078E+06     1.10716E+06    -30.0532E-03     59.8783E-03    -29.8251E-03     1.36813E-03    -29.9961E-03     59.3351E-03    -29.7568E-03     1.37501E-03
            2287     16.2195E-03     10.1977E-03    -3.25465E+06     138.473E+06     96.8736E+06     565.124E+03    -100.038E-03     153.144E-03    -53.1062E-03     145.869E-03    -105.587E-03     158.892E-03    -52.8179E-03     142.590E-03
            2288     15.4031E-03     9.93698E-03    -10.4414E+06     128.350E+06     80.0504E+06     2.15965E+06    -102.263E-03     152.925E-03    -50.6623E-03     205.232E-03    -109.151E-03     160.001E-03    -50.4331E-03     200.236E-03
            2289     14.5841E-03     9.75340E-03    -16.4076E+06     98.6911E+06     37.7162E+06     3.10885E+06    -93.1867E-03     141.193E-03    -48.0062E-03     133.666E-03    -96.2133E-03     144.405E-03    -47.9369E-03     130.018E-03
            2290     13.7597E-03     9.63217E-03    -16.9206E+06     72.0399E+06    -532.492E+03     4.10269E+06    -83.9730E-03     129.428E-03    -45.4555E-03     84.5730E-03    -85.2329E-03     130.888E-03    -45.5381E-03     82.4177E-03
            2291     12.9291E-03     9.54518E-03    -16.9973E+06     29.2868E+06    -12.4839E+06     6.78829E+06    -76.4362E-03     119.652E-03    -43.2163E-03     57.5707E-03    -77.0803E-03     120.378E-03    -43.2965E-03     56.2054E-03
            2292     12.0928E-03     9.47791E-03    -19.0066E+06    -20.1881E+06    -10.9458E+06     7.69770E+06    -69.7660E-03     110.975E-03    -41.2087E-03     40.9524E-03    -70.1055E-03     111.208E-03    -41.2066E-03     40.0730E-03
            2293     11.2512E-03     9.42534E-03    -21.3827E+06    -50.2192E+06    -11.0794E+06     7.07254E+06    -63.5922E-03     102.913E-03    -39.3204E-03     29.9525E-03    -63.7750E-03     102.874E-03    -39.2720E-03     29.3754E-03
            2294     10.4045E-03     9.38338E-03    -22.8521E+06    -70.3190E+06    -7.81635E+06     6.54727E+06    -57.7919E-03     95.3921E-03    -37.6003E-03     22.4884E-03    -57.8901E-03     95.1831E-03    -37.5042E-03     22.1125E-03
            2295     9.55295E-03     9.34982E-03    -23.8082E+06    -84.8497E+06    -5.82763E+06     5.75848E+06    -52.4203E-03     88.4660E-03    -36.0457E-03     17.2903E-03    -52.4667E-03     88.1442E-03    -35.9173E-03     17.0454E-03
            2296     8.69693E-03     9.32305E-03    -24.7960E+06    -95.7772E+06    -4.49604E+06     5.31769E+06    -47.5921E-03     82.2643E-03    -34.6722E-03     13.8221E-03    -47.6073E-03     81.8649E-03    -34.5198E-03     13.6673E-03
            2297     7.83687E-03     9.30142E-03    -25.9410E+06    -105.386E+06    -3.82163E+06     5.11834E+06    -43.4209E-03     76.9022E-03    -33.4813E-03     11.6057E-03    -43.4156E-03     76.4421E-03    -33.3100E-03     11.5131E-03
            2298     6.97339E-03     9.28361E-03    -27.3804E+06    -110.924E+06    -3.57849E+06     5.13069E+06    -39.9150E-03     72.3739E-03    -32.4589E-03     10.1978E-03    -39.9012E-03     71.8796E-03    -32.2762E-03     10.1498E-03
            2299     6.10716E-03     9.26878E-03    -28.8866E+06    -114.387E+06    -6.23353E+06     5.33108E+06    -37.0161E-03     68.5962E-03    -31.5801E-03     9.22226E-03    -36.9957E-03     68.0853E-03    -31.4035E-03     9.20804E-03
            2300     5.23851E-03     9.25618E-03    -30.4641E+06    -117.152E+06    -10.4438E+06     4.34400E+06    -34.6596E-03     65.4987E-03    -30.8390E-03     8.38430E-03    -34.6335E-03     64.9788E-03    -30.6772E-03     8.37978E-03
            2301     4.36808E-03     9.24551E-03    -31.9732E+06    -118.207E+06    -13.8153E+06     2.94946E+06    -32.7834E-03     63.0148E-03    -30.2314E-03     7.48463E-03    -32.7559E-03     62.4943E-03    -30.0827E-03     7.47869E-03
            2302     3.49609E-03     9.23656E-03    -33.0020E+06    -120.448E+06    -18.8988E+06     2.11818E+06    -31.3290E-03     61.0637E-03    -29.7347E-03     6.38149E-03    -31.2945E-03     60.5392E-03    -29.6067E-03     6.37735E-03
            2303     2.62308E-03     9.22948E-03    -33.8808E+06    -123.398E+06    -24.9105E+06     1.30378E+06    -30.2310E-03     59.5744E-03    -29.3434E-03     5.08916E-03    -30.1866E-03     59.0439E-03    -29.2399E-03     5.08443E-03
            2304     1.74920E-03     9.22402E-03    -34.8785E+06    -126.048E+06    -30.3498E+06     477.458E+03    -29.4463E-03     58.5079E-03    -29.0616E-03     3.55710E-03    -29.3945E-03     57.9729E-03    -28.9800E-03     3.54972E-03
            2305     874.680E-06     9.22090E-03    -35.6665E+06    -127.906E+06    -34.2066E+06     75.5366E+03    -29.0279E-03     57.8780E-03    -28.8501E-03     2.01845E-03    -28.9710E-03     57.3405E-03    -28.7839E-03     2.01237E-03
            2306     16.2218E-03     9.09531E-03    -4.79630E+06     136.215E+06     95.4777E+06     723.308E+03    -106.244E-03     159.130E-03    -52.8861E-03     145.838E-03    -111.631E-03     164.707E-03    -52.5992E-03     141.894E-03
            2307     15.4110E-03     8.83271E-03    -10.1868E+06     126.735E+06     82.1146E+06     2.73044E+06    -108.381E-03     158.479E-03    -50.0980E-03     194.087E-03    -114.839E-03     165.115E-03    -49.8565E-03     188.531E-03
            2308     14.5992E-03     8.66393E-03    -12.7963E+06     99.3144E+06     41.1685E+06     3.85384E+06    -96.4129E-03     143.520E-03    -47.1075E-03     118.641E-03    -99.0971E-03     146.396E-03    -47.0271E-03     114.943E-03
            2309     13.7764E-03     8.55546E-03    -17.2540E+06     69.3831E+06    -3.08015E+06     5.88048E+06    -84.8195E-03     129.150E-03    -44.3305E-03     74.2216E-03    -85.9236E-03     130.450E-03    -44.4215E-03     72.1816E-03
            2310     12.9457E-03     8.47822E-03    -21.5083E+06     27.8784E+06    -14.6547E+06      8.5803E+06    -75.8485E-03     117.854E-03    -42.0051E-03     50.5194E-03    -76.4405E-03     118.512E-03    -42.0877E-03     49.2677E-03
            2311     12.1087E-03     8.42096E-03    -23.6220E+06    -17.5245E+06    -10.0069E+06     9.12915E+06    -68.1873E-03     108.182E-03    -39.9950E-03     36.4448E-03    -68.5205E-03     108.400E-03    -39.9853E-03     35.6618E-03
            2312     11.2652E-03     8.37687E-03    -24.8960E+06    -47.3978E+06    -9.56927E+06     7.49527E+06    -61.2964E-03     99.4595E-03    -38.1631E-03     27.6310E-03    -61.4856E-03     99.4208E-03    -38.1061E-03     27.1232E-03
            2313     10.4164E-03     8.34299E-03    -25.6618E+06    -68.0070E+06    -5.61328E+06     5.48533E+06    -55.1256E-03     91.6839E-03    -36.5583E-03     22.0631E-03    -55.2365E-03     91.4793E-03    -36.4506E-03     21.7208E-03
            2314     9.56229E-03     8.31665E-03    -26.0031E+06    -82.9884E+06    -2.98353E+06     4.06014E+06    -49.6886E-03     84.8487E-03    -35.1601E-03     18.4782E-03    -49.7500E-03     84.5324E-03    -35.0170E-03     18.2446E-03
            2315     8.70372E-03     8.29624E-03    -26.2934E+06    -95.0849E+06    -1.05461E+06     3.39698E+06    -45.0868E-03     79.0528E-03    -33.9660E-03     16.3052E-03    -45.1151E-03     78.6537E-03    -33.7953E-03     16.1476E-03
            2316     7.84152E-03     8.27980E-03    -27.0448E+06    -104.455E+06    -189.819E+03     3.22600E+06    -41.3214E-03     74.2756E-03    -32.9542E-03     14.9506E-03    -41.3289E-03     73.8172E-03    -32.7645E-03     14.8471E-03
            2317     6.97634E-03     8.26645E-03    -28.1306E+06    -110.467E+06    -337.599E+03     2.92968E+06    -38.2759E-03     70.3745E-03    -32.0986E-03     14.0052E-03    -38.2721E-03     69.8799E-03    -31.8994E-03     13.9369E-03
            2318     6.10869E-03     8.25504E-03    -29.1514E+06    -113.524E+06    -3.01313E+06     2.59289E+06    -35.8573E-03     67.2243E-03    -31.3669E-03     13.1254E-03    -35.8450E-03     66.7143E-03    -31.1751E-03     13.0807E-03
            2319     5.23925E-03     8.24542E-03    -29.9957E+06    -114.646E+06    -7.04151E+06     1.68565E+06    -33.9330E-03     64.6770E-03    -30.7440E-03     12.1157E-03    -33.9137E-03     64.1648E-03    -30.5695E-03     12.0798E-03
            2320     4.36822E-03     8.23695E-03    -31.0025E+06    -116.573E+06    -11.7508E+06     142.176E+03    -32.3922E-03     62.6142E-03    -30.2220E-03     10.8367E-03    -32.3657E-03     62.0979E-03    -30.0668E-03     10.7965E-03
            2321     3.49607E-03     8.22991E-03    -32.3638E+06    -119.729E+06    -17.8538E+06    -717.352E+03    -31.1721E-03     60.9602E-03    -29.7882E-03     9.21739E-03    -31.1371E-03     60.4371E-03    -29.6569E-03     9.17814E-03
            2322     2.62292E-03     8.22410E-03    -33.6903E+06    -122.807E+06    -23.7877E+06    -890.529E+03    -30.2227E-03     59.6661E-03    -29.4433E-03     7.32352E-03    -30.1801E-03     59.1368E-03    -29.3354E-03     7.29166E-03
            2323     1.74901E-03     8.21992E-03    -34.8123E+06    -126.006E+06    -29.9606E+06    -790.277E+03    -29.5504E-03     58.7314E-03    -29.1810E-03     5.14950E-03    -29.4989E-03     58.1959E-03    -29.0976E-03     5.12664E-03
            2324     874.766E-06     8.21709E-03    -35.7273E+06    -128.315E+06    -34.4587E+06    -553.231E+03    -29.1327E-03     58.1222E-03    -28.9895E-03     2.87229E-03    -29.0753E-03     57.5832E-03    -28.9239E-03     2.85862E-03
            2325     16.2248E-03     7.97967E-03    -5.76261E+06     135.190E+06     95.0220E+06     972.390E+03    -114.294E-03     166.863E-03    -52.5685E-03     142.982E-03    -119.426E-03     172.178E-03    -52.2810E-03     138.323E-03
            2326     15.4251E-03     7.72203E-03    -10.1738E+06     124.325E+06     82.0108E+06     1.37908E+06    -112.824E-03     162.229E-03    -49.4052E-03     179.702E-03    -118.708E-03     168.284E-03    -49.1606E-03     173.783E-03
            2327     14.6135E-03     7.57346E-03    -14.4808E+06     95.7288E+06     43.7584E+06     4.87301E+06    -96.9409E-03     143.158E-03    -46.2172E-03     104.187E-03    -99.2750E-03     145.658E-03    -46.1162E-03     100.667E-03
            2328     13.7906E-03     7.47908E-03    -19.2015E+06     66.1857E+06     961.453E+03     9.97765E+06    -83.5767E-03     126.970E-03    -43.3938E-03     65.2099E-03    -84.5472E-03     128.108E-03    -43.4571E-03     63.3994E-03
            2329     12.9586E-03     7.41430E-03    -22.7905E+06     28.1890E+06    -12.1126E+06     12.3040E+06    -73.1808E-03     114.296E-03    -41.1152E-03     45.9430E-03    -73.7165E-03     114.888E-03    -41.1836E-03     44.8872E-03
            2330     12.1188E-03     7.36679E-03    -26.7546E+06    -12.9901E+06    -6.58518E+06     10.7403E+06    -64.8530E-03     104.107E-03    -39.2545E-03     35.0930E-03    -65.1843E-03     104.318E-03    -39.2298E-03     34.4374E-03
            2331     11.2725E-03     7.33258E-03    -28.9981E+06    -42.2087E+06    -4.95379E+06     6.39499E+06    -57.6949E-03     95.3322E-03    -37.6374E-03     28.8134E-03    -57.9051E-03     95.3051E-03    -37.5589E-03     28.3690E-03
            2332     10.4202E-03     7.30633E-03    -28.9086E+06    -64.9337E+06    -1.05682E+06     2.72764E+06    -51.5986E-03     87.8841E-03    -36.2855E-03     25.2333E-03    -51.7316E-03     87.6877E-03    -36.1547E-03     24.9087E-03
            2333     9.56302E-03     7.28721E-03    -28.2477E+06    -81.4537E+06     1.98867E+06     849.891E+03    -46.6189E-03     81.7813E-03    -35.1624E-03     22.9881E-03    -46.6994E-03     81.4672E-03    -34.9934E-03     22.7476E-03
            2334     8.70194E-03     7.27211E-03    -27.9835E+06    -94.6361E+06     4.24051E+06     188.426E+03    -42.6840E-03     76.9244E-03    -34.2404E-03     21.7271E-03    -42.7293E-03     76.5226E-03    -34.0414E-03     21.5493E-03
            2335     7.83783E-03     7.26029E-03    -28.1103E+06    -104.239E+06     5.41205E+06     6.13534E+03    -39.6715E-03     73.1510E-03    -33.4795E-03     20.7405E-03    -39.6936E-03     72.6879E-03    -33.2605E-03     20.6082E-03
            2336     6.97138E-03     7.25031E-03    -28.6625E+06    -109.815E+06     3.31742E+06    -290.672E+03    -37.3724E-03     70.2035E-03    -32.8311E-03     19.7310E-03    -37.3784E-03     69.7084E-03    -32.6137E-03     19.6286E-03
            2337     6.10326E-03     7.24183E-03    -29.1998E+06    -112.510E+06    -952.889E+03    -1.27451E+06    -35.5916E-03     67.8641E-03    -32.2725E-03     18.4765E-03    -35.5846E-03     67.3568E-03    -32.0718E-03     18.3863E-03
            2338     5.23368E-03     7.23425E-03    -29.2949E+06    -113.454E+06    -4.79380E+06    -2.41880E+06    -34.1816E-03     65.9785E-03    -31.7970E-03     16.8921E-03    -34.1642E-03     65.4682E-03    -31.6139E-03     16.8063E-03
            2339     4.36314E-03     7.22774E-03    -29.8449E+06    -116.180E+06    -10.6167E+06    -2.84279E+06    -33.0414E-03     64.4279E-03    -31.3865E-03     14.9073E-03    -33.0115E-03     63.9103E-03    -31.2279E-03     14.8310E-03
            2340     3.49160E-03     7.22209E-03    -31.2068E+06    -120.112E+06    -17.6276E+06    -2.88617E+06    -32.1095E-03     63.1494E-03    -31.0399E-03     12.5371E-03    -32.0686E-03     62.6223E-03    -30.9087E-03     12.4719E-03
            2341     2.61934E-03     7.21761E-03    -33.0161E+06    -123.858E+06    -24.0330E+06    -2.59788E+06    -31.3725E-03     62.1354E-03    -30.7629E-03     9.81955E-03    -31.3247E-03     61.6001E-03    -30.6556E-03     9.76722E-03
            2342     1.74657E-03     7.21412E-03    -34.7773E+06    -127.485E+06    -30.1408E+06    -1.88657E+06    -30.8315E-03     61.3860E-03    -30.5545E-03     6.84695E-03    -30.7775E-03     60.8431E-03    -30.4700E-03     6.81108E-03
            2343     873.301E-06     7.21201E-03    -35.9958E+06    -129.941E+06    -34.3333E+06    -1.01636E+06    -30.5226E-03     60.9172E-03    -30.3945E-03     3.78440E-03    -30.4644E-03     60.3700E-03    -30.3256E-03     3.76541E-03
            2344     16.2369E-03     6.85115E-03    -6.06113E+06     134.566E+06     95.1857E+06     1.42982E+06    -121.638E-03     173.803E-03    -52.1651E-03     138.269E-03    -126.354E-03     178.702E-03    -51.8755E-03     133.220E-03
            2345     15.4367E-03     6.61282E-03    -11.3011E+06     121.354E+06     81.8023E+06     3.17249E+06    -113.362E-03     162.122E-03    -48.7604E-03     166.822E-03    -118.542E-03     167.461E-03    -48.5110E-03     161.111E-03
            2346     14.6247E-03     6.48194E-03    -18.5717E+06     90.2594E+06     43.8493E+06     7.26935E+06    -94.8325E-03     140.404E-03    -45.5712E-03     92.5976E-03    -96.8009E-03     142.504E-03    -45.4559E-03     89.4890E-03
            2347     13.8004E-03     6.40637E-03    -23.8591E+06     61.3356E+06     4.62685E+06     12.8455E+06    -79.6893E-03     122.589E-03    -42.9000E-03     59.9531E-03    -80.5381E-03     123.561E-03    -42.9313E-03     58.4584E-03
            2348     12.9641E-03     6.35449E-03    -28.4140E+06     29.3518E+06    -8.92637E+06     16.2207E+06    -68.5450E-03     109.400E-03    -40.8551E-03     46.5133E-03    -69.0583E-03     109.944E-03    -40.9011E-03     45.6994E-03
            2349     12.1198E-03     6.31767E-03    -31.6613E+06    -3.53939E+06    -1.09815E+06     11.6998E+06    -60.0928E-03     99.3965E-03    -39.3037E-03     38.5320E-03    -60.4451E-03     99.6285E-03    -39.2582E-03     38.0171E-03
            2350     11.2689E-03     6.29222E-03    -32.1515E+06    -34.4014E+06     3.26509E+06     3.17243E+06    -53.2511E-03     91.3015E-03    -38.0503E-03     34.3019E-03    -53.4890E-03     91.2947E-03    -37.9375E-03     33.9005E-03
            2351     10.4130E-03     6.27366E-03    -30.9376E+06    -61.9199E+06     5.58729E+06    -2.17127E+06    -47.9267E-03     84.9847E-03    -37.0580E-03     32.2351E-03    -48.0793E-03     84.7923E-03    -36.8955E-03     31.9007E-03
            2352     9.55282E-03     6.25996E-03    -29.5372E+06    -80.8865E+06     8.39836E+06    -3.86951E+06    -43.9415E-03     80.2252E-03    -36.2837E-03     30.7242E-03    -44.0372E-03     79.9051E-03    -36.0816E-03     30.4553E-03
            2353     8.68975E-03     6.24949E-03    -28.8116E+06    -94.9189E+06     10.1756E+06    -4.23806E+06    -41.0828E-03     76.7560E-03    -35.6732E-03     29.6196E-03    -41.1404E-03     76.3451E-03    -35.4429E-03     29.4039E-03
            2354     7.82453E-03     6.24068E-03    -28.7455E+06    -104.556E+06     10.0460E+06    -4.45182E+06    -39.0806E-03     74.2540E-03    -35.1734E-03     28.2569E-03    -39.1125E-03     73.7835E-03    -34.9298E-03     28.0784E-03
            2355     6.95801E-03     6.23323E-03    -28.4860E+06    -109.469E+06     6.35233E+06    -5.06048E+06    -37.6432E-03     72.3774E-03    -34.7342E-03     26.5020E-03    -37.6534E-03     71.8793E-03    -34.5024E-03     26.3451E-03
            2356     6.09035E-03     6.22656E-03    -27.8800E+06    -111.713E+06     671.012E+03    -6.12995E+06    -36.5290E-03     70.8706E-03    -34.3417E-03     24.3564E-03    -36.5190E-03     70.3629E-03    -34.1359E-03     24.2083E-03
            2357     5.22194E-03     6.22065E-03    -28.0353E+06    -114.337E+06    -4.96279E+06    -6.47569E+06    -35.6116E-03     69.6117E-03    -34.0002E-03     21.8183E-03    -35.5864E-03     69.0950E-03    -33.8185E-03     21.6837E-03
            2358     4.35269E-03     6.21535E-03    -29.0516E+06    -117.805E+06    -11.1313E+06    -5.71014E+06    -34.8450E-03     68.5473E-03    -33.7022E-03     18.8647E-03    -34.8082E-03     68.0207E-03    -33.5450E-03     18.7542E-03
            2359     3.48295E-03     6.21092E-03    -30.4934E+06    -121.999E+06    -18.0669E+06    -4.58912E+06    -34.2020E-03     67.6464E-03    -33.4444E-03     15.5769E-03    -34.1543E-03     67.1091E-03    -33.3136E-03     15.4920E-03
            2360     2.61271E-03     6.20721E-03    -32.3155E+06    -126.209E+06    -24.8470E+06    -3.35257E+06    -33.6726E-03     66.9053E-03    -33.2328E-03     12.0325E-03    -33.6168E-03     66.3581E-03    -33.1271E-03     11.9721E-03
            2361     1.74204E-03     6.20454E-03    -34.2190E+06    -129.766E+06    -30.4802E+06    -2.25566E+06    -33.2708E-03     66.3470E-03    -33.0763E-03     8.28869E-03    -33.2104E-03     65.7922E-03    -32.9909E-03     8.24921E-03
            2362     871.130E-06     6.20276E-03    -35.6392E+06    -132.369E+06    -34.5879E+06    -1.23459E+06    -32.9916E-03     66.0069E-03    -33.0153E-03     4.58501E-03    -32.9279E-03     65.4473E-03    -32.9446E-03     4.56388E-03
            2363     16.2438E-03     5.72608E-03    -5.78245E+06     131.333E+06     92.8446E+06     2.50551E+06    -126.541E-03     178.611E-03    -52.0704E-03     138.540E-03    -130.801E-03     183.051E-03    -51.7883E-03     133.370E-03
            2364     15.4421E-03     5.50023E-03    -11.9912E+06     116.624E+06     81.6551E+06     6.48911E+06    -112.841E-03     161.417E-03    -48.5757E-03     158.144E-03    -117.261E-03     165.977E-03    -48.3192E-03     152.938E-03
            2365     14.6286E-03     5.39502E-03    -20.0612E+06     84.9377E+06     48.0092E+06     12.6346E+06    -89.7969E-03     135.358E-03    -45.5609E-03     84.8194E-03    -91.3781E-03     137.035E-03    -45.4149E-03     82.3533E-03
            2366     13.7969E-03     5.33934E-03    -28.4501E+06     55.0324E+06     13.1309E+06     18.7805E+06    -73.3688E-03     116.626E-03    -43.2571E-03     60.8299E-03    -74.1208E-03     117.437E-03    -43.2300E-03     59.7518E-03
            2367     12.9553E-03     5.29965E-03    -33.9506E+06     36.3333E+06     2.11960E+06     17.2760E+06    -62.7380E-03     104.357E-03    -41.6189E-03     52.3686E-03    -63.2600E-03     104.883E-03    -41.6118E-03     51.7646E-03
            2368     12.1065E-03     5.27302E-03    -32.7046E+06     10.3958E+06     9.40048E+06     6.41497E+06    -54.8303E-03     95.3110E-03    -40.4808E-03     46.6162E-03    -55.2003E-03     95.5762E-03    -40.4014E-03     46.1589E-03
            2369     11.2516E-03     5.25577E-03    -29.4123E+06    -27.7935E+06     13.9924E+06    -2.40229E+06    -49.0823E-03     88.7511E-03    -39.6688E-03     43.9949E-03    -49.3214E-03     88.7474E-03    -39.5158E-03     43.5983E-03
            2370     10.3922E-03     5.24269E-03    -28.9445E+06    -59.0390E+06     14.6191E+06    -6.59397E+06    -45.2184E-03     84.2945E-03    -39.0762E-03     42.3048E-03    -45.3730E-03     84.0949E-03    -38.8755E-03     41.9598E-03
            2371     9.53027E-03     5.23334E-03    -29.4485E+06    -81.1061E+06     15.7646E+06    -9.17929E+06    -42.7035E-03     81.3468E-03    -38.6433E-03     40.4531E-03    -42.8064E-03     81.0116E-03    -38.4042E-03     40.1434E-03
            2372     8.66652E-03     5.22536E-03    -28.8595E+06    -96.0641E+06     16.0638E+06    -9.92546E+06    -41.1533E-03     79.4549E-03    -38.3016E-03     38.3193E-03    -41.2164E-03     79.0276E-03    -38.0401E-03     38.0467E-03
            2373     7.80196E-03     5.21856E-03    -27.6364E+06    -105.321E+06     12.4854E+06    -10.2814E+06    -40.1437E-03     78.1378E-03    -37.9941E-03     35.6800E-03    -40.1713E-03     77.6566E-03    -37.7389E-03     35.4371E-03
            2374     6.93664E-03     5.21236E-03    -26.4008E+06    -109.790E+06     6.06889E+06    -10.9523E+06    -39.4209E-03     77.1230E-03    -37.7021E-03     32.6328E-03    -39.4189E-03     76.6192E-03    -37.4743E-03     32.4074E-03
            2375     6.07094E-03     5.20691E-03    -25.9073E+06    -113.368E+06    -754.063E+03    -10.7528E+06    -38.8277E-03     76.2587E-03    -37.4310E-03     29.2577E-03    -38.8027E-03     75.7406E-03    -37.2328E-03     29.0555E-03
            2376     5.20468E-03     5.20198E-03    -26.4527E+06    -117.178E+06    -7.08692E+06    -9.39931E+06    -38.2863E-03     75.4699E-03    -37.1836E-03     25.6258E-03    -38.2455E-03     74.9388E-03    -37.0108E-03     25.4576E-03
            2377     4.33810E-03     5.19764E-03    -27.7926E+06    -121.281E+06    -13.4990E+06    -7.68280E+06    -37.7856E-03     74.7438E-03    -36.9582E-03     21.7303E-03    -37.7337E-03     74.2008E-03    -36.8096E-03     21.5973E-03
            2378     3.47105E-03     5.19392E-03    -29.5797E+06    -125.579E+06    -20.0094E+06    -5.56453E+06    -37.3260E-03     74.0842E-03    -36.7582E-03     17.6337E-03    -37.2656E-03     73.5300E-03    -36.6333E-03     17.5382E-03
            2379     2.60362E-03     5.19099E-03    -31.4448E+06    -129.343E+06    -25.7256E+06    -3.56845E+06    -36.9245E-03     73.5179E-03    -36.5934E-03     13.4337E-03    -36.8585E-03     72.9547E-03    -36.4889E-03     13.3720E-03
            2380     1.73590E-03     5.18873E-03    -33.2337E+06    -132.499E+06    -30.5399E+06    -1.98651E+06    -36.6242E-03     73.0931E-03    -36.4689E-03     9.16546E-03    -36.5550E-03     72.5230E-03    -36.3813E-03     9.13036E-03
            2381     867.989E-06     5.18733E-03    -34.3331E+06    -134.524E+06    -33.7874E+06    -947.281E+03    -36.3877E-03     72.8205E-03    -36.4328E-03     5.01061E-03    -36.3156E-03     72.2468E-03    -36.3569E-03     4.99365E-03
            2382     16.2276E-03     4.57997E-03    -5.90424E+06     127.116E+06     88.9089E+06     4.99329E+06    -128.746E-03     181.347E-03    -52.6014E-03     137.076E-03    -132.509E-03     185.287E-03    -52.3326E-03     131.924E-03
            2383     15.4358E-03     4.38744E-03    -14.1085E+06     108.143E+06     76.1578E+06     9.79251E+06    -108.915E-03     158.078E-03    -49.1629E-03     142.737E-03    -112.483E-03     161.769E-03    -48.9185E-03     138.210E-03
            2384     14.6151E-03     4.31628E-03    -21.2971E+06     75.9509E+06     51.1798E+06     18.2412E+06    -81.4062E-03     127.958E-03    -46.5517E-03     80.7579E-03    -82.6445E-03     129.247E-03    -46.3750E-03     78.9957E-03
            2385     13.7775E-03     4.27815E-03    -26.1853E+06     55.9285E+06     32.1721E+06     21.5743E+06    -65.9459E-03     110.778E-03    -44.8319E-03     67.6315E-03    -66.6231E-03     111.470E-03    -44.7142E-03     66.8938E-03
            2386     12.9306E-03     4.24881E-03    -25.4407E+06     52.4824E+06     26.2150E+06     11.8326E+06    -56.6999E-03     100.409E-03    -43.7094E-03     62.7741E-03    -57.1943E-03     100.926E-03    -43.6175E-03     62.2746E-03
            2387     12.0765E-03     4.23240E-03    -23.2318E+06     22.7911E+06     23.5905E+06    -1.06513E+06    -50.5676E-03     93.5781E-03    -43.0106E-03     58.6052E-03    -50.9042E-03     93.8458E-03    -42.8920E-03     58.1585E-03
            2388     11.2180E-03     4.21992E-03    -23.3434E+06    -25.9627E+06     21.8230E+06    -7.27583E+06    -47.0377E-03     89.6339E-03    -42.5962E-03     55.7963E-03    -47.2468E-03     89.6048E-03    -42.4156E-03     55.3992E-03
            2389     10.3577E-03     4.21101E-03    -24.3660E+06    -56.9548E+06     21.3916E+06    -9.63009E+06    -45.0684E-03     87.3799E-03    -42.3115E-03     52.4244E-03    -45.2036E-03     87.1638E-03    -42.0866E-03     52.0789E-03
            2390     9.49601E-03     4.20323E-03    -25.7112E+06    -79.8892E+06     20.4395E+06    -13.2828E+06    -44.0438E-03     86.1342E-03    -42.0905E-03     48.6622E-03    -44.1301E-03     85.7854E-03    -41.8351E-03     48.3240E-03
            2391     8.63430E-03     4.19665E-03    -25.9013E+06    -97.1581E+06     17.7533E+06    -16.3189E+06    -43.4919E-03     85.3759E-03    -41.8839E-03     44.5892E-03    -43.5364E-03     84.9308E-03    -41.6167E-03     44.2507E-03
            2392     7.77214E-03     4.19061E-03    -24.3606E+06    -107.195E+06     10.5684E+06    -17.1373E+06    -43.0882E-03     84.7419E-03    -41.6537E-03     40.3048E-03    -43.0904E-03     84.2451E-03    -41.4101E-03     39.9854E-03
            2393     6.90982E-03     4.18526E-03    -23.0087E+06    -112.874E+06     1.53121E+06    -15.9878E+06    -42.7158E-03     84.1292E-03    -41.4135E-03     35.8817E-03    -42.6833E-03     83.6086E-03    -41.2088E-03     35.6000E-03
            2394     6.04710E-03     4.18045E-03    -23.1079E+06    -117.800E+06    -5.70953E+06    -13.6446E+06    -42.3360E-03     83.5238E-03    -41.1878E-03     31.4383E-03    -42.2819E-03     82.9846E-03    -41.0120E-03     31.2050E-03
            2395     5.18422E-03     4.17626E-03    -24.2474E+06    -121.940E+06    -11.5183E+06    -10.9262E+06    -41.9390E-03     82.9151E-03    -40.9761E-03     27.0267E-03    -41.8729E-03     82.3621E-03    -40.8217E-03     26.8432E-03
            2396     4.32088E-03     4.17257E-03    -26.0790E+06    -126.141E+06    -17.2976E+06    -7.99484E+06    -41.5267E-03     82.3041E-03    -40.7774E-03     22.5843E-03    -41.4530E-03     81.7389E-03    -40.6432E-03     22.4503E-03
            2397     3.45727E-03     4.16957E-03    -28.1710E+06    -129.983E+06    -22.6309E+06    -5.33822E+06    -41.1331E-03     81.7317E-03    -40.5986E-03     18.1144E-03    -41.0552E-03     81.1567E-03    -40.4825E-03     18.0237E-03
            2398     2.59331E-03     4.16717E-03    -30.0645E+06    -132.799E+06    -26.5896E+06    -3.18150E+06    -40.7869E-03     81.2341E-03    -40.4472E-03     13.6478E-03    -40.7077E-03     80.6525E-03    -40.3440E-03     13.5921E-03
            2399     1.72907E-03     4.16538E-03    -31.5959E+06    -135.030E+06    -29.8875E+06    -1.63559E+06    -40.4992E-03     80.8235E-03    -40.3243E-03     9.20277E-03    -40.4191E-03     80.2372E-03    -40.2321E-03     9.17262E-03
            2400     864.605E-06     4.16422E-03    -32.4206E+06    -136.336E+06    -32.0110E+06    -695.455E+03    -40.2726E-03     80.5312E-03    -40.2587E-03     4.99489E-03    -40.1909E-03     79.9431E-03    -40.1740E-03     4.98137E-03
            2401     16.2188E-03     3.42503E-03    -5.41889E+06     120.843E+06     83.4904E+06     7.71943E+06    -125.616E-03     179.515E-03    -53.8994E-03     134.126E-03    -128.649E-03     182.725E-03    -53.6494E-03     129.524E-03
            2402     15.4143E-03     3.28544E-03    -12.9658E+06     97.9293E+06     70.8852E+06     16.2995E+06    -97.3875E-03     148.266E-03    -50.8788E-03     129.683E-03    -99.9165E-03     150.903E-03    -50.6476E-03     126.398E-03
            2403     14.5827E-03     3.24687E-03    -18.4406E+06     72.0692E+06     57.2160E+06     19.5867E+06    -71.4160E-03     120.383E-03    -48.9667E-03     87.2516E-03    -72.3741E-03     121.370E-03    -48.7584E-03     86.0844E-03
            2404     13.7372E-03     3.22012E-03    -16.0507E+06     67.0842E+06     52.4781E+06     12.6363E+06    -59.7024E-03     107.593E-03    -47.8905E-03     82.1629E-03    -60.2927E-03     108.214E-03    -47.7021E-03     81.5540E-03
            2405     12.8845E-03     3.20249E-03    -11.2371E+06     65.6618E+06     39.5933E+06     3.55466E+06    -53.6415E-03     100.835E-03    -47.1938E-03     76.4914E-03    -54.0486E-03     101.321E-03    -47.0748E-03     76.0340E-03
            2406     12.0279E-03     3.19013E-03    -12.2477E+06     28.5985E+06     23.4035E+06    -2.21228E+06    -50.6178E-03     97.3840E-03    -46.7662E-03     69.7494E-03    -50.8731E-03     97.6281E-03    -46.6729E-03     69.3780E-03
            2407     11.1709E-03     3.18087E-03    -16.4690E+06    -24.3760E+06     16.3249E+06    -7.83587E+06    -49.3625E-03     95.8789E-03    -46.5164E-03     63.0498E-03    -49.5085E-03     95.8307E-03    -46.3755E-03     62.7006E-03
            2408     10.3131E-03     3.17284E-03    -18.3624E+06    -55.1031E+06     13.1014E+06    -12.7378E+06    -48.6376E-03     94.9288E-03    -46.2912E-03     56.5108E-03    -48.7175E-03     94.7080E-03    -46.1192E-03     56.1617E-03
            2409     9.45572E-03     3.16604E-03    -17.7642E+06    -77.4921E+06     10.1651E+06    -16.8830E+06    -48.2113E-03     94.2786E-03    -46.0673E-03     50.4101E-03    -48.2352E-03     93.9330E-03    -45.8783E-03     50.0516E-03
            2410     8.59774E-03     3.15989E-03    -17.7120E+06    -97.3188E+06     5.41679E+06    -20.4658E+06    -47.8478E-03     93.6811E-03    -45.8333E-03     44.6914E-03    -47.8252E-03     93.2327E-03    -45.6394E-03     44.3193E-03
            2411     7.73975E-03     3.15458E-03    -18.4551E+06    -111.243E+06    -1.24214E+06    -21.0957E+06    -47.4427E-03     93.0247E-03    -45.5821E-03     39.3536E-03    -47.3869E-03     92.5106E-03    -45.4002E-03     38.9979E-03
            2412     6.88128E-03     3.14986E-03    -19.3697E+06    -119.426E+06    -8.35548E+06    -18.2292E+06    -46.9774E-03     92.3015E-03    -45.3241E-03     34.3139E-03    -46.8991E-03     91.7533E-03    -45.1646E-03     34.0145E-03
            2413     6.02252E-03     3.14583E-03    -20.6235E+06    -124.302E+06    -13.6789E+06    -14.1000E+06    -46.4765E-03     91.5567E-03    -45.0801E-03     29.5744E-03    -46.3864E-03     90.9904E-03    -44.9384E-03     29.3435E-03
            2414     5.16316E-03     3.14228E-03    -22.6839E+06    -128.131E+06    -17.6987E+06    -10.1356E+06    -45.9696E-03     90.8268E-03    -44.8573E-03     25.0852E-03    -45.8761E-03     90.2480E-03    -44.7271E-03     24.9176E-03
            2415     4.30350E-03     3.13935E-03    -25.0668E+06    -131.479E+06    -21.4459E+06    -6.74574E+06    -45.4843E-03     90.1398E-03    -44.6555E-03     20.7533E-03    -45.3909E-03     89.5517E-03    -44.5357E-03     20.6390E-03
            2416     3.44335E-03     3.13696E-03    -27.1159E+06    -134.094E+06    -24.6355E+06    -4.19445E+06    -45.0544E-03     89.5326E-03    -44.4782E-03     16.5600E-03    -44.9617E-03     88.9380E-03    -44.3677E-03     16.4864E-03
            2417     2.58291E-03     3.13509E-03    -28.6655E+06    -135.884E+06    -26.9861E+06    -2.44506E+06    -44.6949E-03     89.0222E-03    -44.3273E-03     12.4558E-03    -44.6033E-03     88.4236E-03    -44.2236E-03     12.4109E-03
            2418     1.72220E-03     3.13379E-03    -29.6362E+06    -137.045E+06    -28.6953E+06    -1.25704E+06    -44.3997E-03     88.6025E-03    -44.2028E-03     8.39773E-03    -44.3084E-03     88.0015E-03    -44.1046E-03     8.37317E-03
            2419     861.207E-06     3.13302E-03    -30.0857E+06    -137.817E+06    -30.0623E+06    -500.395E+03    -44.1297E-03     88.2865E-03    -44.1568E-03     4.55107E-03    -44.0368E-03     87.6848E-03    -44.0636E-03     4.54021E-03
            2420     16.1779E-03     2.28059E-03    -2.88181E+06     111.001E+06     75.6358E+06     10.7447E+06    -113.524E-03     170.210E-03    -56.6858E-03     141.690E-03    -115.752E-03     172.616E-03    -56.4644E-03     138.262E-03
            2421     15.3597E-03     2.19843E-03    -10.6400E+06     90.1945E+06     70.7264E+06     17.0372E+06    -84.7932E-03     139.229E-03    -54.4362E-03     133.820E-03    -86.3995E-03     140.921E-03    -54.1979E-03     131.829E-03
            2422     14.5192E-03     2.18153E-03    -8.43499E+06     81.2069E+06     69.4157E+06     11.0461E+06    -67.5129E-03     120.659E-03    -53.1465E-03     103.050E-03    -68.2348E-03     121.437E-03    -52.9050E-03     102.188E-03
            2423     13.6708E-03     2.16316E-03    -3.45608E+06     77.7761E+06     54.5994E+06     1.65150E+06    -61.6565E-03     113.937E-03    -52.2802E-03     93.0134E-03    -62.0899E-03     114.472E-03    -52.1150E-03     92.4703E-03
            2424     12.8207E-03     2.15029E-03    -3.10285E+06     65.9283E+06     23.7886E+06     823.937E+03    -58.8422E-03     110.389E-03    -51.5464E-03     79.0135E-03    -59.1085E-03     110.805E-03    -51.5185E-03     78.6593E-03
            2425     11.9708E-03     2.13958E-03    -5.15502E+06     30.4776E+06     3.61089E+06     630.865E+03    -57.1171E-03     108.109E-03    -50.9921E-03     66.6396E-03    -57.2633E-03     108.332E-03    -51.0107E-03     66.3900E-03
            2426     11.1202E-03     2.13129E-03    -6.90588E+06    -17.7704E+06    -5.30795E+06    -6.13134E+06    -55.9004E-03     106.462E-03    -50.5615E-03     56.7360E-03    -55.9454E-03     106.432E-03    -50.5523E-03     56.4684E-03
            2427     10.2694E-03     2.12474E-03    -7.88462E+06    -51.6847E+06    -12.2565E+06    -13.8727E+06    -54.8951E-03     105.044E-03    -50.1489E-03     48.8431E-03    -54.8701E-03     104.841E-03    -50.1238E-03     48.5235E-03
            2428     9.41710E-03     2.11878E-03    -8.62566E+06    -76.4721E+06    -17.3675E+06    -17.8317E+06    -53.9010E-03     103.658E-03    -49.7568E-03     42.1574E-03    -53.8266E-03     103.330E-03    -49.7203E-03     41.8211E-03
            2429     8.56439E-03     2.11384E-03    -10.3081E+06    -98.3056E+06    -20.6482E+06    -19.2003E+06    -52.9407E-03     102.338E-03    -49.3977E-03     36.4479E-03    -52.8321E-03     101.903E-03    -49.3435E-03     36.1187E-03
            2430     7.71058E-03     2.10952E-03    -13.4759E+06    -116.300E+06    -22.1887E+06    -18.7455E+06    -52.0286E-03     101.100E-03    -49.0715E-03     31.5040E-03    -51.9035E-03     100.578E-03    -48.9943E-03     31.1994E-03
            2431     6.85613E-03     2.10593E-03    -16.9340E+06    -127.147E+06    -22.6655E+06    -15.9490E+06    -51.1624E-03     99.9319E-03    -48.7696E-03     27.1251E-03    -51.0355E-03     99.3584E-03    -48.6740E-03     26.8709E-03
            2432     6.00082E-03     2.10287E-03    -19.9492E+06    -131.950E+06    -23.1857E+06    -11.5630E+06    -50.3612E-03     98.8499E-03    -48.4887E-03     23.1606E-03    -50.2399E-03     98.2557E-03    -48.3844E-03     22.9742E-03
            2433     5.14497E-03     2.10032E-03    -22.5334E+06    -134.259E+06    -23.9052E+06    -7.49685E+06    -49.6270E-03     97.8633E-03    -48.2363E-03     19.4833E-03    -49.5129E-03     97.2611E-03    -48.1285E-03     19.3583E-03
            2434     4.28835E-03     2.09822E-03    -24.6867E+06     -136.02E+06    -25.0350E+06    -4.63423E+06    -48.9883E-03     97.0056E-03    -48.0172E-03     16.0356E-03    -48.8800E-03     96.3985E-03    -47.9094E-03     15.9546E-03
            2435     3.43135E-03     2.09655E-03    -26.2469E+06    -137.202E+06    -26.1062E+06    -2.81197E+06    -48.4617E-03     96.2963E-03    -47.8347E-03     12.7569E-03    -48.3572E-03     95.6866E-03    -47.7282E-03     12.7051E-03
            2436     2.57385E-03     2.09528E-03    -27.3045E+06    -138.080E+06    -27.1684E+06    -1.68287E+06    -48.0380E-03     95.7290E-03    -47.6910E-03     9.57384E-03    -47.9356E-03     95.1176E-03    -47.5871E-03     9.54132E-03
            2437     1.71604E-03     2.09439E-03    -27.8951E+06    -138.591E+06    -27.8544E+06    -919.825E+03    -47.7346E-03     95.3265E-03    -47.5919E-03     6.46776E-03    -47.6332E-03     94.7142E-03    -47.4898E-03     6.44912E-03
            2438     858.066E-06     2.09399E-03    -28.3647E+06    -138.968E+06    -28.2846E+06    -390.398E+03    -47.5838E-03     95.1053E-03    -47.5215E-03     3.47459E-03    -47.4827E-03     94.4930E-03    -47.4203E-03     3.46587E-03
            2439     16.0947E-03     1.15544E-03    -439.509E+03     107.566E+06     80.5758E+06     11.6954E+06    -114.179E-03     176.027E-03    -61.8482E-03     155.539E-03    -115.741E-03     177.729E-03    -61.6006E-03     153.015E-03
            2440     15.2655E-03     1.11579E-03      75.579E+03     97.8665E+06     80.8540E+06     5.75577E+06    -91.7479E-03     151.294E-03    -59.5458E-03     121.402E-03    -92.5779E-03     152.230E-03    -59.2836E-03     120.277E-03
            2441     14.4318E-03     1.10425E-03     3.11870E+06     89.2323E+06     67.4825E+06    -1.38910E+06    -79.6871E-03     137.584E-03    -57.8974E-03     84.6375E-03    -80.0962E-03     138.120E-03    -57.6939E-03     84.0741E-03
            2442     13.5991E-03     1.09136E-03     3.29130E+06     77.8910E+06     36.7173E+06    -283.025E+03    -74.1323E-03     130.651E-03    -56.5182E-03     66.1730E-03    -74.3673E-03     131.063E-03    -56.4523E-03     65.8547E-03
            2443     12.7641E-03     1.08119E-03     1.72069E+06     62.0860E+06     3.32904E+06     2.12271E+06    -69.4701E-03     124.799E-03    -55.3289E-03     51.3778E-03    -69.5990E-03     125.142E-03    -55.4048E-03     51.1958E-03
            2444     11.9252E-03     1.07498E-03     2.50802E+06     32.8272E+06    -17.2709E+06     1.00333E+06    -65.8441E-03     120.221E-03    -54.3767E-03     41.2074E-03    -65.8794E-03     120.430E-03    -54.5143E-03     41.0719E-03
            2445     11.0823E-03     1.07000E-03     3.37653E+06    -9.73683E+06    -30.1820E+06    -4.00516E+06    -63.0009E-03     116.605E-03    -53.6040E-03     33.9891E-03    -62.9415E-03     116.609E-03    -53.7457E-03     33.8320E-03
            2446     10.2368E-03     1.06554E-03     1.91395E+06    -47.7964E+06    -39.5052E+06    -9.27456E+06    -60.7196E-03     113.660E-03    -52.9406E-03     28.4114E-03    -60.5931E-03     113.485E-03    -53.0716E-03     28.2133E-03
            2447     9.38997E-03     1.06231E-03    -1.86584E+06    -76.9389E+06    -44.2866E+06    -11.6746E+06    -58.7303E-03     111.099E-03    -52.3682E-03     24.0636E-03    -58.5701E-03     110.786E-03    -52.4754E-03     23.8541E-03
            2448     8.54082E-03     1.05933E-03    -6.59863E+06    -100.834E+06     -44.462E+06    -11.6650E+06    -56.9893E-03     108.873E-03    -51.8839E-03     20.5413E-03    -56.8157E-03     108.447E-03    -51.9504E-03     20.3462E-03
            2449     7.69049E-03     1.05697E-03    -11.4051E+06    -120.057E+06    -41.4120E+06    -10.8345E+06    -55.4908E-03     106.965E-03    -51.4741E-03     17.5333E-03    -55.3165E-03     106.444E-03    -51.4905E-03     17.3591E-03
            2450     6.83871E-03     1.05494E-03    -16.0830E+06    -133.129E+06    -36.1361E+06    -9.26227E+06    -54.2007E-03     105.327E-03    -51.1259E-03     14.9751E-03    -54.0375E-03     104.738E-03    -51.0903E-03     14.8290E-03
            2451     5.98605E-03     1.05327E-03     -19.945E+06    -138.273E+06    -31.5742E+06    -6.56153E+06    -53.0970E-03     103.914E-03    -50.8169E-03     12.7130E-03    -52.9517E-03     103.298E-03    -50.7454E-03     12.6079E-03
            2452     5.13238E-03     1.05192E-03    -22.7019E+06    -138.755E+06    -28.8158E+06    -3.97378E+06    -52.1653E-03     102.708E-03    -50.5431E-03     10.6644E-03    -52.0367E-03     102.090E-03    -50.4531E-03     10.5974E-03
            2453     4.27810E-03     1.05086E-03    -24.4749E+06    -138.916E+06    -27.3849E+06    -2.35942E+06    -51.4041E-03     101.715E-03    -50.3113E-03     8.77573E-03    -51.2859E-03     101.096E-03    -50.2113E-03     8.73340E-03
            2454     3.42310E-03     1.04997E-03    -25.6366E+06    -139.078E+06    -26.8916E+06    -1.40795E+06    -50.7998E-03     100.922E-03    -50.1226E-03     6.96489E-03    -50.6876E-03     100.303E-03    -50.0182E-03     6.93797E-03
            2455     2.56773E-03     1.04935E-03    -26.3892E+06    -139.308E+06    -26.9441E+06    -867.158E+03    -50.3404E-03     100.319E-03    -49.9788E-03     5.17588E-03    -50.2314E-03     99.6998E-03    -49.8732E-03     5.15844E-03
            2456     1.71193E-03     1.04894E-03    -26.9045E+06    -139.534E+06    -27.1352E+06    -561.285E+03    -50.0276E-03     99.9095E-03    -49.8819E-03     3.43688E-03    -49.9205E-03     99.2900E-03    -49.7762E-03     3.42553E-03
            2457     855.944E-06     1.04859E-03    -27.4131E+06    -139.833E+06    -27.3820E+06    -322.682E+03    -49.9224E-03     99.6908E-03    -49.7683E-03     1.83419E-03    -49.8160E-03     99.0715E-03    -49.6627E-03     1.82804E-03


