********************************************************************************
Field Output Report, written Wed May 29 01:32:43 2024

Source 1
---------

   ODB: G:/Abaqus_calc_2019/1740/Vel_5/odb/zeides_2a_40_red_500_cal_50_vel_5_fric_0100.odb
   Step: Step-1
   Frame: Increment  16171255: Step Time =    1.905

Loc 1 : Nodal values from source 1

Output sorted by column "Nodal Label".

Field Output reported at nodes for region: DIE_2A_40_D0_36-1.Region_1
   Computation algorithm: EXTRAPOLATE_COMPUTE_AVERAGE
   Averaged at nodes
   Averaging regions: ODB_REGIONS

      Node Label     COORD.COOR1     COORD.COOR2
                          @Loc 1          @Loc 1
-------------------------------------------------
               1     22.9485E-03     115.527E-03


Field Output reported at nodes for region: DIE_2A_40_D0_36-1.Region_2
   Computation algorithm: EXTRAPOLATE_COMPUTE_AVERAGE
   Averaged at nodes
   Averaging regions: ODB_REGIONS

      Node Label     COORD.COOR1     COORD.COOR2
                          @Loc 1          @Loc 1
-------------------------------------------------
               1     22.9485E-03     115.527E-03


Field Output reported at nodes for part: WIRE-1
   Computation algorithm: EXTRAPOLATE_COMPUTE_AVERAGE
   Averaged at nodes
   Averaging regions: ODB_REGIONS

      Node Label     COORD.COOR1     COORD.COOR2           S.S11           S.S22           S.S33           S.S12         PE.PE11         PE.PE22         PE.PE33         PE.PE12         LE.LE11         LE.LE22         LE.LE33         LE.LE12
                          @Loc 1          @Loc 1          @Loc 1          @Loc 1          @Loc 1          @Loc 1          @Loc 1          @Loc 1          @Loc 1          @Loc 1          @Loc 1          @Loc 1          @Loc 1          @Loc 1
-------------------------------------------------------------------------------------------------------------------------------------------------------------------------------------------------------------------------------------------------
               1    -40.8900E-09     60.6071E-03    -55.0741E+06    -173.037E+06    -55.2532E+06    -95.2974E+03    -56.0187E-03     112.034E-03    -56.0157E-03     5.62258E-03    -55.9630E-03     111.331E-03    -55.9612E-03     5.60022E-03
               2     17.0236E-03     63.1188E-03    -2.65173E+06     157.906E+06     108.771E+06    -1.37779E+06    -63.8783E-03     119.937E-03    -56.0583E-03     283.977E-03    -79.5920E-03     135.886E-03    -55.7396E-03     296.512E-03
               3     16.2037E-03     124.888E-03    -4.24360E+06    -15.4159E+06    -24.4916E+06    -23.1343E+06     47.6307E-03     46.9020E-03    -94.5327E-03     2.45230E-03     47.8045E-03     47.0036E-03    -94.6267E-03     2.15372E-03
               4     734.539E-09     121.305E-03     40.6411E+06    -2.49330E+06     41.4470E+06    -1.26670E+06    -56.4081E-03     112.410E-03    -56.0020E-03    -4.03271E-03    -56.2732E-03     112.267E-03    -55.8501E-03    -4.05655E-03
               5     404.752E-09    -2.58127E-15    -26.6439E+06    -140.922E+06    -26.7843E+06     183.170E+03    -50.2647E-03     100.186E-03    -49.9214E-03     412.003E-06    -50.1524E-03     99.5603E-03    -49.8124E-03     414.304E-06
               6     16.7248E-03    -2.58127E-15    -222.220E+03     99.9130E+06     85.5049E+06     8.66624E+06    -197.113E-03     263.131E-03    -66.0177E-03     245.702E-03    -200.475E-03     266.652E-03    -65.7348E-03     237.867E-03
               7     851.058E-06     60.6126E-03    -54.5556E+06    -172.114E+06    -53.7253E+06    -95.1082E+03    -56.0429E-03     112.064E-03    -56.0212E-03     9.39292E-03    -55.9894E-03     111.362E-03    -55.9611E-03     9.35646E-03
               8     1.70202E-03     60.6258E-03    -53.0665E+06    -169.504E+06    -49.5923E+06    -46.3720E+03    -56.0899E-03     112.124E-03    -56.0345E-03     17.2548E-03    -56.0420E-03     111.430E-03    -55.9597E-03     17.1883E-03
               9     2.55308E-03     60.6473E-03    -50.7800E+06    -165.268E+06    -42.9481E+06     128.154E+03    -56.1475E-03     112.200E-03    -56.0520E-03     25.4827E-03    -56.1095E-03     111.519E-03    -55.9535E-03     25.3830E-03
              10     3.40413E-03     60.6771E-03    -47.8925E+06    -160.514E+06    -35.6384E+06     660.217E+03    -56.2442E-03     112.311E-03    -56.0670E-03     33.6742E-03    -56.2178E-03     111.648E-03    -55.9430E-03     33.5413E-03
              11     4.25519E-03     60.7152E-03    -44.5388E+06    -153.811E+06    -28.5521E+06     1.04918E+06    -56.3738E-03     112.450E-03    -56.0764E-03     41.7366E-03    -56.3628E-03     111.818E-03    -55.9315E-03     41.5628E-03
              12     5.10635E-03     60.7611E-03    -40.9881E+06    -147.363E+06    -20.5028E+06     900.216E+03    -56.5309E-03     112.622E-03    -56.0906E-03     49.6522E-03    -56.5403E-03     112.022E-03    -55.9200E-03     49.4230E-03
              13     5.95747E-03     60.8150E-03    -37.4682E+06    -141.282E+06    -13.5316E+06     614.057E+03    -56.7152E-03     112.815E-03    -56.1002E-03     57.3740E-03    -56.7492E-03     112.254E-03    -55.9087E-03     57.0785E-03
              14     6.80858E-03     60.8764E-03    -34.0963E+06    -129.235E+06    -9.70863E+06     140.555E+03    -56.8948E-03     112.980E-03    -56.0848E-03     64.9974E-03    -56.9663E-03     112.499E-03    -55.8966E-03     64.6236E-03
              15     7.65976E-03     60.9456E-03    -31.2214E+06    -119.537E+06    -8.42354E+06    -144.452E+03    -57.0811E-03     113.140E-03    -56.0584E-03     72.4640E-03    -57.1963E-03     112.744E-03    -55.8819E-03     72.0021E-03
              16     8.51100E-03     61.0219E-03    -29.1665E+06    -110.237E+06    -7.76907E+06     339.432E+03    -57.2862E-03     113.315E-03    -56.0285E-03     79.9146E-03    -57.4626E-03     113.019E-03    -55.8652E-03     79.3595E-03
              17     9.36231E-03     61.1060E-03    -27.6012E+06    -94.1936E+06    -7.19273E+06     1.12542E+06    -57.4916E-03     113.479E-03    -55.9876E-03     87.5691E-03    -57.7617E-03     113.338E-03    -55.8470E-03     86.9080E-03
              18     10.2137E-03     61.1976E-03    -25.3956E+06    -74.8119E+06    -6.04646E+06     1.56267E+06    -57.7065E-03     113.650E-03    -55.9432E-03     95.0384E-03    -58.1019E-03     113.707E-03    -55.8281E-03     94.2447E-03
              19     11.0650E-03     61.2968E-03    -23.2161E+06    -48.1956E+06    -4.62086E+06     1.71678E+06    -57.9419E-03     113.832E-03    -55.8900E-03     103.412E-03    -58.5243E-03     114.174E-03    -55.8096E-03     102.451E-03
              20     11.9165E-03     61.4052E-03    -22.0594E+06    -8.90245E+06    -5.52444E+06     2.13965E+06    -58.4685E-03     114.280E-03    -55.8113E-03     116.419E-03    -59.3689E-03     115.086E-03    -55.7941E-03     115.239E-03
              21     12.7676E-03     61.5311E-03    -21.7682E+06     34.8441E+06    -2.84517E+06     2.18455E+06    -59.6627E-03     115.415E-03    -55.7528E-03     139.911E-03    -61.1885E-03     116.996E-03    -55.7860E-03     138.395E-03
              22     13.6186E-03     61.6862E-03    -20.8651E+06     68.9912E+06     20.8800E+06     1.56998E+06    -62.7927E-03     118.598E-03    -55.8055E-03     192.259E-03    -65.9473E-03     121.863E-03    -55.7709E-03     190.183E-03
              23     14.4693E-03     61.9190E-03    -17.5667E+06     99.4703E+06     62.0505E+06     2.28311E+06    -73.2962E-03     129.227E-03    -55.9306E-03     302.516E-03    -82.3180E-03     138.359E-03    -55.7391E-03     299.294E-03
              24     15.3224E-03     62.3076E-03    -12.1337E+06     132.089E+06     95.6610E+06     1.94408E+06    -85.9019E-03     141.937E-03    -56.0353E-03     424.465E-03    -108.926E-03     165.110E-03    -55.7309E-03     422.156E-03
              25     16.1749E-03     62.8111E-03    -5.81036E+06     153.034E+06     108.306E+06    -387.812E+03    -77.1113E-03     133.180E-03    -56.0684E-03     378.616E-03    -101.151E-03     157.428E-03    -55.7404E-03     384.583E-03
              26     17.0264E-03     64.1715E-03    -564.701E+03     156.075E+06     109.659E+06    -556.630E+03    -61.4313E-03     117.505E-03    -56.0742E-03     278.879E-03    -76.7057E-03     133.014E-03    -55.7514E-03     291.635E-03
              27     17.0248E-03     65.2234E-03    -3.50709E+06     154.341E+06     107.430E+06     -5.7395E+03    -63.9599E-03     119.963E-03    -56.0029E-03     277.341E-03    -79.1772E-03     135.404E-03    -55.6845E-03     289.869E-03
              28     17.0251E-03     66.2986E-03    -2.80756E+06     157.716E+06     108.658E+06     1.74960E+06    -65.6075E-03     121.592E-03    -55.9841E-03     281.115E-03    -80.9925E-03     137.212E-03    -55.6655E-03     293.290E-03
              29     17.0253E-03     67.3538E-03    -1.79785E+06     163.034E+06     110.232E+06     1.72782E+06    -61.7224E-03     117.761E-03    -56.0384E-03     279.325E-03    -76.9834E-03     133.275E-03    -55.7210E-03     291.919E-03
              30     17.0272E-03     68.3984E-03    -5.26082E+06     160.859E+06     107.847E+06    -1.33008E+06    -62.5756E-03     118.556E-03    -55.9804E-03     275.340E-03    -77.5696E-03     133.790E-03    -55.6668E-03     287.882E-03
              31     17.0247E-03     69.4728E-03    -3.16131E+06     157.305E+06     108.723E+06    -1.96688E+06    -65.4798E-03     121.429E-03    -55.9488E-03     275.979E-03    -80.4497E-03     136.631E-03    -55.6287E-03     287.999E-03
              32     17.0255E-03     70.5315E-03    -621.365E+03     159.314E+06     110.921E+06     656.344E+03    -63.2116E-03     119.253E-03    -56.0410E-03     275.120E-03    -78.1512E-03     134.434E-03    -55.7165E-03     287.425E-03
              33     17.0242E-03     71.5782E-03    -2.91511E+06     162.589E+06     110.216E+06     1.74139E+06    -63.7780E-03     119.817E-03    -56.0393E-03     272.381E-03    -78.5631E-03     134.850E-03    -55.7197E-03     284.628E-03
              34     17.0244E-03     72.6534E-03    -4.88384E+06     162.906E+06     109.203E+06     215.992E+03    -67.0267E-03     123.015E-03    -55.9880E-03     275.951E-03    -82.1642E-03     138.397E-03    -55.6711E-03     287.859E-03
              35     17.0236E-03     73.7172E-03    -3.68772E+06     161.881E+06     110.192E+06    -318.768E+03    -66.5856E-03     122.604E-03    -56.0182E-03     283.042E-03    -82.3013E-03     138.562E-03    -55.6966E-03     295.285E-03
              36     17.0252E-03     74.7827E-03    -1.23013E+06     162.843E+06     112.069E+06     852.484E+03    -63.4092E-03     119.492E-03    -56.0826E-03     287.299E-03    -79.3593E-03     135.691E-03    -55.7566E-03     300.019E-03
              37     17.0250E-03     75.8363E-03    -1.64163E+06     164.106E+06     112.213E+06     207.899E+03    -60.5108E-03     116.622E-03    -56.1115E-03     285.485E-03    -76.2688E-03     132.632E-03    -55.7860E-03     298.476E-03
              38     17.0265E-03     76.8839E-03    -1.51049E+06     163.331E+06     111.168E+06    -247.680E+03    -61.2674E-03     117.321E-03    -56.0534E-03     278.439E-03    -76.5375E-03     132.843E-03    -55.7322E-03     291.211E-03
              39     17.0247E-03     77.9444E-03    -4.54018E+06     161.616E+06     109.286E+06    -713.915E+03    -66.9861E-03     122.933E-03    -55.9465E-03     276.941E-03    -82.2400E-03     138.427E-03    -55.6278E-03     288.979E-03
              40     17.0237E-03     79.0183E-03    -3.88422E+06     163.681E+06     111.149E+06     955.821E+03    -67.5719E-03     123.539E-03    -55.9672E-03     279.061E-03    -82.9261E-03     139.139E-03    -55.6432E-03     290.932E-03
              41     17.0259E-03     80.0770E-03    -1.80512E+06     165.289E+06     112.109E+06     532.527E+03    -61.8672E-03     117.945E-03    -56.0775E-03     282.693E-03    -77.4439E-03     133.777E-03    -55.7540E-03     295.431E-03
              42     17.0254E-03     81.1289E-03    -3.06936E+06     163.628E+06     110.763E+06    -1.14824E+06    -62.4115E-03     118.472E-03    -56.0603E-03     282.728E-03    -78.0751E-03     134.384E-03    -55.7393E-03     295.555E-03
              43     17.0242E-03     82.1911E-03    -3.63205E+06     161.908E+06     109.938E+06    -398.675E+03    -65.3610E-03     121.381E-03    -56.0203E-03     280.080E-03    -80.8026E-03     137.066E-03    -55.7001E-03     292.333E-03
              44     17.0243E-03     83.2553E-03    -2.63174E+06     161.902E+06     110.092E+06    -293.805E+03    -64.5905E-03     120.643E-03    -56.0522E-03     281.818E-03    -80.1342E-03     136.433E-03    -55.7327E-03     294.203E-03
              45     17.0247E-03     84.3106E-03    -1.96101E+06     161.762E+06     110.091E+06     148.489E+03    -63.2453E-03     119.305E-03    -56.0601E-03     280.123E-03    -78.6681E-03     134.976E-03    -55.7413E-03     292.703E-03
              46     17.0252E-03     85.3691E-03    -2.90312E+06     160.097E+06     109.052E+06    -366.113E+03    -64.2306E-03     120.260E-03    -56.0298E-03     279.372E-03    -79.6688E-03     135.940E-03    -55.7125E-03     291.871E-03
              47     17.0239E-03     86.4342E-03    -3.21874E+06     160.504E+06     109.505E+06     338.147E+03    -65.5052E-03     121.515E-03    -56.0095E-03     281.936E-03    -81.1339E-03     137.384E-03    -55.6901E-03     294.276E-03
              48     17.0258E-03     87.4967E-03    -1.75114E+06     162.306E+06     110.628E+06     960.760E+03    -63.9537E-03     119.979E-03    -56.0252E-03     283.460E-03    -79.6466E-03     135.921E-03    -55.7048E-03     295.956E-03
              49     17.0252E-03     88.5515E-03    -2.29946E+06     163.376E+06     110.695E+06     335.126E+03    -63.3502E-03     119.360E-03    -56.0098E-03     282.962E-03    -79.0638E-03     135.324E-03    -55.6898E-03     295.607E-03
              50     17.0263E-03     89.6124E-03    -3.01721E+06     164.681E+06     111.130E+06     764.092E+03    -64.2761E-03     120.247E-03    -55.9712E-03     281.722E-03    -79.8931E-03     136.116E-03    -55.6499E-03     294.205E-03
              51     17.0256E-03     90.6739E-03    -2.73053E+06     168.167E+06     112.338E+06     1.91166E+06    -64.1527E-03     120.109E-03    -55.9563E-03     283.482E-03    -79.8666E-03     136.084E-03    -55.6345E-03     296.014E-03
              52     17.0275E-03     91.7338E-03    -4.59669E+06     170.041E+06     111.456E+06     164.235E+03    -63.8902E-03     119.827E-03    -55.9372E-03     284.273E-03    -79.6933E-03     135.895E-03    -55.6198E-03     296.878E-03
              53     17.0259E-03     92.7923E-03    -3.33627E+06     169.929E+06     112.036E+06    -851.708E+03    -63.1612E-03     119.100E-03    -55.9386E-03     282.373E-03    -78.7578E-03     134.963E-03    -55.6200E-03     294.959E-03
              54     17.0282E-03     93.8485E-03    -289.275E+03     171.322E+06     114.329E+06     1.33061E+06    -60.7421E-03     116.660E-03    -55.9182E-03     280.115E-03    -75.9855E-03     132.180E-03    -55.5946E-03     292.834E-03
              55     17.0309E-03     94.8989E-03    -2.54848E+06     173.152E+06     114.180E+06     1.28001E+06    -62.8470E-03     118.629E-03    -55.7822E-03     277.949E-03    -78.0309E-03     134.088E-03    -55.4587E-03     290.483E-03
              56     17.0282E-03     95.9667E-03    -6.09494E+06     176.664E+06     115.118E+06     1.10019E+06    -66.9961E-03     122.649E-03    -55.6531E-03     278.465E-03    -82.3550E-03     138.280E-03    -55.3249E-03     290.528E-03
              57     17.0327E-03     97.0345E-03    -3.65013E+06     177.337E+06     116.647E+06     57.9382E+03    -63.5100E-03     119.145E-03    -55.6353E-03     283.078E-03    -79.1337E-03     135.047E-03    -55.3039E-03     295.577E-03
              58     17.0345E-03     98.0860E-03    -1.94043E+06     174.783E+06     116.991E+06    -384.894E+03    -60.4348E-03     115.973E-03    -55.5381E-03     286.263E-03    -76.3312E-03     132.144E-03    -55.2037E-03     299.466E-03
              59     17.0386E-03     99.1420E-03    -2.75053E+06     174.584E+06     118.240E+06     1.41838E+06    -62.1803E-03     117.452E-03    -55.2721E-03     286.793E-03    -78.0836E-03     133.623E-03    -54.9301E-03     299.776E-03
              60     17.0439E-03     100.206E-03    -2.41241E+06     175.736E+06     119.530E+06     1.49001E+06    -62.1927E-03     117.175E-03    -54.9819E-03     287.936E-03    -78.0834E-03     133.334E-03    -54.6355E-03     300.723E-03
              61     17.0491E-03     101.258E-03    -2.54374E+06     176.204E+06     120.465E+06     845.738E+03    -61.6176E-03     116.275E-03    -54.6579E-03     285.598E-03    -77.3154E-03     132.241E-03    -54.3073E-03     298.452E-03
              62     17.0559E-03     102.311E-03    -3.16475E+06     175.732E+06     120.353E+06     786.337E+03    -63.2568E-03     117.490E-03    -54.2334E-03     281.996E-03    -78.6413E-03     133.139E-03    -53.8819E-03     294.552E-03
              63     17.0621E-03     103.377E-03    -2.19070E+06     176.493E+06     121.392E+06     1.64376E+06    -65.0698E-03     118.856E-03    -53.7858E-03     283.269E-03    -80.5905E-03     134.643E-03    -53.4316E-03     295.661E-03
              64     17.0699E-03     104.437E-03    -3.37566E+06     176.381E+06     121.775E+06     941.105E+03    -66.4348E-03     119.773E-03    -53.3386E-03     282.554E-03    -82.0676E-03     135.667E-03    -52.9806E-03     294.911E-03
              65     17.0755E-03     105.496E-03    -3.99479E+06     173.845E+06     120.472E+06    -110.311E+03    -71.6246E-03     124.469E-03    -52.8442E-03     282.381E-03    -87.3416E-03     140.440E-03    -52.4881E-03     294.182E-03
              66     17.0805E-03     106.576E-03    -4.14619E+06     171.588E+06     120.572E+06    -435.616E+03    -75.3881E-03     127.820E-03    -52.4317E-03     283.151E-03    -91.1729E-03     143.850E-03    -52.0716E-03     294.345E-03
              67     17.0865E-03     107.641E-03    -1.91427E+06     167.470E+06     120.064E+06    -1.39319E+06    -77.3653E-03     129.466E-03    -52.1007E-03     281.220E-03    -93.0786E-03     145.419E-03    -51.7405E-03     292.188E-03
              68     17.0879E-03     108.710E-03     -3.2914E+06     160.648E+06     117.409E+06    -2.57389E+06    -84.8372E-03     136.550E-03    -51.7129E-03     275.261E-03    -100.140E-03     152.072E-03    -51.3540E-03     285.042E-03
              69     17.0914E-03     109.800E-03    -2.10506E+06     156.165E+06     118.237E+06    -723.249E+03    -92.4313E-03     143.809E-03    -51.3777E-03     274.938E-03    -107.612E-03     159.195E-03    -51.0099E-03     283.368E-03
              70     17.0934E-03     110.894E-03    -4.63921E+06     150.745E+06     117.815E+06    -2.41955E+06    -99.5429E-03     150.634E-03    -51.0906E-03     279.729E-03    -115.107E-03     166.375E-03    -50.7134E-03     287.115E-03
              71     17.0948E-03     111.990E-03    -2.83532E+06     144.161E+06     116.053E+06    -2.14394E+06    -110.100E-03     160.820E-03    -50.7202E-03     281.081E-03    -125.674E-03     176.561E-03    -50.3449E-03     286.835E-03
              72     17.0979E-03     113.108E-03    -5.64484E+06     135.102E+06     113.522E+06    -3.29589E+06    -121.737E-03     172.048E-03    -50.3113E-03     288.901E-03    -137.667E-03     188.114E-03    -49.9314E-03     292.678E-03
              73     17.1009E-03     114.243E-03    -1.87679E+06     125.226E+06     117.023E+06    -3.17336E+06    -133.965E-03     183.879E-03    -49.9146E-03     303.801E-03    -150.949E-03     200.968E-03    -49.5083E-03     305.364E-03
              74     17.1033E-03     115.384E-03    -7.16296E+06     104.673E+06     113.658E+06    -8.66935E+06    -149.234E-03     198.736E-03    -49.5029E-03     318.542E-03    -167.401E-03     216.929E-03    -49.0760E-03     317.110E-03
              75     17.1030E-03     116.551E-03     2.30813E+06     96.9378E+06     118.370E+06     540.336E+03    -162.412E-03     211.628E-03    -49.2160E-03     336.225E-03    -181.966E-03     231.204E-03    -48.7680E-03     331.864E-03
              76     17.1049E-03     117.727E-03    -7.70286E+06     79.8640E+06     121.625E+06    -7.32786E+06    -171.387E-03     220.523E-03    -49.1360E-03     366.983E-03    -193.530E-03     242.585E-03    -48.6325E-03     359.521E-03
              77     17.1032E-03     118.909E-03    -2.00157E+06     63.3691E+06     119.746E+06     -4.1847E+06    -181.472E-03     230.529E-03    -49.0569E-03     404.948E-03    -206.611E-03     255.557E-03    -48.5472E-03     393.727E-03
              78     17.1044E-03     120.102E-03     2.61314E+06     72.4240E+06     141.925E+06     4.95789E+06    -178.616E-03     228.019E-03    -49.4027E-03     446.039E-03    -206.279E-03     255.555E-03    -48.8019E-03     431.689E-03
              79     17.1026E-03     121.259E-03    -12.8379E+06     45.2327E+06     103.079E+06    -19.3783E+06    -139.661E-03     190.008E-03    -50.3471E-03     493.381E-03    -165.133E-03     215.312E-03    -49.8786E-03     482.764E-03
              80     17.1158E-03     122.290E-03    -1.10356E+06    -7.16853E+06     19.9121E+06    -26.5449E+06    -50.5824E-03     104.060E-03    -53.4780E-03     463.155E-03    -63.8024E-03     117.253E-03    -53.3664E-03     461.034E-03
              81     17.0019E-03     123.113E-03     2.56343E+06    -5.00149E+06     41.5890E+06     12.1310E+06     27.0066E-03     36.7027E-03    -63.7094E-03     253.981E-03     24.6424E-03     38.8314E-03    -63.4979E-03     254.958E-03
              82     16.5816E-03     123.946E-03     9.36004E+06     4.26083E+06     35.7757E+06     16.7311E+06     46.8190E-03     36.1150E-03    -82.9340E-03     50.8921E-03     46.8005E-03     36.0578E-03    -82.7749E-03     51.1071E-03
              83     15.3036E-03     124.441E-03    -15.1341E+06    -3.12407E+06    -7.66729E+06     10.9427E+06     42.6032E-03     52.7149E-03    -95.3180E-03     10.5917E-03     42.5856E-03     52.7750E-03    -95.3299E-03     10.7324E-03
              84     14.4866E-03     124.003E-03    -13.2653E+06     39.7361E+06     58.9444E+06    -2.32453E+06     10.6446E-03     85.0443E-03    -95.6890E-03     3.40905E-03     10.3856E-03     85.1274E-03    -95.4326E-03     3.35295E-03
              85     13.7128E-03     123.558E-03    -20.8882E+06    -13.8507E+06     73.4843E+06    -9.34651E+06    -33.4195E-03     126.590E-03    -93.1709E-03    -48.2376E-03    -33.6534E-03     126.358E-03    -92.7531E-03    -48.5117E-03
              86     12.9744E-03     123.166E-03    -22.1363E+06    -7.33647E+06     47.8096E+06    -7.63334E+06    -58.5022E-03     146.801E-03    -88.2988E-03    -100.571E-03    -58.6975E-03     146.557E-03    -88.0170E-03    -101.031E-03
              87     12.2504E-03     122.831E-03    -2.18341E+06    -5.02866E+06     52.9244E+06    -22.2357E+06    -69.9135E-03     153.137E-03    -83.2240E-03    -113.260E-03    -69.9944E-03     152.848E-03    -82.9489E-03    -114.008E-03
              88     11.4990E-03     122.557E-03     5.27868E+06    -22.1087E+06     67.7774E+06    -7.93356E+06    -75.3052E-03     154.199E-03    -78.8935E-03    -103.409E-03    -75.3376E-03     153.833E-03    -78.5302E-03    -103.931E-03
              89     10.7324E-03     122.327E-03     17.4474E+06     2.46758E+06     78.6113E+06    -11.8449E+06    -78.2919E-03     153.458E-03    -75.1660E-03    -89.9863E-03    -78.3198E-03     153.220E-03    -74.8019E-03    -90.4878E-03
              90     9.94940E-03     122.137E-03     27.0901E+06    -12.1377E+06     81.3780E+06    -5.40024E+06    -79.2194E-03     151.181E-03    -71.9617E-03    -76.8344E-03    -79.1836E-03     150.884E-03    -71.5765E-03    -77.1902E-03
              91     9.15467E-03     121.977E-03     32.9314E+06     898.718E+03     85.5854E+06    -2.62953E+06    -78.4428E-03     147.549E-03    -69.1064E-03    -64.7305E-03    -78.4050E-03     147.325E-03    -68.7276E-03    -64.9965E-03
              92     8.34985E-03     121.843E-03     36.0991E+06    -3.05416E+06     80.9931E+06    -819.409E+03    -76.4794E-03     143.010E-03    -66.5302E-03    -53.6564E-03    -76.4153E-03     142.784E-03    -66.1732E-03    -53.8520E-03
              93     7.53667E-03     121.728E-03     38.0316E+06     932.545E+03     77.6228E+06    -244.335E+03    -73.4102E-03     137.635E-03    -64.2251E-03    -43.8261E-03    -73.3389E-03     137.442E-03    -63.8935E-03    -43.9748E-03
              94     6.71617E-03     121.632E-03     38.4052E+06    -442.930E+03     71.5007E+06     310.167E+03    -69.9080E-03     132.112E-03    -62.2041E-03    -35.4917E-03    -69.8249E-03     131.928E-03    -61.9017E-03    -35.6010E-03
              95     5.88882E-03     121.550E-03     38.3229E+06     2.02190E+06     68.1421E+06    -623.198E+03    -66.5687E-03     127.043E-03    -60.4744E-03    -28.6854E-03    -66.4849E-03     126.882E-03    -60.1922E-03    -28.7815E-03
              96     5.05638E-03     121.483E-03     38.7273E+06    -392.336E+03     63.2422E+06    -1.25947E+06    -63.5160E-03     122.525E-03    -59.0092E-03    -22.9940E-03    -63.4200E-03     122.362E-03    -58.7486E-03    -23.0785E-03
              97     4.21969E-03     121.427E-03     39.7294E+06     572.117E+03     57.4929E+06    -1.46352E+06    -60.7864E-03     118.588E-03    -57.8012E-03    -18.0762E-03    -60.6785E-03     118.439E-03    -57.5721E-03    -18.1476E-03
              98     3.37921E-03     121.383E-03     40.7905E+06    -356.748E+03     52.5573E+06    -1.46448E+06    -58.5617E-03     115.435E-03    -56.8736E-03    -13.9389E-03    -58.4400E-03     115.289E-03    -56.6694E-03    -13.9973E-03
              99     2.53619E-03     121.349E-03     41.8950E+06     579.741E+03     49.3817E+06    -1.84336E+06    -56.8658E-03     113.102E-03    -56.2361E-03    -10.5016E-03    -56.7352E-03     112.965E-03    -56.0508E-03    -10.5547E-03
             100     1.69081E-03     121.324E-03     42.8853E+06    -831.385E+03     45.8821E+06    -2.37299E+06    -55.6226E-03     111.596E-03    -55.9730E-03    -7.96154E-03    -55.4795E-03     111.456E-03    -55.8046E-03    -8.01292E-03
             101     843.242E-06     121.309E-03     41.9214E+06    -1.34822E+06     42.9847E+06    -1.80995E+06    -55.7630E-03     111.741E-03    -55.9782E-03    -5.52634E-03    -55.6225E-03     111.602E-03    -55.8221E-03    -5.56167E-03
             102    -326.919E-09     120.240E-03     34.1686E+06    -3.79264E+06     34.4805E+06    -1.27607E+06    -49.3682E-03     98.8848E-03    -49.5166E-03    -1.25817E-03    -49.2488E-03     98.7595E-03    -49.3883E-03    -1.28195E-03
             103    -264.768E-09     119.211E-03     16.7378E+06    -10.5842E+06     15.5182E+06    -2.60421E+06    -38.2529E-03     77.0483E-03    -38.7954E-03     950.542E-06    -38.1781E-03     76.9472E-03    -38.7267E-03     911.269E-06
             104    -69.0696E-09     118.195E-03    -6.37059E+06    -20.3897E+06    -7.14790E+06    -2.08507E+06    -31.2624E-03     62.5901E-03    -31.3278E-03     1.22654E-03    -31.2551E-03     62.5075E-03    -31.3247E-03     1.19569E-03
             105     296.419E-09     117.192E-03    -30.6652E+06    -29.0668E+06    -29.0727E+06    -2.74652E+06    -26.1907E-03     52.3145E-03    -26.1238E-03     2.65276E-03    -26.2598E-03     52.2563E-03    -26.1825E-03     2.61443E-03
             106    -386.266E-09     116.197E-03    -55.3581E+06    -40.3756E+06    -55.0768E+06    -4.11221E+06    -22.8624E-03     45.7493E-03    -22.8869E-03     3.69325E-03    -23.0005E-03     45.7084E-03    -23.0235E-03     3.63865E-03
             107     431.729E-09     115.207E-03    -87.5640E+06    -54.4163E+06    -86.9614E+06    -4.26614E+06    -21.2165E-03     42.3697E-03    -21.1532E-03     4.51867E-03    -21.4489E-03     42.3517E-03    -21.3821E-03     4.46304E-03
             108    -368.211E-09     114.219E-03    -117.403E+06    -68.6221E+06    -117.740E+06    -4.06642E+06    -20.9523E-03     41.8943E-03    -20.9420E-03     5.01533E-03    -21.2687E-03     41.8931E-03    -21.2610E-03     4.96297E-03
             109     307.196E-09     113.229E-03    -114.819E+06    -71.5459E+06    -117.778E+06     2.39849E+06    -22.0621E-03     44.0852E-03    -22.0230E-03     5.27800E-03    -22.3614E-03     44.0656E-03    -22.3417E-03     5.30967E-03
             110    -223.684E-09     112.237E-03    -78.2583E+06    -48.4399E+06    -79.6072E+06     11.0303E+06    -24.4893E-03     48.8399E-03    -24.3506E-03     5.65068E-03    -24.6948E-03     48.8272E-03    -24.5650E-03     5.79418E-03
             111     355.812E-09     111.238E-03    -49.2157E+06    -17.0484E+06    -45.1793E+06     7.39882E+06    -27.8781E-03     55.6707E-03    -27.7926E-03     6.20160E-03    -28.0341E-03     55.7227E-03    -27.9224E-03     6.29804E-03
             112    -305.653E-09     110.232E-03    -32.3130E+06    -7.87426E+06    -31.3010E+06    -1.28834E+06    -31.7286E-03     63.3617E-03    -31.6330E-03     6.56746E-03    -31.8335E-03     63.4149E-03    -31.7313E-03     6.55098E-03
             113     418.847E-09     109.217E-03    -21.3874E+06    -13.4705E+06    -21.8248E+06    -1.77341E+06    -35.6759E-03     71.1003E-03    -35.4244E-03     6.87003E-03    -35.7319E-03     71.0960E-03    -35.4830E-03     6.84606E-03
             114    -116.983E-09     108.195E-03    -14.1576E+06    -20.3167E+06    -13.1489E+06    -2.29466E+06    -39.3317E-03     78.4241E-03    -39.0924E-03     6.89944E-03    -39.3541E-03     78.3627E-03    -39.1082E-03     6.86722E-03
             115     223.145E-09     107.166E-03    -10.8459E+06    -30.2711E+06    -11.4837E+06    -2.94681E+06    -42.5968E-03     85.0315E-03    -42.4347E-03     6.58553E-03    -42.5906E-03     84.9132E-03    -42.4325E-03     6.54327E-03
             116    -73.3622E-09     106.131E-03    -13.8926E+06    -41.5250E+06    -13.2505E+06    -3.45811E+06    -45.5273E-03     91.0464E-03    -45.5192E-03     6.40807E-03    -45.5174E-03     90.8789E-03    -45.5051E-03     6.35691E-03
             117    -70.8583E-09     105.089E-03    -15.3789E+06    -55.2626E+06    -15.7448E+06    -4.19569E+06    -48.0836E-03     96.2936E-03    -48.2100E-03     6.26957E-03    -48.0575E-03     96.0633E-03    -48.1863E-03     6.20666E-03
             118    -22.2549E-09     104.042E-03    -19.2688E+06    -69.1484E+06    -19.6821E+06    -3.35476E+06    -50.2598E-03     100.532E-03    -50.2720E-03     6.27446E-03    -50.2273E-03     100.244E-03    -50.2422E-03     6.22009E-03
             119     72.5987E-09     102.992E-03    -23.4215E+06    -80.5653E+06    -23.6118E+06    -2.75175E+06    -51.9627E-03     103.850E-03    -51.8868E-03     6.21980E-03    -51.9288E-03     103.516E-03    -51.8541E-03     6.17061E-03
             120    -12.6111E-09     101.939E-03    -29.4125E+06    -91.1348E+06    -29.3622E+06    -2.97987E+06    -53.2500E-03     106.329E-03    -53.0792E-03     5.90358E-03    -53.2224E-03     105.960E-03    -53.0512E-03     5.84941E-03
             121     228.694E-09     100.883E-03    -33.8485E+06    -101.738E+06    -34.3717E+06    -2.77517E+06    -54.2300E-03     108.215E-03    -53.9846E-03     5.78360E-03    -54.2019E-03     107.806E-03    -53.9598E-03     5.73063E-03
             122    -47.3282E-09     99.8263E-03    -37.5821E+06    -111.565E+06    -37.3423E+06    -2.64590E+06    -54.8570E-03     109.672E-03    -54.8149E-03     5.77490E-03    -54.8290E-03     109.224E-03    -54.7854E-03     5.72282E-03
             123    -74.9820E-09     98.7679E-03    -41.0681E+06    -122.373E+06    -41.3261E+06    -2.96372E+06    -55.3520E-03     110.622E-03    -55.2695E-03     5.49880E-03    -55.3200E-03     110.130E-03    -55.2391E-03     5.44215E-03
             124     320.796E-09     97.7090E-03    -45.7607E+06    -131.504E+06    -46.2003E+06    -1.94978E+06    -55.7091E-03     111.193E-03    -55.4838E-03     5.60392E-03    -55.6802E-03     110.670E-03    -55.4578E-03     5.55906E-03
             125    -202.505E-09     96.6491E-03    -51.2890E+06    -137.981E+06    -51.1256E+06    -1.77307E+06    -55.7798E-03     111.603E-03    -55.8236E-03     5.72181E-03    -55.7620E-03     111.063E-03    -55.8048E-03     5.67824E-03
             126    -3.92724E-09     95.5897E-03    -54.4942E+06    -145.010E+06    -54.5428E+06    -2.29159E+06    -55.9086E-03     111.923E-03    -56.0148E-03     5.56212E-03    -55.8918E-03     111.358E-03    -55.9982E-03     5.51207E-03
             127     14.7247E-09     94.5292E-03    -56.6302E+06    -152.440E+06    -56.9222E+06    -1.78636E+06    -56.1178E-03     112.144E-03    -56.0263E-03     5.57413E-03    -56.0974E-03     111.548E-03    -56.0077E-03     5.53061E-03
             128     112.456E-09     93.4692E-03     -57.163E+06    -158.176E+06    -57.3264E+06    -1.18186E+06    -56.1611E-03     112.245E-03    -56.0837E-03     5.65391E-03    -56.1345E-03     111.621E-03    -56.0581E-03     5.61765E-03
             129    -124.686E-09     92.4087E-03    -57.2828E+06    -162.481E+06    -57.0704E+06    -1.33206E+06    -56.1365E-03     112.254E-03    -56.1177E-03     5.63703E-03    -56.1046E-03     111.609E-03    -56.0844E-03     5.59875E-03
             130     156.375E-09     91.3487E-03    -59.0176E+06    -167.501E+06    -59.3763E+06    -1.09553E+06    -56.2074E-03     112.310E-03    -56.1028E-03     5.62729E-03    -56.1735E-03     111.646E-03    -56.0713E-03     5.59273E-03
             131    -29.0249E-09     90.2883E-03    -59.2277E+06    -170.615E+06    -59.2830E+06    -416.304E+03    -56.3071E-03     112.465E-03    -56.1584E-03     5.69315E-03    -56.2699E-03     111.786E-03    -56.1215E-03     5.66750E-03
             132     138.788E-09     89.2275E-03    -58.6208E+06    -172.994E+06    -58.5540E+06    -582.318E+03    -56.3336E-03     112.435E-03    -56.1016E-03     5.73465E-03    -56.2910E-03     111.741E-03    -56.0585E-03     5.70630E-03
             133     131.469E-09     88.1674E-03    -58.8184E+06    -175.256E+06    -59.0230E+06    -412.343E+03    -56.2305E-03     112.259E-03    -56.0282E-03     5.75814E-03    -56.1849E-03     111.555E-03    -55.9839E-03     5.73155E-03
             134    -75.2126E-09     87.1076E-03    -58.5312E+06    -175.874E+06    -58.3875E+06    -292.995E+03    -56.1842E-03     112.267E-03    -56.0824E-03     5.60827E-03    -56.1372E-03     111.558E-03    -56.0345E-03     5.58294E-03
             135     178.931E-09     86.0471E-03    -58.5635E+06    -176.532E+06    -58.9632E+06    -314.802E+03    -56.1568E-03     112.281E-03    -56.1237E-03     5.56746E-03    -56.1082E-03     111.570E-03    -56.0777E-03     5.54208E-03
             136    -245.397E-09     84.9871E-03    -59.0289E+06    -176.967E+06    -59.0036E+06      1.5685E+03    -56.0756E-03     112.280E-03    -56.2040E-03     5.55966E-03    -56.0286E-03     111.567E-03    -56.1568E-03     5.53937E-03
             137     79.0330E-09     83.9269E-03    -59.3061E+06    -177.376E+06    -59.1607E+06    -27.2171E+03    -56.1760E-03     112.285E-03    -56.1092E-03     5.43192E-03    -56.1296E-03     111.571E-03    -56.0618E-03     5.41196E-03
             138     188.756E-09     82.8665E-03    -59.4129E+06    -177.656E+06    -59.4606E+06     167.426E+03    -56.2105E-03     112.165E-03    -55.9549E-03     5.61233E-03    -56.1637E-03     111.451E-03    -55.9085E-03     5.59406E-03
             139    -37.0369E-09     81.8067E-03    -58.9274E+06    -177.208E+06    -58.8221E+06    -61.5305E+03    -56.1315E-03     112.152E-03    -56.0204E-03     5.68385E-03    -56.0840E-03     111.438E-03    -55.9721E-03     5.66141E-03
             140     60.3563E-09     80.7465E-03    -58.4591E+06    -176.926E+06    -58.6268E+06     59.5919E+03    -56.1160E-03     112.166E-03    -56.0497E-03     5.64741E-03    -56.0668E-03     111.452E-03    -56.0015E-03     5.62691E-03
             141     12.3444E-09     79.6863E-03    -57.9316E+06    -176.187E+06    -57.7423E+06     205.914E+03    -56.1329E-03     112.103E-03    -55.9698E-03     5.66362E-03    -56.0834E-03     111.391E-03    -55.9191E-03     5.64592E-03
             142     179.384E-09     78.6267E-03    -57.1618E+06    -175.570E+06    -57.2567E+06     107.724E+03    -56.1071E-03     112.135E-03    -56.0279E-03     5.61916E-03    -56.0553E-03     111.424E-03    -55.9768E-03     5.60051E-03
             143    -252.345E-09     77.5665E-03    -56.6962E+06    -175.033E+06    -56.7835E+06     180.867E+03    -56.0575E-03     112.252E-03    -56.1941E-03     5.54885E-03    -56.0049E-03     111.542E-03    -56.1420E-03     5.53131E-03
             144     77.3175E-09     76.5063E-03    -56.7457E+06    -174.956E+06    -56.7196E+06     22.5064E+03    -56.1051E-03     112.221E-03    -56.1160E-03     5.44750E-03    -56.0529E-03     111.512E-03    -56.0636E-03     5.42821E-03
             145     65.4357E-09     75.4461E-03    -56.3967E+06    -174.659E+06    -56.4618E+06     259.609E+03    -56.1258E-03     112.122E-03    -55.9959E-03     5.57625E-03    -56.0727E-03     111.413E-03    -55.9431E-03     5.55950E-03
             146    -2.45845E-09     74.3863E-03    -56.1973E+06    -174.252E+06    -56.0356E+06     88.6619E+03    -56.0845E-03     112.125E-03    -56.0401E-03     5.57742E-03    -56.0316E-03     111.417E-03    -55.9861E-03     5.55788E-03
             147     2.10607E-09     73.3259E-03    -55.7693E+06    -173.958E+06    -55.9659E+06    -83.3553E+03    -56.0351E-03     112.063E-03    -56.0278E-03     5.56867E-03    -55.9806E-03     111.356E-03    -55.9745E-03     5.54652E-03
             148    -6.05441E-09     72.2664E-03    -55.7636E+06    -173.854E+06    -55.6697E+06     153.736E+03    -56.0234E-03     112.042E-03    -56.0187E-03     5.56913E-03    -55.9695E-03     111.336E-03    -55.9641E-03     5.55019E-03
             149     4.41796E-09     71.2062E-03    -55.5318E+06    -173.501E+06    -55.4809E+06    -147.140E+03    -56.1029E-03     112.052E-03    -55.9491E-03     5.46747E-03    -56.0485E-03     111.347E-03    -55.8945E-03     5.44558E-03
             150     245.304E-09     70.1463E-03    -55.5065E+06    -173.511E+06    -55.7439E+06     68.1593E+03    -56.1530E-03     112.022E-03    -55.8686E-03     5.59588E-03    -56.0981E-03     111.317E-03    -55.8153E-03     5.57671E-03
             151    -28.4295E-09     69.0864E-03    -55.6712E+06    -173.424E+06    -55.4647E+06     74.4443E+03    -56.0954E-03     112.028E-03    -55.9323E-03     5.59745E-03    -56.0419E-03     111.323E-03    -55.8775E-03     5.57793E-03
             152     76.6112E-09     68.0265E-03    -55.7954E+06    -173.650E+06    -55.8584E+06    -186.736E+03    -56.0047E-03     111.984E-03    -55.9793E-03     5.51949E-03    -55.9509E-03     111.279E-03    -55.9259E-03     5.49692E-03
             153    -96.7545E-09     66.9667E-03    -55.8724E+06    -173.735E+06    -55.8924E+06    -23.9551E+03    -55.9524E-03     111.978E-03    -56.0252E-03     5.52374E-03    -55.8988E-03     111.272E-03    -55.9717E-03     5.50327E-03
             154    -21.7066E-09     65.9067E-03    -55.3522E+06    -173.366E+06    -55.4624E+06    -36.1068E+03    -55.9550E-03     112.018E-03    -56.0634E-03     5.56890E-03    -55.8999E-03     111.314E-03    -56.0090E-03     5.54759E-03
             155    -60.1708E-09     64.8466E-03    -55.2844E+06    -173.339E+06    -55.3478E+06     28.7158E+03    -55.9846E-03     112.020E-03    -56.0359E-03     5.72251E-03    -55.9294E-03     111.316E-03    -55.9811E-03     5.70163E-03
             156     38.5657E-09     63.7867E-03    -55.2063E+06    -173.119E+06    -55.1107E+06     64.7681E+03    -56.0721E-03     112.037E-03    -55.9646E-03     5.77437E-03    -56.0172E-03     111.332E-03    -55.9091E-03     5.75371E-03
             157     151.220E-09     62.7267E-03    -54.6439E+06    -172.684E+06    -54.6371E+06     235.232E+03    -56.1390E-03     112.053E-03    -55.9139E-03     5.78871E-03    -56.0827E-03     111.349E-03    -55.8574E-03     5.77055E-03
             158     26.4171E-09     61.6669E-03    -54.7045E+06    -172.710E+06    -54.6864E+06    -134.926E+03    -56.0610E-03     112.017E-03    -55.9563E-03     5.70066E-03    -56.0049E-03     111.314E-03    -55.8999E-03     5.67785E-03
             159     43.5171E-09     59.5470E-03    -54.9284E+06    -172.860E+06    -54.8082E+06     115.740E+03    -56.0941E-03     112.112E-03    -56.0175E-03     5.67931E-03    -56.0387E-03     111.408E-03    -55.9612E-03     5.66003E-03
             160     70.4075E-09     58.4868E-03    -54.5566E+06    -172.596E+06    -54.5295E+06     164.788E+03    -56.1142E-03     112.058E-03    -55.9435E-03     5.69246E-03    -56.0576E-03     111.354E-03    -55.8867E-03     5.67432E-03
             161     91.1660E-09     57.4271E-03    -54.1466E+06    -172.179E+06    -54.2083E+06     253.136E+03    -56.0334E-03     111.924E-03    -55.8905E-03     5.55315E-03    -55.9758E-03     111.221E-03    -55.8333E-03     5.53615E-03
             162    -24.8486E-09     56.3676E-03    -53.8175E+06    -171.639E+06    -53.7242E+06    -32.9128E+03    -55.9676E-03     111.916E-03    -55.9485E-03     5.42148E-03    -55.9099E-03     111.215E-03    -55.8902E-03     5.40054E-03
             163    -21.9424E-09     55.3076E-03    -53.6006E+06    -171.617E+06    -53.8585E+06     125.876E+03    -55.9881E-03     111.992E-03    -56.0036E-03     5.39682E-03    -55.9291E-03     111.291E-03    -55.9463E-03     5.37874E-03
             164     25.6362E-09     54.2476E-03    -53.6904E+06    -171.557E+06    -53.5111E+06     209.848E+03    -55.9791E-03     111.972E-03    -55.9932E-03     5.45058E-03    -55.9212E-03     111.271E-03    -55.9342E-03     5.43403E-03
             165    -65.4857E-09     53.1878E-03    -53.3797E+06    -171.284E+06    -53.4491E+06     38.3506E+03    -55.9712E-03     111.915E-03    -55.9442E-03     5.45404E-03    -55.9122E-03     111.215E-03    -55.8857E-03     5.43489E-03
             166     136.335E-09     52.1280E-03    -53.4193E+06    -171.298E+06    -53.5949E+06    -14.4847E+03    -56.0175E-03     111.945E-03    -55.9272E-03     5.48693E-03    -55.9585E-03     111.245E-03    -55.8693E-03     5.46662E-03
             167    -69.6332E-09     51.0680E-03    -53.5889E+06    -171.270E+06    -53.2968E+06    -230.644E+03    -56.0528E-03     111.932E-03    -55.8794E-03     5.44117E-03    -55.9952E-03     111.232E-03    -55.8199E-03     5.41776E-03
             168     287.318E-09     50.0083E-03    -53.3558E+06    -171.277E+06    -53.4027E+06    -110.704E+03    -56.0190E-03     111.824E-03    -55.8049E-03     5.47766E-03    -55.9600E-03     111.124E-03    -55.7462E-03     5.45565E-03
             169    -155.203E-09     48.9487E-03    -53.3164E+06    -171.084E+06    -53.2568E+06    -80.2340E+03    -55.9050E-03     111.713E-03    -55.8077E-03     5.44273E-03    -55.8463E-03     111.013E-03    -55.7486E-03     5.42105E-03
             170     175.386E-09     47.8891E-03    -53.7537E+06    -171.549E+06    -53.7506E+06    -229.309E+03    -55.8849E-03     111.659E-03    -55.7740E-03     5.44704E-03    -55.8270E-03     110.959E-03    -55.7161E-03     5.42291E-03
             171    -20.7621E-09     46.8295E-03    -53.3230E+06    -171.089E+06    -53.4085E+06    -5.91230E+03    -55.9083E-03     111.646E-03    -55.7376E-03     5.58915E-03    -55.8494E-03     110.947E-03    -55.6792E-03     5.56829E-03
             172     141.076E-09     45.7698E-03    -53.4887E+06    -171.201E+06    -53.5577E+06     100.343E+03    -55.7903E-03     111.500E-03    -55.7094E-03     5.61615E-03    -55.7318E-03     110.800E-03    -55.6513E-03     5.59748E-03
             173    -139.278E-09     44.7108E-03    -53.6257E+06    -171.374E+06    -53.6325E+06     115.431E+03    -55.7093E-03     111.335E-03    -55.6255E-03     5.65794E-03    -55.6512E-03     110.635E-03    -55.5674E-03     5.63920E-03
             174     265.035E-09     43.6513E-03    -53.8092E+06    -171.242E+06    -53.6017E+06    -102.902E+03    -55.6363E-03     111.203E-03    -55.5665E-03     5.60602E-03    -55.5793E-03     110.504E-03    -55.5082E-03     5.58417E-03
             175    -284.564E-09     42.5929E-03    -54.1399E+06    -171.695E+06    -54.1978E+06    -345.924E+03    -55.4942E-03     111.065E-03    -55.5705E-03     5.43305E-03    -55.4373E-03     110.365E-03    -55.5140E-03     5.40788E-03
             176     159.579E-09     41.5338E-03    -54.1261E+06    -171.895E+06    -54.3495E+06    -17.7499E+03    -55.4807E-03     110.942E-03    -55.4616E-03     5.36241E-03    -55.4232E-03     110.242E-03    -55.4056E-03     5.34232E-03
             177    -18.2160E-09     40.4750E-03    -54.3614E+06    -172.001E+06    -54.3378E+06     344.200E+03    -55.4539E-03     110.679E-03    -55.2254E-03     5.56431E-03    -55.3975E-03     109.978E-03    -55.1689E-03     5.54943E-03
             178     251.483E-09     39.4165E-03    -53.8659E+06    -171.416E+06    -53.6830E+06     261.071E+03    -55.2510E-03     110.285E-03    -55.0338E-03     5.61500E-03    -55.1939E-03     109.585E-03    -54.9755E-03     5.59867E-03
             179    -127.661E-09     38.3590E-03    -53.6694E+06    -171.125E+06    -53.6431E+06     69.3218E+03    -54.9513E-03     109.869E-03    -54.9182E-03     5.41607E-03    -54.8936E-03     109.171E-03    -54.8605E-03     5.39762E-03
             180     46.3569E-09     37.3016E-03    -53.8657E+06    -171.200E+06    -53.9313E+06    -3.04274E+03    -54.7515E-03     109.473E-03    -54.7215E-03     5.12443E-03    -54.6943E-03     108.775E-03    -54.6648E-03     5.10548E-03
             181     72.8034E-09     36.2446E-03    -54.2346E+06    -171.332E+06    -54.1268E+06    -274.652E+03    -54.5631E-03     108.995E-03    -54.4318E-03     5.13398E-03    -54.5073E-03     108.297E-03    -54.3754E-03     5.11109E-03
             182     20.5500E-09     35.1880E-03    -54.3584E+06    -171.593E+06    -54.4870E+06    -87.7420E+03    -54.3194E-03     108.517E-03    -54.1974E-03     5.17496E-03    -54.2633E-03     107.818E-03    -54.1422E-03     5.15429E-03
             183     80.0102E-09     34.1324E-03    -53.8328E+06    -171.061E+06    -53.7974E+06     132.521E+03    -54.0580E-03     108.097E-03    -54.0390E-03     5.04113E-03    -54.0010E-03     107.399E-03    -53.9819E-03     5.02335E-03
             184    -160.052E-09     33.0766E-03    -53.5042E+06    -170.470E+06    -53.4883E+06    -119.432E+03    -53.8146E-03     107.631E-03    -53.8167E-03     4.99998E-03    -53.7573E-03     106.936E-03    -53.7594E-03     4.97955E-03
             185     224.870E-09     32.0215E-03    -53.7856E+06    -170.299E+06    -53.7449E+06    -49.1172E+03    -53.5350E-03     107.021E-03    -53.4858E-03     5.03353E-03    -53.4789E-03     106.327E-03    -53.4296E-03     5.01531E-03
             186    -217.367E-09     30.9674E-03    -54.5555E+06    -170.934E+06    -54.7932E+06     98.4405E+03    -53.1616E-03     106.267E-03    -53.1055E-03     4.93180E-03    -53.1068E-03     105.572E-03    -53.0525E-03     4.91633E-03
             187     291.142E-09     29.9140E-03    -54.6759E+06    -170.929E+06    -54.8289E+06     329.309E+03    -52.7979E-03     105.490E-03    -52.6924E-03     4.74342E-03    -52.7438E-03     104.796E-03    -52.6394E-03     4.73076E-03
             188    -197.319E-09     28.8617E-03    -54.4948E+06    -170.268E+06    -54.2320E+06    -40.3230E+03    -52.3225E-03     104.660E-03    -52.3371E-03     4.61283E-03    -52.2693E-03     103.967E-03    -52.2824E-03     4.59493E-03
             189     71.1472E-09     27.8096E-03    -54.6807E+06    -170.279E+06    -54.9788E+06    -62.6542E+03    -51.7754E-03     103.625E-03    -51.8496E-03     4.49669E-03    -51.7221E-03     102.934E-03    -51.7983E-03     4.47945E-03
             190    -84.6294E-09     26.7594E-03    -54.8533E+06    -170.029E+06    -55.0986E+06     424.183E+03    -51.2182E-03     102.416E-03    -51.1977E-03     4.50205E-03    -51.1659E-03     101.727E-03    -51.1471E-03     4.49175E-03
             191     120.759E-09     25.7101E-03    -55.5064E+06    -169.875E+06    -55.2046E+06     50.5008E+03    -50.6202E-03     101.144E-03    -50.5240E-03     4.38486E-03    -50.5712E-03     100.457E-03    -50.4732E-03     4.36978E-03
             192     2.04130E-09     24.6626E-03    -55.7661E+06    -169.687E+06    -55.7655E+06    -160.059E+03    -49.9521E-03     99.7591E-03    -49.8070E-03     4.20282E-03    -49.9039E-03     99.0737E-03    -49.7589E-03     4.18572E-03
             193     115.369E-09     23.6164E-03    -56.1179E+06    -169.562E+06    -56.1670E+06     146.820E+03    -49.2521E-03     98.3241E-03    -49.0720E-03     4.02975E-03    -49.2052E-03     97.6404E-03    -49.0256E-03     4.01710E-03
             194     67.6530E-09     22.5717E-03    -55.8602E+06    -168.638E+06    -55.7382E+06     428.196E+03    -48.4431E-03     96.7710E-03    -48.3278E-03     3.88777E-03    -48.3969E-03     96.0909E-03    -48.2810E-03     3.87950E-03
             195    -58.8413E-09     21.5286E-03    -55.2449E+06    -167.350E+06    -55.2355E+06     372.123E+03    -47.4709E-03     94.9758E-03    -47.5048E-03     3.69995E-03    -47.4242E-03     94.3005E-03    -47.4582E-03     3.69213E-03
             196    -14.5495E-09     20.4879E-03    -54.9317E+06    -166.216E+06    -55.0671E+06     304.449E+03    -46.5088E-03     93.0757E-03    -46.5669E-03     3.46131E-03    -46.4623E-03     92.4054E-03    -46.5216E-03     3.45329E-03
             197    -19.1973E-09     19.4489E-03    -54.2160E+06    -164.578E+06    -54.3521E+06     405.826E+03    -45.6013E-03     91.1063E-03    -45.5051E-03     3.20247E-03    -45.5547E-03     90.4421E-03    -45.4596E-03     3.19616E-03
             198     212.206E-09     18.4119E-03    -53.6913E+06    -162.966E+06    -53.7428E+06     518.072E+03    -44.5464E-03     88.9113E-03    -44.3650E-03     2.99154E-03    -44.5004E-03     88.2535E-03    -44.3195E-03     2.98725E-03
             199    -97.6471E-09     17.3777E-03    -52.4048E+06    -160.314E+06    -52.4996E+06     764.122E+03    -43.2710E-03     86.4994E-03    -43.2284E-03     2.73470E-03    -43.2242E-03     85.8511E-03    -43.1825E-03     2.73458E-03
             200     51.8699E-09     16.3456E-03    -51.2817E+06    -157.504E+06    -51.3118E+06     706.916E+03    -41.9501E-03     83.7785E-03    -41.8285E-03     2.28910E-03    -41.9034E-03     83.1410E-03    -41.7823E-03     2.28964E-03
             201     201.607E-09     15.3170E-03    -50.6108E+06    -154.871E+06    -50.7931E+06     870.984E+03    -40.5140E-03     80.7405E-03    -40.2265E-03     1.98201E-03    -40.4686E-03     80.1144E-03    -40.1825E-03     1.98575E-03
             202     38.4792E-09     14.2915E-03    -48.8344E+06    -151.153E+06    -49.0588E+06     1.05521E+06    -38.7416E-03     77.3977E-03    -38.6560E-03     1.45881E-03    -38.6952E-03     76.7850E-03    -38.6113E-03     1.46591E-03
             203    -133.633E-09     13.2696E-03    -46.2270E+06    -146.664E+06    -46.2131E+06     1.24723E+06    -36.8742E-03     73.6586E-03    -36.7844E-03     868.151E-06    -36.8254E-03     73.0604E-03    -36.7357E-03     878.653E-06
             204     385.741E-09     12.2516E-03    -43.5522E+06    -141.812E+06    -43.4522E+06     1.40110E+06    -34.9874E-03     69.7428E-03    -34.7554E-03     740.756E-06    -34.9362E-03     69.1610E-03    -34.7039E-03     753.703E-06
             205    -233.033E-09     11.2374E-03    -40.1675E+06    -136.892E+06    -39.9035E+06     1.37407E+06    -33.0358E-03     65.9640E-03    -32.9283E-03     784.021E-06    -32.9800E-03     65.3968E-03    -32.8710E-03     797.016E-06
             206     270.753E-09     10.2269E-03    -36.9872E+06    -132.948E+06    -36.5170E+06     1.16191E+06    -31.5753E-03     62.8219E-03    -31.2466E-03     892.240E-06    -31.5142E-03     62.2649E-03    -31.1827E-03     902.743E-06
             207     270.454E-09     9.21923E-03    -34.8627E+06    -130.223E+06    -34.5313E+06     485.515E+03    -30.5036E-03     60.7018E-03    -30.1982E-03     1.17115E-03    -30.4387E-03     60.1527E-03    -30.1315E-03     1.17293E-03
             208    -275.875E-09     8.21320E-03    -34.4153E+06    -129.697E+06    -34.0481E+06    -195.420E+03    -30.0191E-03     60.1937E-03    -30.1746E-03     1.44202E-03    -29.9533E-03     59.6458E-03    -30.1069E-03     1.43520E-03
             209     12.1327E-09     7.20660E-03    -34.3279E+06    -130.795E+06    -34.2767E+06    -499.726E+03    -30.9329E-03     62.0153E-03    -31.0824E-03     1.84804E-03    -30.8648E-03     61.4620E-03    -31.0144E-03     1.83758E-03
             210    -10.2803E-09     6.19668E-03    -33.8565E+06    -132.284E+06    -33.6381E+06    -588.369E+03    -33.0644E-03     66.1552E-03    -33.0909E-03     2.34765E-03    -32.9928E-03     65.5928E-03    -33.0181E-03     2.33629E-03
             211    -35.6596E-09     5.18179E-03    -33.4058E+06    -134.747E+06    -33.1858E+06    -722.746E+03    -36.1145E-03     72.2201E-03    -36.1057E-03     2.66378E-03    -36.0379E-03     71.6439E-03    -36.0278E-03     2.65082E-03
             212     99.8000E-09     4.15944E-03    -32.3523E+06    -137.424E+06    -32.4987E+06    -584.882E+03    -39.7514E-03     79.5219E-03    -39.7705E-03     2.75406E-03    -39.6668E-03     78.9298E-03    -39.6868E-03     2.74293E-03
             213    -196.569E-09     3.12975E-03    -30.6159E+06    -139.391E+06    -30.8117E+06    -263.841E+03    -43.5166E-03     87.1477E-03    -43.6311E-03     2.44935E-03    -43.4226E-03     86.5408E-03    -43.5386E-03     2.44253E-03
             214     95.5046E-09     2.09175E-03    -28.3755E+06    -140.212E+06    -28.6607E+06     -198.31E+03    -46.9474E-03     93.9619E-03    -47.0146E-03     1.89492E-03    -46.8433E-03     93.3448E-03    -46.9134E-03     1.88947E-03
             215    -113.599E-09     1.04746E-03    -27.0478E+06    -140.678E+06    -27.1900E+06    -64.4175E+03    -49.3746E-03     98.5870E-03    -49.2124E-03     1.01833E-03    -49.2644E-03     97.9636E-03    -49.1052E-03     1.01623E-03
             216     855.757E-06    -2.58127E-15    -26.5377E+06    -140.692E+06    -26.4112E+06    -70.4436E+03    -50.2087E-03     100.227E-03    -50.0180E-03     858.099E-06    -50.0978E-03     99.6006E-03    -49.9076E-03     856.126E-06
             217     1.71145E-03    -2.58127E-15    -26.2170E+06    -140.386E+06    -26.1062E+06    -176.615E+03    -50.1688E-03     100.294E-03    -50.1251E-03     1.71319E-03    -50.0583E-03     99.6677E-03    -50.0140E-03     1.70790E-03
             218     2.56710E-03    -2.58127E-15    -25.7727E+06    -140.252E+06    -26.2871E+06    -334.561E+03    -50.2089E-03     100.354E-03    -50.1449E-03     2.49086E-03    -50.0961E-03     99.7278E-03    -50.0356E-03     2.48205E-03
             219     3.42285E-03    -2.58127E-15    -24.9783E+06    -139.566E+06    -25.6421E+06    -841.903E+03    -50.3171E-03     100.491E-03    -50.1739E-03     3.27649E-03    -50.2025E-03     99.8666E-03    -50.0635E-03     3.25950E-03
             220     4.27833E-03    -2.58127E-15    -23.6427E+06    -138.842E+06    -25.6262E+06    -1.21174E+06    -50.5593E-03     100.781E-03    -50.2214E-03     4.10432E-03    -50.4391E-03     100.158E-03    -50.1140E-03     4.08070E-03
             221     5.13361E-03    -2.58127E-15    -21.9089E+06    -137.902E+06    -25.8722E+06    -1.52998E+06    -50.9237E-03     101.223E-03    -50.2994E-03     4.97159E-03    -50.7959E-03     100.603E-03    -50.1970E-03     4.94213E-03
             222     5.98845E-03    -2.58127E-15    -19.2114E+06    -136.265E+06    -30.6561E+06    -3.00025E+06    -51.4594E-03     101.850E-03    -50.3908E-03     5.93298E-03    -51.3136E-03     101.241E-03    -50.3187E-03     5.88240E-03
             223     6.84282E-03    -2.58127E-15    -14.8965E+06    -128.260E+06    -39.7641E+06    -5.11269E+06    -52.2247E-03     102.722E-03    -50.4972E-03     6.93558E-03    -52.0559E-03     102.160E-03    -50.4884E-03     6.85454E-03
             224     7.69642E-03    -2.58127E-15    -9.64973E+06    -108.334E+06    -45.4727E+06    -5.56393E+06    -53.2119E-03     103.872E-03    -50.6597E-03     8.01500E-03    -53.0376E-03     103.410E-03    -50.7160E-03     7.92438E-03
             225     8.54894E-03    -2.58127E-15    -4.66115E+06    -80.0696E+06    -48.4931E+06    -5.55186E+06    -54.4963E-03     105.388E-03    -50.8921E-03     9.43086E-03    -54.3340E-03     105.066E-03    -51.0117E-03     9.33603E-03
             226     9.40001E-03    -2.58127E-15    -805.917E+03    -43.3149E+06    -46.4303E+06    -4.45970E+06    -56.1423E-03     107.363E-03    -51.2204E-03     11.0085E-03    -56.0173E-03     107.216E-03    -51.3886E-03     10.9206E-03
             227     10.2497E-03    -2.58127E-15     549.220E+03    -5.38093E+06    -32.6006E+06    -1.11048E+06    -58.2879E-03     109.996E-03    -51.7083E-03     13.0959E-03    -58.2319E-03     110.017E-03    -51.8643E-03     13.0424E-03
             228     11.0963E-03    -2.58127E-15     21.1578E+03     20.6507E+06    -9.28034E+06    -1.90153E+03    -60.9707E-03     113.352E-03    -52.3809E-03     16.1481E-03    -60.9899E-03     113.471E-03    -52.4573E-03     16.0971E-03
             229     11.9402E-03    -2.58127E-15    -639.526E+03     36.4275E+06     15.4946E+06     783.312E+03    -64.0809E-03     117.283E-03    -53.2024E-03     19.5476E-03    -64.1643E-03     117.449E-03    -53.1768E-03     19.4824E-03
             230     12.7818E-03    -2.58127E-15    -1.41359E+06     46.6823E+06     37.4958E+06     2.18914E+06    -68.3842E-03     122.555E-03    -54.1708E-03     23.5664E-03    -68.5216E-03     122.745E-03    -54.0489E-03     23.4833E-03
             231     13.6183E-03    -2.58127E-15     1.58709E+06     56.0720E+06     57.8486E+06    -848.258E+03    -76.7735E-03     132.181E-03    -55.4071E-03     31.2739E-03    -76.9447E-03     132.390E-03    -55.2015E-03     31.1033E-03
             232     14.4440E-03    -2.58127E-15     5.50735E+06     69.4114E+06     76.4647E+06    -2.96576E+06    -90.6268E-03     147.760E-03    -57.1333E-03     52.6227E-03    -90.8424E-03     148.015E-03    -56.8596E-03     52.3606E-03
             233     15.2355E-03    -2.58127E-15     3.47424E+06     80.9458E+06     83.5169E+06     2.34097E+06    -112.499E-03     172.105E-03    -59.6056E-03     107.875E-03    -112.945E-03     172.590E-03    -59.3104E-03     107.075E-03
             234     15.9982E-03    -2.58127E-15     381.365E+03     92.3301E+06     83.9454E+06     7.79635E+06    -161.689E-03     225.229E-03    -63.5403E-03     196.430E-03    -163.691E-03     227.332E-03    -63.2550E-03     191.857E-03
             235     16.8806E-03     1.32054E-03     1.68554E+06     110.262E+06     81.3726E+06     5.83520E+06    -191.781E-03     254.798E-03    -63.0170E-03     241.444E-03    -196.276E-03     259.500E-03    -62.7725E-03     232.607E-03
             236     16.9359E-03     2.58617E-03     239.865E+03     118.306E+06     74.2264E+06     3.07971E+06    -182.719E-03     241.609E-03    -58.8903E-03     242.403E-03    -189.443E-03     248.558E-03    -58.6910E-03     232.503E-03
             237     16.9610E-03     3.78291E-03    -3.00499E+06     119.363E+06     76.1758E+06     3.97913E+06    -172.938E-03     230.115E-03    -57.1765E-03     240.157E-03    -180.763E-03     238.126E-03    -56.9644E-03     231.096E-03
             238     16.9838E-03     4.95214E-03    -2.66300E+06     124.024E+06     83.6453E+06     3.55087E+06    -164.266E-03     220.447E-03    -56.1812E-03     226.597E-03    -172.065E-03     228.432E-03    -55.9390E-03     218.947E-03
             239     16.9916E-03     6.13363E-03    -2.44041E+06     126.944E+06     88.6426E+06     2.96105E+06    -157.658E-03     213.292E-03    -55.6336E-03     220.897E-03    -165.731E-03     221.553E-03    -55.3710E-03     214.309E-03
             240     16.9996E-03     7.30079E-03    -2.84691E+06     130.619E+06     92.6129E+06     2.32614E+06    -147.658E-03     203.166E-03    -55.5086E-03     224.676E-03    -156.470E-03     212.165E-03    -55.2308E-03     219.534E-03
             241     17.0004E-03     8.44883E-03    -3.78772E+06     133.155E+06     94.2197E+06     1.00119E+06    -136.043E-03     191.646E-03    -55.6028E-03     229.966E-03    -145.567E-03     201.357E-03    -55.3193E-03     226.603E-03
             242     17.0032E-03     9.58975E-03    -2.86747E+06     134.776E+06     95.1678E+06     972.825E+03    -123.743E-03     179.503E-03    -55.7608E-03     236.484E-03    -133.906E-03     189.859E-03    -55.4762E-03     235.088E-03
             243     17.0064E-03     10.7043E-03    -1.97043E+06     135.857E+06     95.8954E+06     367.805E+03    -112.902E-03     168.771E-03    -55.8685E-03     238.263E-03    -123.383E-03     179.448E-03    -55.5832E-03     238.762E-03
             244     17.0075E-03     11.8138E-03    -2.35781E+06     135.094E+06     96.0622E+06    -28.9004E+03    -105.792E-03     161.712E-03    -55.9201E-03     235.786E-03    -116.376E-03     172.488E-03    -55.6323E-03     237.704E-03
             245     17.0098E-03     12.9178E-03    -1.28671E+06     135.326E+06     97.3344E+06     557.438E+03    -101.989E-03     157.896E-03    -55.9072E-03     238.270E-03    -112.808E-03     168.909E-03    -55.6148E-03     240.997E-03
             246     17.0117E-03     14.0229E-03    -722.873E+03     136.530E+06     98.5269E+06     480.086E+03    -99.3324E-03     155.204E-03    -55.8715E-03     236.266E-03    -110.144E-03     166.211E-03    -55.5758E-03     239.592E-03
             247     17.0121E-03     15.1159E-03    -2.18646E+06     136.143E+06     97.6977E+06     613.293E+03    -94.8989E-03     150.787E-03    -55.8881E-03     231.794E-03    -105.600E-03     161.680E-03    -55.5938E-03     236.092E-03
             248     17.0147E-03     16.2101E-03    -1.92208E+06     136.975E+06     97.8680E+06     880.575E+03    -90.9923E-03     146.854E-03    -55.8613E-03     236.709E-03    -101.926E-03     157.984E-03    -55.5678E-03     241.834E-03
             249     17.0180E-03     17.3097E-03    -1.10596E+06     139.992E+06     100.220E+06     329.444E+03    -88.2310E-03     144.059E-03    -55.8276E-03     239.596E-03    -99.4856E-03     155.516E-03    -55.5279E-03     245.360E-03
             250     17.0161E-03     18.3867E-03    -1.10423E+06     140.625E+06     100.366E+06     1.25190E+06    -84.9564E-03     140.816E-03    -55.8598E-03     238.014E-03    -96.2507E-03     152.314E-03    -55.5603E-03     244.467E-03
             251     17.0195E-03     19.4773E-03    -3.44038E+06     138.235E+06     97.9613E+06    -1.56982E+06    -83.5791E-03     139.452E-03    -55.8733E-03     242.503E-03    -95.2158E-03     151.284E-03    -55.5790E-03     249.335E-03
             252     17.0163E-03     20.5621E-03    -3.88560E+06     138.565E+06     99.2843E+06    -96.7355E+03    -81.1539E-03     137.068E-03    -55.9146E-03     243.191E-03    -92.9558E-03     149.060E-03    -55.6134E-03     250.633E-03
             253     17.0210E-03     21.6344E-03    -1.49500E+06     141.167E+06     101.366E+06     2.45119E+06    -76.4486E-03     132.406E-03    -55.9578E-03     243.903E-03    -88.3784E-03     144.538E-03    -55.6535E-03     252.215E-03
             254     17.0200E-03     22.7140E-03    -1.67909E+06     142.300E+06     101.382E+06    -27.1984E+03    -76.7523E-03     132.646E-03    -55.8938E-03     250.813E-03    -89.2865E-03     145.386E-03    -55.5908E-03     259.317E-03
             255     17.0218E-03     23.7968E-03    -5.07885E+06     141.538E+06     100.023E+06    -57.3032E+03    -80.5018E-03     136.328E-03    -55.8264E-03     256.953E-03    -93.7139E-03     149.735E-03    -55.5242E-03     265.472E-03
             256     17.0179E-03     24.8812E-03    -5.51913E+06     143.565E+06     100.891E+06     1.16912E+06    -79.0543E-03     134.970E-03    -55.9153E-03     264.032E-03    -92.9263E-03     149.040E-03    -55.6110E-03     273.113E-03
             257     17.0213E-03     25.9624E-03    -754.752E+03     148.018E+06     104.525E+06     2.03225E+06    -70.6674E-03     126.749E-03    -56.0816E-03     274.616E-03    -85.2153E-03     141.517E-03    -55.7725E-03     285.031E-03
             258     17.0235E-03     27.0177E-03    -1.55184E+06     148.304E+06     103.909E+06     181.681E+03    -67.8988E-03     123.965E-03    -56.0664E-03     279.289E-03    -82.8872E-03     139.173E-03    -55.7597E-03     290.499E-03
             259     17.0218E-03     28.0869E-03    -4.41497E+06     147.514E+06     102.745E+06    -297.755E+03    -71.2454E-03     127.224E-03    -55.9788E-03     274.742E-03    -86.0727E-03     142.262E-03    -55.6726E-03     285.581E-03
             260     17.0222E-03     29.1563E-03    -1.57047E+06     149.997E+06     104.873E+06     1.29633E+06    -69.1227E-03     125.126E-03    -56.0028E-03     273.476E-03    -83.8317E-03     140.057E-03    -55.6937E-03     284.541E-03
             261     17.0252E-03     30.2140E-03    -2.85925E+06     149.299E+06     104.159E+06    -524.720E+03    -67.0176E-03     123.015E-03    -55.9975E-03     274.350E-03    -81.7509E-03     137.966E-03    -55.6891E-03     285.742E-03
             262     17.0229E-03     31.2842E-03    -1.43942E+06     147.871E+06     105.243E+06    -549.634E+03    -67.1040E-03     123.076E-03    -55.9721E-03     275.431E-03    -81.8883E-03     138.075E-03    -55.6582E-03     286.791E-03
             263     17.0266E-03     32.3450E-03    -795.426E+03     148.209E+06     104.805E+06     344.603E+03    -66.8206E-03     122.763E-03    -55.9421E-03     276.077E-03    -81.6983E-03     137.860E-03    -55.6318E-03     287.566E-03
             264     17.0237E-03     33.4058E-03    -7.48096E+06     144.981E+06     99.7350E+06    -2.73857E+06    -70.6786E-03     126.580E-03    -55.9015E-03     274.678E-03    -85.5696E-03     141.670E-03    -55.6022E-03     285.736E-03
             265     17.0209E-03     34.4853E-03    -1.85191E+06     147.507E+06     104.392E+06     317.096E+03    -68.5331E-03     124.539E-03    -56.0054E-03     275.452E-03    -83.3270E-03     139.547E-03    -55.6946E-03     286.699E-03
             266     17.0273E-03     35.5350E-03    -274.399E+03     149.015E+06     105.049E+06     1.37696E+06    -62.7751E-03     118.847E-03    -56.0714E-03     274.092E-03    -77.5216E-03     133.817E-03    -55.7618E-03     286.360E-03
             267     17.0223E-03     36.5891E-03    -6.02046E+06     145.869E+06     101.149E+06    -485.009E+03    -67.5351E-03     123.511E-03    -55.9759E-03     271.400E-03    -82.3566E-03     138.537E-03    -55.6730E-03     283.347E-03
             268     17.0230E-03     37.6746E-03    -3.38970E+06     149.021E+06     104.438E+06     1.69631E+06    -69.3429E-03     125.337E-03    -55.9941E-03     279.253E-03    -84.6908E-03     140.900E-03    -55.6831E-03     290.956E-03
             269     17.0242E-03     38.7356E-03    -685.704E+03     152.961E+06     106.413E+06     1.68567E+06    -63.0702E-03     119.173E-03    -56.1029E-03     287.964E-03    -79.0307E-03     135.366E-03    -55.7916E-03     300.690E-03
             270     17.0259E-03     39.7861E-03    -3.12559E+06     151.657E+06     104.373E+06    -732.253E+03    -62.9580E-03     119.036E-03    -56.0784E-03     288.477E-03    -79.0913E-03     135.394E-03    -55.7719E-03     301.444E-03
             271     17.0227E-03     40.8518E-03    -2.65129E+06     151.399E+06     105.094E+06    -559.732E+03    -65.1531E-03     121.190E-03    -56.0371E-03     286.570E-03    -80.9993E-03     137.260E-03    -55.7274E-03     298.874E-03
             272     17.0265E-03     41.9089E-03    -879.029E+03     152.086E+06     106.335E+06    -334.396E+03    -63.0733E-03     119.127E-03    -56.0534E-03     282.305E-03    -78.4740E-03     134.756E-03    -55.7410E-03     294.607E-03
             273     17.0241E-03     42.9557E-03    -2.45874E+06     150.575E+06     104.954E+06    -38.9637E+03    -63.9789E-03     119.981E-03    -56.0025E-03     276.030E-03    -78.9877E-03     135.212E-03    -55.6925E-03     288.236E-03
             274     17.0257E-03     44.0273E-03    -2.67704E+06     150.714E+06     104.835E+06     618.788E+03    -65.6915E-03     121.652E-03    -55.9601E-03     275.354E-03    -80.6818E-03     136.863E-03    -55.6505E-03     287.327E-03
             275     17.0247E-03     45.0862E-03    -3.46841E+06     150.383E+06     104.142E+06    -779.411E+03    -67.5302E-03     123.464E-03    -55.9333E-03     278.588E-03    -82.8751E-03     139.028E-03    -55.6256E-03     290.553E-03
             276     17.0240E-03     46.1535E-03    -4.11487E+06     150.020E+06     103.844E+06     192.855E+03    -68.7546E-03     124.691E-03    -55.9366E-03     278.852E-03    -84.1558E-03     140.309E-03    -55.6289E-03     290.657E-03
             277     17.0240E-03     47.2233E-03    -3.11840E+06     151.965E+06     105.122E+06     1.20278E+06    -64.6722E-03     120.727E-03    -56.0549E-03     285.436E-03    -80.5542E-03     136.833E-03    -55.7451E-03     297.982E-03
             278     17.0250E-03     48.2792E-03    -1.61397E+06     153.071E+06     106.416E+06     196.267E+03    -61.0762E-03     117.186E-03    -56.1094E-03     291.039E-03    -77.3349E-03     133.673E-03    -55.7969E-03     304.280E-03
             279     17.0268E-03     49.3309E-03    -1.77259E+06     150.738E+06     105.846E+06    -1.02095E+06    -61.8979E-03     117.942E-03    -56.0438E-03     286.014E-03    -77.7594E-03     134.025E-03    -55.7306E-03     298.950E-03
             280     17.0244E-03     50.3878E-03    -3.58462E+06     148.427E+06     105.075E+06    -1.65086E+06    -64.9053E-03     120.917E-03    -56.0120E-03     281.326E-03    -80.4256E-03     136.647E-03    -55.6966E-03     293.701E-03
             281     17.0237E-03     51.4531E-03    -1.45371E+06     151.069E+06     107.175E+06     485.736E+03    -64.0040E-03     120.042E-03    -56.0378E-03     280.501E-03    -79.3028E-03     135.561E-03    -55.7189E-03     292.835E-03
             282     17.0277E-03     52.5042E-03    -2.17721E+06     151.588E+06     105.155E+06     731.696E+03    -62.2951E-03     118.327E-03    -56.0321E-03     276.747E-03    -77.4233E-03     133.681E-03    -55.7230E-03     289.304E-03
             283     17.0223E-03     53.5623E-03    -5.53271E+06     149.447E+06     102.300E+06    -133.569E+03    -66.7717E-03     122.751E-03    -55.9794E-03     276.086E-03    -82.0556E-03     138.249E-03    -55.6766E-03     288.311E-03
             284     17.0242E-03     54.6390E-03    -3.47877E+06     150.581E+06     105.309E+06     667.302E+03    -67.2199E-03     123.218E-03    -55.9977E-03     282.855E-03    -82.8804E-03     139.095E-03    -55.6844E-03     295.040E-03
             285     17.0257E-03     55.6991E-03    -1.39238E+06     151.218E+06     107.174E+06     465.373E+03    -63.9057E-03     119.952E-03    -56.0463E-03     289.658E-03    -80.0726E-03     136.340E-03    -55.7277E-03     302.435E-03
             286     17.0247E-03     56.7549E-03    -3.02757E+06     152.277E+06     106.902E+06     593.666E+03    -64.8555E-03     120.900E-03    -56.0449E-03     287.514E-03    -80.8911E-03     137.156E-03    -55.7268E-03     300.090E-03
             287     17.0233E-03     57.8165E-03    -1.29621E+06     156.425E+06     109.136E+06     1.30525E+06    -62.0792E-03     118.170E-03    -56.0907E-03     281.947E-03    -77.5091E-03     133.834E-03    -55.7700E-03     294.509E-03
             288     17.0281E-03     58.8622E-03     362.828E+03     157.291E+06     109.012E+06     590.756E+03    -60.0889E-03     116.159E-03    -56.0705E-03     278.083E-03    -75.2301E-03     131.545E-03    -55.7540E-03     290.938E-03
             289     17.0237E-03     59.9202E-03    -3.66501E+06     157.389E+06     106.782E+06     252.134E+03    -66.0014E-03     121.949E-03    -55.9475E-03     274.817E-03    -81.0865E-03     137.270E-03    -55.6365E-03     286.926E-03
             290     17.0249E-03     60.9943E-03    -4.22205E+06     160.896E+06     107.758E+06     1.29743E+06    -68.1491E-03     124.081E-03    -55.9314E-03     278.567E-03    -83.5064E-03     139.682E-03    -55.6198E-03     290.348E-03
             291     17.0250E-03     62.0575E-03    -5.03844E+06     160.207E+06     107.207E+06    -903.147E+03    -66.0720E-03     122.069E-03    -55.9970E-03     284.600E-03    -81.8990E-03     138.136E-03    -55.6860E-03     296.858E-03
             292     851.027E-06     61.6726E-03    -54.3413E+06    -171.965E+06    -53.5223E+06    -152.967E+03    -56.0580E-03     112.044E-03    -55.9857E-03     9.40093E-03    -56.0040E-03     111.342E-03    -55.9252E-03     9.36379E-03
             293     1.70208E-03     61.6858E-03    -53.1422E+06    -169.544E+06    -49.6416E+06    -118.058E+03    -56.0826E-03     112.107E-03    -56.0245E-03     17.2126E-03    -56.0350E-03     111.413E-03    -55.9499E-03     17.1451E-03
             294     2.55310E-03     61.7072E-03    -51.0539E+06    -165.684E+06    -43.4936E+06     117.515E+03    -56.1560E-03     112.200E-03    -56.0438E-03     25.4644E-03    -56.1180E-03     111.519E-03    -55.9470E-03     25.3646E-03
             295     3.40413E-03     61.7371E-03    -47.9729E+06    -160.958E+06    -36.3851E+06     154.685E+03    -56.2480E-03     112.309E-03    -56.0607E-03     33.6757E-03    -56.2202E-03     111.645E-03    -55.9397E-03     33.5362E-03
             296     4.25525E-03     61.7750E-03    -44.1299E+06    -154.374E+06    -28.1705E+06     302.428E+03    -56.3621E-03     112.437E-03    -56.0749E-03     41.7489E-03    -56.3489E-03     111.801E-03    -55.9280E-03     41.5653E-03
             297     5.10634E-03     61.8211E-03    -40.0579E+06    -147.221E+06    -19.6531E+06     470.760E+03    -56.5185E-03     112.606E-03    -56.0879E-03     49.6485E-03    -56.5247E-03     112.005E-03    -55.9146E-03     49.4136E-03
             298     5.95745E-03     61.8749E-03    -36.0656E+06    -141.035E+06    -12.9558E+06     248.043E+03    -56.7014E-03     112.795E-03    -56.0936E-03     57.3591E-03    -56.7297E-03     112.232E-03    -55.9016E-03     57.0587E-03
             299     6.80865E-03     61.9365E-03    -32.9216E+06    -129.249E+06    -9.13364E+06     467.110E+03    -56.8857E-03     112.964E-03    -56.0778E-03     64.9522E-03    -56.9522E-03     112.481E-03    -55.8884E-03     64.5824E-03
             300     7.65985E-03     62.0054E-03    -31.3397E+06    -119.807E+06    -7.60418E+06     992.323E+03    -57.0915E-03     113.147E-03    -56.0559E-03     72.3528E-03    -57.2082E-03     112.750E-03    -55.8747E-03     71.9047E-03
             301     8.51108E-03     62.0819E-03    -30.3315E+06    -110.731E+06    -7.58274E+06     1.18166E+06    -57.3153E-03     113.343E-03    -56.0282E-03     79.7415E-03    -57.4972E-03     113.047E-03    -55.8616E-03     79.1961E-03
             302     9.36230E-03     62.1657E-03    -28.3414E+06    -94.2104E+06    -7.72305E+06     787.817E+03    -57.5522E-03     113.540E-03    -55.9880E-03     87.3482E-03    -57.8255E-03     113.401E-03    -55.8489E-03     86.6810E-03
             303     10.2135E-03     62.2576E-03    -26.1865E+06    -75.5043E+06    -7.35252E+06     632.599E+03    -57.7864E-03     113.734E-03    -55.9476E-03     94.8211E-03    -58.1832E-03     113.791E-03    -55.8369E-03     94.0131E-03
             304     11.0648E-03     62.3565E-03    -24.3611E+06    -48.8515E+06    -5.89585E+06     1.21727E+06    -58.0839E-03     113.988E-03    -55.9039E-03     103.215E-03    -58.6696E-03     114.331E-03    -55.8272E-03     102.244E-03
             305     11.9158E-03     62.4654E-03    -22.5984E+06    -10.3251E+06    -6.59237E+06     2.01822E+06    -58.5735E-03     114.409E-03    -55.8351E-03     116.231E-03    -59.4734E-03     115.211E-03    -55.8203E-03     115.046E-03
             306     12.7674E-03     62.5907E-03    -20.7797E+06     34.2506E+06    -3.18025E+06     2.68286E+06    -59.5640E-03     115.340E-03    -55.7757E-03     139.797E-03    -61.0765E-03     116.909E-03    -55.8111E-03     138.296E-03
             307     13.6184E-03     62.7475E-03    -19.2894E+06     69.1541E+06     22.7079E+06     3.25351E+06    -63.1404E-03     118.983E-03    -55.8423E-03     192.282E-03    -66.2913E-03     122.245E-03    -55.8011E-03     190.215E-03
             308     14.4704E-03     62.9784E-03    -16.7410E+06     99.2096E+06     63.5742E+06     3.18653E+06    -74.0107E-03     130.006E-03    -55.9952E-03     302.769E-03    -83.0602E-03     139.164E-03    -55.7969E-03     299.502E-03
             309     15.3212E-03     63.3675E-03    -11.5870E+06     135.121E+06     96.4877E+06     1.85955E+06    -86.2330E-03     142.343E-03    -56.1099E-03     425.977E-03    -109.427E-03     165.696E-03    -55.8066E-03     423.673E-03
             310     16.1674E-03     63.8718E-03    -4.56834E+06     154.891E+06     109.312E+06     192.436E+03    -75.9497E-03     132.062E-03    -56.1125E-03     377.375E-03    -99.9191E-03     156.248E-03    -55.7839E-03     383.498E-03
             311     851.006E-06     62.7326E-03    -54.3194E+06    -171.853E+06    -53.2582E+06     122.358E+03    -56.0938E-03     112.064E-03    -55.9706E-03     9.40924E-03    -56.0402E-03     111.363E-03    -55.9089E-03     9.37562E-03
             312     1.70203E-03     62.7457E-03    -53.1856E+06    -169.598E+06    -49.6006E+06     69.3529E+03    -56.0736E-03     112.105E-03    -56.0312E-03     17.1875E-03    -56.0261E-03     111.410E-03    -55.9562E-03     17.1225E-03
             313     2.55308E-03     62.7673E-03    -51.1078E+06    -165.862E+06    -43.7648E+06     65.7620E+03    -56.1400E-03     112.183E-03    -56.0426E-03     25.4594E-03    -56.1016E-03     111.501E-03    -55.9469E-03     25.3590E-03
             314     3.40417E-03     62.7969E-03    -48.4352E+06    -160.720E+06    -35.6999E+06    -91.5078E+03    -56.2354E-03     112.296E-03    -56.0610E-03     33.6590E-03    -56.2113E-03     111.633E-03    -55.9362E-03     33.5163E-03
             315     4.25523E-03     62.8350E-03    -45.2307E+06    -154.549E+06    -27.9229E+06    -328.005E+03    -56.3550E-03     112.429E-03    -56.0742E-03     41.7500E-03    -56.3474E-03     111.793E-03    -55.9241E-03     41.5581E-03
             316     5.10637E-03     62.8809E-03    -41.4535E+06    -147.245E+06    -21.0057E+06    -417.126E+03    -56.5041E-03     112.583E-03    -56.0791E-03     49.6669E-03    -56.5152E-03     111.985E-03    -55.9105E-03     49.4206E-03
             317     5.95754E-03     62.9349E-03    -37.9722E+06    -141.280E+06    -14.3370E+06    -41.2146E+03    -56.6936E-03     112.779E-03    -56.0856E-03     57.3469E-03    -56.7290E-03     112.220E-03    -55.8974E-03     57.0429E-03
             318     6.80867E-03     62.9963E-03    -35.1193E+06    -130.464E+06    -10.3966E+06     870.662E+03    -56.9012E-03     112.975E-03    -56.0742E-03     64.8834E-03    -56.9751E-03     112.492E-03    -55.8861E-03     64.5185E-03
             319     7.65985E-03     63.0655E-03    -32.2216E+06    -120.691E+06    -7.90200E+06     1.88825E+06    -57.1385E-03     113.198E-03    -56.0593E-03     72.2428E-03    -57.2582E-03     112.798E-03    -55.8771E-03     71.8052E-03
             320     8.51094E-03     63.1417E-03    -29.3376E+06    -110.016E+06    -6.74644E+06     1.64109E+06    -57.3829E-03     113.421E-03    -56.0382E-03     79.6311E-03    -57.5624E-03     113.125E-03    -55.8699E-03     79.0903E-03
             321     9.36209E-03     63.2258E-03    -27.5106E+06    -93.6521E+06    -7.56318E+06     859.428E+03    -57.6108E-03     113.611E-03    -56.0001E-03     87.3087E-03    -57.8810E-03     113.473E-03    -55.8623E-03     86.6416E-03
             322     10.2133E-03     63.3174E-03    -26.4538E+06    -75.9716E+06    -7.94268E+06     804.817E+03    -57.8701E-03     113.834E-03    -55.9636E-03     94.8868E-03    -58.2672E-03     113.890E-03    -55.8548E-03     94.0798E-03
             323     11.0644E-03     63.4166E-03    -25.2332E+06    -49.4631E+06    -6.94445E+06     923.636E+03    -58.1716E-03     114.095E-03    -55.9234E-03     103.438E-03    -58.7596E-03     114.438E-03    -55.8498E-03     102.462E-03
             324     11.9156E-03     63.5255E-03    -23.6979E+06    -11.2297E+06    -7.74095E+06     1.20051E+06    -58.6495E-03     114.508E-03    -55.8580E-03     116.566E-03    -59.5523E-03     115.309E-03    -55.8461E-03     115.370E-03
             325     12.7664E-03     63.6508E-03    -22.4276E+06     32.4503E+06    -6.14896E+06     1.86047E+06    -59.5378E-03     115.329E-03    -55.7911E-03     139.832E-03    -61.0504E-03     116.895E-03    -55.8364E-03     138.319E-03
             326     13.6187E-03     63.8065E-03    -19.8423E+06     67.8436E+06     16.7566E+06     3.04965E+06    -63.0904E-03     118.925E-03    -55.8345E-03     192.602E-03    -66.2190E-03     122.175E-03    -55.8203E-03     190.540E-03
             327     14.4686E-03     64.0404E-03    -15.2853E+06     99.9940E+06     60.3288E+06     3.68074E+06    -74.3017E-03     130.296E-03    -55.9943E-03     303.799E-03    -83.3975E-03     139.518E-03    -55.8155E-03     300.513E-03
             328     15.3188E-03     64.4267E-03    -10.0880E+06     138.573E+06     98.3918E+06     2.63605E+06    -85.3799E-03     141.476E-03    -56.0957E-03     428.565E-03    -108.648E-03     164.914E-03    -55.7901E-03     426.480E-03
             329     16.1757E-03     64.9367E-03    -5.38011E+06     156.907E+06     109.925E+06     846.818E+03    -76.0936E-03     132.146E-03    -56.0527E-03     378.627E-03    -100.041E-03     156.313E-03    -55.7228E-03     384.882E-03
             330     851.019E-06     63.7925E-03    -54.6009E+06    -172.156E+06    -53.6117E+06     215.445E+03    -56.0630E-03     112.057E-03    -55.9939E-03     9.41812E-03    -56.0098E-03     111.355E-03    -55.9332E-03     9.38567E-03
             331     1.70203E-03     63.8057E-03    -53.1875E+06    -169.652E+06    -49.6530E+06     283.080E+03    -56.0779E-03     112.107E-03    -56.0293E-03     17.2124E-03    -56.0304E-03     111.413E-03    -55.9545E-03     17.1501E-03
             332     2.55309E-03     63.8271E-03    -51.1688E+06    -165.732E+06    -43.4581E+06     108.804E+03    -56.1348E-03     112.178E-03    -56.0432E-03     25.4619E-03    -56.0974E-03     111.497E-03    -55.9460E-03     25.3618E-03
             333     3.40415E-03     63.8570E-03    -48.4108E+06    -160.795E+06    -35.8541E+06     176.238E+03    -56.2223E-03     112.280E-03    -56.0576E-03     33.6503E-03    -56.1977E-03     111.617E-03    -55.9335E-03     33.5112E-03
             334     4.25527E-03     63.8948E-03    -45.5083E+06    -153.919E+06    -28.4403E+06    -8.63714E+03    -56.3490E-03     112.416E-03    -56.0670E-03     41.7447E-03    -56.3429E-03     111.784E-03    -55.9200E-03     41.5571E-03
             335     5.10639E-03     63.9409E-03    -42.8322E+06    -147.269E+06    -21.5480E+06    -278.822E+03    -56.5115E-03     112.587E-03    -56.0757E-03     49.6482E-03    -56.5287E-03     111.992E-03    -55.9077E-03     49.4036E-03
             336     5.95750E-03     63.9947E-03    -39.9967E+06    -142.369E+06    -15.4871E+06     349.118E+03    -56.7127E-03     112.798E-03    -56.0849E-03     57.3173E-03    -56.7550E-03     112.237E-03    -55.8979E-03     57.0182E-03
             337     6.80863E-03     64.0563E-03    -36.9357E+06    -131.534E+06    -11.6688E+06     1.05310E+06    -56.9261E-03     113.002E-03    -56.0761E-03     64.8697E-03    -57.0057E-03     112.518E-03    -55.8902E-03     64.5071E-03
             338     7.65971E-03     64.1253E-03    -33.6547E+06    -121.357E+06    -9.66403E+06     1.04147E+06    -57.1572E-03     113.217E-03    -56.0600E-03     72.3124E-03    -57.2804E-03     112.818E-03    -55.8836E-03     71.8642E-03
             339     8.51086E-03     64.2018E-03    -30.7495E+06    -109.816E+06    -7.93956E+06     1.20200E+06    -57.3964E-03     113.438E-03    -56.0415E-03     79.7483E-03    -57.5813E-03     113.147E-03    -55.8774E-03     79.2025E-03
             340     9.36200E-03     64.2856E-03    -28.7272E+06    -93.4185E+06    -7.79576E+06     1.33141E+06    -57.6375E-03     113.647E-03    -56.0091E-03     87.4245E-03    -57.9140E-03     113.512E-03    -55.8709E-03     86.7636E-03
             341     10.2132E-03     64.3775E-03    -27.0480E+06    -75.8129E+06    -8.49124E+06     1.01351E+06    -57.9092E-03     113.881E-03    -55.9718E-03     95.1065E-03    -58.3088E-03     113.940E-03    -55.8651E-03     94.3023E-03
             342     11.0643E-03     64.4768E-03    -25.7257E+06    -49.6915E+06    -7.69947E+06     1.00037E+06    -58.1395E-03     114.069E-03    -55.9297E-03     103.658E-03    -58.7282E-03     114.413E-03    -55.8589E-03     102.686E-03
             343     11.9155E-03     64.5856E-03    -25.0428E+06    -11.8069E+06    -8.78131E+06     1.18822E+06    -58.5712E-03     114.430E-03    -55.8589E-03     116.942E-03    -59.4776E-03     115.231E-03    -55.8494E-03     115.750E-03
             344     12.7671E-03     64.7112E-03    -23.8695E+06     32.0870E+06    -7.04736E+06     1.30759E+06    -59.5964E-03     115.387E-03    -55.7902E-03     140.199E-03    -61.1184E-03     116.958E-03    -55.8374E-03     138.677E-03
             345     13.6173E-03     64.8665E-03    -21.4254E+06     66.8671E+06     15.2256E+06     1.18133E+06    -63.0094E-03     118.837E-03    -55.8280E-03     193.468E-03    -66.1596E-03     122.105E-03    -55.8177E-03     191.377E-03
             346     14.4705E-03     65.1005E-03    -17.1961E+06     97.9371E+06     58.1124E+06     1.25178E+06    -73.6966E-03     129.653E-03    -55.9567E-03     305.579E-03    -82.8086E-03     138.883E-03    -55.7832E-03     302.309E-03
             347     15.3227E-03     65.4905E-03    -10.6647E+06     138.393E+06     97.5670E+06     2.34357E+06    -84.5370E-03     140.566E-03    -56.0292E-03     426.328E-03    -107.640E-03     163.840E-03    -55.7266E-03     424.327E-03
             348     16.1757E-03     65.9873E-03    -4.85535E+06     159.491E+06     110.722E+06     2.47207E+06    -76.5141E-03     132.522E-03    -56.0077E-03     377.302E-03    -100.380E-03     156.616E-03    -55.6783E-03     383.431E-03
             349     851.037E-06     64.8525E-03    -54.8344E+06    -172.503E+06    -54.1120E+06     27.4758E+03    -56.0099E-03     112.032E-03    -56.0226E-03     9.40346E-03    -55.9567E-03     111.330E-03    -55.9635E-03     9.36868E-03
             350     1.70209E-03     64.8656E-03    -53.3968E+06    -169.881E+06    -50.0345E+06     164.018E+03    -56.0711E-03     112.089E-03    -56.0176E-03     17.2186E-03    -56.0237E-03     111.394E-03    -55.9440E-03     17.1548E-03
             351     2.55308E-03     64.8871E-03    -51.1293E+06    -165.597E+06    -43.3154E+06     232.708E+03    -56.1412E-03     112.178E-03    -56.0364E-03     25.4645E-03    -56.1039E-03     111.497E-03    -55.9388E-03     25.3660E-03
             352     3.40418E-03     64.9168E-03    -48.2860E+06    -160.972E+06    -36.3691E+06     129.879E+03    -56.2327E-03     112.284E-03    -56.0517E-03     33.6405E-03    -56.2066E-03     111.621E-03    -55.9301E-03     33.5006E-03
             353     4.25529E-03     64.9548E-03    -45.0503E+06    -153.900E+06    -28.5343E+06     395.416E+03    -56.3651E-03     112.430E-03    -56.0654E-03     41.7157E-03    -56.3566E-03     111.799E-03    -55.9196E-03     41.5332E-03
             354     5.10638E-03     65.0008E-03    -42.0736E+06    -147.635E+06    -20.3784E+06     950.544E+03    -56.5343E-03     112.618E-03    -56.0836E-03     49.5994E-03    -56.5490E-03     112.018E-03    -55.9104E-03     49.3705E-03
             355     5.95749E-03     65.0547E-03    -39.2129E+06    -142.820E+06    -15.5456E+06     916.250E+03    -56.7248E-03     112.813E-03    -56.0885E-03     57.3150E-03    -56.7624E-03     112.250E-03    -55.9023E-03     57.0233E-03
             356     6.80857E-03     65.1162E-03    -35.6643E+06    -131.699E+06    -12.2275E+06     523.060E+03    -56.9250E-03     113.000E-03    -56.0754E-03     64.9358E-03    -56.9972E-03     112.514E-03    -55.8939E-03     64.5668E-03
             357     7.65977E-03     65.1854E-03    -32.5344E+06    -121.822E+06    -9.28712E+06     791.264E+03    -57.1501E-03     113.213E-03    -56.0628E-03     72.3760E-03    -57.2675E-03     112.809E-03    -55.8854E-03     71.9251E-03
             358     8.51092E-03     65.2617E-03    -30.3798E+06    -110.579E+06    -7.73027E+06     1.36943E+06    -57.3804E-03     113.423E-03    -56.0429E-03     79.8029E-03    -57.5625E-03     113.127E-03    -55.8772E-03     79.2598E-03
             359     9.36208E-03     65.3458E-03    -28.4450E+06    -93.2924E+06    -7.42735E+06     1.52272E+06    -57.6595E-03     113.669E-03    -56.0098E-03     87.5330E-03    -57.9353E-03     113.535E-03    -55.8704E-03     86.8744E-03
             360     10.2131E-03     65.4375E-03    -26.9902E+06    -75.3586E+06    -8.33465E+06     1.23093E+06    -57.8872E-03     113.858E-03    -55.9710E-03     95.2150E-03    -58.2873E-03     113.919E-03    -55.8643E-03     94.4143E-03
             361     11.0644E-03     65.5370E-03    -25.8667E+06    -50.4475E+06    -8.05593E+06     1.36129E+06    -58.0738E-03     113.998E-03    -55.9247E-03     103.754E-03    -58.6614E-03     114.339E-03    -55.8543E-03     102.787E-03
             362     11.9158E-03     65.6453E-03    -24.9568E+06    -11.9509E+06    -8.87478E+06     1.77694E+06    -58.4985E-03     114.347E-03    -55.8489E-03     117.035E-03    -59.4042E-03     115.148E-03    -55.8397E-03     115.852E-03
             363     12.7668E-03     65.7715E-03    -23.9377E+06     32.7024E+06    -5.85716E+06     1.16130E+06    -59.4703E-03     115.250E-03    -55.7795E-03     140.227E-03    -60.9910E-03     116.819E-03    -55.8214E-03     138.710E-03
             364     13.6193E-03     65.9265E-03    -22.0113E+06     67.1356E+06     19.8897E+06     515.568E+03    -62.8916E-03     118.722E-03    -55.8309E-03     193.107E-03    -66.0544E-03     121.988E-03    -55.7969E-03     191.012E-03
             365     14.4697E-03     66.1601E-03    -18.2490E+06     96.5608E+06     61.7259E+06    -40.4023E+03    -73.3484E-03     129.300E-03    -55.9518E-03     304.431E-03    -82.4021E-03     138.453E-03    -55.7568E-03     301.180E-03
             366     15.3227E-03     66.5481E-03    -12.9911E+06     134.975E+06     96.0800E+06     709.649E+03    -85.8424E-03     141.886E-03    -56.0441E-03     424.672E-03    -108.931E-03     165.129E-03    -55.7406E-03     422.391E-03
             367     16.1707E-03     67.0498E-03    -6.03131E+06     160.002E+06     109.872E+06     1.88026E+06    -76.1737E-03     132.235E-03    -56.0617E-03     375.531E-03    -100.035E-03     156.325E-03    -55.7356E-03     381.565E-03
             368     851.015E-06     65.9123E-03    -55.0177E+06    -172.564E+06    -54.1283E+06     9.88631E+03    -55.9861E-03     112.020E-03    -56.0338E-03     9.35802E-03    -55.9336E-03     111.317E-03    -55.9744E-03     9.32321E-03
             369     1.70205E-03     65.9256E-03    -53.7834E+06    -170.057E+06    -50.1428E+06     20.7866E+03    -56.0539E-03     112.064E-03    -56.0099E-03     17.2424E-03    -56.0080E-03     111.369E-03    -55.9360E-03     17.1768E-03
             370     2.55317E-03     65.9470E-03    -51.5235E+06    -165.823E+06    -43.5411E+06     182.755E+03    -56.1406E-03     112.168E-03    -56.0278E-03     25.4599E-03    -56.1047E-03     111.487E-03    -55.9304E-03     25.3609E-03
             371     3.40419E-03     65.9768E-03    -48.8071E+06    -160.923E+06    -35.9079E+06     321.106E+03    -56.2601E-03     112.312E-03    -56.0520E-03     33.6379E-03    -56.2373E-03     111.649E-03    -55.9274E-03     33.5004E-03
             372     4.25522E-03     66.0147E-03    -45.7878E+06    -154.453E+06    -28.9051E+06     379.696E+03    -56.3853E-03     112.454E-03    -56.0688E-03     41.7190E-03    -56.3792E-03     111.821E-03    -55.9230E-03     41.5362E-03
             373     5.10632E-03     66.0608E-03    -41.6896E+06    -148.399E+06    -21.5559E+06     685.413E+03    -56.5285E-03     112.611E-03    -56.0822E-03     49.6392E-03    -56.5384E-03     112.008E-03    -55.9144E-03     49.4071E-03
             374     5.95742E-03     66.1146E-03    -37.3343E+06    -142.572E+06    -15.0141E+06     790.599E+03    -56.7116E-03     112.801E-03    -56.0891E-03     57.3655E-03    -56.7409E-03     112.235E-03    -55.9033E-03     57.0726E-03
             375     6.80863E-03     66.1762E-03    -34.7800E+06    -131.858E+06    -11.7592E+06     900.009E+03    -56.9111E-03     112.986E-03    -56.0748E-03     64.9953E-03    -56.9792E-03     112.497E-03    -55.8920E-03     64.6317E-03
             376     7.65973E-03     66.2453E-03    -32.9395E+06    -122.305E+06    -9.80827E+06     1.05793E+06    -57.1357E-03     113.193E-03    -56.0577E-03     72.4322E-03    -57.2535E-03     112.789E-03    -55.8816E-03     71.9854E-03
             377     8.51088E-03     66.3218E-03    -30.3291E+06    -111.154E+06    -8.20277E+06     1.12728E+06    -57.3798E-03     113.417E-03    -56.0369E-03     79.8606E-03    -57.5602E-03     113.119E-03    -55.8728E-03     79.3144E-03
             378     9.36210E-03     66.4056E-03    -27.8325E+06    -93.6655E+06    -7.44679E+06     1.46480E+06    -57.6302E-03     113.634E-03    -56.0034E-03     87.6512E-03    -57.9023E-03     113.496E-03    -55.8645E-03     86.9926E-03
             379     10.2133E-03     66.4978E-03    -26.1556E+06    -75.3695E+06    -7.19829E+06     1.81066E+06    -57.8305E-03     113.796E-03    -55.9659E-03     95.2306E-03    -58.2278E-03     113.854E-03    -55.8547E-03     94.4384E-03
             380     11.0646E-03     66.5964E-03    -25.1459E+06    -51.1259E+06    -7.26776E+06     1.99594E+06    -58.0325E-03     113.948E-03    -55.9155E-03     103.821E-03    -58.6171E-03     114.283E-03    -55.8413E-03     102.863E-03
             381     11.9157E-03     66.7059E-03    -23.7853E+06    -12.0114E+06    -8.11246E+06     1.92986E+06    -58.4536E-03     114.289E-03    -55.8352E-03     117.154E-03    -59.3537E-03     115.085E-03    -55.8238E-03     115.976E-03
             382     12.7675E-03     66.8308E-03    -22.5970E+06     33.4441E+06    -4.02688E+06     1.61456E+06    -59.5149E-03     115.285E-03    -55.7698E-03     140.304E-03    -61.0320E-03     116.852E-03    -55.8057E-03     138.793E-03
             383     13.6179E-03     66.9869E-03    -21.4572E+06     67.8196E+06     21.1207E+06     1.01880E+06    -62.7482E-03     118.566E-03    -55.8180E-03     192.867E-03    -65.9008E-03     121.822E-03    -55.7796E-03     190.794E-03
             384     14.4706E-03     67.2195E-03    -18.7713E+06     97.6084E+06     62.5089E+06     1.18735E+06    -73.9575E-03     129.908E-03    -55.9507E-03     304.745E-03    -83.0732E-03     139.123E-03    -55.7525E-03     301.441E-03
             385     15.3213E-03     67.6079E-03    -14.7818E+06     135.387E+06     96.4035E+06     280.093E+03    -86.0261E-03     142.070E-03    -56.0436E-03     428.396E-03    -109.329E-03     165.522E-03    -55.7365E-03     426.173E-03
             386     16.1707E-03     68.1168E-03    -8.92610E+06     158.636E+06     108.467E+06    -1.27260E+06    -75.9627E-03     131.986E-03    -56.0236E-03     376.622E-03    -99.8332E-03     156.074E-03    -55.6984E-03     382.758E-03
             387     851.043E-06     66.9722E-03    -55.3007E+06    -172.758E+06    -54.3820E+06     40.2316E+03    -55.9898E-03     112.000E-03    -56.0098E-03     9.35216E-03    -55.9381E-03     111.297E-03    -55.9511E-03     9.31799E-03
             388     1.70213E-03     66.9854E-03    -53.9215E+06    -170.114E+06    -50.1285E+06     175.172E+03    -56.0605E-03     112.065E-03    -56.0041E-03     17.2486E-03    -56.0152E-03     111.369E-03    -55.9299E-03     17.1850E-03
             389     2.55312E-03     67.0069E-03    -51.9083E+06    -166.218E+06    -43.9291E+06     291.200E+03    -56.1436E-03     112.169E-03    -56.0251E-03     25.4571E-03    -56.1085E-03     111.487E-03    -55.9285E-03     25.3596E-03
             390     3.40420E-03     67.0367E-03    -49.0747E+06    -161.256E+06    -36.2453E+06     564.263E+03    -56.2516E-03     112.301E-03    -56.0493E-03     33.6666E-03    -56.2291E-03     111.637E-03    -55.9256E-03     33.5326E-03
             391     4.25524E-03     67.0747E-03    -45.9134E+06    -154.540E+06    -28.8772E+06     642.527E+03    -56.3699E-03     112.435E-03    -56.0654E-03     41.7646E-03    -56.3642E-03     111.802E-03    -55.9191E-03     41.5856E-03
             392     5.10635E-03     67.1206E-03    -43.0007E+06    -148.235E+06    -22.5889E+06     75.5769E+03    -56.5071E-03     112.580E-03    -56.0726E-03     49.7194E-03    -56.5222E-03     111.981E-03    -55.9083E-03     49.4800E-03
             393     5.95755E-03     67.1746E-03    -40.0493E+06    -143.350E+06    -16.3057E+06     324.240E+03    -56.6934E-03     112.774E-03    -56.0803E-03     57.4406E-03    -56.7332E-03     112.210E-03    -55.8959E-03     57.1422E-03
             394     6.80863E-03     67.2361E-03    -36.4367E+06    -132.511E+06    -11.8588E+06     1.16421E+06    -56.8957E-03     112.966E-03    -56.0700E-03     65.0348E-03    -56.9710E-03     112.476E-03    -55.8843E-03     64.6748E-03
             395     7.65987E-03     67.3053E-03    -33.0501E+06    -122.034E+06    -9.68700E+06     1.08577E+06    -57.1208E-03     113.171E-03    -56.0499E-03     72.4815E-03    -57.2397E-03     112.767E-03    -55.8735E-03     72.0353E-03
             396     8.51106E-03     67.3816E-03    -30.5626E+06    -111.322E+06    -8.32242E+06     719.190E+03    -57.3670E-03     113.395E-03    -56.0280E-03     79.9355E-03    -57.5483E-03     113.097E-03    -55.8638E-03     79.3841E-03
             397     9.36214E-03     67.4658E-03    -28.3691E+06    -94.6299E+06    -7.97165E+06     1.04068E+06    -57.5645E-03     113.556E-03    -55.9912E-03     87.6971E-03    -57.8370E-03     113.415E-03    -55.8527E-03     87.0342E-03
             398     10.2135E-03     67.5574E-03    -26.4942E+06    -76.4486E+06      -7.331E+06     2.00427E+06    -57.7743E-03     113.725E-03    -55.9512E-03     95.3040E-03    -58.1714E-03     113.778E-03    -55.8386E-03     94.5155E-03
             399     11.0646E-03     67.6568E-03    -24.7904E+06    -50.8421E+06    -6.62389E+06     2.06343E+06    -57.9896E-03     113.889E-03    -55.8989E-03     103.828E-03    -58.5738E-03     114.223E-03    -55.8224E-03     102.871E-03
             400     11.9164E-03     67.7652E-03    -23.2625E+06    -12.1479E+06    -8.02042E+06     1.64860E+06    -58.3813E-03     114.194E-03    -55.8132E-03     117.213E-03    -59.2781E-03     114.989E-03    -55.8019E-03     116.033E-03
             401     12.7673E-03     67.8914E-03    -22.2141E+06     33.1945E+06    -4.93356E+06     2.17765E+06    -59.3590E-03     115.094E-03    -55.7353E-03     140.811E-03    -60.8692E-03     116.658E-03    -55.7759E-03     139.317E-03
             402     13.6193E-03     68.0470E-03    -20.9857E+06     68.8075E+06     21.1336E+06     2.45042E+06    -62.9914E-03     118.781E-03    -55.7894E-03     192.919E-03    -66.1585E-03     122.056E-03    -55.7530E-03     190.847E-03
             403     14.4715E-03     68.2777E-03    -18.3550E+06     98.2282E+06     62.8909E+06     2.76828E+06    -74.2780E-03     130.218E-03    -55.9400E-03     305.215E-03    -83.4142E-03     139.455E-03    -55.7414E-03     301.907E-03
             404     15.3210E-03     68.6736E-03    -12.6095E+06     138.429E+06     97.7397E+06     1.50060E+06    -84.5290E-03     140.537E-03    -56.0076E-03     426.742E-03    -107.626E-03     163.797E-03    -55.7013E-03     424.784E-03
             405     16.1814E-03     69.1693E-03    -5.91454E+06     159.937E+06     110.612E+06    -1.12711E+06    -75.9655E-03     131.942E-03    -55.9762E-03     374.488E-03    -99.6163E-03     155.819E-03    -55.6465E-03     380.616E-03
             406     851.074E-06     68.0320E-03    -55.3561E+06    -172.790E+06    -54.4515E+06    -70.8780E+03    -56.0209E-03     112.010E-03    -55.9895E-03     9.32600E-03    -55.9693E-03     111.308E-03    -55.9310E-03     9.29043E-03
             407     1.70205E-03     68.0453E-03    -53.9123E+06    -170.405E+06    -50.7171E+06     97.9085E+03    -56.0665E-03     112.074E-03    -56.0070E-03     17.2314E-03    -56.0199E-03     111.378E-03    -55.9354E-03     17.1669E-03
             408     2.55315E-03     68.0668E-03    -51.5299E+06    -166.412E+06    -44.5444E+06     183.872E+03    -56.1341E-03     112.159E-03    -56.0245E-03     25.4711E-03    -56.0959E-03     111.476E-03    -55.9312E-03     25.3724E-03
             409     3.40418E-03     68.0967E-03    -48.5605E+06    -161.780E+06    -37.5322E+06     302.187E+03    -56.2222E-03     112.261E-03    -56.0392E-03     33.6735E-03    -56.1945E-03     111.596E-03    -55.9219E-03     33.5362E-03
             410     4.25534E-03     68.1345E-03    -45.0672E+06    -154.594E+06    -29.5065E+06     441.946E+03    -56.3444E-03     112.396E-03    -56.0514E-03     41.7554E-03    -56.3336E-03     111.762E-03    -55.9095E-03     41.5739E-03
             411     5.10647E-03     68.1807E-03    -41.7478E+06    -148.218E+06    -21.1947E+06     880.691E+03    -56.5094E-03     112.576E-03    -56.0669E-03     49.6674E-03    -56.5203E-03     111.974E-03    -55.8974E-03     49.4381E-03
             412     5.95756E-03     68.2344E-03    -38.9457E+06    -143.839E+06    -15.5052E+06     957.661E+03    -56.6931E-03     112.767E-03    -56.0738E-03     57.4102E-03    -56.7279E-03     112.198E-03    -55.8863E-03     57.1197E-03
             413     6.80876E-03     68.2961E-03    -35.9985E+06    -132.735E+06    -11.7606E+06     519.447E+03    -56.8844E-03     112.945E-03    -56.0606E-03     65.0400E-03    -56.9572E-03     112.453E-03    -55.8748E-03     64.6717E-03
             414     7.65989E-03     68.3651E-03    -32.8077E+06    -122.221E+06    -9.45317E+06     640.237E+03    -57.1034E-03     113.144E-03    -56.0407E-03     72.5083E-03    -57.2212E-03     112.739E-03    -55.8631E-03     72.0565E-03
             415     8.51103E-03     68.4418E-03    -30.3354E+06    -111.381E+06     -8.3901E+06     1.00535E+06    -57.3188E-03     113.333E-03    -56.0147E-03     79.9574E-03    -57.4985E-03     113.034E-03    -55.8511E-03     79.4107E-03
             416     9.36241E-03     68.5255E-03    -28.9333E+06    -95.4981E+06    -8.57667E+06     1.27224E+06    -57.5272E-03     113.502E-03    -55.9748E-03     87.6481E-03    -57.8004E-03     113.358E-03    -55.8373E-03     86.9884E-03
             417     10.2136E-03     68.6175E-03    -27.2734E+06    -77.4550E+06    -8.53505E+06     1.48924E+06    -57.7319E-03     113.662E-03    -55.9305E-03     95.3000E-03    -58.1295E-03     113.713E-03    -55.8213E-03     94.5058E-03
             418     11.0651E-03     68.7165E-03    -25.4016E+06    -50.4881E+06    -7.27012E+06     1.65888E+06    -57.9880E-03     113.867E-03    -55.8787E-03     103.732E-03    -58.5749E-03     114.205E-03    -55.8050E-03     102.770E-03
             419     11.9161E-03     68.8252E-03    -24.4767E+06    -12.3029E+06    -8.78350E+06     1.68586E+06    -58.2787E-03     114.072E-03    -55.7928E-03     116.897E-03    -59.1797E-03     114.867E-03    -55.7834E-03     115.718E-03
             420     12.7683E-03     68.9509E-03    -23.7138E+06     31.8729E+06    -7.17923E+06     2.10002E+06    -59.1402E-03     114.842E-03    -55.7022E-03     140.341E-03    -60.6444E-03     116.396E-03    -55.7500E-03     138.854E-03
             421     13.6204E-03     69.1063E-03    -21.6279E+06     67.7215E+06     15.3567E+06     2.93570E+06    -63.3693E-03     119.111E-03    -55.7417E-03     193.505E-03    -66.5519E-03     122.413E-03    -55.7318E-03     191.412E-03
             422     14.4684E-03     69.3414E-03    -16.4799E+06     97.6919E+06     58.3532E+06     2.51237E+06    -74.0105E-03     129.910E-03    -55.8999E-03     304.888E-03    -83.0924E-03     139.111E-03    -55.7259E-03     301.636E-03
             423     15.3240E-03     69.7276E-03    -9.01617E+06     140.344E+06     99.0431E+06     1.74640E+06    -85.4064E-03     141.428E-03    -56.0221E-03     425.183E-03    -108.647E-03     164.848E-03    -55.7173E-03     423.018E-03
             424     16.1674E-03     70.2284E-03    -2.92182E+06     162.898E+06     113.151E+06     1.20124E+06    -76.4339E-03     132.484E-03    -56.0501E-03     373.694E-03    -100.289E-03     156.579E-03    -55.7163E-03     379.676E-03
             425     850.973E-06     69.0920E-03    -55.2564E+06    -172.717E+06    -54.3724E+06    -13.0646E+03    -56.0653E-03     112.037E-03    -55.9721E-03     9.36733E-03    -56.0135E-03     111.335E-03    -55.9134E-03     9.33248E-03
             426     1.70208E-03     69.1052E-03    -53.9749E+06    -170.344E+06    -50.6133E+06    -178.306E+03    -56.0576E-03     112.074E-03    -56.0164E-03     17.2496E-03    -56.0116E-03     111.378E-03    -55.9442E-03     17.1816E-03
             427     2.55309E-03     69.1267E-03    -51.7575E+06    -166.475E+06    -44.5239E+06    -230.843E+03    -56.1166E-03     112.143E-03    -56.0266E-03     25.4723E-03    -56.0795E-03     111.460E-03    -55.9328E-03     25.3682E-03
             428     3.40425E-03     69.1565E-03    -48.7889E+06    -161.863E+06    -37.5138E+06    -242.998E+03    -56.2099E-03     112.247E-03    -56.0373E-03     33.6413E-03    -56.1833E-03     111.582E-03    -55.9194E-03     33.4968E-03
             429     4.25531E-03     69.1945E-03    -45.7463E+06    -155.221E+06    -30.1987E+06     118.346E+03    -56.3335E-03     112.379E-03    -56.0460E-03     41.7259E-03    -56.3242E-03     111.744E-03    -55.9056E-03     41.5401E-03
             430     5.10645E-03     69.2405E-03    -42.2529E+06    -149.126E+06    -22.3034E+06     738.038E+03    -56.4941E-03     112.552E-03    -56.0582E-03     49.6514E-03    -56.5047E-03     111.948E-03    -55.8922E-03     49.4203E-03
             431     5.95761E-03     69.2944E-03    -38.0873E+06    -143.474E+06    -15.7036E+06     749.618E+03    -56.6790E-03     112.743E-03    -56.0642E-03     57.3883E-03    -56.7097E-03     112.175E-03    -55.8795E-03     57.0951E-03
             432     6.80878E-03     69.3558E-03    -34.6703E+06    -132.691E+06    -12.2150E+06     666.933E+03    -56.8694E-03     112.917E-03    -56.0480E-03     65.0383E-03    -56.9350E-03     112.424E-03    -55.8664E-03     64.6721E-03
             433     7.66000E-03     69.4251E-03    -32.7904E+06    -123.006E+06    -10.1069E+06     1.07850E+06    -57.0731E-03     113.101E-03    -56.0280E-03     72.4894E-03    -57.1886E-03     112.693E-03    -55.8527E-03     72.0436E-03
             434     8.51132E-03     69.5014E-03    -31.2487E+06    -111.686E+06    -8.81949E+06     1.41997E+06    -57.2934E-03     113.296E-03    -56.0022E-03     79.9060E-03    -57.4766E-03     112.997E-03    -55.8391E-03     79.3648E-03
             435     9.36245E-03     69.5856E-03    -28.9814E+06    -95.6266E+06    -8.64172E+06     1.26322E+06    -57.5248E-03     113.488E-03    -55.9630E-03     87.5380E-03    -57.7980E-03     113.344E-03    -55.8255E-03     86.8776E-03
             436     10.2138E-03     69.6771E-03    -26.9570E+06    -77.8010E+06    -8.70127E+06     1.20108E+06    -57.7385E-03     113.658E-03    -55.9195E-03     95.1532E-03    -58.1338E-03     113.707E-03    -55.8111E-03     94.3544E-03
             437     11.0650E-03     69.7765E-03    -25.7787E+06    -51.3217E+06    -7.83311E+06     1.83879E+06    -57.9716E-03     113.840E-03    -55.8682E-03     103.699E-03    -58.5584E-03     114.176E-03    -55.7956E-03     102.739E-03
             438     11.9165E-03     69.8852E-03    -25.0960E+06    -12.4271E+06    -8.89323E+06     2.39245E+06    -58.2929E-03     114.079E-03    -55.7857E-03     116.435E-03    -59.1958E-03     114.874E-03    -55.7758E-03     115.264E-03
             439     12.7680E-03     70.0095E-03    -24.4362E+06     31.5564E+06    -7.61892E+06     2.10153E+06    -59.3636E-03     115.068E-03    -55.7039E-03     140.110E-03    -60.8775E-03     116.629E-03    -55.7523E-03     138.609E-03
             440     13.6187E-03     70.1670E-03    -22.3081E+06     66.2056E+06     13.8248E+06     1.14335E+06    -62.8257E-03     118.554E-03    -55.7283E-03     194.260E-03    -65.9960E-03     121.840E-03    -55.7228E-03     192.175E-03
             441     14.4731E-03     70.4021E-03    -16.8553E+06     98.5313E+06     58.3499E+06    -238.925E+03    -73.9382E-03     129.809E-03    -55.8706E-03     304.929E-03    -83.0343E-03     139.026E-03    -55.6973E-03     301.620E-03
             442     15.3212E-03     70.7869E-03    -11.4139E+06     139.764E+06     98.2650E+06    -232.799E+03    -86.3286E-03     142.336E-03    -56.0069E-03     427.667E-03    -109.860E-03     166.038E-03    -55.7017E-03     425.419E-03
             443     16.1753E-03     71.2997E-03    -6.31424E+06     162.367E+06     111.056E+06     1.14847E+06    -76.9811E-03     133.027E-03    -56.0457E-03     375.274E-03    -101.016E-03     157.293E-03    -55.7167E-03     381.226E-03
             444     851.072E-06     70.1519E-03    -55.1084E+06    -172.624E+06    -54.2566E+06     19.9796E+03    -56.0971E-03     112.038E-03    -55.9413E-03     9.35753E-03    -56.0449E-03     111.336E-03    -55.8824E-03     9.32319E-03
             445     1.70203E-03     70.1651E-03    -53.9307E+06    -170.159E+06    -50.1516E+06    -16.9985E+03    -56.0560E-03     112.074E-03    -56.0184E-03     17.2310E-03    -56.0106E-03     111.379E-03    -55.9442E-03     17.1649E-03
             446     2.55316E-03     70.1866E-03    -52.0043E+06    -166.280E+06    -43.9298E+06    -134.518E+03    -56.1092E-03     112.138E-03    -56.0288E-03     25.4617E-03    -56.0744E-03     111.456E-03    -55.9319E-03     25.3586E-03
             447     3.40418E-03     70.2164E-03    -49.4535E+06    -161.673E+06    -36.6735E+06    -310.950E+03    -56.2069E-03     112.248E-03    -56.0410E-03     33.6468E-03    -56.1851E-03     111.583E-03    -55.9183E-03     33.5013E-03
             448     4.25533E-03     70.2543E-03    -46.1622E+06    -156.102E+06    -29.7624E+06    -11.4429E+03    -56.3314E-03     112.381E-03    -56.0492E-03     41.7276E-03    -56.3235E-03     111.741E-03    -55.9048E-03     41.5401E-03
             449     5.10648E-03     70.3004E-03    -42.5266E+06    -149.335E+06    -22.7567E+06     81.7726E+03    -56.4781E-03     112.533E-03    -56.0547E-03     49.6551E-03    -56.4890E-03     111.929E-03    -55.8903E-03     49.4156E-03
             450     5.95767E-03     70.3542E-03    -39.0144E+06    -143.291E+06    -16.4608E+06    -114.076E+03    -56.6665E-03     112.725E-03    -56.0582E-03     57.3645E-03    -56.7010E-03     112.160E-03    -55.8761E-03     57.0601E-03
             451     6.80883E-03     70.4158E-03    -35.6867E+06    -133.660E+06    -12.7124E+06     498.820E+03    -56.8620E-03     112.907E-03    -56.0449E-03     64.9591E-03    -56.9307E-03     112.411E-03    -55.8629E-03     64.5902E-03
             452     7.66008E-03     70.4849E-03    -32.4203E+06    -123.991E+06    -9.79119E+06     1.46640E+06    -57.0715E-03     113.099E-03    -56.0274E-03     72.3564E-03    -57.1843E-03     112.685E-03    -55.8495E-03     71.9149E-03
             453     8.51121E-03     70.5614E-03    -29.5274E+06    -111.586E+06    -7.72437E+06     1.60389E+06    -57.3090E-03     113.312E-03    -56.0030E-03     79.7659E-03    -57.4854E-03     113.010E-03    -55.8370E-03     79.2263E-03
             454     9.36254E-03     70.6453E-03    -27.6904E+06    -95.3974E+06    -7.61847E+06     1.30580E+06    -57.5489E-03     113.515E-03    -55.9660E-03     87.3667E-03    -57.8175E-03     113.369E-03    -55.8256E-03     86.7060E-03
             455     10.2137E-03     70.7370E-03    -26.4284E+06    -78.3118E+06    -8.26435E+06     1.43992E+06    -57.7776E-03     113.702E-03    -55.9248E-03     94.9585E-03    -58.1708E-03     113.748E-03    -55.8143E-03     94.1607E-03
             456     11.0651E-03     70.8362E-03    -24.6100E+06    -52.2481E+06    -7.60322E+06     1.65469E+06    -57.9694E-03     113.843E-03    -55.8741E-03     103.412E-03    -58.5484E-03     114.172E-03    -55.8006E-03     102.450E-03
             457     11.9165E-03     70.9449E-03    -22.5775E+06    -13.7299E+06    -8.12779E+06     2.79002E+06    -58.4029E-03     114.200E-03    -55.7968E-03     116.096E-03    -59.2931E-03     114.985E-03    -55.7848E-03     114.926E-03
             458     12.7677E-03     71.0697E-03    -21.3612E+06     32.7317E+06    -5.13253E+06     2.93911E+06    -59.2978E-03     115.018E-03    -55.7203E-03     140.119E-03    -60.8061E-03     116.582E-03    -55.7625E-03     138.628E-03
             459     13.6199E-03     71.2267E-03    -19.6411E+06     69.4330E+06     21.7069E+06     604.444E+03    -62.9044E-03     118.676E-03    -55.7715E-03     193.538E-03    -66.0743E-03     121.960E-03    -55.7352E-03     191.437E-03
             460     14.4711E-03     71.4587E-03    -18.1054E+06     99.3033E+06     63.6443E+06    -683.201E+03    -74.0133E-03     129.935E-03    -55.9217E-03     303.903E-03    -83.1241E-03     139.149E-03    -55.7212E-03     300.577E-03
             461     15.3229E-03     71.8542E-03    -14.4055E+06     137.894E+06     97.2115E+06    -427.936E+03    -84.7870E-03     140.783E-03    -55.9963E-03     426.540E-03    -107.898E-03     164.051E-03    -55.6893E-03     424.499E-03
             462     16.1746E-03     72.3502E-03    -7.89595E+06     161.469E+06     110.148E+06    -37.7017E+03    -77.2690E-03     133.262E-03    -55.9929E-03     376.095E-03    -101.044E-03     157.263E-03    -55.6648E-03     382.082E-03
             463     850.986E-06     71.2119E-03    -55.1253E+06    -172.688E+06    -54.1434E+06     43.9192E+03    -56.0634E-03     112.047E-03    -55.9837E-03     9.27550E-03    -56.0113E-03     111.344E-03    -55.9241E-03     9.24147E-03
             464     1.70209E-03     71.2250E-03    -53.7703E+06    -170.224E+06    -50.2591E+06     201.002E+03    -56.0507E-03     112.071E-03    -56.0199E-03     17.1937E-03    -56.0044E-03     111.375E-03    -55.9465E-03     17.1303E-03
             465     2.55310E-03     71.2465E-03    -51.6186E+06    -166.152E+06    -43.8730E+06     168.666E+03    -56.1163E-03     112.146E-03    -56.0293E-03     25.4285E-03    -56.0799E-03     111.463E-03    -55.9329E-03     25.3291E-03
             466     3.40427E-03     71.2763E-03    -49.0318E+06    -161.550E+06    -36.6474E+06     165.388E+03    -56.2152E-03     112.258E-03    -56.0428E-03     33.6007E-03    -56.1915E-03     111.593E-03    -55.9207E-03     33.4611E-03
             467     4.25533E-03     71.3142E-03    -46.0442E+06    -156.004E+06    -29.7438E+06    -257.617E+03    -56.3412E-03     112.394E-03    -56.0527E-03     41.6575E-03    -56.3330E-03     111.755E-03    -55.9085E-03     41.4663E-03
             468     5.10647E-03     71.3602E-03    -42.3938E+06    -149.173E+06    -22.6228E+06    -543.073E+03    -56.4870E-03     112.547E-03    -56.0599E-03     49.5798E-03    -56.4978E-03     111.943E-03    -55.8953E-03     49.3317E-03
             469     5.95761E-03     71.4141E-03    -38.9254E+06    -143.687E+06    -16.3907E+06    -92.2310E+03    -56.6785E-03     112.743E-03    -56.0650E-03     57.2903E-03    -56.7122E-03     112.176E-03    -55.8822E-03     56.9856E-03
             470     6.80879E-03     71.4756E-03    -36.3137E+06    -134.978E+06    -12.7965E+06     668.386E+03    -56.8830E-03     112.938E-03    -56.0550E-03     64.8331E-03    -56.9529E-03     112.437E-03    -55.8706E-03     64.4656E-03
             471     7.65993E-03     71.5447E-03    -33.9046E+06    -124.437E+06    -11.1735E+06     830.214E+03    -57.0992E-03     113.133E-03    -56.0337E-03     72.2613E-03    -57.2168E-03     112.721E-03    -55.8599E-03     71.8110E-03
             472     8.51121E-03     71.6211E-03    -31.1495E+06    -111.686E+06    -9.18695E+06     782.750E+03    -57.3328E-03     113.344E-03    -56.0111E-03     79.6545E-03    -57.5150E-03     113.046E-03    -55.8500E-03     79.1037E-03
             473     9.36234E-03     71.7052E-03    -28.4407E+06    -95.9067E+06    -7.93674E+06     1.29245E+06    -57.6020E-03     113.584E-03    -55.9824E-03     87.2149E-03    -57.8734E-03     113.437E-03    -55.8418E-03     86.5526E-03
             474     10.2136E-03     71.7968E-03    -26.3037E+06    -78.2535E+06    -8.29775E+06     1.29928E+06    -57.8501E-03     113.796E-03    -55.9454E-03     94.7052E-03    -58.2429E-03     113.841E-03    -55.8353E-03     93.9034E-03
             475     11.0647E-03     71.8961E-03    -24.8108E+06    -52.6321E+06    -7.81691E+06     1.13840E+06    -58.0603E-03     113.961E-03    -55.9008E-03     103.074E-03    -58.6397E-03     114.288E-03    -55.8276E-03     102.102E-03
             476     11.9159E-03     72.0046E-03    -22.8328E+06    -15.6532E+06    -8.40300E+06     1.31527E+06    -58.4594E-03     114.290E-03    -55.8302E-03     115.862E-03    -59.3483E-03     115.066E-03    -55.8164E-03     114.670E-03
             477     12.7675E-03     72.1297E-03    -19.9094E+06     32.6864E+06    -4.43606E+06     2.08045E+06    -59.4089E-03     115.169E-03    -55.7604E-03     138.916E-03    -60.9106E-03     116.729E-03    -55.8011E-03     137.405E-03
             478     13.6195E-03     72.2848E-03    -18.3039E+06     71.6262E+06     22.7939E+06     2.88323E+06    -63.4457E-03     119.276E-03    -55.8307E-03     193.286E-03    -66.6259E-03     122.580E-03    -55.7940E-03     191.184E-03
             479     14.4680E-03     72.5238E-03    -17.4919E+06     100.446E+06     64.6666E+06     2.18848E+06    -73.6347E-03     129.622E-03    -55.9874E-03     303.931E-03    -82.7575E-03     138.852E-03    -55.7843E-03     300.706E-03
             480     15.3210E-03     72.9050E-03    -12.4296E+06     139.441E+06     99.1106E+06     961.503E+03    -84.3935E-03     140.439E-03    -56.0453E-03     425.131E-03    -107.270E-03     163.479E-03    -55.7339E-03     423.033E-03
             481     16.1763E-03     73.4146E-03    -5.86797E+06     162.113E+06     111.894E+06     108.049E+03    -77.4571E-03     133.486E-03    -56.0287E-03     379.051E-03    -101.290E-03     157.548E-03    -55.6958E-03     385.050E-03
             482     851.008E-06     72.2717E-03    -55.2257E+06    -172.952E+06    -54.4035E+06     117.724E+03    -56.0362E-03     112.056E-03    -56.0202E-03     9.30832E-03    -55.9839E-03     111.353E-03    -55.9614E-03     9.27483E-03
             483     1.70204E-03     72.2850E-03    -53.8839E+06    -170.379E+06    -50.4155E+06     145.722E+03    -56.0696E-03     112.097E-03    -56.0274E-03     17.1611E-03    -56.0233E-03     111.401E-03    -55.9542E-03     17.0970E-03
             484     2.55314E-03     72.3064E-03    -51.7891E+06    -166.338E+06    -44.0034E+06     283.792E+03    -56.1337E-03     112.175E-03    -56.0410E-03     25.3801E-03    -56.0976E-03     111.492E-03    -55.9447E-03     25.2822E-03
             485     3.40412E-03     72.3362E-03    -48.9825E+06    -161.626E+06    -36.7518E+06     386.153E+03    -56.2344E-03     112.290E-03    -56.0560E-03     33.5448E-03    -56.2103E-03     111.625E-03    -55.9343E-03     33.4077E-03
             486     4.25526E-03     72.3741E-03    -46.0867E+06    -155.097E+06    -29.7882E+06     73.2762E+03    -56.3561E-03     112.422E-03    -56.0660E-03     41.5944E-03    -56.3493E-03     111.788E-03    -55.9232E-03     41.4070E-03
             487     5.10635E-03     72.4201E-03    -43.6072E+06    -148.988E+06    -23.3568E+06    -378.969E+03    -56.5104E-03     112.584E-03    -56.0740E-03     49.5120E-03    -56.5265E-03     111.984E-03    -55.9115E-03     49.2654E-03
             488     5.95752E-03     72.4739E-03    -40.8866E+06    -144.745E+06    -17.6956E+06     38.9413E+03    -56.7047E-03     112.786E-03    -56.0814E-03     57.2242E-03    -56.7449E-03     112.219E-03    -55.9007E-03     56.9208E-03
             489     6.80862E-03     72.5356E-03    -37.3214E+06    -135.492E+06    -13.3414E+06     417.833E+03    -56.9199E-03     112.996E-03    -56.0756E-03     64.7414E-03    -56.9934E-03     112.494E-03    -55.8918E-03     64.3699E-03
             490     7.65984E-03     72.6045E-03    -33.6377E+06    -124.199E+06    -10.7066E+06     300.383E+03    -57.1561E-03     113.216E-03    -56.0599E-03     72.1474E-03    -57.2736E-03     112.804E-03    -55.8846E-03     71.6890E-03
             491     8.51087E-03     72.6812E-03    -30.9809E+06    -112.321E+06    -9.07587E+06     517.865E+03    -57.3971E-03     113.438E-03    -56.0411E-03     79.4987E-03    -57.5779E-03     113.137E-03    -55.8787E-03     78.9430E-03
             492     9.36210E-03     72.7650E-03    -29.0937E+06    -96.6928E+06    -8.25608E+06     898.547E+03    -57.6645E-03     113.680E-03    -56.0153E-03     87.1166E-03    -57.9377E-03     113.530E-03    -55.8742E-03     86.4480E-03
             493     10.2131E-03     72.8571E-03    -27.4293E+06    -78.1397E+06    -8.27871E+06     1.10221E+06    -57.9173E-03     113.900E-03    -55.9829E-03     94.5937E-03    -58.3160E-03     113.948E-03    -55.8712E-03     93.7878E-03
             494     11.0643E-03     72.9558E-03    -26.0438E+06    -52.8971E+06    -7.78989E+06     1.12868E+06    -58.1206E-03     114.063E-03    -55.9420E-03     103.008E-03    -58.7066E-03     114.391E-03    -55.8665E-03     102.034E-03
             495     11.9155E-03     73.0649E-03    -25.3614E+06    -15.2436E+06    -8.98617E+06     607.019E+03    -58.6514E-03     114.527E-03    -55.8760E-03     115.908E-03    -59.5534E-03     115.311E-03    -55.8621E-03     114.704E-03
             496     12.7665E-03     73.1893E-03    -24.7583E+06     31.1245E+06    -7.94328E+06     354.844E+03    -60.0326E-03     115.855E-03    -55.8225E-03     139.040E-03    -61.5668E-03     117.435E-03    -55.8715E-03     137.480E-03
             497     13.6160E-03     73.3461E-03    -22.6732E+06     68.8813E+06     14.6217E+06     2.26493E+06    -62.9974E-03     118.871E-03    -55.8736E-03     193.246E-03    -66.1641E-03     122.159E-03    -55.8675E-03     191.165E-03
             498     14.4709E-03     73.5819E-03    -16.6338E+06     102.209E+06     60.9422E+06     3.14717E+06    -73.2197E-03     129.227E-03    -56.0077E-03     303.835E-03    -82.3057E-03     138.441E-03    -55.8271E-03     300.630E-03
             499     15.3220E-03     73.9679E-03    -10.0016E+06     141.938E+06     100.598E+06     1.80214E+06    -85.4891E-03     141.602E-03    -56.1128E-03     423.627E-03    -108.386E-03     164.676E-03    -55.8011E-03     421.367E-03
             500     16.1702E-03     74.4690E-03    -4.58307E+06     162.713E+06     112.857E+06     1.02466E+06    -76.4785E-03     132.592E-03    -56.1140E-03     379.612E-03    -100.449E-03     156.797E-03    -55.7790E-03     385.726E-03
             501     851.066E-06     73.3318E-03    -55.4174E+06    -173.132E+06    -54.5724E+06     23.2351E+03    -56.0538E-03     112.087E-03    -56.0329E-03     9.26901E-03    -56.0019E-03     111.382E-03    -55.9744E-03     9.23422E-03
             502     1.70202E-03     73.3448E-03    -54.1535E+06    -170.618E+06    -50.5211E+06     196.491E+03    -56.0943E-03     112.140E-03    -56.0453E-03     17.1214E-03    -56.0489E-03     111.443E-03    -55.9719E-03     17.0579E-03
             503     2.55300E-03     73.3664E-03    -51.9709E+06    -166.587E+06    -44.2307E+06     307.957E+03    -56.1568E-03     112.217E-03    -56.0607E-03     25.3751E-03    -56.1210E-03     111.534E-03    -55.9649E-03     25.2772E-03
             504     3.40413E-03     73.3961E-03    -49.0937E+06    -161.779E+06    -36.9482E+06     321.904E+03    -56.2557E-03     112.332E-03    -56.0762E-03     33.5347E-03    -56.2316E-03     111.666E-03    -55.9552E-03     33.3965E-03
             505     4.25515E-03     73.4341E-03    -45.7470E+06    -154.699E+06    -29.1278E+06     284.108E+03    -56.3926E-03     112.483E-03    -56.0906E-03     41.5725E-03    -56.3858E-03     111.849E-03    -55.9456E-03     41.3874E-03
             506     5.10628E-03     73.4800E-03    -42.3258E+06    -148.966E+06    -21.8586E+06     435.785E+03    -56.5706E-03     112.677E-03    -56.1060E-03     49.4418E-03    -56.5826E-03     112.073E-03    -55.9379E-03     49.2049E-03
             507     5.95729E-03     73.5340E-03    -39.1667E+06    -145.178E+06    -16.6407E+06     397.659E+03    -56.7642E-03     112.880E-03    -56.1156E-03     57.1274E-03    -56.7968E-03     112.306E-03    -55.9315E-03     56.8275E-03
             508     6.80844E-03     73.5954E-03    -36.3548E+06    -135.288E+06    -12.7548E+06     108.729E+03    -56.9722E-03     113.083E-03    -56.1104E-03     64.6858E-03    -57.0421E-03     112.580E-03    -55.9253E-03     64.3096E-03
             509     7.65942E-03     73.6647E-03    -33.9606E+06    -124.249E+06    -10.6810E+06     14.7091E+03    -57.2094E-03     113.306E-03    -56.0963E-03     72.1097E-03    -57.3286E-03     112.894E-03    -55.9204E-03     71.6468E-03
             510     8.51058E-03     73.7411E-03    -31.7291E+06    -113.269E+06    -9.61434E+06     541.968E+03    -57.4542E-03     113.533E-03    -56.0789E-03     79.5005E-03    -57.6368E-03     113.229E-03    -55.9167E-03     78.9443E-03
             511     9.36155E-03     73.8252E-03    -29.7900E+06    -97.0436E+06    -8.54941E+06     1.06877E+06    -57.6877E-03     113.741E-03    -56.0537E-03     87.1767E-03    -57.9633E-03     113.592E-03    -55.9125E-03     86.5102E-03
             512     10.2128E-03     73.9170E-03    -28.1593E+06    -78.4634E+06    -8.41511E+06     1.16707E+06    -57.9339E-03     113.954E-03    -56.0203E-03     94.7285E-03    -58.3355E-03     114.002E-03    -55.9078E-03     93.9239E-03
             513     11.0638E-03     74.0162E-03    -27.0276E+06    -53.3680E+06    -8.23675E+06     1.50313E+06    -58.2092E-03     114.189E-03    -55.9795E-03     103.020E-03    -58.7989E-03     114.517E-03    -55.9041E-03     102.049E-03
             514     11.9151E-03     74.1245E-03    -26.4867E+06    -14.3629E+06    -9.28813E+06     1.74584E+06    -58.7783E-03     114.695E-03    -55.9167E-03     116.329E-03    -59.6879E-03     115.487E-03    -55.9039E-03     115.136E-03
             515     12.7655E-03     74.2510E-03    -26.4369E+06     31.4862E+06    -7.64093E+06     1.03864E+06    -60.0561E-03     115.922E-03    -55.8663E-03     140.352E-03    -61.6032E-03     117.510E-03    -55.9118E-03     138.806E-03
             516     13.6172E-03     74.4068E-03    -24.4031E+06     67.8743E+06     15.5872E+06    -30.8897E+03    -63.0230E-03     118.946E-03    -55.9234E-03     192.258E-03    -66.1834E-03     122.216E-03    -55.9085E-03     190.150E-03
             517     14.4681E-03     74.6374E-03    -19.3414E+06     101.471E+06     59.3300E+06    -136.980E+03    -73.8277E-03     129.889E-03    -56.0611E-03     303.954E-03    -82.9191E-03     139.100E-03    -55.8835E-03     300.630E-03
             518     15.3187E-03     75.0315E-03    -13.3845E+06     140.830E+06     97.0101E+06     356.432E+03    -85.9333E-03     142.113E-03    -56.1793E-03     424.301E-03    -108.958E-03     165.308E-03    -55.8790E-03     422.047E-03
             519     16.1706E-03     75.5283E-03    -5.93748E+06     162.330E+06     111.670E+06     404.377E+03    -74.9309E-03     131.100E-03    -56.1694E-03     377.471E-03    -98.9125E-03     155.313E-03    -55.8378E-03     383.814E-03
             520     850.891E-06     74.3917E-03    -55.7071E+06    -173.382E+06    -54.7031E+06     134.173E+03    -56.0812E-03     112.131E-03    -56.0502E-03     9.29638E-03    -56.0302E-03     111.426E-03    -55.9915E-03     9.26312E-03
             521     1.70198E-03     74.4049E-03    -54.3614E+06    -170.885E+06    -50.7590E+06     219.551E+03    -56.1132E-03     112.180E-03    -56.0667E-03     17.1336E-03    -56.0681E-03     111.482E-03    -55.9939E-03     17.0702E-03
             522     2.55302E-03     74.4263E-03    -52.1294E+06    -166.784E+06    -44.3825E+06     249.343E+03    -56.1877E-03     112.271E-03    -56.0831E-03     25.3595E-03    -56.1522E-03     111.587E-03    -55.9876E-03     25.2608E-03
             523     3.40398E-03     74.4561E-03    -49.2476E+06    -161.829E+06    -36.8310E+06     272.641E+03    -56.2937E-03     112.397E-03    -56.1029E-03     33.5087E-03    -56.2705E-03     111.731E-03    -55.9810E-03     33.3697E-03
             524     4.25507E-03     74.4940E-03    -46.2380E+06    -154.951E+06    -28.9932E+06     430.974E+03    -56.4412E-03     112.563E-03    -56.1221E-03     41.5559E-03    -56.4366E-03     111.929E-03    -55.9753E-03     41.3725E-03
             525     5.10601E-03     74.5402E-03    -43.0319E+06    -149.180E+06    -21.6876E+06     521.221E+03    -56.6136E-03     112.755E-03    -56.1412E-03     49.4398E-03    -56.6291E-03     112.151E-03    -55.9709E-03     49.2037E-03
             526     5.95709E-03     74.5939E-03    -39.6146E+06    -145.005E+06    -16.2513E+06     457.031E+03    -56.8079E-03     112.961E-03    -56.1528E-03     57.1522E-03    -56.8436E-03     112.388E-03    -55.9664E-03     56.8526E-03
             527     6.80806E-03     74.6556E-03    -36.4239E+06    -134.977E+06    -12.7750E+06     273.649E+03    -57.0115E-03     113.157E-03    -56.1457E-03     64.7621E-03    -57.0822E-03     112.656E-03    -55.9611E-03     64.3878E-03
             528     7.65925E-03     74.7247E-03    -33.7632E+06    -124.689E+06    -10.4425E+06     470.807E+03    -57.2329E-03     113.366E-03    -56.1328E-03     72.1902E-03    -57.3509E-03     112.952E-03    -55.9553E-03     71.7331E-03
             529     8.51021E-03     74.8013E-03    -31.5921E+06    -113.947E+06    -9.37274E+06     689.670E+03    -57.4637E-03     113.577E-03    -56.1134E-03     79.6204E-03    -57.6450E-03     113.269E-03    -55.9492E-03     79.0661E-03
             530     9.36139E-03     74.8852E-03    -29.4487E+06    -97.5559E+06    -9.07910E+06     967.884E+03    -57.6944E-03     113.775E-03    -56.0808E-03     87.3121E-03    -57.9668E-03     113.623E-03    -55.9421E-03     86.6449E-03
             531     10.2125E-03     74.9772E-03    -27.9706E+06    -79.1934E+06    -8.48891E+06     1.76175E+06    -57.9492E-03     113.997E-03    -56.0478E-03     94.9123E-03    -58.3485E-03     114.041E-03    -55.9348E-03     94.1161E-03
             532     11.0636E-03     75.0764E-03    -26.9203E+06    -53.5030E+06    -8.00044E+06     2.07075E+06    -58.2822E-03     114.290E-03    -56.0078E-03     103.323E-03    -58.8718E-03     114.617E-03    -55.9312E-03     102.359E-03
             533     11.9143E-03     75.1851E-03    -25.2576E+06    -14.6821E+06    -9.37298E+06     1.79281E+06    -58.6769E-03     114.615E-03    -55.9377E-03     116.701E-03    -59.5810E-03     115.404E-03    -55.9266E-03     115.511E-03
             534     12.7662E-03     75.3109E-03    -22.9491E+06     32.7520E+06    -5.05299E+06     1.61745E+06    -59.7026E-03     115.578E-03    -55.8754E-03     140.893E-03    -61.2239E-03     117.149E-03    -55.9149E-03     139.375E-03
             535     13.6168E-03     75.4680E-03    -20.7312E+06     69.6020E+06     22.3378E+06     969.796E+03    -63.3603E-03     119.309E-03    -55.9484E-03     192.444E-03    -66.5258E-03     122.583E-03    -55.9076E-03     190.336E-03
             536     14.4674E-03     75.6981E-03    -18.5303E+06     101.403E+06     63.8615E+06     24.7229E+03    -74.4974E-03     130.600E-03    -56.1022E-03     305.521E-03    -83.6485E-03     139.860E-03    -55.9031E-03     302.153E-03
             537     15.3198E-03     76.0917E-03    -14.1024E+06     140.363E+06     96.7710E+06    -730.677E+03    -85.3516E-03     141.527E-03    -56.1752E-03     427.884E-03    -108.572E-03     164.914E-03    -55.8744E-03     425.812E-03
             538     16.1692E-03     76.5911E-03    -6.27181E+06     161.527E+06     110.431E+06    -732.227E+03    -74.5822E-03     130.700E-03    -56.1183E-03     375.811E-03    -98.4819E-03     154.831E-03    -55.7913E-03     382.242E-03
             539     851.077E-06     75.4519E-03    -55.9633E+06    -173.738E+06    -55.0079E+06     235.365E+03    -56.1258E-03     112.162E-03    -56.0358E-03     9.29996E-03    -56.0751E-03     111.456E-03    -55.9778E-03     9.26828E-03
             540     1.70194E-03     75.4649E-03    -54.5800E+06    -171.084E+06    -50.8583E+06     216.114E+03    -56.1507E-03     112.238E-03    -56.0869E-03     17.1336E-03    -56.1063E-03     111.540E-03    -56.0139E-03     17.0702E-03
             541     2.55288E-03     75.4864E-03    -52.3796E+06    -166.905E+06    -44.3133E+06     278.165E+03    -56.2216E-03     112.332E-03    -56.1101E-03     25.3559E-03    -56.1873E-03     111.647E-03    -56.0137E-03     25.2576E-03
             542     3.40394E-03     75.5161E-03    -49.6599E+06    -162.141E+06    -36.8942E+06     454.008E+03    -56.3345E-03     112.467E-03    -56.1329E-03     33.5333E-03    -56.3129E-03     111.801E-03    -56.0102E-03     33.3967E-03
             543     4.25483E-03     75.5542E-03    -46.4412E+06    -155.337E+06    -29.3588E+06     665.432E+03    -56.4659E-03     112.617E-03    -56.1511E-03     41.6119E-03    -56.4612E-03     111.981E-03    -56.0054E-03     41.4317E-03
             544     5.10594E-03     75.6001E-03    -43.0889E+06    -149.346E+06    -21.9283E+06     822.873E+03    -56.6262E-03     112.794E-03    -56.1681E-03     49.5165E-03    -56.6413E-03     112.190E-03    -55.9988E-03     49.2846E-03
             545     5.95691E-03     75.6541E-03    -40.1198E+06    -144.946E+06    -15.9464E+06     798.534E+03    -56.8224E-03     113.003E-03    -56.1806E-03     57.2443E-03    -56.8612E-03     112.431E-03    -55.9920E-03     56.9493E-03
             546     6.80801E-03     75.7156E-03    -37.4064E+06    -134.574E+06    -12.5869E+06     481.997E+03    -57.0160E-03     113.187E-03    -56.1712E-03     64.8863E-03    -57.0926E-03     112.690E-03    -55.9847E-03     64.5148E-03
             547     7.65893E-03     75.7849E-03    -34.4916E+06    -125.097E+06    -11.0991E+06     205.702E+03    -57.2271E-03     113.379E-03    -56.1520E-03     72.3628E-03    -57.3472E-03     112.965E-03    -55.9761E-03     71.9027E-03
             548     8.51011E-03     75.8613E-03    -31.6723E+06    -114.389E+06    -9.91948E+06     592.381E+03    -57.4548E-03     113.583E-03    -56.1287E-03     79.7956E-03    -57.6351E-03     113.274E-03    -55.9665E-03     79.2407E-03
             549     9.36117E-03     75.9455E-03    -30.0202E+06    -98.3805E+06    -9.77301E+06     1.25337E+06    -57.6962E-03     113.790E-03    -56.0940E-03     87.4834E-03    -57.9692E-03     113.636E-03    -55.9567E-03     86.8203E-03
             550     10.2123E-03     76.0373E-03    -28.3874E+06    -80.1730E+06    -9.18727E+06     1.75183E+06    -57.9325E-03     113.991E-03    -56.0582E-03     95.1802E-03    -58.3318E-03     114.031E-03    -55.9467E-03     94.3846E-03
             551     11.0633E-03     76.1367E-03    -25.8647E+06    -53.1853E+06    -7.93756E+06     1.55337E+06    -58.1658E-03     114.176E-03    -56.0104E-03     103.792E-03    -58.7507E-03     114.503E-03    -55.9354E-03     102.824E-03
             552     11.9148E-03     76.2455E-03    -23.5620E+06    -13.8937E+06    -9.03853E+06     714.618E+03    -58.6301E-03     114.562E-03    -55.9318E-03     117.012E-03    -59.5295E-03     115.355E-03    -55.9227E-03     115.808E-03
             553     12.7656E-03     76.3706E-03    -21.9229E+06     32.2612E+06    -5.40173E+06     913.463E+03    -59.5316E-03     115.392E-03    -55.8604E-03     141.085E-03    -61.0414E-03     116.954E-03    -55.9024E-03     139.566E-03
             554     13.6177E-03     76.5287E-03    -20.1023E+06     68.8132E+06     20.3385E+06     1.72261E+06    -63.0471E-03     118.954E-03    -55.9073E-03     193.496E-03    -66.2099E-03     122.231E-03    -55.8762E-03     191.409E-03
             555     14.4692E-03     76.7596E-03    -16.3704E+06     102.884E+06     64.0606E+06     1.92005E+06    -73.6774E-03     129.707E-03    -56.0291E-03     306.282E-03    -82.8029E-03     138.953E-03    -55.8343E-03     303.025E-03
             556     15.3197E-03     77.1516E-03    -10.6795E+06     143.102E+06     100.743E+06     831.611E+03    -83.9318E-03     139.972E-03    -56.0405E-03     430.350E-03    -107.168E-03     163.387E-03    -55.7288E-03     428.539E-03
             557     16.1776E-03     77.6515E-03    -6.03345E+06     162.235E+06     111.857E+06    -462.569E+03    -76.7460E-03     132.719E-03    -55.9731E-03     377.645E-03    -100.688E-03     156.891E-03    -55.6403E-03     383.874E-03
             558     850.884E-06     76.5118E-03    -56.2148E+06    -174.043E+06    -55.3185E+06     120.106E+03    -56.1104E-03     112.221E-03    -56.1105E-03     9.22775E-03    -56.0601E-03     111.514E-03    -56.0532E-03     9.19491E-03
             559     1.70189E-03     76.5251E-03    -54.8318E+06    -171.364E+06    -51.0525E+06     316.850E+03    -56.1547E-03     112.266E-03    -56.1118E-03     17.1489E-03    -56.1108E-03     111.568E-03    -56.0391E-03     17.0868E-03
             560     2.55289E-03     76.5464E-03    -52.6952E+06    -167.233E+06    -44.5174E+06     492.655E+03    -56.2426E-03     112.373E-03    -56.1301E-03     25.4148E-03    -56.2090E-03     111.688E-03    -56.0338E-03     25.3193E-03
             561     3.40377E-03     76.5764E-03    -49.8718E+06    -162.528E+06    -37.3336E+06     622.027E+03    -56.3457E-03     112.496E-03    -56.1505E-03     33.6098E-03    -56.3239E-03     111.829E-03    -56.0292E-03     33.4755E-03
             562     4.25485E-03     76.6142E-03    -46.7343E+06    -155.723E+06    -29.7821E+06     764.225E+03    -56.4651E-03     112.631E-03    -56.1660E-03     41.7016E-03    -56.4607E-03     111.994E-03    -56.0213E-03     41.5229E-03
             563     5.10579E-03     76.6604E-03    -43.4255E+06    -149.826E+06    -22.4489E+06     1.02690E+06    -56.6263E-03     112.806E-03    -56.1795E-03     49.6271E-03    -56.6417E-03     112.200E-03    -56.0116E-03     49.3981E-03
             564     5.95687E-03     76.7142E-03    -40.0296E+06    -145.097E+06    -16.2690E+06     1.27956E+06    -56.8161E-03     113.005E-03    -56.1890E-03     57.3560E-03    -56.8537E-03     112.433E-03    -56.0019E-03     57.0676E-03
             565     6.80784E-03     76.7759E-03     -36.975E+06    -133.867E+06    -12.4459E+06      957.79E+03    -56.9979E-03     113.175E-03    -56.1768E-03     64.9997E-03    -57.0735E-03     112.680E-03    -55.9913E-03     64.6349E-03
             566     7.65909E-03     76.8449E-03    -34.7227E+06    -124.802E+06    -11.0085E+06     377.043E+03    -57.2066E-03     113.362E-03    -56.1556E-03     72.4847E-03    -57.3284E-03     112.950E-03    -55.9793E-03     72.0273E-03
             567     8.51009E-03     76.9216E-03    -33.1066E+06    -115.623E+06    -10.5400E+06     742.519E+03    -57.4326E-03     113.563E-03    -56.1300E-03     79.9325E-03    -57.6174E-03     113.250E-03    -55.9670E-03     79.3801E-03
             568     9.36125E-03     77.0055E-03    -31.0355E+06    -98.9216E+06    -10.3385E+06     1.30395E+06    -57.6680E-03     113.759E-03    -56.0913E-03     87.6806E-03    -57.9449E-03     113.605E-03    -55.9545E-03     87.0184E-03
             569     10.2124E-03     77.0975E-03    -28.5645E+06    -79.8608E+06    -9.99813E+06     711.421E+03    -57.8912E-03     113.940E-03    -56.0485E-03     95.3663E-03    -58.2909E-03     113.983E-03    -55.9412E-03     94.5578E-03
             570     11.0637E-03     77.1967E-03    -26.3688E+06    -52.9871E+06    -8.73384E+06     179.384E+03    -58.0750E-03     114.072E-03    -55.9966E-03     103.794E-03    -58.6618E-03     114.402E-03    -55.9252E-03     102.809E-03
             571     11.9150E-03     77.3055E-03    -24.8743E+06    -13.6202E+06    -9.42678E+06     312.465E+03    -58.5151E-03     114.430E-03    -55.9146E-03     117.105E-03    -59.4205E-03     115.226E-03    -55.9059E-03     115.899E-03
             572     12.7663E-03     77.4316E-03    -24.3394E+06     31.2639E+06    -7.47286E+06     583.199E+03    -59.3348E-03     115.165E-03    -55.8303E-03     140.798E-03    -60.8525E-03     116.729E-03    -55.8777E-03     139.278E-03
             573     13.6180E-03     77.5868E-03    -22.2718E+06     67.4048E+06     17.0860E+06     396.574E+03    -62.6241E-03     118.477E-03    -55.8527E-03     194.100E-03    -65.7996E-03     121.763E-03    -55.8327E-03     192.007E-03
             574     14.4694E-03     77.8219E-03    -17.3988E+06     103.216E+06     62.3386E+06     327.706E+03    -72.4759E-03     128.418E-03    -55.9416E-03     304.662E-03    -81.5013E-03     137.567E-03    -55.7544E-03     301.499E-03
             575     15.3268E-03     78.2070E-03    -11.0169E+06     143.566E+06     100.726E+06     636.959E+03    -83.7688E-03     139.730E-03    -55.9608E-03     425.565E-03    -106.722E-03     162.861E-03    -55.6494E-03     423.601E-03
             576     16.1791E-03     78.7123E-03    -5.71385E+06     162.970E+06     112.883E+06     784.841E+03    -77.8005E-03     133.756E-03    -55.9560E-03     376.589E-03    -101.618E-03     157.805E-03    -55.6196E-03     382.484E-03
             577     850.912E-06     77.5720E-03    -56.3958E+06    -174.298E+06    -55.5376E+06     169.525E+03    -56.0928E-03     112.249E-03    -56.1564E-03     9.30078E-03    -56.0427E-03     111.542E-03    -56.0996E-03     9.26840E-03
             578     1.70190E-03     77.5850E-03    -55.1641E+06    -171.881E+06    -51.6462E+06     324.868E+03    -56.1587E-03     112.281E-03    -56.1222E-03     17.2003E-03    -56.1149E-03     111.581E-03    -56.0512E-03     17.1384E-03
             579     2.55281E-03     77.6067E-03    -52.9553E+06    -167.737E+06    -45.1594E+06     631.061E+03    -56.2322E-03     112.367E-03    -56.1350E-03     25.4626E-03    -56.1983E-03     111.681E-03    -56.0408E-03     25.3692E-03
             580     3.40387E-03     77.6364E-03    -50.2597E+06    -162.902E+06    -37.6698E+06     833.043E+03    -56.3325E-03     112.484E-03    -56.1519E-03     33.6607E-03    -56.3116E-03     111.816E-03    -56.0312E-03     33.5294E-03
             581     4.25479E-03     77.6745E-03    -47.2164E+06    -156.109E+06    -30.0989E+06     963.425E+03    -56.4600E-03     112.625E-03    -56.1652E-03     41.7647E-03    -56.4570E-03     111.988E-03    -56.0209E-03     41.5888E-03
             582     5.10590E-03     77.7204E-03    -43.7150E+06    -150.112E+06    -22.7253E+06     917.698E+03    -56.6176E-03     112.795E-03    -56.1774E-03     49.6947E-03    -56.6336E-03     112.189E-03    -56.0099E-03     49.4645E-03
             583     5.95688E-03     77.7744E-03    -39.9070E+06    -145.549E+06    -17.0782E+06     913.435E+03    -56.7947E-03     112.976E-03    -56.1816E-03     57.4179E-03    -56.8298E-03     112.403E-03    -55.9981E-03     57.1251E-03
             584     6.80805E-03     77.8359E-03    -36.4794E+06    -133.703E+06    -12.7455E+06     1.15276E+06    -56.9857E-03     113.154E-03    -56.1683E-03     65.0589E-03    -57.0586E-03     112.660E-03    -55.9852E-03     64.6967E-03
             585     7.65900E-03     77.9052E-03    -34.1198E+06    -124.951E+06    -9.59514E+06     1.58992E+06    -57.1957E-03     113.351E-03    -56.1549E-03     72.4937E-03    -57.3164E-03     112.934E-03    -55.9722E-03     72.0518E-03
             586     8.51021E-03     77.9816E-03    -32.2107E+06    -115.903E+06    -9.31595E+06     1.45532E+06    -57.4087E-03     113.536E-03    -56.1268E-03     79.9325E-03    -57.5905E-03     113.219E-03    -55.9586E-03     79.3891E-03
             587     9.36139E-03     78.0656E-03    -29.9081E+06    -98.5232E+06    -9.94498E+06     523.871E+03    -57.6528E-03     113.734E-03    -56.0812E-03     87.6940E-03    -57.9254E-03     113.580E-03    -55.9447E-03     87.0214E-03
             588     10.2126E-03     78.1576E-03    -27.7032E+06    -79.3092E+06    -9.50041E+06     108.100E+03    -57.8684E-03     113.907E-03    -56.0383E-03     95.2910E-03    -58.2654E-03     113.951E-03    -55.9306E-03     94.4744E-03
             589     11.0636E-03     78.2568E-03    -26.4185E+06    -52.9594E+06    -8.51232E+06     162.564E+03    -58.0841E-03     114.072E-03    -55.9875E-03     103.769E-03    -58.6724E-03     114.403E-03    -55.9150E-03     102.783E-03
             590     11.9149E-03     78.3655E-03    -25.8573E+06    -14.6667E+06    -9.87685E+06     663.817E+03    -58.3715E-03     114.273E-03    -55.9017E-03     116.945E-03    -59.2778E-03     115.064E-03    -55.8924E-03     115.747E-03
             591     12.7667E-03     78.4911E-03    -24.6010E+06     31.4318E+06    -7.80756E+06     645.668E+03    -59.1747E-03     114.982E-03    -55.8077E-03     140.299E-03    -60.6923E-03     116.547E-03    -55.8566E-03     138.783E-03
             592     13.6184E-03     78.6467E-03    -22.1899E+06     68.4808E+06     18.0941E+06    -563.190E+03    -62.5406E-03     118.373E-03    -55.8323E-03     193.364E-03    -65.7081E-03     121.652E-03    -55.8089E-03     191.269E-03
             593     14.4717E-03     78.8805E-03    -18.2282E+06     103.463E+06     63.3780E+06    -810.455E+03    -73.3157E-03     129.282E-03    -55.9663E-03     301.303E-03    -82.3065E-03     138.392E-03    -55.7730E-03     298.049E-03
             594     15.3204E-03     79.2630E-03    -12.9749E+06     141.840E+06     98.9664E+06     45.7227E+03    -85.8035E-03     141.896E-03    -56.0920E-03     421.748E-03    -108.741E-03     165.004E-03    -55.7840E-03     419.413E-03
             595     16.1672E-03     79.7705E-03    -6.05478E+06     162.203E+06     111.599E+06     505.817E+03    -76.0470E-03     132.158E-03    -56.1110E-03     377.512E-03    -99.9853E-03     156.327E-03    -55.7794E-03     383.562E-03
             596     850.998E-06     78.6321E-03    -56.7740E+06    -174.775E+06    -55.9710E+06     211.048E+03    -56.1374E-03     112.198E-03    -56.0603E-03     9.36414E-03    -56.0879E-03     111.489E-03    -56.0044E-03     9.33223E-03
             597     1.70184E-03     78.6453E-03    -55.5784E+06    -172.346E+06    -52.0773E+06     392.114E+03    -56.1802E-03     112.286E-03    -56.1056E-03     17.2419E-03    -56.1372E-03     111.585E-03    -56.0355E-03     17.1809E-03
             598     2.55288E-03     78.6667E-03    -53.4824E+06    -168.362E+06    -45.8419E+06     630.903E+03    -56.2228E-03     112.349E-03    -56.1265E-03     25.4911E-03    -56.1897E-03     111.662E-03    -56.0340E-03     25.3976E-03
             599     3.40382E-03     78.6966E-03    -50.6238E+06    -163.473E+06    -38.3690E+06     940.564E+03    -56.3183E-03     112.460E-03    -56.1419E-03     33.6815E-03    -56.2973E-03     111.790E-03    -56.0233E-03     33.5518E-03
             600     4.25491E-03     78.7345E-03    -47.2772E+06    -156.265E+06    -30.3406E+06     950.938E+03    -56.4518E-03     112.607E-03    -56.1555E-03     41.7891E-03    -56.4485E-03     111.969E-03    -56.0121E-03     41.6132E-03
             601     5.10585E-03     78.7807E-03    -43.8486E+06    -150.217E+06    -22.8718E+06     875.902E+03    -56.6011E-03     112.769E-03    -56.1676E-03     49.7096E-03    -56.6174E-03     112.162E-03    -56.0005E-03     49.4791E-03
             602     5.95697E-03     78.8344E-03    -40.7344E+06    -145.626E+06    -17.2856E+06     764.872E+03    -56.7813E-03     112.953E-03    -56.1719E-03     57.4202E-03    -56.8202E-03     112.381E-03    -55.9881E-03     57.1254E-03
             603     6.80800E-03     78.8960E-03    -37.7437E+06    -134.529E+06    -13.6528E+06     990.273E+03    -56.9763E-03     113.133E-03    -56.1571E-03     65.0664E-03    -57.0531E-03     112.638E-03    -55.9755E-03     64.7021E-03
             604     7.65921E-03     78.9653E-03    -34.4214E+06    -125.824E+06    -10.3616E+06     1.63091E+06    -57.1890E-03     113.332E-03    -56.1434E-03     72.4676E-03    -57.3090E-03     112.914E-03    -55.9629E-03     72.0259E-03
             605     8.51027E-03     79.0416E-03    -31.0755E+06    -114.673E+06    -8.67576E+06     1.12743E+06    -57.4197E-03     113.538E-03    -56.1184E-03     79.8972E-03    -57.5989E-03     113.225E-03    -55.9504E-03     79.3486E-03
             606     9.36142E-03     79.1257E-03    -28.6450E+06    -97.7073E+06    -9.33498E+06     254.777E+03    -57.6318E-03     113.705E-03    -56.0733E-03     87.6718E-03    -57.9002E-03     113.552E-03    -55.9367E-03     86.9957E-03
             607     10.2125E-03     79.2177E-03    -27.4119E+06    -79.8269E+06    -9.85348E+06     394.407E+03    -57.8162E-03     113.842E-03    -56.0262E-03     95.3139E-03    -58.2105E-03     113.885E-03    -55.9200E-03     94.5020E-03
             608     11.0640E-03     79.3168E-03    -26.4176E+06    -53.0540E+06    -8.90617E+06     671.764E+03    -58.0231E-03     113.994E-03    -55.9710E-03     103.893E-03    -58.6104E-03     114.325E-03    -55.9003E-03     102.916E-03
             609     11.9152E-03     79.4257E-03    -24.8502E+06    -15.0100E+06    -9.59757E+06     716.483E+03    -58.3893E-03     114.276E-03    -55.8867E-03     116.840E-03    -59.2894E-03     115.062E-03    -55.8769E-03     115.644E-03
             610     12.7666E-03     79.5503E-03    -23.4756E+06     31.9708E+06    -6.88474E+06     243.617E+03    -59.3235E-03     115.125E-03    -55.8015E-03     140.049E-03    -60.8419E-03     116.694E-03    -55.8483E-03     138.521E-03
             611     13.6184E-03     79.7066E-03    -21.9000E+06     69.9284E+06     20.1038E+06    -64.9619E+03    -63.0779E-03     118.933E-03    -55.8554E-03     192.793E-03    -66.2407E-03     122.208E-03    -55.8245E-03     190.686E-03
             612     14.4683E-03     79.9395E-03    -19.1413E+06     103.804E+06     64.0251E+06    -326.834E+03    -74.4576E-03     130.484E-03    -56.0263E-03     303.105E-03    -83.5734E-03     139.715E-03    -55.8289E-03     299.766E-03
             613     15.3174E-03     80.3283E-03    -14.0886E+06     141.379E+06     98.0462E+06    -686.971E+03    -85.9288E-03     142.073E-03    -56.1438E-03     426.996E-03    -109.258E-03     165.569E-03    -55.8381E-03     424.797E-03
             614     16.1719E-03     80.8295E-03    -6.86744E+06     161.100E+06     110.707E+06    -867.017E+03    -75.7487E-03     131.866E-03    -56.1169E-03     380.463E-03    -99.9864E-03     156.330E-03    -55.7870E-03     386.777E-03
             615     850.994E-06     79.6922E-03    -57.4322E+06    -175.370E+06    -56.4843E+06     273.791E+03    -56.1332E-03     112.153E-03    -56.0201E-03     9.39097E-03    -56.0853E-03     111.444E-03    -55.9650E-03     9.35967E-03
             616     1.70201E-03     79.7054E-03    -56.0706E+06    -172.868E+06    -52.5530E+06     479.576E+03    -56.1601E-03     112.244E-03    -56.0841E-03     17.2249E-03    -56.1181E-03     111.542E-03    -56.0149E-03     17.1651E-03
             617     2.55287E-03     79.7269E-03    -54.0325E+06    -168.946E+06    -46.3973E+06     695.428E+03    -56.2219E-03     112.330E-03    -56.1081E-03     25.4871E-03    -56.1898E-03     111.641E-03    -56.0168E-03     25.3945E-03
             618     3.40394E-03     79.7566E-03    -51.1616E+06    -163.878E+06    -38.7102E+06     729.814E+03    -56.3154E-03     112.444E-03    -56.1285E-03     33.7153E-03    -56.2961E-03     111.773E-03    -56.0103E-03     33.5828E-03
             619     4.25487E-03     79.7947E-03    -47.7577E+06    -156.470E+06    -30.4501E+06     820.476E+03    -56.4352E-03     112.579E-03    -56.1441E-03     41.8043E-03    -56.4338E-03     111.941E-03    -56.0002E-03     41.6268E-03
             620     5.10602E-03     79.8407E-03    -44.3679E+06    -150.624E+06    -23.2609E+06     1.06796E+06    -56.5877E-03     112.742E-03    -56.1548E-03     49.7023E-03    -56.6054E-03     112.135E-03    -55.9884E-03     49.4741E-03
             621     5.95704E-03     79.8946E-03    -41.1853E+06    -145.682E+06    -17.1875E+06     1.27670E+06    -56.7831E-03     112.945E-03    -56.1620E-03     57.4264E-03    -56.8244E-03     112.373E-03    -55.9770E-03     57.1380E-03
             622     6.80814E-03     79.9561E-03    -38.2495E+06    -134.720E+06    -13.6843E+06     1.06343E+06    -56.9717E-03     113.120E-03    -56.1484E-03     65.0524E-03    -57.0507E-03     112.625E-03    -55.9660E-03     64.6890E-03
             623     7.65917E-03     80.0253E-03    -34.8704E+06    -125.789E+06    -11.7495E+06     242.860E+03    -57.1802E-03     113.308E-03    -56.1281E-03     72.4883E-03    -57.3005E-03     112.892E-03    -55.9539E-03     72.0288E-03
             624     8.51032E-03     80.1018E-03    -31.5072E+06    -114.422E+06    -9.56761E+06     136.305E+03    -57.4024E-03     113.507E-03    -56.1047E-03     79.9623E-03    -57.5829E-03     113.197E-03    -55.9410E-03     79.4013E-03
             625     9.36145E-03     80.1858E-03    -29.5587E+06    -97.7255E+06    -9.50627E+06     627.197E+03    -57.5837E-03     113.646E-03    -56.0624E-03     87.6752E-03    -57.8563E-03     113.494E-03    -55.9254E-03     87.0047E-03
             626     10.2129E-03     80.2775E-03    -27.8577E+06    -79.7170E+06    -10.1976E+06     300.031E+03    -57.7848E-03     113.796E-03    -56.0114E-03     95.3237E-03    -58.1809E-03     113.840E-03    -55.9064E-03     94.5112E-03
             627     11.0640E-03     80.3768E-03    -25.7303E+06    -53.6293E+06    -9.08246E+06     359.752E+03    -57.9781E-03     113.933E-03    -55.9547E-03     103.740E-03    -58.5596E-03     114.259E-03    -55.8851E-03     102.760E-03
             628     11.9156E-03     80.4854E-03    -24.5106E+06    -14.9231E+06    -9.56306E+06     665.161E+03    -58.4210E-03     114.293E-03    -55.8718E-03     116.726E-03    -59.3186E-03     115.078E-03    -55.8624E-03     115.529E-03
             629     12.7668E-03     80.6108E-03    -24.0428E+06     33.1320E+06    -6.24338E+06     479.942E+03    -59.5866E-03     115.387E-03    -55.8002E-03     140.101E-03    -61.1140E-03     116.965E-03    -55.8446E-03     138.567E-03
             630     13.6177E-03     80.7663E-03    -22.7854E+06     70.2748E+06     19.2105E+06     714.480E+03    -63.3768E-03     119.239E-03    -55.8625E-03     193.819E-03    -66.5631E-03     122.539E-03    -55.8354E-03     191.703E-03
             631     14.4693E-03     81.0020E-03     -18.981E+06     103.631E+06     62.6424E+06     116.742E+03    -73.7489E-03     129.756E-03    -56.0071E-03     304.848E-03    -82.8388E-03     138.965E-03    -55.8167E-03     301.580E-03
             632     15.3239E-03     81.3887E-03    -12.2795E+06     142.113E+06     99.0020E+06    -1.31683E+06    -84.4413E-03     140.511E-03    -56.0698E-03     425.857E-03    -107.515E-03     163.759E-03    -55.7630E-03     423.833E-03
             633     16.1765E-03     81.8913E-03    -5.98093E+06     160.945E+06     111.232E+06    -1.14934E+06    -76.5573E-03     132.601E-03    -56.0442E-03     377.295E-03    -100.471E-03     156.743E-03    -55.7128E-03     383.418E-03
             634     850.967E-06     80.7522E-03    -58.0145E+06    -175.987E+06    -57.1489E+06     221.894E+03    -56.0971E-03     112.159E-03    -56.0619E-03     9.38365E-03    -56.0503E-03     111.448E-03    -56.0083E-03     9.35127E-03
             635     1.70190E-03     80.7655E-03    -56.6402E+06    -173.417E+06    -53.1253E+06     457.235E+03    -56.1207E-03     112.199E-03    -56.0786E-03     17.2154E-03    -56.0799E-03     111.496E-03    -56.0106E-03     17.1553E-03
             636     2.55301E-03     80.7869E-03    -54.2830E+06    -169.304E+06    -46.8329E+06     528.857E+03    -56.2109E-03     112.305E-03    -56.0944E-03     25.4531E-03    -56.1789E-03     111.615E-03    -56.0044E-03     25.3583E-03
             637     3.40392E-03     80.8167E-03    -51.3807E+06    -164.204E+06    -39.0727E+06     665.354E+03    -56.3060E-03     112.422E-03    -56.1158E-03     33.6830E-03    -56.2867E-03     111.751E-03    -55.9986E-03     33.5496E-03
             638     4.25502E-03     80.8547E-03    -48.2988E+06    -157.021E+06    -31.0415E+06     954.666E+03    -56.4216E-03     112.553E-03    -56.1313E-03     41.7839E-03    -56.4213E-03     111.914E-03    -55.9888E-03     41.6080E-03
             639     5.10600E-03     80.9008E-03    -44.7391E+06    -150.814E+06    -23.4857E+06     938.771E+03    -56.5858E-03     112.730E-03    -56.1439E-03     49.6864E-03    -56.6049E-03     112.123E-03    -55.9778E-03     49.4564E-03
             640     5.95709E-03     80.9546E-03    -40.5650E+06    -146.096E+06    -17.2513E+06     886.112E+03    -56.7804E-03     112.932E-03    -56.1520E-03     57.4195E-03    -56.8179E-03     112.357E-03    -55.9676E-03     57.1260E-03
             641     6.80814E-03     81.0162E-03    -36.4670E+06    -134.378E+06    -13.0309E+06     861.432E+03    -56.9699E-03     113.109E-03    -56.1394E-03     65.0317E-03    -57.0415E-03     112.612E-03    -55.9568E-03     64.6656E-03
             642     7.65933E-03     81.0853E-03    -33.8611E+06    -124.522E+06    -10.8341E+06     145.122E+03    -57.1728E-03     113.293E-03    -56.1202E-03     72.4789E-03    -57.2913E-03     112.881E-03    -55.9448E-03     72.0181E-03
             643     8.51046E-03     81.1618E-03    -32.2436E+06    -115.281E+06    -9.89431E+06    -51.8812E+03    -57.3690E-03     113.464E-03    -56.0954E-03     79.8870E-03    -57.5513E-03     113.152E-03    -55.9310E-03     79.3240E-03
             644     9.36176E-03     81.2457E-03    -29.5302E+06    -97.6623E+06    -9.23495E+06     22.5500E+03    -57.5952E-03     113.649E-03    -56.0540E-03     87.5289E-03    -57.8683E-03     113.498E-03    -55.9158E-03     86.8499E-03
             645     10.2128E-03     81.3375E-03    -26.9125E+06    -79.1307E+06    -9.43131E+06    -294.027E+03    -57.8119E-03     113.818E-03    -56.0065E-03     95.1301E-03    -58.2052E-03     113.863E-03    -55.8999E-03     94.3091E-03
             646     11.0642E-03     81.4368E-03    -25.6750E+06    -54.9242E+06    -9.21132E+06     203.705E+03    -58.0271E-03     113.981E-03    -55.9536E-03     103.478E-03    -58.6061E-03     114.300E-03    -55.8828E-03     102.495E-03
             647     11.9155E-03     81.5451E-03    -24.7441E+06    -15.1325E+06    -9.58196E+06     909.827E+03    -58.4695E-03     114.344E-03    -55.8747E-03     116.491E-03    -59.3691E-03     115.130E-03    -55.8648E-03     115.294E-03
             648     12.7669E-03     81.6710E-03    -23.7622E+06     32.9854E+06    -6.35250E+06     1.56059E+06    -59.6710E-03     115.477E-03    -55.8065E-03     140.081E-03    -61.1942E-03     117.052E-03    -55.8516E-03     138.559E-03
             649     13.6182E-03     81.8270E-03    -22.4012E+06     70.6989E+06     17.9227E+06     928.201E+03    -63.1321E-03     118.991E-03    -55.8586E-03     193.328E-03    -66.3103E-03     122.288E-03    -55.8390E-03     191.224E-03
             650     14.4699E-03     82.0614E-03    -18.1845E+06     105.108E+06     62.0988E+06    -1.18090E+06    -73.1969E-03     129.186E-03    -55.9891E-03     303.398E-03    -82.2142E-03     138.332E-03    -55.8046E-03     300.147E-03
             651     15.3197E-03     82.4463E-03    -11.7066E+06     142.066E+06     99.1826E+06    -1.54860E+06    -84.8744E-03     140.942E-03    -56.0676E-03     424.466E-03    -107.910E-03     164.152E-03    -55.7607E-03     422.304E-03
             652     16.1706E-03     82.9477E-03    -5.60610E+06     160.319E+06     111.025E+06    -593.396E+03    -76.8197E-03     132.888E-03    -56.0685E-03     377.647E-03    -100.817E-03     157.112E-03    -55.7377E-03     383.685E-03
             653     850.913E-06     81.8122E-03    -58.4689E+06    -176.434E+06    -57.6834E+06     91.5025E+03    -56.1127E-03     112.159E-03    -56.0464E-03     9.40299E-03    -56.0668E-03     111.447E-03    -55.9942E-03     9.36880E-03
             654     1.70202E-03     81.8255E-03    -57.0509E+06    -173.819E+06    -53.6357E+06     270.612E+03    -56.1251E-03     112.204E-03    -56.0791E-03     17.2290E-03    -56.0850E-03     111.500E-03    -56.0125E-03     17.1664E-03
             655     2.55289E-03     81.8470E-03    -54.7210E+06    -169.478E+06    -46.8705E+06     268.888E+03    -56.2003E-03     112.297E-03    -56.0962E-03     25.4397E-03    -56.1702E-03     111.607E-03    -56.0055E-03     25.3414E-03
             656     3.40398E-03     81.8767E-03    -51.6278E+06    -164.679E+06    -39.6909E+06     406.843E+03    -56.2984E-03     112.411E-03    -56.1126E-03     33.6209E-03    -56.2788E-03     111.739E-03    -55.9974E-03     33.4839E-03
             657     4.25497E-03     81.9147E-03    -47.9451E+06    -157.562E+06    -32.2116E+06     642.960E+03    -56.4208E-03     112.545E-03    -56.1238E-03     41.7225E-03    -56.4163E-03     111.904E-03    -55.9868E-03     41.5424E-03
             658     5.10609E-03     81.9608E-03    -44.1611E+06    -150.653E+06    -23.6794E+06     607.465E+03    -56.5855E-03     112.725E-03    -56.1398E-03     49.6393E-03    -56.6016E-03     112.118E-03    -55.9757E-03     49.4049E-03
             659     5.95712E-03     82.0147E-03    -40.4479E+06    -145.689E+06    -16.8413E+06    -49.1646E+03    -56.7726E-03     112.924E-03    -56.1510E-03     57.3510E-03    -56.8107E-03     112.350E-03    -55.9653E-03     57.0453E-03
             660     6.80825E-03     82.0763E-03    -36.3378E+06    -134.329E+06    -13.0905E+06    -603.102E+03    -56.9653E-03     113.102E-03    -56.1364E-03     64.9610E-03    -57.0362E-03     112.605E-03    -55.9544E-03     64.5756E-03
             661     7.65933E-03     82.1454E-03    -32.3939E+06    -124.945E+06    -9.99606E+06     306.202E+03    -57.1787E-03     113.300E-03    -56.1209E-03     72.3368E-03    -57.2905E-03     112.882E-03    -55.9428E-03     71.8774E-03
             662     8.51045E-03     82.2218E-03    -29.2976E+06    -114.465E+06    -8.42831E+06     181.814E+03    -57.4031E-03     113.500E-03    -56.0972E-03     79.7073E-03    -57.5740E-03     113.185E-03    -55.9309E-03     79.1462E-03
             663     9.36155E-03     82.3057E-03    -27.1971E+06    -97.2552E+06    -8.89334E+06    -814.749E+03    -57.6456E-03     113.701E-03    -56.0552E-03     87.4147E-03    -57.9083E-03     113.547E-03    -55.9192E-03     86.7238E-03
             664     10.2128E-03     82.3977E-03    -25.9117E+06    -79.9616E+06    -8.64498E+06    -35.7984E+03    -57.8603E-03     113.878E-03    -56.0175E-03     94.9259E-03    -58.2487E-03     113.915E-03    -55.9072E-03     94.1066E-03
             665     11.0640E-03     82.4964E-03    -24.6892E+06    -55.2007E+06    -8.27569E+06     450.435E+03    -58.1075E-03     114.077E-03    -55.9692E-03     103.371E-03    -58.6835E-03     114.393E-03    -55.8947E-03     102.389E-03
             666     11.9151E-03     82.6057E-03    -23.2306E+06    -16.5883E+06    -9.74778E+06     1.02036E+06    -58.5873E-03     114.479E-03    -55.8919E-03     116.407E-03    -59.4786E-03     115.257E-03    -55.8829E-03     115.207E-03
             667     12.7664E-03     82.7304E-03    -21.7779E+06     31.5875E+06    -7.32905E+06     1.89169E+06    -59.5362E-03     115.353E-03    -55.8163E-03     140.271E-03    -61.0456E-03     116.918E-03    -55.8672E-03     138.757E-03
             668     13.6172E-03     82.8882E-03    -19.1824E+06     72.7018E+06     19.4916E+06     1.01108E+06    -62.8678E-03     118.727E-03    -55.8587E-03     193.703E-03    -66.0354E-03     122.028E-03    -55.8389E-03     191.612E-03
             669     14.4687E-03     83.1196E-03    -15.5899E+06     108.285E+06     65.0730E+06    -581.065E+03    -73.4737E-03     129.467E-03    -55.9936E-03     303.691E-03    -82.5518E-03     138.686E-03    -55.8027E-03     300.430E-03
             670     15.3233E-03     83.5080E-03    -11.3892E+06     141.940E+06     98.7683E+06    -992.574E+03    -85.5878E-03     141.672E-03    -56.0843E-03     425.500E-03    -108.703E-03     164.964E-03    -55.7798E-03     423.258E-03
             671     16.1739E-03     84.0126E-03    -5.40241E+06     159.116E+06     110.005E+06    -296.526E+03    -76.5206E-03     132.606E-03    -56.0853E-03     377.595E-03    -100.474E-03     156.786E-03    -55.7581E-03     383.668E-03
             672     851.069E-06     82.8723E-03    -58.8330E+06    -176.598E+06    -57.8217E+06     75.2788E+03    -56.1674E-03     112.190E-03    -56.0229E-03     9.32465E-03    -56.1229E-03     111.478E-03    -55.9706E-03     9.29076E-03
             673     1.70185E-03     82.8855E-03    -57.2693E+06    -173.903E+06    -53.6861E+06    -28.1724E+03    -56.1384E-03     112.234E-03    -56.0954E-03     17.1698E-03    -56.0992E-03     111.530E-03    -56.0287E-03     17.1031E-03
             674     2.55297E-03     82.9070E-03    -54.9418E+06    -169.730E+06    -47.2505E+06     138.712E+03    -56.1960E-03     112.304E-03    -56.1080E-03     25.4143E-03    -56.1662E-03     111.614E-03    -56.0185E-03     25.3141E-03
             675     3.40390E-03     82.9368E-03    -52.0184E+06    -164.701E+06    -39.6287E+06     54.6906E+03    -56.3049E-03     112.429E-03    -56.1237E-03     33.5891E-03    -56.2874E-03     111.757E-03    -56.0075E-03     33.4474E-03
             676     4.25495E-03     82.9748E-03    -48.4263E+06    -157.534E+06    -32.2337E+06    -348.275E+03    -56.4319E-03     112.567E-03    -56.1347E-03     41.6819E-03    -56.4298E-03     111.927E-03    -55.9973E-03     41.4886E-03
             677     5.10597E-03     83.0208E-03    -43.9260E+06    -150.555E+06    -24.4627E+06    -567.504E+03    -56.5830E-03     112.728E-03    -56.1451E-03     49.6047E-03    -56.5969E-03     112.123E-03    -55.9855E-03     49.3550E-03
             678     5.95705E-03     83.0748E-03    -39.3542E+06    -144.666E+06    -17.3544E+06    -886.289E+03    -56.7759E-03     112.929E-03    -56.1535E-03     57.2963E-03    -56.8093E-03     112.360E-03    -55.9735E-03     56.9795E-03
             679     6.80810E-03     83.1362E-03    -36.3815E+06    -134.386E+06    -14.2197E+06    -957.560E+03    -56.9706E-03     113.109E-03    -56.1385E-03     64.9028E-03    -57.0401E-03     112.614E-03    -55.9620E-03     64.5125E-03
             680     7.65923E-03     83.2055E-03    -33.6608E+06    -125.653E+06    -12.7570E+06    -1.18145E+06    -57.1853E-03     113.303E-03    -56.1176E-03     72.3091E-03    -57.2983E-03     112.887E-03    -55.9503E-03     71.8307E-03
             681     8.51038E-03     83.2817E-03    -30.2024E+06    -113.733E+06    -10.3436E+06    -1.17168E+06    -57.4388E-03     113.536E-03    -56.0971E-03     79.7175E-03    -57.6125E-03     113.229E-03    -55.9401E-03     79.1387E-03
             682     9.36151E-03     83.3660E-03    -27.7652E+06    -97.3321E+06    -9.59823E+06    -698.561E+03    -57.6743E-03     113.738E-03    -56.0642E-03     87.3695E-03    -57.9385E-03     113.586E-03    -55.9308E-03     86.6796E-03
             683     10.2126E-03     83.4574E-03    -25.6716E+06    -81.0695E+06    -9.46741E+06    -508.138E+03    -57.8904E-03     113.918E-03    -56.0277E-03     94.9296E-03    -58.2748E-03     113.951E-03    -55.9203E-03     94.1038E-03
             684     11.0638E-03     83.5569E-03    -23.4186E+06    -55.5578E+06    -8.53219E+06     142.149E+03    -58.1417E-03     114.122E-03    -55.9804E-03     103.499E-03    -58.7108E-03     114.436E-03    -55.9086E-03     102.512E-03
             685     11.9151E-03     83.6653E-03    -21.9971E+06    -17.7202E+06    -10.0148E+06     753.250E+03    -58.5360E-03     114.437E-03    -55.9013E-03     116.720E-03    -59.4188E-03     115.208E-03    -55.8938E-03     115.520E-03
             686     12.7660E-03     83.7913E-03    -20.1696E+06     31.2637E+06    -7.27755E+06     627.092E+03    -59.3219E-03     115.137E-03    -55.8147E-03     140.411E-03    -60.8236E-03     116.699E-03    -55.8672E-03     138.887E-03
             687     13.6190E-03     83.9464E-03    -17.6104E+06     73.4391E+06     20.3519E+06     899.266E+03    -62.7142E-03     118.562E-03    -55.8474E-03     193.544E-03    -65.8569E-03     121.844E-03    -55.8266E-03     191.465E-03
             688     14.4713E-03     84.1818E-03    -14.4606E+06     109.301E+06     66.3874E+06     1.51088E+06    -73.7305E-03     129.718E-03    -55.9872E-03     303.665E-03    -82.7927E-03     138.924E-03    -55.7928E-03     300.411E-03
             689     15.3188E-03     84.5665E-03    -10.4201E+06     144.288E+06     100.503E+06     999.994E+03    -85.4317E-03     141.506E-03    -56.0743E-03     426.323E-03    -108.503E-03     164.761E-03    -55.7659E-03     424.160E-03
             690     16.1706E-03     85.0708E-03    -5.62458E+06     159.385E+06     110.265E+06    -4.74291E+03    -76.6035E-03     132.663E-03    -56.0597E-03     378.022E-03    -100.514E-03     156.800E-03    -55.7313E-03     384.145E-03
             691     850.783E-06     83.9324E-03    -58.7356E+06    -176.433E+06    -57.7893E+06    -40.3485E+03    -56.1452E-03     112.263E-03    -56.1174E-03     9.24429E-03    -56.1004E-03     111.551E-03    -56.0654E-03     9.20917E-03
             692     1.70193E-03     83.9456E-03    -57.3122E+06    -173.842E+06    -53.7199E+06    -102.933E+03    -56.1404E-03     112.265E-03    -56.1248E-03     17.1527E-03    -56.1015E-03     111.562E-03    -56.0582E-03     17.0849E-03
             693     2.55279E-03     83.9670E-03    -55.0180E+06    -169.925E+06    -47.6937E+06    -171.665E+03    -56.2062E-03     112.333E-03    -56.1271E-03     25.3945E-03    -56.1758E-03     111.643E-03    -56.0394E-03     25.2902E-03
             694     3.40389E-03     83.9969E-03    -51.8739E+06    -164.390E+06    -39.4968E+06    -194.273E+03    -56.3093E-03     112.450E-03    -56.1411E-03     33.5922E-03    -56.2916E-03     111.780E-03    -56.0250E-03     33.4472E-03
             695     4.25485E-03     84.0348E-03    -48.5819E+06    -156.704E+06    -31.3175E+06    -643.915E+03    -56.4387E-03     112.592E-03    -56.1537E-03     41.6775E-03    -56.4400E-03     111.956E-03    -56.0126E-03     41.4803E-03
             696     5.10591E-03     84.0809E-03    -45.3570E+06    -149.512E+06    -25.5957E+06    -1.71178E+06    -56.5824E-03     112.737E-03    -56.1542E-03     49.6174E-03    -56.6033E-03     112.140E-03    -55.9996E-03     49.3530E-03
             697     5.95700E-03     84.1348E-03    -41.8993E+06    -144.440E+06    -20.5716E+06    -2.07924E+06    -56.7717E-03     112.925E-03    -56.1536E-03     57.3328E-03    -56.8134E-03     112.365E-03    -55.9863E-03     57.0009E-03
             698     6.80807E-03     84.1965E-03    -37.4726E+06    -134.283E+06    -16.0217E+06    -1.99544E+06    -56.9771E-03     113.120E-03    -56.1430E-03     64.8878E-03    -57.0495E-03     112.629E-03    -55.9740E-03     64.4841E-03
             699     7.65921E-03     84.2654E-03    -33.2583E+06    -124.535E+06    -12.9166E+06    -2.54811E+06    -57.2074E-03     113.334E-03    -56.1271E-03     72.3009E-03    -57.3198E-03     112.924E-03    -55.9629E-03     71.8044E-03
             700     8.51025E-03     84.3420E-03    -30.1857E+06    -114.455E+06    -11.1258E+06    -2.60913E+06    -57.4466E-03     113.554E-03    -56.1069E-03     79.7170E-03    -57.6181E-03     113.244E-03    -55.9528E-03     79.1195E-03
             701     9.36133E-03     84.4259E-03    -27.0541E+06    -98.1234E+06    -10.2317E+06    -1.73089E+06    -57.6626E-03     113.735E-03    -56.0722E-03     87.3883E-03    -57.9210E-03     113.579E-03    -55.9419E-03     86.6857E-03
             702     10.2125E-03     84.5178E-03    -24.8883E+06    -81.3736E+06    -9.78309E+06    -1.03042E+06    -57.8717E-03     113.905E-03    -56.0337E-03     95.0320E-03    -58.2511E-03     113.936E-03    -55.9285E-03     94.2001E-03
             703     11.0638E-03     84.6167E-03    -23.8715E+06    -57.1628E+06    -9.34966E+06    -272.688E+03    -58.0627E-03     114.045E-03    -55.9824E-03     103.665E-03    -58.6301E-03     114.352E-03    -55.9117E-03     102.675E-03
             704     11.9149E-03     84.7258E-03    -22.4954E+06    -17.7034E+06    -10.3683E+06     12.7478E+03    -58.3567E-03     114.250E-03    -55.8935E-03     116.779E-03    -59.2394E-03     115.020E-03    -55.8871E-03     115.575E-03
             705     12.7672E-03     84.8504E-03    -21.4057E+06     32.1489E+06    -7.29664E+06    -501.811E+03    -59.4290E-03     115.236E-03    -55.8068E-03     140.231E-03    -60.9388E-03     116.805E-03    -55.8589E-03     138.689E-03
             706     13.6173E-03     85.0069E-03    -19.9531E+06     72.3482E+06     18.5605E+06     353.196E+03    -62.9950E-03     118.845E-03    -55.8502E-03     193.046E-03    -66.1423E-03     122.125E-03    -55.8334E-03     190.946E-03
             707     14.4683E-03     85.2398E-03    -16.8871E+06     107.814E+06     63.5158E+06     1.74155E+06    -73.4069E-03     129.390E-03    -55.9832E-03     304.066E-03    -82.4665E-03     138.588E-03    -55.7975E-03     300.829E-03
             708     15.3236E-03     85.6301E-03    -11.8000E+06     145.023E+06     99.8762E+06     1.20359E+06    -84.7036E-03     140.750E-03    -56.0463E-03     426.151E-03    -107.709E-03     163.939E-03    -55.7401E-03     424.082E-03
             709     16.1778E-03     86.1312E-03    -5.88902E+06     160.738E+06     111.148E+06     328.130E+03    -76.8929E-03     132.922E-03    -56.0295E-03     378.359E-03    -100.832E-03     157.089E-03    -55.6983E-03     384.474E-03
             710     850.995E-06     84.9926E-03    -58.5311E+06    -176.093E+06    -57.6444E+06    -161.865E+03    -56.1178E-03     112.289E-03    -56.1714E-03     9.29431E-03    -56.0727E-03     111.579E-03    -56.1195E-03     9.25726E-03
             711     1.70178E-03     85.0057E-03    -57.0438E+06    -173.657E+06    -53.9511E+06    -313.858E+03    -56.1745E-03     112.314E-03    -56.1400E-03     17.1483E-03    -56.1341E-03     111.612E-03    -56.0752E-03     17.0777E-03
             712     2.55285E-03     85.0272E-03    -54.7277E+06    -169.451E+06    -47.5990E+06    -576.577E+03    -56.2292E-03     112.377E-03    -56.1476E-03     25.3980E-03    -56.1982E-03     111.688E-03    -56.0606E-03     25.2882E-03
             713     3.40376E-03     85.0569E-03    -51.3342E+06    -163.929E+06    -39.8093E+06    -1.09337E+06    -56.3228E-03     112.481E-03    -56.1583E-03     33.5996E-03    -56.3027E-03     111.812E-03    -56.0452E-03     33.4429E-03
             714     4.25483E-03     85.0950E-03    -46.7683E+06    -155.566E+06    -31.3803E+06    -1.59949E+06    -56.4484E-03     112.615E-03    -56.1666E-03     41.6711E-03    -56.4422E-03     111.982E-03    -56.0302E-03     41.4616E-03
             715     5.10585E-03     85.1409E-03    -42.5791E+06    -148.529E+06    -23.6561E+06    -1.71941E+06    -56.6139E-03     112.789E-03    -56.1751E-03     49.5585E-03    -56.6253E-03     112.191E-03    -56.0163E-03     49.2934E-03
             716     5.95688E-03     85.1949E-03    -39.3384E+06    -143.463E+06    -18.9102E+06    -2.34414E+06    -56.7950E-03     112.969E-03    -56.1740E-03     57.2683E-03    -56.8278E-03     112.408E-03    -56.0035E-03     56.9325E-03
             717     6.80796E-03     85.2564E-03    -36.3043E+06    -132.983E+06    -15.8733E+06    -3.73253E+06    -56.9833E-03     113.140E-03    -56.1565E-03     64.8570E-03    -57.0520E-03     112.654E-03    -55.9904E-03     64.4306E-03
             718     7.65899E-03     85.3257E-03    -33.0509E+06    -124.073E+06    -13.6541E+06    -4.01804E+06    -57.2008E-03     113.338E-03    -56.1368E-03     72.3404E-03    -57.3118E-03     112.930E-03    -55.9772E-03     71.8251E-03
             719     8.51010E-03     85.4020E-03    -29.9451E+06    -114.587E+06    -12.3282E+06    -3.75171E+06    -57.4095E-03     113.521E-03    -56.1112E-03     79.7908E-03    -57.5776E-03     113.211E-03    -55.9632E-03     79.1793E-03
             720     9.36131E-03     85.4860E-03    -27.6143E+06    -99.2180E+06    -11.6573E+06    -3.29068E+06    -57.6239E-03     113.697E-03    -56.0730E-03     87.4777E-03    -57.8814E-03     113.538E-03    -55.9474E-03     86.7558E-03
             721     10.2126E-03     85.5777E-03    -25.1573E+06    -82.5893E+06    -9.97315E+06    -1.90227E+06    -57.8256E-03     113.862E-03    -56.0362E-03     95.0720E-03    -58.2044E-03     113.887E-03    -55.9298E-03     94.2294E-03
             722     11.0637E-03     85.6769E-03    -22.5941E+06    -58.2254E+06    -9.01704E+06    -885.733E+03    -57.9682E-03     113.948E-03    -55.9795E-03     103.570E-03    -58.5272E-03     114.246E-03    -55.9074E-03     102.574E-03
             723     11.9156E-03     85.7852E-03    -21.3509E+06    -17.9874E+06    -10.6020E+06     -51.174E+03    -58.4556E-03     114.343E-03    -55.8872E-03     116.571E-03    -59.3322E-03     115.110E-03    -55.8831E-03     115.364E-03
             724     12.7662E-03     85.9106E-03    -21.5039E+06     32.9474E+06    -6.89574E+06     850.933E+03    -59.6805E-03     115.497E-03    -55.8162E-03     140.099E-03    -61.1952E-03     117.072E-03    -55.8673E-03     138.566E-03
             725     13.6183E-03     86.0675E-03    -21.3853E+06     71.5819E+06     18.1996E+06     807.560E+03    -62.9412E-03     118.809E-03    -55.8677E-03     192.785E-03    -66.0985E-03     122.092E-03    -55.8495E-03     190.691E-03
             726     14.4703E-03     86.3001E-03    -17.8690E+06     106.480E+06     62.2208E+06     981.222E+03    -73.1832E-03     129.174E-03    -55.9912E-03     303.526E-03    -82.2380E-03     138.363E-03    -55.8086E-03     300.291E-03
             727     15.3208E-03     86.6865E-03    -11.4392E+06     145.036E+06     98.9447E+06     1.46308E+06    -84.9308E-03     140.992E-03    -56.0613E-03     424.796E-03    -107.864E-03     164.113E-03    -55.7603E-03     422.660E-03
             728     16.1700E-03     87.1885E-03    -4.93152E+06     161.688E+06     111.301E+06     1.23185E+06    -76.4247E-03     132.476E-03    -56.0516E-03     378.044E-03    -100.334E-03     156.619E-03    -55.7224E-03     384.165E-03
             729     850.867E-06     86.0528E-03    -58.1534E+06    -175.611E+06    -57.5155E+06    -362.111E+03    -56.1673E-03     112.302E-03    -56.1343E-03     9.27067E-03    -56.1213E-03     111.593E-03    -56.0830E-03     9.23067E-03
             730     1.70186E-03     86.0659E-03    -56.8257E+06    -173.004E+06    -53.5093E+06    -670.668E+03    -56.2056E-03     112.358E-03    -56.1522E-03     17.1245E-03    -56.1658E-03     111.657E-03    -56.0865E-03     17.0493E-03
             731     2.55271E-03     86.0873E-03    -54.3698E+06    -168.488E+06    -47.1604E+06    -1.15911E+06    -56.2652E-03     112.432E-03    -56.1672E-03     25.3882E-03    -56.2344E-03     111.747E-03    -56.0799E-03     25.2709E-03
             732     3.40373E-03     86.1171E-03    -51.0458E+06    -162.042E+06    -39.8799E+06    -2.31020E+06    -56.3472E-03     112.525E-03    -56.1774E-03     33.5800E-03    -56.3283E-03     111.865E-03    -56.0678E-03     33.4073E-03
             733     4.25469E-03     86.1550E-03    -47.4941E+06    -154.656E+06    -32.9927E+06    -3.22971E+06    -56.4628E-03     112.644E-03    -56.1809E-03     41.6645E-03    -56.4592E-03     112.018E-03    -56.0527E-03     41.4335E-03
             734     5.10571E-03     86.2012E-03    -43.0714E+06    -148.108E+06    -25.5441E+06    -3.36229E+06    -56.6213E-03     112.808E-03    -56.1868E-03     49.5797E-03    -56.6331E-03     112.215E-03    -56.0373E-03     49.2931E-03
             735     5.95671E-03     86.2550E-03    -38.0761E+06    -141.934E+06    -19.5568E+06    -3.64563E+06    -56.7977E-03     112.983E-03    -56.1851E-03     57.2996E-03    -56.8255E-03     112.428E-03    -56.0219E-03     56.9468E-03
             736     6.80779E-03     86.3166E-03    -34.6580E+06    -131.509E+06    -16.6296E+06    -3.84274E+06    -56.9726E-03     113.135E-03    -56.1629E-03     64.9283E-03    -57.0341E-03     112.655E-03    -56.0051E-03     64.5009E-03
             737     7.65898E-03     86.3856E-03    -32.9803E+06    -123.346E+06    -14.7440E+06    -4.36809E+06    -57.1636E-03     113.303E-03    -56.1399E-03     72.3833E-03    -57.2736E-03     112.901E-03    -55.9869E-03     71.8639E-03
             738     8.51017E-03     86.4622E-03    -31.4127E+06    -114.435E+06    -13.4254E+06    -4.54702E+06    -57.3661E-03     113.479E-03    -56.1125E-03     79.7871E-03    -57.5401E-03     113.174E-03    -55.9681E-03     79.1658E-03
             739     9.36134E-03     86.5459E-03    -29.0071E+06    -99.1823E+06    -13.0096E+06    -4.59499E+06    -57.5864E-03     113.656E-03    -56.0695E-03     87.4882E-03    -57.8489E-03     113.501E-03    -55.9487E-03     86.7498E-03
             740     10.2125E-03     86.6379E-03    -25.7622E+06    -84.0095E+06    -12.2529E+06    -4.57841E+06    -57.7776E-03     113.803E-03    -56.0255E-03     95.0656E-03    -58.1537E-03     113.825E-03    -55.9276E-03     94.1895E-03
             741     11.0640E-03     86.7365E-03    -22.6350E+06    -60.2411E+06    -11.1060E+06    -2.74259E+06    -58.0239E-03     113.994E-03    -55.9702E-03     103.469E-03    -58.5772E-03     114.285E-03    -55.9056E-03     102.448E-03
             742     11.9149E-03     86.8453E-03    -20.8597E+06    -20.6100E+06    -12.0006E+06     274.247E+03    -58.6364E-03     114.526E-03    -55.8891E-03     116.801E-03    -59.5070E-03     115.284E-03    -55.8890E-03     115.593E-03
             743     12.7663E-03     86.9713E-03    -20.4540E+06     31.5416E+06     -8.4561E+06     2.49177E+06    -59.6961E-03     115.515E-03    -55.8193E-03     140.423E-03    -61.2023E-03     117.085E-03    -55.8777E-03     138.913E-03
             744     13.6168E-03     87.1271E-03    -19.2580E+06     73.1646E+06     18.6911E+06     2.28377E+06    -62.8623E-03     118.735E-03    -55.8724E-03     192.473E-03    -66.0084E-03     122.018E-03    -55.8571E-03     190.406E-03
             745     14.4687E-03     87.3587E-03    -16.3001E+06     107.002E+06     63.3731E+06     1.14156E+06    -73.4174E-03     129.424E-03    -56.0062E-03     303.306E-03    -82.4597E-03     138.604E-03    -55.8208E-03     300.057E-03
             746     15.3212E-03     87.7480E-03    -12.0400E+06     144.548E+06     98.4603E+06     1.51429E+06    -85.1953E-03     141.272E-03    -56.0765E-03     426.596E-03    -108.292E-03     164.554E-03    -55.7763E-03     424.473E-03
             747     16.1744E-03     88.2514E-03    -5.89523E+06     162.333E+06     110.943E+06     1.24005E+06    -76.1574E-03     132.207E-03    -56.0494E-03     379.509E-03    -100.246E-03     156.529E-03    -55.7215E-03     385.740E-03
             748     850.909E-06     87.1130E-03    -58.0780E+06    -174.931E+06    -56.9948E+06    -396.530E+03    -56.1918E-03     112.307E-03    -56.1156E-03     9.32927E-03    -56.1471E-03     111.601E-03    -56.0627E-03     9.28870E-03
             749     1.70178E-03     87.1261E-03    -56.7059E+06    -172.097E+06    -52.6586E+06    -661.784E+03    -56.2351E-03     112.398E-03    -56.1633E-03     17.1613E-03    -56.1972E-03     111.701E-03    -56.0948E-03     17.0863E-03
             750     2.55271E-03     87.1476E-03    -54.3261E+06    -166.555E+06    -46.6652E+06    -1.75652E+06    -56.2974E-03     112.481E-03    -56.1839E-03     25.3896E-03    -56.2699E-03     111.805E-03    -56.0970E-03     25.2644E-03
             751     3.40360E-03     87.1773E-03    -51.3652E+06    -159.639E+06    -40.5566E+06    -3.00939E+06    -56.3666E-03     112.558E-03    -56.1916E-03     33.5916E-03    -56.3518E-03     111.912E-03    -56.0884E-03     33.4096E-03
             752     4.25459E-03     87.2153E-03    -48.3025E+06    -153.074E+06    -34.6633E+06    -3.88855E+06    -56.4665E-03     112.658E-03    -56.1911E-03     41.6961E-03    -56.4668E-03     112.043E-03    -56.0724E-03     41.4566E-03
             753     5.10561E-03     87.2612E-03    -45.0771E+06    -146.080E+06    -29.0751E+06    -5.35340E+06    -56.5943E-03     112.779E-03    -56.1844E-03     49.6594E-03    -56.6138E-03     112.204E-03    -56.0526E-03     49.3476E-03
             754     5.95672E-03     87.3153E-03    -41.4507E+06    -141.242E+06    -23.2334E+06    -6.01509E+06    -56.7691E-03     112.950E-03    -56.1810E-03     57.3669E-03    -56.8095E-03     112.409E-03    -56.0323E-03     56.9838E-03
             755     6.80783E-03     87.3765E-03    -37.0515E+06    -131.241E+06    -18.3066E+06    -5.52184E+06    -56.9575E-03     113.123E-03    -56.1652E-03     64.9482E-03    -57.0289E-03     112.650E-03    -56.0127E-03     64.4990E-03
             756     7.65891E-03     87.4459E-03    -32.7411E+06    -122.545E+06    -14.5931E+06    -4.91924E+06    -57.1501E-03     113.295E-03    -56.1450E-03     72.3419E-03    -57.2604E-03     112.896E-03    -55.9928E-03     71.8153E-03
             757     8.51004E-03     87.5220E-03    -29.3835E+06    -113.451E+06    -12.9807E+06    -5.24418E+06    -57.3533E-03     113.467E-03    -56.1141E-03     79.7592E-03    -57.5192E-03     113.164E-03    -55.9719E-03     79.1289E-03
             758     9.36125E-03     87.6062E-03    -26.6064E+06    -97.9846E+06    -13.0860E+06    -6.12111E+06    -57.5525E-03     113.617E-03    -56.0646E-03     87.4777E-03    -57.8044E-03     113.465E-03    -55.9494E-03     86.7203E-03
             759     10.2127E-03     87.6975E-03    -24.8408E+06    -84.6094E+06    -12.7323E+06    -5.94721E+06    -57.7810E-03     113.802E-03    -56.0215E-03     95.0091E-03    -58.1507E-03     113.821E-03    -55.9264E-03     94.1154E-03
             760     11.0638E-03     87.7967E-03    -23.5432E+06    -63.2267E+06    -12.8082E+06    -4.43813E+06    -58.1039E-03     114.073E-03    -55.9690E-03     103.566E-03    -58.6555E-03     114.354E-03    -55.9072E-03     102.522E-03
             761     11.9152E-03     87.9054E-03    -21.7896E+06    -26.0259E+06    -14.6637E+06    -889.739E+03    -58.5770E-03     114.463E-03    -55.8864E-03     117.084E-03    -59.4402E-03     115.199E-03    -55.8903E-03     115.863E-03
             762     12.7663E-03     88.0315E-03    -20.4231E+06     28.5608E+06    -12.7887E+06     2.70724E+06    -59.4192E-03     115.209E-03    -55.7901E-03     140.690E-03    -60.9078E-03     116.764E-03    -55.8659E-03     139.196E-03
             763     13.6185E-03     88.1874E-03    -19.4667E+06     74.9080E+06     12.6197E+06     3.21122E+06    -62.8513E-03     118.667E-03    -55.8153E-03     193.281E-03    -66.0001E-03     121.976E-03    -55.8326E-03     191.227E-03
             764     14.4695E-03     88.4195E-03    -16.8223E+06     108.284E+06     59.5692E+06     2.03623E+06    -73.5431E-03     129.502E-03    -55.9594E-03     304.294E-03    -82.6034E-03     138.715E-03    -55.7942E-03     301.055E-03
             765     15.3213E-03     88.8064E-03    -11.6227E+06     144.770E+06     98.4650E+06     1.70113E+06    -84.8177E-03     140.855E-03    -56.0377E-03     426.924E-03    -107.888E-03     164.113E-03    -55.7384E-03     424.888E-03
             766     16.1735E-03     89.3102E-03    -5.78381E+06     163.652E+06     111.746E+06     1.31208E+06    -76.2703E-03     132.277E-03    -56.0065E-03     378.931E-03    -100.281E-03     156.523E-03    -55.6767E-03     385.157E-03
             767     850.977E-06     88.1732E-03    -58.0991E+06    -174.090E+06    -56.9816E+06    -462.419E+03    -56.2341E-03     112.329E-03    -56.0952E-03     9.39509E-03    -56.1908E-03     111.628E-03    -56.0434E-03     9.35380E-03
             768     1.70180E-03     88.1864E-03    -56.0671E+06    -170.949E+06    -52.2277E+06    -900.165E+03    -56.2560E-03     112.433E-03    -56.1766E-03     17.1497E-03    -56.2172E-03     111.739E-03    -56.1085E-03     17.0716E-03
             769     2.55266E-03     88.2078E-03    -53.3691E+06    -163.556E+06    -46.5272E+06    -2.27004E+06    -56.3013E-03     112.494E-03    -56.1926E-03     25.3902E-03    -56.2736E-03     111.831E-03    -56.1107E-03     25.2583E-03
             770     3.40359E-03     88.2376E-03    -50.3041E+06    -157.476E+06    -40.2174E+06    -3.69810E+06    -56.3728E-03     112.573E-03    -56.1998E-03     33.5964E-03    -56.3564E-03     111.935E-03    -56.0996E-03     33.4056E-03
             771     4.25457E-03     88.2754E-03    -46.5349E+06    -150.442E+06    -33.5417E+06    -4.97919E+06    -56.4701E-03     112.670E-03    -56.1998E-03     41.7137E-03    -56.4671E-03     112.065E-03    -56.0818E-03     41.4600E-03
             772     5.10561E-03     88.3215E-03    -42.9409E+06    -143.497E+06    -27.0527E+06    -5.94783E+06    -56.6016E-03     112.798E-03    -56.1959E-03     49.6316E-03    -56.6173E-03     112.230E-03    -56.0609E-03     49.3116E-03
             773     5.95668E-03     88.3752E-03    -40.1286E+06    -139.794E+06    -22.1105E+06    -6.69462E+06    -56.7646E-03     112.954E-03    -56.1896E-03     57.3375E-03    -56.8021E-03     112.417E-03    -56.0392E-03     56.9454E-03
             774     6.80769E-03     88.4369E-03    -37.5156E+06    -130.494E+06    -19.7177E+06    -7.37686E+06    -56.9286E-03     113.090E-03    -56.1618E-03     64.9612E-03    -57.0014E-03     112.624E-03    -56.0168E-03     64.4883E-03
             775     7.65889E-03     88.5057E-03    -34.2363E+06    -122.460E+06    -17.7981E+06    -7.41857E+06    -57.1151E-03     113.246E-03    -56.1312E-03     72.4377E-03    -57.2281E-03     112.855E-03    -55.9930E-03     71.8799E-03
             776     8.51007E-03     88.5823E-03    -30.3980E+06    -111.731E+06    -15.3846E+06    -7.60515E+06    -57.3218E-03     113.420E-03    -56.0979E-03     79.8860E-03    -57.4915E-03     113.129E-03    -55.9687E-03     79.2264E-03
             777     9.36137E-03     88.6658E-03    -27.6198E+06    -97.5190E+06    -14.4454E+06    -7.45687E+06    -57.5484E-03     113.602E-03    -56.0540E-03     87.5517E-03    -57.8039E-03     113.456E-03    -55.9448E-03     86.7777E-03
             778     10.2125E-03     88.7577E-03    -25.8539E+06    -85.1997E+06    -13.7069E+06    -6.46919E+06    -57.8110E-03     113.827E-03    -56.0156E-03     95.1298E-03    -58.1836E-03     113.845E-03    -55.9231E-03     94.2292E-03
             779     11.0639E-03     88.8565E-03    -24.4966E+06    -65.0889E+06    -14.1364E+06    -5.18822E+06    -58.0762E-03     114.039E-03    -55.9630E-03     103.753E-03    -58.6279E-03     114.314E-03    -55.9038E-03     102.700E-03
             780     11.9150E-03     88.9656E-03    -23.4064E+06    -31.2029E+06    -17.6310E+06    -2.63125E+06    -58.4401E-03     114.312E-03    -55.8719E-03     117.142E-03    -59.2974E-03     115.027E-03    -55.8809E-03     115.904E-03
             781     12.7668E-03     89.0910E-03    -21.9513E+06     23.5208E+06    -19.3576E+06     1.39730E+06    -59.1617E-03     114.907E-03    -55.7450E-03     140.405E-03    -60.6335E-03     116.440E-03    -55.8441E-03     138.904E-03
             782     13.6183E-03     89.2467E-03    -20.1520E+06      75.273E+06     3.28357E+06     3.31553E+06    -62.6892E-03     118.424E-03    -55.7351E-03     193.222E-03    -65.8197E-03     121.741E-03    -55.7986E-03     191.176E-03
             783     14.4709E-03     89.4799E-03    -16.8911E+06     110.302E+06     54.3292E+06     2.17135E+06    -73.5333E-03     129.430E-03    -55.8970E-03     303.347E-03    -82.5334E-03     138.604E-03    -55.7608E-03     300.121E-03
             784     15.3225E-03     89.8669E-03    -11.2928E+06     144.236E+06     97.5453E+06     1.51808E+06    -84.7704E-03     140.783E-03    -56.0130E-03     425.274E-03    -107.757E-03     163.960E-03    -55.7180E-03     423.219E-03
             785     16.1754E-03     90.3695E-03    -5.37849E+06     164.540E+06     112.118E+06     1.85603E+06    -76.1781E-03     132.171E-03    -55.9926E-03     379.281E-03    -100.207E-03     156.440E-03    -55.6628E-03     385.504E-03
             786     850.805E-06     89.2335E-03    -58.0643E+06    -172.573E+06    -57.5464E+06    -880.571E+03    -56.2674E-03     112.419E-03    -56.1514E-03     9.36198E-03    -56.2252E-03     111.725E-03    -56.1047E-03     9.31550E-03
             787     1.70171E-03     89.2467E-03    -56.4571E+06    -168.948E+06    -54.1331E+06    -1.89554E+06    -56.2206E-03     112.417E-03    -56.1965E-03     17.1365E-03    -56.1840E-03     111.737E-03    -56.1403E-03     17.0456E-03
             788     2.55264E-03     89.2682E-03    -54.1760E+06    -160.742E+06    -48.3202E+06    -3.00729E+06    -56.2689E-03     112.459E-03    -56.1902E-03     25.4051E-03    -56.2467E-03     111.814E-03    -56.1201E-03     25.2639E-03
             789     3.40359E-03     89.2978E-03    -51.4674E+06    -154.473E+06    -40.6735E+06    -4.38425E+06    -56.3581E-03     112.555E-03    -56.1973E-03     33.6021E-03    -56.3512E-03     111.935E-03    -56.1020E-03     33.4024E-03
             790     4.25454E-03     89.3357E-03    -48.5078E+06    -147.159E+06    -33.9994E+06    -6.11264E+06    -56.4660E-03     112.664E-03    -56.1979E-03     41.7125E-03    -56.4770E-03     112.079E-03    -56.0841E-03     41.4439E-03
             791     5.10556E-03     89.3816E-03    -44.8369E+06    -141.457E+06    -28.7250E+06    -7.27325E+06    -56.5848E-03     112.775E-03    -56.1897E-03     49.6520E-03    -56.6105E-03     112.222E-03    -56.0632E-03     49.3151E-03
             792     5.95656E-03     89.4355E-03    -40.7524E+06    -137.845E+06    -24.1988E+06    -7.71834E+06    -56.7242E-03     112.900E-03    -56.1760E-03     57.4156E-03    -56.7645E-03     112.377E-03    -56.0380E-03     57.0110E-03
             793     6.80781E-03     89.4968E-03    -37.3277E+06    -128.604E+06    -21.3405E+06    -8.22044E+06    -56.8807E-03     113.025E-03    -56.1439E-03     65.0552E-03    -56.9526E-03     112.569E-03    -56.0100E-03     64.5725E-03
             794     7.65899E-03     89.5659E-03    -34.4505E+06    -120.712E+06    -19.1103E+06    -9.38746E+06    -57.0698E-03     113.181E-03    -56.1110E-03     72.5149E-03    -57.1842E-03     112.800E-03    -55.9815E-03     71.9326E-03
             795     8.51026E-03     89.6420E-03    -31.8406E+06    -110.921E+06    -16.9080E+06    -9.71805E+06    -57.2815E-03     113.358E-03    -56.0767E-03     79.9752E-03    -57.4571E-03     113.076E-03    -55.9542E-03     79.2895E-03
             796     9.36143E-03     89.7260E-03    -29.3653E+06    -97.8651E+06    -15.9982E+06    -8.82418E+06    -57.5384E-03     113.572E-03    -56.0338E-03     87.6941E-03    -57.7997E-03     113.428E-03    -55.9294E-03     86.9032E-03
             797     10.2128E-03     89.8175E-03    -27.2563E+06    -86.1617E+06    -15.6437E+06    -7.59330E+06    -57.7800E-03     113.773E-03    -55.9932E-03     95.3563E-03    -58.1554E-03     113.791E-03    -55.9070E-03     94.4425E-03
             798     11.0639E-03     89.9167E-03    -25.7374E+06    -66.8643E+06    -16.1170E+06    -5.78846E+06    -57.9770E-03     113.914E-03    -55.9369E-03     103.995E-03    -58.5293E-03     114.184E-03    -55.8832E-03     102.937E-03
             799     11.9155E-03     90.0251E-03    -24.9276E+06    -34.8623E+06    -20.0834E+06    -3.30092E+06    -58.3514E-03     114.192E-03    -55.8403E-03     117.345E-03    -59.2057E-03     114.892E-03    -55.8540E-03     116.103E-03
             800     12.7668E-03     90.1509E-03    -23.6777E+06     19.4531E+06    -23.9602E+06    -1.20548E+06    -59.2603E-03     114.965E-03    -55.7051E-03     140.372E-03    -60.7301E-03     116.490E-03    -55.8187E-03     138.834E-03
             801     13.6191E-03     90.3056E-03    -20.3199E+06     74.1639E+06    -2.33342E+06     776.853E+03    -63.0674E-03     118.766E-03    -55.6987E-03     193.532E-03    -66.2033E-03     122.100E-03    -55.7884E-03     191.431E-03
             802     14.4695E-03     90.5409E-03    -16.4015E+06     110.830E+06     51.6534E+06     2.35220E+06    -73.5132E-03     129.399E-03    -55.8855E-03     302.867E-03    -82.4849E-03     138.556E-03    -55.7641E-03     299.657E-03
             803     15.3211E-03     90.9248E-03    -12.8786E+06     143.964E+06     96.7756E+06     1.94191E+06    -84.4952E-03     140.508E-03    -56.0130E-03     424.789E-03    -107.506E-03     163.703E-03    -55.7192E-03     422.773E-03
             804     16.1730E-03     91.4279E-03    -7.78771E+06     164.703E+06     110.983E+06     696.196E+03    -76.0464E-03     132.027E-03    -55.9809E-03     380.109E-03    -100.176E-03     156.392E-03    -55.6535E-03     386.368E-03
             805     850.774E-06     90.2939E-03    -58.6842E+06    -169.851E+06    -58.0054E+06    -1.33950E+06    -56.2496E-03     112.434E-03    -56.1842E-03     9.39355E-03    -56.2138E-03     111.756E-03    -56.1429E-03     9.34120E-03
             806     1.70169E-03     90.3070E-03    -57.2498E+06    -166.002E+06    -54.4850E+06    -2.75846E+06    -56.2010E-03     112.401E-03    -56.1998E-03     17.1960E-03    -56.1721E-03     111.737E-03    -56.1485E-03     17.0937E-03
             807     2.55265E-03     90.3284E-03    -54.9807E+06    -158.138E+06    -48.7985E+06    -3.78169E+06    -56.2449E-03     112.430E-03    -56.1853E-03     25.4272E-03    -56.2298E-03     111.800E-03    -56.1203E-03     25.2759E-03
             808     3.40361E-03     90.3581E-03    -51.9730E+06    -151.191E+06    -41.2758E+06    -4.91255E+06    -56.3379E-03     112.524E-03    -56.1863E-03     33.6247E-03    -56.3373E-03     111.922E-03    -56.0981E-03     33.4183E-03
             809     4.25458E-03     90.3959E-03    -48.4997E+06    -143.129E+06    -34.6537E+06    -6.71826E+06    -56.4348E-03     112.616E-03    -56.1815E-03     41.7350E-03    -56.4505E-03     112.052E-03    -56.0769E-03     41.4591E-03
             810     5.10559E-03     90.4418E-03    -45.2038E+06    -138.566E+06    -29.6894E+06    -8.55729E+06    -56.5337E-03     112.703E-03    -56.1691E-03     49.6886E-03    -56.5639E-03     112.167E-03    -56.0511E-03     49.3357E-03
             811     5.95683E-03     90.4954E-03    -41.9698E+06    -136.070E+06    -25.2499E+06    -9.39936E+06    -56.6779E-03     112.831E-03    -56.1533E-03     57.4542E-03    -56.7253E-03     112.320E-03    -56.0214E-03     57.0285E-03
             812     6.80791E-03     90.5569E-03    -38.1041E+06    -126.060E+06    -21.4017E+06    -10.2119E+06    -56.8398E-03     112.962E-03    -56.1219E-03     65.0781E-03    -56.9192E-03     112.520E-03    -55.9909E-03     64.5702E-03
             813     7.65915E-03     90.6257E-03    -34.3780E+06    -118.306E+06    -18.9588E+06    -10.9829E+06    -57.0225E-03     113.109E-03    -56.0868E-03     72.5555E-03    -57.1401E-03     112.740E-03    -55.9602E-03     71.9534E-03
             814     8.51037E-03     90.7020E-03     -31.416E+06    -110.193E+06    -17.7758E+06    -11.1292E+06    -57.2332E-03     113.280E-03    -56.0465E-03     80.0720E-03    -57.4063E-03     113.002E-03    -55.9300E-03     79.3694E-03
             815     9.36179E-03     90.7858E-03    -28.7689E+06    -98.4131E+06    -16.9516E+06    -10.4388E+06    -57.4720E-03     113.473E-03    -56.0010E-03     87.8644E-03    -57.7279E-03     113.327E-03    -55.9014E-03     87.0544E-03
             816     10.2130E-03     90.8776E-03    -26.4097E+06    -87.5093E+06    -16.2066E+06    -8.85093E+06    -57.6823E-03     113.640E-03    -55.9575E-03     95.5108E-03    -58.0504E-03     113.651E-03    -55.8734E-03     94.5832E-03
             817     11.0646E-03     90.9763E-03    -24.4169E+06    -69.2105E+06    -16.7357E+06    -6.72380E+06    -57.8719E-03     113.767E-03    -55.8953E-03     104.113E-03    -58.4124E-03     114.024E-03    -55.8432E-03     103.046E-03
             818     11.9160E-03     91.0851E-03    -22.5472E+06    -38.1521E+06    -20.3816E+06    -4.03668E+06    -58.2871E-03     114.083E-03    -55.7954E-03     117.437E-03    -59.1234E-03     114.762E-03    -55.8093E-03     116.188E-03
             819     12.7679E-03     91.2103E-03    -21.6502E+06     18.3906E+06    -22.7485E+06    -2.19277E+06    -59.5586E-03     115.232E-03    -55.6734E-03     140.792E-03    -61.0257E-03     116.753E-03    -55.7824E-03     139.230E-03
             820     13.6184E-03     91.3660E-03    -21.7364E+06     71.7093E+06     552.899E+03    -1.00397E+06    -63.2899E-03     118.988E-03    -55.6982E-03     194.314E-03    -66.4533E-03     122.327E-03    -55.7679E-03     192.178E-03
             821     14.4701E-03     91.6015E-03    -19.2561E+06     107.119E+06     51.8589E+06     1.46775E+06    -73.3105E-03     129.184E-03    -55.8735E-03     303.595E-03    -82.3108E-03     138.346E-03    -55.7416E-03     300.390E-03
             822     15.3227E-03     91.9840E-03    -13.0354E+06     145.638E+06     96.5412E+06     2.67663E+06    -84.7993E-03     140.788E-03    -55.9890E-03     425.042E-03    -107.900E-03     164.079E-03    -55.6985E-03     422.949E-03
             823     16.1763E-03     92.4890E-03    -6.35308E+06     166.939E+06     112.498E+06     690.953E+03    -76.0957E-03     132.074E-03    -55.9778E-03     379.066E-03    -100.203E-03     156.425E-03    -55.6482E-03     385.220E-03
             824     850.937E-06     91.3542E-03    -58.2602E+06    -166.049E+06    -57.2044E+06    -1.87697E+06    -56.2097E-03     112.347E-03    -56.1369E-03     9.35989E-03    -56.1785E-03     111.686E-03    -56.0976E-03     9.30050E-03
             825     1.70176E-03     91.3673E-03    -56.4036E+06    -162.679E+06    -52.3982E+06    -3.14944E+06    -56.2254E-03     112.403E-03    -56.1776E-03     17.1796E-03    -56.2001E-03     111.752E-03    -56.1220E-03     17.0722E-03
             826     2.55265E-03     91.3886E-03    -53.9600E+06    -154.899E+06    -47.6359E+06    -4.47914E+06    -56.2454E-03     112.420E-03    -56.1743E-03     25.4179E-03    -56.2316E-03     111.803E-03    -56.1096E-03     25.2577E-03
             827     3.40362E-03     91.4183E-03    -50.7152E+06    -147.584E+06    -41.8124E+06    -6.18802E+06    -56.2932E-03     112.457E-03    -56.1637E-03     33.6552E-03    -56.2908E-03     111.872E-03    -56.0853E-03     33.4327E-03
             828     4.25465E-03     91.4561E-03    -47.0839E+06    -139.009E+06    -34.3877E+06    -7.84355E+06    -56.3758E-03     112.530E-03    -56.1539E-03     41.7569E-03    -56.3907E-03     111.984E-03    -56.0560E-03     41.4669E-03
             829     5.10582E-03     91.5019E-03    -43.7223E+06    -135.374E+06    -27.0849E+06    -8.97746E+06    -56.5068E-03     112.657E-03    -56.1505E-03     49.6517E-03    -56.5380E-03     112.131E-03    -56.0263E-03     49.2932E-03
             830     5.95684E-03     91.5555E-03    -40.5674E+06    -133.007E+06    -23.0167E+06    -10.3109E+06    -56.6461E-03     112.779E-03    -56.1329E-03     57.4183E-03    -56.6941E-03     112.278E-03    -55.9963E-03     56.9809E-03
             831     6.80810E-03     91.6168E-03    -37.5192E+06    -122.617E+06    -21.5721E+06    -12.1209E+06    -56.7671E-03     112.854E-03    -56.0870E-03     65.1156E-03    -56.8481E-03     112.429E-03    -55.9627E-03     64.5840E-03
             832     7.65938E-03     91.6856E-03    -34.3507E+06    -116.448E+06    -20.0168E+06    -13.0537E+06    -56.9507E-03     112.996E-03    -56.0456E-03     72.6647E-03    -57.0690E-03     112.637E-03    -55.9270E-03     72.0373E-03
             833     8.51077E-03     91.7618E-03    -31.1492E+06    -109.011E+06    -18.8653E+06    -13.0397E+06    -57.1643E-03     113.166E-03    -56.0016E-03     80.2041E-03    -57.3360E-03     112.895E-03    -55.8927E-03     79.4784E-03
             834     9.36204E-03     91.8456E-03    -28.4642E+06    -98.9497E+06    -18.1797E+06    -12.2499E+06    -57.3672E-03     113.320E-03    -55.9527E-03     88.0105E-03    -57.6185E-03     113.172E-03    -55.8589E-03     87.1797E-03
             835     10.2137E-03     91.9372E-03    -25.8922E+06    -88.8331E+06    -17.2879E+06    -10.7922E+06    -57.5918E-03     113.497E-03    -55.9052E-03     95.6485E-03    -57.9531E-03     113.501E-03    -55.8253E-03     94.6988E-03
             836     11.0650E-03     92.0360E-03    -23.0787E+06    -71.3128E+06    -17.3433E+06    -9.01928E+06    -57.8623E-03     113.706E-03    -55.8441E-03     104.123E-03    -58.3920E-03     113.951E-03    -55.7940E-03     103.028E-03
             837     11.9168E-03     92.1445E-03    -20.3352E+06    -42.1010E+06    -20.4766E+06    -6.33069E+06    -58.3481E-03     114.101E-03    -55.7530E-03     117.285E-03    -59.1683E-03     114.759E-03    -55.7649E-03     116.005E-03
             838     12.7681E-03     92.2699E-03    -19.0547E+06     14.9275E+06    -22.6289E+06    -1.95706E+06    -59.6124E-03     115.248E-03    -55.6354E-03     141.326E-03    -61.0629E-03     116.749E-03    -55.7425E-03     139.768E-03
             839     13.6195E-03     92.4276E-03    -19.9346E+06     69.4551E+06     3.58674E+06     1.55731E+06    -63.0262E-03     118.695E-03    -55.6685E-03     194.378E-03    -66.1781E-03     122.012E-03    -55.7224E-03     192.294E-03
             840     14.4716E-03     92.6597E-03    -18.3492E+06     105.783E+06     55.2113E+06     1.86524E+06    -73.5000E-03     129.347E-03    -55.8466E-03     303.081E-03    -82.4832E-03     138.480E-03    -55.6974E-03     299.853E-03
             841     15.3233E-03     93.0452E-03    -12.3650E+06     146.060E+06     96.5152E+06     1.12339E+06    -85.4659E-03     141.441E-03    -55.9752E-03     424.388E-03    -108.602E-03     164.771E-03    -55.6864E-03     422.171E-03
             842     16.1710E-03     93.5477E-03    -4.52096E+06     168.191E+06     113.283E+06     1.12510E+06    -75.0938E-03     131.064E-03    -55.9707E-03     377.220E-03    -99.0729E-03     155.296E-03    -55.6416E-03     383.371E-03
             843     850.891E-06     92.4145E-03    -56.8823E+06    -161.678E+06    -55.8014E+06    -1.98476E+06    -56.1613E-03     112.290E-03    -56.1286E-03     9.36309E-03    -56.1315E-03     111.647E-03    -56.0907E-03     9.30221E-03
             844     1.70181E-03     92.4276E-03    -55.4121E+06    -159.005E+06    -51.9658E+06    -3.47778E+06    -56.2011E-03     112.348E-03    -56.1469E-03     17.1615E-03    -56.1768E-03     111.713E-03    -56.0958E-03     17.0501E-03
             845     2.55269E-03     92.4489E-03    -52.8725E+06    -150.532E+06    -46.9328E+06    -5.38163E+06    -56.2109E-03     112.354E-03    -56.1435E-03     25.4176E-03    -56.1990E-03     111.756E-03    -56.0832E-03     25.2458E-03
             846     3.40372E-03     92.4784E-03    -50.1256E+06    -143.315E+06    -40.7213E+06    -7.29424E+06    -56.2429E-03     112.376E-03    -56.1327E-03     33.6767E-03    -56.2453E-03     111.809E-03    -56.0558E-03     33.4400E-03
             847     4.25485E-03     92.5162E-03    -47.4724E+06    -135.614E+06    -34.0085E+06    -8.47565E+06    -56.3263E-03     112.445E-03    -56.1190E-03     41.7599E-03    -56.3487E-03     111.916E-03    -56.0236E-03     41.4620E-03
             848     5.10589E-03     92.5620E-03    -44.3019E+06    -131.865E+06    -27.4057E+06    -9.74581E+06    -56.4500E-03     112.560E-03    -56.1101E-03     49.6788E-03    -56.4886E-03     112.053E-03    -55.9916E-03     49.3110E-03
             849     5.95710E-03     92.6155E-03    -40.4081E+06    -128.693E+06    -22.9936E+06    -11.7146E+06    -56.5654E-03     112.653E-03    -56.0879E-03     57.4645E-03    -56.6187E-03     112.173E-03    -55.9577E-03     57.0100E-03
             850     6.80838E-03     92.6766E-03    -36.6509E+06    -118.598E+06    -21.3989E+06    -13.5917E+06    -56.6838E-03     112.721E-03    -56.0370E-03     65.1915E-03    -56.7663E-03     112.314E-03    -55.9189E-03     64.6423E-03
             851     7.65980E-03     92.7454E-03    -33.5712E+06    -113.979E+06    -20.0531E+06    -14.8517E+06    -56.8673E-03     112.860E-03    -55.9923E-03     72.7645E-03    -56.9850E-03     112.512E-03    -55.8786E-03     72.1155E-03
             852     8.51112E-03     92.8215E-03    -30.9084E+06    -107.795E+06    -19.1820E+06    -15.0524E+06    -57.0678E-03     113.013E-03    -55.9450E-03     80.3223E-03    -57.2391E-03     112.747E-03    -55.8397E-03     79.5727E-03
             853     9.36272E-03     92.9052E-03    -28.1853E+06    -99.0660E+06    -18.7146E+06    -14.3321E+06    -57.2831E-03     113.176E-03    -55.8930E-03     88.0988E-03    -57.5315E-03     113.027E-03    -55.8020E-03     87.2433E-03
             854     10.2141E-03     92.9967E-03    -25.5311E+06    -89.5819E+06    -18.1474E+06    -13.1753E+06    -57.5444E-03     113.388E-03    -55.8432E-03     95.7972E-03    -57.9008E-03     113.388E-03    -55.7670E-03     94.8192E-03
             855     11.0657E-03     93.0957E-03    -23.1529E+06    -72.8030E+06    -18.2036E+06    -11.7167E+06    -57.9021E-03     113.689E-03    -55.7869E-03     104.321E-03    -58.4286E-03     113.928E-03    -55.7388E-03     103.192E-03
             856     11.9169E-03     93.2041E-03    -21.0996E+06    -45.9989E+06    -21.7817E+06    -9.29868E+06    -58.4310E-03     114.136E-03    -55.7053E-03     117.560E-03    -59.2495E-03     114.780E-03    -55.7169E-03     116.239E-03
             857     12.7684E-03     93.3298E-03    -19.4372E+06     6.09542E+06    -26.2276E+06    -3.27667E+06    -59.4114E-03     114.991E-03    -55.5796E-03     141.932E-03    -60.8416E-03     116.450E-03    -55.6914E-03     140.369E-03
             858     13.6203E-03     93.4871E-03    -17.9087E+06     65.7481E+06    -4.80843E+06     3.07777E+06    -63.0624E-03     118.634E-03    -55.5719E-03     194.639E-03    -66.1833E-03     121.939E-03    -55.6653E-03     192.576E-03
             859     14.4716E-03     93.7196E-03    -15.4476E+06     109.889E+06     49.3000E+06     3.41171E+06    -73.8641E-03     129.622E-03    -55.7580E-03     303.921E-03    -82.8629E-03     138.813E-03    -55.6484E-03     300.696E-03
             860     15.3213E-03     94.1067E-03    -10.9052E+06     146.678E+06     96.8518E+06     1.53025E+06    -84.6682E-03     140.558E-03    -55.8899E-03     428.069E-03    -107.940E-03     164.031E-03    -55.6025E-03     426.126E-03
             861     16.1760E-03     94.6093E-03    -5.32977E+06     167.984E+06     113.630E+06     1.26821E+06    -75.2516E-03     131.095E-03    -55.8431E-03     378.846E-03    -99.3095E-03     155.401E-03    -55.5108E-03     385.181E-03
             862     850.915E-06     93.4747E-03    -56.4387E+06    -157.081E+06    -55.7076E+06    -2.11035E+06    -56.1349E-03     112.232E-03    -56.0970E-03     9.39522E-03    -56.1098E-03     111.611E-03    -56.0659E-03     9.33277E-03
             863     1.70183E-03     93.4879E-03    -54.4515E+06    -154.085E+06    -51.3173E+06    -4.27627E+06    -56.1203E-03     112.228E-03    -56.1073E-03     17.1927E-03    -56.0992E-03     111.615E-03    -56.0615E-03     17.0711E-03
             864     2.55287E-03     93.5090E-03    -51.7883E+06    -145.702E+06    -45.4474E+06    -6.37198E+06    -56.1515E-03     112.247E-03    -56.0957E-03     25.4170E-03    -56.1433E-03     111.670E-03    -56.0366E-03     25.2327E-03
             865     3.40391E-03     93.5386E-03    -48.8784E+06    -139.329E+06    -38.3343E+06    -7.64592E+06    -56.2058E-03     112.296E-03    -56.0906E-03     33.6528E-03    -56.2112E-03     111.745E-03    -56.0094E-03     33.4118E-03
             866     4.25494E-03     93.5762E-03    -45.6403E+06    -132.054E+06    -32.5568E+06    -8.89967E+06    -56.2640E-03     112.336E-03    -56.0718E-03     41.7859E-03    -56.2844E-03     111.820E-03    -55.9769E-03     41.4832E-03
             867     5.10620E-03     93.6220E-03    -42.1255E+06    -127.331E+06    -26.9527E+06    -10.7749E+06    -56.3469E-03     112.396E-03    -56.0496E-03     49.7405E-03    -56.3817E-03     111.908E-03    -55.9386E-03     49.3608E-03
             868     5.95747E-03     93.6753E-03    -38.6608E+06    -123.584E+06    -21.7405E+06    -13.2076E+06    -56.4690E-03     112.493E-03    -56.0240E-03     57.5169E-03    -56.5226E-03     112.034E-03    -55.8974E-03     57.0443E-03
             869     6.80883E-03     93.7363E-03    -35.3469E+06    -114.618E+06    -19.7122E+06    -15.1906E+06    -56.6084E-03     112.583E-03    -55.9742E-03     65.2655E-03    -56.6924E-03     112.191E-03    -55.8553E-03     64.6970E-03
             870     7.66021E-03     93.8050E-03    -32.6942E+06    -111.235E+06    -19.0123E+06    -15.9493E+06    -56.7681E-03     112.694E-03    -55.9259E-03     72.8667E-03    -56.8864E-03     112.356E-03    -55.8122E-03     72.2058E-03
             871     8.51182E-03     93.8810E-03    -30.5292E+06    -105.735E+06    -18.6946E+06    -16.4982E+06    -56.9560E-03     112.829E-03    -55.8733E-03     80.4674E-03    -57.1285E-03     112.572E-03    -55.7691E-03     79.7021E-03
             872     9.36326E-03     93.9647E-03    -28.1751E+06    -98.5567E+06    -18.6958E+06    -16.5923E+06    -57.1992E-03     113.018E-03    -55.8186E-03     88.3083E-03    -57.4477E-03     112.871E-03    -55.7283E-03     87.4266E-03
             873     10.2149E-03     94.0561E-03    -25.6815E+06    -90.0063E+06    -18.8666E+06    -15.5647E+06    -57.4757E-03     113.241E-03    -55.7653E-03     96.1536E-03    -57.8304E-03     113.240E-03    -55.6919E-03     95.1486E-03
             874     11.0664E-03     94.1552E-03    -23.3706E+06    -73.9388E+06    -18.8496E+06    -13.9513E+06    -57.8129E-03     113.521E-03    -55.7083E-03     104.927E-03    -58.3373E-03     113.755E-03    -55.6614E-03     103.774E-03
             875     11.9180E-03     94.2640E-03    -21.7212E+06    -49.3510E+06    -22.6296E+06    -11.3166E+06    -58.3383E-03     113.964E-03    -55.6257E-03     118.224E-03    -59.1539E-03     114.593E-03    -55.6357E-03     116.882E-03
             876     12.7697E-03     94.3890E-03    -20.8278E+06    -4.14106E+06    -29.0438E+06    -5.49223E+06    -59.3236E-03     114.821E-03    -55.4977E-03     142.391E-03    -60.7426E-03     116.236E-03    -55.6068E-03     140.804E-03
             877     13.6217E-03     94.5465E-03    -18.4457E+06     59.3257E+06    -14.8373E+06     934.061E+03    -63.0129E-03     118.453E-03    -55.4400E-03     196.398E-03    -66.1246E-03     121.753E-03    -55.5734E-03     194.311E-03
             878     14.4723E-03     94.7817E-03    -14.9176E+06     112.804E+06     38.7683E+06     2.70400E+06    -72.9360E-03     128.507E-03    -55.5710E-03     306.097E-03    -81.9449E-03     137.751E-03    -55.5191E-03     302.965E-03
             879     15.3276E-03     95.1654E-03    -10.9022E+06     146.960E+06     94.0909E+06     2.20028E+06    -83.3380E-03     139.018E-03    -55.6800E-03     428.445E-03    -106.484E-03     162.374E-03    -55.4068E-03     426.626E-03
             880     16.1844E-03     95.6686E-03    -7.19761E+06     168.564E+06     113.928E+06     1.69698E+06    -76.9217E-03     132.586E-03    -55.6644E-03     378.894E-03    -100.931E-03     156.838E-03    -55.3287E-03     385.015E-03
             881     850.907E-06     94.5350E-03    -55.8763E+06    -151.354E+06    -55.1607E+06    -2.92116E+06    -56.0708E-03     112.109E-03    -56.0378E-03     9.33396E-03    -56.0519E-03     111.515E-03    -56.0131E-03     9.26127E-03
             882     1.70198E-03     94.5479E-03    -53.9709E+06    -148.163E+06    -50.4749E+06    -5.25272E+06    -56.0383E-03     112.081E-03    -56.0432E-03     17.1896E-03    -56.0246E-03     111.497E-03    -56.0025E-03     17.0556E-03
             883     2.55300E-03     94.5692E-03    -51.4726E+06    -140.903E+06    -44.8320E+06    -7.10122E+06    -56.0747E-03     112.102E-03    -56.0274E-03     25.4421E-03    -56.0728E-03     111.547E-03    -55.9726E-03     25.2489E-03
             884     3.40405E-03     94.5986E-03    -48.2372E+06    -135.241E+06    -38.3577E+06    -8.63824E+06    -56.1196E-03     112.136E-03    -56.0164E-03     33.6886E-03    -56.1276E-03     111.604E-03    -55.9421E-03     33.4356E-03
             885     4.25531E-03     94.6361E-03    -44.3353E+06    -127.679E+06    -31.9117E+06    -10.3102E+06    -56.1589E-03     112.153E-03    -55.9942E-03     41.8488E-03    -56.1799E-03     111.656E-03    -55.9043E-03     41.5290E-03
             886     5.10657E-03     94.6817E-03    -40.4862E+06    -122.615E+06    -25.6589E+06    -12.0766E+06    -56.2360E-03     112.204E-03    -55.9681E-03     49.8035E-03    -56.2710E-03     111.735E-03    -55.8599E-03     49.4086E-03
             887     5.95796E-03     94.7350E-03    -36.8932E+06    -117.765E+06    -20.2541E+06    -14.3834E+06    -56.3555E-03     112.292E-03    -55.9368E-03     57.6231E-03    -56.4105E-03     111.857E-03    -55.8138E-03     57.1376E-03
             888     6.80937E-03     94.7959E-03    -33.8872E+06    -110.812E+06    -17.5399E+06    -16.2173E+06    -56.4845E-03     112.374E-03    -55.8891E-03     65.3908E-03    -56.5694E-03     111.996E-03    -55.7670E-03     64.8115E-03
             889     7.66097E-03     94.8644E-03    -31.2166E+06    -108.621E+06    -17.0550E+06    -16.8988E+06    -56.6397E-03     112.476E-03    -55.8366E-03     73.0489E-03    -56.7567E-03     112.146E-03    -55.7191E-03     72.3789E-03
             890     8.51249E-03     94.9404E-03    -28.8408E+06    -102.728E+06    -17.0557E+06    -17.4909E+06    -56.8267E-03     112.604E-03    -55.7769E-03     80.7491E-03    -56.9966E-03     112.356E-03    -55.6714E-03     79.9750E-03
             891     9.36429E-03     95.0240E-03    -26.9879E+06    -97.0549E+06    -17.3986E+06    -17.9682E+06    -57.0652E-03     112.784E-03    -55.7188E-03     88.6794E-03    -57.3109E-03     112.640E-03    -55.6259E-03     87.7847E-03
             892     10.2159E-03     95.1154E-03    -25.1555E+06    -89.8518E+06    -18.9841E+06    -17.6413E+06    -57.3291E-03     112.985E-03    -55.6562E-03     96.6471E-03    -57.6800E-03     112.983E-03    -55.5844E-03     95.6213E-03
             893     11.0677E-03     95.2145E-03    -23.0353E+06    -75.1615E+06    -19.5495E+06    -16.1961E+06    -57.6146E-03     113.206E-03    -55.5911E-03     105.517E-03    -58.1327E-03     113.432E-03    -55.5465E-03     104.343E-03
             894     11.9196E-03     95.3232E-03    -21.2927E+06    -53.4218E+06    -23.0092E+06    -12.8418E+06    -58.1997E-03     113.707E-03    -55.5072E-03     118.814E-03    -59.0045E-03     114.313E-03    -55.5139E-03     117.461E-03
             895     12.7711E-03     95.4486E-03    -20.0602E+06    -12.6028E+06    -29.8837E+06    -7.34745E+06    -59.3588E-03     114.743E-03    -55.3846E-03     142.746E-03    -60.7658E-03     116.121E-03    -55.4866E-03     141.133E-03
             896     13.6229E-03     95.6054E-03    -18.9196E+06     51.9308E+06    -17.6320E+06    -1.55254E+06    -62.4573E-03     117.763E-03    -55.3059E-03     196.789E-03    -65.5351E-03     121.009E-03    -55.4419E-03     194.705E-03
             897     14.4771E-03     95.8415E-03    -17.4810E+06     111.246E+06     35.0082E+06     2.05888E+06    -72.5174E-03     127.929E-03    -55.4117E-03     304.588E-03    -81.4684E-03     137.111E-03    -55.3726E-03     301.462E-03
             898     15.3300E-03     96.2220E-03    -14.3395E+06     148.338E+06     91.9411E+06     1.99311E+06    -84.6862E-03     140.279E-03    -55.5931E-03     423.112E-03    -107.494E-03     163.296E-03    -55.3277E-03     420.952E-03
             899     16.1787E-03     96.7266E-03    -7.91147E+06     169.780E+06     114.128E+06     485.160E+03    -76.3354E-03     131.983E-03    -55.6480E-03     377.683E-03    -100.169E-03     156.061E-03    -55.3121E-03     383.700E-03
             900     851.048E-06     95.5949E-03    -54.0865E+06    -144.339E+06    -53.2626E+06    -3.48134E+06    -55.9313E-03     111.914E-03    -55.9831E-03     9.30137E-03    -55.9164E-03     111.350E-03    -55.9617E-03     9.22165E-03
             901     1.70206E-03     95.6080E-03    -52.5962E+06    -141.623E+06    -49.4872E+06    -5.90073E+06    -55.9469E-03     111.891E-03    -55.9445E-03     17.2091E-03    -55.9373E-03     111.336E-03    -55.9103E-03     17.0673E-03
             902     2.55321E-03     95.6290E-03    -50.0182E+06    -135.697E+06    -44.2073E+06    -8.03959E+06    -55.9535E-03     111.879E-03    -55.9255E-03     25.5310E-03    -55.9527E-03     111.347E-03    -55.8773E-03     25.3265E-03
             903     3.40448E-03     95.6585E-03    -46.8223E+06    -130.073E+06    -37.5732E+06    -10.0135E+06    -55.9900E-03     111.898E-03    -55.9079E-03     33.7660E-03    -55.9994E-03     111.388E-03    -55.8392E-03     33.4965E-03
             904     4.25571E-03     95.6958E-03    -43.2569E+06    -122.762E+06    -30.9033E+06    -11.9921E+06    -56.0249E-03     111.907E-03    -55.8820E-03     41.9302E-03    -56.0488E-03     111.431E-03    -55.7957E-03     41.5904E-03
             905     5.10714E-03     95.7413E-03    -39.3440E+06    -117.870E+06    -24.4377E+06    -13.7424E+06    -56.0851E-03     111.937E-03    -55.8516E-03     49.9600E-03    -56.1227E-03     111.487E-03    -55.7458E-03     49.5461E-03
             906     5.95860E-03     95.7944E-03    -35.7272E+06    -112.316E+06    -19.1544E+06    -15.5210E+06    -56.1792E-03     111.990E-03    -55.8112E-03     57.8734E-03    -56.2373E-03     111.579E-03    -55.6923E-03     57.3767E-03
             907     6.81024E-03     95.8553E-03    -32.6583E+06    -106.974E+06    -15.8698E+06    -16.9453E+06    -56.2982E-03     112.059E-03    -55.7604E-03     65.6829E-03    -56.3843E-03     111.695E-03    -55.6373E-03     65.0983E-03
             908     7.66189E-03     95.9236E-03    -30.0434E+06    -105.445E+06    -15.3943E+06    -17.9691E+06    -56.4575E-03     112.159E-03    -55.7016E-03     73.4271E-03    -56.5747E-03     111.840E-03    -55.5821E-03     72.7482E-03
             909     8.51377E-03     95.9995E-03    -27.6632E+06    -99.7694E+06    -16.0702E+06    -18.6849E+06    -56.6475E-03     112.280E-03    -55.6326E-03     81.2353E-03    -56.8160E-03     112.043E-03    -55.5281E-03     80.4521E-03
             910     9.36552E-03     96.0829E-03    -25.4783E+06    -94.8450E+06    -16.1424E+06    -19.0146E+06    -56.8852E-03     112.456E-03    -55.5708E-03     89.2518E-03    -57.1269E-03     112.317E-03    -55.4770E-03     88.3507E-03
             911     10.2175E-03     96.1744E-03    -23.6937E+06    -88.6726E+06    -18.4207E+06    -19.0419E+06    -57.1411E-03     112.642E-03    -55.5006E-03     97.2817E-03    -57.4854E-03     112.640E-03    -55.4297E-03     96.2462E-03
             912     11.0694E-03     96.2734E-03    -22.3241E+06    -76.2763E+06    -20.0983E+06    -17.9524E+06    -57.4796E-03     112.910E-03    -55.4305E-03     106.196E-03    -57.9895E-03     113.128E-03    -55.3880E-03     105.008E-03
             913     11.9213E-03     96.3823E-03    -20.8207E+06    -57.9717E+06    -23.6564E+06    -14.8815E+06    -58.1496E-03     113.502E-03    -55.3523E-03     119.566E-03    -58.9429E-03     114.084E-03    -55.3563E-03     118.194E-03
             914     12.7733E-03     96.5080E-03    -19.2266E+06    -20.2920E+06    -30.5048E+06    -9.51469E+06    -59.5099E-03     114.754E-03    -55.2438E-03     143.309E-03    -60.9031E-03     116.095E-03    -55.3390E-03     141.669E-03
             915     13.6250E-03     96.6647E-03    -19.1848E+06     44.7428E+06    -20.4661E+06    -2.10097E+06    -62.8512E-03     118.035E-03    -55.1839E-03     195.325E-03    -65.8917E-03     121.226E-03    -55.3233E-03     193.228E-03
             916     14.4773E-03     96.8973E-03    -18.2695E+06     108.142E+06     29.8456E+06     2.98010E+06    -73.7613E-03     129.093E-03    -55.3318E-03     303.901E-03    -82.7316E-03     138.296E-03    -55.3129E-03     300.666E-03
             917     15.3257E-03     97.2856E-03    -12.5968E+06     151.587E+06     91.6297E+06     2.90176E+06    -85.6062E-03     141.182E-03    -55.5757E-03     425.129E-03    -108.487E-03     164.291E-03    -55.3191E-03     422.957E-03
             918     16.1764E-03     97.7837E-03    -5.16671E+06     172.091E+06     116.694E+06     756.996E+03    -74.7051E-03     130.311E-03    -55.6057E-03     380.346E-03    -98.6973E-03     154.557E-03    -55.2642E-03     386.817E-03
             919     851.141E-06     96.6550E-03    -50.8797E+06    -136.646E+06    -50.1483E+06    -3.50659E+06    -55.7978E-03     111.607E-03    -55.8092E-03     9.40274E-03    -55.7825E-03     111.072E-03    -55.7880E-03     9.32306E-03
             920     1.70234E-03     96.6676E-03    -49.5040E+06    -134.339E+06    -46.8821E+06    -6.53239E+06    -55.8140E-03     111.606E-03    -55.7924E-03     17.2672E-03    -55.8032E-03     111.079E-03    -55.7602E-03     17.1181E-03
             921     2.55361E-03     96.6888E-03    -47.3578E+06    -129.738E+06    -41.7785E+06    -8.88610E+06    -55.8042E-03     111.582E-03    -55.7782E-03     25.6055E-03    -55.8022E-03     111.073E-03    -55.7303E-03     25.3914E-03
             922     3.40490E-03     96.7180E-03    -44.5659E+06    -124.038E+06    -35.4132E+06    -11.1544E+06    -55.8050E-03     111.560E-03    -55.7547E-03     33.8849E-03    -55.8148E-03     111.074E-03    -55.6872E-03     33.6027E-03
             923     4.25638E-03     96.7553E-03    -41.1724E+06    -117.168E+06    -29.1036E+06    -13.3816E+06    -55.8175E-03     111.536E-03    -55.7186E-03     42.1191E-03    -55.8415E-03     111.082E-03    -55.6345E-03     41.7642E-03
             924     5.10795E-03     96.8005E-03    -37.6562E+06    -112.840E+06    -23.1001E+06    -15.2889E+06    -55.8532E-03     111.530E-03    -55.6768E-03     50.2468E-03    -55.8911E-03     111.101E-03    -55.5740E-03     49.8167E-03
             925     5.95970E-03     96.8536E-03    -34.0766E+06    -107.541E+06    -18.1753E+06    -16.7858E+06    -55.9206E-03     111.544E-03    -55.6232E-03     58.2589E-03    -55.9780E-03     111.151E-03    -55.5087E-03     57.7512E-03
             926     6.81151E-03     96.9142E-03    -30.8162E+06    -103.170E+06    -14.6705E+06    -17.8531E+06    -56.0336E-03     111.597E-03    -55.5629E-03     66.1709E-03    -56.1166E-03     111.246E-03    -55.4420E-03     65.5812E-03
             927     7.66349E-03     96.9825E-03    -28.0530E+06    -101.617E+06    -13.4571E+06    -18.8349E+06    -56.2002E-03     111.698E-03    -55.4976E-03     74.0353E-03    -56.3144E-03     111.391E-03    -55.3769E-03     73.3530E-03
             928     8.51542E-03     97.0582E-03    -25.7135E+06    -96.6536E+06    -14.3932E+06    -19.8678E+06    -56.3934E-03     111.814E-03    -55.4202E-03     81.9838E-03    -56.5574E-03     111.585E-03    -55.3148E-03     81.1943E-03
             929     9.36761E-03     97.1417E-03    -23.6798E+06    -92.6549E+06    -14.5740E+06    -20.2361E+06    -56.6428E-03     111.995E-03    -55.3525E-03     90.1526E-03    -56.8787E-03     111.861E-03    -55.2567E-03     89.2463E-03
             930     10.2197E-03     97.2330E-03    -22.1086E+06    -87.0622E+06    -16.8750E+06    -19.9990E+06    -56.9709E-03     112.251E-03    -55.2801E-03     98.2731E-03    -57.3099E-03     112.251E-03    -55.2062E-03     97.2355E-03
             931     11.0718E-03     97.3321E-03    -20.9884E+06    -76.8559E+06    -19.2431E+06    -18.9893E+06    -57.4308E-03     112.645E-03    -55.2139E-03     107.304E-03    -57.9327E-03     112.855E-03    -55.1682E-03     106.112E-03
             932     11.9238E-03     97.4412E-03    -20.1319E+06    -61.0945E+06    -22.9273E+06    -16.6169E+06    -58.2570E-03     113.409E-03    -55.1519E-03     120.743E-03    -59.0436E-03     113.974E-03    -55.1487E-03     119.355E-03
             933     12.7754E-03     97.5671E-03    -19.8504E+06    -28.5506E+06    -31.2387E+06    -11.2154E+06    -59.7347E-03     114.799E-03    -55.0640E-03     144.542E-03    -61.1184E-03     116.101E-03    -55.1500E-03     142.884E-03
             934     13.6264E-03     97.7248E-03    -19.3211E+06     35.1865E+06    -28.2102E+06    -2.70216E+06    -63.7313E-03     118.738E-03    -55.0067E-03     197.063E-03    -66.7798E-03     121.925E-03    -55.1707E-03     194.925E-03
             935     14.4762E-03     97.9572E-03    -16.4580E+06     105.928E+06     18.4339E+06     2.08486E+06    -74.4910E-03     129.646E-03    -55.1555E-03     307.881E-03    -83.5849E-03     139.005E-03    -55.1931E-03     304.596E-03
             936     15.3304E-03     98.3474E-03    -11.4273E+06     153.308E+06     86.9601E+06     1.46843E+06    -83.8997E-03     139.274E-03    -55.3744E-03     428.495E-03    -106.794E-03     162.420E-03    -55.1453E-03     426.661E-03
             937     16.1876E-03     98.8448E-03    -5.74834E+06     172.443E+06     117.330E+06     1.02728E+06    -73.8987E-03     129.254E-03    -55.3552E-03     381.084E-03    -97.8000E-03     153.407E-03    -55.0103E-03     387.794E-03
             938     851.365E-06     97.7142E-03    -45.4241E+06    -128.503E+06    -45.0444E+06    -3.61811E+06    -55.6508E-03     111.183E-03    -55.5319E-03     9.39797E-03    -55.6275E-03     110.673E-03    -55.5049E-03     9.31783E-03
             939     1.70273E-03     97.7272E-03    -44.3138E+06    -126.519E+06    -41.2163E+06    -6.70453E+06    -55.6026E-03     111.185E-03    -55.5828E-03     17.3449E-03    -55.5853E-03     110.681E-03    -55.5412E-03     17.1949E-03
             940     2.55406E-03     97.7480E-03    -42.3890E+06    -123.154E+06    -36.6092E+06    -9.36067E+06    -55.5763E-03     111.142E-03    -55.5658E-03     25.7354E-03    -55.5663E-03     110.651E-03    -55.5088E-03     25.5170E-03
             941     3.40568E-03     97.7772E-03    -39.7761E+06    -117.167E+06    -31.5789E+06    -12.0289E+06    -55.5304E-03     111.056E-03    -55.5257E-03     34.1356E-03    -55.5315E-03     110.592E-03    -55.4560E-03     33.8451E-03
             942     4.25737E-03     97.8142E-03    -36.9109E+06    -111.437E+06    -26.1245E+06    -14.2690E+06    -55.5173E-03     110.991E-03    -55.4736E-03     42.4433E-03    -55.5321E-03     110.555E-03    -55.3892E-03     42.0813E-03
             943     5.10925E-03     97.8594E-03    -34.1612E+06    -107.360E+06    -20.7099E+06    -16.0348E+06    -55.5263E-03     110.943E-03    -55.4162E-03     50.6678E-03    -55.5574E-03     110.531E-03    -55.3146E-03     50.2340E-03
             944     5.96122E-03     97.9121E-03    -31.4596E+06    -102.672E+06    -16.4668E+06    -17.8354E+06    -55.5647E-03     110.912E-03    -55.3470E-03     58.8235E-03    -55.6173E-03     110.536E-03    -55.2348E-03     58.3099E-03
             945     6.81344E-03     97.9727E-03    -28.5572E+06    -99.4755E+06    -13.1071E+06    -18.9423E+06    -55.6606E-03     110.934E-03    -55.2737E-03     66.8892E-03    -55.7382E-03     110.595E-03    -55.1536E-03     66.2950E-03
             946     7.66566E-03     98.0407E-03    -25.5901E+06    -97.3925E+06    -11.1158E+06    -20.0052E+06    -55.8131E-03     111.010E-03    -55.1973E-03     74.9335E-03    -55.9223E-03     110.715E-03    -55.0745E-03     74.2476E-03
             947     8.51811E-03     98.1165E-03    -23.0820E+06    -93.4899E+06    -11.7125E+06    -20.8411E+06    -56.0157E-03     111.126E-03    -55.1103E-03     83.0773E-03    -56.1723E-03     110.903E-03    -54.9998E-03     82.2884E-03
             948     9.37048E-03     98.1997E-03    -21.4345E+06    -90.4516E+06    -12.3601E+06    -20.9284E+06    -56.3199E-03     111.353E-03    -55.0333E-03     91.4723E-03    -56.5479E-03     111.220E-03    -54.9329E-03     90.5720E-03
             949     10.2230E-03     98.2912E-03    -20.2321E+06    -85.4747E+06    -14.8288E+06    -20.7128E+06    -56.7632E-03     111.723E-03    -54.9596E-03     99.8489E-03    -57.0951E-03     111.722E-03    -54.8805E-03     98.8170E-03
             950     11.0751E-03     98.3904E-03    -19.4285E+06    -77.1676E+06    -17.7880E+06    -19.5512E+06    -57.3855E-03     112.287E-03    -54.9011E-03     109.143E-03    -57.8794E-03     112.489E-03    -54.8500E-03     107.957E-03
             951     11.9272E-03     98.4999E-03    -19.0097E+06    -63.1833E+06    -21.4773E+06    -17.2151E+06    -58.3726E-03     113.231E-03    -54.8581E-03     122.974E-03    -59.1535E-03     113.782E-03    -54.8463E-03     121.589E-03
             952     12.7786E-03     98.6267E-03    -18.9300E+06    -36.6753E+06    -30.5606E+06    -11.9817E+06    -59.9846E-03     114.781E-03    -54.7963E-03     146.852E-03    -61.3575E-03     116.045E-03    -54.8685E-03     145.191E-03
             953     13.6308E-03     98.7841E-03    -18.3628E+06     25.3195E+06    -35.5853E+06    -4.86268E+06    -63.8702E-03     118.586E-03    -54.7158E-03     199.716E-03    -66.9061E-03     121.750E-03    -54.9038E-03     197.559E-03
             954     14.4832E-03     99.0202E-03    -16.4493E+06     102.796E+06     5.01877E+06    -548.812E+03    -73.8903E-03     128.701E-03    -54.8105E-03     310.047E-03    -82.9631E-03     138.066E-03    -54.9106E-03     306.825E-03
             955     15.3339E-03     99.4057E-03    -12.2485E+06     153.494E+06     80.1425E+06     884.596E+03    -83.2219E-03     138.255E-03    -55.0335E-03     427.867E-03    -106.012E-03     161.314E-03    -54.8376E-03     426.163E-03
             956     16.1885E-03     99.8971E-03    -5.81406E+06     172.916E+06     117.642E+06     1.41099E+06    -73.8119E-03     128.864E-03    -55.0517E-03     380.443E-03    -97.6195E-03     152.923E-03    -54.7058E-03     387.108E-03
             957     851.553E-06     98.7733E-03    -40.6722E+06    -120.108E+06    -40.1511E+06    -3.99868E+06    -55.3100E-03     110.586E-03    -55.2763E-03     9.40626E-03    -55.2821E-03     110.105E-03    -55.2440E-03     9.32240E-03
             958     1.70317E-03     98.7861E-03    -39.3527E+06    -118.368E+06    -36.3775E+06    -6.87034E+06    -55.2466E-03     110.519E-03    -55.2727E-03     17.5030E-03    -55.2232E-03     110.042E-03    -55.2259E-03     17.3527E-03
             959     2.55498E-03     98.8069E-03    -37.0460E+06    -115.707E+06    -31.8538E+06    -10.1050E+06    -55.2005E-03     110.436E-03    -55.2350E-03     25.9667E-03    -55.1812E-03     109.966E-03    -55.1728E-03     25.7419E-03
             960     3.40682E-03     98.8357E-03    -34.3433E+06    -109.967E+06    -27.4262E+06    -12.8386E+06    -55.1489E-03     110.326E-03    -55.1776E-03     34.4667E-03    -55.1389E-03     109.884E-03    -55.1055E-03     34.1704E-03
             961     4.25889E-03     98.8726E-03    -31.7127E+06    -105.787E+06    -22.3496E+06    -14.8927E+06    -55.0950E-03     110.207E-03    -55.1123E-03     42.8851E-03    -55.0967E-03     109.786E-03    -55.0247E-03     42.5214E-03
             962     5.11112E-03     98.9174E-03    -28.9247E+06    -101.726E+06    -17.0752E+06    -16.5947E+06    -55.0603E-03     110.097E-03    -55.0368E-03     51.2675E-03    -55.0774E-03     109.700E-03    -54.9327E-03     50.8349E-03
             963     5.96360E-03     98.9700E-03    -26.3679E+06    -97.7212E+06    -12.7394E+06    -18.0268E+06    -55.0702E-03     110.021E-03    -54.9504E-03     59.6204E-03    -55.1082E-03     109.655E-03    -54.8342E-03     59.1149E-03
             964     6.81616E-03     99.0303E-03    -24.2950E+06    -95.1156E+06    -9.95223E+06    -19.4219E+06    -55.1309E-03     109.988E-03    -54.8571E-03     67.9293E-03    -55.1958E-03     109.658E-03    -54.7337E-03     67.3421E-03
             965     7.66898E-03     99.0983E-03    -22.2057E+06    -92.8623E+06    -8.45437E+06    -20.9419E+06    -55.2524E-03     110.012E-03    -54.7595E-03     76.2354E-03    -55.3520E-03     109.727E-03    -54.6349E-03     75.5536E-03
             966     8.52183E-03     99.1737E-03    -20.5173E+06    -91.1769E+06    -9.38446E+06    -21.2310E+06    -55.4795E-03     110.137E-03    -54.6576E-03     84.6497E-03    -55.6261E-03     109.914E-03    -54.5425E-03     83.8748E-03
             967     9.37484E-03     99.2571E-03    -19.2905E+06    -87.5926E+06    -10.4908E+06    -21.2585E+06    -55.8580E-03     110.424E-03    -54.5663E-03     93.4075E-03    -56.0776E-03     110.295E-03    -54.4638E-03     92.5240E-03
             968     10.2276E-03     99.3487E-03    -18.3416E+06    -84.2363E+06    -13.1200E+06    -21.0868E+06    -56.4326E-03     110.924E-03    -54.4910E-03     102.184E-03    -56.7548E-03     110.920E-03    -54.4078E-03     101.170E-03
             969     11.0803E-03     99.4484E-03    -17.8162E+06    -77.4346E+06    -16.8178E+06    -19.7036E+06    -57.2066E-03     111.643E-03    -54.4367E-03     111.849E-03    -57.6900E-03     111.837E-03    -54.3827E-03     110.683E-03
             970     11.9324E-03     99.5585E-03    -17.9133E+06    -65.3851E+06    -20.5664E+06    -17.1596E+06    -58.3622E-03     112.772E-03    -54.4102E-03     126.061E-03    -59.1341E-03     113.308E-03    -54.3922E-03     124.696E-03
             971     12.7846E-03     99.6859E-03    -17.5045E+06    -43.1871E+06    -29.3628E+06    -13.1574E+06    -60.2983E-03     114.678E-03    -54.3801E-03     150.097E-03    -61.6625E-03     115.912E-03    -54.4389E-03     148.430E-03
             972     13.6348E-03     99.8445E-03    -16.5086E+06     17.6346E+06    -38.1746E+06    -7.52082E+06    -64.0391E-03     118.346E-03    -54.3068E-03     202.465E-03    -67.0660E-03     121.487E-03    -54.4993E-03     200.289E-03
             973     14.4859E-03     100.078E-03    -14.7133E+06     98.0359E+06    -4.53733E+06    -1.76672E+06    -73.4433E-03     127.805E-03    -54.3621E-03     311.607E-03    -82.4396E-03     137.111E-03    -54.5056E-03     308.461E-03
             974     15.3426E-03     100.465E-03    -11.4971E+06     152.769E+06     73.6922E+06     1.38791E+06    -83.7900E-03     138.395E-03    -54.6051E-03     429.708E-03    -106.796E-03     161.689E-03    -54.4415E-03     427.986E-03
             975     16.1948E-03     100.960E-03    -6.17045E+06     173.708E+06     117.942E+06     1.45655E+06    -74.4406E-03     129.140E-03    -54.6997E-03     380.708E-03    -98.4404E-03     153.393E-03    -54.3530E-03     387.310E-03
             976     851.938E-06     99.8316E-03    -37.2072E+06    -111.214E+06    -36.6639E+06    -4.20532E+06    -54.8188E-03     109.628E-03    -54.8095E-03     9.63515E-03    -54.7915E-03     109.181E-03    -54.7776E-03     9.54991E-03
             977     1.70401E-03     99.8442E-03    -36.0487E+06    -109.808E+06    -34.1387E+06    -7.45029E+06    -54.7454E-03     109.528E-03    -54.7827E-03     17.7479E-03    -54.7210E-03     109.085E-03    -54.7419E-03     17.5931E-03
             978     2.55616E-03     99.8648E-03    -34.0794E+06    -107.092E+06    -29.7278E+06    -11.0376E+06    -54.6713E-03     109.405E-03    -54.7336E-03     26.3110E-03    -54.6525E-03     108.971E-03    -54.6775E-03     26.0788E-03
             979     3.40851E-03     99.8934E-03    -31.6417E+06    -102.882E+06    -24.9955E+06    -13.9923E+06    -54.5755E-03     109.241E-03    -54.6651E-03     34.9436E-03    -54.5651E-03     108.825E-03    -54.5951E-03     34.6389E-03
             980     4.26103E-03     99.9300E-03    -28.9462E+06    -100.058E+06    -20.1407E+06    -15.8313E+06    -54.4737E-03     109.055E-03    -54.5810E-03     43.5527E-03    -54.4720E-03     108.653E-03    -54.4947E-03     43.1857E-03
             981     5.11386E-03     99.9745E-03    -26.2019E+06    -95.9346E+06    -15.4130E+06    -17.5419E+06    -54.3928E-03     108.873E-03    -54.4802E-03     52.1666E-03    -54.4054E-03     108.497E-03    -54.3802E-03     51.7334E-03
             982     5.96687E-03     100.027E-03    -23.3377E+06    -93.3818E+06    -11.1057E+06    -18.8008E+06    -54.3548E-03     108.726E-03    -54.3708E-03     60.7708E-03    -54.3840E-03     108.373E-03    -54.2571E-03     60.2700E-03
             983     6.82020E-03     100.087E-03    -20.4954E+06    -90.1017E+06    -7.87707E+06    -19.8958E+06    -54.3716E-03     108.623E-03    -54.2514E-03     69.3749E-03    -54.4243E-03     108.306E-03    -54.1304E-03     68.8001E-03
             984     7.67365E-03     100.155E-03    -18.5474E+06    -88.7249E+06    -6.18030E+06    -21.0055E+06    -54.4842E-03     108.615E-03    -54.1308E-03     78.0051E-03    -54.5703E-03     108.338E-03    -54.0061E-03     77.3446E-03
             985     8.52733E-03     100.230E-03    -17.1304E+06    -89.0124E+06    -7.20268E+06    -21.2495E+06    -54.7518E-03     108.762E-03    -54.0105E-03     86.8106E-03    -54.8822E-03     108.537E-03    -53.8926E-03     86.0610E-03
             986     9.38089E-03     100.313E-03    -16.0191E+06    -84.6697E+06    -8.42717E+06    -21.2204E+06    -55.2126E-03     109.116E-03    -53.9033E-03     96.0035E-03    -55.4166E-03     108.987E-03    -53.7994E-03     95.1487E-03
             987     10.2345E-03     100.405E-03    -15.6867E+06    -83.2592E+06    -10.8788E+06    -20.6852E+06    -55.9288E-03     109.756E-03    -53.8271E-03     105.270E-03    -56.2356E-03     109.743E-03    -53.7380E-03     104.290E-03
             988     11.0874E-03     100.506E-03    -16.0301E+06    -77.5348E+06    -15.6553E+06    -19.3021E+06    -56.8810E-03     110.656E-03    -53.7751E-03     115.298E-03    -57.3510E-03     110.839E-03    -53.7177E-03     114.166E-03
             989     11.9403E-03     100.616E-03    -16.0828E+06    -67.5208E+06    -19.3715E+06    -17.1167E+06    -58.2640E-03     112.031E-03    -53.7669E-03     129.955E-03    -59.0221E-03     112.548E-03    -53.7425E-03     128.618E-03
             990     12.7917E-03     100.745E-03    -16.4123E+06    -47.3293E+06    -28.5623E+06    -14.0674E+06    -60.4156E-03     114.177E-03    -53.7618E-03     154.605E-03    -61.7720E-03     115.390E-03    -53.8121E-03     152.952E-03
             991     13.6438E-03     100.905E-03    -16.2664E+06     11.5112E+06    -36.0290E+06    -9.79284E+06    -64.3965E-03     118.127E-03    -53.7302E-03     206.267E-03    -67.4356E-03     121.253E-03    -53.9035E-03     204.079E-03
             992     14.4965E-03     101.139E-03    -15.1898E+06     91.3962E+06    -10.6304E+06    -3.57111E+06    -74.3509E-03     128.150E-03    -53.7996E-03     313.413E-03    -83.3695E-03     137.471E-03    -53.9632E-03     310.207E-03
             993     15.3481E-03     101.523E-03    -12.3925E+06     150.688E+06     65.2265E+06     705.889E+03    -84.2157E-03     138.292E-03    -54.0761E-03     431.551E-03    -107.369E-03     161.747E-03    -53.9505E-03     429.878E-03
             994     16.2024E-03     102.023E-03    -6.55084E+06     174.373E+06     117.919E+06     1.09303E+06    -75.0360E-03     129.285E-03    -54.2490E-03     380.378E-03    -99.0162E-03     153.519E-03    -53.9027E-03     386.927E-03
             995     852.591E-06     100.889E-03    -33.5634E+06    -101.711E+06    -33.3596E+06    -4.43086E+06    -54.1668E-03     108.206E-03    -54.0391E-03     9.76630E-03    -54.1398E-03     107.796E-03    -54.0098E-03     9.68012E-03
             996     1.70519E-03     100.901E-03    -32.3861E+06    -100.292E+06    -30.8518E+06    -8.22117E+06    -54.0577E-03     108.132E-03    -54.0740E-03     18.0513E-03    -54.0334E-03     107.726E-03    -54.0358E-03     17.8905E-03
             997     2.55793E-03     100.922E-03    -30.5708E+06    -97.8585E+06    -26.9579E+06    -12.0267E+06    -53.9230E-03     107.943E-03    -54.0195E-03     26.7778E-03    -53.9036E-03     107.545E-03    -53.9680E-03     26.5391E-03
             998     3.41091E-03     100.950E-03    -28.4946E+06    -95.6580E+06    -22.3225E+06    -14.8178E+06    -53.7526E-03     107.686E-03    -53.9334E-03     35.6206E-03    -53.7400E-03     107.297E-03    -53.8650E-03     35.3139E-03
             999     4.26424E-03     100.986E-03    -26.1224E+06    -93.9659E+06    -18.0776E+06    -16.8787E+06    -53.6027E-03     107.424E-03    -53.8217E-03     44.4757E-03    -53.5973E-03     107.045E-03    -53.7379E-03     44.1068E-03
            1000     5.11777E-03     101.030E-03    -23.6617E+06    -90.1576E+06    -14.5319E+06    -18.5210E+06    -53.4680E-03     107.156E-03    -53.6879E-03     53.3752E-03    -53.4754E-03     106.801E-03    -53.5955E-03     52.9447E-03
            1001     5.97169E-03     101.082E-03    -21.2958E+06    -88.7051E+06    -10.6698E+06    -19.9704E+06    -53.3688E-03     106.917E-03    -53.5486E-03     62.2938E-03    -53.3919E-03     106.581E-03    -53.4424E-03     61.7975E-03
            1002     6.82583E-03     101.142E-03    -19.0935E+06    -85.8728E+06    -7.83595E+06    -20.8529E+06    -53.3395E-03     106.737E-03    -53.3975E-03     71.2659E-03    -53.3868E-03     106.434E-03    -53.2845E-03     70.7028E-03
            1003     7.68031E-03     101.209E-03    -17.1072E+06    -85.1258E+06    -5.35713E+06    -21.1937E+06    -53.4549E-03     106.707E-03    -53.2526E-03     80.3124E-03    -53.5341E-03     106.439E-03    -53.1311E-03     79.6779E-03
            1004     8.53481E-03     101.284E-03    -15.3778E+06    -85.9668E+06    -5.59769E+06    -21.7938E+06    -53.7838E-03     106.897E-03    -53.1135E-03     89.6048E-03    -53.9046E-03     106.674E-03    -52.9945E-03     88.8806E-03
            1005     9.38943E-03     101.368E-03    -14.0669E+06    -83.2458E+06    -7.14433E+06    -21.2791E+06    -54.3615E-03     107.354E-03    -52.9926E-03     99.3227E-03    -54.5512E-03     107.219E-03    -52.8872E-03     98.5028E-03
            1006     10.2436E-03     101.461E-03    -13.4823E+06    -82.4350E+06    -8.57532E+06    -19.9759E+06    -55.2209E-03     108.138E-03    -52.9173E-03     109.135E-03    -55.5121E-03     108.114E-03    -52.8211E-03     108.203E-03
            1007     11.0977E-03     101.562E-03    -13.2318E+06    -77.1775E+06    -12.9743E+06    -18.7939E+06    -56.4824E-03     109.359E-03    -52.8762E-03     119.709E-03    -56.9348E-03     109.528E-03    -52.8100E-03     118.622E-03
            1008     11.9504E-03     101.673E-03    -13.4334E+06    -69.2204E+06    -17.4783E+06    -17.0510E+06    -58.1469E-03     111.040E-03    -52.8928E-03     134.548E-03    -58.8881E-03     111.538E-03    -52.8603E-03     133.245E-03
            1009     12.8035E-03     101.804E-03    -13.9960E+06    -49.8180E+06    -25.8881E+06    -13.9068E+06    -60.5859E-03     113.516E-03    -52.9302E-03     159.249E-03    -61.9286E-03     114.707E-03    -52.9671E-03     157.629E-03
            1010     13.6545E-03     101.965E-03    -15.3967E+06     7.71638E+06    -31.0057E+06    -9.92332E+06    -65.3565E-03     118.336E-03    -52.9792E-03     209.729E-03    -68.4126E-03     121.454E-03    -53.1231E-03     207.533E-03
            1011     14.5047E-03     102.199E-03    -15.4953E+06     84.1503E+06    -7.44964E+06    -5.30516E+06    -75.9148E-03     129.062E-03    -53.1475E-03     315.389E-03    -85.0142E-03     138.427E-03    -53.2843E-03     312.082E-03
            1012     15.3566E-03     102.585E-03    -11.5968E+06     146.442E+06     65.7464E+06    -56.0647E+03    -85.2589E-03     138.764E-03    -53.5051E-03     432.202E-03    -108.465E-03     162.259E-03    -53.3719E-03     430.475E-03
            1013     16.2125E-03     103.079E-03    -5.49302E+06     175.391E+06     118.936E+06     2.00662E+06    -76.1741E-03     129.932E-03    -53.7579E-03     380.762E-03    -100.219E-03     154.235E-03    -53.4095E-03     387.247E-03
            1014     853.376E-06     101.944E-03    -28.8105E+06    -91.3004E+06    -28.5233E+06    -4.99290E+06    -53.1928E-03     106.303E-03    -53.1101E-03     9.96869E-03    -53.1641E-03     105.931E-03    -53.0785E-03     9.87784E-03
            1015     1.70678E-03     101.956E-03    -27.6908E+06    -89.7406E+06    -26.5300E+06    -9.13323E+06    -53.0498E-03     106.158E-03    -53.1078E-03     18.4265E-03    -53.0233E-03     105.791E-03    -53.0702E-03     18.2591E-03
            1016     2.56039E-03     101.976E-03    -26.2065E+06    -88.5959E+06    -23.3765E+06    -12.8187E+06    -52.8658E-03     105.893E-03    -53.0275E-03     27.3638E-03    -52.8425E-03     105.530E-03    -52.9779E-03     27.1227E-03
            1017     3.41436E-03     102.004E-03    -24.2364E+06    -88.1608E+06    -19.5307E+06    -15.5303E+06    -52.6577E-03     105.573E-03    -52.9151E-03     36.4581E-03    -52.6377E-03     105.210E-03    -52.8497E-03     36.1533E-03
            1018     4.26857E-03     102.040E-03    -22.0058E+06    -86.8917E+06    -15.6924E+06    -18.0138E+06    -52.4409E-03     105.216E-03    -52.7750E-03     45.5908E-03    -52.4268E-03     104.861E-03    -52.6956E-03     45.2222E-03
            1019     5.12323E-03     102.084E-03    -19.5017E+06    -84.8334E+06    -12.4715E+06    -19.7350E+06    -52.2338E-03     104.844E-03    -52.6104E-03     54.8020E-03    -52.2281E-03     104.504E-03    -52.5214E-03     54.3749E-03
            1020     5.97819E-03     102.135E-03    -17.1011E+06    -83.4510E+06    -8.62597E+06    -20.8156E+06    -52.0724E-03     104.509E-03    -52.4364E-03     64.0912E-03    -52.0808E-03     104.185E-03    -52.3337E-03     63.6078E-03
            1021     6.83360E-03     102.194E-03    -15.1800E+06    -82.6482E+06    -5.52249E+06    -21.2443E+06    -52.0147E-03     104.271E-03    -52.2558E-03     73.5000E-03    -52.0446E-03     103.969E-03    -52.1416E-03     72.9607E-03
            1022     7.68922E-03     102.262E-03    -13.6163E+06    -81.5213E+06    -3.09801E+06    -21.4368E+06    -52.1448E-03     104.225E-03    -52.0803E-03     83.0806E-03    -52.2073E-03     103.959E-03    -51.9578E-03     82.4773E-03
            1023     8.54505E-03     102.337E-03    -12.4591E+06    -82.6684E+06    -2.54383E+06    -21.8752E+06    -52.5500E-03     104.474E-03    -51.9235E-03     92.9465E-03    -52.6560E-03     104.249E-03    -51.7983E-03     92.2601E-03
            1024     9.40065E-03     102.421E-03    -11.6930E+06    -82.6117E+06    -4.96357E+06    -21.3035E+06    -53.2730E-03     105.063E-03    -51.7903E-03     103.292E-03    -53.4439E-03     104.914E-03    -51.6784E-03     102.515E-03
            1025     10.2561E-03     102.514E-03    -10.7707E+06    -81.6837E+06    -6.59032E+06    -20.0536E+06    -54.3990E-03     106.115E-03    -51.7155E-03     113.713E-03    -54.6691E-03     106.075E-03    -51.6144E-03     112.825E-03
            1026     11.1107E-03     102.616E-03    -10.6348E+06    -77.7174E+06    -10.3927E+06    -18.0434E+06    -56.0244E-03     107.725E-03    -51.7009E-03     124.882E-03    -56.4567E-03     107.874E-03    -51.6247E-03     123.849E-03
            1027     11.9645E-03     102.730E-03    -11.5257E+06    -68.9378E+06    -14.4392E+06    -16.3178E+06    -58.3179E-03     110.087E-03    -51.7692E-03     139.815E-03    -59.0509E-03     110.576E-03    -51.7247E-03     138.554E-03
            1028     12.8163E-03     102.861E-03    -12.5856E+06    -53.4388E+06    -23.1188E+06    -13.4178E+06    -61.4527E-03     113.349E-03    -51.8959E-03     164.196E-03    -62.7966E-03     114.525E-03    -51.9157E-03     162.592E-03
            1029     13.6677E-03     103.026E-03    -13.6735E+06     3.73371E+06    -25.3302E+06    -8.73430E+06    -66.7379E-03     118.803E-03    -52.0647E-03     214.959E-03    -69.8302E-03     121.933E-03    -52.1770E-03     212.754E-03
            1030     14.5171E-03     103.262E-03    -14.2860E+06     80.0023E+06     753.108E+03    -4.82992E+06    -77.5329E-03     129.893E-03    -52.3598E-03     319.130E-03    -86.7563E-03     139.347E-03    -52.4513E-03     315.763E-03
            1031     15.3688E-03     103.646E-03    -12.6723E+06     141.875E+06     68.5036E+06    -926.756E+03    -87.6731E-03     140.509E-03    -52.8360E-03     433.083E-03    -111.067E-03     164.163E-03    -52.6808E-03     431.063E-03
            1032     16.2177E-03     104.141E-03    -7.16472E+06     175.085E+06     118.790E+06     1.10257E+06    -78.4766E-03     131.707E-03    -53.2308E-03     380.334E-03    -102.677E-03     156.159E-03    -52.8803E-03     386.558E-03
            1033     854.375E-06     102.997E-03    -23.4357E+06    -79.6086E+06    -23.4541E+06    -5.29133E+06    -51.8744E-03     103.746E-03    -51.8719E-03     10.2842E-03    -51.8431E-03     103.418E-03    -51.8398E-03     10.1927E-03
            1034     1.70895E-03     103.009E-03    -22.9534E+06    -78.8008E+06    -22.4028E+06    -9.67299E+06    -51.6881E-03     103.496E-03    -51.8081E-03     18.8673E-03    -51.6595E-03     103.171E-03    -51.7726E-03     18.6989E-03
            1035     2.56384E-03     103.029E-03    -22.0131E+06    -79.1863E+06    -20.1523E+06    -13.2951E+06    -51.4768E-03     103.174E-03    -51.6971E-03     28.0317E-03    -51.4502E-03     102.846E-03    -51.6511E-03     27.7939E-03
            1036     3.41889E-03     103.056E-03    -20.6194E+06    -79.7369E+06    -17.4636E+06    -16.6968E+06    -51.2170E-03     102.773E-03    -51.5562E-03     37.3979E-03    -51.1926E-03     102.443E-03    -51.4980E-03     37.0914E-03
            1037     4.27445E-03     103.092E-03    -18.6700E+06    -79.4212E+06    -14.3727E+06    -19.3364E+06    -50.9221E-03     102.307E-03    -51.3847E-03     46.8833E-03    -50.9016E-03     101.980E-03    -51.3144E-03     46.5153E-03
            1038     5.13035E-03     103.135E-03    -16.8344E+06    -79.4971E+06    -11.2505E+06    -20.8936E+06    -50.6378E-03     101.827E-03    -51.1890E-03     56.4625E-03    -50.6246E-03     101.504E-03    -51.1055E-03     56.0430E-03
            1039     5.98684E-03     103.186E-03    -15.4269E+06    -78.9648E+06    -8.60021E+06    -21.4497E+06    -50.4160E-03     101.391E-03    -50.9748E-03     66.1909E-03    -50.4172E-03     101.082E-03    -50.8810E-03     65.7275E-03
            1040     6.84365E-03     103.244E-03    -14.2523E+06    -79.5192E+06    -5.75776E+06    -21.5137E+06    -50.3470E-03     101.108E-03    -50.7611E-03     76.1068E-03    -50.3690E-03     100.814E-03    -50.6539E-03     75.5979E-03
            1041     7.70084E-03     103.311E-03    -13.2316E+06    -78.1408E+06    -3.81243E+06    -21.5202E+06    -50.5141E-03     101.069E-03    -50.5546E-03     86.3106E-03    -50.5688E-03     100.810E-03    -50.4412E-03     85.7461E-03
            1042     8.55804E-03     103.387E-03    -12.9047E+06    -80.3430E+06    -2.96948E+06    -21.1084E+06    -51.0306E-03     101.413E-03    -50.3824E-03     96.8294E-03    -51.1295E-03     101.189E-03    -50.2620E-03     96.1981E-03
            1043     9.41521E-03     103.471E-03    -13.1428E+06    -80.6333E+06    -5.19463E+06    -20.9342E+06    -52.0096E-03     102.258E-03    -50.2484E-03     107.837E-03    -52.1767E-03     102.107E-03    -50.1384E-03     107.113E-03
            1044     10.2717E-03     103.565E-03    -13.4716E+06    -81.2730E+06    -7.58882E+06    -20.3684E+06    -53.5596E-03     103.754E-03    -50.1942E-03     118.925E-03    -53.8289E-03     103.709E-03    -50.0948E-03     118.081E-03
            1045     11.1273E-03     103.669E-03    -13.6270E+06    -79.7928E+06    -11.2463E+06    -17.8586E+06    -55.7079E-03     105.941E-03    -50.2332E-03     130.495E-03    -56.1399E-03     106.074E-03    -50.1540E-03     129.508E-03
            1046     11.9813E-03     103.785E-03    -13.6148E+06    -68.0795E+06    -12.9008E+06    -15.7337E+06    -58.7498E-03     109.139E-03    -50.3892E-03     146.067E-03    -59.4932E-03     109.630E-03    -50.3353E-03     144.844E-03
            1047     12.8330E-03     103.920E-03    -14.0803E+06    -57.0938E+06    -21.0609E+06    -13.6017E+06    -62.7405E-03     113.383E-03    -50.6424E-03     170.441E-03    -64.1091E-03     114.560E-03    -50.6445E-03     168.834E-03
            1048     13.6825E-03     104.085E-03    -14.7695E+06    -1.13566E+06    -20.9920E+06    -8.44775E+06    -68.5908E-03     119.557E-03    -50.9666E-03     220.527E-03    -71.7417E-03     122.713E-03    -51.0485E-03     218.280E-03
            1049     14.5328E-03     104.327E-03    -15.1833E+06     77.6721E+06     2.68562E+06    -3.08596E+06    -80.0288E-03     131.440E-03    -51.4113E-03     321.913E-03    -89.3626E-03     140.988E-03    -51.4885E-03     318.406E-03
            1050     15.3800E-03     104.711E-03    -13.0989E+06     140.436E+06     65.8339E+06    -721.302E+03    -90.0526E-03     142.091E-03    -52.0385E-03     433.949E-03    -113.658E-03     165.958E-03    -51.8940E-03     431.684E-03
            1051     16.2299E-03     105.208E-03    -7.41653E+06     173.860E+06     118.146E+06    -214.461E+03    -81.9767E-03     134.609E-03    -52.6324E-03     381.044E-03    -106.363E-03     159.244E-03    -52.2831E-03     386.858E-03
            1052     855.848E-06     104.047E-03    -19.2159E+06    -67.3212E+06    -19.6523E+06    -5.59651E+06    -50.1605E-03     100.382E-03    -50.2217E-03     10.4449E-03    -50.1313E-03     100.103E-03    -50.1945E-03     10.3534E-03
            1053     1.71188E-03     104.059E-03    -19.0086E+06    -67.7420E+06    -18.6376E+06    -9.84659E+06    -49.9605E-03     100.077E-03    -50.1166E-03     19.3196E-03    -49.9333E-03     99.7957E-03    -50.0840E-03     19.1560E-03
            1054     2.56808E-03     104.078E-03    -18.4073E+06    -69.2084E+06    -17.4772E+06    -13.8275E+06    -49.7083E-03     99.6897E-03    -49.9814E-03     28.7948E-03    -49.6811E-03     99.4018E-03    -49.9417E-03     28.5610E-03
            1055     3.42480E-03     104.105E-03    -17.6640E+06    -70.3948E+06    -16.0938E+06    -17.4313E+06    -49.3718E-03     99.1816E-03    -49.8098E-03     38.4450E-03    -49.3465E-03     98.8900E-03    -49.7626E-03     38.1442E-03
            1056     4.28191E-03     104.140E-03    -17.1303E+06    -72.3262E+06    -14.5062E+06    -19.9248E+06    -48.9890E-03     98.5917E-03    -49.6027E-03     48.2900E-03    -48.9681E-03     98.2949E-03    -49.5455E-03     47.9345E-03
            1057     5.13964E-03     104.182E-03    -16.7578E+06    -74.0480E+06    -12.7916E+06    -21.1619E+06    -48.6350E-03     98.0021E-03    -49.3671E-03     58.2982E-03    -48.6227E-03     97.7042E-03    -49.2994E-03     57.9008E-03
            1058     5.99779E-03     104.232E-03    -16.4760E+06    -75.4191E+06    -11.1501E+06    -21.3272E+06    -48.3827E-03     97.4989E-03    -49.1162E-03     68.5245E-03    -48.3841E-03     97.2060E-03    -49.0387E-03     68.0942E-03
            1059     6.85650E-03     104.291E-03    -16.1824E+06    -75.8490E+06    -9.25357E+06    -21.3860E+06    -48.3240E-03     97.1915E-03    -48.8675E-03     79.0402E-03    -48.3469E-03     96.9142E-03    -48.7803E-03     78.5707E-03
            1060     7.71542E-03     104.357E-03    -16.3121E+06    -76.1793E+06    -7.60148E+06    -20.7757E+06    -48.5905E-03     97.2323E-03    -48.6417E-03     89.9029E-03    -48.6464E-03     96.9815E-03    -48.5456E-03     89.3917E-03
            1061     8.57450E-03     104.433E-03    -16.5378E+06    -78.0616E+06    -5.84256E+06    -20.1220E+06    -49.3476E-03     97.8170E-03    -48.4694E-03     101.106E-03    -49.4499E-03     97.6001E-03    -48.3615E-03     100.536E-03
            1062     9.43306E-03     104.518E-03    -17.0680E+06    -78.7627E+06    -6.44150E+06    -19.5105E+06    -50.7528E-03     99.1185E-03    -48.3657E-03     112.770E-03    -50.9254E-03     98.9693E-03    -48.2590E-03     112.114E-03
            1063     10.2908E-03     104.614E-03    -18.9667E+06    -80.6231E+06    -8.32281E+06    -18.3052E+06    -52.8261E-03     101.196E-03    -48.3702E-03     124.449E-03    -53.1084E-03     101.149E-03    -48.2674E-03     123.680E-03
            1064     11.1469E-03     104.720E-03    -20.2674E+06    -79.5392E+06    -12.2766E+06    -18.2924E+06    -55.7166E-03     104.214E-03    -48.4970E-03     136.655E-03    -56.1714E-03     104.350E-03    -48.4136E-03     135.701E-03
            1065     12.0008E-03     104.839E-03    -19.7232E+06    -69.3430E+06    -13.6264E+06    -17.0294E+06    -59.4114E-03     108.186E-03    -48.7743E-03     152.647E-03    -60.1820E-03     108.680E-03    -48.7133E-03     151.433E-03
            1066     12.8525E-03     104.978E-03    -19.0759E+06    -59.6079E+06    -19.3051E+06    -14.2086E+06    -64.2751E-03     113.462E-03    -49.1867E-03     176.996E-03    -65.6893E-03     114.653E-03    -49.1691E-03     175.373E-03
            1067     13.7015E-03     105.148E-03    -18.8292E+06    -6.06602E+06    -17.8637E+06    -9.31128E+06    -71.7978E-03     121.520E-03    -49.7224E-03     226.187E-03    -75.0669E-03     124.753E-03    -49.7756E-03     223.807E-03
            1068     14.5462E-03     105.392E-03    -17.6011E+06     74.4340E+06     2.63123E+06    -4.10072E+06    -83.7139E-03     134.109E-03    -50.3956E-03     324.670E-03    -93.2416E-03     143.832E-03    -50.4648E-03     320.895E-03
            1069     15.3926E-03     105.780E-03    -13.3087E+06     138.842E+06     62.9550E+06    -2.00339E+06    -93.0908E-03     144.345E-03    -51.2543E-03     431.177E-03    -116.705E-03     168.223E-03    -51.1216E-03     428.504E-03
            1070     16.2419E-03     106.271E-03    -7.13183E+06     171.864E+06     116.747E+06    -928.256E+03    -85.2994E-03     137.394E-03    -52.0949E-03     378.333E-03    -109.623E-03     161.964E-03    -51.7500E-03     383.597E-03
            1071     857.570E-06     105.094E-03    -15.6886E+06    -54.9213E+06    -16.0679E+06    -5.92286E+06    -48.0116E-03     96.1431E-03    -48.1315E-03     10.6299E-03    -47.9879E-03     95.9155E-03    -48.1094E-03     10.5383E-03
            1072     1.71541E-03     105.105E-03    -15.9012E+06    -56.5071E+06    -16.1304E+06    -9.98295E+06    -47.8169E-03     95.8055E-03    -47.9886E-03     19.8460E-03    -47.7936E-03     95.5716E-03    -47.9643E-03     19.6882E-03
            1073     2.57365E-03     105.124E-03    -15.9556E+06    -58.9133E+06    -16.2074E+06    -14.0241E+06    -47.5099E-03     95.3435E-03    -47.8336E-03     29.5901E-03    -47.4862E-03     95.1005E-03    -47.8060E-03     29.3654E-03
            1074     3.43216E-03     105.150E-03    -16.4381E+06    -61.4670E+06    -16.4143E+06    -17.1251E+06    -47.0974E-03     94.7300E-03    -47.6326E-03     39.5173E-03    -47.0764E-03     94.4796E-03    -47.6017E-03     39.2369E-03
            1075     4.29132E-03     105.184E-03    -17.1486E+06    -65.3658E+06    -16.1756E+06    -19.3377E+06    -46.6388E-03     94.0308E-03    -47.3919E-03     49.7211E-03    -46.6223E-03     93.7677E-03    -47.3531E-03     49.3946E-03
            1076     5.15104E-03     105.225E-03    -18.1632E+06    -69.5176E+06    -16.0272E+06    -20.0346E+06    -46.2282E-03     93.3484E-03    -47.1202E-03     60.1783E-03    -46.2196E-03     93.0745E-03    -47.0732E-03     59.8227E-03
            1077     6.01140E-03     105.275E-03    -19.5981E+06    -71.8575E+06    -15.9307E+06    -19.9591E+06    -45.9729E-03     92.8075E-03    -46.8346E-03     70.9498E-03    -45.9807E-03     92.5363E-03    -46.7816E-03     70.5704E-03
            1078     6.87214E-03     105.332E-03    -21.7436E+06    -73.0141E+06    -15.1297E+06    -19.4011E+06    -46.0103E-03     92.5753E-03    -46.5650E-03     82.0850E-03    -46.0465E-03     92.3185E-03    -46.5032E-03     81.6803E-03
            1079     7.73321E-03     105.399E-03    -23.9270E+06    -74.3832E+06    -13.0460E+06    -18.7195E+06    -46.5197E-03     92.8653E-03    -46.3456E-03     93.5881E-03    -46.5957E-03     92.6296E-03    -46.2683E-03     93.1471E-03
            1080     8.59396E-03     105.475E-03    -25.7214E+06    -75.7081E+06    -10.5480E+06    -18.4163E+06    -47.6825E-03     93.8889E-03    -46.2064E-03     105.477E-03    -47.8126E-03     93.6892E-03    -46.1120E-03     104.975E-03
            1081     9.45402E-03     105.562E-03    -27.6203E+06    -78.5431E+06    -9.92818E+06    -17.1766E+06    -49.6188E-03     95.7928E-03    -46.1740E-03     117.813E-03    -49.8242E-03     95.6499E-03    -46.0697E-03     117.234E-03
            1082     10.3126E-03     105.659E-03    -27.3677E+06    -77.5003E+06    -9.52649E+06    -17.7037E+06    -52.3616E-03     98.6381E-03    -46.2765E-03     130.106E-03    -52.6757E-03     98.6075E-03    -46.1721E-03     129.386E-03
            1083     11.1693E-03     105.769E-03    -25.2931E+06    -77.5556E+06    -11.8319E+06    -18.9604E+06    -55.9958E-03     102.530E-03    -46.5344E-03     143.064E-03    -56.4726E-03     102.676E-03    -46.4444E-03     142.133E-03
            1084     12.0229E-03     105.892E-03    -24.9019E+06    -70.5406E+06    -13.8271E+06    -17.5878E+06    -60.6230E-03     107.596E-03    -46.9732E-03     159.346E-03    -61.4249E-03     108.100E-03    -46.9040E-03     158.134E-03
            1085     12.8736E-03     106.035E-03    -24.0993E+06    -60.4882E+06    -17.8726E+06    -16.0134E+06    -66.7968E-03     114.396E-03    -47.5989E-03     183.787E-03    -68.2813E-03     115.633E-03    -47.5656E-03     182.092E-03
            1086     13.7199E-03     106.213E-03    -21.3027E+06    -13.2677E+06    -15.9782E+06    -11.7597E+06    -75.3996E-03     123.789E-03    -48.3890E-03     232.642E-03    -78.7756E-03     127.089E-03    -48.4188E-03     230.095E-03
            1087     14.5626E-03     106.464E-03    -17.9025E+06     69.8128E+06     4.11152E+06    -5.85812E+06    -87.9027E-03     137.226E-03    -49.3231E-03     328.379E-03    -97.6564E-03     147.153E-03    -49.3779E-03     324.274E-03
            1088     15.4044E-03     106.848E-03    -13.8846E+06     138.400E+06     63.4555E+06    -3.72651E+06    -98.7034E-03     149.190E-03    -50.4871E-03     432.127E-03    -122.817E-03     173.562E-03    -50.3503E-03     428.646E-03
            1089     16.2397E-03     107.342E-03    -6.83791E+06     169.197E+06     114.982E+06    -2.56042E+06    -89.6802E-03     141.307E-03    -51.6264E-03     377.546E-03    -114.303E-03     166.172E-03    -51.2869E-03     382.113E-03
            1090     859.894E-06     106.135E-03    -13.7732E+06    -42.7698E+06    -13.7593E+06    -5.63326E+06    -45.4702E-03     90.9618E-03    -45.4917E-03     10.9107E-03    -45.4578E-03     90.7886E-03    -45.4785E-03     10.8267E-03
            1091     1.71992E-03     106.146E-03    -14.1824E+06    -45.1596E+06    -15.3964E+06    -9.94603E+06    -45.2619E-03     90.6613E-03    -45.3995E-03     20.3248E-03    -45.2471E-03     90.4799E-03    -45.3904E-03     20.1752E-03
            1092     2.58020E-03     106.164E-03    -15.3091E+06    -49.2741E+06    -17.0353E+06    -13.5249E+06    -44.8724E-03     90.1108E-03    -45.2384E-03     30.2563E-03    -44.8571E-03     89.9150E-03    -45.2299E-03     30.0501E-03
            1093     3.44112E-03     106.190E-03    -16.8818E+06    -53.7003E+06    -18.6837E+06    -15.9027E+06    -44.3800E-03     89.3914E-03    -45.0114E-03     40.4924E-03    -44.3670E-03     89.1813E-03    -45.0025E-03     40.2442E-03
            1094     4.30260E-03     106.222E-03    -19.4866E+06    -59.4786E+06    -20.4843E+06    -17.0863E+06    -43.8865E-03     88.6257E-03    -44.7392E-03     51.0632E-03    -43.8803E-03     88.3979E-03    -44.7272E-03     50.7873E-03
            1095     5.16476E-03     106.263E-03    -22.8766E+06    -66.0733E+06    -22.2338E+06    -17.1029E+06    -43.4742E-03     87.9173E-03    -44.4431E-03     61.9549E-03    -43.4796E-03     87.6707E-03    -44.4253E-03     61.6640E-03
            1096     6.02749E-03     106.312E-03    -26.9080E+06    -69.2498E+06    -23.0823E+06    -16.1417E+06    -43.2999E-03     87.4459E-03    -44.1460E-03     73.2397E-03    -43.3295E-03     87.2005E-03    -44.1220E-03     72.9419E-03
            1097     6.89067E-03     106.369E-03    -31.1062E+06    -71.4194E+06    -21.4789E+06    -14.9400E+06    -43.5846E-03     87.4784E-03    -43.8938E-03     84.9529E-03    -43.6502E-03     87.2417E-03    -43.8525E-03     84.6426E-03
            1098     7.75366E-03     106.436E-03    -34.7591E+06    -71.4560E+06    -18.1429E+06    -14.7755E+06    -44.5060E-03     88.2268E-03    -43.7208E-03     97.1062E-03    -44.6203E-03     88.0161E-03    -43.6575E-03     96.7561E-03
            1099     8.61616E-03     106.514E-03    -37.3700E+06    -73.7126E+06    -15.0218E+06    -15.0283E+06    -46.1882E-03     89.8489E-03    -43.6608E-03     109.669E-03    -46.3588E-03     89.6685E-03    -43.5748E-03     109.252E-03
            1100     9.47734E-03     106.602E-03    -36.8628E+06    -76.3531E+06    -12.6753E+06    -16.3318E+06    -48.7319E-03     92.4697E-03    -43.7379E-03     122.747E-03    -48.9686E-03     92.3412E-03    -43.6371E-03     122.220E-03
            1101     10.3368E-03     106.703E-03    -34.3054E+06    -71.7321E+06    -11.1084E+06    -19.3624E+06    -52.1938E-03     96.1656E-03    -43.9719E-03     135.894E-03    -52.5376E-03     96.1653E-03    -43.8736E-03     135.188E-03
            1102     11.1932E-03     106.816E-03    -32.6372E+06    -77.4068E+06    -13.4998E+06    -20.3095E+06    -56.6281E-03     101.030E-03    -44.4016E-03     149.476E-03    -57.1363E-03     101.187E-03    -44.3095E-03     148.550E-03
            1103     12.0469E-03     106.944E-03    -29.7742E+06    -70.2133E+06    -15.2441E+06    -19.1331E+06    -62.3512E-03     107.387E-03    -45.0355E-03     166.617E-03    -63.1910E-03     107.916E-03    -44.9667E-03     165.379E-03
            1104     12.8954E-03     107.095E-03    -25.4463E+06    -59.0652E+06    -17.0560E+06    -19.9370E+06    -69.7804E-03     115.682E-03    -45.9016E-03     192.419E-03    -71.3401E-03     116.992E-03    -45.8644E-03     190.605E-03
            1105     13.7387E-03     107.279E-03    -21.4978E+06    -22.1433E+06    -15.8754E+06    -15.8664E+06    -79.2294E-03     126.191E-03    -46.9615E-03     240.838E-03    -82.7297E-03     129.584E-03    -46.9776E-03     238.074E-03
            1106     14.5803E-03     107.535E-03    -17.3547E+06     62.9567E+06     1.05146E+06    -7.79118E+06    -92.6283E-03     140.784E-03    -48.1555E-03     333.681E-03    -102.614E-03     150.929E-03    -48.2164E-03     329.151E-03
            1107     15.4177E-03     107.928E-03    -12.4076E+06     139.397E+06     63.8116E+06    -4.89399E+06    -103.635E-03     153.250E-03    -49.6145E-03     435.705E-03    -128.300E-03     178.181E-03    -49.4796E-03     431.548E-03
            1108     16.2579E-03     108.425E-03    -6.45715E+06     166.901E+06     115.532E+06    -3.66074E+06    -95.6771E-03     146.752E-03    -51.0752E-03     376.383E-03    -120.486E-03     171.797E-03    -50.7302E-03     379.979E-03
            1109     862.494E-06     107.170E-03    -11.8343E+06    -31.1972E+06    -12.7785E+06    -5.12937E+06    -42.5179E-03     84.9653E-03    -42.4473E-03     11.1200E-03    -42.5139E-03     84.8454E-03    -42.4488E-03     11.0464E-03
            1110     1.72500E-03     107.181E-03    -13.9673E+06    -34.8319E+06    -15.5558E+06    -8.87243E+06    -42.2436E-03     84.6369E-03    -42.3933E-03     20.6388E-03    -42.2420E-03     84.5064E-03    -42.4003E-03     20.5105E-03
            1111     2.58801E-03     107.199E-03    -16.7641E+06    -40.7793E+06    -19.5359E+06    -11.8131E+06    -41.7996E-03     84.0130E-03    -42.2134E-03     30.7855E-03    -41.7991E-03     83.8640E-03    -42.2276E-03     30.6126E-03
            1112     3.45156E-03     107.223E-03    -20.5322E+06    -47.8924E+06    -24.5452E+06    -13.2541E+06    -41.2876E-03     83.2483E-03    -41.9607E-03     41.2843E-03    -41.2905E-03     83.0786E-03    -41.9842E-03     41.0858E-03
            1113     4.31577E-03     107.255E-03    -25.4125E+06    -56.2240E+06    -28.6391E+06    -12.7007E+06    -40.8084E-03     82.4820E-03    -41.6736E-03     52.1422E-03    -40.8209E-03     82.2870E-03    -41.6985E-03     51.9431E-03
            1114     5.18058E-03     107.295E-03    -31.4414E+06    -64.0297E+06    -30.1463E+06    -11.3959E+06    -40.5197E-03     81.9077E-03    -41.3880E-03     63.4164E-03    -40.5537E-03     81.6895E-03    -41.4003E-03     63.2236E-03
            1115     6.04586E-03     107.343E-03    -37.3478E+06    -68.4858E+06    -28.7028E+06    -9.86310E+06    -40.6137E-03     81.7500E-03    -41.1363E-03     75.1493E-03    -40.6809E-03     81.5240E-03    -41.1263E-03     74.9606E-03
            1116     6.91119E-03     107.401E-03    -40.8979E+06    -68.2855E+06    -24.7149E+06    -10.3123E+06    -41.2881E-03     82.2399E-03    -40.9518E-03     87.4122E-03    -41.3927E-03     82.0280E-03    -40.9171E-03     87.1930E-03
            1117     7.77617E-03     107.469E-03    -41.6560E+06    -69.7722E+06    -19.4016E+06    -10.8944E+06    -42.7021E-03     83.5790E-03    -40.8768E-03     100.188E-03    -42.8398E-03     83.3769E-03    -40.8123E-03     99.9216E-03
            1118     8.63998E-03     107.547E-03    -40.8788E+06    -69.8373E+06    -14.6128E+06    -12.0707E+06    -44.9262E-03     85.8598E-03    -40.9336E-03     113.504E-03    -45.1077E-03     85.6904E-03    -40.8462E-03     113.160E-03
            1119     9.50222E-03     107.639E-03    -39.2520E+06    -69.4718E+06    -12.0422E+06    -16.7992E+06    -48.0791E-03     89.2244E-03    -41.1453E-03     127.552E-03    -48.3261E-03     89.1203E-03    -41.0479E-03     127.053E-03
            1120     10.3620E-03     107.743E-03    -38.0303E+06    -68.0055E+06    -12.1271E+06    -19.2252E+06    -52.2281E-03     93.7666E-03    -41.5385E-03     141.704E-03    -52.5850E-03     93.7825E-03    -41.4454E-03     141.030E-03
            1121     11.2189E-03     107.862E-03    -35.7636E+06    -73.3323E+06    -13.4922E+06    -21.7395E+06    -57.5772E-03     99.7363E-03    -42.1591E-03     156.394E-03    -58.1076E-03     99.9191E-03    -42.0684E-03     155.465E-03
            1122     12.0709E-03     107.996E-03    -30.5210E+06    -68.7103E+06    -16.6900E+06    -24.8971E+06    -64.2240E-03     107.223E-03    -42.9990E-03     174.999E-03    -65.0905E-03     107.786E-03    -42.9386E-03     173.676E-03
            1123     12.9190E-03     108.155E-03    -26.4146E+06    -58.6337E+06    -17.9730E+06    -23.2624E+06    -72.5808E-03     116.681E-03    -44.0999E-03     202.033E-03    -74.2111E-03     118.062E-03    -44.0664E-03     200.112E-03
            1124     13.7620E-03     108.348E-03    -24.1082E+06    -28.5769E+06    -16.1458E+06    -19.9805E+06    -83.5195E-03     128.959E-03    -45.4393E-03     249.825E-03    -87.1920E-03     132.493E-03    -45.4436E-03     246.800E-03
            1125     14.5973E-03     108.613E-03    -18.5709E+06     53.8739E+06    -4.06490E+06    -14.5569E+06    -98.3936E-03     145.322E-03    -46.9288E-03     339.897E-03    -108.671E-03     155.738E-03    -47.0003E-03     334.751E-03
            1126     15.4322E-03     109.008E-03    -11.2594E+06     136.098E+06     59.8002E+06    -7.69947E+06    -109.003E-03     157.729E-03    -48.7252E-03     435.382E-03    -133.740E-03     182.736E-03    -48.6073E-03     430.361E-03
            1127     16.2628E-03     109.505E-03    -5.09615E+06     162.898E+06     115.269E+06    -2.78414E+06    -101.682E-03     152.237E-03    -50.5550E-03     373.666E-03    -126.325E-03     177.107E-03    -50.2075E-03     376.129E-03
            1128     865.306E-06     108.200E-03    -15.1334E+06    -21.7876E+06    -14.9283E+06    -3.54564E+06    -39.1559E-03     78.2560E-03    -39.1001E-03     11.3042E-03    -39.1789E-03     78.1909E-03    -39.1212E-03     11.2544E-03
            1129     1.73087E-03     108.210E-03    -17.8495E+06    -26.4079E+06    -19.4643E+06    -6.44638E+06    -38.7864E-03     77.8032E-03    -39.0168E-03     20.7590E-03    -38.8104E-03     77.7255E-03    -39.0499E-03     20.6686E-03
            1130     2.59688E-03     108.227E-03    -22.1180E+06    -34.5510E+06    -25.9621E+06    -8.39994E+06    -38.3704E-03     77.1764E-03    -38.8060E-03     31.0412E-03    -38.3952E-03     77.0743E-03    -38.8537E-03     30.9222E-03
            1131     3.46333E-03     108.250E-03    -28.5871E+06    -45.5437E+06    -33.3128E+06    -7.76924E+06    -37.9293E-03     76.4825E-03    -38.5532E-03     41.7177E-03    -37.9611E-03     76.3467E-03    -38.6123E-03     41.6033E-03
            1132     4.33041E-03     108.281E-03    -36.4492E+06    -55.7475E+06    -37.8354E+06    -5.82660E+06    -37.6081E-03     75.9040E-03    -38.2959E-03     52.8345E-03    -37.6596E-03     75.7370E-03    -38.3514E-03     52.7406E-03
            1133     5.19797E-03     108.321E-03    -43.0735E+06    -63.7803E+06    -36.3933E+06    -4.15053E+06    -37.6206E-03     75.7011E-03    -38.0805E-03     64.4111E-03    -37.6990E-03     75.5050E-03    -38.1076E-03     64.3314E-03
            1134     6.06561E-03     108.369E-03    -46.2036E+06    -66.7167E+06    -31.0078E+06    -4.61114E+06    -38.1315E-03     76.0612E-03    -37.9297E-03     76.5586E-03    -38.2354E-03     75.8535E-03    -37.9210E-03     76.4598E-03
            1135     6.93293E-03     108.427E-03    -47.1518E+06    -64.3741E+06    -24.7712E+06    -6.32233E+06    -39.2580E-03     77.1229E-03    -37.8649E-03     89.3792E-03    -39.3910E-03     76.9313E-03    -37.8270E-03     89.2361E-03
            1136     7.79939E-03     108.496E-03    -47.0967E+06    -67.0864E+06    -20.0686E+06    -8.86384E+06    -41.1072E-03     79.0279E-03    -37.9207E-03     102.840E-03    -41.2648E-03     78.8379E-03    -37.8554E-03     102.627E-03
            1137     8.66460E-03     108.577E-03    -44.0173E+06    -63.4057E+06    -15.5625E+06    -12.9665E+06    -43.7895E-03     81.9005E-03    -38.1109E-03     117.109E-03    -43.9828E-03     81.7573E-03    -38.0330E-03     116.785E-03
            1138     9.52778E-03     108.672E-03    -40.9684E+06    -63.1780E+06    -12.3974E+06    -16.0099E+06    -47.5166E-03     85.9951E-03    -38.4785E-03     132.244E-03    -47.7688E-03     85.9135E-03    -38.3895E-03     131.786E-03
            1139     10.3882E-03     108.781E-03    -38.4336E+06    -63.5612E+06    -11.7644E+06    -19.2419E+06    -52.3742E-03     91.4212E-03    -39.0470E-03     147.635E-03    -52.7314E-03     91.4508E-03    -38.9580E-03     146.987E-03
            1140     11.2446E-03     108.905E-03    -33.5193E+06    -63.6650E+06    -11.1089E+06    -25.5983E+06    -58.4466E-03     98.2995E-03    -39.8529E-03     163.911E-03    -58.9842E-03     98.5249E-03    -39.7675E-03     162.949E-03
            1141     12.0969E-03     109.048E-03    -29.7976E+06    -66.9678E+06    -16.1241E+06    -28.7159E+06    -66.0503E-03     106.952E-03    -40.9017E-03     183.944E-03    -66.9412E-03     107.547E-03    -40.8421E-03     182.557E-03
            1142     12.9434E-03     109.214E-03    -27.1845E+06    -61.1341E+06    -18.1242E+06    -25.9205E+06    -75.8216E-03     118.066E-03    -42.2447E-03     212.365E-03    -77.5318E-03     119.517E-03    -42.2072E-03     210.324E-03
            1143     13.7823E-03     109.420E-03    -22.6312E+06    -28.5127E+06    -13.9753E+06    -24.6269E+06    -88.3158E-03     132.189E-03    -43.8728E-03     259.723E-03    -92.1681E-03     135.902E-03    -43.8685E-03     256.389E-03
            1144     14.6174E-03     109.693E-03    -17.8668E+06     44.4910E+06    -6.21446E+06    -21.3417E+06    -104.592E-03     150.276E-03    -45.6847E-03     347.425E-03    -115.125E-03     160.924E-03    -45.7544E-03     341.624E-03
            1145     15.4433E-03     110.099E-03    -13.1491E+06     124.995E+06     53.4634E+06    -11.2596E+06    -116.226E-03     164.063E-03    -47.8374E-03     438.978E-03    -141.235E-03     189.316E-03    -47.7323E-03     432.727E-03
            1146     16.2702E-03     110.591E-03    -7.54931E+06     157.031E+06     112.076E+06    -3.73870E+06    -109.038E-03     159.102E-03    -50.0636E-03     376.447E-03    -134.008E-03     184.278E-03    -49.7200E-03     377.590E-03
            1147     868.420E-06     109.222E-03    -22.0751E+06    -15.9921E+06    -23.1749E+06    -2.26562E+06    -35.4804E-03     70.9099E-03    -35.4295E-03     11.2303E-03    -35.5344E-03     70.8956E-03    -35.4902E-03     11.1996E-03
            1148     1.73726E-03     109.231E-03    -25.8652E+06    -21.8365E+06    -28.9430E+06    -2.61416E+06    -35.1001E-03     70.4352E-03    -35.3352E-03     20.6386E-03    -35.1566E-03     70.4052E-03    -35.4107E-03     20.6026E-03
            1149     2.60637E-03     109.247E-03    -33.9729E+06    -33.0684E+06    -37.3951E+06    -1.42602E+06    -34.7476E-03     69.8799E-03    -35.1323E-03     30.9461E-03    -34.8163E-03     69.8179E-03    -35.2220E-03     30.9246E-03
            1150     3.47606E-03     109.270E-03    -43.2289E+06    -46.6233E+06    -43.3597E+06     636.160E+03    -34.5116E-03     69.4454E-03    -34.9338E-03     41.7119E-03    -34.5986E-03     69.3381E-03    -35.0203E-03     41.7160E-03
            1151     4.34601E-03     109.301E-03    -50.2072E+06    -56.7484E+06    -43.8726E+06     2.06603E+06    -34.5482E-03     69.3239E-03    -34.7756E-03     53.0093E-03    -34.6555E-03     69.1778E-03    -34.8399E-03     53.0295E-03
            1152     5.21597E-03     109.340E-03    -53.4317E+06    -62.7466E+06    -39.5896E+06     1.20189E+06    -34.9876E-03     69.6713E-03    -34.6837E-03     64.8926E-03    -35.1106E-03     69.4959E-03    -34.7132E-03     64.8962E-03
            1153     6.08566E-03     109.389E-03    -53.5977E+06    -62.3705E+06    -32.9208E+06    -1.98843E+06    -35.9221E-03     70.5929E-03    -34.6708E-03     77.4692E-03    -36.0611E-03     70.4151E-03    -34.6673E-03     77.4206E-03
            1154     6.95473E-03     109.448E-03    -51.3321E+06    -61.7938E+06    -25.9667E+06    -4.69911E+06    -37.4369E-03     72.1953E-03    -34.7584E-03     90.8440E-03    -37.5857E-03     72.0174E-03    -34.7242E-03     90.7409E-03
            1155     7.82273E-03     109.519E-03    -46.8209E+06    -59.6530E+06    -19.4742E+06    -9.07768E+06    -39.6531E-03     74.6151E-03    -34.9619E-03     105.099E-03    -39.8118E-03     74.4519E-03    -34.9049E-03     104.906E-03
            1156     8.68911E-03     109.603E-03    -42.6430E+06    -56.7234E+06    -14.7709E+06    -14.5276E+06    -42.7653E-03     78.0712E-03    -35.3058E-03     120.383E-03    -42.9516E-03     77.9474E-03    -35.2356E-03     120.064E-03
            1157     9.55328E-03     109.702E-03    -37.7343E+06    -59.8038E+06    -11.9826E+06    -17.2396E+06    -46.9707E-03     82.8002E-03    -35.8295E-03     136.719E-03    -47.2002E-03     82.7182E-03    -35.7480E-03     136.273E-03
            1158     10.4141E-03     109.816E-03    -31.7211E+06    -54.2689E+06    -8.67117E+06    -21.6268E+06    -52.3808E-03     88.9380E-03    -36.5572E-03     153.743E-03    -52.7123E-03     88.9898E-03    -36.4759E-03     153.092E-03
            1159     11.2711E-03     109.948E-03    -28.9694E+06    -54.6801E+06    -7.87346E+06    -27.0138E+06    -59.2066E-03     96.7441E-03    -37.5375E-03     171.616E-03    -59.7382E-03     97.0023E-03    -37.4556E-03     170.653E-03
            1160     12.1228E-03     110.097E-03    -27.8074E+06    -64.7614E+06    -13.7756E+06    -29.0704E+06    -67.9668E-03     106.759E-03    -38.7918E-03     193.319E-03    -68.8793E-03     107.384E-03    -38.7264E-03     191.913E-03
            1161     12.9679E-03     110.275E-03    -24.1354E+06    -62.1826E+06    -16.8174E+06    -30.0806E+06    -79.0715E-03     119.434E-03    -40.3624E-03     223.870E-03    -80.8508E-03     120.958E-03    -40.3213E-03     221.687E-03
            1162     13.8062E-03     110.493E-03    -19.2501E+06    -26.4933E+06    -12.1393E+06    -29.9254E+06    -93.3302E-03     135.586E-03    -42.2558E-03     272.792E-03    -97.3668E-03     139.498E-03    -42.2502E-03     269.123E-03
            1163     14.6335E-03     110.779E-03    -16.2580E+06     35.0994E+06    -6.11761E+06    -23.6015E+06    -110.778E-03     155.160E-03    -44.3824E-03     357.815E-03    -121.543E-03     166.012E-03    -44.4403E-03     351.412E-03
            1164     15.4619E-03     111.191E-03    -12.8981E+06     111.303E+06     50.2538E+06    -13.0691E+06    -123.310E-03     170.166E-03    -46.8563E-03     445.685E-03    -148.526E-03     195.588E-03    -46.7477E-03     438.161E-03
            1165     16.2812E-03     111.694E-03    -6.51790E+06     150.800E+06     109.781E+06    -5.02605E+06    -118.299E-03     167.767E-03    -49.4684E-03     380.211E-03    -143.379E-03     193.044E-03    -49.1287E-03     379.644E-03
            1166     871.946E-06     110.236E-03    -34.9132E+06    -13.9784E+06    -36.1667E+06    -261.953E+03    -31.6041E-03     63.2080E-03    -31.6039E-03     10.8992E-03    -31.7063E-03     63.2410E-03    -31.7138E-03     10.8962E-03
            1167     1.74389E-03     110.245E-03    -41.7676E+06    -24.8767E+06    -45.0002E+06     3.38018E+06    -31.3645E-03     62.8702E-03    -31.5057E-03     20.2101E-03    -31.4725E-03     62.8710E-03    -31.6341E-03     20.2547E-03
            1168     2.61640E-03     110.260E-03    -49.8501E+06    -37.5238E+06    -49.5025E+06     7.83572E+06    -31.2339E-03     62.6258E-03    -31.3919E-03     30.4358E-03    -31.3572E-03     62.5814E-03    -31.5127E-03     30.5387E-03
            1169     3.48890E-03     110.283E-03    -56.4085E+06    -49.0922E+06    -48.7233E+06     9.52923E+06    -31.3567E-03     62.6831E-03    -31.3264E-03     41.2394E-03    -31.4968E-03     62.5891E-03    -31.4171E-03     41.3646E-03
            1170     4.36136E-03     110.314E-03    -59.4343E+06    -56.4429E+06    -45.3100E+06     7.74205E+06    -31.8158E-03     63.1344E-03    -31.3186E-03     52.6870E-03    -31.9654E-03     63.0033E-03    -31.3771E-03     52.7882E-03
            1171     5.23352E-03     110.353E-03    -58.7223E+06    -58.6953E+06    -40.1423E+06     3.47657E+06    -32.6583E-03     64.0377E-03    -31.3793E-03     64.8713E-03    -32.8098E-03     63.8882E-03    -31.4098E-03     64.9135E-03
            1172     6.10508E-03     110.403E-03    -55.9843E+06    -57.4911E+06    -33.8551E+06    -1.03915E+06    -33.9440E-03     65.4667E-03    -31.5227E-03     77.8758E-03    -34.0963E-03     65.3139E-03    -31.5275E-03     77.8512E-03
            1173     6.97569E-03     110.464E-03    -51.5704E+06    -56.1817E+06    -27.4025E+06    -6.48545E+06    -35.7560E-03     67.5177E-03    -31.7618E-03     91.8312E-03    -35.9060E-03     67.3644E-03    -31.7425E-03     91.7197E-03
            1174     7.84513E-03     110.537E-03    -46.0082E+06    -51.6881E+06    -20.4566E+06    -12.1212E+06    -38.2759E-03     70.3887E-03    -32.1128E-03     106.926E-03    -38.4324E-03     70.2576E-03    -32.0735E-03     106.713E-03
            1175     8.71275E-03     110.625E-03    -41.3710E+06    -51.5716E+06    -15.3894E+06    -15.2617E+06    -41.7340E-03     74.3404E-03    -32.6064E-03     123.269E-03    -41.9098E-03     74.2308E-03    -32.5486E-03     122.963E-03
            1176     9.57765E-03     110.728E-03    -37.3822E+06    -51.7535E+06    -12.2115E+06    -21.1426E+06    -46.2818E-03     79.5500E-03    -33.2683E-03     141.060E-03    -46.5078E-03     79.4951E-03    -33.2001E-03     140.592E-03
            1177     10.4396E-03     110.848E-03    -32.3555E+06    -47.2966E+06    -9.16154E+06    -26.3312E+06    -52.1683E-03     86.3026E-03    -34.1343E-03     159.767E-03    -52.4993E-03     86.3778E-03    -34.0646E-03     159.086E-03
            1178     11.2970E-03     110.987E-03    -27.5852E+06    -49.7545E+06    -7.66063E+06    -27.2496E+06    -59.8278E-03     95.0935E-03    -35.2658E-03     179.544E-03    -60.3543E-03     95.3686E-03    -35.1919E-03     178.601E-03
            1179     12.1482E-03     111.147E-03    -24.5022E+06    -59.4624E+06    -11.1560E+06    -30.1621E+06    -69.5710E-03     106.268E-03    -36.6967E-03     203.744E-03    -70.4962E-03     106.929E-03    -36.6307E-03     202.321E-03
            1180     12.9927E-03     111.336E-03    -21.2664E+06    -57.0258E+06    -13.8286E+06    -34.9681E+06    -82.1481E-03     120.615E-03    -38.4666E-03     236.882E-03    -84.0017E-03     122.233E-03    -38.4223E-03     234.555E-03
            1181     13.8286E-03     111.567E-03    -17.0216E+06    -28.8101E+06    -10.8924E+06    -34.0399E+06    -98.0153E-03     138.614E-03    -40.5985E-03     286.669E-03    -102.195E-03     142.666E-03    -40.5865E-03     282.710E-03
            1182     14.6582E-03     111.870E-03    -14.0472E+06     22.9806E+06    -1.76658E+06    -24.1610E+06    -117.074E-03     160.113E-03    -43.0385E-03     368.356E-03    -127.981E-03     171.060E-03    -43.0603E-03     361.330E-03
            1183     15.4756E-03     112.288E-03    -10.5627E+06     101.580E+06     50.5473E+06    -13.4810E+06    -130.954E-03     176.780E-03    -45.8256E-03     452.004E-03    -156.140E-03     202.145E-03    -45.7048E-03     443.069E-03
            1184     16.2931E-03     112.801E-03    -6.78949E+06     141.884E+06     104.548E+06    -6.30173E+06    -128.105E-03     176.923E-03    -48.8177E-03     386.673E-03    -153.273E-03     202.271E-03    -48.4909E-03     384.151E-03
            1185     875.092E-06     111.242E-03    -53.8263E+06    -22.8296E+06    -48.9979E+06     9.43714E+06    -27.8444E-03     55.6535E-03    -27.8091E-03     10.4270E-03    -28.0096E-03     55.6883E-03    -27.9429E-03     10.5503E-03
            1186     1.75063E-03     111.251E-03    -61.9224E+06    -34.2576E+06    -55.4343E+06     13.0925E+06    -27.8883E-03     55.7181E-03    -27.8298E-03     19.5041E-03    -28.0680E-03     55.7162E-03    -27.9675E-03     19.6759E-03
            1187     2.62578E-03     111.266E-03    -66.0764E+06    -44.3326E+06    -56.2892E+06     14.7395E+06    -28.1341E-03     56.0059E-03    -27.8718E-03     29.5582E-03    -28.3181E-03     55.9605E-03    -27.9932E-03     29.7528E-03
            1188     3.50092E-03     111.289E-03    -65.1210E+06    -51.1420E+06    -51.7523E+06     13.7450E+06    -28.6204E-03     56.5907E-03    -27.9703E-03     40.3668E-03    -28.7958E-03     56.5028E-03    -28.0605E-03     40.5497E-03
            1189     4.37558E-03     111.321E-03    -61.7391E+06    -53.0035E+06    -45.9754E+06     9.44407E+06    -29.4297E-03     57.5506E-03    -28.1209E-03     51.9703E-03    -29.5935E-03     57.4398E-03    -28.1844E-03     52.0977E-03
            1190     5.24962E-03     111.361E-03    -57.4763E+06    -52.4523E+06    -39.7659E+06     2.91385E+06    -30.5875E-03     58.9258E-03    -28.3383E-03     64.4288E-03    -30.7403E-03     58.8032E-03    -28.3777E-03     64.4696E-03
            1191     6.12284E-03     111.413E-03    -51.8716E+06    -52.0137E+06    -33.5512E+06    -3.05136E+06    -32.1285E-03     60.7584E-03    -28.6299E-03     77.8106E-03    -32.2655E-03     60.6235E-03    -28.6470E-03     77.7680E-03
            1192     6.99509E-03     111.475E-03    -46.9223E+06    -47.9675E+06    -26.7742E+06    -8.37838E+06    -34.1847E-03     63.1912E-03    -29.0064E-03     92.3308E-03    -34.3194E-03     63.0664E-03    -29.0027E-03     92.2062E-03
            1193     7.86580E-03     111.552E-03    -44.0242E+06    -44.7460E+06    -20.9681E+06    -13.4597E+06    -36.9422E-03     66.4313E-03    -29.4891E-03     108.236E-03    -37.0907E-03     66.3253E-03    -29.4652E-03     108.021E-03
            1194     8.73456E-03     111.642E-03    -39.8604E+06    -46.4735E+06    -16.7084E+06    -17.9304E+06    -40.5886E-03     70.6902E-03    -30.1017E-03     125.667E-03    -40.7513E-03     70.5949E-03    -30.0600E-03     125.349E-03
            1195     9.60093E-03     111.750E-03    -34.9072E+06    -39.8590E+06    -10.5178E+06    -23.2259E+06    -45.4297E-03     76.3063E-03    -30.8766E-03     144.918E-03    -45.6485E-03     76.2904E-03    -30.8208E-03     144.451E-03
            1196     10.4635E-03     111.877E-03    -32.3978E+06    -42.4330E+06    -8.46805E+06    -28.1763E+06    -51.8356E-03     83.6973E-03    -31.8617E-03     165.428E-03    -52.1583E-03     83.7794E-03    -31.7955E-03     164.756E-03
            1197     11.3214E-03     112.024E-03    -29.7732E+06    -46.4497E+06    -8.89043E+06    -30.4815E+06    -60.0174E-03     93.1198E-03    -33.1024E-03     187.603E-03    -60.5426E-03     93.4010E-03    -33.0363E-03     186.653E-03
            1198     12.1735E-03     112.194E-03    -25.1174E+06    -51.3684E+06    -8.63999E+06    -34.2178E+06    -70.6947E-03     105.361E-03    -34.6660E-03     214.321E-03    -71.6414E-03     106.063E-03    -34.5983E-03     212.859E-03
            1199     13.0183E-03     112.396E-03    -20.6480E+06    -49.5793E+06    -9.45127E+06    -38.8532E+06    -84.9505E-03     121.552E-03    -36.6014E-03     250.637E-03    -86.8727E-03     123.255E-03    -36.5468E-03     248.200E-03
            1200     13.8522E-03     112.645E-03    -18.5862E+06    -34.4068E+06    -9.93141E+06    -37.8392E+06    -102.756E-03     141.704E-03    -38.9476E-03     301.655E-03    -107.096E-03     145.888E-03    -38.9205E-03     297.395E-03
            1201     14.6754E-03     112.959E-03    -16.1239E+06     7.49785E+06     1.35664E+06    -26.8166E+06    -123.637E-03     165.314E-03    -41.6769E-03     381.276E-03    -134.669E-03     176.315E-03    -41.6576E-03     373.574E-03
            1202     15.4945E-03     113.397E-03    -12.4148E+06     92.0932E+06     44.5152E+06    -15.4378E+06    -139.423E-03     184.158E-03    -44.7349E-03     461.440E-03    -164.673E-03     209.566E-03    -44.6278E-03     450.860E-03
            1203     16.3029E-03     113.910E-03    -6.37477E+06     130.997E+06     96.2472E+06    -7.84840E+06    -138.987E-03     187.120E-03    -48.1322E-03     397.706E-03    -164.725E-03     213.026E-03    -47.8317E-03     392.882E-03
            1204     878.564E-06     112.241E-03    -74.9223E+06    -46.0215E+06    -71.2262E+06     14.9808E+06    -24.5919E-03     49.0449E-03    -24.4531E-03     9.73555E-03    -24.7965E-03     49.0268E-03    -24.6338E-03     9.93070E-03
            1205     1.75636E-03     112.250E-03    -68.9399E+06    -45.9092E+06    -58.6003E+06     19.0645E+06    -24.9377E-03     49.5829E-03    -24.6452E-03     18.6121E-03    -25.1307E-03     49.5375E-03    -24.7716E-03     18.8615E-03
            1206     2.63405E-03     112.266E-03    -64.7611E+06    -49.4575E+06    -53.2294E+06     17.9450E+06    -25.5415E-03     50.3788E-03    -24.8373E-03     28.6366E-03    -25.7157E-03     50.3013E-03    -24.9378E-03     28.8736E-03
            1207     3.51109E-03     112.290E-03    -61.6984E+06    -50.8847E+06    -50.2745E+06     13.8708E+06    -26.3739E-03     51.4461E-03    -25.0722E-03     39.4551E-03    -26.5342E-03     51.3521E-03    -25.1603E-03     39.6412E-03
            1208     4.38771E-03     112.322E-03    -57.5768E+06    -47.8164E+06    -44.6304E+06     7.86065E+06    -27.4313E-03     52.7982E-03    -25.3669E-03     51.0380E-03    -27.5829E-03     52.7048E-03    -25.4372E-03     51.1471E-03
            1209     5.26352E-03     112.364E-03    -52.2051E+06    -44.0686E+06    -37.8672E+06     165.565E+03    -28.7477E-03     54.4645E-03    -25.7168E-03     63.5458E-03    -28.8877E-03     54.3722E-03    -25.7665E-03     63.5544E-03
            1210     6.13837E-03     112.417E-03    -46.4305E+06    -45.0204E+06    -32.3025E+06    -7.11916E+06    -30.4590E-03     56.5847E-03    -26.1257E-03     77.2242E-03    -30.5783E-03     56.4728E-03    -26.1546E-03     77.1345E-03
            1211     7.01196E-03     112.482E-03    -40.8166E+06    -42.7943E+06    -25.6903E+06    -10.6343E+06    -32.7107E-03     59.3223E-03    -26.6116E-03     92.2517E-03    -32.8198E-03     59.2089E-03    -26.6188E-03     92.1065E-03
            1212     7.88402E-03     112.561E-03    -36.5454E+06    -37.8462E+06    -18.6348E+06    -13.3492E+06    -35.6217E-03     62.8168E-03    -27.1951E-03     108.816E-03    -35.7394E-03     62.7243E-03    -27.1804E-03     108.615E-03
            1213     8.75407E-03     112.656E-03    -34.0319E+06    -37.4200E+06    -13.4576E+06    -19.5034E+06    -39.4248E-03     67.3252E-03    -27.9004E-03     127.221E-03    -39.5655E-03     67.2513E-03    -27.8641E-03     126.902E-03
            1214     9.62139E-03     112.768E-03    -31.7759E+06    -32.5876E+06    -8.58043E+06    -24.1442E+06    -44.4801E-03     73.2356E-03    -28.7556E-03     147.914E-03    -44.6799E-03     73.2321E-03    -28.7051E-03     147.463E-03
            1215     10.4852E-03     112.902E-03    -29.7607E+06    -35.1240E+06    -5.31993E+06    -27.0198E+06    -51.1729E-03     80.9932E-03    -29.8204E-03     170.340E-03    -51.4747E-03     81.0807E-03    -29.7529E-03     169.720E-03
            1216     11.3442E-03     113.057E-03    -27.4920E+06    -39.1241E+06    -3.97303E+06    -32.5552E+06    -59.8893E-03     91.0325E-03    -31.1432E-03     194.809E-03    -60.3948E-03     91.3141E-03    -31.0665E-03     193.875E-03
            1217     12.1971E-03     113.239E-03    -24.2922E+06    -43.2260E+06    -3.02767E+06    -37.6052E+06    -71.6281E-03     104.429E-03    -32.8008E-03     224.584E-03    -72.5753E-03     105.147E-03    -32.7181E-03     223.106E-03
            1218     13.0405E-03     113.455E-03    -23.9857E+06    -43.8661E+06    -5.33748E+06    -39.9316E+06    -87.0573E-03     121.908E-03    -34.8508E-03     264.027E-03    -89.0249E-03     123.653E-03    -34.7791E-03     261.557E-03
            1219     13.8760E-03     113.721E-03    -24.7370E+06    -37.0446E+06    -7.22623E+06    -39.5817E+06    -106.992E-03     144.347E-03    -37.3558E-03     317.815E-03    -111.457E-03     148.619E-03    -37.3024E-03     313.330E-03
            1220     14.6993E-03     114.059E-03    -22.0052E+06    -8.86742E+06     1.70679E+06    -33.5677E+06    -129.797E-03     170.100E-03    -40.3030E-03     395.147E-03    -140.787E-03     180.980E-03    -40.2497E-03     386.828E-03
            1221     15.5119E-03     114.503E-03    -15.2665E+06     77.4028E+06     40.4680E+06    -21.5660E+06    -148.257E-03     191.874E-03    -43.6164E-03     474.162E-03    -173.568E-03     217.293E-03    -43.5041E-03     461.688E-03
            1222     16.3164E-03     115.040E-03    -8.96408E+06     119.655E+06     92.2372E+06    -11.7485E+06    -152.237E-03     199.672E-03    -47.4357E-03     412.735E-03    -178.761E-03     226.330E-03    -47.1351E-03     404.937E-03
            1223     880.212E-06     113.234E-03    -107.576E+06    -65.4199E+06    -108.647E+06     4.65229E+06    -22.1925E-03     44.2794E-03    -22.0869E-03     9.04864E-03    -22.4778E-03     44.2661E-03    -22.3792E-03     9.10994E-03
            1224     1.76071E-03     113.244E-03    -90.6967E+06    -56.1535E+06    -88.8841E+06     8.17746E+06    -22.6200E-03     44.8788E-03    -22.2588E-03     17.3601E-03    -22.8630E-03     44.8580E-03    -22.4903E-03     17.4683E-03
            1225     2.64045E-03     113.260E-03    -72.3643E+06    -52.8556E+06    -70.3648E+06     8.85293E+06    -23.3767E-03     45.8858E-03    -22.5091E-03     27.0380E-03    -23.5590E-03     45.8274E-03    -22.6794E-03     27.1569E-03
            1226     3.51953E-03     113.285E-03    -57.0481E+06    -49.0982E+06    -55.3701E+06     6.57268E+06    -24.4282E-03     47.2563E-03    -22.8281E-03     37.8517E-03    -24.5604E-03     47.1720E-03    -22.9510E-03     37.9433E-03
            1227     4.39740E-03     113.319E-03    -46.3597E+06    -42.7657E+06    -43.4081E+06     2.45489E+06    -25.7004E-03     48.9084E-03    -23.2080E-03     49.5858E-03    -25.8047E-03     48.8221E-03    -23.2958E-03     49.6257E-03
            1228     5.27450E-03     113.363E-03    -41.1065E+06    -36.5122E+06    -35.0989E+06    -2.07796E+06    -27.1975E-03     50.8370E-03    -23.6395E-03     62.1805E-03    -27.2962E-03     50.7618E-03    -23.7025E-03     62.1616E-03
            1229     6.15072E-03     113.418E-03    -40.3786E+06    -36.7302E+06    -29.6315E+06    -7.69446E+06    -29.0641E-03     53.1996E-03    -24.1355E-03     75.9524E-03    -29.1675E-03     53.1152E-03    -24.1719E-03     75.8582E-03
            1230     7.02562E-03     113.485E-03    -39.5714E+06    -38.3676E+06    -24.8499E+06    -12.8686E+06    -31.3916E-03     56.0939E-03    -24.7023E-03     91.2178E-03    -31.4991E-03     55.9968E-03    -24.7135E-03     91.0496E-03
            1231     7.89886E-03     113.568E-03    -35.8532E+06    -32.4291E+06    -18.0966E+06    -15.8531E+06    -34.3445E-03     59.6939E-03    -25.3494E-03     108.273E-03    -34.4613E-03     59.6208E-03    -25.3409E-03     108.051E-03
            1232     8.77005E-03     113.666E-03    -32.0588E+06    -27.6182E+06    -10.9677E+06    -19.5416E+06    -38.2657E-03     64.3779E-03    -26.1121E-03     127.525E-03    -38.4036E-03     64.3358E-03    -26.0804E-03     127.223E-03
            1233     9.63849E-03     113.784E-03    -29.7952E+06    -26.6306E+06    -5.53420E+06    -24.1560E+06    -43.4773E-03     70.5025E-03    -27.0253E-03     149.490E-03    -43.6619E-03     70.5032E-03    -26.9711E-03     149.067E-03
            1234     10.5034E-03     113.923E-03    -26.0787E+06    -28.2877E+06    -228.331E+03    -27.9509E+06    -50.3466E-03     78.4850E-03    -28.1384E-03     173.551E-03    -50.6180E-03     78.5647E-03    -28.0607E-03     172.961E-03
            1235     11.3637E-03     114.088E-03    -22.4066E+06    -28.6079E+06     4.65576E+06    -32.3078E+06    -59.5718E-03     89.0848E-03    -29.5130E-03     200.305E-03    -60.0395E-03     89.3591E-03    -29.4158E-03     199.427E-03
            1236     12.2168E-03     114.280E-03    -21.5577E+06    -36.0360E+06     5.02479E+06    -36.8304E+06    -72.0925E-03     103.319E-03    -31.2266E-03     233.343E-03    -72.9981E-03     104.008E-03    -31.1179E-03     231.933E-03
            1237     13.0627E-03     114.513E-03    -19.9380E+06    -39.9021E+06     2.83537E+06    -37.3534E+06    -88.8463E-03     122.198E-03    -33.3513E-03     275.687E-03    -90.7622E-03     123.896E-03    -33.2504E-03     273.274E-03
            1238     13.8963E-03     114.796E-03    -18.8877E+06    -34.0071E+06     3.31015E+06    -36.1478E+06    -110.544E-03     146.516E-03    -35.9712E-03     332.113E-03    -114.954E-03     150.733E-03    -35.8779E-03     327.575E-03
            1239     14.7175E-03     115.156E-03    -17.5113E+06    -13.7291E+06     10.9978E+06    -35.5836E+06    -135.489E-03     174.581E-03    -39.0912E-03     406.566E-03    -146.155E-03     185.109E-03    -38.9910E-03     397.782E-03
            1240     15.5303E-03     115.614E-03    -10.8184E+06     56.8267E+06     41.2635E+06    -27.4311E+06    -157.835E-03     200.509E-03    -42.6730E-03     483.294E-03    -182.621E-03     225.345E-03    -42.5334E-03     468.811E-03
            1241     16.3298E-03     116.177E-03    -1.89683E+06     102.512E+06     91.6883E+06    -9.64063E+06    -164.897E-03     211.796E-03    -46.8998E-03     427.241E-03    -191.888E-03     238.890E-03    -46.5873E-03     416.360E-03
            1242     881.453E-06     114.223E-03    -115.077E+06    -64.8959E+06    -114.621E+06    -5.55435E+06    -21.0849E-03     42.0732E-03    -20.9882E-03     8.37837E-03    -21.3998E-03     42.0822E-03    -21.3004E-03     8.30705E-03
            1243     1.76238E-03     114.233E-03    -107.342E+06    -57.3159E+06    -105.823E+06    -7.90338E+06    -21.4569E-03     42.5760E-03    -21.1192E-03     15.8464E-03    -21.7569E-03     42.5984E-03    -21.4095E-03     15.7453E-03
            1244     2.64329E-03     114.251E-03    -94.2932E+06    -52.0805E+06    -92.0691E+06    -9.28890E+06    -22.0649E-03     43.3942E-03    -21.3293E-03     24.6215E-03    -22.3269E-03     43.4036E-03    -21.5774E-03     24.5036E-03
            1245     3.52367E-03     114.277E-03    -78.3803E+06    -46.1701E+06    -78.5556E+06    -10.8208E+06    -22.9212E-03     44.5113E-03    -21.5901E-03     34.6692E-03    -23.1314E-03     44.5070E-03    -21.8023E-03     34.5332E-03
            1246     4.40359E-03     114.313E-03    -62.6215E+06    -39.5556E+06    -67.2206E+06    -11.6539E+06    -24.0923E-03     45.9940E-03    -21.9017E-03     45.9863E-03    -24.2489E-03     45.9827E-03    -22.0896E-03     45.8413E-03
            1247     5.28222E-03     114.358E-03    -48.8436E+06    -34.0923E+06    -52.7569E+06    -10.8268E+06    -25.6845E-03     47.9951E-03    -22.3106E-03     58.6748E-03    -25.8003E-03     47.9694E-03    -22.4541E-03     58.5416E-03
            1248     6.15927E-03     114.415E-03    -38.3797E+06    -30.7934E+06    -36.4160E+06    -10.8790E+06    -27.7297E-03     50.5572E-03    -22.8275E-03     72.8580E-03    -27.8216E-03     50.5091E-03    -22.9093E-03     72.7233E-03
            1249     7.03485E-03     114.485E-03    -32.0951E+06    -31.3055E+06    -22.8499E+06    -14.4464E+06    -30.2635E-03     53.7028E-03    -23.4394E-03     88.5423E-03    -30.3449E-03     53.6255E-03    -23.4617E-03     88.3570E-03
            1250     7.90899E-03     114.570E-03    -28.2833E+06    -28.3814E+06    -12.6541E+06    -17.7803E+06    -33.3576E-03     57.4924E-03    -24.1348E-03     105.915E-03    -33.4459E-03     57.4163E-03    -24.1159E-03     105.675E-03
            1251     8.78110E-03     114.673E-03    -25.3355E+06    -21.4539E+06    -4.35194E+06    -19.3414E+06    -37.2779E-03     62.2075E-03    -24.9296E-03     125.637E-03    -37.3906E-03     62.1669E-03    -24.8835E-03     125.352E-03
            1252     9.65055E-03     114.795E-03    -22.9666E+06    -18.3300E+06     2.97947E+06    -22.9292E+06    -42.5440E-03     68.4146E-03    -25.8706E-03     148.508E-03    -42.6991E-03     68.4149E-03    -25.7959E-03     148.127E-03
            1253     10.5163E-03     114.942E-03    -21.7437E+06    -20.9187E+06     7.76561E+06    -28.0042E+06    -49.6030E-03     76.6088E-03    -27.0058E-03     174.021E-03    -49.8403E-03     76.6728E-03    -26.9051E-03     173.473E-03
            1254     11.3771E-03     115.114E-03    -20.5608E+06    -20.8179E+06     12.1248E+06    -31.6198E+06    -59.0777E-03     87.4759E-03    -28.3982E-03     202.978E-03    -59.4998E-03     87.7172E-03    -28.2776E-03     202.174E-03
            1255     12.2320E-03     115.319E-03    -18.0851E+06    -27.3554E+06     13.6992E+06    -35.2826E+06    -72.3139E-03     102.450E-03    -30.1364E-03     238.642E-03    -73.1358E-03     103.073E-03    -30.0020E-03     237.339E-03
            1256     13.0769E-03     115.565E-03    -13.6296E+06    -37.5306E+06     12.5884E+06    -38.9311E+06    -90.3407E-03     122.657E-03    -32.3163E-03     283.906E-03    -92.1013E-03     124.203E-03    -32.1792E-03     281.563E-03
            1257     13.9113E-03     115.870E-03    -6.63189E+06    -37.2390E+06     14.6747E+06    -34.3468E+06    -113.569E-03     148.587E-03    -35.0176E-03     342.636E-03    -117.704E-03     152.528E-03    -34.8806E-03     338.146E-03
            1258     14.7338E-03     116.250E-03    -2.58582E+06    -8.47453E+06     25.0065E+06    -27.4805E+06    -141.667E-03     179.952E-03    -38.2851E-03     415.958E-03    -151.795E-03     189.975E-03    -38.1440E-03     406.884E-03
            1259     15.5389E-03     116.731E-03    -5.06087E+06     46.9725E+06     47.2920E+06    -22.9525E+06    -167.581E-03     209.713E-03    -42.1320E-03     492.183E-03    -191.438E-03     233.589E-03    -41.9563E-03     475.999E-03
            1260     16.3270E-03     117.312E-03    -7.67345E+06     77.6025E+06     91.3175E+06    -13.5049E+06    -174.882E-03     221.550E-03    -46.6677E-03     447.743E-03    -202.603E-03     249.265E-03    -46.3125E-03     433.930E-03
            1261     881.148E-06     115.212E-03    -86.6313E+06    -52.3516E+06    -84.7886E+06    -7.24761E+06    -21.3632E-03     42.5894E-03    -21.2262E-03     7.45166E-03    -21.5973E-03     42.5768E-03    -21.4486E-03     7.35726E-03
            1262     1.76224E-03     115.222E-03    -85.3586E+06    -48.0769E+06    -80.4547E+06    -12.2749E+06    -21.7358E-03     43.1240E-03    -21.3882E-03     14.0419E-03    -21.9764E-03     43.1242E-03    -21.5970E-03     13.8820E-03
            1263     2.64275E-03     115.241E-03    -84.0094E+06    -43.8816E+06    -77.1794E+06    -17.0152E+06    -22.2419E-03     43.8184E-03    -21.5765E-03     21.7488E-03    -22.4867E-03     43.8330E-03    -21.7770E-03     21.5272E-03
            1264     3.52300E-03     115.267E-03    -81.3579E+06    -38.8945E+06    -75.6554E+06    -21.4299E+06    -22.8400E-03     44.6190E-03    -21.7790E-03     30.4103E-03    -23.0812E-03     44.6526E-03    -21.9829E-03     30.1317E-03
            1265     4.40278E-03     115.304E-03    -76.2857E+06    -34.7047E+06    -72.1846E+06    -24.5747E+06    -23.6016E-03     45.6126E-03    -22.0110E-03     40.3195E-03    -23.8285E-03     45.6547E-03    -22.2110E-03     40.0010E-03
            1266     5.28230E-03     115.351E-03    -66.9398E+06    -32.5648E+06    -63.0443E+06    -25.5849E+06    -24.7301E-03     47.0365E-03    -22.3064E-03     51.9600E-03    -24.9261E-03     47.0621E-03    -22.4774E-03     51.6297E-03
            1267     6.16102E-03     115.410E-03    -53.3485E+06    -28.5741E+06    -49.6283E+06    -24.8985E+06    -26.4487E-03     49.1333E-03    -22.6846E-03     65.6894E-03    -26.6015E-03     49.1392E-03    -22.8140E-03     65.3692E-03
            1268     7.03810E-03     115.483E-03    -39.0645E+06    -26.7243E+06    -34.5434E+06    -24.0224E+06    -28.9401E-03     52.1196E-03    -23.1795E-03     81.6078E-03    -29.0464E-03     52.0926E-03    -23.2568E-03     81.2982E-03
            1269     7.91262E-03     115.571E-03    -27.8879E+06    -25.8860E+06    -16.0890E+06    -23.2839E+06    -32.2415E-03     56.0733E-03    -23.8317E-03     99.6469E-03    -32.3236E-03     56.0114E-03    -23.8342E-03     99.3405E-03
            1270     8.78493E-03     115.677E-03    -20.7884E+06    -20.5978E+06     360.384E+03     -20.986E+06    -36.4428E-03     61.0688E-03    -24.6260E-03     120.021E-03    -36.5324E-03     61.0107E-03    -24.5642E-03     119.727E-03
            1271     9.65470E-03     115.804E-03    -19.7449E+06    -12.4196E+06     10.3759E+06    -19.2531E+06    -41.8134E-03     67.3767E-03    -25.5633E-03     143.428E-03    -41.9523E-03     67.3717E-03    -25.4648E-03     143.119E-03
            1272     10.5210E-03     115.956E-03    -21.7072E+06    -9.45954E+06     17.2472E+06    -24.1382E+06    -48.8361E-03     75.5351E-03    -26.6990E-03     169.960E-03    -49.0636E-03     75.6027E-03    -26.5676E-03     169.507E-03
            1273     11.3824E-03     116.137E-03    -20.3940E+06    -12.8943E+06     21.1820E+06    -31.7028E+06    -58.5764E-03     86.6658E-03    -28.0894E-03     200.800E-03    -58.9473E-03     86.8583E-03    -27.9353E-03     200.073E-03
            1274     12.2370E-03     116.353E-03    -15.9897E+06    -19.5946E+06     23.0288E+06    -36.4104E+06    -72.5072E-03     102.342E-03    -29.8351E-03     239.104E-03    -73.2090E-03     102.853E-03    -29.6684E-03     237.906E-03
            1275     13.0827E-03     116.616E-03    -13.5322E+06    -30.3515E+06     22.4537E+06    -40.3602E+06    -91.0985E-03     123.139E-03    -32.0406E-03     286.767E-03    -92.6362E-03     124.459E-03    -31.8647E-03     284.589E-03
            1276     13.9170E-03     116.937E-03    -12.2543E+06    -46.1608E+06     17.0653E+06    -40.9982E+06    -115.942E-03     150.717E-03    -34.7745E-03     347.972E-03    -119.640E-03     154.162E-03    -34.6045E-03     343.591E-03
            1277     14.7362E-03     117.342E-03    -9.78197E+06    -20.8725E+06     22.4865E+06    -31.1392E+06    -146.141E-03     184.232E-03    -38.0916E-03     424.442E-03    -155.389E-03     193.313E-03    -37.9347E-03     415.383E-03
            1278     15.5398E-03     117.849E-03    -8.34391E+06     41.4425E+06     46.3533E+06    -19.0672E+06    -173.543E-03     215.517E-03    -41.9732E-03     505.850E-03    -195.819E-03     237.782E-03    -41.7894E-03     489.021E-03
            1279     16.3356E-03     118.454E-03    -4.97119E+06     65.7816E+06     90.1210E+06    -9.66212E+06    -183.336E-03     229.887E-03    -46.5510E-03     475.367E-03    -211.562E-03     258.080E-03    -46.1886E-03     459.031E-03
            1280     879.983E-06     116.202E-03    -56.0275E+06    -39.0581E+06    -54.8446E+06    -6.09606E+06    -22.9943E-03     45.9172E-03    -22.9230E-03     6.17081E-03    -23.1384E-03     45.8832E-03    -23.0593E-03     6.08958E-03
            1281     1.75952E-03     116.213E-03    -56.0952E+06    -36.2712E+06    -53.1292E+06    -10.5855E+06    -23.3953E-03     46.4439E-03    -23.0487E-03     11.6757E-03    -23.5468E-03     46.4212E-03    -23.1804E-03     11.5343E-03
            1282     2.63880E-03     116.232E-03    -55.0925E+06    -31.8396E+06    -49.4578E+06    -15.6754E+06    -23.9692E-03     47.2280E-03    -23.2589E-03     18.0393E-03    -24.1280E-03     47.2212E-03    -23.3801E-03     17.8295E-03
            1283     3.51748E-03     116.260E-03    -53.9526E+06    -27.8610E+06    -44.8508E+06    -20.9772E+06    -24.5742E-03     48.0883E-03    -23.5140E-03     25.1365E-03    -24.7406E-03     48.0938E-03    -23.6197E-03     24.8560E-03
            1284     4.39581E-03     116.296E-03    -53.4584E+06    -25.7163E+06    -40.6785E+06    -25.3419E+06    -25.1742E-03     48.9565E-03    -23.7823E-03     33.2643E-03    -25.3483E-03     48.9668E-03    -23.8708E-03     32.9255E-03
            1285     5.27370E-03     116.344E-03    -54.0295E+06    -25.4600E+06    -38.3322E+06    -29.3902E+06    -25.8512E-03     49.8998E-03    -24.0486E-03     42.8400E-03    -26.0328E-03     49.9097E-03    -24.1250E-03     42.4480E-03
            1286     6.15127E-03     116.404E-03    -53.5531E+06    -23.7736E+06    -36.6092E+06    -32.8039E+06    -26.8020E-03     51.1246E-03    -24.3226E-03     54.4483E-03    -26.9867E-03     51.1404E-03    -24.3935E-03     54.0127E-03
            1287     7.02831E-03     116.479E-03    -49.9230E+06    -23.8305E+06    -33.2908E+06    -34.1141E+06    -28.3553E-03     53.0023E-03    -24.6469E-03     68.7177E-03    -28.5266E-03     53.0079E-03    -24.7065E-03     68.2668E-03
            1288     7.90444E-03     116.570E-03    -42.4186E+06    -24.5062E+06    -25.5160E+06    -33.4370E+06    -30.9786E-03     56.0628E-03    -25.0842E-03     86.1964E-03    -31.1233E-03     56.0439E-03    -25.1148E-03     85.7544E-03
            1289     8.77769E-03     116.680E-03    -31.8629E+06    -24.2843E+06    -9.87467E+06    -29.6163E+06    -35.1035E-03     60.8196E-03    -25.7161E-03     107.148E-03    -35.2232E-03     60.7688E-03    -25.6840E-03     106.749E-03
            1290     9.64712E-03     116.812E-03    -19.2361E+06    -15.8711E+06     12.0642E+06    -22.2432E+06    -40.7328E-03     67.3114E-03    -26.5786E-03     131.438E-03    -40.8489E-03     67.2683E-03    -26.4674E-03     131.112E-03
            1291     10.5128E-03     116.969E-03    -11.9865E+06    -215.168E+03     28.6928E+06    -18.7640E+06    -48.0185E-03     75.6786E-03    -27.6600E-03     158.806E-03    -48.1864E-03     75.7205E-03    -27.4989E-03     158.469E-03
            1292     11.3741E-03     117.157E-03    -14.7495E+06     879.487E+03     33.6469E+06    -24.5598E+06    -58.1332E-03     87.1571E-03    -29.0239E-03     190.897E-03    -58.4301E-03     87.3081E-03    -28.8356E-03     190.347E-03
            1293     12.2284E-03     117.384E-03    -21.1385E+06    -9.31953E+06     32.4664E+06    -33.3085E+06    -72.0029E-03     102.766E-03    -30.7628E-03     230.840E-03    -72.5816E-03     103.144E-03    -30.5564E-03     229.849E-03
            1294     13.0731E-03     117.661E-03    -24.6885E+06    -20.5509E+06     29.5414E+06    -39.8003E+06    -90.6805E-03     123.630E-03    -32.9492E-03     280.414E-03    -91.9342E-03     124.640E-03    -32.7359E-03     278.546E-03
            1295     13.9073E-03     118.000E-03    -26.9187E+06    -43.5810E+06     21.3999E+06    -44.3636E+06    -115.979E-03     151.632E-03    -35.6526E-03     345.299E-03    -119.011E-03     154.355E-03    -35.4434E-03     341.402E-03
            1296     14.7268E-03     118.429E-03    -22.6101E+06    -36.9697E+06     27.9395E+06    -46.6892E+06    -146.312E-03     185.242E-03    -38.9295E-03     424.272E-03    -154.072E-03     192.714E-03    -38.7035E-03     415.821E-03
            1297     15.5385E-03     118.955E-03    -6.97359E+06     6.18263E+06     33.9583E+06    -27.7060E+06    -173.763E-03     216.376E-03    -42.6126E-03     503.565E-03    -192.507E-03     235.023E-03    -42.4416E-03     487.508E-03
            1298     16.3329E-03     119.588E-03     2.58136E+06     48.7901E+06     84.3778E+06    -1.75584E+06    -182.005E-03     228.961E-03    -46.9551E-03     493.756E-03    -208.986E-03     255.891E-03    -46.6077E-03     476.309E-03
            1299     876.994E-06     117.197E-03    -30.1341E+06    -27.9815E+06    -29.1280E+06    -4.75659E+06    -26.3110E-03     52.4993E-03    -26.1884E-03     4.59555E-03    -26.3794E-03     52.4455E-03    -26.2497E-03     4.52918E-03
            1300     1.75404E-03     117.209E-03    -29.6875E+06    -24.8800E+06    -27.9566E+06    -9.42284E+06    -26.7167E-03     53.0704E-03    -26.3538E-03     8.75884E-03    -26.7899E-03     53.0296E-03    -26.4144E-03     8.62764E-03
            1301     2.63038E-03     117.228E-03    -29.3522E+06    -20.9907E+06    -23.8127E+06    -13.9816E+06    -27.3611E-03     53.9645E-03    -26.6033E-03     13.4093E-03    -27.4452E-03     53.9374E-03    -26.6494E-03     13.2140E-03
            1302     3.50616E-03     117.257E-03    -29.2410E+06    -17.0832E+06    -18.4821E+06    -17.7874E+06    -28.0921E-03     55.0152E-03    -26.9231E-03     18.5160E-03    -28.1905E-03     55.0010E-03    -26.9483E-03     18.2658E-03
            1303     4.38123E-03     117.294E-03    -29.2021E+06    -16.5248E+06    -14.3109E+06    -21.1976E+06    -28.8306E-03     56.1074E-03    -27.2768E-03     24.4006E-03    -28.9375E-03     56.0916E-03    -27.2821E-03     24.1004E-03
            1304     5.25573E-03     117.342E-03    -28.8410E+06    -15.7369E+06    -9.81512E+06    -24.3324E+06    -29.5058E-03     57.1487E-03    -27.6429E-03     31.4970E-03    -29.6208E-03     57.1319E-03    -27.6273E-03     31.1509E-03
            1305     6.12965E-03     117.402E-03    -29.6889E+06    -15.2637E+06    -6.12632E+06    -27.7265E+06    -30.0803E-03     58.0797E-03    -27.9994E-03     40.2501E-03    -30.2080E-03     58.0633E-03    -27.9648E-03     39.8565E-03
            1306     7.00340E-03     117.477E-03    -32.2566E+06    -17.1585E+06    -5.59833E+06    -30.8533E+06    -30.7498E-03     59.0838E-03    -28.3340E-03     51.3017E-03    -30.8904E-03     59.0629E-03    -28.2903E-03     50.8667E-03
            1307     7.87662E-03     117.569E-03    -34.9080E+06    -19.4355E+06    -8.49234E+06    -34.0133E+06    -32.0264E-03     60.6953E-03    -28.6689E-03     65.5848E-03    -32.1741E-03     60.6725E-03    -28.6325E-03     65.1107E-03
            1308     8.74943E-03     117.681E-03    -34.1009E+06    -24.5968E+06     -6.0419E+06    -35.5386E+06    -34.5863E-03     63.6965E-03    -29.1102E-03     84.1783E-03    -34.7269E-03     63.6445E-03    -29.0553E-03     83.6874E-03
            1309     9.61980E-03     117.817E-03    -27.5796E+06    -22.4058E+06     6.11643E+06    -33.4012E+06    -39.0650E-03     68.8109E-03    -29.7459E-03     107.499E-03    -39.1974E-03     68.7474E-03    -29.6428E-03     107.034E-03
            1310     10.4856E-03     117.980E-03    -17.7184E+06    -7.79817E+06     22.3170E+06    -23.2150E+06    -46.1646E-03     76.8043E-03    -30.6396E-03     135.428E-03    -46.3089E-03     76.7933E-03    -30.4910E-03     135.071E-03
            1311     11.3449E-03     118.176E-03    -13.3954E+06     9.52312E+06     40.7796E+06    -14.8323E+06    -56.4405E-03     88.3464E-03    -31.9059E-03     169.036E-03    -56.6692E-03     88.4438E-03    -31.6964E-03     168.709E-03
            1312     12.1966E-03     118.412E-03    -18.1469E+06     7.74594E+06     48.4042E+06    -18.6663E+06    -70.2999E-03     103.893E-03    -33.5927E-03     209.624E-03    -70.7180E-03     104.134E-03    -33.3356E-03     209.027E-03
            1313     13.0413E-03     118.699E-03    -24.4816E+06    -2.54307E+06     45.2441E+06    -30.1755E+06    -88.5049E-03     124.229E-03    -35.7245E-03     259.764E-03    -89.3696E-03     124.868E-03    -35.4591E-03     258.445E-03
            1314     13.8733E-03     119.055E-03    -23.3223E+06    -28.3076E+06     37.2330E+06    -41.0244E+06    -112.703E-03     151.072E-03    -38.3697E-03     323.573E-03    -114.762E-03     152.842E-03    -38.1087E-03     320.586E-03
            1315     14.6974E-03     119.496E-03    -22.6455E+06    -31.5245E+06     33.5982E+06    -47.7668E+06    -143.732E-03     185.351E-03    -41.6194E-03     396.878E-03    -149.271E-03     190.603E-03    -41.3729E-03     389.874E-03
            1316     15.4987E-03     120.046E-03    -32.0060E+06    -33.6389E+06     11.6933E+06    -46.4333E+06    -166.349E-03     211.587E-03    -45.2388E-03     467.684E-03    -179.475E-03     224.448E-03    -45.0851E-03     454.631E-03
            1317     16.2967E-03     120.679E-03    -25.6849E+06    -6.22473E+06     44.8886E+06    -30.4844E+06    -155.741E-03     204.448E-03    -48.7077E-03     497.160E-03    -177.527E-03     225.999E-03    -48.4369E-03     483.729E-03
            1318     872.863E-06     118.200E-03    -6.57785E+06    -18.0684E+06    -6.20912E+06    -4.38761E+06    -31.4790E-03     62.8671E-03    -31.3881E-03     2.67482E-03    -31.4781E-03     62.7946E-03    -31.3834E-03     2.61022E-03
            1319     1.74507E-03     118.213E-03    -6.48216E+06    -14.8581E+06    -3.02489E+06    -8.21913E+06    -32.0763E-03     63.6772E-03    -31.6009E-03     5.34420E-03    -32.0853E-03     63.6158E-03    -31.5851E-03     5.22196E-03
            1320     2.61685E-03     118.233E-03    -6.16868E+06    -11.9969E+06     1.10607E+06    -11.4143E+06    -32.8741E-03     64.8232E-03    -31.9491E-03     7.81323E-03    -32.8926E-03     64.7703E-03    -31.9173E-03     7.64083E-03
            1321     3.48776E-03     118.262E-03    -5.81707E+06    -9.23608E+06     5.72137E+06    -13.8271E+06    -33.7537E-03     66.1292E-03    -32.3755E-03     10.5116E-03    -33.7826E-03     66.0842E-03    -32.3251E-03     10.2981E-03
            1322     4.35768E-03     118.301E-03    -6.03190E+06    -8.46229E+06     10.9555E+06    -16.1455E+06    -34.6885E-03     67.5490E-03    -32.8605E-03     13.8341E-03    -34.7293E-03     67.5024E-03    -32.7847E-03     13.5796E-03
            1323     5.22657E-03     118.349E-03    -7.26784E+06     -8.5126E+06     14.3765E+06    -18.3891E+06    -35.5630E-03     68.9360E-03    -33.3731E-03     18.0424E-03    -35.6176E-03     68.8884E-03    -33.2783E-03     17.7476E-03
            1324     6.09469E-03     118.410E-03    -9.00413E+06    -7.61793E+06     16.7177E+06    -20.0094E+06    -36.3170E-03     70.2112E-03    -33.8942E-03     23.4007E-03    -36.3885E-03     70.1700E-03    -33.7865E-03     23.0742E-03
            1325     6.96195E-03     118.484E-03    -10.6985E+06     -9.4992E+06     18.8782E+06    -22.1691E+06    -36.9912E-03     71.4136E-03    -34.4225E-03     30.4188E-03    -37.0758E-03     71.3658E-03    -34.2988E-03     30.0548E-03
            1326     7.82877E-03     118.576E-03    -13.1186E+06    -11.3219E+06     20.7158E+06    -24.6815E+06    -37.6346E-03     72.5875E-03    -34.9530E-03     39.8929E-03    -37.7356E-03     72.5349E-03    -34.8139E-03     39.4905E-03
            1327     8.69444E-03     118.687E-03    -17.9650E+06    -17.3901E+06     18.9091E+06    -28.1194E+06    -38.5253E-03     74.0138E-03    -35.4885E-03     52.9651E-03    -38.6427E-03     73.9435E-03    -35.3427E-03     52.5184E-03
            1328     9.55979E-03     118.823E-03    -24.2321E+06    -20.4878E+06     14.7269E+06    -30.9552E+06    -40.5258E-03     76.5964E-03    -36.0706E-03     70.8231E-03    -40.6661E-03     76.5280E-03    -35.9321E-03     70.3453E-03
            1329     10.4234E-03     118.989E-03    -25.0959E+06    -19.1725E+06     18.6777E+06    -29.1968E+06    -44.9468E-03     81.7890E-03    -36.8422E-03     94.6641E-03    -45.1019E-03     81.7268E-03    -36.6846E-03     94.2131E-03
            1330     11.2822E-03     119.192E-03    -16.1788E+06    -2.39451E+06     40.6686E+06    -18.1977E+06    -52.8700E-03     90.8351E-03    -37.9651E-03     125.697E-03    -53.0491E-03     90.8260E-03    -37.7348E-03     125.375E-03
            1331     12.1337E-03     119.436E-03    -3.89457E+06     16.3145E+06     66.7755E+06    -9.35637E+06    -65.2972E-03     104.832E-03    -39.5347E-03     164.864E-03    -65.5335E-03     104.917E-03    -39.2189E-03     164.573E-03
            1332     12.9720E-03     119.733E-03     1.62036E+06     19.1661E+06     76.0608E+06    -11.4292E+06    -82.4830E-03     124.079E-03    -41.5965E-03     212.308E-03    -82.8994E-03     124.346E-03    -41.2463E-03     211.694E-03
            1333     13.8031E-03     120.095E-03    -866.833E+03     3.31532E+06     65.4614E+06    -23.8747E+06    -107.141E-03     151.430E-03    -44.2886E-03     269.203E-03    -108.201E-03     152.303E-03    -43.9649E-03     267.405E-03
            1334     14.6126E-03     120.550E-03    -5.93359E+06    -21.9019E+06     56.1538E+06    -25.2832E+06    -137.582E-03     185.437E-03    -47.8552E-03     331.250E-03    -140.585E-03     188.169E-03    -47.5341E-03     326.668E-03
            1335     15.4059E-03     121.109E-03    -947.664E+03    -21.1125E+06     66.4743E+06    -18.4644E+06    -144.395E-03     196.118E-03    -51.7234E-03     384.634E-03    -151.001E-03     202.440E-03    -51.3590E-03     377.101E-03
            1336     16.2171E-03     121.711E-03     2.85273E+06    -10.8449E+06     47.7352E+06    -23.4274E+06    -93.1587E-03     146.679E-03    -53.5199E-03     435.145E-03    -104.146E-03     157.522E-03    -53.2696E-03     429.771E-03
            1337     866.383E-06     119.216E-03     15.9406E+06    -9.38596E+06     16.6834E+06    -3.48792E+06    -38.9288E-03     77.7908E-03    -38.8620E-03     1.11782E-03    -38.8624E-03     77.6943E-03    -38.7881E-03     1.06160E-03
            1338     1.73248E-03     119.229E-03     14.9379E+06    -7.23385E+06     19.4416E+06    -5.86012E+06    -39.9832E-03     79.1668E-03    -39.1836E-03     1.05267E-03    -39.9302E-03     79.0778E-03    -39.0975E-03     954.365E-06
            1339     2.59720E-03     119.251E-03     14.9807E+06    -5.28644E+06     23.3395E+06    -8.10121E+06    -40.7970E-03     80.4963E-03    -39.6993E-03     901.831E-06    -40.7526E-03     80.4117E-03    -39.5967E-03     761.926E-06
            1340     3.46092E-03     119.282E-03     14.9535E+06    -3.80977E+06     27.8178E+06    -9.58147E+06    -41.7979E-03     82.0508E-03    -40.2529E-03     1.19465E-03    -41.7633E-03     81.9677E-03    -40.1300E-03     1.02142E-03
            1341     4.32354E-03     119.321E-03     14.3481E+06    -3.25061E+06     31.9642E+06    -10.1962E+06    -43.0059E-03     83.8863E-03    -40.8804E-03     1.79848E-03    -42.9824E-03     83.8017E-03    -40.7367E-03     1.60160E-03
            1342     5.18477E-03     119.371E-03     13.2441E+06    -3.10772E+06     35.6381E+06    -11.0314E+06    -44.3469E-03     85.9392E-03    -41.5923E-03     2.75216E-03    -44.3365E-03     85.8526E-03    -41.4288E-03     2.52670E-03
            1343     6.04439E-03     119.432E-03     11.7844E+06    -2.94028E+06     38.7921E+06    -12.1230E+06    -45.7535E-03     88.1408E-03    -42.3873E-03     4.17752E-03    -45.7579E-03     88.0539E-03    -42.2062E-03     3.91822E-03
            1344     6.90228E-03     119.507E-03     9.83797E+06    -3.21202E+06     41.8845E+06    -13.3638E+06    -47.0839E-03     90.3460E-03    -43.2621E-03     6.37731E-03    -47.1058E-03     90.2580E-03    -43.0623E-03     6.08091E-03
            1345     7.75801E-03     119.598E-03     7.01419E+06    -6.08928E+06     43.0573E+06    -14.1224E+06    -48.1486E-03     92.3441E-03    -44.1955E-03     9.86558E-03    -48.1867E-03     92.2462E-03    -43.9816E-03     9.53879E-03
            1346     8.61266E-03     119.708E-03     4.29006E+06    -8.39412E+06     44.0002E+06    -15.5713E+06    -48.9039E-03     94.0802E-03    -45.1763E-03     15.4206E-03    -48.9593E-03     93.9759E-03    -44.9503E-03     15.0574E-03
            1347     9.46528E-03     119.842E-03     3.11813E+06    -13.5939E+06     44.1402E+06    -18.4225E+06    -49.5557E-03     95.7644E-03    -46.2087E-03     24.2566E-03    -49.6156E-03     95.6385E-03    -45.9728E-03     23.8450E-03
            1348     10.3157E-03     120.006E-03     1.17444E+06    -17.3901E+06     45.0834E+06    -20.3592E+06    -50.7387E-03     98.0743E-03    -47.3356E-03     37.9292E-03    -50.8103E-03     97.9343E-03    -47.0866E-03     37.4900E-03
            1349     11.1640E-03     120.206E-03     4.23691E+06    -13.2501E+06     54.4502E+06    -21.9713E+06    -53.8892E-03     102.562E-03    -48.6723E-03     58.2577E-03    -53.9707E-03     102.428E-03    -48.3870E-03     57.8028E-03
            1350     12.0063E-03     120.453E-03     13.3683E+06     1.15631E+06     79.0680E+06    -12.7313E+06    -60.5235E-03     110.926E-03    -50.4027E-03     86.4340E-03    -60.6249E-03     110.823E-03    -50.0284E-03     86.1004E-03
            1351     12.8430E-03     120.754E-03     24.3483E+06     23.0308E+06     99.7157E+06    -2.57753E+06    -72.6466E-03     125.301E-03    -52.6548E-03     122.003E-03    -72.7982E-03     125.305E-03    -52.2249E-03     121.729E-03
            1352     13.6595E-03     121.123E-03     30.4642E+06     27.1251E+06     99.9179E+06     2.64255E+06    -94.6981E-03     150.439E-03    -55.7406E-03     167.006E-03    -95.0456E-03     150.671E-03    -55.3246E-03     166.356E-03
            1353     14.4526E-03     121.586E-03     30.4499E+06    -5.99116E+06     104.646E+06     9.86370E+06    -116.043E-03     175.918E-03    -59.8744E-03     217.782E-03    -117.006E-03     176.634E-03    -59.3867E-03     216.037E-03
            1354     15.2249E-03     122.133E-03     38.8179E+06    -5.02516E+06     112.886E+06    -189.313E+03    -102.603E-03     166.276E-03    -63.6724E-03     260.008E-03    -104.486E-03     167.935E-03    -63.1570E-03     257.322E-03
            1355     16.0372E-03     122.664E-03     24.5177E+06     9.07264E+06     77.5017E+06    -143.614E+03    -27.5343E-03     91.9704E-03    -64.4360E-03     265.481E-03    -29.8974E-03     94.1712E-03    -64.0972E-03     264.547E-03
            1356     858.576E-06     120.250E-03     34.1446E+06    -3.55553E+06     35.1585E+06    -2.16522E+06    -49.5539E-03     99.1237E-03    -49.5698E-03    -2.44557E-03    -49.4352E-03     98.9992E-03    -49.4384E-03    -2.48594E-03
            1357     1.71434E-03     120.265E-03     34.0660E+06    -2.34692E+06      37.747E+06    -3.33245E+06    -50.1389E-03     99.9356E-03    -49.7966E-03    -4.68346E-03    -50.0254E-03     99.8140E-03    -49.6539E-03    -4.74955E-03
            1358     2.57009E-03     120.288E-03     33.5379E+06    -1.04673E+06     41.6132E+06    -4.10558E+06    -51.1163E-03     101.352E-03    -50.2361E-03    -6.73069E-03    -51.0130E-03     101.232E-03    -50.0752E-03    -6.81824E-03
            1359     3.42489E-03     120.319E-03     32.4934E+06    -903.192E+03     45.2146E+06    -4.28432E+06    -52.4946E-03     103.353E-03    -50.8585E-03    -8.84511E-03    -52.4022E-03     103.229E-03    -50.6782E-03    -8.94804E-03
            1360     4.27784E-03     120.361E-03     31.6491E+06    -641.427E+03     49.1177E+06    -4.37282E+06    -54.3036E-03     105.974E-03    -51.6709E-03    -11.3033E-03    -54.2219E-03     105.847E-03    -51.4703E-03    -11.4229E-03
            1361     5.12864E-03     120.413E-03     31.1558E+06    -490.539E+03     54.5095E+06    -4.25141E+06    -56.4989E-03     109.188E-03    -52.6894E-03    -14.1533E-03    -56.4283E-03     109.053E-03    -52.4614E-03    -14.2895E-03
            1362     5.97656E-03     120.477E-03     30.3735E+06     330.642E+03     59.4180E+06    -4.44938E+06    -58.9503E-03     112.856E-03    -53.9059E-03    -17.3660E-03    -58.8926E-03     112.717E-03    -53.6533E-03    -17.5269E-03
            1363     6.82120E-03     120.553E-03     28.8240E+06    -412.515E+03     62.0558E+06    -4.11493E+06    -61.5059E-03     116.817E-03    -55.3109E-03    -20.9447E-03    -61.4597E-03     116.670E-03    -55.0418E-03    -21.1274E-03
            1364     7.66269E-03     120.645E-03     27.5697E+06    -1.77860E+06     65.4352E+06    -4.57536E+06    -64.0158E-03     120.931E-03    -56.9152E-03    -24.9923E-03    -63.9801E-03     120.770E-03    -56.6254E-03    -25.2118E-03
            1365     8.49969E-03     120.755E-03     26.7069E+06    -3.92858E+06     68.9356E+06    -5.38925E+06    -66.1083E-03     124.821E-03    -58.7123E-03    -29.3093E-03    -66.0806E-03     124.640E-03    -58.4006E-03    -29.5740E-03
            1366     9.33261E-03     120.888E-03     24.9990E+06    -4.52564E+06     72.3049E+06    -8.08233E+06    -67.3407E-03     128.029E-03    -60.6886E-03    -33.0541E-03    -67.3281E-03     127.836E-03    -60.3568E-03    -33.3902E-03
            1367     10.1616E-03     121.047E-03     23.1488E+06    -13.2032E+06     72.0075E+06    -9.09133E+06    -67.7671E-03     130.618E-03    -62.8513E-03    -35.3016E-03    -67.7544E-03     130.376E-03    -62.5057E-03    -35.6857E-03
            1368     10.9852E-03     121.242E-03     21.3472E+06    -4.66727E+06     73.9726E+06    -15.6813E+06    -67.6473E-03     132.910E-03    -65.2628E-03    -35.1800E-03    -67.6637E-03     132.697E-03    -64.9171E-03    -35.6822E-03
            1369     11.8032E-03     121.480E-03     14.9357E+06    -17.7164E+06     76.0102E+06    -11.6895E+06    -67.4443E-03     135.552E-03    -68.1078E-03    -32.4205E-03    -67.4813E-03     135.264E-03    -67.7237E-03    -32.9033E-03
            1370     12.6082E-03     121.773E-03     15.9968E+06     7.33017E+06     80.2325E+06    -11.6365E+06    -68.5577E-03     140.070E-03    -71.5123E-03    -24.4785E-03    -68.6407E-03     139.883E-03    -71.1449E-03    -24.9784E-03
            1371     13.4015E-03     122.135E-03     13.0219E+06     10.7131E+06     82.1394E+06     2.90102E+06    -72.0555E-03     147.810E-03    -75.7541E-03     513.427E-06    -72.1959E-03     147.673E-03    -75.3778E-03     186.050E-06
            1372     14.1622E-03     122.593E-03     13.2797E+06    -3.20395E+06     98.6218E+06     9.20208E+06    -66.2889E-03     146.672E-03    -80.3836E-03     49.7241E-03    -66.5152E-03     146.562E-03    -79.9051E-03     49.3928E-03
            1373     14.9385E-03     123.098E-03     2.02422E+06     13.2477E+06     73.2272E+06    -12.2680E+06    -32.9177E-03     116.318E-03    -83.4008E-03     97.7479E-03    -33.2667E-03     116.455E-03    -83.0568E-03     97.1715E-03
            1374     15.7730E-03     123.587E-03    -4.75644E+06    -3.04814E+06     31.1005E+06     2.07376E+06     19.5686E-03     63.9933E-03    -83.5619E-03     83.2469E-03     19.3717E-03     64.0389E-03    -83.3950E-03     83.1164E-03
            1375     16.1723E-03     61.7494E-03    -7.39179E+06     151.178E+06     106.738E+06    -742.908E+03    -78.1135E-03     134.101E-03    -55.9880E-03     378.931E-03    -102.037E-03     158.226E-03    -55.6628E-03     384.799E-03
            1376     15.3229E-03     61.2464E-03    -11.8915E+06     129.022E+06     95.8656E+06     752.297E+03    -85.3271E-03     141.278E-03    -55.9511E-03     423.452E-03    -108.150E-03     164.239E-03    -55.6416E-03     421.234E-03
            1377     14.4734E-03     60.8616E-03    -16.1403E+06     100.238E+06     63.8089E+06     2.35491E+06    -72.6325E-03     128.508E-03    -55.8759E-03     302.892E-03    -81.6328E-03     137.622E-03    -55.6788E-03     299.741E-03
            1378     13.6192E-03     60.6274E-03    -19.9935E+06     69.6907E+06     21.2322E+06     2.12475E+06    -62.5013E-03     118.277E-03    -55.7759E-03     193.888E-03    -65.6574E-03     121.548E-03    -55.7418E-03     191.834E-03
            1379     12.7676E-03     60.4699E-03    -22.0055E+06     34.9119E+06    -3.61038E+06     1.10612E+06    -59.4738E-03     115.215E-03    -55.7413E-03     140.150E-03    -60.9952E-03     116.793E-03    -55.7780E-03     138.628E-03
            1380     11.9163E-03     60.3459E-03    -22.3602E+06    -8.89915E+06    -5.97142E+06     965.525E+03    -58.3812E-03     114.193E-03    -55.8122E-03     116.735E-03    -59.2822E-03     115.001E-03    -55.7967E-03     115.542E-03
            1381     11.0648E-03     60.2367E-03    -23.1202E+06    -48.5728E+06    -4.95130E+06     1.83819E+06    -57.9115E-03     113.809E-03    -55.8978E-03     103.839E-03    -58.4922E-03     114.150E-03    -55.8186E-03     102.881E-03
            1382     10.2135E-03     60.1380E-03    -24.3976E+06    -74.2705E+06    -5.79520E+06     2.18413E+06    -57.7005E-03     113.656E-03    -55.9554E-03     95.3081E-03    -58.0921E-03     113.714E-03    -55.8413E-03     94.5234E-03
            1383     9.36211E-03     60.0460E-03    -26.2338E+06    -92.9089E+06    -6.72438E+06     1.51712E+06    -57.5328E-03     113.533E-03    -56.0002E-03     87.7418E-03    -57.7987E-03     113.395E-03    -55.8611E-03     87.0858E-03
            1384     8.51089E-03     59.9621E-03    -28.8020E+06    -108.927E+06    -8.14371E+06     422.590E+03    -57.3241E-03     113.361E-03    -56.0365E-03     79.9561E-03    -57.4998E-03     113.071E-03    -55.8775E-03     79.4021E-03
            1385     7.65969E-03     59.8856E-03    -31.5135E+06    -119.736E+06    -9.68271E+06     27.3662E+03    -57.1089E-03     113.172E-03    -56.0631E-03     72.4919E-03    -57.2233E-03     112.778E-03    -55.8922E-03     72.0323E-03
            1386     6.80850E-03     59.8165E-03    -34.5777E+06    -129.893E+06    -11.1719E+06     522.251E+03    -56.9135E-03     113.002E-03    -56.0881E-03     65.0010E-03    -56.9842E-03     112.521E-03    -55.9055E-03     64.6323E-03
            1387     5.95737E-03     59.7550E-03    -38.1522E+06    -141.341E+06    -14.4631E+06     803.665E+03    -56.7303E-03     112.835E-03    -56.1044E-03     57.3569E-03    -56.7663E-03     112.275E-03    -55.9164E-03     57.0639E-03
            1388     5.10625E-03     59.7012E-03    -41.8421E+06    -147.549E+06    -20.2486E+06     969.745E+03    -56.5499E-03     112.649E-03    -56.0988E-03     49.6302E-03    -56.5637E-03     112.049E-03    -55.9255E-03     49.4016E-03
            1389     4.25522E-03     59.6551E-03    -45.0842E+06    -153.080E+06    -26.9895E+06     745.662E+03    -56.3833E-03     112.470E-03    -56.0865E-03     41.7178E-03    -56.3784E-03     111.840E-03    -55.9341E-03     41.5399E-03
            1390     3.40415E-03     59.6172E-03    -47.8109E+06    -159.888E+06    -34.7736E+06     320.466E+03    -56.2371E-03     112.309E-03    -56.0723E-03     33.6655E-03    -56.2124E-03     111.648E-03    -55.9450E-03     33.5282E-03
            1391     2.55302E-03     59.5873E-03    -50.5035E+06    -165.027E+06    -42.6950E+06     296.495E+03    -56.1396E-03     112.197E-03    -56.0579E-03     25.4798E-03    -56.1009E-03     111.517E-03    -55.9588E-03     25.3822E-03
            1392     1.70202E-03     59.5659E-03    -52.8876E+06    -169.312E+06    -49.3167E+06     208.559E+03    -56.0802E-03     112.129E-03    -56.0487E-03     17.2163E-03    -56.0321E-03     111.435E-03    -55.9731E-03     17.1531E-03
            1393     850.941E-06     59.5527E-03    -54.4017E+06    -172.013E+06    -53.5548E+06     130.007E+03    -56.0719E-03     112.103E-03    -56.0312E-03     9.38961E-03    -56.0180E-03     111.401E-03    -55.9707E-03     9.35633E-03
            1394     16.1773E-03     60.6903E-03    -6.84265E+06     152.032E+06     106.863E+06     317.073E+03    -77.9610E-03     133.876E-03    -55.9146E-03     376.114E-03    -101.693E-03     157.813E-03    -55.5908E-03     381.990E-03
            1395     15.3262E-03     60.1871E-03    -12.7508E+06     127.625E+06     94.2614E+06    -997.411E+03    -83.7709E-03     139.691E-03    -55.9197E-03     425.553E-03    -106.682E-03     162.736E-03    -55.6149E-03     423.597E-03
            1396     14.4700E-03     59.8041E-03    -17.4422E+06     97.3758E+06     63.4551E+06     298.406E+03    -72.9525E-03     128.862E-03    -55.9099E-03     306.028E-03    -82.0346E-03     138.044E-03    -55.7085E-03     302.847E-03
            1397     13.6190E-03     59.5666E-03    -18.9852E+06     70.7978E+06     24.0561E+06     1.60673E+06    -63.0781E-03     118.887E-03    -55.8093E-03     195.298E-03    -66.2655E-03     122.189E-03    -55.7641E-03     193.206E-03
            1398     12.7677E-03     59.4109E-03    -19.8754E+06     35.4526E+06    -2.49968E+06     908.731E+03    -59.2855E-03     115.047E-03    -55.7612E-03     140.621E-03    -60.7934E-03     116.617E-03    -55.7963E-03     139.107E-03
            1399     11.9157E-03     59.2855E-03    -21.7006E+06    -10.5037E+06    -7.01820E+06     1.36599E+06    -58.3404E-03     114.179E-03    -55.8386E-03     117.020E-03    -59.2343E-03     114.979E-03    -55.8270E-03     115.835E-03
            1400     11.0645E-03     59.1772E-03    -23.7007E+06    -48.6304E+06    -6.25398E+06     1.87530E+06    -57.9925E-03     113.917E-03    -55.9244E-03     103.970E-03    -58.5750E-03     114.261E-03    -55.8507E-03     103.011E-03
            1401     10.2131E-03     59.0780E-03    -25.2432E+06    -74.1034E+06    -7.15199E+06     1.78969E+06    -57.8195E-03     113.796E-03    -55.9764E-03     95.4461E-03    -58.2143E-03     113.859E-03    -55.8681E-03     94.6543E-03
            1402     9.36195E-03     58.9861E-03    -26.6576E+06    -91.6963E+06    -6.92043E+06     1.76906E+06    -57.6410E-03     113.658E-03    -56.0169E-03     87.7009E-03    -57.9109E-03     113.528E-03    -55.8799E-03     87.0462E-03
            1403     8.51079E-03     58.9021E-03    -28.6872E+06    -107.470E+06    -7.77577E+06     1.05510E+06    -57.3877E-03     113.435E-03    -56.0478E-03     79.9003E-03    -57.5656E-03     113.153E-03    -55.8892E-03     79.3537E-03
            1404     7.65960E-03     58.8257E-03    -31.3596E+06    -119.776E+06    -9.58891E+06     483.617E+03    -57.1601E-03     113.230E-03    -56.0698E-03     72.4307E-03    -57.2739E-03     112.835E-03    -55.8986E-03     71.9763E-03
            1405     6.80849E-03     58.7565E-03    -33.8649E+06    -130.337E+06    -11.0785E+06     447.802E+03    -56.9373E-03     113.028E-03    -56.0907E-03     64.9262E-03    -57.0040E-03     112.544E-03    -55.9080E-03     64.5561E-03
            1406     5.95736E-03     58.6950E-03    -36.4956E+06    -141.754E+06    -13.5502E+06     1.05732E+06    -56.7457E-03     112.853E-03    -56.1077E-03     57.2775E-03    -56.7743E-03     112.288E-03    -55.9170E-03     56.9871E-03
            1407     5.10632E-03     58.6412E-03    -39.9214E+06    -147.013E+06    -18.4200E+06     1.16127E+06    -56.5579E-03     112.662E-03    -56.1039E-03     49.5691E-03    -56.5656E-03     112.059E-03    -55.9250E-03     49.3424E-03
            1408     4.25519E-03     58.5951E-03    -43.6358E+06    -152.167E+06    -26.3632E+06     499.663E+03    -56.3869E-03     112.472E-03    -56.0853E-03     41.6759E-03    -56.3770E-03     111.844E-03    -55.9332E-03     41.4946E-03
            1409     3.40410E-03     58.5572E-03    -47.3295E+06    -159.820E+06    -34.9451E+06     295.194E+03    -56.2572E-03     112.324E-03    -56.0669E-03     33.6099E-03    -56.2300E-03     111.663E-03    -55.9413E-03     33.4721E-03
            1410     2.55309E-03     58.5274E-03    -50.4038E+06    -164.905E+06    -42.5945E+06     349.207E+03    -56.1462E-03     112.195E-03    -56.0487E-03     25.4333E-03    -56.1073E-03     111.515E-03    -55.9495E-03     25.3363E-03
            1411     1.70201E-03     58.5059E-03    -52.5448E+06    -169.018E+06    -49.0189E+06     390.523E+03    -56.0754E-03     112.110E-03    -56.0350E-03     17.1640E-03    -56.0265E-03     111.417E-03    -55.9588E-03     17.1031E-03
            1412     851.016E-06     58.4927E-03    -54.0038E+06    -171.624E+06    -53.0237E+06     287.630E+03    -56.0847E-03     112.072E-03    -55.9872E-03     9.36586E-03    -56.0302E-03     111.371E-03    -55.9251E-03     9.33492E-03
            1413     16.1788E-03     59.6311E-03    -5.50951E+06     152.722E+06     107.272E+06     1.07615E+06    -76.2961E-03     132.277E-03    -55.9813E-03     376.447E-03    -100.118E-03     156.311E-03    -55.6584E-03     382.713E-03
            1414     15.3200E-03     59.1322E-03    -11.2361E+06     130.219E+06     94.7336E+06     1.25391E+06    -84.2263E-03     140.271E-03    -56.0444E-03     429.343E-03    -107.446E-03     163.638E-03    -55.7433E-03     427.515E-03
            1415     14.4689E-03     58.7408E-03    -17.2946E+06     97.6147E+06     60.8234E+06    -302.589E+03    -74.3303E-03     130.332E-03    -56.0015E-03     306.528E-03    -83.4943E-03     139.605E-03    -55.8139E-03     303.214E-03
            1416     13.6187E-03     58.5071E-03    -20.3434E+06     69.7563E+06     19.2784E+06    -935.817E+03    -63.4336E-03     119.282E-03    -55.8482E-03     194.382E-03    -66.6228E-03     122.591E-03    -55.8235E-03     192.241E-03
            1417     12.7666E-03     58.3511E-03    -21.5372E+06     33.6925E+06    -5.34533E+06     687.302E+03    -59.4142E-03     115.210E-03    -55.7959E-03     140.933E-03    -60.9278E-03     116.782E-03    -55.8403E-03     139.412E-03
            1418     11.9154E-03     58.2257E-03    -22.5369E+06    -11.1739E+06    -7.50086E+06     2.08252E+06    -58.4668E-03     114.344E-03    -55.8770E-03     117.051E-03    -59.3649E-03     115.144E-03    -55.8656E-03     115.872E-03
            1419     11.0639E-03     58.1172E-03    -23.8668E+06    -48.1453E+06    -5.76284E+06     2.25846E+06    -58.1265E-03     114.084E-03    -55.9575E-03     103.834E-03    -58.7125E-03     114.431E-03    -55.8819E-03     102.876E-03
            1420     10.2129E-03     58.0178E-03    -25.6434E+06    -73.5867E+06    -6.68581E+06     1.93086E+06    -57.9742E-03     113.973E-03    -55.9992E-03     95.2893E-03    -58.3733E-03     114.040E-03    -55.8888E-03     94.4955E-03
            1421     9.36184E-03     57.9260E-03    -27.4215E+06    -91.0202E+06    -7.09500E+06     1.23889E+06    -57.7107E-03     113.738E-03    -56.0275E-03     87.5182E-03    -57.9854E-03     113.613E-03    -55.8912E-03     86.8549E-03
            1422     8.51070E-03     57.8421E-03    -29.0718E+06    -106.906E+06    -7.29064E+06     1.13897E+06    -57.4429E-03     113.498E-03    -56.0551E-03     79.7975E-03    -57.6246E-03     113.218E-03    -55.8943E-03     79.2506E-03
            1423     7.65967E-03     57.7656E-03    -31.5226E+06    -119.146E+06    -8.92698E+06     1.01559E+06    -57.1988E-03     113.271E-03    -56.0721E-03     72.3392E-03    -57.3156E-03     112.879E-03    -55.8982E-03     71.8905E-03
            1424     6.80855E-03     57.6965E-03    -35.0826E+06    -130.335E+06    -11.4903E+06     713.905E+03    -56.9506E-03     113.037E-03    -56.0860E-03     64.8735E-03    -57.0230E-03     112.555E-03    -55.9035E-03     64.5064E-03
            1425     5.95745E-03     57.6350E-03    -38.5807E+06    -141.946E+06    -15.1629E+06     432.031E+03    -56.7359E-03     112.833E-03    -56.0966E-03     57.2786E-03    -56.7723E-03     112.272E-03    -55.9106E-03     56.9803E-03
            1426     5.10631E-03     57.5812E-03    -41.0621E+06    -146.565E+06    -19.5286E+06     289.712E+03    -56.5395E-03     112.633E-03    -56.0933E-03     49.5594E-03    -56.5519E-03     112.036E-03    -55.9189E-03     49.3217E-03
            1427     4.25522E-03     57.5352E-03    -43.8427E+06    -152.006E+06    -26.0412E+06     604.613E+03    -56.3875E-03     112.468E-03    -56.0805E-03     41.6471E-03    -56.3794E-03     111.840E-03    -55.9267E-03     41.4670E-03
            1428     3.40421E-03     57.4972E-03    -47.1340E+06    -159.453E+06    -34.4992E+06     638.078E+03    -56.2709E-03     112.329E-03    -56.0578E-03     33.5779E-03    -56.2439E-03     111.668E-03    -55.9308E-03     33.4443E-03
            1429     2.55314E-03     57.4675E-03    -50.1226E+06    -164.688E+06    -42.4363E+06     429.908E+03    -56.1550E-03     112.186E-03    -56.0308E-03     25.4091E-03    -56.1153E-03     111.507E-03    -55.9315E-03     25.3131E-03
            1430     1.70210E-03     57.4460E-03    -52.3767E+06    -168.702E+06    -48.6485E+06     337.722E+03    -56.0820E-03     112.086E-03    -56.0041E-03     17.1819E-03    -56.0332E-03     111.394E-03    -55.9267E-03     17.1204E-03
            1431     851.079E-06     57.4327E-03    -53.6949E+06    -171.219E+06    -52.6694E+06     262.148E+03    -56.0491E-03     111.989E-03    -55.9404E-03     9.30829E-03    -55.9941E-03     111.290E-03    -55.8776E-03     9.27699E-03
            1432     16.1667E-03     58.5700E-03    -4.66964E+06     151.129E+06     106.889E+06     1.23134E+06    -74.6001E-03     130.737E-03    -56.1368E-03     375.662E-03    -98.4342E-03     154.781E-03    -55.8147E-03     382.022E-03
            1433     15.3183E-03     58.0695E-03    -12.2040E+06     130.828E+06     93.7236E+06     1.54930E+06    -86.0589E-03     142.223E-03    -56.1644E-03     425.611E-03    -109.251E-03     165.565E-03    -55.8678E-03     423.448E-03
            1434     14.4688E-03     57.6789E-03    -17.1345E+06     100.212E+06     57.8350E+06    -303.181E+03    -74.4644E-03     130.488E-03    -56.0232E-03     304.180E-03    -83.5964E-03     139.747E-03    -55.8545E-03     300.825E-03
            1435     13.6170E-03     57.4471E-03    -21.2573E+06     68.2411E+06     14.0379E+06    -908.722E+03    -63.0943E-03     118.954E-03    -55.8598E-03     192.988E-03    -66.2597E-03     122.246E-03    -55.8578E-03     190.866E-03
            1436     12.7663E-03     57.2907E-03    -23.8876E+06     31.7731E+06    -7.62536E+06     614.303E+03    -59.5580E-03     115.385E-03    -55.8271E-03     140.475E-03    -61.0767E-03     116.954E-03    -55.8767E-03     138.948E-03
            1437     11.9149E-03     57.1656E-03    -24.9216E+06    -11.4764E+06    -8.31620E+06     1.23299E+06    -58.6410E-03     114.543E-03    -55.9020E-03     116.818E-03    -59.5514E-03     115.348E-03    -55.8908E-03     115.621E-03
            1438     11.0640E-03     57.0569E-03    -25.3386E+06    -48.3739E+06    -6.43090E+06     1.58317E+06    -58.2938E-03     114.262E-03    -55.9686E-03     103.577E-03    -58.8864E-03     114.612E-03    -55.8939E-03     102.606E-03
            1439     10.2129E-03     56.9575E-03    -25.8244E+06    -72.7047E+06    -6.52386E+06     1.54264E+06    -58.0181E-03     114.020E-03    -56.0018E-03     95.0244E-03    -58.4196E-03     114.091E-03    -55.8916E-03     94.2240E-03
            1440     9.36183E-03     56.8659E-03    -27.0664E+06    -90.5561E+06    -6.88177E+06     1.16531E+06    -57.7272E-03     113.754E-03    -56.0266E-03     87.3110E-03    -58.0012E-03     113.630E-03    -55.8904E-03     86.6458E-03
            1441     8.51079E-03     56.7819E-03    -29.4142E+06    -106.982E+06    -7.68011E+06     1.22625E+06    -57.4542E-03     113.505E-03    -56.0507E-03     79.7036E-03    -57.6371E-03     113.226E-03    -55.8914E-03     79.1571E-03
            1442     7.65966E-03     56.7056E-03    -32.0288E+06    -118.685E+06    -9.10107E+06     1.31032E+06    -57.2056E-03     113.272E-03    -56.0663E-03     72.2683E-03    -57.3255E-03     112.883E-03    -55.8933E-03     71.8229E-03
            1443     6.80857E-03     56.6365E-03    -34.3172E+06    -129.643E+06    -11.2746E+06     942.933E+03    -56.9643E-03     113.042E-03    -56.0777E-03     64.8075E-03    -57.0342E-03     112.563E-03    -55.8963E-03     64.4428E-03
            1444     5.95746E-03     56.5751E-03    -36.9088E+06    -141.210E+06    -14.7621E+06     238.969E+03    -56.7417E-03     112.828E-03    -56.0858E-03     57.2279E-03    -56.7713E-03     112.268E-03    -55.9014E-03     56.9269E-03
            1445     5.10637E-03     56.5212E-03    -40.5924E+06    -146.705E+06    -20.1234E+06    -83.0430E+03    -56.5369E-03     112.616E-03    -56.0794E-03     49.5263E-03    -56.5459E-03     112.019E-03    -55.9085E-03     49.2837E-03
            1446     4.25528E-03     56.4752E-03    -44.1209E+06    -152.439E+06    -26.7418E+06     120.661E+03    -56.3788E-03     112.446E-03    -56.0670E-03     41.6434E-03    -56.3705E-03     111.817E-03    -55.9156E-03     41.4568E-03
            1447     3.40418E-03     56.4373E-03    -47.0721E+06    -159.268E+06    -34.2414E+06     526.951E+03    -56.2542E-03     112.302E-03    -56.0481E-03     33.5691E-03    -56.2276E-03     111.642E-03    -55.9201E-03     33.4341E-03
            1448     2.55316E-03     56.4076E-03    -49.8533E+06    -164.218E+06    -41.8400E+06     543.695E+03    -56.1516E-03     112.173E-03    -56.0214E-03     25.4116E-03    -56.1121E-03     111.495E-03    -55.9202E-03     25.3171E-03
            1449     1.70213E-03     56.3861E-03    -52.0636E+06    -168.354E+06    -48.3583E+06     249.603E+03    -56.0720E-03     112.063E-03    -55.9913E-03     17.2244E-03    -56.0226E-03     111.372E-03    -55.9135E-03     17.1617E-03
            1450     851.108E-06     56.3729E-03    -53.3854E+06    -170.868E+06    -52.4535E+06     53.2349E+03    -56.0007E-03     111.963E-03    -55.9620E-03     9.26943E-03    -55.9450E-03     111.264E-03    -55.8991E-03     9.23543E-03
            1451     16.1709E-03     57.5080E-03    -5.60759E+06     150.446E+06     107.404E+06     1.37059E+06    -75.5369E-03     131.661E-03    -56.1241E-03     374.976E-03    -99.2807E-03     155.608E-03    -55.7971E-03     381.110E-03
            1452     15.3219E-03     57.0082E-03    -12.7564E+06     131.981E+06     93.5881E+06     759.391E+03    -85.4759E-03     141.589E-03    -56.1133E-03     423.092E-03    -108.402E-03     164.667E-03    -55.8182E-03     420.880E-03
            1453     14.4696E-03     56.6202E-03    -17.7651E+06     101.189E+06     56.7889E+06     3.64934E+03    -73.8059E-03     129.793E-03    -55.9876E-03     303.852E-03    -82.8919E-03     139.011E-03    -55.8246E-03     300.549E-03
            1454     13.6181E-03     56.3865E-03    -21.8686E+06     67.3932E+06     13.4699E+06     365.159E+03    -62.8265E-03     118.680E-03    -55.8537E-03     192.381E-03    -65.9784E-03     121.955E-03    -55.8524E-03     190.286E-03
            1455     12.7662E-03     56.2313E-03    -24.3241E+06     31.0069E+06    -8.21071E+06     649.970E+03    -59.5144E-03     115.342E-03    -55.8278E-03     140.251E-03    -61.0337E-03     116.909E-03    -55.8785E-03     138.725E-03
            1456     11.9149E-03     56.1049E-03    -25.1275E+06    -11.7670E+06    -8.96433E+06     609.780E+03    -58.7765E-03     114.673E-03    -55.8966E-03     116.538E-03    -59.6876E-03     115.479E-03    -55.8879E-03     115.328E-03
            1457     11.0641E-03     55.9966E-03    -25.7287E+06    -48.2095E+06    -7.14656E+06     296.413E+03    -58.3325E-03     114.287E-03    -55.9541E-03     103.190E-03    -58.9260E-03     114.638E-03    -55.8826E-03     102.201E-03
            1458     10.2130E-03     55.8974E-03    -26.3530E+06    -72.8579E+06    -7.44958E+06     251.605E+03    -57.9700E-03     113.955E-03    -55.9849E-03     94.7871E-03    -58.3724E-03     114.027E-03    -55.8783E-03     93.9702E-03
            1459     9.36199E-03     55.8058E-03    -27.3257E+06    -90.9020E+06    -7.35885E+06     1.00948E+06    -57.6791E-03     113.693E-03    -56.0139E-03     87.1849E-03    -57.9530E-03     113.569E-03    -55.8793E-03     86.5180E-03
            1460     8.51081E-03     55.7220E-03    -29.0711E+06    -107.043E+06    -7.85931E+06     1.50939E+06    -57.4415E-03     113.481E-03    -56.0398E-03     79.6173E-03    -57.6224E-03     113.202E-03    -55.8817E-03     79.0741E-03
            1461     7.65976E-03     55.6455E-03    -31.2428E+06    -118.011E+06    -8.64242E+06     1.25137E+06    -57.1901E-03     113.247E-03    -56.0572E-03     72.1879E-03    -57.3076E-03     112.860E-03    -55.8840E-03     71.7416E-03
            1462     6.80867E-03     55.5765E-03    -33.9806E+06    -128.734E+06    -10.5744E+06     557.445E+03    -56.9510E-03     113.022E-03    -56.0705E-03     64.7672E-03    -57.0217E-03     112.545E-03    -55.8874E-03     64.3972E-03
            1463     5.95759E-03     55.5151E-03    -37.1389E+06    -140.729E+06    -14.5292E+06     243.398E+03    -56.7383E-03     112.816E-03    -56.0773E-03     57.2219E-03    -56.7702E-03     112.258E-03    -55.8920E-03     56.9207E-03
            1464     5.10646E-03     55.4613E-03    -40.1634E+06    -146.601E+06    -20.5127E+06     165.958E+03    -56.5377E-03     112.604E-03    -56.0660E-03     49.5427E-03    -56.5441E-03     112.007E-03    -55.8978E-03     49.3034E-03
            1465     4.25534E-03     55.4153E-03    -43.5791E+06    -152.829E+06    -27.6328E+06     234.954E+03    -56.3681E-03     112.419E-03    -56.0514E-03     41.6556E-03    -56.3551E-03     111.789E-03    -55.9048E-03     41.4708E-03
            1466     3.40427E-03     55.3774E-03    -47.0596E+06    -159.313E+06    -34.2716E+06     306.287E+03    -56.2332E-03     112.272E-03    -56.0392E-03     33.5731E-03    -56.2064E-03     111.612E-03    -55.9113E-03     33.4353E-03
            1467     2.55316E-03     55.3476E-03    -49.7918E+06    -163.845E+06    -41.3421E+06     215.612E+03    -56.1295E-03     112.148E-03    -56.0187E-03     25.4054E-03    -56.0909E-03     111.471E-03    -55.9156E-03     25.3068E-03
            1468     1.70211E-03     55.3262E-03    -51.8359E+06    -168.027E+06    -48.0307E+06     127.061E+03    -56.0446E-03     112.043E-03    -55.9988E-03     17.1973E-03    -55.9950E-03     111.353E-03    -55.9202E-03     17.1331E-03
            1469     851.001E-06     55.3130E-03    -53.1605E+06    -170.682E+06    -52.2959E+06     92.2027E+03    -55.9959E-03     111.994E-03    -55.9979E-03     9.24279E-03    -55.9396E-03     111.295E-03    -55.9348E-03     9.20953E-03
            1470     16.1763E-03     56.4487E-03    -5.12776E+06     149.803E+06     107.500E+06     1.15412E+06    -76.7815E-03     132.846E-03    -56.0649E-03     379.206E-03    -100.762E-03     157.028E-03    -55.7372E-03     385.432E-03
            1471     15.3211E-03     55.9512E-03    -9.24734E+06     133.996E+06     96.6815E+06     2.12392E+06    -85.2724E-03     141.336E-03    -56.0635E-03     424.948E-03    -108.115E-03     164.341E-03    -55.7610E-03     422.847E-03
            1472     14.4691E-03     55.5577E-03    -14.6383E+06     101.969E+06     58.9267E+06     2.86818E+06    -73.4928E-03     129.460E-03    -55.9667E-03     304.238E-03    -82.5461E-03     138.652E-03    -55.7987E-03     300.999E-03
            1473     13.6180E-03     55.3283E-03    -20.3178E+06     68.2621E+06     13.0132E+06     2.38780E+06    -62.8110E-03     118.646E-03    -55.8354E-03     192.856E-03    -65.9574E-03     121.925E-03    -55.8399E-03     190.790E-03
            1474     12.7662E-03     55.1705E-03    -22.7793E+06     31.7954E+06    -8.60655E+06     1.13945E+06    -59.8099E-03     115.611E-03    -55.8014E-03     140.370E-03    -61.3338E-03     117.192E-03    -55.8575E-03     138.834E-03
            1475     11.9156E-03     55.0448E-03    -23.4138E+06    -10.9161E+06    -8.37787E+06     284.673E+03    -58.7463E-03     114.610E-03    -55.8640E-03     116.158E-03    -59.6488E-03     115.415E-03    -55.8561E-03     114.944E-03
            1476     11.0644E-03     54.9362E-03    -24.3416E+06    -47.8115E+06    -6.77930E+06    -214.477E+03    -58.1900E-03     114.115E-03    -55.9249E-03     102.967E-03    -58.7768E-03     114.465E-03    -55.8542E-03     101.973E-03
            1477     10.2134E-03     54.8374E-03    -25.9730E+06    -73.7464E+06    -7.77569E+06     149.618E+03    -57.8667E-03     113.830E-03    -55.9629E-03     94.6282E-03    -58.2649E-03     113.896E-03    -55.8572E-03     93.8115E-03
            1478     9.36204E-03     54.7458E-03    -28.2081E+06    -91.5411E+06    -8.03287E+06     794.915E+03    -57.6161E-03     113.613E-03    -55.9971E-03     87.2279E-03    -57.8923E-03     113.488E-03    -55.8636E-03     86.5594E-03
            1479     8.51101E-03     54.6618E-03    -29.7907E+06    -106.835E+06    -8.51550E+06     777.223E+03    -57.4049E-03     113.430E-03    -56.0247E-03     79.5959E-03    -57.5886E-03     113.153E-03    -55.8691E-03     79.0436E-03
            1480     7.65987E-03     54.5855E-03    -31.2522E+06    -117.691E+06    -9.27291E+06     723.165E+03    -57.1493E-03     113.193E-03    -56.0438E-03     72.2099E-03    -57.2663E-03     112.808E-03    -55.8742E-03     71.7575E-03
            1481     6.80868E-03     54.5165E-03    -33.6899E+06    -128.116E+06    -10.3500E+06     843.047E+03    -56.9269E-03     112.990E-03    -56.0635E-03     64.7870E-03    -56.9972E-03     112.516E-03    -55.8806E-03     64.4211E-03
            1482     5.95754E-03     54.4552E-03    -37.0188E+06    -140.190E+06    -14.1832E+06     363.650E+03    -56.7333E-03     112.805E-03    -56.0722E-03     57.2123E-03    -56.7658E-03     112.250E-03    -55.8862E-03     56.9128E-03
            1483     5.10645E-03     54.4013E-03    -40.7114E+06    -146.817E+06    -20.5528E+06     214.611E+03    -56.5319E-03     112.593E-03    -56.0608E-03     49.5348E-03    -56.5406E-03     111.995E-03    -55.8916E-03     49.2964E-03
            1484     4.25537E-03     54.3554E-03    -44.0369E+06    -152.675E+06    -27.1765E+06     306.526E+03    -56.3555E-03     112.404E-03    -56.0480E-03     41.6663E-03    -56.3457E-03     111.774E-03    -55.8987E-03     41.4827E-03
            1485     3.40423E-03     54.3174E-03    -46.8609E+06    -159.054E+06    -34.1619E+06    -14.5880E+03    -56.2226E-03     112.257E-03    -56.0342E-03     33.6015E-03    -56.1952E-03     111.597E-03    -55.9064E-03     33.4597E-03
            1486     2.55319E-03     54.2877E-03    -49.5409E+06    -163.840E+06    -41.5327E+06    -103.518E+03    -56.1217E-03     112.136E-03    -56.0144E-03     25.4059E-03    -56.0817E-03     111.459E-03    -55.9127E-03     25.3032E-03
            1487     1.70210E-03     54.2663E-03    -51.7689E+06    -167.966E+06    -47.9978E+06        -427.409    -56.0455E-03     112.041E-03    -55.9958E-03     17.1443E-03    -55.9957E-03     111.351E-03    -55.9172E-03     17.0784E-03
            1488     851.057E-06     54.2531E-03    -53.1886E+06    -170.651E+06    -52.1842E+06     135.608E+03    -55.9954E-03     111.986E-03    -55.9903E-03     9.23271E-03    -55.9394E-03     111.287E-03    -55.9267E-03     9.20024E-03
            1489     16.1681E-03     55.3849E-03    -5.08384E+06     149.149E+06     106.860E+06     412.026E+03    -76.8168E-03     132.882E-03    -56.0657E-03     379.903E-03    -100.760E-03     157.027E-03    -55.7403E-03     386.096E-03
            1490     15.3219E-03     54.8881E-03    -11.1372E+06     131.742E+06     95.3524E+06     676.046E+03    -85.5105E-03     141.563E-03    -56.0522E-03     422.916E-03    -108.224E-03     164.427E-03    -55.7503E-03     420.708E-03
            1491     14.4710E-03     54.5017E-03    -15.6933E+06     99.0316E+06     61.2872E+06     2.16354E+06    -73.1925E-03     129.152E-03    -55.9595E-03     303.632E-03    -82.2292E-03     138.307E-03    -55.7739E-03     300.420E-03
            1492     13.6170E-03     54.2670E-03    -18.0747E+06     70.1171E+06     19.6311E+06     3.47375E+06    -63.0192E-03     118.854E-03    -55.8348E-03     193.311E-03    -66.1759E-03     122.139E-03    -55.8121E-03     191.247E-03
            1493     12.7675E-03     54.1098E-03    -19.2477E+06     35.3178E+06    -3.92924E+06     1.99339E+06    -59.9065E-03     115.682E-03    -55.7756E-03     139.703E-03    -61.4254E-03     117.269E-03    -55.8186E-03     138.172E-03
            1494     11.9160E-03     53.9850E-03    -20.5617E+06    -10.2918E+06    -7.02959E+06     241.577E+03    -58.5332E-03     114.361E-03    -55.8273E-03     116.222E-03    -59.4224E-03     115.161E-03    -55.8178E-03     115.015E-03
            1495     11.0649E-03     53.8759E-03    -22.2758E+06    -48.5228E+06    -5.59216E+06     833.424E+03    -58.0198E-03     113.923E-03    -55.9037E-03     103.126E-03    -58.5961E-03     114.265E-03    -55.8290E-03     102.150E-03
            1496     10.2134E-03     53.7777E-03    -25.0131E+06    -73.9013E+06    -6.69929E+06     1.42539E+06    -57.7855E-03     113.737E-03    -55.9515E-03     94.7324E-03    -58.1800E-03     113.800E-03    -55.8415E-03     93.9337E-03
            1497     9.36230E-03     53.6857E-03    -27.0638E+06    -91.0607E+06    -7.38035E+06     820.212E+03    -57.5971E-03     113.583E-03    -55.9862E-03     87.3520E-03    -57.8693E-03     113.458E-03    -55.8519E-03     86.6842E-03
            1498     8.51104E-03     53.6019E-03    -28.8228E+06    -106.429E+06    -8.19950E+06     244.195E+03    -57.3548E-03     113.370E-03    -56.0157E-03     79.6609E-03    -57.5344E-03     113.094E-03    -55.8606E-03     79.1029E-03
            1499     7.65985E-03     53.5255E-03    -30.9675E+06    -118.034E+06    -9.63921E+06     257.820E+03    -57.1381E-03     113.175E-03    -56.0364E-03     72.2439E-03    -57.2526E-03     112.788E-03    -55.8686E-03     71.7859E-03
            1500     6.80872E-03     53.4566E-03    -32.9904E+06    -127.945E+06    -10.4129E+06     361.119E+03    -56.9327E-03     112.989E-03    -56.0562E-03     64.7819E-03    -56.9995E-03     112.515E-03    -55.8749E-03     64.4101E-03
            1501     5.95763E-03     53.3951E-03    -35.5752E+06    -140.100E+06    -12.9221E+06     746.636E+03    -56.7315E-03     112.802E-03    -56.0701E-03     57.1509E-03    -56.7587E-03     112.243E-03    -55.8799E-03     56.8563E-03
            1502     5.10651E-03     53.3415E-03    -39.2532E+06    -146.693E+06    -18.8365E+06     944.535E+03    -56.5216E-03     112.583E-03    -56.0614E-03     49.4809E-03    -56.5257E-03     111.982E-03    -55.8860E-03     49.2519E-03
            1503     4.25535E-03     53.2955E-03    -43.1210E+06    -151.790E+06    -26.5433E+06     256.879E+03    -56.3479E-03     112.392E-03    -56.0441E-03     41.6468E-03    -56.3356E-03     111.765E-03    -55.8942E-03     41.4629E-03
            1504     3.40429E-03     53.2576E-03    -46.5626E+06    -159.004E+06    -34.3083E+06    -175.156E+03    -56.2208E-03     112.250E-03    -56.0289E-03     33.5817E-03    -56.1918E-03     111.590E-03    -55.9023E-03     33.4380E-03
            1505     2.55315E-03     53.2278E-03    -49.4715E+06    -163.997E+06    -41.8640E+06    -71.8920E+03    -56.1235E-03     112.131E-03    -56.0076E-03     25.3859E-03    -56.0823E-03     111.454E-03    -55.9074E-03     25.2836E-03
            1506     1.70215E-03     53.2064E-03    -51.7152E+06    -168.072E+06    -48.2049E+06        -975.702    -56.0539E-03     112.038E-03    -55.9839E-03     17.1296E-03    -56.0033E-03     111.347E-03    -55.9063E-03     17.0638E-03
            1507     851.086E-06     53.1933E-03    -53.0174E+06    -170.504E+06    -52.1216E+06     30.3075E+03    -55.9968E-03     111.955E-03    -55.9581E-03     9.22864E-03    -55.9402E-03     111.257E-03    -55.8946E-03     9.19479E-03
            1508     16.1770E-03     54.3294E-03    -5.65271E+06     149.314E+06     106.606E+06     286.565E+03    -77.4204E-03     133.422E-03    -56.0014E-03     377.368E-03    -101.077E-03     157.279E-03    -55.6767E-03     383.411E-03
            1509     15.3225E-03     53.8258E-03    -11.4501E+06     130.632E+06     95.0221E+06    -278.141E+03    -84.1701E-03     140.177E-03    -56.0072E-03     423.313E-03    -106.853E-03     163.008E-03    -55.7049E-03     421.263E-03
            1510     14.4695E-03     53.4444E-03    -16.3156E+06     96.8331E+06     63.6185E+06     390.923E+03    -73.6153E-03     129.570E-03    -55.9549E-03     304.102E-03    -82.6838E-03     138.740E-03    -55.7536E-03     300.852E-03
            1511     13.6199E-03     53.2053E-03    -17.8181E+06     69.9382E+06     25.7765E+06     1.48169E+06    -63.3633E-03     119.185E-03    -55.8222E-03     194.075E-03    -66.5445E-03     122.477E-03    -55.7689E-03     191.963E-03
            1512     12.7676E-03     53.0506E-03    -18.1717E+06     36.9913E+06    -206.496E+03     1.58821E+06    -59.4646E-03     115.216E-03    -55.7511E-03     139.744E-03    -60.9775E-03     116.796E-03    -55.7794E-03     138.225E-03
            1513     11.9163E-03     52.9246E-03    -19.8312E+06    -10.1649E+06    -6.11541E+06     1.67610E+06    -58.3477E-03     114.159E-03    -55.8117E-03     116.458E-03    -59.2336E-03     114.957E-03    -55.7988E-03     115.276E-03
            1514     11.0647E-03     52.8166E-03    -22.5134E+06    -49.4837E+06    -5.50522E+06     2.13341E+06    -57.9108E-03     113.809E-03    -55.8981E-03     103.374E-03    -58.4862E-03     114.145E-03    -55.8213E-03     102.418E-03
            1515     10.2135E-03     52.7174E-03    -24.0148E+06    -72.8316E+06    -5.81104E+06     1.85265E+06    -57.7938E-03     113.744E-03    -55.9498E-03     94.9623E-03    -58.1863E-03     113.809E-03    -55.8384E-03     94.1695E-03
            1516     9.36226E-03     52.6259E-03    -25.4459E+06    -89.9389E+06    -6.40681E+06     943.389E+03    -57.6013E-03     113.585E-03    -55.9842E-03     87.4047E-03    -57.8683E-03     113.461E-03    -55.8489E-03     86.7388E-03
            1517     8.51104E-03     52.5419E-03    -27.6738E+06    -106.321E+06    -7.45709E+06     627.195E+03    -57.3604E-03     113.375E-03    -56.0146E-03     79.7076E-03    -57.5353E-03     113.096E-03    -55.8575E-03     79.1553E-03
            1518     7.65992E-03     52.4657E-03    -30.2538E+06    -117.712E+06    -8.96577E+06     416.243E+03    -57.1579E-03     113.192E-03    -56.0340E-03     72.2408E-03    -57.2701E-03     112.805E-03    -55.8642E-03     71.7850E-03
            1519     6.80879E-03     52.3965E-03    -33.3972E+06    -128.009E+06    -10.7760E+06     170.985E+03    -56.9338E-03     112.983E-03    -56.0490E-03     64.7783E-03    -57.0019E-03     112.509E-03    -55.8689E-03     64.4045E-03
            1520     5.95765E-03     52.3353E-03    -36.6682E+06    -140.897E+06    -13.6542E+06     549.109E+03    -56.7194E-03     112.782E-03    -56.0627E-03     57.1452E-03    -56.7498E-03     112.222E-03    -55.8735E-03     56.8485E-03
            1521     5.10651E-03     52.2815E-03    -39.5832E+06    -146.213E+06    -18.5769E+06     891.081E+03    -56.5197E-03     112.575E-03    -56.0555E-03     49.4578E-03    -56.5265E-03     111.976E-03    -55.8790E-03     49.2283E-03
            1522     4.25541E-03     52.2356E-03    -42.7944E+06    -150.800E+06    -25.7505E+06     658.686E+03    -56.3487E-03     112.386E-03    -56.0373E-03     41.6007E-03    -56.3373E-03     111.762E-03    -55.8854E-03     41.4222E-03
            1523     3.40427E-03     52.1977E-03    -46.4024E+06    -158.832E+06    -34.0765E+06     234.667E+03    -56.2185E-03     112.237E-03    -56.0184E-03     33.5313E-03    -56.1893E-03     111.578E-03    -55.8911E-03     33.3931E-03
            1524     2.55325E-03     52.1680E-03    -49.5323E+06    -164.075E+06    -41.9696E+06     46.8161E+03    -56.1071E-03     112.103E-03    -55.9956E-03     25.3514E-03    -56.0659E-03     111.425E-03    -55.8958E-03     25.2509E-03
            1525     1.70212E-03     52.1465E-03    -51.7395E+06    -168.058E+06    -48.2062E+06     28.9913E+03    -56.0253E-03     112.004E-03    -55.9788E-03     17.1204E-03    -55.9749E-03     111.313E-03    -55.9011E-03     17.0551E-03
            1526     851.069E-06     52.1335E-03    -53.0112E+06    -170.450E+06    -52.1297E+06    -1.71261E+03    -56.0059E-03     111.956E-03    -55.9501E-03     9.24418E-03    -55.9494E-03     111.258E-03    -55.8868E-03     9.20966E-03
            1527     16.1770E-03     53.2720E-03    -6.71681E+06     148.711E+06     104.968E+06    -576.523E+03    -77.2855E-03     133.277E-03    -55.9915E-03     376.395E-03    -101.056E-03     157.247E-03    -55.6726E-03     382.504E-03
            1528     15.3215E-03     52.7709E-03    -10.8900E+06     131.263E+06     96.1369E+06    -577.396E+03    -84.7549E-03     140.765E-03    -56.0097E-03     426.411E-03    -107.735E-03     163.894E-03    -55.7036E-03     424.366E-03
            1529     14.4705E-03     52.3802E-03    -15.9695E+06     97.2550E+06     64.7517E+06    -149.736E+03    -74.0604E-03     130.007E-03    -55.9466E-03     304.186E-03    -83.1147E-03     139.162E-03    -55.7407E-03     300.894E-03
            1530     13.6191E-03     52.1471E-03    -19.1012E+06     68.2239E+06     23.4568E+06    -373.374E+03    -63.1755E-03     118.972E-03    -55.7963E-03     194.087E-03    -66.3449E-03     122.248E-03    -55.7502E-03     191.967E-03
            1531     12.7677E-03     51.9898E-03    -21.0097E+06       34.96E+06    -3.25879E+06     1.06144E+06    -59.2679E-03     115.005E-03    -55.7371E-03     140.406E-03    -60.7844E-03     116.580E-03    -55.7736E-03     138.890E-03
            1532     11.9163E-03     51.8655E-03    -22.7116E+06    -10.2600E+06    -6.90972E+06     2.84512E+06    -58.2962E-03     114.112E-03    -55.8163E-03     116.644E-03    -59.1946E-03     114.914E-03    -55.8030E-03     115.478E-03
            1533     11.0647E-03     51.7566E-03    -23.8281E+06    -48.3187E+06    -6.30681E+06     1.99897E+06    -57.9531E-03     113.852E-03    -55.8994E-03     103.633E-03    -58.5355E-03     114.197E-03    -55.8263E-03     102.677E-03
            1534     10.2134E-03     51.6576E-03    -24.5974E+06    -72.1940E+06    -6.75119E+06     1.03663E+06    -57.8223E-03     113.770E-03    -55.9480E-03     95.0513E-03    -58.2168E-03     113.841E-03    -55.8414E-03     94.2486E-03
            1535     9.36221E-03     51.5658E-03    -26.0437E+06    -89.4977E+06    -6.50946E+06     1.21459E+06    -57.6153E-03     113.600E-03    -55.9851E-03     87.3603E-03    -57.8854E-03     113.479E-03    -55.8501E-03     86.6981E-03
            1536     8.51108E-03     51.4821E-03    -28.2267E+06    -105.814E+06    -7.71258E+06     986.388E+03    -57.3970E-03     113.409E-03    -56.0117E-03     79.7169E-03    -57.5748E-03     113.133E-03    -55.8559E-03     79.1693E-03
            1537     7.65993E-03     51.4056E-03    -30.6067E+06    -117.361E+06    -9.20578E+06     648.306E+03    -57.1716E-03     113.200E-03    -56.0280E-03     72.2286E-03    -57.2854E-03     112.815E-03    -55.8595E-03     71.7763E-03
            1538     6.80881E-03     51.3367E-03    -33.2038E+06    -127.863E+06    -10.6536E+06     621.485E+03    -56.9326E-03     112.976E-03    -56.0429E-03     64.7227E-03    -57.0000E-03     112.502E-03    -55.8626E-03     64.3551E-03
            1539     5.95767E-03     51.2753E-03    -36.3366E+06    -141.179E+06    -13.6868E+06     504.931E+03    -56.7322E-03     112.787E-03    -56.0544E-03     57.0876E-03    -56.7603E-03     112.224E-03    -55.8654E-03     56.7906E-03
            1540     5.10659E-03     51.2217E-03    -39.8637E+06    -146.136E+06    -18.7150E+06     507.745E+03    -56.5348E-03     112.578E-03    -56.0430E-03     49.3843E-03    -56.5428E-03     111.980E-03    -55.8669E-03     49.1500E-03
            1541     4.25546E-03     51.1757E-03    -43.3046E+06    -150.342E+06    -25.2299E+06     546.465E+03    -56.3476E-03     112.371E-03    -56.0232E-03     41.5278E-03    -56.3401E-03     111.749E-03    -55.8686E-03     41.3480E-03
            1542     3.40441E-03     51.1378E-03    -46.4524E+06    -158.427E+06    -33.4603E+06     440.854E+03    -56.2006E-03     112.202E-03    -56.0015E-03     33.4760E-03    -56.1730E-03     111.544E-03    -55.8717E-03     33.3406E-03
            1543     2.55324E-03     51.1081E-03    -49.3114E+06    -163.857E+06    -41.7398E+06     236.733E+03    -56.0818E-03     112.059E-03    -55.9772E-03     25.3063E-03    -56.0402E-03     111.382E-03    -55.8768E-03     25.2083E-03
            1544     1.70217E-03     51.0867E-03    -51.5978E+06    -167.941E+06    -48.1452E+06     97.3657E+03    -55.9999E-03     111.963E-03    -55.9633E-03     17.0809E-03    -55.9490E-03     111.273E-03    -55.8857E-03     17.0166E-03
            1545     851.023E-06     51.0736E-03    -53.0784E+06    -170.430E+06    -52.0341E+06    -82.4774E+03    -56.0107E-03     111.930E-03    -55.9195E-03     9.20689E-03    -55.9547E-03     111.232E-03    -55.8556E-03     9.17121E-03
            1546     16.1692E-03     52.2097E-03    -6.21109E+06     149.368E+06     105.257E+06    -289.840E+03    -76.1549E-03     132.212E-03    -56.0566E-03     374.839E-03    -99.9648E-03     156.224E-03    -55.7379E-03     380.935E-03
            1547     15.3219E-03     51.7080E-03    -13.2962E+06     130.580E+06     93.9494E+06    -1.47628E+06    -86.1034E-03     142.140E-03    -56.0365E-03     424.624E-03    -109.196E-03     165.376E-03    -55.7368E-03     422.377E-03
            1548     14.4713E-03     51.3217E-03    -18.3130E+06     96.7377E+06     60.4544E+06    -1.62815E+06    -73.9295E-03     129.845E-03    -55.9152E-03     304.097E-03    -82.9720E-03     138.990E-03    -55.7266E-03     300.788E-03
            1549     13.6191E-03     51.0865E-03    -21.7849E+06     66.2204E+06     18.0006E+06    -788.216E+03    -62.7695E-03     118.547E-03    -55.7772E-03     193.856E-03    -65.9310E-03     121.814E-03    -55.7517E-03     191.751E-03
            1550     12.7675E-03     50.9308E-03    -24.0044E+06     32.2547E+06    -6.28343E+06     911.869E+03    -59.1907E-03     114.938E-03    -55.7469E-03     140.584E-03    -60.7106E-03     116.505E-03    -55.7903E-03     139.071E-03
            1551     11.9157E-03     50.8052E-03    -24.2536E+06    -10.3030E+06    -7.77928E+06     1.54889E+06    -58.3900E-03     114.222E-03    -55.8320E-03     116.920E-03    -59.2958E-03     115.028E-03    -55.8208E-03     115.735E-03
            1552     11.0647E-03     50.6969E-03    -24.1873E+06    -46.6248E+06    -6.13502E+06     1.12667E+06    -58.1148E-03     114.023E-03    -55.9078E-03     103.679E-03    -58.7023E-03     114.377E-03    -55.8358E-03     102.707E-03
            1553     10.2134E-03     50.5974E-03    -25.4665E+06    -72.0965E+06    -7.18028E+06     805.817E+03    -57.8517E-03     113.801E-03    -55.9492E-03     95.0530E-03    -58.2496E-03     113.873E-03    -55.8437E-03     94.2477E-03
            1554     9.36226E-03     50.5060E-03    -26.9908E+06    -89.7964E+06    -7.13765E+06     828.711E+03    -57.6491E-03     113.632E-03    -55.9830E-03     87.3509E-03    -57.9224E-03     113.512E-03    -55.8494E-03     86.6839E-03
            1555     8.51106E-03     50.4219E-03    -28.4521E+06    -105.212E+06    -7.56315E+06     976.081E+03    -57.4348E-03     113.442E-03    -56.0071E-03     79.6459E-03    -57.6147E-03     113.169E-03    -55.8511E-03     79.0979E-03
            1556     7.66001E-03     50.3456E-03    -30.6177E+06    -117.131E+06    -9.13470E+06     791.948E+03    -57.1824E-03     113.202E-03    -56.0195E-03     72.1259E-03    -57.2965E-03     112.818E-03    -55.8509E-03     71.6757E-03
            1557     6.80886E-03     50.2767E-03    -33.3701E+06    -127.686E+06    -10.6147E+06     642.954E+03    -56.9544E-03     112.985E-03    -56.0308E-03     64.6255E-03    -57.0227E-03     112.512E-03    -55.8503E-03     64.2583E-03
            1558     5.95779E-03     50.2154E-03    -36.4383E+06    -140.984E+06    -13.5167E+06     616.416E+03    -56.7535E-03     112.791E-03    -56.0373E-03     56.9713E-03    -56.7826E-03     112.229E-03    -55.8476E-03     56.6756E-03
            1559     5.10669E-03     50.1617E-03    -39.7383E+06    -145.924E+06    -18.6079E+06     444.653E+03    -56.5298E-03     112.550E-03    -56.0204E-03     49.2818E-03    -56.5375E-03     111.953E-03    -55.8443E-03     49.0467E-03
            1560     4.25561E-03     50.1158E-03    -43.1514E+06    -150.179E+06    -25.2045E+06     257.440E+03    -56.3318E-03     112.329E-03    -55.9975E-03     41.4540E-03    -56.3238E-03     111.708E-03    -55.8432E-03     41.2705E-03
            1561     3.40443E-03     50.0780E-03    -46.5007E+06    -158.251E+06    -33.1312E+06     236.187E+03    -56.1820E-03     112.157E-03    -55.9750E-03     33.4089E-03    -56.1554E-03     111.500E-03    -55.8438E-03     33.2710E-03
            1562     2.55335E-03     50.0483E-03    -49.3530E+06    -163.586E+06    -41.3027E+06     239.914E+03    -56.0627E-03     112.010E-03    -55.9472E-03     25.2318E-03    -56.0223E-03     111.333E-03    -55.8449E-03     25.1340E-03
            1563     1.70220E-03     50.0270E-03    -51.4421E+06    -167.744E+06    -47.9280E+06     129.706E+03    -55.9796E-03     111.904E-03    -55.9247E-03     17.0317E-03    -55.9285E-03     111.214E-03    -55.8465E-03     16.9678E-03
            1564     851.154E-06     50.0138E-03    -52.8041E+06    -170.319E+06    -51.9753E+06    -24.6924E+03    -55.9827E-03     111.843E-03    -55.8604E-03     9.22621E-03    -55.9256E-03     111.145E-03    -55.7968E-03     9.19117E-03
            1565     16.1738E-03     51.1469E-03    -4.30205E+06     150.496E+06     107.882E+06     1.30223E+06    -76.4258E-03     132.477E-03    -56.0508E-03     375.433E-03    -100.287E-03     156.544E-03    -55.7234E-03     381.488E-03
            1566     15.3225E-03     50.6479E-03    -10.5928E+06     132.752E+06     95.0815E+06     922.938E+03    -85.1196E-03     141.148E-03    -56.0286E-03     423.476E-03    -108.164E-03     164.350E-03    -55.7303E-03     421.344E-03
            1567     14.4704E-03     50.2610E-03    -17.4408E+06     97.5420E+06     56.8793E+06    -169.816E+03    -73.5880E-03     129.509E-03    -55.9206E-03     304.870E-03    -82.6296E-03     138.670E-03    -55.7523E-03     301.605E-03
            1568     13.6193E-03     50.0275E-03    -22.7471E+06     65.2196E+06     13.6896E+06    -214.573E+03    -62.9378E-03     118.734E-03    -55.7966E-03     194.739E-03    -66.1175E-03     122.025E-03    -55.7897E-03     192.625E-03
            1569     12.7670E-03     49.8712E-03    -24.2014E+06     31.1749E+06    -7.37710E+06    -354.410E+03    -59.4673E-03     115.240E-03    -55.7728E-03     141.034E-03    -60.9902E-03     116.809E-03    -55.8198E-03     139.495E-03
            1570     11.9157E-03     49.7453E-03    -23.8714E+06    -10.3823E+06    -7.96709E+06    -117.452E+03    -58.5958E-03     114.442E-03    -55.8466E-03     117.027E-03    -59.5000E-03     115.248E-03    -55.8367E-03     115.817E-03
            1571     11.0645E-03     49.6364E-03    -24.4255E+06    -46.8549E+06    -6.17242E+06     419.120E+03    -58.1854E-03     114.100E-03    -55.9149E-03     103.520E-03    -58.7737E-03     114.454E-03    -55.8424E-03     102.538E-03
            1572     10.2134E-03     49.5377E-03    -25.5018E+06    -71.8208E+06    -6.71581E+06     705.097E+03    -57.9298E-03     113.881E-03    -55.9516E-03     95.0138E-03    -58.3290E-03     113.955E-03    -55.8440E-03     94.2060E-03
            1573     9.36219E-03     49.4457E-03    -27.0166E+06    -89.7138E+06    -7.05531E+06     497.503E+03    -57.7268E-03     113.703E-03    -55.9764E-03     87.2880E-03    -58.0004E-03     113.583E-03    -55.8424E-03     86.6158E-03
            1574     8.51127E-03     49.3620E-03    -28.8615E+06    -105.422E+06    -7.64468E+06     539.564E+03    -57.4688E-03     113.462E-03    -55.9937E-03     79.4681E-03    -57.6500E-03     113.189E-03    -55.8372E-03     78.9141E-03
            1575     7.66010E-03     49.2856E-03    -30.8086E+06    -116.728E+06    -9.03705E+06     696.247E+03    -57.2009E-03     113.201E-03    -56.0004E-03     71.9789E-03    -57.3164E-03     112.819E-03    -55.8317E-03     71.5275E-03
            1576     6.80904E-03     49.2168E-03    -33.1778E+06    -127.569E+06    -10.4982E+06     575.056E+03    -56.9728E-03     112.979E-03    -56.0062E-03     64.4910E-03    -57.0403E-03     112.506E-03    -55.8256E-03     64.1229E-03
            1577     5.95797E-03     49.1554E-03    -36.0590E+06    -140.805E+06    -13.1942E+06     520.549E+03    -56.7455E-03     112.754E-03    -56.0087E-03     56.8406E-03    -56.7733E-03     112.192E-03    -55.8182E-03     56.5438E-03
            1578     5.10689E-03     49.1019E-03    -39.3944E+06    -145.563E+06    -18.2383E+06     403.792E+03    -56.5044E-03     112.494E-03    -55.9894E-03     49.1847E-03    -56.5114E-03     111.897E-03    -55.8124E-03     48.9493E-03
            1579     4.25570E-03     49.0560E-03    -43.0259E+06    -149.986E+06    -25.1275E+06     243.342E+03    -56.3050E-03     112.269E-03    -55.9641E-03     41.3756E-03    -56.2967E-03     111.648E-03    -55.8099E-03     41.1921E-03
            1580     3.40462E-03     49.0183E-03    -46.4848E+06    -158.123E+06    -33.1145E+06     101.021E+03    -56.1621E-03     112.101E-03    -55.9385E-03     33.3459E-03    -56.1355E-03     111.444E-03    -55.8074E-03     33.2064E-03
            1581     2.55346E-03     48.9886E-03    -49.4134E+06    -163.473E+06    -41.1093E+06     11.0148E+03    -56.0359E-03     111.943E-03    -55.9068E-03     25.1906E-03    -55.9962E-03     111.267E-03    -55.8037E-03     25.0900E-03
            1582     1.70235E-03     48.9673E-03    -51.5965E+06    -167.687E+06    -47.6887E+06    -4.06545E+03    -55.9421E-03     111.822E-03    -55.8796E-03     17.0287E-03    -55.8922E-03     111.132E-03    -55.8001E-03     16.9631E-03
            1583     851.124E-06     48.9542E-03    -52.9199E+06    -170.254E+06    -51.8250E+06    -51.6539E+03    -55.9070E-03     111.745E-03    -55.8379E-03     9.21610E-03    -55.8508E-03     111.047E-03    -55.7735E-03     9.18063E-03
            1584     16.1747E-03     50.0880E-03    -5.36623E+06     149.022E+06     107.082E+06    -368.373E+03    -76.2645E-03     132.307E-03    -56.0429E-03     377.395E-03    -100.190E-03     156.432E-03    -55.7158E-03     383.579E-03
            1585     15.3217E-03     49.5881E-03    -9.93273E+06     133.573E+06     96.4390E+06     2.10904E+06    -84.5118E-03     140.587E-03    -56.0750E-03     425.914E-03    -107.530E-03     163.764E-03    -55.7721E-03     423.914E-03
            1586     14.4691E-03     49.2015E-03    -16.2292E+06     98.7882E+06     58.0765E+06     2.79834E+06    -73.8144E-03     129.814E-03    -55.9993E-03     305.452E-03    -82.8712E-03     138.995E-03    -55.8286E-03     302.216E-03
            1587     13.6167E-03     48.9667E-03    -20.4540E+06     66.7446E+06     14.2110E+06     964.767E+03    -63.4552E-03     119.309E-03    -55.8542E-03     194.222E-03    -66.6260E-03     122.603E-03    -55.8502E-03     192.103E-03
            1588     12.7666E-03     48.8110E-03    -21.9133E+06     32.0831E+06    -6.96148E+06    -688.403E+03    -59.9524E-03     115.752E-03    -55.7993E-03     140.644E-03    -61.4699E-03     117.325E-03    -55.8488E-03     139.085E-03
            1589     11.9157E-03     48.6849E-03    -23.2348E+06    -11.1632E+06    -7.99446E+06    -607.335E+03    -58.7737E-03     114.627E-03    -55.8532E-03     116.804E-03    -59.6744E-03     115.429E-03    -55.8433E-03     115.583E-03
            1590     11.0645E-03     48.5766E-03    -24.3578E+06    -47.6854E+06    -6.37897E+06     13.2550E+03    -58.2291E-03     114.142E-03    -55.9130E-03     103.380E-03    -58.8154E-03     114.491E-03    -55.8404E-03     102.392E-03
            1591     10.2134E-03     48.4774E-03    -25.4776E+06    -71.7338E+06    -6.59548E+06     251.905E+03    -58.0476E-03     113.990E-03    -55.9422E-03     94.8084E-03    -58.4473E-03     114.064E-03    -55.8343E-03     93.9924E-03
            1592     9.36255E-03     48.3857E-03    -26.8725E+06    -89.5573E+06    -6.76717E+06     357.803E+03    -57.7918E-03     113.749E-03    -55.9575E-03     87.0568E-03    -58.0652E-03     113.629E-03    -55.8225E-03     86.3819E-03
            1593     8.51139E-03     48.3018E-03    -28.6869E+06    -105.536E+06    -7.59438E+06     338.557E+03    -57.4858E-03     113.453E-03    -55.9670E-03     79.2539E-03    -57.6658E-03     113.178E-03    -55.8103E-03     78.6971E-03
            1594     7.66041E-03     48.2257E-03    -30.7672E+06    -116.634E+06    -9.11129E+06     287.616E+03    -57.2133E-03     113.181E-03    -55.9675E-03     71.8310E-03    -57.3285E-03     112.799E-03    -55.7994E-03     71.3742E-03
            1595     6.80932E-03     48.1567E-03    -33.1223E+06    -127.520E+06    -11.1776E+06     391.365E+03    -56.9489E-03     112.916E-03    -55.9666E-03     64.3733E-03    -57.0151E-03     112.444E-03    -55.7895E-03     64.0034E-03
            1596     5.95820E-03     48.0956E-03    -36.1150E+06    -140.763E+06    -13.8148E+06     515.537E+03    -56.7099E-03     112.678E-03    -55.9683E-03     56.7422E-03    -56.7369E-03     112.117E-03    -55.7809E-03     56.4459E-03
            1597     5.10704E-03     48.0421E-03    -39.6838E+06    -145.271E+06    -18.2023E+06     551.074E+03    -56.4774E-03     112.428E-03    -55.9506E-03     49.0831E-03    -56.4862E-03     111.833E-03    -55.7734E-03     48.8499E-03
            1598     4.25593E-03     47.9964E-03    -43.3314E+06    -149.472E+06    -24.8193E+06     167.094E+03    -56.2731E-03     112.197E-03    -55.9235E-03     41.2908E-03    -56.2674E-03     111.578E-03    -55.7680E-03     41.1065E-03
            1599     3.40470E-03     47.9585E-03    -46.5976E+06    -158.029E+06    -33.0204E+06    -192.633E+03    -56.1105E-03     112.007E-03    -55.8965E-03     33.2790E-03    -56.0848E-03     111.351E-03    -55.7649E-03     33.1361E-03
            1600     2.55358E-03     47.9290E-03    -49.4262E+06    -163.548E+06    -41.2583E+06    -172.325E+03    -55.9782E-03     111.846E-03    -55.8678E-03     25.1689E-03    -55.9382E-03     111.170E-03    -55.7653E-03     25.0660E-03
            1601     1.70234E-03     47.9077E-03    -51.6749E+06    -167.704E+06    -47.7789E+06    -129.989E+03    -55.8987E-03     111.745E-03    -55.8468E-03     17.0486E-03    -55.8490E-03     111.056E-03    -55.7675E-03     16.9815E-03
            1602     851.243E-06     47.8946E-03    -53.1551E+06    -170.434E+06    -52.0989E+06    -173.885E+03    -55.8780E-03     111.684E-03    -55.8060E-03     9.21221E-03    -55.8223E-03     110.986E-03    -55.7423E-03     9.17505E-03
            1603     16.1714E-03     49.0267E-03    -6.06229E+06     147.746E+06     105.103E+06    -989.745E+03    -74.9486E-03     131.064E-03    -56.1155E-03     379.921E-03    -98.9878E-03     155.302E-03    -55.7955E-03     386.380E-03
            1604     15.3187E-03     48.5285E-03    -13.6202E+06     129.067E+06     92.5250E+06     288.912E+03    -85.3187E-03     141.496E-03    -56.1771E-03     426.294E-03    -108.321E-03     164.639E-03    -55.8819E-03     424.201E-03
            1605     14.4675E-03     48.1393E-03    -17.2627E+06     98.0558E+06     58.2261E+06     1.35961E+06    -74.8280E-03     130.893E-03    -56.0651E-03     304.428E-03    -83.9218E-03     140.105E-03    -55.8911E-03     301.075E-03
            1606     13.6182E-03     47.9068E-03    -18.2679E+06     69.4630E+06     17.7753E+06     1.15389E+06    -63.8920E-03     119.769E-03    -55.8767E-03     192.506E-03    -67.0534E-03     123.060E-03    -55.8620E-03     190.369E-03
            1607     12.7666E-03     47.7497E-03    -20.1658E+06     33.6960E+06    -4.83301E+06     695.091E+03    -59.9263E-03     115.723E-03    -55.7964E-03     139.705E-03    -61.4334E-03     117.292E-03    -55.8401E-03     138.167E-03
            1608     11.9157E-03     47.6250E-03    -22.4808E+06    -11.4735E+06    -7.98303E+06     34.2247E+03    -58.7812E-03     114.622E-03    -55.8406E-03     116.238E-03    -59.6760E-03     115.419E-03    -55.8313E-03     115.024E-03
            1609     11.0646E-03     47.5162E-03    -24.1369E+06    -48.0134E+06    -6.84398E+06    -137.295E+03    -58.3559E-03     114.247E-03    -55.8908E-03     103.090E-03    -58.9400E-03     114.595E-03    -55.8204E-03     102.097E-03
            1610     10.2139E-03     47.4172E-03    -25.5638E+06    -71.8503E+06    -7.08433E+06    -3.38074E+03    -58.0918E-03     114.002E-03    -55.9101E-03     94.4974E-03    -58.4905E-03     114.075E-03    -55.8043E-03     93.6773E-03
            1611     9.36275E-03     47.3255E-03    -27.2516E+06    -89.8303E+06    -7.08867E+06     172.481E+03    -57.7765E-03     113.698E-03    -55.9216E-03     86.7969E-03    -58.0504E-03     113.577E-03    -55.7873E-03     86.1199E-03
            1612     8.51183E-03     47.2419E-03    -29.0842E+06    -105.102E+06    -8.02584E+06     108.229E+03    -57.4681E-03     113.395E-03    -55.9266E-03     79.1011E-03    -57.6498E-03     113.123E-03    -55.7721E-03     78.5418E-03
            1613     7.66072E-03     47.1657E-03    -31.1219E+06    -116.713E+06    -9.52680E+06    -90.3127E+03    -57.1859E-03     113.111E-03    -55.9254E-03     71.7248E-03    -57.3019E-03     112.730E-03    -55.7587E-03     71.2637E-03
            1614     6.80959E-03     47.0970E-03    -33.4954E+06    -127.956E+06    -11.6177E+06     209.218E+03    -56.9101E-03     112.833E-03    -55.9234E-03     64.2654E-03    -56.9765E-03     112.360E-03    -55.7473E-03     63.8938E-03
            1615     5.95843E-03     47.0358E-03    -36.2912E+06    -140.750E+06    -14.2372E+06     533.477E+03    -56.6734E-03     112.596E-03    -55.9230E-03     56.6504E-03    -56.7004E-03     112.036E-03    -55.7375E-03     56.3550E-03
            1616     5.10733E-03     46.9824E-03    -39.2853E+06    -144.829E+06    -17.7060E+06     273.650E+03    -56.4401E-03     112.347E-03    -55.9070E-03     48.9978E-03    -56.4481E-03     111.753E-03    -55.7286E-03     48.7613E-03
            1617     4.25609E-03     46.9366E-03    -42.4550E+06    -149.017E+06    -24.2877E+06    -16.6182E+03    -56.2256E-03     112.105E-03    -55.8789E-03     41.2372E-03    -56.2169E-03     111.487E-03    -55.7227E-03     41.0508E-03
            1618     3.40496E-03     46.8990E-03    -46.0713E+06    -158.053E+06    -33.0547E+06    -70.6381E+03    -56.0543E-03     111.907E-03    -55.8527E-03     33.2297E-03    -56.0258E-03     111.250E-03    -55.7219E-03     33.0886E-03
            1619     2.55362E-03     46.8695E-03    -49.3393E+06    -163.606E+06    -41.5802E+06    -141.241E+03    -55.9256E-03     111.753E-03    -55.8275E-03     25.1364E-03    -55.8846E-03     111.077E-03    -55.7266E-03     25.0343E-03
            1620     1.70243E-03     46.8481E-03    -51.6022E+06    -167.897E+06    -48.3839E+06    -63.4658E+03    -55.8466E-03     111.660E-03    -55.8133E-03     17.0098E-03    -55.7955E-03     110.970E-03    -55.7370E-03     16.9438E-03
            1621     851.123E-06     46.8351E-03    -52.9322E+06    -170.376E+06    -52.2677E+06     31.7591E+03    -55.8604E-03     111.634E-03    -55.7739E-03     9.25152E-03    -55.8033E-03     110.937E-03    -55.7114E-03     9.21733E-03
            1622     16.1690E-03     47.9663E-03    -5.90387E+06     147.768E+06     104.994E+06     438.066E+03    -75.2261E-03     131.403E-03    -56.1773E-03     381.659E-03    -99.4463E-03     155.823E-03    -55.8581E-03     388.104E-03
            1623     15.3178E-03     47.4671E-03    -12.7313E+06     128.145E+06     92.2428E+06     84.9283E+03    -86.4983E-03     142.684E-03    -56.1858E-03     423.227E-03    -109.430E-03     165.758E-03    -55.8920E-03     420.900E-03
            1624     14.4685E-03     47.0770E-03    -17.0390E+06     97.6604E+06     58.8628E+06    -706.745E+03    -74.8294E-03     130.841E-03    -56.0117E-03     300.829E-03    -83.8343E-03     139.962E-03    -55.8343E-03     297.427E-03
            1625     13.6179E-03     46.8453E-03    -19.5969E+06     68.4431E+06     18.3121E+06     68.7270E+03    -63.1749E-03     118.999E-03    -55.8237E-03     191.102E-03    -66.3010E-03     122.245E-03    -55.8030E-03     188.992E-03
            1626     12.7676E-03     46.6902E-03    -20.9827E+06     33.8620E+06    -4.60929E+06     1.25161E+06    -59.7023E-03     115.463E-03    -55.7611E-03     139.644E-03    -61.2127E-03     117.033E-03    -55.8028E-03     138.119E-03
            1627     11.9160E-03     46.5645E-03    -22.2036E+06    -10.2528E+06    -7.55195E+06     932.894E+03    -58.8376E-03     114.643E-03    -55.8054E-03     116.006E-03    -59.7337E-03     115.446E-03    -55.7960E-03     114.801E-03
            1628     11.0654E-03     46.4559E-03    -23.7957E+06    -47.5946E+06    -6.84990E+06     189.007E+03    -58.3792E-03     114.227E-03    -55.8475E-03     102.751E-03    -58.9611E-03     114.575E-03    -55.7782E-03     101.763E-03
            1629     10.2142E-03     46.3570E-03    -25.5988E+06    -72.1819E+06    -7.32379E+06     122.272E+03    -58.0292E-03     113.894E-03    -55.8645E-03     94.3084E-03    -58.4263E-03     113.965E-03    -55.7593E-03     93.4917E-03
            1630     9.36332E-03     46.2655E-03    -27.3250E+06    -89.7732E+06    -7.12191E+06     133.551E+03    -57.7101E-03     113.588E-03    -55.8775E-03     86.6498E-03    -57.9837E-03     113.466E-03    -55.7434E-03     85.9739E-03
            1631     8.51213E-03     46.1820E-03    -29.3386E+06    -104.951E+06    -8.16530E+06     18.2021E+03    -57.4177E-03     113.301E-03    -55.8830E-03     79.0340E-03    -57.6001E-03     113.030E-03    -55.7291E-03     78.4751E-03
            1632     7.66105E-03     46.1059E-03    -31.9115E+06    -116.554E+06    -9.55972E+06    -29.3876E+03    -57.1455E-03     113.028E-03    -55.8827E-03     71.6246E-03    -57.2652E-03     112.649E-03    -55.7152E-03     71.1653E-03
            1633     6.80992E-03     46.0372E-03    -34.8742E+06    -128.673E+06    -11.6059E+06     78.9058E+03    -56.8665E-03     112.748E-03    -55.8818E-03     64.1729E-03    -56.9385E-03     112.273E-03    -55.7027E-03     63.8004E-03
            1634     5.95877E-03     45.9761E-03    -37.5937E+06    -140.112E+06    -15.0580E+06    -159.728E+03    -56.6161E-03     112.491E-03    -55.8749E-03     56.6257E-03    -56.6492E-03     111.937E-03    -55.6925E-03     56.3225E-03
            1635     5.10753E-03     45.9227E-03    -40.0660E+06    -144.553E+06    -19.0854E+06    -756.190E+03    -56.3804E-03     112.238E-03    -55.8574E-03     48.9954E-03    -56.3905E-03     111.648E-03    -55.6851E-03     48.7467E-03
            1636     4.25632E-03     45.8771E-03    -43.0843E+06    -149.846E+06    -25.8927E+06    -143.741E+03    -56.1747E-03     112.006E-03    -55.8316E-03     41.1967E-03    -56.1656E-03     111.387E-03    -55.6813E-03     41.0093E-03
            1637     3.40496E-03     45.8395E-03    -46.3989E+06    -157.624E+06    -34.0811E+06     298.874E+03    -56.0220E-03     111.827E-03    -55.8055E-03     33.1801E-03    -55.9942E-03     111.174E-03    -55.6800E-03     33.0442E-03
            1638     2.55380E-03     45.8100E-03    -49.3417E+06    -163.720E+06    -41.8184E+06     115.632E+03    -55.9062E-03     111.684E-03    -55.7783E-03     25.0695E-03    -55.8647E-03     111.008E-03    -55.6784E-03     24.9710E-03
            1639     1.70248E-03     45.7887E-03    -51.6386E+06    -167.877E+06    -48.2758E+06     164.919E+03    -55.8080E-03     111.564E-03    -55.7557E-03     16.9312E-03    -55.7571E-03     110.874E-03    -55.6788E-03     16.8684E-03
            1640     851.269E-06     45.7757E-03    -53.0208E+06    -170.281E+06    -52.0517E+06     73.5683E+03    -55.7783E-03     111.508E-03    -55.7293E-03     9.23599E-03    -55.7221E-03     110.810E-03    -55.6658E-03     9.20273E-03
            1641     16.1704E-03     46.9097E-03    -5.57691E+06     148.104E+06     105.544E+06     754.921E+03    -77.4499E-03     133.510E-03    -56.0601E-03     378.866E-03    -101.389E-03     157.649E-03    -55.7391E-03     384.830E-03
            1642     15.3218E-03     46.4022E-03    -10.5226E+06     129.584E+06     94.5776E+06     186.829E+03    -85.9678E-03     141.977E-03    -56.0092E-03     421.470E-03    -108.715E-03     164.873E-03    -55.7089E-03     419.128E-03
            1643     14.4734E-03     46.0189E-03    -15.5311E+06     98.3569E+06     60.5067E+06     52.9528E+03    -73.0666E-03     128.946E-03    -55.8796E-03     300.162E-03    -81.9704E-03     137.969E-03    -55.6972E-03     296.932E-03
            1644     13.6201E-03     45.7866E-03    -20.3429E+06     66.9843E+06     16.8687E+06     174.069E+03    -62.3601E-03     118.115E-03    -55.7545E-03     192.811E-03    -65.4822E-03     121.353E-03    -55.7378E-03     190.745E-03
            1645     12.7671E-03     45.6298E-03    -22.5923E+06     32.7507E+06    -6.63312E+06     620.042E+03    -59.8260E-03     115.540E-03    -55.7145E-03     140.041E-03    -61.3456E-03     117.115E-03    -55.7624E-03     138.501E-03
            1646     11.9170E-03     45.5039E-03    -22.9140E+06    -9.17050E+06    -7.50293E+06     787.001E+03    -58.8783E-03     114.634E-03    -55.7560E-03     115.700E-03    -59.7790E-03     115.443E-03    -55.7470E-03     114.492E-03
            1647     11.0658E-03     45.3960E-03    -24.0254E+06    -46.9911E+06    -6.78702E+06     494.654E+03    -58.2471E-03     114.044E-03    -55.7971E-03     102.661E-03    -58.8295E-03     114.394E-03    -55.7280E-03     101.680E-03
            1648     10.2148E-03     45.2968E-03    -25.5050E+06    -72.2843E+06    -7.44435E+06     310.352E+03    -57.9370E-03     113.756E-03    -55.8186E-03     94.2822E-03    -58.3323E-03     113.825E-03    -55.7140E-03     93.4705E-03
            1649     9.36363E-03     45.2057E-03    -27.3778E+06    -89.5567E+06    -7.01149E+06     272.108E+03    -57.6517E-03     113.487E-03    -55.8352E-03     86.6416E-03    -57.9252E-03     113.366E-03    -55.7007E-03     85.9694E-03
            1650     8.51253E-03     45.1220E-03    -29.6134E+06    -104.822E+06    -7.96416E+06     163.488E+03    -57.3818E-03     113.224E-03    -55.8418E-03     78.9895E-03    -57.5656E-03     112.953E-03    -55.6866E-03     78.4336E-03
            1651     7.66142E-03     45.0461E-03    -32.0687E+06    -116.801E+06    -9.95566E+06     365.840E+03    -57.0916E-03     112.930E-03    -55.8389E-03     71.5572E-03    -57.2106E-03     112.550E-03    -55.6728E-03     71.1045E-03
            1652     6.81021E-03     44.9775E-03    -35.1494E+06    -128.519E+06    -12.2279E+06     462.536E+03    -56.8160E-03     112.653E-03    -55.8374E-03     64.1384E-03    -56.8884E-03     112.180E-03    -55.6612E-03     63.7722E-03
            1653     5.95897E-03     44.9166E-03    -38.5412E+06    -138.589E+06    -16.2175E+06    -636.466E+03    -56.5588E-03     112.387E-03    -55.8281E-03     56.6018E-03    -56.5968E-03     111.843E-03    -55.6524E-03     56.2938E-03
            1654     5.10771E-03     44.8632E-03    -42.0725E+06    -145.051E+06    -21.8375E+06    -1.23413E+06    -56.3389E-03     112.146E-03    -55.8075E-03     48.9622E-03    -56.3542E-03     111.561E-03    -55.6454E-03     48.7084E-03
            1655     4.25642E-03     44.8177E-03    -45.2895E+06    -151.148E+06    -28.3776E+06    -685.310E+03    -56.1567E-03     111.938E-03    -55.7809E-03     41.0958E-03    -56.1529E-03     111.319E-03    -55.6379E-03     40.9021E-03
            1656     3.40523E-03     44.7801E-03    -47.7289E+06    -157.467E+06    -35.2586E+06    -254.810E+03    -55.9908E-03     111.742E-03    -55.7513E-03     33.0928E-03    -55.9680E-03     111.093E-03    -55.6301E-03     32.9504E-03
            1657     2.55390E-03     44.7506E-03    -49.9679E+06    -163.898E+06    -41.7420E+06    -37.8639E+03    -55.8659E-03     111.589E-03    -55.7234E-03     25.0115E-03    -55.8273E-03     110.913E-03    -55.6220E-03     24.9114E-03
            1658     1.70268E-03     44.7295E-03    -51.8654E+06    -167.693E+06    -47.7706E+06    -34.1539E+03    -55.7646E-03     111.457E-03    -55.6922E-03     16.9212E-03    -55.7158E-03     110.767E-03    -55.6127E-03     16.8561E-03
            1659     851.345E-06     44.7163E-03    -53.1154E+06    -170.371E+06    -52.1415E+06     19.4060E+03    -55.7118E-03     111.363E-03    -55.6510E-03     9.27588E-03    -55.6559E-03     110.665E-03    -55.5877E-03     9.24188E-03
            1660     16.1805E-03     45.8554E-03    -5.63535E+06     148.249E+06     105.517E+06     316.085E+03    -79.2366E-03     135.136E-03    -55.8998E-03     378.693E-03    -103.211E-03     159.311E-03    -55.5790E-03     384.401E-03
            1661     15.3277E-03     45.3439E-03    -10.1588E+06     130.326E+06     94.9991E+06     246.333E+03    -84.4138E-03     140.285E-03    -55.8709E-03     426.518E-03    -107.447E-03     163.469E-03    -55.5702E-03     424.437E-03
            1662     14.4711E-03     44.9612E-03    -15.6689E+06     97.7300E+06     59.3926E+06     560.449E+03    -72.2917E-03     128.130E-03    -55.8381E-03     303.565E-03    -81.2520E-03     137.209E-03    -55.6601E-03     300.448E-03
            1663     13.6181E-03     44.7274E-03    -19.5185E+06     67.4338E+06     16.9097E+06     1.28460E+06    -63.2228E-03     118.952E-03    -55.7295E-03     194.312E-03    -66.3886E-03     122.239E-03    -55.7145E-03     192.212E-03
            1664     12.7689E-03     44.5683E-03    -21.6914E+06     33.0860E+06    -6.12745E+06     891.267E+03    -59.9521E-03     115.615E-03    -55.6628E-03     139.730E-03    -61.4629E-03     117.184E-03    -55.7100E-03     138.192E-03
            1665     11.9175E-03     44.4444E-03    -23.0586E+06    -9.44118E+06    -8.03609E+06     449.394E+03    -58.6082E-03     114.311E-03    -55.7027E-03     115.568E-03    -59.5039E-03     115.115E-03    -55.6958E-03     114.366E-03
            1666     11.0663E-03     44.3356E-03    -24.2349E+06    -46.6644E+06    -6.91982E+06     482.364E+03    -58.1421E-03     113.897E-03    -55.7553E-03     102.806E-03    -58.7251E-03     114.249E-03    -55.6871E-03     101.828E-03
            1667     10.2152E-03     44.2373E-03    -25.6848E+06    -72.1828E+06    -7.63218E+06     315.576E+03    -57.8775E-03     113.658E-03    -55.7806E-03     94.3069E-03    -58.2727E-03     113.728E-03    -55.6769E-03     93.4975E-03
            1668     9.36395E-03     44.1457E-03    -27.2548E+06    -89.5018E+06    -7.18714E+06     370.036E+03    -57.6332E-03     113.430E-03    -55.7972E-03     86.6860E-03    -57.9053E-03     113.309E-03    -55.6639E-03     86.0167E-03
            1669     8.51291E-03     44.0624E-03    -29.2735E+06    -104.596E+06    -7.94738E+06     412.059E+03    -57.3586E-03     113.161E-03    -55.8028E-03     78.9426E-03    -57.5404E-03     112.891E-03    -55.6484E-03     78.3914E-03
            1670     7.66165E-03     43.9865E-03    -31.6275E+06    -117.252E+06    -10.2053E+06     430.627E+03    -57.0659E-03     112.864E-03    -55.7980E-03     71.4914E-03    -57.1812E-03     112.480E-03    -55.6331E-03     71.0409E-03
            1671     6.81044E-03     43.9180E-03    -33.4991E+06    -127.797E+06    -11.9763E+06     258.825E+03    -56.7938E-03     112.588E-03    -55.7938E-03     64.0039E-03    -56.8589E-03     112.115E-03    -55.6198E-03     63.6362E-03
            1672     5.95920E-03     43.8571E-03    -36.1563E+06    -137.667E+06    -15.0513E+06     109.086E+03    -56.5506E-03     112.335E-03    -55.7843E-03     56.4246E-03    -56.5795E-03     111.790E-03    -55.6075E-03     56.1267E-03
            1673     5.10792E-03     43.8038E-03    -40.1561E+06    -144.856E+06    -20.8486E+06    -300.325E+03    -56.3310E-03     112.090E-03    -55.7589E-03     48.7767E-03    -56.3382E-03     111.501E-03    -55.5949E-03     48.5353E-03
            1674     4.25672E-03     43.7582E-03    -43.9518E+06    -151.550E+06    -27.7959E+06    -991.345E+03    -56.1240E-03     111.851E-03    -55.7267E-03     40.9580E-03    -56.1137E-03     111.227E-03    -55.5822E-03     40.7607E-03
            1675     3.40539E-03     43.7208E-03    -47.1782E+06    -158.297E+06    -34.9822E+06    -755.248E+03    -55.9408E-03     111.635E-03    -55.6946E-03     33.0160E-03    -55.9145E-03     110.981E-03    -55.5716E-03     32.8672E-03
            1676     2.55408E-03     43.6914E-03    -49.9234E+06    -163.946E+06    -42.0597E+06    -460.433E+03    -55.7947E-03     111.460E-03    -55.6649E-03     24.9842E-03    -55.7553E-03     110.783E-03    -55.5651E-03     24.8789E-03
            1677     1.70269E-03     43.6702E-03    -52.0662E+06    -168.024E+06    -48.3944E+06    -359.800E+03    -55.7089E-03     111.345E-03    -55.6359E-03     16.8918E-03    -55.6597E-03     110.655E-03    -55.5588E-03     16.8226E-03
            1678     851.328E-06     43.6573E-03    -53.4115E+06    -170.530E+06    -52.3505E+06    -111.747E+03    -55.6599E-03     111.254E-03    -55.5943E-03     9.22812E-03    -55.6049E-03     110.557E-03    -55.5313E-03     9.19241E-03
            1679     16.1747E-03     44.7888E-03    -6.05800E+06     147.656E+06     104.791E+06    -276.102E+03    -78.0732E-03     133.995E-03    -55.9216E-03     377.915E-03    -101.993E-03     158.113E-03    -55.6030E-03     383.837E-03
            1680     15.3219E-03     44.2869E-03    -11.5307E+06     129.156E+06     93.2720E+06     118.478E+03    -84.3991E-03     140.321E-03    -55.9216E-03     427.265E-03    -107.480E-03     163.549E-03    -55.6258E-03     425.245E-03
            1681     14.4697E-03     43.9021E-03    -16.6358E+06     97.1450E+06     58.8284E+06     146.788E+03    -73.6734E-03     129.535E-03    -55.8613E-03     304.209E-03    -82.7268E-03     138.703E-03    -55.6839E-03     300.968E-03
            1682     13.6212E-03     43.6651E-03    -19.6294E+06     67.5214E+06     17.9645E+06     1.00993E+06    -63.8260E-03     119.525E-03    -55.6986E-03     193.183E-03    -66.9995E-03     122.816E-03    -55.6782E-03     191.047E-03
            1683     12.7694E-03     43.5094E-03    -21.1063E+06     33.7617E+06    -5.22068E+06     1.60908E+06    -59.5512E-03     115.169E-03    -55.6174E-03     139.824E-03    -61.0496E-03     116.727E-03    -55.6618E-03     138.316E-03
            1684     11.9177E-03     43.3843E-03    -22.8028E+06    -8.96116E+06    -7.93320E+06     1.01578E+06    -58.4413E-03     114.114E-03    -55.6726E-03     116.166E-03    -59.3354E-03     114.918E-03    -55.6662E-03     114.977E-03
            1685     11.0666E-03     43.2759E-03    -24.3352E+06    -46.4022E+06    -6.73252E+06     387.211E+03    -58.1405E-03     113.873E-03    -55.7325E-03     103.017E-03    -58.7242E-03     114.225E-03    -55.6636E-03     102.039E-03
            1686     10.2154E-03     43.1773E-03    -25.5310E+06    -72.0485E+06    -7.51678E+06     197.217E+03    -57.9186E-03     113.673E-03    -55.7542E-03     94.3891E-03    -58.3130E-03     113.743E-03    -55.6503E-03     93.5786E-03
            1687     9.36435E-03     43.0859E-03    -27.0191E+06    -89.6641E+06    -7.56442E+06     198.070E+03    -57.6545E-03     113.418E-03    -55.7638E-03     86.6756E-03    -57.9239E-03     113.295E-03    -55.6324E-03     86.0052E-03
            1688     8.51306E-03     43.0026E-03    -28.8349E+06    -104.924E+06    -7.61233E+06     559.618E+03    -57.3756E-03     113.143E-03    -55.7678E-03     78.8413E-03    -57.5545E-03     112.870E-03    -55.6119E-03     78.2931E-03
            1689     7.66201E-03     42.9268E-03    -31.0179E+06    -116.577E+06    -8.89173E+06     361.992E+03    -57.0922E-03     112.851E-03    -55.7591E-03     71.2854E-03    -57.2069E-03     112.468E-03    -55.5896E-03     70.8344E-03
            1690     6.81083E-03     42.8585E-03    -33.8341E+06    -127.594E+06    -11.8753E+06    -173.833E+03    -56.7935E-03     112.536E-03    -55.7429E-03     63.8215E-03    -56.8603E-03     112.065E-03    -55.5682E-03     63.4489E-03
            1691     5.95957E-03     42.7976E-03    -36.6667E+06    -138.084E+06    -15.2240E+06     167.250E+03    -56.5483E-03     112.273E-03    -55.7249E-03     56.2627E-03    -56.5785E-03     111.727E-03    -55.5476E-03     55.9663E-03
            1692     5.10838E-03     42.7444E-03    -39.3448E+06    -143.756E+06    -19.3403E+06     109.668E+03    -56.2915E-03     111.988E-03    -55.6966E-03     48.5998E-03    -56.2982E-03     111.401E-03    -55.5278E-03     48.3645E-03
            1693     4.25697E-03     42.6991E-03    -42.8189E+06    -151.425E+06    -26.2893E+06    -376.764E+03    -56.0497E-03     111.713E-03    -55.6631E-03     40.8039E-03    -56.0359E-03     111.086E-03    -55.5129E-03     40.6152E-03
            1694     3.40561E-03     42.6616E-03    -46.5620E+06    -158.979E+06    -34.5800E+06    -451.921E+03    -55.8642E-03     111.493E-03    -55.6292E-03     32.8827E-03    -55.8342E-03     110.834E-03    -55.5041E-03     32.7385E-03
            1695     2.55422E-03     42.6323E-03    -49.7413E+06    -164.162E+06    -42.4514E+06    -261.827E+03    -55.7266E-03     111.324E-03    -55.5972E-03     24.8787E-03    -55.6853E-03     110.646E-03    -55.4993E-03     24.7765E-03
            1696     1.70280E-03     42.6112E-03    -52.2454E+06    -168.352E+06    -48.9084E+06    -153.735E+03    -55.6445E-03     111.213E-03    -55.5683E-03     16.8288E-03    -55.5950E-03     110.522E-03    -55.4930E-03     16.7627E-03
            1697     851.509E-06     42.5981E-03    -53.7199E+06    -170.843E+06    -52.8026E+06    -287.153E+03    -55.5569E-03     111.120E-03    -55.5627E-03     9.11702E-03    -55.5023E-03     110.422E-03    -55.5011E-03     9.07911E-03
            1698     16.1744E-03     43.7254E-03    -5.40193E+06     147.184E+06     104.917E+06    -236.199E+03    -76.4268E-03     132.396E-03    -55.9690E-03     372.709E-03    -99.8867E-03     156.055E-03    -55.6500E-03     378.750E-03
            1699     15.3229E-03     43.2321E-03    -11.6620E+06     128.321E+06     92.3972E+06    -443.244E+03    -84.8621E-03     140.822E-03    -55.9604E-03     424.647E-03    -107.737E-03     163.843E-03    -55.6676E-03     422.610E-03
            1700     14.4723E-03     42.8381E-03    -17.0192E+06     97.0075E+06     58.7812E+06     241.109E+03    -74.5578E-03     130.413E-03    -55.8554E-03     305.222E-03    -83.6820E-03     139.651E-03    -55.6775E-03     301.872E-03
            1701     13.6209E-03     42.6061E-03    -20.2497E+06     67.0021E+06     18.1337E+06     810.438E+03    -63.4111E-03     119.099E-03    -55.6878E-03     193.819E-03    -66.5852E-03     122.386E-03    -55.6650E-03     191.705E-03
            1702     12.7689E-03     42.4498E-03    -22.3011E+06     33.6114E+06    -5.87628E+06     1.51762E+06    -59.5860E-03     115.204E-03    -55.6179E-03     140.689E-03    -61.0940E-03     116.769E-03    -55.6637E-03     139.181E-03
            1703     11.9178E-03     42.3243E-03    -23.1275E+06    -7.71368E+06    -7.89513E+06     1.26579E+06    -58.6085E-03     114.277E-03    -55.6688E-03     116.469E-03    -59.5063E-03     115.089E-03    -55.6636E-03     115.281E-03
            1704     11.0665E-03     42.2162E-03    -24.1183E+06    -45.7751E+06    -6.56876E+06     490.161E+03    -58.2353E-03     113.955E-03    -55.7201E-03     103.089E-03    -58.8187E-03     114.310E-03    -55.6516E-03     102.111E-03
            1705     10.2156E-03     42.1172E-03    -25.8578E+06    -72.1078E+06    -7.71788E+06     242.309E+03    -58.0259E-03     113.758E-03    -55.7323E-03     94.3047E-03    -58.4211E-03     113.828E-03    -55.6288E-03     93.4938E-03
            1706     9.36449E-03     42.0263E-03    -28.0241E+06    -89.7107E+06    -7.86060E+06     407.586E+03    -57.7436E-03     113.474E-03    -55.7306E-03     86.4740E-03    -58.0169E-03     113.352E-03    -55.5992E-03     85.8061E-03
            1707     8.51354E-03     41.9428E-03    -30.1608E+06    -104.937E+06    -8.41853E+06     147.310E+03    -57.4272E-03     113.148E-03    -55.7208E-03     78.6223E-03    -57.6108E-03     112.876E-03    -55.5670E-03     78.0692E-03
            1708     7.66244E-03     41.8672E-03    -32.1614E+06    -116.153E+06    -9.38662E+06     21.1476E+03    -57.0984E-03     112.801E-03    -55.7031E-03     71.0375E-03    -57.2180E-03     112.422E-03    -55.5349E-03     70.5830E-03
            1709     6.81120E-03     41.7990E-03    -34.7646E+06    -127.495E+06    -11.8492E+06     142.150E+03    -56.8037E-03     112.484E-03    -55.6800E-03     63.6124E-03    -56.8749E-03     112.013E-03    -55.5039E-03     63.2446E-03
            1710     5.96004E-03     41.7382E-03    -37.7372E+06    -137.920E+06    -15.8794E+06    -440.346E+03    -56.5153E-03     112.165E-03    -55.6497E-03     56.0780E-03    -56.5498E-03     111.622E-03    -55.4744E-03     55.7749E-03
            1711     5.10868E-03     41.6852E-03    -40.5183E+06    -143.752E+06    -20.0455E+06    -651.162E+03    -56.2277E-03     111.844E-03    -55.6158E-03     48.4216E-03    -56.2389E-03     111.259E-03    -55.4489E-03     48.1775E-03
            1712     4.25736E-03     41.6399E-03    -43.3727E+06    -151.663E+06    -26.3462E+06    -122.409E+03    -55.9883E-03     111.568E-03    -55.5801E-03     40.6114E-03    -55.9767E-03     110.941E-03    -55.4290E-03     40.4268E-03
            1713     3.40592E-03     41.6026E-03    -46.7619E+06    -159.103E+06    -34.6993E+06     211.426E+03    -55.7931E-03     111.333E-03    -55.5395E-03     32.6971E-03    -55.7636E-03     110.673E-03    -55.4145E-03     32.5622E-03
            1714     2.55443E-03     41.5734E-03    -50.0128E+06    -164.222E+06    -42.2494E+06     185.957E+03    -55.6490E-03     111.152E-03    -55.5026E-03     24.7141E-03    -55.6092E-03     110.474E-03    -55.4032E-03     24.6183E-03
            1715     1.70302E-03     41.5522E-03    -52.3161E+06    -168.292E+06    -48.6721E+06     21.7859E+03    -55.5300E-03     111.004E-03    -55.4740E-03     16.7122E-03    -55.4812E-03     110.313E-03    -55.3975E-03     16.6487E-03
            1716     851.395E-06     41.5393E-03    -53.6713E+06    -171.027E+06    -53.0545E+06    -17.3084E+03    -55.4748E-03     110.937E-03    -55.4619E-03     9.03892E-03    -55.4193E-03     110.238E-03    -55.4014E-03     9.00500E-03
            1717     16.1764E-03     42.6718E-03    -5.12614E+06     147.315E+06     105.445E+06    -224.442E+03    -76.4995E-03     132.515E-03    -56.0155E-03     373.882E-03    -100.176E-03     156.391E-03    -55.6944E-03     379.942E-03
            1718     15.3223E-03     42.1693E-03    -10.9863E+06     128.735E+06     93.6934E+06     371.843E+03    -85.8386E-03     141.831E-03    -55.9923E-03     426.215E-03    -108.940E-03     165.078E-03    -55.6946E-03     424.099E-03
            1719     14.4710E-03     41.7786E-03    -16.9500E+06     96.5183E+06     58.1581E+06     1.16179E+06    -74.2778E-03     130.152E-03    -55.8739E-03     306.156E-03    -83.4158E-03     139.403E-03    -55.6985E-03     302.845E-03
            1720     13.6189E-03     41.5456E-03    -21.0451E+06     66.0662E+06     16.6452E+06     1.10630E+06    -63.3811E-03     119.101E-03    -55.7195E-03     193.628E-03    -66.5554E-03     122.386E-03    -55.7015E-03     191.520E-03
            1721     12.7688E-03     41.3892E-03    -22.3926E+06     33.8900E+06    -5.63495E+06     714.239E+03    -59.9901E-03     115.633E-03    -55.6429E-03     140.149E-03    -61.5037E-03     117.204E-03    -55.6878E-03     138.613E-03
            1722     11.9177E-03     41.2646E-03    -22.6738E+06    -7.19363E+06    -7.66269E+06     511.014E+03    -58.8527E-03     114.522E-03    -55.6693E-03     116.318E-03    -59.7500E-03     115.335E-03    -55.6643E-03     115.115E-03
            1723     11.0668E-03     41.1558E-03    -23.8365E+06    -45.6668E+06    -5.67067E+06     946.848E+03    -58.4324E-03     114.139E-03    -55.7070E-03     102.869E-03    -59.0157E-03     114.492E-03    -55.6346E-03     101.894E-03
            1724     10.2158E-03     41.0574E-03    -25.8957E+06    -71.7440E+06    -6.75416E+06     964.236E+03    -58.1506E-03     113.854E-03    -55.7036E-03     93.9364E-03    -58.5470E-03     113.924E-03    -55.5958E-03     93.1336E-03
            1725     9.36502E-03     40.9662E-03    -27.5796E+06    -89.2807E+06    -7.49974E+06     351.267E+03    -57.8440E-03     113.527E-03    -55.6833E-03     86.1014E-03    -58.1155E-03     113.406E-03    -55.5513E-03     85.4317E-03
            1726     8.51405E-03     40.8832E-03    -29.2541E+06    -104.604E+06    -8.00899E+06     90.2967E+03    -57.4624E-03     113.123E-03    -55.6603E-03     78.2582E-03    -57.6419E-03     112.850E-03    -55.5063E-03     77.7048E-03
            1727     7.66288E-03     40.8077E-03    -31.7879E+06    -116.213E+06    -9.23925E+06     4.28928E+03    -57.1161E-03     112.748E-03    -55.6317E-03     70.7273E-03    -57.2333E-03     112.366E-03    -55.4633E-03     70.2734E-03
            1728     6.81182E-03     40.7396E-03    -34.1665E+06    -127.222E+06    -10.9217E+06    -302.140E+03    -56.7998E-03     112.400E-03    -55.6006E-03     63.2628E-03    -56.8693E-03     111.929E-03    -55.4212E-03     62.8897E-03
            1729     5.96053E-03     40.6791E-03    -36.6269E+06    -137.268E+06    -14.9721E+06    -560.607E+03    -56.4653E-03     112.025E-03    -55.5598E-03     55.7465E-03    -56.4961E-03     111.482E-03    -55.3825E-03     55.4427E-03
            1730     5.10922E-03     40.6261E-03    -40.0134E+06    -144.239E+06    -21.0110E+06    -687.210E+03    -56.1690E-03     111.681E-03    -55.5120E-03     48.1309E-03    -56.1752E-03     111.094E-03    -55.3499E-03     47.8874E-03
            1731     4.25777E-03     40.5810E-03    -43.6974E+06    -152.691E+06    -27.7075E+06    -116.712E+03    -55.9260E-03     111.394E-03    -55.4678E-03     40.3460E-03    -55.9123E-03     110.763E-03    -55.3215E-03     40.1622E-03
            1732     3.40631E-03     40.5438E-03    -46.9274E+06    -159.058E+06    -34.4131E+06     491.217E+03    -55.7189E-03     111.141E-03    -55.4225E-03     32.4877E-03    -55.6906E-03     110.482E-03    -55.2959E-03     32.3569E-03
            1733     2.55485E-03     40.5146E-03    -49.7432E+06    -163.794E+06    -41.8021E+06     366.642E+03    -55.5393E-03     110.915E-03    -55.3756E-03     24.5567E-03    -55.4994E-03     110.238E-03    -55.2750E-03     24.4636E-03
            1734     1.70320E-03     40.4936E-03    -52.0884E+06    -168.155E+06    -48.5317E+06     213.500E+03    -55.3967E-03     110.740E-03    -55.3429E-03     16.5745E-03    -55.3472E-03     110.049E-03    -55.2662E-03     16.5138E-03
            1735     851.650E-06     40.4807E-03    -53.7206E+06    -170.937E+06    -52.7337E+06     268.363E+03    -55.3957E-03     110.675E-03    -55.2796E-03     9.07513E-03    -55.3411E-03     109.977E-03    -55.2175E-03     9.04524E-03
            1736     16.1668E-03     41.6008E-03    -5.17453E+06     147.393E+06     105.283E+06     122.631E+03    -76.2043E-03     132.270E-03    -56.0655E-03     374.123E-03    -99.8580E-03     156.123E-03    -55.7453E-03     380.138E-03
            1737     15.3224E-03     41.1087E-03    -12.0480E+06     127.560E+06     93.1551E+06     404.403E+03    -85.6457E-03     141.681E-03    -56.0349E-03     423.015E-03    -108.516E-03     164.690E-03    -55.7366E-03     420.825E-03
            1738     14.4702E-03     40.7192E-03    -16.6816E+06     95.2210E+06     61.2002E+06     784.904E+03    -74.2633E-03     130.184E-03    -55.9208E-03     305.893E-03    -83.3959E-03     139.418E-03    -55.7287E-03     302.578E-03
            1739     13.6201E-03     40.4843E-03    -19.7032E+06     66.2705E+06     20.6667E+06     1.19793E+06    -63.7124E-03     119.468E-03    -55.7561E-03     193.166E-03    -66.8885E-03     122.750E-03    -55.7203E-03     191.036E-03
            1740     12.7687E-03     40.3293E-03    -21.4506E+06     35.0010E+06    -4.22568E+06     634.560E+03    -60.1380E-03     115.787E-03    -55.6486E-03     139.612E-03    -61.6479E-03     117.357E-03    -55.6894E-03     138.071E-03
            1741     11.9178E-03     40.2039E-03    -23.1440E+06    -7.44569E+06    -7.59572E+06     403.213E+03    -59.1440E-03     114.798E-03    -55.6542E-03     115.949E-03    -60.0443E-03     115.612E-03    -55.6478E-03     114.737E-03
            1742     11.0672E-03     40.0957E-03    -24.5930E+06    -46.2017E+06    -5.68379E+06     863.073E+03    -58.6377E-03     114.307E-03    -55.6698E-03     102.297E-03    -59.2225E-03     114.658E-03    -55.5956E-03     101.318E-03
            1743     10.2165E-03     39.9972E-03    -25.4661E+06    -70.9376E+06    -6.25178E+06     888.215E+03    -58.2523E-03     113.899E-03    -55.6471E-03     93.4832E-03    -58.6472E-03     113.970E-03    -55.5385E-03     92.6790E-03
            1744     9.36566E-03     39.9063E-03    -26.9900E+06    -88.4988E+06    -7.06209E+06     298.802E+03    -57.8727E-03     113.486E-03    -55.6133E-03     85.6342E-03    -58.1418E-03     113.366E-03    -55.4811E-03     84.9647E-03
            1745     8.51467E-03     39.8235E-03    -29.0197E+06    -104.684E+06    -7.74830E+06    -34.9097E+03    -57.4891E-03     113.069E-03    -55.5795E-03     77.8252E-03    -57.6667E-03     112.794E-03    -55.4244E-03     77.2709E-03
            1746     7.66372E-03     39.7481E-03    -30.8168E+06    -115.936E+06    -8.91784E+06    -89.0839E+03    -57.1327E-03     112.669E-03    -55.5365E-03     70.3419E-03    -57.2452E-03     112.287E-03    -55.3683E-03     69.8877E-03
            1747     6.81252E-03     39.6803E-03    -33.6502E+06    -126.931E+06    -10.8695E+06    -248.244E+03    -56.7614E-03     112.254E-03    -55.4929E-03     62.8742E-03    -56.8281E-03     111.782E-03    -55.3144E-03     62.5031E-03
            1748     5.96127E-03     39.6200E-03    -37.3444E+06    -137.153E+06    -14.9835E+06    -418.910E+03    -56.4136E-03     111.857E-03    -55.4431E-03     55.3779E-03    -56.4476E-03     111.315E-03    -55.2650E-03     55.0770E-03
            1749     5.10985E-03     39.5672E-03    -40.9181E+06    -144.709E+06    -21.5266E+06    -132.740E+03    -56.0939E-03     111.477E-03    -55.3827E-03     47.7854E-03    -56.1029E-03     110.889E-03    -55.2212E-03     47.5501E-03
            1750     4.25839E-03     39.5223E-03    -44.2978E+06    -153.208E+06    -28.2606E+06     57.2865E+03    -55.8250E-03     111.153E-03    -55.3279E-03     40.0570E-03    -55.8125E-03     110.521E-03    -55.1828E-03     39.8763E-03
            1751     3.40685E-03     39.4852E-03    -47.2350E+06    -159.135E+06    -34.5048E+06     13.2222E+03    -55.5906E-03     110.867E-03    -55.2764E-03     32.2671E-03    -55.5635E-03     110.207E-03    -55.1497E-03     32.1309E-03
            1752     2.55515E-03     39.4562E-03    -49.8518E+06    -163.636E+06    -41.4876E+06     265.703E+03    -55.3981E-03     110.624E-03    -55.2257E-03     24.3858E-03    -55.3593E-03     109.947E-03    -55.1236E-03     24.2919E-03
            1753     1.70351E-03     39.4352E-03    -52.0544E+06    -167.913E+06    -48.1925E+06     323.163E+03    -55.2686E-03     110.450E-03    -55.1813E-03     16.4561E-03    -55.2197E-03     109.760E-03    -55.1034E-03     16.3972E-03
            1754     851.702E-06     39.4224E-03    -53.4106E+06    -170.573E+06    -52.4039E+06     258.627E+03    -55.2347E-03     110.332E-03    -55.0976E-03     9.05968E-03    -55.1796E-03     109.635E-03    -55.0348E-03     9.02973E-03
            1755     16.1782E-03     40.5413E-03    -5.59162E+06     147.147E+06     104.881E+06     102.015E+03    -76.1567E-03     132.218E-03    -56.0609E-03     376.274E-03    -99.7951E-03     156.054E-03    -55.7418E-03     382.457E-03
            1756     15.3220E-03     40.0510E-03    -11.6143E+06     128.048E+06     93.2466E+06     839.312E+03    -85.2230E-03     141.285E-03    -56.0616E-03     423.857E-03    -107.913E-03     164.117E-03    -55.7641E-03     421.745E-03
            1757     14.4703E-03     39.6575E-03    -17.2711E+06     94.9526E+06     60.7696E+06     395.406E+03    -75.1343E-03     131.081E-03    -55.9472E-03     306.460E-03    -84.3077E-03     140.354E-03    -55.7560E-03     303.045E-03
            1758     13.6191E-03     39.4237E-03    -20.6286E+06     65.6918E+06     21.0258E+06     247.253E+03    -64.0237E-03     119.779E-03    -55.7552E-03     192.674E-03    -67.1886E-03     123.043E-03    -55.7154E-03     190.523E-03
            1759     12.7687E-03     39.2686E-03    -21.9312E+06     35.4835E+06    -3.02011E+06     634.989E+03    -60.4249E-03     116.051E-03    -55.6264E-03     138.992E-03    -61.9422E-03     117.625E-03    -55.6612E-03     137.439E-03
            1760     11.9185E-03     39.1431E-03    -22.7785E+06    -7.50916E+06    -6.82052E+06     683.963E+03    -59.3593E-03     114.965E-03    -55.6059E-03     115.127E-03    -60.2565E-03     115.775E-03    -55.5960E-03     113.914E-03
            1761     11.0681E-03     39.0354E-03    -23.7898E+06    -46.2897E+06    -5.35069E+06     631.420E+03    -58.7208E-03     114.321E-03    -55.6002E-03     101.626E-03    -59.2995E-03     114.666E-03    -55.5254E-03     100.644E-03
            1762     10.2173E-03     38.9370E-03    -25.3188E+06    -70.5084E+06    -6.01617E+06     442.637E+03    -58.2935E-03     113.857E-03    -55.5637E-03     92.9487E-03    -58.6869E-03     113.928E-03    -55.4549E-03     92.1395E-03
            1763     9.36654E-03     38.8466E-03    -26.7759E+06    -87.9824E+06    -6.54293E+06     282.741E+03    -57.8799E-03     113.399E-03    -55.5190E-03     85.0947E-03    -58.1478E-03     113.278E-03    -55.3853E-03     84.4264E-03
            1764     8.51563E-03     38.7639E-03    -28.4821E+06    -104.200E+06    -7.67176E+06    -162.839E+03    -57.4927E-03     112.963E-03    -55.4703E-03     77.3535E-03    -57.6673E-03     112.689E-03    -55.3163E-03     76.7987E-03
            1765     7.66458E-03     38.6888E-03    -30.8142E+06    -116.186E+06    -9.41163E+06    -368.299E+03    -57.1017E-03     112.516E-03    -55.4140E-03     69.8860E-03    -57.2122E-03     112.132E-03    -55.2479E-03     69.4295E-03
            1766     6.81340E-03     38.6212E-03    -33.0258E+06    -126.760E+06    -10.5025E+06    -178.147E+03    -56.7194E-03     112.080E-03    -55.3609E-03     62.4296E-03    -56.7831E-03     111.607E-03    -55.1817E-03     62.0606E-03
            1767     5.96210E-03     38.5611E-03    -35.8020E+06    -137.620E+06    -13.1910E+06     224.142E+03    -56.3536E-03     111.658E-03    -55.3047E-03     54.9316E-03    -56.3814E-03     111.109E-03    -55.1192E-03     54.6397E-03
            1768     5.11070E-03     38.5087E-03    -39.6938E+06    -144.977E+06    -19.4932E+06     608.365E+03    -55.9983E-03     111.231E-03    -55.2332E-03     47.4012E-03    -56.0034E-03     110.637E-03    -55.0629E-03     47.1762E-03
            1769     4.25911E-03     38.4638E-03    -43.5131E+06    -152.574E+06    -27.7447E+06     289.620E+03    -55.6912E-03     110.852E-03    -55.1605E-03     39.7562E-03    -55.6762E-03     110.221E-03    -55.0149E-03     39.5797E-03
            1770     3.40740E-03     38.4270E-03    -46.9551E+06    -159.302E+06    -35.0221E+06    -29.3812E+03    -55.4372E-03     110.536E-03    -55.0989E-03     32.0041E-03    -55.4075E-03     109.876E-03    -54.9750E-03     31.8682E-03
            1771     2.55566E-03     38.3980E-03    -49.9021E+06    -163.760E+06    -41.7721E+06    -35.8157E+03    -55.2316E-03     110.276E-03    -55.0440E-03     24.1661E-03    -55.1924E-03     109.599E-03    -54.9431E-03     24.0689E-03
            1772     1.70379E-03     38.3773E-03    -51.9915E+06    -167.730E+06    -48.0787E+06     40.1665E+03    -55.0981E-03     110.092E-03    -54.9935E-03     16.3372E-03    -55.0493E-03     109.402E-03    -54.9153E-03     16.2751E-03
            1773     852.019E-06     38.3644E-03    -53.2579E+06    -170.281E+06    -52.2242E+06     89.9042E+03    -55.0027E-03     109.947E-03    -54.9439E-03     8.93814E-03    -54.9474E-03     109.250E-03    -54.8809E-03     8.90630E-03
            1774     16.1690E-03     39.4826E-03    -6.32548E+06     146.194E+06     103.868E+06    -265.148E+03    -76.0449E-03     132.169E-03    -56.1243E-03     379.500E-03    -99.8903E-03     156.210E-03    -55.8077E-03     385.886E-03
            1775     15.3180E-03     38.9865E-03    -12.4332E+06     126.830E+06     92.4133E+06     797.250E+03    -86.7579E-03     142.871E-03    -56.1126E-03     424.076E-03    -109.472E-03     165.723E-03    -55.8165E-03     421.785E-03
            1776     14.4698E-03     38.5956E-03    -17.3047E+06     96.5589E+06     59.5435E+06     1.07141E+06    -75.6416E-03     131.569E-03    -55.9275E-03     303.612E-03    -84.7496E-03     140.786E-03    -55.7447E-03     300.160E-03
            1777     13.6202E-03     38.3631E-03    -20.9847E+06     66.5169E+06     18.4681E+06    -147.841E+03    -64.2170E-03     119.908E-03    -55.6907E-03     191.413E-03    -67.3586E-03     123.157E-03    -55.6643E-03     189.253E-03
            1778     12.7701E-03     38.2072E-03    -22.5347E+06     34.5419E+06    -4.54192E+06    -564.781E+03    -60.6403E-03     116.187E-03    -55.5464E-03     137.978E-03    -62.1564E-03     117.759E-03    -55.5865E-03     136.399E-03
            1779     11.9198E-03     38.0828E-03    -22.7306E+06    -7.77785E+06    -6.78968E+06     115.073E+03    -59.3333E-03     114.849E-03    -55.5155E-03     114.381E-03    -60.2248E-03     115.652E-03    -55.5053E-03     113.163E-03
            1780     11.0690E-03     37.9749E-03    -23.4857E+06    -46.2435E+06    -4.97925E+06     315.766E+03    -58.7129E-03     114.215E-03    -55.5023E-03     101.079E-03    -59.2884E-03     114.558E-03    -55.4261E-03     100.094E-03
            1781     10.2185E-03     37.8771E-03    -24.3092E+06    -70.2012E+06    -5.29436E+06     170.491E+03    -58.3004E-03     113.756E-03    -55.4556E-03     92.3608E-03    -58.6882E-03     113.824E-03    -55.3451E-03     91.5493E-03
            1782     9.36769E-03     37.7868E-03    -25.5325E+06    -87.7634E+06    -6.09270E+06    -58.1819E+03    -57.8944E-03     113.291E-03    -55.3964E-03     84.5844E-03    -58.1556E-03     113.167E-03    -55.2626E-03     83.9129E-03
            1783     8.51681E-03     37.7044E-03    -27.5453E+06    -104.063E+06    -6.93809E+06     208.091E+03    -57.4691E-03     112.805E-03    -55.3360E-03     76.7952E-03    -57.6390E-03     112.528E-03    -55.1799E-03     76.2468E-03
            1784     7.66572E-03     37.6296E-03    -30.2577E+06    -115.885E+06    -8.52259E+06     129.322E+03    -57.0396E-03     112.308E-03    -55.2683E-03     69.3587E-03    -57.1480E-03     111.922E-03    -55.0990E-03     68.9104E-03
            1785     6.81456E-03     37.5622E-03    -33.6294E+06    -126.866E+06    -10.6430E+06    -233.467E+03    -56.6353E-03     111.836E-03    -55.2005E-03     61.9625E-03    -56.7009E-03     111.362E-03    -55.0210E-03     61.5946E-03
            1786     5.96320E-03     37.5025E-03    -37.0335E+06    -138.523E+06    -13.7647E+06     204.765E+03    -56.2384E-03     111.371E-03    -55.1330E-03     54.5214E-03    -56.2696E-03     110.819E-03    -54.9473E-03     54.2312E-03
            1787     5.11163E-03     37.4502E-03    -40.0451E+06    -144.968E+06    -19.0556E+06     748.909E+03    -55.8620E-03     110.916E-03    -55.0540E-03     47.0483E-03    -55.8691E-03     110.322E-03    -54.8811E-03     46.8267E-03
            1788     4.25994E-03     37.4058E-03    -43.3980E+06    -151.811E+06    -26.5503E+06     731.019E+03    -55.5386E-03     110.512E-03    -54.9738E-03     39.4428E-03    -55.5256E-03     109.883E-03    -54.8235E-03     39.2732E-03
            1789     3.40814E-03     37.3690E-03    -46.8252E+06    -158.899E+06    -34.5199E+06     270.820E+03    -55.2645E-03     110.165E-03    -54.9004E-03     31.7466E-03    -55.2353E-03     109.506E-03    -54.7747E-03     31.6157E-03
            1790     2.55620E-03     37.3404E-03    -49.7682E+06    -163.780E+06    -42.0483E+06    -71.3610E+03    -55.0402E-03     109.875E-03    -54.8353E-03     23.9788E-03    -54.9998E-03     109.199E-03    -54.7359E-03     23.8820E-03
            1791     1.70419E-03     37.3196E-03    -52.0428E+06    -167.790E+06    -48.3694E+06    -155.480E+03    -54.8840E-03     109.667E-03    -54.7832E-03     16.2253E-03    -54.8349E-03     108.978E-03    -54.7062E-03     16.1611E-03
            1792     852.039E-06     37.3069E-03    -53.4008E+06    -170.279E+06    -52.4189E+06    -86.6123E+03    -54.7874E-03     109.529E-03    -54.7413E-03     8.75449E-03    -54.7325E-03     108.833E-03    -54.6791E-03     8.72072E-03
            1793     16.1692E-03     38.4227E-03    -5.70248E+06     146.669E+06     104.292E+06     1.07452E+06    -76.9583E-03     133.069E-03    -56.1109E-03     377.708E-03    -100.699E-03     157.008E-03    -55.7938E-03     383.741E-03
            1794     15.3222E-03     37.9218E-03    -13.0250E+06     126.212E+06     91.7787E+06    -202.288E+03    -87.0001E-03     143.032E-03    -56.0320E-03     420.082E-03    -109.596E-03     165.763E-03    -55.7372E-03     417.606E-03
            1795     14.4729E-03     37.5366E-03    -17.2219E+06     96.2712E+06     59.9713E+06    -54.6556E+03    -75.0494E-03     130.870E-03    -55.8209E-03     301.350E-03    -84.0546E-03     139.982E-03    -55.6356E-03     297.942E-03
            1796     13.6214E-03     37.3011E-03    -19.6963E+06     67.4042E+06     18.9013E+06     14.2662E+03    -64.1397E-03     119.721E-03    -55.5815E-03     191.155E-03    -67.2650E-03     122.961E-03    -55.5561E-03     188.999E-03
            1797     12.7715E-03     37.1466E-03    -21.4368E+06     33.9636E+06    -5.39227E+06    -492.065E+03    -60.4919E-03     115.924E-03    -55.4325E-03     137.381E-03    -61.9898E-03     117.482E-03    -55.4776E-03     135.812E-03
            1798     11.9209E-03     37.0224E-03    -23.2125E+06    -8.29099E+06    -7.67548E+06    -164.885E+03    -59.2930E-03     114.694E-03    -55.4006E-03     113.999E-03    -60.1818E-03     115.493E-03    -55.3933E-03     112.781E-03
            1799     11.0706E-03     36.9147E-03    -24.1496E+06    -45.6682E+06    -6.01907E+06    -565.775E+03    -58.7072E-03     114.084E-03    -55.3765E-03     100.618E-03    -59.2827E-03     114.429E-03    -55.3054E-03     99.6239E-03
            1800     10.2198E-03     36.8173E-03    -25.0835E+06    -70.5623E+06    -6.55607E+06    -656.447E+03    -58.3025E-03     113.621E-03    -55.3181E-03     91.8750E-03    -58.6898E-03     113.687E-03    -55.2122E-03     91.0549E-03
            1801     9.36910E-03     36.7271E-03    -26.8899E+06    -88.0590E+06    -6.51128E+06     104.332E+03    -57.8816E-03     113.131E-03    -55.2498E-03     84.0536E-03    -58.1469E-03     113.007E-03    -55.1156E-03     83.3862E-03
            1802     8.51819E-03     36.6452E-03    -29.0500E+06    -103.974E+06    -7.36714E+06     125.020E+03    -57.4152E-03     112.590E-03    -55.1748E-03     76.2769E-03    -57.5906E-03     112.315E-03    -55.0188E-03     75.7298E-03
            1803     7.66715E-03     36.5707E-03    -30.9418E+06    -115.671E+06    -8.88060E+06     30.0496E+03    -56.9487E-03     112.042E-03    -55.0936E-03     68.8903E-03    -57.0590E-03     111.658E-03    -54.9254E-03     68.4434E-03
            1804     6.81577E-03     36.5037E-03    -33.2827E+06    -127.021E+06    -10.6650E+06     386.827E+03    -56.5036E-03     111.520E-03    -55.0168E-03     61.5303E-03    -56.5661E-03     111.045E-03    -54.8377E-03     61.1732E-03
            1805     5.96429E-03     36.4442E-03    -36.6559E+06    -138.838E+06    -13.8864E+06     430.871E+03    -56.1001E-03     111.041E-03    -54.9406E-03     54.0972E-03    -56.1280E-03     110.486E-03    -54.7555E-03     53.8122E-03
            1806     5.11265E-03     36.3923E-03    -40.4153E+06    -145.136E+06    -18.9487E+06     444.936E+03    -55.7030E-03     110.558E-03    -54.8546E-03     46.6732E-03    -55.7113E-03     109.962E-03    -54.6803E-03     46.4496E-03
            1807     4.26083E-03     36.3480E-03    -43.6399E+06    -151.361E+06    -25.7611E+06     487.408E+03    -55.3560E-03     110.125E-03    -54.7687E-03     39.1385E-03    -55.3456E-03     109.497E-03    -54.6148E-03     38.9674E-03
            1808     3.40886E-03     36.3117E-03    -46.7171E+06    -158.349E+06    -33.8655E+06     350.978E+03    -55.0646E-03     109.753E-03    -54.6879E-03     31.5003E-03    -55.0364E-03     109.095E-03    -54.5598E-03     31.3717E-03
            1809     2.55674E-03     36.2830E-03    -49.7742E+06    -163.530E+06    -41.7621E+06     124.284E+03    -54.8402E-03     109.455E-03    -54.6148E-03     23.7977E-03    -54.8005E-03     108.779E-03    -54.5143E-03     23.7045E-03
            1810     1.70457E-03     36.2626E-03    -52.2008E+06    -167.822E+06    -48.4818E+06    -29.8029E+03    -54.6717E-03     109.224E-03    -54.5521E-03     16.0497E-03    -54.6231E-03     108.535E-03    -54.4754E-03     15.9879E-03
            1811     852.354E-06     36.2499E-03    -53.7307E+06    -170.501E+06    -52.7871E+06    -164.854E+03    -54.5767E-03     109.054E-03    -54.4776E-03     8.65651E-03    -54.5226E-03     108.358E-03    -54.4164E-03     8.62188E-03
            1812     16.1767E-03     37.3631E-03    -4.98658E+06     147.301E+06     105.612E+06     2.07752E+06    -78.9965E-03     134.947E-03    -55.9508E-03     375.637E-03    -102.521E-03     158.671E-03    -55.6291E-03     381.299E-03
            1813     15.3250E-03     36.8617E-03    -9.65050E+06     129.995E+06     94.6338E+06     1.32396E+06    -85.5679E-03     141.437E-03    -55.8688E-03     423.499E-03    -108.261E-03     164.283E-03    -55.5701E-03     421.198E-03
            1814     14.4733E-03     36.4757E-03    -15.7851E+06     96.8928E+06     58.1042E+06    -238.190E+03    -74.9492E-03     130.652E-03    -55.7032E-03     302.895E-03    -83.9625E-03     139.785E-03    -55.5303E-03     299.498E-03
            1815     13.6240E-03     36.2406E-03    -19.8080E+06     66.5321E+06     16.1711E+06    -276.173E+03    -64.3148E-03     119.780E-03    -55.4652E-03     191.682E-03    -67.4365E-03     123.021E-03    -55.4521E-03     189.516E-03
            1816     12.7727E-03     36.0864E-03    -21.1917E+06     34.0706E+06    -5.27679E+06     8.53088E+03    -60.5073E-03     115.825E-03    -55.3175E-03     137.188E-03    -61.9974E-03     117.376E-03    -55.3626E-03     135.631E-03
            1817     11.9226E-03     35.9617E-03    -21.5179E+06    -7.91952E+06    -7.05965E+06    -418.826E+03    -59.3386E-03     114.613E-03    -55.2741E-03     113.423E-03    -60.2162E-03     115.406E-03    -55.2667E-03     112.203E-03
            1818     11.0719E-03     35.8550E-03    -22.6449E+06    -45.5969E+06    -4.96294E+06    -289.188E+03    -58.6988E-03     113.939E-03    -55.2401E-03     100.122E-03    -59.2654E-03     114.278E-03    -55.1659E-03     99.1347E-03
            1819     10.2214E-03     35.7573E-03    -25.4063E+06    -70.8249E+06    -5.93107E+06     50.9949E+03    -58.2922E-03     113.462E-03    -55.1699E-03     91.3537E-03    -58.6794E-03     113.525E-03    -55.0600E-03     90.5450E-03
            1820     9.37069E-03     35.6679E-03    -27.5452E+06    -88.3696E+06    -6.45243E+06    -157.036E+03    -57.8202E-03     112.907E-03    -55.0864E-03     83.5572E-03    -58.0862E-03     112.780E-03    -54.9506E-03     82.8897E-03
            1821     8.51973E-03     35.5860E-03    -29.0519E+06    -103.686E+06    -7.08479E+06    -214.130E+03    -57.3374E-03     112.337E-03    -54.9991E-03     75.8326E-03    -57.5120E-03     112.060E-03    -54.8420E-03     75.2845E-03
            1822     7.66854E-03     35.5121E-03    -31.3189E+06    -115.826E+06    -8.79701E+06     -282.66E+03    -56.8526E-03     111.759E-03    -54.9060E-03     68.4169E-03    -56.9633E-03     111.372E-03    -54.7366E-03     67.9691E-03
            1823     6.81719E-03     35.4454E-03    -33.8577E+06    -127.704E+06    -10.7871E+06     47.5773E+03    -56.3702E-03     111.188E-03    -54.8178E-03     61.0774E-03    -56.4333E-03     110.709E-03    -54.6375E-03     60.7190E-03
            1824     5.96559E-03     35.3863E-03    -36.5341E+06    -138.824E+06    -13.7300E+06     691.706E+03    -55.9287E-03     110.661E-03    -54.7322E-03     53.6798E-03    -55.9553E-03     110.105E-03    -54.5466E-03     53.4010E-03
            1825     5.11381E-03     35.3347E-03    -39.8118E+06    -144.643E+06    -18.5836E+06     485.242E+03    -55.5183E-03     110.158E-03    -54.6392E-03     46.3063E-03    -55.5242E-03     109.563E-03    -54.4647E-03     46.0856E-03
            1826     4.26179E-03     35.2908E-03    -43.4151E+06    -151.350E+06    -26.0864E+06     163.217E+03    -55.1479E-03     109.694E-03    -54.5462E-03     38.8339E-03    -55.1355E-03     109.066E-03    -54.3942E-03     38.6607E-03
            1827     3.40962E-03     35.2546E-03    -46.7890E+06    -158.174E+06    -33.7183E+06     294.257E+03    -54.8544E-03     109.318E-03    -54.4637E-03     31.2490E-03    -54.8267E-03     108.661E-03    -54.3351E-03     31.1213E-03
            1828     2.55736E-03     35.2263E-03    -49.7747E+06    -163.166E+06    -41.3671E+06     268.815E+03    -54.6223E-03     109.009E-03    -54.3864E-03     23.6102E-03    -54.5836E-03     108.334E-03    -54.2845E-03     23.5200E-03
            1829     1.70501E-03     35.2058E-03    -52.1755E+06    -167.682E+06    -48.3970E+06     128.234E+03    -54.4404E-03     108.759E-03    -54.3190E-03     15.9208E-03    -54.3920E-03     108.071E-03    -54.2422E-03     15.8618E-03
            1830     852.517E-06     35.1935E-03    -53.7464E+06    -170.523E+06    -52.8241E+06    -17.3040E+03    -54.3419E-03     108.586E-03    -54.2438E-03     8.61761E-03    -54.2878E-03     107.889E-03    -54.1828E-03     8.58503E-03
            1831     16.1807E-03     36.3107E-03    -6.23940E+06     145.181E+06     104.089E+06     34.7451E+03    -79.0830E-03     135.035E-03    -55.9517E-03     376.778E-03    -102.793E-03     158.936E-03    -55.6327E-03     382.451E-03
            1832     15.3238E-03     35.8025E-03    -8.92777E+06     130.379E+06     95.6343E+06     1.17780E+06    -87.3997E-03     143.268E-03    -55.8681E-03     428.749E-03    -110.559E-03     166.580E-03    -55.5661E-03     426.272E-03
            1833     14.4742E-03     35.4127E-03    -13.7894E+06     98.6809E+06     59.3836E+06     1.83444E+06    -75.9014E-03     131.549E-03    -55.6477E-03     302.070E-03    -84.9083E-03     140.685E-03    -55.4738E-03     298.629E-03
            1834     13.6237E-03     35.1805E-03    -18.1350E+06     67.6398E+06     16.8550E+06     1.11336E+06    -64.5650E-03     119.928E-03    -55.3628E-03     190.518E-03    -67.6572E-03     123.147E-03    -55.3503E-03     188.372E-03
            1835     12.7745E-03     35.0247E-03    -20.1511E+06     35.0312E+06    -4.57473E+06    -305.386E+03    -60.6318E-03     115.824E-03    -55.1926E-03     136.624E-03    -62.1112E-03     117.370E-03    -55.2371E-03     135.063E-03
            1836     11.9243E-03     34.9022E-03    -21.3313E+06    -8.00926E+06    -6.90373E+06    -563.578E+03    -59.3401E-03     114.474E-03    -55.1338E-03     112.866E-03    -60.2123E-03     115.262E-03    -55.1257E-03     111.648E-03
            1837     11.0738E-03     34.7947E-03    -23.0911E+06    -46.7048E+06    -5.27265E+06     365.352E+03    -58.6741E-03     113.762E-03    -55.0880E-03     99.7781E-03    -59.2379E-03     114.093E-03    -55.0132E-03     98.8028E-03
            1838     10.2232E-03     34.6980E-03    -24.2328E+06    -70.2748E+06    -5.26418E+06     673.876E+03    -58.2301E-03     113.238E-03    -55.0078E-03     90.9844E-03    -58.6103E-03     113.298E-03    -54.8970E-03     90.1883E-03
            1839     9.37229E-03     34.6085E-03    -26.1341E+06    -87.7553E+06    -5.67320E+06     88.2047E+03    -57.7701E-03     112.684E-03    -54.9136E-03     83.1445E-03    -58.0289E-03     112.555E-03    -54.7768E-03     82.4840E-03
            1840     8.52131E-03     34.5274E-03    -28.8202E+06    -103.857E+06    -6.71191E+06    -202.609E+03    -57.2612E-03     112.076E-03    -54.8145E-03     75.3631E-03    -57.4329E-03     111.796E-03    -54.6557E-03     74.8189E-03
            1841     7.67012E-03     34.4537E-03    -31.5289E+06    -115.862E+06    -8.64842E+06     82.0926E+03    -56.7430E-03     111.451E-03    -54.7084E-03     67.9393E-03    -56.8533E-03     111.064E-03    -54.5380E-03     67.5000E-03
            1842     6.81865E-03     34.3875E-03    -35.0847E+06    -128.350E+06    -11.6579E+06     419.082E+03    -56.2265E-03     110.833E-03    -54.6064E-03     60.6361E-03    -56.2922E-03     110.352E-03    -54.4277E-03     60.2863E-03
            1843     5.96689E-03     34.3288E-03    -38.7112E+06    -138.492E+06    -15.6831E+06     194.416E+03    -55.7404E-03     110.247E-03    -54.5066E-03     53.3228E-03    -55.7745E-03     109.697E-03    -54.3281E-03     53.0414E-03
            1844     5.11490E-03     34.2775E-03    -41.4876E+06    -144.153E+06    -20.3497E+06    -208.463E+03    -55.3077E-03     109.715E-03    -54.4077E-03     45.9551E-03    -55.3193E-03     109.127E-03    -54.2403E-03     45.7286E-03
            1845     4.26276E-03     34.2340E-03    -44.2188E+06    -151.601E+06    -26.4283E+06    -155.754E+03    -54.9366E-03     109.253E-03    -54.3164E-03     38.5100E-03    -54.9268E-03     108.625E-03    -54.1646E-03     38.3349E-03
            1846     3.41042E-03     34.1981E-03    -47.1488E+06    -158.215E+06    -33.8879E+06    -40.9346E+03    -54.6285E-03     108.858E-03    -54.2292E-03     31.0053E-03    -54.6021E-03     108.200E-03    -54.1008E-03     30.8751E-03
            1847     2.55795E-03     34.1699E-03    -49.8130E+06    -163.164E+06    -41.5681E+06     112.040E+03    -54.3767E-03     108.528E-03    -54.1509E-03     23.3947E-03    -54.3377E-03     107.853E-03    -54.0499E-03     23.3039E-03
            1848     1.70532E-03     34.1498E-03    -51.9654E+06    -167.467E+06    -48.3353E+06     223.571E+03    -54.1905E-03     108.281E-03    -54.0908E-03     15.7721E-03    -54.1413E-03     107.593E-03    -54.0143E-03     15.7152E-03
            1849     852.690E-06     34.1373E-03    -53.3832E+06    -170.218E+06    -52.5703E+06     165.708E+03    -54.0887E-03     108.141E-03    -54.0527E-03     8.50865E-03    -54.0336E-03     107.446E-03    -53.9914E-03     8.47876E-03
            1850     16.1642E-03     35.2425E-03    -4.93079E+06     145.227E+06     103.821E+06    -245.841E+03    -78.5617E-03     134.596E-03    -56.0347E-03     374.543E-03    -102.234E-03     158.465E-03    -55.7190E-03     379.984E-03
            1851     15.3223E-03     34.7342E-03    -12.1685E+06     126.534E+06     92.4224E+06    -1.58415E+06    -89.3379E-03     145.194E-03    -55.8565E-03     422.834E-03    -112.389E-03     168.383E-03    -55.5602E-03     419.947E-03
            1852     14.4761E-03     34.3522E-03    -15.9915E+06     96.2489E+06     62.6562E+06     29.1026E+03    -75.9126E-03     131.470E-03    -55.5570E-03     298.895E-03    -84.8160E-03     140.476E-03    -55.3601E-03     295.435E-03
            1853     13.6273E-03     34.1189E-03    -17.2493E+06     69.2252E+06     23.7058E+06     894.785E+03    -64.3567E-03     119.617E-03    -55.2600E-03     189.506E-03    -67.4427E-03     122.818E-03    -55.2168E-03     187.370E-03
            1854     12.7764E-03     33.9651E-03    -18.9062E+06     36.2347E+06    -2.22330E+06     555.911E+03    -60.4473E-03     115.515E-03    -55.0677E-03     136.492E-03    -61.9150E-03     117.051E-03    -55.1039E-03     134.956E-03
            1855     11.9259E-03     33.8415E-03    -21.5282E+06    -8.51336E+06    -7.04706E+06     702.047E+03    -59.3201E-03     114.319E-03    -54.9985E-03     112.777E-03    -60.1895E-03     115.102E-03    -54.9901E-03     111.578E-03
            1856     11.0755E-03     33.7355E-03    -23.2402E+06    -46.5047E+06    -6.08675E+06     255.935E+03    -58.6973E-03     113.635E-03    -54.9375E-03     99.6445E-03    -59.2580E-03     113.966E-03    -54.8668E-03     98.6716E-03
            1857     10.2246E-03     33.6384E-03    -24.5230E+06    -70.5615E+06    -6.51758E+06     142.103E+03    -58.2351E-03     113.077E-03    -54.8421E-03     90.7775E-03    -58.6116E-03     113.135E-03    -54.7368E-03     89.9790E-03
            1858     9.37401E-03     33.5497E-03    -26.0584E+06    -87.3083E+06    -5.79797E+06     726.049E+03    -57.7579E-03     112.495E-03    -54.7366E-03     82.7047E-03    -58.0142E-03     112.365E-03    -54.6012E-03     82.0564E-03
            1859     8.52297E-03     33.4688E-03    -28.6285E+06    -103.479E+06    -6.60793E+06     640.794E+03    -57.1939E-03     111.817E-03    -54.6234E-03     74.8835E-03    -57.3631E-03     111.537E-03    -54.4649E-03     74.3545E-03
            1860     7.67168E-03     33.3957E-03    -31.8622E+06    -116.471E+06    -9.00052E+06     726.064E+03    -56.6222E-03     111.127E-03    -54.5047E-03     67.4550E-03    -56.7309E-03     110.735E-03    -54.3346E-03     67.0285E-03
            1861     6.82005E-03     33.3299E-03    -34.5734E+06    -127.945E+06    -11.2515E+06     798.834E+03    -56.0903E-03     110.483E-03    -54.3924E-03     60.1478E-03    -56.1532E-03     110.001E-03    -54.2130E-03     59.8067E-03
            1862     5.96824E-03     33.2717E-03    -37.2542E+06    -137.583E+06    -14.7158E+06     107.785E+03    -55.5904E-03     109.872E-03    -54.2815E-03     52.8390E-03    -55.6189E-03     109.322E-03    -54.1016E-03     52.5597E-03
            1863     5.11614E-03     33.2208E-03    -40.7424E+06    -143.910E+06    -20.6244E+06    -527.324E+03    -55.1163E-03     109.284E-03    -54.1679E-03     45.5011E-03    -55.1235E-03     108.696E-03    -54.0032E-03     45.2735E-03
            1864     4.26377E-03     33.1776E-03    -44.2037E+06    -151.938E+06    -27.3239E+06    -681.799E+03    -54.7195E-03     108.787E-03    -54.0674E-03     38.1108E-03    -54.7074E-03     108.158E-03    -53.9196E-03     37.9313E-03
            1865     3.41127E-03     33.1420E-03    -47.2556E+06    -158.538E+06    -34.6095E+06    -424.204E+03    -54.3895E-03     108.365E-03    -53.9758E-03     30.6693E-03    -54.3617E-03     107.707E-03    -53.8504E-03     30.5360E-03
            1866     2.55857E-03     33.1141E-03    -49.9576E+06    -163.556E+06    -42.3777E+06    -125.646E+03    -54.1216E-03     108.017E-03    -53.8952E-03     23.1068E-03    -54.0814E-03     107.341E-03    -53.7975E-03     23.0142E-03
            1867     1.70581E-03     33.0941E-03    -51.9715E+06    -167.427E+06    -48.4707E+06     168.335E+03    -53.9266E-03     107.768E-03    -53.8409E-03     15.5807E-03    -53.8772E-03     107.080E-03    -53.7651E-03     15.5239E-03
            1868     852.900E-06     33.0819E-03    -53.1249E+06    -169.691E+06    -52.1709E+06     92.4238E+03    -53.8306E-03     107.650E-03    -53.8193E-03     8.43173E-03    -53.7755E-03     106.956E-03    -53.7571E-03     8.40152E-03
            1869     16.1785E-03     34.1770E-03    -4.68918E+06     146.832E+06     105.123E+06      717.44E+03    -80.4831E-03     136.383E-03    -55.8998E-03     371.821E-03    -103.956E-03     160.056E-03    -55.5803E-03     376.854E-03
            1870     15.3306E-03     33.6765E-03    -11.2047E+06     128.717E+06     93.3852E+06    -270.934E+03    -87.6898E-03     143.359E-03    -55.6695E-03     419.914E-03    -110.450E-03     166.266E-03    -55.3730E-03     417.212E-03
            1871     14.4787E-03     33.2894E-03    -16.6073E+06     95.5553E+06     61.4758E+06    -2.34167E+06    -74.9340E-03     130.353E-03    -55.4188E-03     299.834E-03    -83.7813E-03     139.302E-03    -55.2259E-03     296.437E-03
            1872     13.6279E-03     33.0595E-03    -19.7293E+06     66.9049E+06     21.8210E+06    -1.48768E+06    -64.1419E-03     119.302E-03    -55.1597E-03     190.569E-03    -67.2454E-03     122.509E-03    -55.1190E-03     188.411E-03
            1873     12.7775E-03     32.9045E-03    -21.2314E+06     35.0528E+06    -3.57393E+06     959.932E+03    -60.5951E-03     115.563E-03    -54.9682E-03     137.206E-03    -62.0692E-03     117.097E-03    -55.0061E-03     135.677E-03
            1874     11.9273E-03     32.7818E-03    -21.7960E+06    -7.52243E+06    -7.04184E+06     1.24212E+06    -59.4566E-03     114.341E-03    -54.8845E-03     112.793E-03    -60.3253E-03     115.126E-03    -54.8772E-03     111.603E-03
            1875     11.0767E-03     32.6756E-03    -23.0242E+06    -45.5545E+06    -5.79084E+06     449.908E+03    -58.8510E-03     113.655E-03    -54.8040E-03     99.3161E-03    -59.4098E-03     113.987E-03    -54.7335E-03     98.3462E-03
            1876     10.2265E-03     32.5793E-03    -24.7490E+06    -70.6585E+06    -6.63115E+06     129.215E+03    -58.3288E-03     113.015E-03    -54.6859E-03     90.3444E-03    -58.7032E-03     113.070E-03    -54.5807E-03     89.5484E-03
            1877     9.37557E-03     32.4908E-03    -26.2528E+06    -88.0680E+06    -6.45969E+06     348.718E+03    -57.7559E-03     112.315E-03    -54.5587E-03     82.2348E-03    -58.0082E-03     112.180E-03    -54.4252E-03     81.5859E-03
            1878     8.52461E-03     32.4106E-03    -28.0606E+06    -103.825E+06    -6.00353E+06     1.51281E+06    -57.1568E-03     111.589E-03    -54.4326E-03     74.2820E-03    -57.3212E-03     111.303E-03    -54.2714E-03     73.7683E-03
            1879     7.67324E-03     32.3380E-03    -30.8371E+06    -115.781E+06    -7.49696E+06     1.56157E+06    -56.5410E-03     110.840E-03    -54.2992E-03     66.8274E-03    -56.6459E-03     110.446E-03    -54.1240E-03     66.4155E-03
            1880     6.82163E-03     32.2728E-03    -33.8722E+06    -126.947E+06    -10.4085E+06     399.964E+03    -55.9725E-03     110.140E-03    -54.1674E-03     59.5484E-03    -56.0331E-03     109.660E-03    -53.9863E-03     59.2058E-03
            1881     5.96967E-03     32.2150E-03    -36.8669E+06    -137.156E+06    -14.3683E+06     15.8916E+03    -55.4357E-03     109.476E-03    -54.0400E-03     52.2574E-03    -55.4622E-03     108.926E-03    -53.8595E-03     51.9803E-03
            1882     5.11744E-03     32.1646E-03    -40.0984E+06    -143.414E+06    -20.5745E+06    -107.044E+03    -54.9348E-03     108.845E-03    -53.9100E-03     44.9725E-03    -54.9387E-03     108.257E-03    -53.7468E-03     44.7532E-03
            1883     4.26495E-03     32.1218E-03    -43.7570E+06    -152.082E+06    -27.9872E+06    -373.097E+03    -54.5026E-03     108.297E-03    -53.7942E-03     37.6358E-03    -54.4866E-03     107.667E-03    -53.6502E-03     37.4627E-03
            1884     3.41221E-03     32.0865E-03    -47.3596E+06    -158.996E+06    -35.4704E+06    -311.828E+03    -54.1351E-03     107.828E-03    -53.6932E-03     30.2530E-03    -54.1057E-03     107.169E-03    -53.5713E-03     30.1231E-03
            1885     2.55933E-03     32.0589E-03    -50.3679E+06    -163.841E+06    -42.8412E+06    -129.725E+03    -53.8446E-03     107.453E-03    -53.6087E-03     22.7911E-03    -53.8052E-03     106.778E-03    -53.5123E-03     22.6998E-03
            1886     1.70625E-03     32.0391E-03    -52.4179E+06    -167.501E+06    -48.7863E+06    -188.649E+03    -53.6454E-03     107.195E-03    -53.5495E-03     15.3685E-03    -53.5976E-03     106.508E-03    -53.4745E-03     15.3080E-03
            1887     853.101E-06     32.0269E-03    -53.4726E+06    -169.596E+06    -52.4666E+06    -157.002E+03    -53.5528E-03     107.059E-03    -53.5064E-03     8.36429E-03    -53.4991E-03     106.367E-03    -53.4453E-03     8.33186E-03
            1888     16.1803E-03     33.1165E-03    -7.29709E+06     145.615E+06     103.648E+06    -1.37725E+06    -81.0063E-03     136.815E-03    -55.8089E-03     375.111E-03    -104.710E-03     160.710E-03    -55.4913E-03     380.286E-03
            1889     15.3280E-03     32.6132E-03    -9.49342E+06     131.303E+06     96.1531E+06     629.943E+03    -87.3634E-03     142.995E-03    -55.6315E-03     425.461E-03    -110.387E-03     166.172E-03    -55.3273E-03     423.005E-03
            1890     14.4787E-03     32.2303E-03    -15.4743E+06     97.8333E+06     60.1651E+06     195.181E+03    -75.5278E-03     130.923E-03    -55.3949E-03     301.984E-03    -84.4497E-03     139.962E-03    -55.2135E-03     298.593E-03
            1891     13.6278E-03     31.9981E-03    -21.2482E+06     64.9204E+06     16.0289E+06    -670.852E+03    -64.7747E-03     119.871E-03    -55.0961E-03     190.359E-03    -67.8669E-03     123.072E-03    -55.0793E-03     188.189E-03
            1892     12.7784E-03     31.8441E-03    -23.5910E+06     33.4017E+06    -6.87517E+06    -291.568E+03    -60.9470E-03     115.828E-03    -54.8813E-03     136.497E-03    -62.4172E-03     117.353E-03    -54.9299E-03     134.947E-03
            1893     11.9282E-03     31.7216E-03    -23.8372E+06    -7.02805E+06    -8.17833E+06     127.517E+03    -59.6924E-03     114.468E-03    -54.7756E-03     112.370E-03    -60.5656E-03     115.255E-03    -54.7718E-03     111.165E-03
            1894     11.0785E-03     31.6158E-03    -24.4275E+06    -45.3031E+06    -6.72692E+06     311.224E+03    -59.0531E-03     113.721E-03    -54.6681E-03     98.7292E-03    -59.6148E-03     114.055E-03    -54.6006E-03     97.7573E-03
            1895     10.2279E-03     31.5201E-03    -25.6082E+06     -70.231E+06     -7.1639E+06     115.898E+03    -58.4177E-03     112.943E-03    -54.5251E-03     89.6971E-03    -58.7928E-03     112.998E-03    -54.4220E-03     88.9039E-03
            1896     9.37732E-03     31.4322E-03    -27.6439E+06    -89.0866E+06    -7.40689E+06     372.884E+03    -57.7864E-03     112.162E-03    -54.3760E-03     81.5891E-03    -58.0398E-03     112.023E-03    -54.2438E-03     80.9446E-03
            1897     8.52630E-03     31.3525E-03    -29.6849E+06    -104.835E+06    -7.47797E+06     1.01673E+06    -57.1436E-03     111.369E-03    -54.2255E-03     73.5402E-03    -57.3099E-03     111.080E-03    -54.0678E-03     73.0241E-03
            1898     7.67504E-03     31.2807E-03    -31.0301E+06    -114.460E+06    -7.71007E+06     1.06550E+06    -56.4931E-03     110.563E-03    -54.0703E-03     66.0916E-03    -56.5984E-03     110.175E-03    -53.8979E-03     65.6772E-03
            1899     6.82328E-03     31.2159E-03    -33.2747E+06    -126.126E+06    -10.1920E+06     690.448E+03    -55.8639E-03     109.783E-03    -53.9188E-03     58.8074E-03    -55.9214E-03     109.304E-03    -53.7387E-03     58.4724E-03
            1900     5.97126E-03     31.1587E-03    -36.7787E+06    -136.872E+06    -14.7977E+06     304.563E+03    -55.2728E-03     109.044E-03    -53.7709E-03     51.5431E-03    -55.2974E-03     108.495E-03    -53.5931E-03     51.2733E-03
            1901     5.11886E-03     31.1088E-03    -40.3932E+06    -143.216E+06    -20.9534E+06     109.286E+03    -54.7378E-03     108.362E-03    -53.6244E-03     44.3187E-03    -54.7420E-03     107.775E-03    -53.4629E-03     44.1053E-03
            1902     4.26621E-03     31.0665E-03    -43.8051E+06    -152.104E+06    -28.2370E+06     273.213E+03    -54.2749E-03     107.767E-03    -53.4921E-03     37.0502E-03    -54.2581E-03     107.137E-03    -53.3492E-03     36.8880E-03
            1903     3.41331E-03     31.0316E-03    -47.2249E+06    -159.012E+06    -35.8501E+06     287.781E+03    -53.8598E-03     107.236E-03    -53.3758E-03     29.7570E-03    -53.8287E-03     106.576E-03    -53.2560E-03     29.6367E-03
            1904     2.56012E-03     31.0043E-03    -50.2035E+06    -163.676E+06    -43.0782E+06     21.2098E+03    -53.5416E-03     106.823E-03    -53.2815E-03     22.4349E-03    -53.5010E-03     106.148E-03    -53.1868E-03     22.3471E-03
            1905     1.70685E-03     30.9847E-03    -52.4801E+06    -167.488E+06    -49.2021E+06    -161.761E+03    -53.3440E-03     106.551E-03    -53.2074E-03     15.1287E-03    -53.2959E-03     105.865E-03    -53.1345E-03     15.0695E-03
            1906     853.527E-06     30.9725E-03    -54.0119E+06    -170.036E+06    -53.3462E+06    -50.0277E+03    -53.2145E-03     106.354E-03    -53.1398E-03     8.21386E-03    -53.1615E-03     105.661E-03    -53.0817E-03     8.18356E-03
            1907     16.1725E-03     32.0485E-03    -4.78702E+06     145.638E+06     104.317E+06    -823.799E+03    -79.0840E-03     134.965E-03    -55.8815E-03     373.428E-03    -102.560E-03     158.639E-03    -55.5642E-03     378.808E-03
            1908     15.3256E-03     31.5505E-03    -12.2896E+06     128.119E+06     92.4765E+06    -1.54781E+06    -87.7558E-03     143.470E-03    -55.7142E-03     422.396E-03    -110.549E-03     166.406E-03    -55.4198E-03     419.847E-03
            1909     14.4761E-03     31.1660E-03    -17.5845E+06     96.7587E+06     60.0724E+06     24.4199E+03    -76.6261E-03     132.055E-03    -55.4291E-03     300.247E-03    -85.5341E-03     141.070E-03    -55.2435E-03     296.755E-03
            1910     13.6296E-03     30.9365E-03    -20.4004E+06     66.6208E+06     18.9678E+06     886.250E+03    -65.6581E-03     120.722E-03    -55.0643E-03     188.527E-03    -68.7384E-03     123.912E-03    -55.0365E-03     186.341E-03
            1911     12.7797E-03     30.7838E-03    -22.4220E+06     34.1360E+06    -6.08259E+06     21.1304E+03    -61.2496E-03     116.040E-03    -54.7903E-03     135.586E-03    -62.7089E-03     117.558E-03    -54.8377E-03     134.036E-03
            1912     11.9299E-03     30.6611E-03    -24.0853E+06    -7.61965E+06    -9.20818E+06    -395.581E+03    -59.9020E-03     114.554E-03    -54.6516E-03     111.814E-03    -60.7687E-03     115.334E-03    -54.6517E-03     110.603E-03
            1913     11.0797E-03     30.5559E-03    -25.2413E+06    -45.3702E+06    -7.82516E+06    -166.384E+03    -59.1917E-03     113.710E-03    -54.5185E-03     97.8775E-03    -59.7503E-03     114.041E-03    -54.4552E-03     96.9019E-03
            1914     10.2297E-03     30.4611E-03    -26.8223E+06    -70.4661E+06    -8.26003E+06     276.877E+03    -58.5269E-03     112.877E-03    -54.3503E-03     88.8088E-03    -58.9022E-03     112.931E-03    -54.2505E-03     88.0201E-03
            1915     9.37910E-03     30.3736E-03    -28.6812E+06    -89.5052E+06    -8.31465E+06     693.152E+03    -57.8405E-03     112.016E-03    -54.1753E-03     80.6858E-03    -58.0937E-03     111.874E-03    -54.0455E-03     80.0490E-03
            1916     8.52822E-03     30.2948E-03    -30.3695E+06    -104.425E+06    -9.08487E+06     171.417E+03    -57.1447E-03     111.138E-03    -53.9933E-03     72.6567E-03    -57.3098E-03     110.851E-03    -53.8432E-03     72.1340E-03
            1917     7.67686E-03     30.2234E-03    -32.3148E+06    -114.599E+06    -9.65410E+06    -65.9962E+03    -56.4536E-03     110.265E-03    -53.8113E-03     65.1714E-03    -56.5601E-03     109.878E-03    -53.6465E-03     64.7463E-03
            1918     6.82521E-03     30.1595E-03    -34.6977E+06    -126.290E+06    -11.0549E+06     654.600E+03    -55.7604E-03     109.399E-03    -53.6386E-03     57.8743E-03    -55.8218E-03     108.921E-03    -53.4604E-03     57.5424E-03
            1919     5.97304E-03     30.1029E-03    -37.6936E+06    -136.073E+06    -15.2019E+06     726.038E+03    -55.1070E-03     108.573E-03    -53.4659E-03     50.6653E-03    -55.1354E-03     108.029E-03    -53.2899E-03     50.4043E-03
            1920     5.12055E-03     30.0536E-03    -41.1257E+06    -143.147E+06    -21.5206E+06     364.080E+03    -54.5132E-03     107.810E-03    -53.2972E-03     43.5157E-03    -54.5194E-03     107.225E-03    -53.1376E-03     43.3087E-03
            1921     4.26767E-03     30.0117E-03    -44.5280E+06    -152.286E+06    -28.5826E+06     452.642E+03    -53.9943E-03     107.142E-03    -53.1481E-03     36.3468E-03    -53.9797E-03     106.512E-03    -53.0056E-03     36.1896E-03
            1922     3.41452E-03     29.9773E-03    -47.5222E+06    -158.596E+06    -35.4678E+06     470.331E+03    -53.5504E-03     106.569E-03    -53.0181E-03     29.1760E-03    -53.5216E-03     105.911E-03    -52.8966E-03     29.0602E-03
            1923     2.56110E-03     29.9504E-03    -50.2906E+06    -163.322E+06    -42.9330E+06     310.181E+03    -53.2031E-03     106.111E-03    -52.9076E-03     22.0195E-03    -53.1635E-03     105.437E-03    -52.8125E-03     21.9370E-03
            1924     1.70751E-03     29.9309E-03    -52.6562E+06    -167.443E+06    -49.3258E+06     279.208E+03    -52.9681E-03     105.791E-03    -52.8229E-03     14.8684E-03    -52.9206E-03     105.105E-03    -52.7504E-03     14.8161E-03
            1925     853.753E-06     29.9191E-03    -54.1618E+06    -169.985E+06    -53.2854E+06     324.944E+03    -52.8390E-03     105.579E-03    -52.7403E-03     8.02032E-03    -52.7869E-03     104.887E-03    -52.6817E-03     7.99523E-03
            1926     16.1774E-03     30.9848E-03    -5.12813E+06     146.260E+06     104.937E+06    -166.120E+03    -79.1777E-03     135.085E-03    -55.9069E-03     372.279E-03    -102.427E-03     158.531E-03    -55.5868E-03     377.584E-03
            1927     15.3272E-03     30.4907E-03    -12.5126E+06     128.714E+06     92.1228E+06    -39.4495E+03    -88.3494E-03     144.060E-03    -55.7103E-03     421.111E-03    -110.970E-03     166.826E-03    -55.4182E-03     418.473E-03
            1928     14.4789E-03     30.1020E-03    -18.2652E+06     96.1559E+06     59.2838E+06    -720.614E+03    -77.0692E-03     132.455E-03    -55.3858E-03     298.837E-03    -85.9494E-03     141.440E-03    -55.2023E-03     295.268E-03
            1929     13.6294E-03     29.8737E-03    -20.9085E+06     66.5014E+06     19.5020E+06    -422.878E+03    -65.7054E-03     120.705E-03    -54.9991E-03     186.892E-03    -68.7557E-03     123.860E-03    -54.9677E-03     184.694E-03
            1930     12.7810E-03     29.7231E-03    -22.2748E+06     34.8069E+06    -5.65087E+06     473.235E+03    -61.7542E-03     116.446E-03    -54.6915E-03     134.578E-03    -63.2146E-03     117.967E-03    -54.7379E-03     133.017E-03
            1931     11.9314E-03     29.6006E-03     -23.627E+06    -7.19391E+06    -9.34125E+06     260.838E+03    -60.2128E-03     114.722E-03    -54.5097E-03     110.941E-03    -61.0706E-03     115.498E-03    -54.5117E-03     109.737E-03
            1932     11.0818E-03     29.4962E-03    -25.2675E+06    -45.5729E+06    -8.19142E+06     96.4487E+03    -59.3085E-03     113.655E-03    -54.3465E-03     96.8318E-03    -59.8596E-03     113.978E-03    -54.2848E-03     95.8636E-03
            1933     10.2316E-03     29.4018E-03    -26.8972E+06    -70.9884E+06    -8.85094E+06     430.911E+03    -58.6466E-03     112.796E-03    -54.1496E-03     87.7076E-03    -59.0160E-03     112.844E-03    -54.0519E-03     86.9237E-03
            1934     9.38129E-03     29.3154E-03    -28.2218E+06    -89.2597E+06    -8.52415E+06     402.041E+03    -57.9237E-03     111.867E-03    -53.9430E-03     79.5094E-03    -58.1708E-03     111.721E-03    -53.8153E-03     78.8722E-03
            1935     8.53035E-03     29.2371E-03    -30.0474E+06    -103.518E+06    -9.25022E+06     65.5798E+03    -57.1590E-03     110.887E-03    -53.7280E-03     71.4608E-03    -57.3202E-03     110.601E-03    -53.5806E-03     70.9408E-03
            1936     7.67916E-03     29.1666E-03    -32.6253E+06    -115.050E+06    -10.3140E+06    -55.6841E+03    -56.3941E-03     109.909E-03    -53.5149E-03     63.9485E-03    -56.4979E-03     109.519E-03    -53.3524E-03     63.5276E-03
            1937     6.82734E-03     29.1034E-03    -35.4710E+06    -127.014E+06    -11.7789E+06     281.082E+03    -55.6329E-03     108.946E-03    -53.3130E-03     56.7182E-03    -55.6941E-03     108.464E-03    -53.1363E-03     56.3852E-03
            1938     5.97517E-03     29.0476E-03    -38.3604E+06    -135.644E+06    -15.7500E+06     665.431E+03    -54.9075E-03     108.019E-03    -53.1115E-03     49.6268E-03    -54.9377E-03     107.477E-03    -52.9380E-03     49.3688E-03
            1939     5.12245E-03     28.9990E-03    -41.6315E+06    -142.863E+06    -22.0607E+06     669.363E+03    -54.2470E-03     107.166E-03    -52.9185E-03     42.5956E-03    -54.2543E-03     106.582E-03    -52.7613E-03     42.3958E-03
            1940     4.26939E-03     28.9577E-03    -44.9601E+06    -152.095E+06    -28.7137E+06     397.569E+03    -53.6702E-03     106.421E-03    -52.7513E-03     35.5502E-03    -53.6571E-03     105.792E-03    -52.6091E-03     35.3952E-03
            1941     3.41590E-03     28.9238E-03    -48.0930E+06    -158.406E+06    -35.4711E+06     256.769E+03    -53.1892E-03     105.794E-03    -52.6048E-03     28.5306E-03    -53.1630E-03     105.138E-03    -52.4827E-03     28.4146E-03
            1942     2.56222E-03     28.8972E-03    -50.8626E+06    -163.147E+06    -42.7405E+06     341.551E+03    -52.8054E-03     105.286E-03    -52.4802E-03     21.5156E-03    -52.7689E-03     104.613E-03    -52.3836E-03     21.4352E-03
            1943     1.70823E-03     28.8782E-03    -52.9920E+06    -167.154E+06    -49.1234E+06     314.710E+03    -52.5220E-03     104.912E-03    -52.3900E-03     14.5521E-03    -52.4768E-03     104.228E-03    -52.3164E-03     14.5015E-03
            1944     854.199E-06     28.8663E-03    -54.1815E+06    -169.575E+06    -53.0826E+06     88.0888E+03    -52.3673E-03     104.713E-03    -52.3461E-03     7.85451E-03    -52.3162E-03     104.023E-03    -52.2870E-03     7.82670E-03
            1945     16.1742E-03     29.9262E-03    -6.40512E+06     145.923E+06     103.795E+06    -263.423E+03    -80.3958E-03     136.307E-03    -55.9111E-03     372.946E-03    -103.585E-03     159.690E-03    -55.5944E-03     377.974E-03
            1946     15.3252E-03     29.4211E-03    -12.0589E+06     128.851E+06     93.0027E+06     249.057E+03    -89.6243E-03     145.286E-03    -55.6614E-03     420.279E-03    -112.174E-03     167.981E-03    -55.3658E-03     417.349E-03
            1947     14.4797E-03     29.0403E-03    -16.5535E+06     97.4137E+06     59.5653E+06     386.571E+03    -76.8215E-03     132.108E-03    -55.2866E-03     296.475E-03    -85.6258E-03     141.027E-03    -55.1060E-03     292.938E-03
            1948     13.6311E-03     28.8115E-03    -21.3564E+06     65.1257E+06     16.6298E+06    -139.885E+03    -65.5820E-03     120.465E-03    -54.8835E-03     185.994E-03    -68.5833E-03     123.574E-03    -54.8638E-03     183.816E-03
            1949     12.7822E-03     28.6611E-03    -23.8073E+06     34.1997E+06    -7.47435E+06    -81.0757E+03    -62.1486E-03     116.709E-03    -54.5601E-03     133.037E-03    -63.5991E-03     118.218E-03    -54.6126E-03     131.460E-03
            1950     11.9337E-03     28.5402E-03    -24.3985E+06    -6.39408E+06    -9.93614E+06     407.730E+03    -60.5651E-03     114.904E-03    -54.3390E-03     109.420E-03    -61.4182E-03     115.677E-03    -54.3440E-03     108.215E-03
            1951     11.0839E-03     28.4364E-03    -25.4741E+06    -45.7056E+06    -8.85246E+06     370.793E+03    -59.4905E-03     113.628E-03    -54.1373E-03     95.6425E-03    -60.0343E-03     113.945E-03    -54.0783E-03     94.6813E-03
            1952     10.2341E-03     28.3428E-03    -26.7855E+06    -71.0080E+06    -9.37563E+06     303.360E+03    -58.8028E-03     112.707E-03    -53.9042E-03     86.3370E-03    -59.1654E-03     112.750E-03    -53.8093E-03     85.5545E-03
            1953     9.38380E-03     28.2571E-03    -28.4922E+06    -88.9309E+06    -8.92225E+06     226.356E+03    -58.0163E-03     111.676E-03    -53.6593E-03     77.9914E-03    -58.2603E-03     111.529E-03    -53.5337E-03     77.3553E-03
            1954     8.53318E-03     28.1798E-03    -30.5089E+06    -103.186E+06    -9.59931E+06     158.284E+03    -57.1328E-03     110.540E-03    -53.4073E-03     69.9795E-03    -57.2926E-03     110.253E-03    -53.2615E-03     69.4654E-03
            1955     7.68180E-03     28.1102E-03    -32.7199E+06    -115.135E+06    -10.9417E+06     134.601E+03    -56.2706E-03     109.431E-03    -53.1602E-03     62.5661E-03    -56.3710E-03     109.038E-03    -53.0005E-03     62.1526E-03
            1956     6.83004E-03     28.0479E-03    -35.4593E+06    -127.474E+06    -12.6788E+06     345.470E+03    -55.4479E-03     108.375E-03    -52.9273E-03     55.4135E-03    -55.5049E-03     107.891E-03    -52.7545E-03     55.0859E-03
            1957     5.97758E-03     27.9929E-03    -38.7275E+06    -135.747E+06    -16.6101E+06     656.902E+03    -54.6475E-03     107.346E-03    -52.6984E-03     48.4428E-03    -54.6765E-03     106.804E-03    -52.5285E-03     48.1889E-03
            1958     5.12470E-03     27.9451E-03    -41.8791E+06    -142.397E+06    -22.2389E+06     610.778E+03    -53.9204E-03     106.404E-03    -52.4838E-03     41.5527E-03    -53.9283E-03     105.822E-03    -52.3278E-03     41.3559E-03
            1959     4.27129E-03     27.9045E-03    -45.0024E+06    -151.641E+06    -28.5788E+06     353.525E+03    -53.3027E-03     105.599E-03    -52.2961E-03     34.6658E-03    -53.2899E-03     104.971E-03    -52.1539E-03     34.5134E-03
            1960     3.41759E-03     27.8712E-03    -48.1679E+06    -158.303E+06    -35.9085E+06     184.524E+03    -52.7711E-03     104.899E-03    -52.1283E-03     27.8059E-03    -52.7443E-03     104.244E-03    -52.0085E-03     27.6914E-03
            1961     2.56344E-03     27.8451E-03    -50.9494E+06    -163.102E+06    -43.2427E+06     118.737E+03    -52.3457E-03     104.335E-03    -51.9891E-03     20.9651E-03    -52.3087E-03     103.663E-03    -51.8950E-03     20.8838E-03
            1962     1.70914E-03     27.8263E-03    -52.9854E+06    -166.855E+06    -49.2493E+06     58.9353E+03    -52.0433E-03     103.931E-03    -51.8879E-03     14.1711E-03    -51.9983E-03     103.249E-03    -51.8154E-03     14.1184E-03
            1963     854.500E-06     27.8148E-03    -54.2385E+06    -169.405E+06    -53.5015E+06    -18.4197E+03    -51.8470E-03     103.695E-03    -51.8480E-03     7.64450E-03    -51.7958E-03     103.006E-03    -51.7912E-03     7.61617E-03
            1964     16.1738E-03     28.8576E-03    -5.02756E+06     147.088E+06     104.641E+06     904.235E+03    -81.7064E-03     137.576E-03    -55.8699E-03     370.514E-03    -104.690E-03     160.761E-03    -55.5526E-03     375.240E-03
            1965     15.3316E-03     28.3585E-03    -11.3880E+06     129.221E+06     93.0302E+06     101.844E+03    -89.4127E-03     144.981E-03    -55.5687E-03     418.612E-03    -111.682E-03     167.399E-03    -55.2744E-03     415.587E-03
            1966     14.4820E-03     27.9779E-03    -17.2292E+06     96.3217E+06     58.7077E+06     404.041E+03    -76.9920E-03     132.177E-03    -55.1846E-03     296.308E-03    -85.7144E-03     141.010E-03    -55.0057E-03     292.780E-03
            1967     13.6329E-03     27.7502E-03    -21.2754E+06     65.2634E+06     17.3857E+06     1.03754E+06    -66.3430E-03     121.093E-03    -54.7504E-03     184.994E-03    -69.3295E-03     124.186E-03    -54.7273E-03     182.800E-03
            1968     12.7846E-03     27.5984E-03    -23.3484E+06     34.6355E+06    -7.11692E+06     498.675E+03    -62.3136E-03     116.693E-03    -54.3794E-03     131.428E-03    -63.7366E-03     118.177E-03    -54.4313E-03     129.867E-03
            1969     11.9359E-03     27.4797E-03    -24.8296E+06    -6.70924E+06    -11.1404E+06     116.394E+03    -60.7962E-03     114.915E-03    -54.1186E-03     107.487E-03    -61.6390E-03     115.678E-03    -54.1286E-03     106.278E-03
            1970     11.0868E-03     27.3766E-03    -25.9332E+06    -45.5078E+06    -9.65001E+06     209.043E+03    -59.7722E-03     113.647E-03    -53.8746E-03     93.9958E-03    -60.3102E-03     113.959E-03    -53.8192E-03     93.0333E-03
            1971     10.2372E-03     27.2838E-03    -27.2156E+06    -70.8904E+06    -10.2432E+06     270.482E+03    -58.9369E-03     112.533E-03    -53.5960E-03     84.6715E-03    -59.2944E-03     112.572E-03    -53.5049E-03     83.8925E-03
            1972     9.38721E-03     27.1991E-03    -28.8749E+06    -88.7448E+06    -9.76912E+06     348.689E+03    -58.0212E-03     111.332E-03    -53.3106E-03     76.2996E-03    -58.2609E-03     111.182E-03    -53.1889E-03     75.6705E-03
            1973     8.53638E-03     27.1230E-03    -30.8646E+06    -102.907E+06    -10.3451E+06     204.385E+03    -57.0296E-03     110.053E-03    -53.0230E-03     68.3874E-03    -57.1864E-03     109.765E-03    -52.8808E-03     67.8799E-03
            1974     7.68506E-03     27.0543E-03    -33.2632E+06    -115.292E+06    -11.8880E+06     222.118E+03    -56.0885E-03     108.832E-03    -52.7433E-03     61.0896E-03    -56.1868E-03     108.437E-03    -52.5873E-03     60.6832E-03
            1975     6.83298E-03     26.9931E-03    -36.0848E+06    -127.804E+06    -13.3437E+06     558.193E+03    -55.1922E-03     107.674E-03    -52.4821E-03     54.0016E-03    -55.2485E-03     107.188E-03    -52.3112E-03     53.6822E-03
            1976     5.98046E-03     26.9390E-03    -39.0225E+06    -135.590E+06    -16.8566E+06     601.578E+03    -54.3277E-03     106.554E-03    -52.2264E-03     47.1501E-03    -54.3563E-03     106.012E-03    -52.0575E-03     46.9003E-03
            1977     5.12722E-03     26.8921E-03    -42.0642E+06    -141.957E+06    -22.3360E+06     369.721E+03    -53.5372E-03     105.524E-03    -51.9869E-03     40.4190E-03    -53.5452E-03     104.944E-03    -51.8318E-03     40.2234E-03
            1978     4.27356E-03     26.8522E-03    -45.2255E+06    -151.386E+06    -28.6018E+06     234.166E+03    -52.8609E-03     104.640E-03    -51.7787E-03     33.7049E-03    -52.8487E-03     104.012E-03    -51.6366E-03     33.5547E-03
            1979     3.41937E-03     26.8195E-03    -48.3356E+06    -158.088E+06    -36.0881E+06     143.629E+03    -52.2929E-03     103.885E-03    -51.5917E-03     27.0159E-03    -52.2665E-03     103.230E-03    -51.4728E-03     26.9038E-03
            1980     2.56490E-03     26.7940E-03    -51.0532E+06    -162.953E+06    -43.6481E+06     25.3538E+03    -51.8414E-03     103.274E-03    -51.4331E-03     20.3555E-03    -51.8043E-03     102.604E-03    -51.3410E-03     20.2751E-03
            1981     1.71004E-03     26.7756E-03    -53.2544E+06    -166.893E+06    -49.8342E+06     44.9866E+03    -51.5067E-03     102.818E-03    -51.3116E-03     13.7285E-03    -51.4619E-03     102.137E-03    -51.2416E-03     13.6770E-03
            1982     855.214E-06     26.7642E-03    -54.5465E+06    -169.351E+06    -53.8457E+06     259.528E+03    -51.2942E-03     102.523E-03    -51.2290E-03     7.46029E-03    -51.2441E-03     101.835E-03    -51.1736E-03     7.43639E-03
            1983     16.1812E-03     27.7914E-03    -6.13640E+06     146.774E+06     104.173E+06     200.744E+03    -81.8133E-03     137.665E-03    -55.8512E-03     371.907E-03    -104.863E-03     160.911E-03    -55.5342E-03     376.766E-03
            1984     15.3286E-03     27.2974E-03    -11.5068E+06     129.769E+06     93.0281E+06     1.53740E+06    -89.6808E-03     145.245E-03    -55.5642E-03     421.869E-03    -111.991E-03     167.705E-03    -55.2706E-03     418.981E-03
            1985     14.4801E-03     26.9116E-03    -17.3846E+06     96.7143E+06     59.7042E+06     1.44912E+06    -79.2144E-03     134.354E-03    -55.1399E-03     296.936E-03    -87.9720E-03     143.220E-03    -54.9564E-03     293.238E-03
            1986     13.6359E-03     26.6869E-03    -20.8573E+06     66.1653E+06     19.2181E+06     747.132E+03    -67.6609E-03     122.257E-03    -54.5959E-03     182.097E-03    -70.6384E-03     125.340E-03    -54.5656E-03     179.839E-03
            1987     12.7879E-03     26.5376E-03    -22.5664E+06     35.1740E+06    -6.36717E+06     1.00675E+06    -62.6843E-03     116.825E-03    -54.1403E-03     129.552E-03    -64.0873E-03     118.291E-03    -54.1904E-03     127.997E-03
            1988     11.9392E-03     26.4184E-03    -23.8242E+06    -6.25980E+06    -10.7061E+06     760.987E+03    -60.9696E-03     114.803E-03    -53.8336E-03     105.491E-03    -61.7962E-03     115.554E-03    -53.8435E-03     104.293E-03
            1989     11.0905E-03     26.3171E-03    -25.4206E+06    -45.2671E+06    -9.62003E+06     452.482E+03    -59.9419E-03     113.488E-03    -53.5458E-03     92.0270E-03    -60.4694E-03     113.792E-03    -53.4914E-03     91.0702E-03
            1990     10.2411E-03     26.2249E-03    -26.9397E+06    -70.8102E+06    -10.3756E+06     342.687E+03    -58.9464E-03     112.172E-03    -53.2254E-03     82.9476E-03    -59.2954E-03     112.204E-03    -53.1355E-03     82.1762E-03
            1991     9.39092E-03     26.1417E-03    -28.2837E+06    -88.6532E+06    -10.0232E+06     251.882E+03    -57.9202E-03     110.824E-03    -52.9034E-03     74.5756E-03    -58.1507E-03     110.668E-03    -52.7839E-03     73.9529E-03
            1992     8.54019E-03     26.0665E-03    -30.1695E+06    -102.984E+06    -9.83933E+06     628.448E+03    -56.8807E-03     109.466E-03    -52.5856E-03     66.7274E-03    -57.0301E-03     109.172E-03    -52.4417E-03     66.2325E-03
            1993     7.68865E-03     25.9992E-03    -32.9427E+06    -115.184E+06    -11.0565E+06     846.534E+03    -55.8601E-03     108.134E-03    -52.2740E-03     59.4960E-03    -55.9547E-03     107.735E-03    -52.1145E-03     59.1045E-03
            1994     6.83654E-03     25.9389E-03    -35.7971E+06    -127.606E+06    -12.8355E+06     481.322E+03    -54.8725E-03     106.853E-03    -51.9807E-03     52.5314E-03    -54.9256E-03     106.363E-03    -51.8079E-03     52.2177E-03
            1995     5.98360E-03     25.8860E-03    -38.5926E+06    -135.458E+06    -16.5426E+06     354.888E+03    -53.9494E-03     105.646E-03    -51.6965E-03     45.8117E-03    -53.9745E-03     105.101E-03    -51.5269E-03     45.5645E-03
            1996     5.13014E-03     25.8400E-03    -41.7312E+06    -141.615E+06    -22.5254E+06     386.190E+03    -53.1038E-03     104.533E-03    -51.4289E-03     39.2315E-03    -53.1089E-03     103.952E-03    -51.2757E-03     39.0411E-03
            1997     4.27601E-03     25.8011E-03    -45.1269E+06    -151.245E+06    -28.9640E+06     310.153E+03    -52.3637E-03     103.562E-03    -51.1983E-03     32.6803E-03    -52.3498E-03     102.935E-03    -51.0584E-03     32.5352E-03
            1998     3.42145E-03     25.7690E-03    -48.4538E+06    -157.823E+06    -36.1769E+06     207.117E+03    -51.7533E-03     102.747E-03    -50.9940E-03     26.1849E-03    -51.7272E-03     102.094E-03    -50.8758E-03     26.0769E-03
            1999     2.56646E-03     25.7441E-03    -51.4365E+06    -162.897E+06    -44.0091E+06     167.024E+03    -51.2724E-03     102.089E-03    -50.8167E-03     19.7138E-03    -51.2364E-03     101.420E-03    -50.7260E-03     19.6377E-03
            2000     1.71126E-03     25.7260E-03    -53.6618E+06    -166.855E+06    -50.3403E+06     196.936E+03    -50.8940E-03     101.574E-03    -50.6801E-03     13.2939E-03    -50.8504E-03     100.894E-03    -50.6120E-03     13.2461E-03
            2001     855.549E-06     25.7151E-03    -55.0116E+06    -169.159E+06    -54.0769E+06     125.010E+03    -50.6754E-03     101.249E-03    -50.5738E-03     7.23810E-03    -50.6274E-03     100.563E-03    -50.5191E-03     7.21320E-03
            2002     16.1716E-03     26.7245E-03    -5.79535E+06     145.448E+06     103.160E+06     639.106E+03    -81.4977E-03     137.444E-03    -55.9466E-03     372.882E-03    -104.574E-03     160.718E-03    -55.6333E-03     377.691E-03
            2003     15.3254E-03     26.2317E-03    -12.6237E+06     128.403E+06     92.0707E+06     1.43663E+06    -92.5280E-03     148.103E-03    -55.5753E-03     417.754E-03    -114.749E-03     170.468E-03    -55.2828E-03     414.456E-03
            2004     14.4834E-03     25.8424E-03    -16.9088E+06     97.4378E+06     60.6814E+06     1.33479E+06    -80.4493E-03     135.442E-03    -54.9924E-03     291.111E-03    -89.0991E-03     144.201E-03    -54.8058E-03     287.272E-03
            2005     13.6382E-03     25.6228E-03    -19.9384E+06     66.5468E+06     19.2522E+06     1.10904E+06    -67.7161E-03     122.074E-03    -54.3580E-03     177.775E-03    -70.6157E-03     125.083E-03    -54.3294E-03     175.539E-03
            2006     12.7917E-03     25.4757E-03    -22.1923E+06     35.5621E+06    -6.47158E+06     1.31791E+06    -63.2225E-03     117.071E-03    -53.8486E-03     127.338E-03    -64.6134E-03     118.528E-03    -53.9003E-03     125.775E-03
            2007     11.9438E-03     25.3580E-03    -23.5635E+06    -5.16620E+06    -10.1250E+06     1.33782E+06    -61.1752E-03     114.664E-03    -53.4893E-03     103.777E-03    -61.9895E-03     115.406E-03    -53.4982E-03     102.592E-03
            2008     11.0949E-03     25.2575E-03    -24.9026E+06    -44.5364E+06    -9.24889E+06     1.07935E+06    -59.9258E-03     113.087E-03    -53.1608E-03     90.3720E-03    -60.4425E-03     113.384E-03    -53.1064E-03     89.4323E-03
            2009     10.2454E-03     25.1669E-03    -26.5429E+06    -70.2488E+06    -10.0817E+06     512.582E+03    -58.8885E-03     111.694E-03    -52.8055E-03     81.2572E-03    -59.2289E-03     111.720E-03    -52.7156E-03     80.4969E-03
            2010     9.39532E-03     25.0846E-03    -28.4023E+06    -88.7659E+06    -10.0501E+06     385.770E+03    -57.7839E-03     110.232E-03    -52.4483E-03     72.9021E-03    -58.0083E-03     110.070E-03    -52.3286E-03     72.2909E-03
            2011     8.54439E-03     25.0109E-03    -30.4670E+06    -103.631E+06    -10.0469E+06     826.972E+03    -56.6905E-03     108.786E-03    -52.0954E-03     65.0632E-03    -56.8352E-03     108.484E-03    -51.9512E-03     64.5796E-03
            2012     7.69281E-03     24.9446E-03    -32.3788E+06    -114.569E+06    -10.5537E+06     946.345E+03    -55.5731E-03     107.324E-03    -51.7505E-03     57.8824E-03    -55.6625E-03     106.922E-03    -51.5902E-03     57.5006E-03
            2013     6.84028E-03     24.8858E-03    -34.8547E+06    -127.015E+06    -12.4040E+06     585.213E+03    -54.5088E-03     105.935E-03    -51.4261E-03     51.0555E-03    -54.5557E-03     105.443E-03    -51.2534E-03     50.7509E-03
            2014     5.98716E-03     24.8339E-03    -38.1212E+06    -135.552E+06    -16.4828E+06     493.999E+03    -53.5269E-03     104.641E-03    -51.1139E-03     44.4514E-03    -53.5474E-03     104.093E-03    -50.9445E-03     44.2127E-03
            2015     5.13324E-03     24.7890E-03    -41.6061E+06    -141.464E+06    -22.4885E+06     667.116E+03    -52.6228E-03     103.443E-03    -50.8199E-03     37.9886E-03    -52.6261E-03     102.861E-03    -50.6669E-03     37.8075E-03
            2016     4.27877E-03     24.7510E-03    -45.1154E+06    -150.871E+06    -29.0495E+06     629.893E+03    -51.8295E-03     102.393E-03    -50.5638E-03     31.6027E-03    -51.8149E-03     101.767E-03    -50.4249E-03     31.4663E-03
            2017     3.42369E-03     24.7198E-03    -48.5541E+06    -157.641E+06    -36.5507E+06     527.739E+03    -51.1545E-03     101.493E-03    -50.3382E-03     25.3148E-03    -51.1280E-03     100.840E-03    -50.2220E-03     25.2147E-03
            2018     2.56820E-03     24.6953E-03    -51.5765E+06    -162.714E+06    -44.4074E+06     481.481E+03    -50.6196E-03     100.768E-03    -50.1489E-03     19.0385E-03    -50.5837E-03     100.101E-03    -50.0602E-03     18.9692E-03
            2019     1.71227E-03     24.6780E-03    -53.8693E+06    -166.525E+06    -50.5099E+06     336.623E+03    -50.2322E-03     100.238E-03    -50.0057E-03     12.8190E-03    -50.1898E-03     99.5596E-03    -49.9387E-03     12.7748E-03
            2020     856.335E-06     24.6672E-03    -55.2854E+06    -168.871E+06    -54.3890E+06     41.9165E+03    -50.0138E-03     99.8902E-03    -49.8764E-03     6.97016E-03    -49.9672E-03     99.2063E-03    -49.8233E-03     6.94517E-03
            2021     16.1711E-03     25.6567E-03    -5.00998E+06     145.932E+06     104.085E+06     1.90507E+06    -84.5737E-03     140.431E-03    -55.8571E-03     367.044E-03    -107.169E-03     163.225E-03    -55.5410E-03     370.995E-03
            2022     15.3332E-03     25.1598E-03    -11.5941E+06     129.374E+06     93.2228E+06     861.849E+03    -93.5837E-03     148.888E-03    -55.3047E-03     410.009E-03    -115.392E-03     170.844E-03    -55.0094E-03     406.314E-03
            2023     14.4907E-03     24.7795E-03    -16.2955E+06     96.0784E+06     61.6236E+06     520.192E+03    -79.0379E-03     133.697E-03    -54.6592E-03     286.846E-03    -87.4806E-03     142.244E-03    -54.4668E-03     283.126E-03
            2024     13.6428E-03     24.5593E-03    -19.8314E+06     65.5000E+06     21.0693E+06     1.67140E+06    -67.0805E-03     121.129E-03    -54.0480E-03     176.461E-03    -69.9162E-03     124.065E-03    -54.0089E-03     174.283E-03
            2025     12.7958E-03     24.4130E-03    -21.8511E+06     36.3964E+06    -4.91306E+06     2.05670E+06    -63.3991E-03     116.919E-03    -53.5202E-03     124.828E-03    -64.7701E-03     118.356E-03    -53.5658E-03     123.275E-03
            2026     11.9482E-03     24.2979E-03    -23.6279E+06    -4.62226E+06    -10.1069E+06     1.77504E+06    -61.2558E-03     114.368E-03    -53.1125E-03     102.015E-03    -62.0557E-03     115.097E-03    -53.1221E-03     100.847E-03
            2027     11.0995E-03     24.1984E-03    -25.1203E+06    -43.4598E+06    -9.32536E+06     1.35754E+06    -59.9600E-03     112.704E-03    -52.7440E-03     88.9517E-03    -60.4693E-03     112.997E-03    -52.6912E-03     88.0255E-03
            2028     10.2502E-03     24.1090E-03    -26.6082E+06    -69.5451E+06    -10.2551E+06     949.032E+03    -58.8401E-03     111.189E-03    -52.3492E-03     79.5586E-03    -59.1730E-03     111.211E-03    -52.2610E-03     78.8145E-03
            2029     9.39991E-03     24.0284E-03    -28.5547E+06    -88.8005E+06    -10.3988E+06     962.705E+03    -57.6526E-03     109.606E-03    -51.9533E-03     71.2435E-03    -57.8702E-03     109.437E-03    -51.8352E-03     70.6507E-03
            2030     8.54900E-03     23.9558E-03    -30.5846E+06    -103.473E+06    -11.0923E+06     727.352E+03    -56.4551E-03     108.015E-03    -51.5601E-03     63.4000E-03    -56.5934E-03     107.710E-03    -51.4211E-03     62.9259E-03
            2031     7.69710E-03     23.8912E-03    -32.6357E+06    -114.352E+06    -11.7360E+06     501.400E+03    -55.2631E-03     106.443E-03    -51.1804E-03     56.2536E-03    -55.3481E-03     106.041E-03    -51.0260E-03     55.8758E-03
            2032     6.84444E-03     23.8335E-03    -35.1530E+06    -126.833E+06    -12.7719E+06     819.532E+03    -54.1329E-03     104.960E-03    -50.8269E-03     49.4927E-03    -54.1779E-03     104.467E-03    -50.6559E-03     49.1995E-03
            2033     5.99088E-03     23.7830E-03    -38.3527E+06    -135.470E+06    -16.7409E+06     995.713E+03    -53.0737E-03     103.557E-03    -50.4837E-03     42.9837E-03    -53.0928E-03     103.008E-03    -50.3153E-03     42.7588E-03
            2034     5.13665E-03     23.7392E-03    -41.8051E+06    -141.339E+06    -22.7451E+06     971.392E+03    -52.1021E-03     102.263E-03    -50.1607E-03     36.6558E-03    -52.1046E-03     101.681E-03    -50.0089E-03     36.4848E-03
            2035     4.28168E-03     23.7022E-03    -45.2275E+06    -150.508E+06    -29.3383E+06     989.917E+03    -51.2441E-03     101.122E-03    -49.8784E-03     30.4430E-03    -51.2291E-03     100.498E-03    -49.7412E-03     30.3163E-03
            2036     3.42613E-03     23.6718E-03    -48.6495E+06    -157.318E+06    -36.9124E+06     983.241E+03    -50.5046E-03     100.137E-03    -49.6321E-03     24.3617E-03    -50.4778E-03     99.4857E-03    -49.5180E-03     24.2715E-03
            2037     2.57002E-03     23.6483E-03    -51.6441E+06    -162.225E+06    -44.4956E+06     820.183E+03    -49.9200E-03     99.3511E-03    -49.4312E-03     18.3112E-03    -49.8846E-03     98.6856E-03    -49.3435E-03     18.2492E-03
            2038     1.71362E-03     23.6312E-03    -53.8484E+06    -165.893E+06    -50.3724E+06     510.908E+03    -49.5064E-03     98.7910E-03    -49.2846E-03     12.3260E-03    -49.4648E-03     98.1154E-03    -49.2178E-03     12.2860E-03
            2039     856.793E-06     23.6209E-03    -55.4469E+06    -168.513E+06    -54.5457E+06     249.866E+03    -49.2969E-03     98.4451E-03    -49.1482E-03     6.69894E-03    -49.2514E-03     97.7634E-03    -49.0962E-03     6.67762E-03
            2040     16.1862E-03     24.5952E-03    -5.78877E+06     145.463E+06     104.144E+06     1.24373E+06    -88.8079E-03     144.393E-03    -55.5849E-03     364.349E-03    -111.068E-03     166.847E-03    -55.2667E-03     367.596E-03
            2041     15.3412E-03     24.0905E-03    -9.01045E+06     131.857E+06     95.8057E+06     1.53212E+06    -92.4885E-03     147.452E-03    -54.9632E-03     412.541E-03    -114.224E-03     169.345E-03    -54.6623E-03     408.953E-03
            2042     14.4941E-03     23.7196E-03    -15.5299E+06     96.4931E+06     62.0084E+06     1.97921E+06    -78.7138E-03     133.073E-03    -54.3589E-03     288.170E-03    -87.0859E-03     141.553E-03    -54.1663E-03     284.566E-03
            2043     13.6470E-03     23.4948E-03    -20.4377E+06     64.7119E+06     20.3713E+06     2.01585E+06    -67.8138E-03     121.537E-03    -53.7230E-03     176.496E-03    -70.6283E-03     124.449E-03    -53.6853E-03     174.300E-03
            2044     12.8011E-03     23.3515E-03    -22.1879E+06     36.2817E+06    -5.38712E+06     2.16810E+06    -63.2622E-03     116.416E-03    -53.1536E-03     122.692E-03    -64.5982E-03     117.818E-03    -53.2009E-03     121.164E-03
            2045     11.9528E-03     23.2379E-03    -23.1138E+06    -3.63482E+06    -10.1850E+06     2.22521E+06    -61.3062E-03     114.021E-03    -52.7152E-03     100.423E-03    -62.0895E-03     114.739E-03    -52.7273E-03     99.2724E-03
            2046     11.1044E-03     23.1394E-03    -24.3727E+06    -42.4565E+06    -9.25233E+06     1.72803E+06    -60.0700E-03     112.375E-03    -52.3051E-03     87.2479E-03    -60.5658E-03     112.660E-03    -52.2544E-03     86.3363E-03
            2047     10.2550E-03     23.0520E-03    -25.9643E+06    -69.0322E+06    -10.3824E+06     1.51957E+06    -58.8146E-03     110.679E-03    -51.8647E-03     77.7534E-03    -59.1353E-03     110.693E-03    -51.7789E-03     77.0282E-03
            2048     9.40494E-03     22.9725E-03    -27.6183E+06    -88.4805E+06    -10.6452E+06     1.34205E+06    -57.5196E-03     108.946E-03    -51.4259E-03     69.4223E-03    -57.7251E-03     108.770E-03    -51.3108E-03     68.8462E-03
            2049     8.55376E-03     22.9018E-03    -29.5615E+06    -102.796E+06    -11.1559E+06     1.09455E+06    -56.2185E-03     107.212E-03    -50.9935E-03     61.5911E-03    -56.3466E-03     106.903E-03    -50.8574E-03     61.1334E-03
            2050     7.70175E-03     22.8384E-03    -32.2453E+06    -114.216E+06    -12.1459E+06     964.518E+03    -54.9757E-03     105.550E-03    -50.5745E-03     54.4441E-03    -55.0538E-03     105.144E-03    -50.4229E-03     54.0824E-03
            2051     6.84879E-03     22.7824E-03    -35.3856E+06    -127.097E+06    -13.2681E+06     1.15858E+06    -53.7610E-03     103.943E-03    -50.1820E-03     47.7188E-03    -53.8025E-03     103.446E-03    -50.0128E-03     47.4389E-03
            2052     5.99500E-03     22.7332E-03    -38.6359E+06    -135.148E+06    -17.0928E+06     1.35815E+06    -52.5876E-03     102.390E-03    -49.8024E-03     41.3341E-03    -52.6055E-03     101.841E-03    -49.6358E-03     41.1220E-03
            2053     5.14028E-03     22.6907E-03    -41.9779E+06    -141.062E+06    -23.4259E+06     1.28453E+06    -51.5257E-03     100.973E-03    -49.4476E-03     35.1929E-03    -51.5266E-03     100.392E-03    -49.2993E-03     35.0330E-03
            2054     4.28485E-03     22.6548E-03    -45.4095E+06    -150.297E+06    -29.9369E+06     1.38326E+06    -50.6077E-03     99.7480E-03    -49.1403E-03     29.1718E-03    -50.5919E-03     99.1242E-03    -49.0062E-03     29.0559E-03
            2055     3.42870E-03     22.6255E-03    -48.6868E+06    -156.729E+06    -36.9848E+06     1.36885E+06    -49.8185E-03     98.6916E-03    -48.8731E-03     23.2889E-03    -49.7919E-03     98.0430E-03    -48.7602E-03     23.2081E-03
            2056     2.57203E-03     22.6025E-03    -51.5262E+06    -161.435E+06    -44.3628E+06     1.04266E+06    -49.1793E-03     97.8337E-03    -48.6544E-03     17.4839E-03    -49.1443E-03     97.1713E-03    -48.5674E-03     17.4282E-03
            2057     1.71486E-03     22.5862E-03    -53.7600E+06    -165.194E+06    -50.3519E+06     700.196E+03    -48.7193E-03     97.2190E-03    -48.4997E-03     11.7632E-03    -48.6781E-03     96.5465E-03    -48.4339E-03     11.7279E-03
            2058     857.543E-06     22.5760E-03    -55.2732E+06    -167.719E+06    -54.3296E+06     488.410E+03    -48.4910E-03     96.8745E-03    -48.3835E-03     6.41190E-03    -48.4460E-03     96.1962E-03    -48.3318E-03     6.39483E-03
            2059     16.1830E-03     23.5187E-03    -5.74853E+06     144.210E+06     103.275E+06     267.959E+03    -89.0952E-03     144.578E-03    -55.4826E-03     360.991E-03    -110.962E-03     166.637E-03    -55.1670E-03     364.135E-03
            2060     15.3396E-03     23.0273E-03    -10.5010E+06     130.350E+06     94.5144E+06     1.20133E+06    -93.0670E-03     147.906E-03    -54.8391E-03     413.778E-03    -114.753E-03     169.744E-03    -54.5404E-03     410.250E-03
            2061     14.4943E-03     22.6514E-03    -16.0666E+06     96.8189E+06     59.5835E+06     2.73543E+06    -80.7076E-03     134.861E-03    -54.1529E-03     287.130E-03    -89.0572E-03     143.324E-03    -53.9721E-03     283.378E-03
            2062     13.6527E-03     22.4309E-03    -19.1431E+06     65.8849E+06     17.6446E+06     3.12317E+06    -68.6933E-03     122.098E-03    -53.4052E-03     173.668E-03    -71.4428E-03     124.963E-03    -53.3847E-03     171.467E-03
            2063     12.8051E-03     22.2909E-03    -21.6286E+06     36.2212E+06    -7.26158E+06     2.40237E+06    -63.4074E-03     116.188E-03    -52.7805E-03     121.288E-03    -64.7082E-03     117.562E-03    -52.8380E-03     119.782E-03
            2064     11.9578E-03     22.1775E-03    -22.6456E+06    -2.77777E+06    -10.8743E+06     2.24380E+06    -61.6052E-03     113.906E-03    -52.3004E-03     98.7750E-03    -62.3717E-03     114.614E-03    -52.3179E-03     97.6309E-03
            2065     11.1095E-03     22.0813E-03    -23.6183E+06    -41.7340E+06    -9.43764E+06     2.29308E+06    -60.1599E-03     112.001E-03    -51.8409E-03     85.3625E-03    -60.6396E-03     112.276E-03    -51.7933E-03     84.4703E-03
            2066     10.2603E-03     21.9949E-03    -25.2939E+06    -68.4564E+06    -10.6301E+06     2.11220E+06    -58.8291E-03     110.181E-03    -51.3520E-03     75.7934E-03    -59.1371E-03     110.187E-03    -51.2692E-03     75.0875E-03
            2067     9.41011E-03     21.9177E-03    -27.1984E+06    -87.8984E+06    -10.9578E+06     1.84406E+06    -57.4311E-03     108.295E-03    -50.8640E-03     67.3147E-03    -57.6266E-03     108.114E-03    -50.7519E-03     66.7571E-03
            2068     8.55893E-03     21.8483E-03    -29.4226E+06    -102.351E+06    -11.6377E+06     1.74298E+06    -56.0266E-03     106.409E-03    -50.3828E-03     59.4754E-03    -56.1473E-03     106.096E-03    -50.2499E-03     59.0379E-03
            2069     7.70675E-03     21.7868E-03    -31.8503E+06    -113.879E+06    -12.4830E+06     1.76971E+06    -54.6709E-03     104.589E-03    -49.9179E-03     52.3507E-03    -54.7418E-03     104.179E-03    -49.7690E-03     52.0105E-03
            2070     6.85361E-03     21.7322E-03    -34.7785E+06    -127.083E+06    -13.6181E+06     1.87296E+06    -53.3448E-03     102.827E-03    -49.4825E-03     45.7139E-03    -53.3789E-03     102.326E-03    -49.3159E-03     45.4534E-03
            2071     5.99941E-03     21.6847E-03    -38.1778E+06    -134.639E+06    -17.4417E+06     1.82584E+06    -52.0651E-03     101.129E-03    -49.0641E-03     39.5087E-03    -52.0781E-03     100.579E-03    -48.9007E-03     39.3118E-03
            2072     5.14424E-03     21.6435E-03    -41.6539E+06    -140.667E+06    -23.2017E+06     1.73191E+06    -50.9127E-03     99.5920E-03    -48.6793E-03     33.5602E-03    -50.9109E-03     99.0102E-03    -48.5309E-03     33.4138E-03
            2073     4.28821E-03     21.6089E-03    -45.0861E+06    -150.046E+06    -29.5349E+06     1.78600E+06    -49.9252E-03     98.2692E-03    -48.3440E-03     27.7303E-03    -49.9073E-03     97.6442E-03    -48.2087E-03     27.6261E-03
            2074     3.43154E-03     21.5805E-03    -48.3576E+06    -155.822E+06    -36.9284E+06     1.65759E+06    -49.0734E-03     97.1222E-03    -48.0488E-03     22.0823E-03    -49.0457E-03     96.4767E-03    -47.9373E-03     22.0103E-03
            2075     2.57422E-03     21.5586E-03    -51.2079E+06    -160.519E+06    -44.2892E+06     1.31707E+06    -48.3819E-03     96.1913E-03    -47.8094E-03     16.5700E-03    -48.3462E-03     95.5324E-03    -47.7238E-03     16.5216E-03
            2076     1.71644E-03     21.5427E-03    -53.5209E+06    -164.268E+06    -50.2140E+06     954.448E+03    -47.8948E-03     95.5298E-03    -47.6350E-03     11.1525E-03    -47.8538E-03     94.8612E-03    -47.5703E-03     11.1228E-03
            2077     858.247E-06     21.5330E-03    -54.8965E+06    -166.631E+06    -54.0045E+06     556.256E+03    -47.5890E-03     95.1233E-03    -47.5343E-03     6.07807E-03    -47.5441E-03     94.4493E-03    -47.4831E-03     6.06330E-03
            2078     16.1832E-03     22.4461E-03    -5.75058E+06     142.655E+06     101.764E+06     503.231E+03    -88.3813E-03     143.931E-03    -55.5497E-03     356.521E-03    -109.936E-03     165.677E-03    -55.2393E-03     359.357E-03
            2079     15.3400E-03     21.9611E-03    -12.3747E+06     128.347E+06     91.9899E+06     686.083E+03    -96.3774E-03     151.176E-03    -54.7990E-03     410.208E-03    -118.050E-03     172.994E-03    -54.5073E-03     406.152E-03
            2080     14.5009E-03     21.5802E-03    -16.3269E+06     96.3618E+06     58.9609E+06     1.49730E+06    -82.4503E-03     136.382E-03    -53.9316E-03     281.981E-03    -90.6883E-03     144.733E-03    -53.7528E-03     278.035E-03
            2081     13.6555E-03     21.3692E-03    -18.8381E+06     65.9465E+06     18.3855E+06     3.14936E+06    -68.6720E-03     121.767E-03    -53.0948E-03     169.960E-03    -71.3362E-03     124.545E-03    -53.0712E-03     167.799E-03
            2082     12.8097E-03     21.2281E-03    -20.3456E+06     37.4156E+06    -6.12849E+06     3.34250E+06    -64.0070E-03     116.422E-03    -52.4147E-03     119.240E-03    -65.2778E-03     117.771E-03    -52.4701E-03     117.746E-03
            2083     11.9630E-03     21.1181E-03    -21.8848E+06    -2.29385E+06    -11.4594E+06     2.92303E+06    -61.9167E-03     113.779E-03    -51.8623E-03     96.4178E-03    -62.6608E-03     114.471E-03    -51.8845E-03     95.2898E-03
            2084     11.1148E-03     21.0229E-03    -23.6421E+06    -41.4025E+06    -10.1633E+06     2.79793E+06    -60.3149E-03     111.660E-03    -51.3451E-03     83.1947E-03    -60.7805E-03     111.924E-03    -51.3016E-03     82.3200E-03
            2085     10.2658E-03     20.9388E-03    -25.1122E+06    -67.5578E+06    -10.8697E+06     2.69616E+06    -58.9036E-03     109.703E-03    -50.7998E-03     73.4117E-03    -59.2000E-03     109.702E-03    -50.7198E-03     72.7254E-03
            2086     9.41582E-03     20.8630E-03    -26.8417E+06    -87.2805E+06    -11.1235E+06     2.53565E+06    -57.3981E-03     107.651E-03    -50.2529E-03     64.7917E-03    -57.5831E-03     107.463E-03    -50.1430E-03     64.2553E-03
            2087     8.56468E-03     20.7959E-03    -28.8742E+06    -101.853E+06    -11.9944E+06     2.50251E+06    -55.8307E-03     105.544E-03    -49.7138E-03     57.0207E-03    -55.9412E-03     105.226E-03    -49.5842E-03     56.6062E-03
            2088     7.71232E-03     20.7360E-03    -31.4103E+06    -113.556E+06    -13.1189E+06     2.50359E+06    -54.3071E-03     103.505E-03    -49.1981E-03     50.0326E-03    -54.3694E-03     103.091E-03    -49.0535E-03     49.7150E-03
            2089     6.85878E-03     20.6834E-03    -34.3012E+06    -126.806E+06    -14.1353E+06     2.58957E+06    -52.8658E-03     101.586E-03    -48.7200E-03     43.4971E-03    -52.8928E-03     101.082E-03    -48.5570E-03     43.2576E-03
            2090     6.00416E-03     20.6374E-03    -37.4776E+06    -133.857E+06    -17.7660E+06     2.54676E+06    -51.5022E-03     99.7634E-03    -48.2612E-03     37.4554E-03    -51.5091E-03     99.2136E-03    -48.1016E-03     37.2779E-03
            2091     5.14854E-03     20.5979E-03    -40.9244E+06    -140.119E+06    -22.8372E+06     2.32536E+06    -50.2628E-03     98.1051E-03    -47.8423E-03     31.7359E-03    -50.2564E-03     97.5222E-03    -47.6940E-03     31.6058E-03
            2092     4.29202E-03     20.5645E-03    -44.5167E+06    -149.591E+06    -29.1109E+06     2.30089E+06    -49.1756E-03     96.6511E-03    -47.4755E-03     26.1643E-03    -49.1547E-03     96.0255E-03    -47.3396E-03     26.0738E-03
            2093     3.43462E-03     20.5374E-03    -47.9345E+06    -154.708E+06    -36.8054E+06     2.12894E+06    -48.2472E-03     95.4008E-03    -47.1536E-03     20.7926E-03    -48.2183E-03     94.7592E-03    -47.0438E-03     20.7322E-03
            2094     2.57655E-03     20.5163E-03    -50.8874E+06    -159.413E+06    -44.0191E+06     1.69900E+06    -47.5188E-03     94.4136E-03    -46.8948E-03     15.5914E-03    -47.4831E-03     93.7589E-03    -46.8100E-03     15.5518E-03
            2095     1.71797E-03     20.5011E-03    -53.0723E+06    -162.985E+06    -49.7166E+06     1.16882E+06    -46.9926E-03     93.6949E-03    -46.7024E-03     10.5179E-03    -46.9516E-03     93.0311E-03    -46.6377E-03     10.4936E-03
            2096     859.170E-06     20.4918E-03    -54.4231E+06    -165.320E+06    -53.5797E+06     581.618E+03    -46.6439E-03     93.2388E-03    -46.5949E-03     5.72753E-03    -46.5991E-03     92.5700E-03    -46.5442E-03     5.71445E-03
            2097     16.1759E-03     21.3769E-03    -4.36547E+06     142.839E+06     102.630E+06     1.87005E+06    -90.2363E-03     145.788E-03    -55.5515E-03     350.977E-03    -111.285E-03     167.031E-03    -55.2391E-03     353.176E-03
            2098     15.3410E-03     20.8761E-03    -10.4429E+06     129.116E+06     92.5362E+06     1.26564E+06    -98.1202E-03     152.778E-03    -54.6579E-03     404.288E-03    -119.392E-03     174.203E-03    -54.3673E-03     399.740E-03
            2099     14.5045E-03     20.5161E-03    -16.7700E+06     95.1941E+06     57.4324E+06     875.148E+03    -82.7448E-03     136.417E-03    -53.6726E-03     276.722E-03    -90.7652E-03     144.550E-03    -53.4992E-03     272.783E-03
            2100     13.6604E-03     20.3040E-03    -20.3727E+06     64.3200E+06     17.5841E+06     1.58288E+06    -69.6042E-03     122.362E-03    -52.7575E-03     166.438E-03    -72.2200E-03     125.083E-03    -52.7333E-03     164.232E-03
            2101     12.8155E-03     20.1666E-03    -21.3791E+06     37.6046E+06    -6.35701E+06     3.42357E+06    -64.3798E-03     116.377E-03    -51.9970E-03     115.943E-03    -65.6131E-03     117.686E-03    -52.0523E-03     114.464E-03
            2102     11.9684E-03     20.0580E-03    -22.3861E+06    -1.11628E+06    -12.4000E+06     3.74032E+06    -62.1119E-03     113.490E-03    -51.3783E-03     93.8349E-03    -62.8369E-03     114.168E-03    -51.4062E-03     92.7304E-03
            2103     11.1209E-03     19.9654E-03    -23.5367E+06    -40.7612E+06    -10.7976E+06     3.24023E+06    -60.5864E-03     111.385E-03    -50.7991E-03     80.4548E-03    -61.0353E-03     111.638E-03    -50.7599E-03     79.5964E-03
            2104     10.2721E-03     19.8826E-03    -24.8311E+06    -66.7985E+06    -11.3110E+06     3.14444E+06    -58.9795E-03     109.166E-03    -50.1865E-03     70.6398E-03    -59.2612E-03     109.155E-03    -50.1102E-03     69.9743E-03
            2105     9.42223E-03     19.8093E-03    -26.4435E+06    -86.7344E+06    -11.5200E+06     3.15060E+06    -57.3117E-03     106.889E-03    -49.5769E-03     61.9687E-03    -57.4839E-03     106.693E-03    -49.4704E-03     61.4558E-03
            2106     8.57093E-03     19.7441E-03    -28.5076E+06    -101.477E+06    -12.7044E+06     3.30562E+06    -55.5812E-03     104.559E-03    -48.9781E-03     54.2984E-03    -55.6808E-03     104.234E-03    -48.8532E-03     53.9099E-03
            2107     7.71833E-03     19.6865E-03    -30.8258E+06    -112.949E+06    -13.9416E+06     3.32705E+06    -53.9150E-03     102.323E-03    -48.4082E-03     47.4393E-03    -53.9676E-03     101.906E-03    -48.2694E-03     47.1469E-03
            2108     6.86448E-03     19.6357E-03    -33.5425E+06    -126.451E+06    -14.4251E+06     3.33373E+06    -52.3493E-03     100.234E-03    -47.8847E-03     41.0166E-03    -52.3677E-03     99.7263E-03    -47.7248E-03     40.7997E-03
            2109     6.00947E-03     19.5917E-03    -36.7686E+06    -133.054E+06    -17.9358E+06     3.40422E+06    -50.8704E-03     98.2529E-03    -47.3825E-03     35.1718E-03    -50.8713E-03     97.7029E-03    -47.2259E-03     35.0164E-03
            2110     5.15326E-03     19.5537E-03    -40.4664E+06    -139.282E+06    -23.4158E+06     3.32360E+06    -49.5178E-03     96.4427E-03    -46.9248E-03     29.7253E-03    -49.5072E-03     95.8618E-03    -46.7813E-03     29.6174E-03
            2111     4.29603E-03     19.5220E-03    -44.2789E+06    -148.645E+06    -29.2479E+06     3.05168E+06    -48.3421E-03     94.8725E-03    -46.5304E-03     24.4604E-03    -48.3197E-03     94.2500E-03    -46.3969E-03     24.3871E-03
            2112     3.43792E-03     19.4961E-03    -47.6715E+06    -153.402E+06    -36.4211E+06     2.55719E+06    -47.3589E-03     93.5441E-03    -46.1852E-03     19.4008E-03    -47.3302E-03     92.9071E-03    -46.0757E-03     19.3516E-03
            2113     2.57913E-03     19.4760E-03    -50.3345E+06    -157.963E+06    -43.4993E+06     1.94003E+06    -46.5734E-03     92.4790E-03    -45.9055E-03     14.5115E-03    -46.5373E-03     91.8295E-03    -45.8210E-03     14.4792E-03
            2114     1.71976E-03     19.4616E-03    -52.4622E+06    -161.489E+06    -49.2109E+06     1.33194E+06    -45.9898E-03     91.6941E-03    -45.7043E-03     9.80103E-03    -45.9485E-03     91.0359E-03    -45.6401E-03     9.78161E-03
            2115     859.880E-06     19.4527E-03    -53.8357E+06    -163.816E+06    -53.0247E+06     731.288E+03    -45.6776E-03     91.2426E-03    -45.5650E-03     5.34734E-03    -45.6328E-03     90.5796E-03    -45.5145E-03     5.33744E-03
            2116     16.1865E-03     20.2951E-03    -5.05501E+06     142.005E+06     102.426E+06     1.17712E+06    -92.8440E-03     148.276E-03    -55.4322E-03     348.217E-03    -113.600E-03     169.221E-03    -55.1187E-03     350.041E-03
            2117     15.3504E-03     19.8107E-03    -9.42991E+06     129.365E+06     94.2188E+06     2.68218E+06    -98.2516E-03     152.691E-03    -54.4398E-03     400.237E-03    -119.082E-03     173.675E-03    -54.1426E-03     395.778E-03
            2118     14.5048E-03     19.4433E-03    -14.4915E+06     95.9412E+06     58.4786E+06     2.70241E+06    -83.3478E-03     136.735E-03    -53.3868E-03     271.726E-03    -91.0801E-03     144.587E-03    -53.2125E-03     267.802E-03
            2119     13.6666E-03     19.2385E-03    -19.0848E+06     63.8671E+06     15.8005E+06     2.88633E+06    -70.4675E-03     122.839E-03    -52.3719E-03     161.169E-03    -72.9795E-03     125.465E-03    -52.3579E-03     158.960E-03
            2120     12.8215E-03     19.1059E-03    -22.7057E+06     37.0008E+06    -9.34988E+06     3.34576E+06    -64.7798E-03     116.305E-03    -51.5255E-03     113.104E-03    -65.9752E-03     117.579E-03    -51.5929E-03     111.638E-03
            2121     11.9749E-03     18.9981E-03    -23.4043E+06     325.116E+03    -14.1074E+06     3.42514E+06    -62.5287E-03     113.368E-03    -50.8392E-03     91.3675E-03    -63.2327E-03     114.031E-03    -50.8762E-03     90.2734E-03
            2122     11.1277E-03     18.9076E-03    -23.6523E+06    -40.0147E+06    -12.2034E+06     3.39543E+06    -60.8480E-03     111.034E-03    -50.1864E-03     77.4443E-03    -61.2764E-03     111.272E-03    -50.1551E-03     76.6040E-03
            2123     10.2791E-03     18.8275E-03    -24.8059E+06    -66.5439E+06    -12.7137E+06     3.55022E+06    -59.0616E-03     108.563E-03    -49.5012E-03     67.6036E-03    -59.3258E-03     108.540E-03    -49.4323E-03     66.9614E-03
            2124     9.42915E-03     18.7562E-03    -26.3923E+06    -86.3356E+06    -12.4670E+06     3.87605E+06    -57.1814E-03     106.007E-03    -48.8256E-03     58.7864E-03    -57.3400E-03     105.802E-03    -48.7245E-03     58.3019E-03
            2125     8.57783E-03     18.6937E-03    -28.2222E+06    -101.003E+06    -13.6239E+06     3.96043E+06    -55.3053E-03     103.469E-03    -48.1635E-03     51.1442E-03    -55.3934E-03     103.138E-03    -48.0443E-03     50.7813E-03
            2126     7.72501E-03     18.6381E-03    -30.3444E+06    -112.439E+06    -15.3924E+06     4.15683E+06    -53.4854E-03     101.017E-03    -47.5316E-03     44.4351E-03    -53.5272E-03     100.597E-03    -47.4016E-03     44.1694E-03
            2127     6.87082E-03     18.5896E-03    -33.2133E+06    -125.855E+06    -15.5598E+06     4.46084E+06    -51.7572E-03     98.7147E-03    -46.9576E-03     38.2273E-03    -51.7680E-03     98.2060E-03    -46.8047E-03     38.0391E-03
            2128     6.01522E-03     18.5475E-03    -36.6703E+06    -132.265E+06    -18.4468E+06     4.49201E+06    -50.1397E-03     96.5542E-03    -46.4145E-03     32.6356E-03    -50.1369E-03     96.0052E-03    -46.2618E-03     32.5062E-03
            2129     5.15840E-03     18.5116E-03    -40.1276E+06    -138.112E+06    -23.4087E+06     4.31714E+06    -48.6776E-03     94.5998E-03    -45.9222E-03     27.4646E-03    -48.6646E-03     94.0219E-03    -45.7808E-03     27.3792E-03
            2130     4.30044E-03     18.4813E-03    -43.4864E+06    -147.049E+06    -28.9077E+06     3.75871E+06    -47.4216E-03     92.9199E-03    -45.4983E-03     22.5422E-03    -47.3965E-03     92.3022E-03    -45.3666E-03     22.4857E-03
            2131     3.44157E-03     18.4568E-03    -46.6766E+06    -151.668E+06    -36.1234E+06     2.93634E+06    -46.3689E-03     91.4982E-03    -45.1293E-03     17.8576E-03    -46.3372E-03     90.8671E-03    -45.0223E-03     17.8193E-03
            2132     2.58188E-03     18.4378E-03    -49.4812E+06    -156.388E+06    -43.2972E+06     2.28213E+06    -45.5251E-03     90.3604E-03    -44.8353E-03     13.3570E-03    -45.4867E-03     89.7167E-03    -44.7533E-03     13.3335E-03
            2133     1.72155E-03     18.4242E-03    -51.6165E+06    -159.737E+06    -48.7105E+06     1.68129E+06    -44.9284E-03     89.5546E-03    -44.6261E-03     9.04820E-03    -44.8860E-03     88.9030E-03    -44.5632E-03     9.03610E-03
            2134     860.922E-06     18.4157E-03    -53.0905E+06    -162.018E+06    -52.2975E+06     924.141E+03    -44.6240E-03     89.0781E-03    -44.4541E-03     4.96312E-03    -44.5790E-03     88.4219E-03    -44.4037E-03     4.95706E-03
            2135     16.1831E-03     19.2129E-03    -6.82127E+06     139.297E+06     99.2622E+06    -814.681E+03    -94.5866E-03     149.923E-03    -55.3361E-03     346.268E-03    -115.058E-03     170.577E-03    -55.0319E-03     347.622E-03
            2136     15.3454E-03     18.7331E-03    -11.0638E+06     126.979E+06     92.5874E+06     868.463E+03    -100.118E-03     154.343E-03    -54.2244E-03     395.515E-03    -120.581E-03     174.949E-03    -53.9296E-03     390.753E-03
            2137     14.5155E-03     18.3731E-03    -14.6039E+06     95.1481E+06     61.0282E+06     3.57478E+06    -84.2326E-03     137.294E-03    -53.0614E-03     265.826E-03    -91.6780E-03     144.849E-03    -52.8730E-03     261.856E-03
            2138     13.6710E-03     18.1736E-03    -18.3213E+06     63.8399E+06     18.9564E+06     5.54666E+06    -70.4180E-03     122.393E-03    -51.9749E-03     156.770E-03    -72.7860E-03     124.868E-03    -51.9461E-03     154.663E-03
            2139     12.8271E-03     18.0438E-03    -20.2804E+06     38.8721E+06    -8.16523E+06     4.74850E+06    -65.6932E-03     116.736E-03    -51.0427E-03     109.846E-03    -66.8433E-03     117.976E-03    -51.1104E-03     108.396E-03
            2140     11.9820E-03     17.9385E-03    -21.9946E+06     1.39188E+06    -15.0903E+06     3.71846E+06    -63.2275E-03     113.475E-03    -50.2473E-03     88.1939E-03    -63.8954E-03     114.114E-03    -50.2929E-03     87.1154E-03
            2141     11.1350E-03     17.8504E-03    -23.5522E+06    -39.6390E+06    -13.7576E+06     3.91706E+06    -61.1720E-03     110.674E-03    -49.5020E-03     74.0483E-03    -61.5759E-03     110.894E-03    -49.4792E-03     73.2331E-03
            2142     10.2868E-03     17.7725E-03    -25.1269E+06    -66.3929E+06    -14.4694E+06     4.28636E+06    -59.1851E-03     107.917E-03    -48.7321E-03     63.8355E-03    -59.4309E-03     107.880E-03    -48.6718E-03     63.2225E-03
            2143     9.43710E-03     17.7043E-03    -26.7865E+06    -85.8634E+06    -13.9906E+06     4.46451E+06    -57.0590E-03     105.037E-03    -47.9781E-03     55.0370E-03    -57.2041E-03     104.823E-03    -47.8847E-03     54.5808E-03
            2144     8.58561E-03     17.6441E-03    -28.5895E+06    -100.415E+06    -14.7999E+06     4.61138E+06    -54.9847E-03     102.230E-03    -47.2457E-03     47.4760E-03    -55.0636E-03     101.894E-03    -47.1326E-03     47.1405E-03
            2145     7.73256E-03     17.5913E-03    -30.7416E+06    -112.347E+06    -17.1238E+06     5.07597E+06    -52.9621E-03     99.5100E-03    -46.5479E-03     40.9435E-03    -52.9959E-03     99.0856E-03    -46.4261E-03     40.7069E-03
            2146     6.87781E-03     17.5451E-03    -33.3087E+06    -125.200E+06    -16.8952E+06     5.64098E+06    -51.0530E-03     96.9737E-03    -45.9207E-03     35.0136E-03    -51.0579E-03     96.4649E-03    -45.7753E-03     34.8559E-03
            2147     6.02169E-03     17.5054E-03    -36.2981E+06    -130.868E+06    -18.3028E+06     5.43558E+06    -49.2892E-03     94.6285E-03    -45.3393E-03     29.7277E-03    -49.2830E-03     94.0820E-03    -45.1884E-03     29.6232E-03
            2148     5.16410E-03     17.4712E-03    -39.3763E+06    -136.741E+06    -23.3813E+06     4.89890E+06    -47.7167E-03     92.5277E-03    -44.8110E-03     24.9478E-03    -47.6994E-03     91.9530E-03    -44.6725E-03     24.8802E-03
            2149     4.30537E-03     17.4428E-03    -42.5514E+06    -145.139E+06    -29.6460E+06     4.53520E+06    -46.3735E-03     90.7295E-03    -44.3560E-03     20.4698E-03    -46.3438E-03     90.1195E-03    -44.2321E-03     20.4314E-03
            2150     3.44552E-03     17.4196E-03    -45.8622E+06    -149.531E+06    -36.6662E+06     3.75347E+06    -45.2561E-03     89.2262E-03    -43.9701E-03     16.1863E-03    -45.2218E-03     88.6045E-03    -43.8701E-03     16.1647E-03
            2151     2.58485E-03     17.4019E-03    -48.6509E+06    -154.541E+06    -42.9814E+06     2.87364E+06    -44.3948E-03     88.0613E-03    -43.6666E-03     12.0586E-03    -44.3550E-03     87.4248E-03    -43.5868E-03     12.0471E-03
            2152     1.72358E-03     17.3890E-03    -50.7156E+06    -157.637E+06    -48.0496E+06     2.11216E+06    -43.7796E-03     87.2209E-03    -43.4413E-03     8.16532E-03    -43.7364E-03     86.5774E-03    -43.3795E-03     8.16170E-03
            2153     861.903E-06     17.3810E-03    -51.9950E+06    -159.667E+06    -51.4003E+06     1.22343E+06    -43.4014E-03     86.6897E-03    -43.2883E-03     4.49721E-03    -43.3556E-03     86.0422E-03    -43.2384E-03     4.49659E-03
            2154     16.1855E-03     18.1372E-03    -4.91306E+06     140.511E+06     100.543E+06     105.474E+03    -97.0527E-03     152.294E-03    -55.2410E-03     340.639E-03    -116.773E-03     172.204E-03    -54.9349E-03     341.325E-03
            2155     15.3573E-03     17.6520E-03    -12.3895E+06     124.120E+06     89.4624E+06     51.3373E+03    -101.578E-03     155.549E-03    -53.9711E-03     388.403E-03    -121.228E-03     175.337E-03    -53.6858E-03     383.212E-03
            2156     14.5168E-03     17.3038E-03    -18.1497E+06     90.7309E+06     57.9352E+06     2.01800E+06    -84.5272E-03     137.234E-03    -52.7070E-03     259.791E-03    -91.6770E-03     144.474E-03    -52.5225E-03     255.845E-03
            2157     13.6772E-03     17.1086E-03    -20.2258E+06     62.4433E+06     21.2992E+06     3.75302E+06    -71.5274E-03     123.073E-03    -51.5455E-03     152.192E-03    -73.8048E-03     125.439E-03    -51.5002E-03     150.057E-03
            2158     12.8343E-03     16.9801E-03    -20.1941E+06     40.2080E+06    -6.51872E+06     5.08903E+06    -66.5228E-03     117.015E-03    -50.4924E-03     105.276E-03    -67.6235E-03     118.206E-03    -50.5540E-03     103.839E-03
            2159     11.9897E-03     16.8792E-03    -21.1976E+06     2.75591E+06    -16.0219E+06     5.31770E+06    -63.9353E-03     113.510E-03    -49.5750E-03     83.9458E-03    -64.5675E-03     114.124E-03    -49.6284E-03     82.8998E-03
            2160     11.1436E-03     16.7930E-03    -23.1001E+06    -39.1769E+06    -14.4855E+06     5.18708E+06    -61.6768E-03     110.400E-03    -48.7234E-03     69.7687E-03    -62.0537E-03     110.598E-03    -48.7055E-03     68.9869E-03
            2161     10.2959E-03     16.7186E-03    -24.7687E+06    -65.7400E+06    -15.3848E+06      5.2919E+06    -59.3038E-03     107.155E-03    -47.8508E-03     59.2678E-03    -59.5276E-03     107.102E-03    -47.7965E-03     58.6900E-03
            2162     9.44608E-03     16.6531E-03    -26.5986E+06    -85.4073E+06    -14.9766E+06     5.47335E+06    -56.9058E-03     103.913E-03    -47.0076E-03     50.6169E-03    -57.0343E-03     103.688E-03    -46.9201E-03     50.1962E-03
            2163     8.59457E-03     16.5960E-03    -29.1141E+06    -99.8345E+06    -15.3903E+06     5.86679E+06    -54.5691E-03     100.768E-03    -46.1990E-03     43.1871E-03    -54.6396E-03     100.426E-03    -46.0890E-03     42.8889E-03
            2164     7.74109E-03     16.5460E-03    -31.8303E+06    -112.038E+06    -17.9122E+06     6.15154E+06    -52.3105E-03     97.7445E-03    -45.4340E-03     36.9014E-03    -52.3411E-03     97.3165E-03    -45.3150E-03     36.6975E-03
            2165     6.88590E-03     16.5025E-03    -34.0312E+06    -124.067E+06    -18.9639E+06     6.01508E+06    -50.1992E-03     94.9432E-03    -44.7440E-03     31.3821E-03    -50.2007E-03     94.4385E-03    -44.6096E-03     31.2456E-03
            2166     6.02893E-03     16.4651E-03    -35.9047E+06    -129.214E+06    -20.0813E+06     5.59535E+06    -48.2826E-03     92.4024E-03    -44.1198E-03     26.5189E-03    -48.2704E-03     91.8623E-03    -43.9808E-03     26.4302E-03
            2167     5.17051E-03     16.4333E-03    -38.5453E+06    -135.771E+06    -24.1678E+06     5.76642E+06    -46.5995E-03     90.1652E-03    -43.5657E-03     22.1544E-03    -46.5758E-03     89.5927E-03    -43.4338E-03     22.1088E-03
            2168     4.31069E-03     16.4066E-03    -42.0235E+06    -142.995E+06    -30.2008E+06     5.71344E+06    -45.1739E-03     88.2627E-03    -43.0888E-03     18.1340E-03    -45.1423E-03     87.6618E-03    -42.9716E-03     18.1193E-03
            2169     3.44987E-03     16.3851E-03    -45.2167E+06    -146.848E+06    -36.3893E+06     4.67690E+06    -44.0292E-03     86.7178E-03    -42.6886E-03     14.3131E-03    -43.9951E-03     86.1072E-03    -42.5920E-03     14.3098E-03
            2170     2.58821E-03     16.3684E-03    -47.8470E+06    -152.184E+06    -42.1775E+06     3.52560E+06    -43.1633E-03     85.5293E-03    -42.3660E-03     10.6414E-03    -43.1236E-03     84.9017E-03    -42.2868E-03     10.6428E-03
            2171     1.72591E-03     16.3564E-03    -49.9003E+06    -155.073E+06    -47.0634E+06     2.44250E+06    -42.5050E-03     84.6182E-03    -42.1133E-03     7.13961E-03    -42.4627E-03     83.9846E-03    -42.0514E-03     7.14325E-03
            2172     863.056E-06     16.3490E-03    -51.0212E+06    -156.888E+06    -50.2181E+06     1.30219E+06    -42.0842E-03     84.0013E-03    -41.9172E-03     3.84852E-03    -42.0392E-03     83.3646E-03    -41.8668E-03     3.85077E-03
            2173     16.1882E-03     17.0412E-03    -4.33931E+06     140.414E+06     100.877E+06     1.43642E+06    -99.4348E-03     154.583E-03    -55.1481E-03     339.924E-03    -118.790E-03     174.129E-03    -54.8410E-03     340.103E-03
            2174     15.3566E-03     16.5770E-03    -10.8300E+06     124.723E+06     90.8567E+06     2.69178E+06    -103.366E-03     157.118E-03    -53.7517E-03     383.146E-03    -122.452E-03     176.345E-03    -53.4626E-03     377.722E-03
            2175     14.5227E-03     16.2306E-03    -16.3314E+06     91.0051E+06     58.3047E+06     2.47275E+06    -86.3766E-03     138.704E-03    -52.3271E-03     251.747E-03    -93.2209E-03     145.645E-03    -52.1439E-03     247.705E-03
            2176     13.6850E-03     16.0413E-03    -20.2292E+06     60.5248E+06     18.4504E+06     2.51123E+06    -72.7708E-03     123.769E-03    -50.9982E-03     145.395E-03    -74.9237E-03     126.012E-03    -50.9644E-03     143.230E-03
            2177     12.8431E-03     15.9182E-03    -22.4272E+06     38.3805E+06    -10.0076E+06     4.21672E+06    -67.3670E-03     117.185E-03    -49.8185E-03     100.626E-03    -68.4139E-03     118.318E-03    -49.8916E-03     99.1909E-03
            2178     11.9990E-03     15.8186E-03    -22.8617E+06     3.47802E+06    -18.1355E+06     6.00214E+06    -64.7058E-03     113.491E-03    -48.7849E-03     79.2429E-03    -65.3075E-03     114.077E-03    -48.8475E-03     78.2218E-03
            2179     11.1538E-03     15.7363E-03    -23.4951E+06    -38.0282E+06    -15.7743E+06     6.29195E+06    -62.1856E-03     109.998E-03    -47.8127E-03     64.5686E-03    -62.5362E-03     110.177E-03    -47.8023E-03     63.8223E-03
            2180     10.3063E-03     15.6653E-03    -24.8894E+06    -64.9106E+06    -16.3380E+06     6.24995E+06    -59.4346E-03     106.262E-03    -46.8271E-03     54.0229E-03    -59.6375E-03     106.193E-03    -46.7786E-03     53.4820E-03
            2181     9.45678E-03     15.6033E-03    -26.6640E+06    -85.2211E+06    -15.8721E+06     6.89483E+06    -56.6921E-03     102.576E-03    -45.8840E-03     45.4820E-03    -56.8042E-03     102.337E-03    -45.8011E-03     45.1041E-03
            2182     8.60490E-03     15.5495E-03    -28.8365E+06    -98.9847E+06    -15.9427E+06     7.32704E+06    -54.0247E-03     99.0148E-03    -44.9901E-03     38.2859E-03    -54.0827E-03     98.6654E-03    -44.8844E-03     38.0298E-03
            2183     7.75102E-03     15.5027E-03    -30.9308E+06    -110.914E+06    -18.1334E+06     7.19186E+06    -51.5080E-03     95.6638E-03    -44.1559E-03     32.3422E-03    -51.5272E-03     95.2322E-03    -44.0408E-03     32.1720E-03
            2184     6.89497E-03     15.4622E-03    -33.1119E+06    -121.878E+06    -20.5079E+06     6.45371E+06    -49.1879E-03     92.5903E-03    -43.4024E-03     27.2749E-03    -49.1800E-03     92.0918E-03    -43.2802E-03     27.1615E-03
            2185     6.03716E-03     15.4274E-03    -35.5976E+06    -128.163E+06    -22.7129E+06     5.90392E+06    -47.1207E-03     89.8531E-03    -42.7324E-03     22.8782E-03    -47.1008E-03     89.3177E-03    -42.6085E-03     22.8078E-03
            2186     5.17767E-03     15.3978E-03    -38.2721E+06    -135.536E+06    -24.7513E+06     6.68523E+06    -45.3412E-03     87.4965E-03    -42.1553E-03     18.9474E-03    -45.3131E-03     86.9231E-03    -42.0270E-03     18.9249E-03
            2187     4.31688E-03     15.3732E-03    -41.0371E+06    -140.156E+06    -29.0858E+06     6.69822E+06    -43.8395E-03     85.4927E-03    -41.6532E-03     15.4173E-03    -43.8071E-03     84.9013E-03    -41.5359E-03     15.4241E-03
            2188     3.45484E-03     15.3531E-03    -43.8530E+06    -143.845E+06    -35.3912E+06     5.49112E+06    -42.6350E-03     83.8629E-03    -41.2279E-03     12.1263E-03    -42.5989E-03     83.2630E-03    -41.1327E-03     12.1401E-03
            2189     2.59197E-03     15.3376E-03    -46.5410E+06    -149.125E+06    -41.0782E+06     4.25646E+06    -41.7201E-03     82.6081E-03    -40.8880E-03     8.99587E-03    -41.6794E-03     81.9917E-03    -40.8096E-03     9.01151E-03
            2190     1.72843E-03     15.3265E-03    -48.6147E+06    -151.909E+06    -45.7293E+06     2.72922E+06    -41.0380E-03     81.6592E-03    -40.6212E-03     6.00526E-03    -40.9955E-03     81.0374E-03    -40.5591E-03     6.01571E-03
            2191     864.462E-06     15.3199E-03    -49.9934E+06    -153.969E+06    -49.2926E+06     1.37852E+06    -40.6323E-03     80.9985E-03    -40.3662E-03     3.25533E-03    -40.5877E-03     80.3735E-03    -40.3170E-03     3.26026E-03
            2192     16.1876E-03     15.9607E-03    -4.82242E+06     138.337E+06     99.1742E+06     1.08572E+06    -102.352E-03     157.453E-03    -55.1009E-03     336.066E-03    -121.112E-03     176.399E-03    -54.7986E-03     335.466E-03
            2193     15.3585E-03     15.4872E-03    -10.2061E+06     124.379E+06     91.1204E+06     1.95030E+06    -106.151E-03     159.665E-03    -53.5132E-03     373.459E-03    -124.499E-03     178.154E-03    -53.2232E-03     367.467E-03
            2194     14.5319E-03     15.1572E-03    -14.4631E+06     91.6551E+06     60.7774E+06     3.35514E+06    -88.0671E-03     139.953E-03    -51.8860E-03     241.459E-03    -94.5103E-03     146.495E-03    -51.6941E-03     237.341E-03
            2195     13.6934E-03     14.9746E-03    -18.2954E+06     60.3422E+06     19.0698E+06     4.70473E+06    -74.0134E-03     124.400E-03    -50.3868E-03     139.892E-03    -76.0276E-03     126.509E-03    -50.3524E-03     137.769E-03
            2196     12.8524E-03     14.8546E-03    -21.3900E+06     37.1135E+06    -12.0619E+06     5.54550E+06    -68.8707E-03     117.920E-03    -49.0488E-03     95.5779E-03    -69.8517E-03     118.992E-03    -49.1319E-03     94.1575E-03
            2197     12.0103E-03     14.7586E-03    -23.2063E+06     3.40789E+06    -20.6866E+06     6.39336E+06    -65.7082E-03     113.565E-03    -47.8569E-03     73.7700E-03    -66.2681E-03     114.115E-03    -47.9316E-03     72.7701E-03
            2198     11.1654E-03     14.6798E-03    -24.2558E+06    -36.6367E+06    -17.8195E+06     6.97296E+06    -62.6340E-03     109.380E-03    -46.7463E-03     58.6442E-03    -62.9571E-03     109.539E-03    -46.7471E-03     57.9326E-03
            2199     10.3186E-03     14.6129E-03    -25.4043E+06    -64.2794E+06    -17.7844E+06     7.21420E+06    -59.5375E-03     105.177E-03    -45.6400E-03     48.0728E-03    -59.7199E-03     105.094E-03    -45.5988E-03     47.5707E-03
            2200     9.46896E-03     14.5549E-03    -26.8065E+06    -85.0640E+06    -17.6608E+06     7.79816E+06    -56.4056E-03     100.989E-03    -44.5838E-03     39.7461E-03    -56.5000E-03     100.738E-03    -44.5099E-03     39.4063E-03
            2201     8.61692E-03     14.5049E-03    -28.0222E+06    -97.7759E+06    -17.3988E+06     8.09449E+06    -53.3846E-03     96.9792E-03    -43.5945E-03     32.8568E-03    -53.4266E-03     96.6252E-03    -43.4991E-03     32.6352E-03
            2202     7.76227E-03     14.4617E-03    -29.6437E+06    -109.532E+06    -18.6453E+06     8.06915E+06    -50.5916E-03     93.2779E-03    -42.6863E-03     27.2356E-03    -50.5974E-03     92.8439E-03    -42.5778E-03     27.0981E-03
            2203     6.90553E-03     14.4245E-03    -31.9891E+06    -119.441E+06    -20.3372E+06     7.76923E+06    -48.0539E-03     89.9246E-03    -41.8706E-03     22.5889E-03    -48.0385E-03     89.4306E-03    -41.7527E-03     22.5104E-03
            2204     6.04666E-03     14.3925E-03    -35.0788E+06    -127.036E+06    -22.7688E+06     7.40178E+06    -45.8161E-03     86.9654E-03    -41.1493E-03     18.7063E-03    -45.7913E-03     86.4311E-03    -41.0280E-03     18.6699E-03
            2205     5.18610E-03     14.3654E-03    -38.0533E+06    -134.550E+06    -25.4041E+06     7.20618E+06    -43.9082E-03     84.4348E-03    -40.5266E-03     15.3486E-03    -43.8770E-03     83.8644E-03    -40.4034E-03     15.3447E-03
            2206     4.32400E-03     14.3427E-03    -40.2278E+06    -137.440E+06    -29.0538E+06     6.77161E+06    -42.3095E-03     82.2987E-03    -39.9892E-03     12.4303E-03    -42.2755E-03     81.7181E-03    -39.8768E-03     12.4472E-03
            2207     3.46074E-03     14.3244E-03    -42.3505E+06    -141.004E+06    -34.2335E+06     6.22157E+06    -41.0122E-03     80.5547E-03    -39.5425E-03     9.75530E-03    -40.9735E-03     79.9641E-03    -39.4478E-03     9.78538E-03
            2208     2.59642E-03     14.3101E-03    -44.7056E+06    -145.258E+06    -39.6385E+06     4.99108E+06    -40.0178E-03     79.2094E-03    -39.1915E-03     7.23160E-03    -39.9752E-03     78.6071E-03    -39.1143E-03     7.26161E-03
            2209     1.73136E-03     14.3000E-03    -46.7693E+06    -148.345E+06    -44.3262E+06     3.31619E+06    -39.3205E-03     78.2513E-03    -38.9308E-03     4.78043E-03    -39.2759E-03     77.6424E-03    -38.8696E-03     4.80161E-03
            2210     865.739E-06     14.2940E-03    -48.2809E+06    -150.495E+06    -47.8790E+06     1.84707E+06    -38.8926E-03     77.6311E-03    -38.7385E-03     2.51101E-03    -38.8465E-03     77.0188E-03    -38.6897E-03     2.52368E-03
            2211     16.1881E-03     14.8672E-03    -4.78391E+06     137.539E+06     99.0398E+06     781.744E+03    -106.610E-03     161.612E-03    -55.0018E-03     330.125E-03    -124.726E-03     179.912E-03    -54.6991E-03     328.666E-03
            2212     15.3691E-03     14.3999E-03    -10.1158E+06     122.923E+06     90.1333E+06     1.72154E+06    -108.342E-03     161.537E-03    -53.1955E-03     365.115E-03    -125.811E-03     179.147E-03    -52.9084E-03     358.714E-03
            2213     14.5363E-03     14.0820E-03    -15.5178E+06     89.1910E+06     59.3887E+06     3.27833E+06    -89.3668E-03     140.772E-03    -51.4055E-03     232.704E-03    -95.3825E-03     146.878E-03    -51.2154E-03     228.582E-03
            2214     13.7017E-03     13.9056E-03    -19.0069E+06     59.3009E+06     20.8953E+06     5.29279E+06    -76.5442E-03     126.279E-03    -49.7348E-03     132.836E-03    -78.4456E-03     128.264E-03    -49.6888E-03     130.670E-03
            2215     12.8641E-03     13.7897E-03    -20.5814E+06     36.8945E+06    -9.97620E+06     7.23474E+06    -70.7164E-03     118.902E-03    -48.1857E-03     89.2115E-03    -71.6347E-03     119.908E-03    -48.2592E-03     87.8068E-03
            2216     12.0229E-03     13.6984E-03    -22.0761E+06     4.17234E+06    -21.3947E+06     8.04903E+06    -66.8191E-03     113.615E-03    -46.7958E-03     67.3850E-03    -67.3327E-03     114.128E-03    -46.8768E-03     66.4225E-03
            2217     11.1793E-03     13.6240E-03    -23.6815E+06    -35.0312E+06    -19.2138E+06     8.02788E+06    -63.1297E-03     108.655E-03    -45.5256E-03     52.2819E-03    -63.4200E-03     108.793E-03    -45.5366E-03     51.6113E-03
            2218     10.3325E-03     13.5616E-03    -25.0004E+06    -63.6842E+06    -18.9197E+06     8.12867E+06    -59.5727E-03     103.860E-03    -44.2872E-03     41.6870E-03    -59.7306E-03     103.758E-03    -44.2533E-03     41.2248E-03
            2219     9.48304E-03     13.5082E-03    -26.1641E+06    -84.2406E+06    -18.6025E+06     8.42717E+06    -56.0596E-03     99.1713E-03    -43.1117E-03     33.5429E-03    -56.1349E-03     98.9091E-03    -43.0446E-03     33.2382E-03
            2220     8.63048E-03     13.4625E-03    -27.6232E+06    -96.7998E+06    -18.2723E+06     8.68712E+06    -52.6904E-03     94.7083E-03    -42.0179E-03     27.0385E-03    -52.7194E-03     94.3489E-03    -41.9289E-03     26.8489E-03
            2221     7.77540E-03     13.4232E-03    -29.5055E+06    -108.369E+06    -18.6459E+06     9.11238E+06    -49.5994E-03     90.6231E-03    -41.0237E-03     21.8452E-03    -49.5985E-03     90.1870E-03    -40.9170E-03     21.7421E-03
            2222     6.91764E-03     13.3896E-03    -31.7563E+06    -117.402E+06    -19.7478E+06     9.10864E+06    -46.8073E-03     86.9401E-03    -40.1328E-03     17.7178E-03    -46.7893E-03     86.4499E-03    -40.0153E-03     17.6740E-03
            2223     6.05773E-03     13.3607E-03    -34.0340E+06    -125.233E+06    -22.3369E+06     8.75498E+06    -44.3501E-03     83.6977E-03    -39.3476E-03     14.4345E-03    -44.3199E-03     83.1668E-03    -39.2283E-03     14.4297E-03
            2224     5.19582E-03     13.3362E-03    -36.5061E+06    -131.961E+06    -25.7926E+06     7.99222E+06    -42.2586E-03     80.9313E-03    -38.6727E-03     11.7670E-03    -42.2207E-03     80.3699E-03    -38.5574E-03     11.7844E-03
            2225     4.33229E-03     13.3158E-03    -39.2255E+06    -135.125E+06    -29.5404E+06     7.05343E+06    -40.5296E-03     78.6347E-03    -38.1050E-03     9.51989E-03    -40.4920E-03     78.0635E-03    -37.9999E-03     9.54896E-03
            2226     3.46736E-03     13.2992E-03    -41.5517E+06    -138.352E+06    -33.8880E+06     6.50365E+06    -39.1469E-03     76.7916E-03    -37.6448E-03     7.48477E-03    -39.1078E-03     76.2119E-03    -37.5533E-03     7.52473E-03
            2227     2.60139E-03     13.2864E-03    -43.3356E+06    -141.118E+06    -38.8611E+06     5.46456E+06    -38.1050E-03     75.3932E-03    -37.2882E-03     5.57687E-03    -38.0622E-03     74.8081E-03    -37.2151E-03     5.61734E-03
            2228     1.73466E-03     13.2772E-03    -44.9484E+06    -144.439E+06    -42.8466E+06     3.93036E+06    -37.4008E-03     74.4386E-03    -37.0378E-03     3.67964E-03    -37.3547E-03     73.8441E-03    -36.9774E-03     3.71155E-03
            2229     867.565E-06     13.2717E-03    -45.9624E+06    -146.012E+06    -45.3423E+06     2.20907E+06    -37.0016E-03     73.8622E-03    -36.8606E-03     1.79907E-03    -36.9540E-03     73.2652E-03    -36.8090E-03     1.81794E-03
            2230     16.1932E-03     13.7632E-03    -4.14047E+06     136.633E+06     98.5726E+06     965.821E+03    -109.612E-03     164.509E-03    -54.8966E-03     327.948E-03    -127.173E-03     182.255E-03    -54.5958E-03     325.824E-03
            2231     15.3689E-03     13.3139E-03    -10.4773E+06     120.776E+06     88.5831E+06     1.86462E+06    -110.724E-03     163.628E-03    -52.9047E-03     356.095E-03    -127.307E-03     180.348E-03    -52.6217E-03     349.380E-03
            2232     14.5439E-03     13.0013E-03    -15.5936E+06     87.4833E+06     59.1472E+06     3.56107E+06    -92.5480E-03     143.440E-03    -50.8916E-03     222.437E-03    -98.1767E-03     149.153E-03    -50.7001E-03     218.157E-03
            2233     13.7135E-03     12.8342E-03    -19.4239E+06     57.5481E+06     21.2186E+06     5.64665E+06    -79.2064E-03     128.178E-03    -48.9721E-03     123.596E-03    -80.9590E-03     130.006E-03    -48.9213E-03     121.402E-03
            2234     12.8769E-03     12.7241E-03    -21.5524E+06     35.2752E+06    -9.21784E+06     7.67366E+06    -72.4790E-03     119.684E-03    -47.2049E-03     82.2613E-03    -73.3371E-03     120.618E-03    -47.2709E-03     80.8651E-03
            2235     12.0375E-03     12.6378E-03    -22.2516E+06     4.99513E+06    -21.6083E+06     9.44860E+06    -67.9158E-03     113.535E-03    -45.6192E-03     60.6156E-03    -68.3893E-03     114.011E-03    -45.7022E-03     59.6923E-03
            2236     11.1943E-03     12.5691E-03    -23.2498E+06    -32.8262E+06    -20.6460E+06     9.65660E+06    -63.6578E-03     107.834E-03    -44.1759E-03     45.6538E-03    -63.9182E-03     107.956E-03    -44.1978E-03     45.0317E-03
            2237     10.3482E-03     12.5117E-03    -25.0347E+06    -62.6633E+06    -19.8350E+06     9.41766E+06    -59.5620E-03     102.361E-03    -42.7995E-03     35.2694E-03    -59.7000E-03     102.246E-03    -42.7715E-03     34.8522E-03
            2238     9.49849E-03     12.4635E-03    -26.7882E+06    -82.7954E+06    -19.6469E+06     9.38337E+06    -55.6204E-03     97.1207E-03    -41.5003E-03     27.4596E-03    -55.6855E-03     96.8542E-03    -41.4396E-03     27.1933E-03
            2239     8.64571E-03     12.4225E-03    -28.3458E+06    -95.8997E+06    -19.1586E+06     9.36409E+06    -51.8920E-03     92.1935E-03    -40.3016E-03     21.5130E-03    -51.9152E-03     91.8316E-03    -40.2172E-03     21.3549E-03
            2240     7.78968E-03     12.3876E-03    -29.5919E+06    -107.237E+06    -19.1550E+06     9.62321E+06    -48.4829E-03     87.7005E-03    -39.2176E-03     16.9449E-03    -48.4771E-03     87.2647E-03    -39.1149E-03     16.8675E-03
            2241     6.93105E-03     12.3578E-03    -30.7427E+06    -115.470E+06    -19.4336E+06     9.60692E+06    -45.4182E-03     83.6725E-03    -38.2544E-03     13.4758E-03    -45.3944E-03     83.1861E-03    -38.1395E-03     13.4537E-03
            2242     6.06981E-03     12.3325E-03    -32.4541E+06    -123.329E+06    -21.6374E+06     9.46482E+06    -42.7275E-03     80.1415E-03    -37.4140E-03     10.8664E-03    -42.6907E-03     79.6144E-03    -37.2963E-03     10.8826E-03
            2243     5.20641E-03     12.3109E-03    -34.7276E+06    -128.968E+06    -24.7212E+06     9.06519E+06    -40.4497E-03     77.1505E-03    -36.7008E-03     8.87890E-03    -40.4074E-03     76.5986E-03    -36.5870E-03     8.91912E-03
            2244     4.34116E-03     12.2928E-03    -37.2365E+06    -132.159E+06    -28.4093E+06     8.03324E+06    -38.5956E-03     74.7076E-03    -36.1120E-03     7.23407E-03    -38.5532E-03     74.1460E-03    -36.0084E-03     7.28245E-03
            2245     3.47453E-03     12.2781E-03    -39.5530E+06    -135.282E+06    -32.9356E+06     6.77350E+06    -37.1576E-03     72.8002E-03    -35.6425E-03     5.75622E-03    -37.1139E-03     72.2310E-03    -35.5537E-03     5.80439E-03
            2246     2.60677E-03     12.2667E-03    -41.3013E+06    -137.364E+06    -37.1085E+06     5.60033E+06    -36.0974E-03     71.3857E-03    -35.2883E-03     4.34029E-03    -36.0523E-03     70.8136E-03    -35.2147E-03     4.38577E-03
            2247     1.73825E-03     12.2584E-03    -42.4052E+06    -139.967E+06    -40.3756E+06     4.09348E+06    -35.3794E-03     70.4276E-03    -35.0482E-03     2.90431E-03    -35.3305E-03     69.8481E-03    -34.9856E-03     2.94033E-03
            2248     869.127E-06     12.2535E-03    -43.1910E+06    -141.251E+06    -42.6278E+06     2.25917E+06    -35.0440E-03     69.8992E-03    -34.8553E-03     1.46181E-03    -34.9933E-03     69.3181E-03    -34.8010E-03     1.48226E-03
            2249     16.1903E-03     12.6625E-03    -4.22922E+06     134.906E+06     97.3158E+06     709.487E+03    -113.160E-03     167.996E-03    -54.8363E-03     324.764E-03    -129.999E-03     185.017E-03    -54.5392E-03     321.828E-03
            2250     15.3748E-03     12.2187E-03    -9.71417E+06     118.728E+06     87.7186E+06     1.98864E+06    -115.310E-03     167.897E-03    -52.5870E-03     344.145E-03    -130.822E-03     183.543E-03    -52.3065E-03     336.746E-03
            2251     14.5542E-03     11.9179E-03    -14.5918E+06     86.0077E+06     60.2744E+06     4.33417E+06    -95.9624E-03     146.232E-03    -50.2694E-03     208.946E-03    -101.120E-03     151.471E-03    -50.0716E-03     204.520E-03
            2252     13.7247E-03     11.7607E-03    -18.4123E+06     56.5722E+06     22.5721E+06     6.61273E+06    -81.2380E-03     129.334E-03    -48.0956E-03     113.704E-03    -82.8199E-03     130.987E-03    -48.0381E-03     111.545E-03
            2253     12.8911E-03     11.6573E-03    -21.0353E+06     33.5033E+06    -9.92291E+06     8.83807E+06    -74.0739E-03     120.193E-03    -46.1192E-03     74.3938E-03    -74.8575E-03     121.051E-03    -46.1869E-03     73.0277E-03
            2254     12.0526E-03     11.5774E-03    -22.8778E+06     5.11507E+06    -23.5231E+06     10.7026E+06    -68.8039E-03     113.152E-03    -44.3477E-03     53.4290E-03    -69.2361E-03     113.590E-03    -44.4396E-03     52.5493E-03
            2255     11.2107E-03     11.5147E-03    -24.3935E+06    -30.7103E+06    -22.5046E+06     11.3884E+06    -63.9420E-03     106.693E-03    -42.7509E-03     39.0520E-03    -64.1823E-03     106.804E-03    -42.7835E-03     38.4814E-03
            2256     10.3645E-03     11.4635E-03    -26.1061E+06    -60.8507E+06    -20.7085E+06     11.1590E+06    -59.3270E-03     100.580E-03    -41.2528E-03     29.3667E-03    -59.4545E-03     100.459E-03    -41.2302E-03     29.0002E-03
            2257     9.51468E-03     11.4208E-03    -27.7261E+06    -80.5281E+06    -20.5337E+06     10.3451E+06    -54.9511E-03     94.7997E-03    -39.8486E-03     22.2877E-03    -55.0120E-03     94.5363E-03    -39.7943E-03     22.0581E-03
            2258     8.66107E-03     11.3852E-03    -28.8254E+06    -94.5166E+06    -19.6147E+06     9.61089E+06    -50.8866E-03     89.4552E-03    -38.5686E-03     17.1115E-03    -50.9068E-03     89.0948E-03    -38.4878E-03     16.9764E-03
            2259     7.80427E-03     11.3550E-03    -29.5689E+06    -105.614E+06    -19.4255E+06     9.25152E+06    -47.1783E-03     84.5974E-03    -37.4191E-03     13.3177E-03    -47.1703E-03     84.1661E-03    -37.3202E-03     13.2512E-03
            2260     6.94425E-03     11.3296E-03    -30.4393E+06    -114.219E+06    -19.3197E+06     9.33577E+06    -43.8824E-03     80.2934E-03    -36.4110E-03     10.5868E-03    -43.8568E-03     79.8104E-03    -36.2978E-03     10.5732E-03
            2261     6.08159E-03     11.3079E-03    -31.8934E+06    -121.787E+06    -19.9706E+06     9.89712E+06    -41.0456E-03     76.5903E-03    -35.5448E-03     8.60516E-03    -41.0094E-03     76.0665E-03    -35.4218E-03     8.63557E-03
            2262     5.21663E-03     11.2895E-03    -33.7020E+06    -125.928E+06    -22.9600E+06     9.55994E+06    -38.6516E-03     73.4592E-03    -34.8076E-03     7.16287E-03    -38.6104E-03     72.9178E-03    -34.6909E-03     7.21572E-03
            2263     4.34976E-03     11.2739E-03    -35.3007E+06    -128.648E+06    -26.4384E+06     8.34329E+06    -36.7190E-03     70.9266E-03    -34.2076E-03     5.98997E-03    -36.6745E-03     70.3765E-03    -34.1020E-03     6.04679E-03
            2264     3.48135E-03     11.2611E-03    -36.8285E+06    -131.689E+06    -29.8868E+06     6.96885E+06    -35.2480E-03     68.9890E-03    -33.7410E-03     4.90012E-03    -35.2001E-03     68.4293E-03    -33.6461E-03     4.95386E-03
            2265     2.61189E-03     11.2510E-03    -38.2531E+06    -133.589E+06    -33.6209E+06     5.48644E+06    -34.1829E-03     67.5752E-03    -33.3924E-03     3.79558E-03    -34.1330E-03     67.0125E-03    -33.3113E-03     3.84159E-03
            2266     1.74163E-03     11.2438E-03    -39.2986E+06    -135.520E+06    -37.0843E+06     3.89912E+06    -33.4773E-03     66.6329E-03    -33.1556E-03     2.59163E-03    -33.4241E-03     66.0664E-03    -33.0876E-03     2.62634E-03
            2267     870.987E-06     11.2393E-03    -39.9392E+06    -136.630E+06    -39.2646E+06     2.20971E+06    -33.1218E-03     66.1182E-03    -32.9964E-03     1.37205E-03    -33.0665E-03     65.5505E-03    -32.9367E-03     1.39246E-03
            2268     16.1924E-03     11.5574E-03    -5.13420E+06     133.643E+06     95.9933E+06     272.377E+03    -118.505E-03     173.213E-03    -54.7079E-03     320.215E-03    -134.579E-03     189.464E-03    -54.4143E-03     316.206E-03
            2269     15.3811E-03     11.1139E-03    -9.96561E+06     116.463E+06     87.0864E+06     2.03427E+06    -120.287E-03     172.433E-03    -52.1458E-03     330.988E-03    -134.691E-03     186.964E-03    -51.8648E-03     322.916E-03
            2270     14.5654E-03     10.8331E-03    -15.0881E+06     83.4377E+06     60.5876E+06     4.81717E+06    -98.5257E-03     148.053E-03    -49.5268E-03     193.316E-03    -103.125E-03     152.722E-03    -49.3229E-03     188.898E-03
            2271     13.7392E-03     10.6853E-03    -19.5559E+06     54.1852E+06     23.8809E+06     7.20929E+06    -83.0277E-03     130.154E-03    -47.1261E-03     103.227E-03    -84.4654E-03     131.647E-03    -47.0569E-03     101.105E-03
            2272     12.9063E-03     10.5901E-03    -21.7790E+06     31.3908E+06    -8.77586E+06     10.1284E+06    -75.0925E-03     120.061E-03    -44.9682E-03     65.7997E-03    -75.8041E-03     120.833E-03    -45.0261E-03     64.4916E-03
            2273     12.0691E-03     10.5173E-03    -23.6183E+06     4.99892E+06    -24.4948E+06     12.8124E+06    -69.0002E-03     112.046E-03    -43.0458E-03     46.4351E-03    -69.3951E-03     112.447E-03    -43.1413E-03     45.6235E-03
            2274     11.2267E-03     10.4617E-03    -25.6847E+06    -28.4904E+06    -23.6930E+06     13.4894E+06    -63.6035E-03     104.948E-03    -41.3445E-03     33.2903E-03    -63.8292E-03     105.051E-03    -41.3844E-03     32.7822E-03
            2275     10.3804E-03     10.4169E-03    -27.3951E+06    -57.7580E+06    -20.7963E+06     12.4136E+06    -58.5734E-03     98.3496E-03    -39.7763E-03     24.6429E-03    -58.6984E-03     98.2334E-03    -39.7568E-03     24.3221E-03
            2276     9.52967E-03     10.3807E-03    -28.4271E+06    -77.3644E+06    -20.0834E+06     10.7146E+06    -53.8714E-03     92.1937E-03    -38.3223E-03     18.6456E-03    -53.9336E-03     91.9392E-03    -38.2693E-03     18.4437E-03
            2277     8.67519E-03     10.3505E-03    -29.2262E+06    -92.3365E+06    -18.6485E+06     9.41189E+06    -49.5646E-03     86.5792E-03    -37.0146E-03     14.4105E-03    -49.5876E-03     86.2251E-03    -36.9315E-03     14.2900E-03
            2278     7.81700E-03     10.3257E-03    -30.0865E+06    -103.762E+06    -18.1218E+06     8.66358E+06    -45.6886E-03     81.5416E-03    -35.8531E-03     11.4770E-03    -45.6859E-03     81.1166E-03    -35.7496E-03     11.4154E-03
            2279     6.95567E-03     10.3046E-03    -31.0320E+06    -113.559E+06    -18.0758E+06     8.73465E+06    -42.3261E-03     77.1695E-03    -34.8435E-03     9.45595E-03    -42.3054E-03     76.6881E-03    -34.7242E-03     9.44321E-03
            2280     6.09158E-03     10.2868E-03    -31.8177E+06    -120.470E+06    -17.9577E+06     9.12978E+06    -39.4744E-03     73.4555E-03    -33.9810E-03     7.99526E-03    -39.4425E-03     72.9350E-03    -33.8500E-03     8.02161E-03
            2281     5.22520E-03     10.2715E-03    -32.5324E+06    -122.896E+06    -19.2951E+06     8.77040E+06    -37.0962E-03     70.3460E-03    -33.2498E-03     6.89981E-03    -37.0589E-03     69.8128E-03    -33.1209E-03     6.94632E-03
            2282     4.35687E-03     10.2586E-03    -33.6334E+06    -125.321E+06    -22.7144E+06     7.73210E+06    -35.1721E-03     67.8203E-03    -32.6482E-03     5.94899E-03    -35.1295E-03     67.2792E-03    -32.5313E-03     6.00044E-03
            2283     3.48709E-03     10.2477E-03    -34.9038E+06    -127.946E+06    -26.4740E+06     6.36184E+06    -33.6887E-03     65.8664E-03    -32.1777E-03     4.97150E-03    -33.6416E-03     65.3178E-03    -32.0740E-03     5.01910E-03
            2284     2.61613E-03     10.2390E-03    -35.9156E+06    -129.801E+06    -30.1251E+06     4.76578E+06    -32.6171E-03     64.4456E-03    -31.8285E-03     3.90559E-03    -32.5660E-03     63.8935E-03    -31.7389E-03     3.94340E-03
            2285     1.74448E-03     10.2326E-03    -36.5170E+06    -131.532E+06     -33.685E+06     3.18941E+06    -31.9134E-03     63.5030E-03    -31.5896E-03     2.72721E-03    -31.8570E-03     62.9476E-03    -31.5144E-03     2.75339E-03
            2286     872.298E-06     10.2287E-03    -36.8524E+06    -132.569E+06    -35.8393E+06     1.79104E+06    -31.6106E-03     62.9826E-03    -31.3720E-03     1.50297E-03    -31.5507E-03     62.4259E-03    -31.3055E-03     1.51833E-03
            2287     16.1963E-03     10.4460E-03    -5.29254E+06     133.376E+06     95.1105E+06     773.162E+03    -125.260E-03     179.738E-03    -54.4787E-03     317.855E-03    -140.761E-03     195.419E-03    -54.1889E-03     312.575E-03
            2288     15.3911E-03     10.0052E-03    -11.6927E+06     113.749E+06     85.0372E+06     2.24331E+06    -124.506E-03     176.083E-03    -51.5777E-03     316.557E-03    -137.942E-03     189.638E-03    -51.3005E-03     307.985E-03
            2289     14.5780E-03     9.74491E-03    -17.0375E+06     80.0126E+06     60.0106E+06     4.64491E+06    -100.521E-03     149.205E-03    -48.6836E-03     175.837E-03    -104.575E-03     153.312E-03    -48.4749E-03     171.500E-03
            2290     13.7534E-03     9.60886E-03    -20.8315E+06     51.1585E+06     26.2932E+06     7.74823E+06    -84.0952E-03     130.191E-03    -46.0961E-03     91.8627E-03    -85.3878E-03     131.517E-03    -46.0086E-03     89.8127E-03
            2291     12.9224E-03     9.52293E-03    -23.8904E+06     27.6827E+06    -6.98964E+06     11.7737E+06    -74.9236E-03     118.743E-03    -43.8193E-03     57.8336E-03    -75.5697E-03     119.424E-03    -43.8597E-03     56.6247E-03
            2292     12.0842E-03     9.45916E-03    -26.5098E+06     4.50185E+06    -25.3583E+06     15.1580E+06    -68.2586E-03     110.080E-03    -41.8213E-03     40.7179E-03    -68.6310E-03     110.449E-03    -41.9162E-03     39.9944E-03
            2293     11.2414E-03     9.41022E-03    -28.2966E+06    -24.7862E+06    -24.7786E+06     15.2856E+06    -62.4093E-03     102.499E-03    -40.0893E-03     28.9479E-03    -62.6328E-03     102.606E-03    -40.1362E-03     28.5090E-03
            2294     10.3937E-03     9.37311E-03    -29.4443E+06    -53.2053E+06    -20.1842E+06     12.8203E+06    -57.0744E-03     95.6095E-03    -38.5351E-03     21.6504E-03    -57.2074E-03     95.5082E-03    -38.5161E-03     21.3688E-03
            2295     9.54178E-03     9.34290E-03    -30.0051E+06    -73.5488E+06    -18.2155E+06     10.1598E+06    -52.2407E-03     89.3591E-03    -37.1184E-03     16.9356E-03    -52.3147E-03     89.1189E-03    -37.0593E-03     16.7502E-03
            2296     8.68574E-03     9.31903E-03    -30.2089E+06    -89.9450E+06    -16.3100E+06     8.48206E+06    -47.9039E-03     83.7644E-03    -35.8605E-03     13.7362E-03    -47.9369E-03     83.4185E-03    -35.7678E-03     13.6198E-03
            2297     7.82610E-03     9.29915E-03    -30.6883E+06    -102.094E+06    -15.4226E+06     7.80019E+06    -44.1269E-03     78.8813E-03    -34.7544E-03     11.6439E-03    -44.1333E-03     78.4613E-03    -34.6390E-03     11.5814E-03
            2298     6.96341E-03     9.28267E-03    -31.3400E+06    -112.532E+06    -15.3584E+06     7.48641E+06    -40.9185E-03     74.7144E-03    -33.7959E-03     10.2041E-03    -40.9051E-03     74.2350E-03    -33.6641E-03     10.1815E-03
            2299     6.09807E-03     9.26848E-03    -31.8283E+06    -118.875E+06    -14.8479E+06     7.08389E+06    -38.2307E-03     71.2065E-03    -32.9758E-03     9.09620E-03    -38.2060E-03     70.6900E-03    -32.8315E-03     9.09993E-03
            2300     5.23059E-03     9.25634E-03    -32.1923E+06    -120.614E+06    -14.8510E+06     6.51236E+06    -36.0088E-03     68.2859E-03    -32.2771E-03     8.09529E-03    -35.9799E-03     67.7577E-03    -32.1298E-03     8.11476E-03
            2301     4.36140E-03     9.24581E-03    -32.5941E+06    -122.586E+06    -17.8912E+06     5.86667E+06    -34.1979E-03     65.8838E-03    -31.6859E-03     7.09183E-03    -34.1613E-03     65.3482E-03    -31.5503E-03     7.12037E-03
            2302     3.49070E-03     9.23698E-03    -33.1903E+06    -124.549E+06    -22.3684E+06     4.72399E+06    -32.7647E-03     63.9687E-03    -31.2040E-03     5.98524E-03    -32.7201E-03     63.4290E-03    -31.0871E-03     6.01247E-03
            2303     2.61897E-03     9.22965E-03    -33.8961E+06    -126.531E+06    -26.5715E+06     3.20277E+06    -31.6855E-03     62.5199E-03    -30.8344E-03     4.68748E-03    -31.6343E-03     61.9763E-03    -30.7346E-03     4.70561E-03
            2304     1.74637E-03     9.22431E-03    -34.4862E+06    -128.502E+06    -30.6558E+06     1.88122E+06    -30.9418E-03     61.5113E-03    -30.5695E-03     3.25133E-03    -30.8841E-03     60.9639E-03    -30.4864E-03     3.26098E-03
            2305     873.313E-06     9.22075E-03    -34.7836E+06    -129.771E+06    -33.4778E+06     891.779E+03    -30.5790E-03     60.9097E-03    -30.3307E-03     1.84817E-03    -30.5162E-03     60.3607E-03    -30.2595E-03     1.85208E-03
            2306     16.2004E-03     9.32215E-03    -5.28759E+06     132.507E+06     94.7397E+06     1.84767E+06    -133.128E-03     187.277E-03    -54.1492E-03     310.278E-03    -147.705E-03     202.032E-03    -53.8600E-03     303.705E-03
            2307     15.4014E-03     8.89307E-03    -11.0824E+06     112.203E+06     84.3568E+06     3.75295E+06    -127.598E-03     178.477E-03    -50.8793E-03     298.912E-03    -139.835E-03     190.833E-03    -50.6041E-03     290.109E-03
            2308     14.5920E-03     8.65331E-03    -16.8826E+06     77.4217E+06     59.3173E+06     5.60064E+06    -101.179E-03     148.939E-03    -47.7600E-03     157.221E-03    -104.676E-03     152.483E-03    -47.5512E-03     153.086E-03
            2309     13.7699E-03     8.53296E-03    -21.9942E+06     47.2774E+06     26.2594E+06     9.23917E+06    -83.4027E-03     128.478E-03    -45.0751E-03     80.4158E-03    -84.5266E-03     129.618E-03    -44.9805E-03     78.5409E-03
            2310     12.9359E-03     8.45854E-03    -26.5988E+06     23.0485E+06    -5.73547E+06     14.6258E+06    -73.4923E-03     116.287E-03    -42.7950E-03     51.5553E-03    -74.0800E-03     116.880E-03    -42.8185E-03     50.4954E-03
            2311     12.0971E-03     8.40211E-03    -29.9381E+06     4.57597E+06    -23.6347E+06     17.6984E+06    -66.4917E-03     107.320E-03    -40.8285E-03     36.4252E-03    -66.8525E-03     107.661E-03    -40.9099E-03     35.8097E-03
            2312     11.2525E-03     8.36231E-03    -32.1505E+06    -19.0577E+06    -23.6673E+06     16.2619E+06    -60.2038E-03     99.3630E-03    -39.1593E-03     26.4482E-03    -60.4402E-03     99.4872E-03    -39.2033E-03     26.0794E-03
            2313     10.4029E-03     8.33166E-03    -32.7596E+06    -46.7941E+06    -17.4309E+06     11.7687E+06    -54.7825E-03     92.5028E-03    -37.7203E-03     20.8515E-03    -54.9384E-03     92.4275E-03    -37.6921E-03     20.5957E-03
            2314     9.54886E-03     8.30845E-03    -32.0046E+06    -69.4241E+06    -13.9707E+06     7.85263E+06    -50.0865E-03     86.5265E-03    -36.4400E-03     17.3571E-03    -50.1800E-03     86.3010E-03    -36.3628E-03     17.1676E-03
            2315     8.69092E-03     8.28991E-03    -30.9174E+06    -87.8972E+06    -11.7918E+06     5.98897E+06    -46.0499E-03     81.3664E-03    -35.3165E-03     15.1745E-03    -46.0956E-03     81.0249E-03    -35.2032E-03     15.0418E-03
            2316     7.82982E-03     8.27511E-03    -30.0943E+06    -101.092E+06    -10.3564E+06     5.53471E+06    -42.6709E-03     77.0065E-03    -34.3357E-03     13.7399E-03    -42.6836E-03     76.5839E-03    -34.1972E-03     13.6570E-03
            2317     6.96591E-03     8.26256E-03    -30.0551E+06    -111.252E+06    -9.35907E+06     5.47157E+06    -39.8551E-03     73.3397E-03    -33.4846E-03     12.6476E-03    -39.8466E-03     72.8570E-03    -33.3265E-03     12.6037E-03
            2318     6.09981E-03     8.25188E-03    -30.7743E+06    -116.739E+06    -8.78084E+06     4.56312E+06    -37.5153E-03     70.2595E-03    -32.7442E-03     11.6334E-03    -37.4980E-03     69.7441E-03    -32.5742E-03     11.6069E-03
            2319     5.23184E-03     8.24244E-03    -31.4824E+06    -118.893E+06    -10.6417E+06     3.32582E+06    -35.5669E-03     67.6587E-03    -32.0917E-03     10.5195E-03    -35.5436E-03     67.1325E-03    -31.9269E-03     10.4989E-03
            2320     4.36225E-03     8.23436E-03    -31.8144E+06    -120.814E+06    -14.5030E+06     2.53623E+06    -33.9540E-03     65.4788E-03    -31.5248E-03     9.24980E-03    -33.9213E-03     64.9464E-03    -31.3760E-03     9.23587E-03
            2321     3.49147E-03     8.22728E-03    -31.9535E+06    -122.308E+06    -18.7880E+06     1.83584E+06    -32.6225E-03     63.6702E-03    -31.0477E-03     7.81403E-03    -32.5803E-03     63.1349E-03    -30.9180E-03     7.80442E-03
            2322     2.61958E-03     8.22154E-03    -32.4220E+06    -124.453E+06    -23.6865E+06     1.06945E+06    -31.5703E-03     62.2319E-03    -30.6617E-03     6.14374E-03    -31.5190E-03     61.6925E-03    -30.5526E-03     6.13478E-03
            2323     1.74692E-03     8.21716E-03    -33.2880E+06    -126.874E+06    -28.5017E+06     328.051E+03    -30.8034E-03     61.1705E-03    -30.3671E-03     4.29864E-03    -30.7452E-03     60.6264E-03    -30.2774E-03     4.28860E-03
            2324     873.685E-06     8.21436E-03    -34.0829E+06    -128.820E+06    -32.3286E+06    -94.0139E+03    -30.2537E-03     60.4625E-03    -30.2088E-03     2.39593E-03    -30.1904E-03     59.9155E-03    -30.1342E-03     2.38735E-03
            2325     16.2128E-03     8.19647E-03    -5.69300E+06     130.264E+06     93.7467E+06     2.15145E+06    -141.899E-03     195.644E-03    -53.7444E-03     299.140E-03    -155.152E-03     209.070E-03    -53.4563E-03     291.409E-03
            2326     15.4159E-03     7.77890E-03    -10.2996E+06     109.371E+06     83.4010E+06     5.03431E+06    -129.673E-03     179.788E-03    -50.1145E-03     280.432E-03    -140.448E-03     190.678E-03    -49.8412E-03     271.729E-03
            2327     14.6072E-03     7.56074E-03    -16.1208E+06     74.1483E+06     58.5622E+06     8.76646E+06    -99.4923E-03     146.371E-03    -46.8791E-03     139.729E-03    -102.408E-03     149.328E-03    -46.6704E-03     136.035E-03
            2328     13.7810E-03     7.46117E-03    -23.3842E+06     42.9170E+06     25.9552E+06     13.4405E+06    -81.2306E-03     125.459E-03    -44.2286E-03     70.7424E-03    -82.1937E-03     126.419E-03    -44.1271E-03     69.1421E-03
            2329     12.9467E-03     7.39524E-03    -29.5674E+06     19.7376E+06    -1.80258E+06     17.6154E+06    -70.9968E-03     113.055E-03    -42.0581E-03     47.0083E-03    -71.5400E-03     113.570E-03    -42.0528E-03     46.1224E-03
            2330     12.1054E-03     7.34913E-03    -32.5536E+06     5.72483E+06    -14.8016E+06     19.2600E+06    -63.3970E-03     103.647E-03    -40.2504E-03     34.0941E-03    -63.7567E-03     103.956E-03    -40.2855E-03     33.5952E-03
            2331     11.2579E-03     7.31723E-03    -33.6704E+06    -10.7006E+06    -14.2379E+06     16.0548E+06    -57.0391E-03     95.8009E-03    -38.7619E-03     26.4145E-03    -57.2957E-03     95.9422E-03    -38.7687E-03     26.1099E-03
            2332     10.4056E-03     7.29381E-03    -33.3832E+06    -37.9823E+06    -9.34983E+06     8.81114E+06    -51.8977E-03     89.4252E-03    -37.5276E-03     22.4931E-03    -52.0760E-03     89.3780E-03    -37.4708E-03     22.2424E-03
            2333     9.54912E-03     7.27640E-03    -32.0618E+06    -65.8713E+06    -6.70156E+06     3.74529E+06    -47.6909E-03     84.1586E-03    -36.4677E-03     20.0724E-03    -47.7987E-03     83.9386E-03    -36.3592E-03     19.8571E-03
            2334     8.68939E-03     7.26307E-03    -30.7643E+06    -86.4354E+06    -4.78731E+06     2.13296E+06    -44.2800E-03     79.8312E-03    -35.5512E-03     18.6654E-03    -44.3373E-03     79.4866E-03    -35.4052E-03     18.4984E-03
            2335     7.82686E-03     7.25223E-03    -30.1464E+06    -101.086E+06    -3.37663E+06     1.91081E+06    -41.5476E-03     76.3008E-03    -34.7532E-03     17.5773E-03    -41.5716E-03     75.8689E-03    -34.5798E-03     17.4558E-03
            2336     6.96231E-03     7.24323E-03    -29.6813E+06    -110.374E+06    -2.48026E+06     1.93044E+06    -39.3160E-03     73.3644E-03    -34.0484E-03     16.5387E-03    -39.3178E-03     72.8764E-03    -33.8577E-03     16.4530E-03
            2337     6.09591E-03     7.23530E-03    -29.3988E+06    -114.691E+06    -3.00157E+06     1.07698E+06    -37.4495E-03     70.8650E-03    -33.4155E-03     15.3653E-03    -37.4374E-03     70.3502E-03    -33.2216E-03     15.2956E-03
            2338     5.22802E-03     7.22841E-03    -29.7239E+06    -117.465E+06    -6.82803E+06    -202.559E+03    -35.8682E-03     68.7078E-03    -32.8396E-03     13.9197E-03    -35.8442E-03     68.1811E-03    -32.6603E-03     13.8545E-03
            2339     4.35893E-03     7.22228E-03    -30.3101E+06    -119.980E+06    -12.5190E+06    -1.11311E+06    -34.5066E-03     66.8312E-03    -32.3246E-03     12.2382E-03    -34.4708E-03     66.2982E-03    -32.1693E-03     12.1779E-03
            2340     3.48864E-03     7.21708E-03    -30.9707E+06    -121.846E+06    -17.1281E+06    -1.46729E+06    -33.3364E-03     65.2226E-03    -31.8861E-03     10.3100E-03    -33.2926E-03     64.6858E-03    -31.7502E-03     10.2585E-03
            2341     2.61740E-03     7.21271E-03    -31.8065E+06    -124.209E+06    -22.1737E+06    -1.44933E+06    -32.3736E-03     63.8973E-03    -31.5236E-03     8.09994E-03    -32.3219E-03     63.3559E-03    -31.4083E-03     8.05935E-03
            2342     1.74540E-03     7.20944E-03    -32.6919E+06    -127.030E+06    -27.6456E+06    -1.19567E+06    -31.6380E-03     62.8835E-03    -31.2454E-03     5.65640E-03    -31.5779E-03     62.3364E-03    -31.1520E-03     5.62741E-03
            2343     872.817E-06     7.20739E-03    -33.7354E+06    -129.552E+06    -32.1890E+06    -764.140E+03    -31.1300E-03     62.2363E-03    -31.1063E-03     3.11470E-03    -31.0642E-03     61.6849E-03    -31.0305E-03     3.09792E-03
            2344     16.2145E-03     7.04989E-03    -5.07846E+06     127.221E+06     91.4870E+06     3.22563E+06    -149.572E-03     202.997E-03    -53.4252E-03     285.776E-03    -161.438E-03     215.037E-03    -53.1449E-03     277.178E-03
            2345     15.4283E-03     6.66187E-03    -10.0977E+06     105.295E+06     80.6102E+06     6.27137E+06    -130.191E-03     179.687E-03    -49.4969E-03     259.301E-03    -139.503E-03     189.112E-03    -49.2319E-03     250.971E-03
            2346     14.6162E-03     6.47380E-03    -17.1924E+06     68.3526E+06     56.9088E+06     12.1422E+06    -96.4562E-03     142.699E-03    -46.2430E-03     123.510E-03    -98.8308E-03     145.096E-03    -46.0326E-03     120.364E-03
            2347     13.7895E-03     6.38969E-03    -24.2267E+06     38.7134E+06     29.4675E+06     18.1701E+06    -77.7302E-03     121.479E-03    -43.7486E-03     63.1680E-03    -78.5512E-03     122.268E-03    -43.6223E-03     61.8831E-03
            2348     12.9520E-03     6.33673E-03    -29.5679E+06     19.7182E+06     8.40012E+06     20.4396E+06    -67.0788E-03     108.887E-03    -41.8086E-03     45.0331E-03    -67.5829E-03     109.334E-03    -41.7524E-03     44.3416E-03
            2349     12.1065E-03     6.29994E-03    -32.4308E+06     9.80062E+06     737.793E+03     18.5303E+06    -59.2800E-03     99.5623E-03    -40.2822E-03     34.9068E-03    -59.6420E-03     99.8428E-03    -40.2457E-03     34.5080E-03
            2350     11.2556E-03     6.27604E-03     -31.564E+06    -33.2715E+03     2.39786E+06     12.2867E+06    -53.2949E-03     92.3755E-03    -39.0805E-03     29.3300E-03    -53.5691E-03     92.5313E-03    -39.0227E-03     29.0476E-03
            2351     10.4001E-03     6.25867E-03    -29.4942E+06    -28.7083E+06     3.86463E+06     4.26613E+06    -48.8451E-03     86.9722E-03    -38.1271E-03     26.7325E-03    -49.0317E-03     86.9416E-03    -38.0234E-03     26.4675E-03
            2352     9.54132E-03     6.24646E-03    -28.5507E+06    -63.3336E+06     3.99816E+06    -460.713E+03    -45.4912E-03     82.8394E-03    -37.3482E-03     25.0610E-03    -45.5990E-03     82.6098E-03    -37.1950E-03     24.8180E-03
            2353     8.67987E-03     6.23701E-03    -28.6621E+06    -85.9636E+06     5.03914E+06    -1.74908E+06    -42.9601E-03     79.6457E-03    -36.6857E-03     24.0220E-03    -43.0216E-03     79.2860E-03    -36.4943E-03     23.8200E-03
            2354     7.81666E-03     6.22937E-03    -28.8086E+06    -101.221E+06     5.48383E+06    -2.28989E+06    -41.0376E-03     77.1382E-03    -36.1006E-03     22.8877E-03    -41.0679E-03     76.6910E-03    -35.8846E-03     22.7203E-03
            2355     6.95188E-03     6.22291E-03    -28.6624E+06    -109.914E+06     4.05812E+06    -2.99978E+06    -39.4790E-03     75.0404E-03    -35.5614E-03     21.5343E-03    -39.4863E-03     74.5440E-03    -35.3402E-03     21.3897E-03
            2356     6.08591E-03     6.21726E-03    -28.2849E+06    -113.841E+06     565.748E+03    -3.73207E+06    -38.1462E-03     73.2028E-03    -35.0566E-03     19.8928E-03    -38.1353E-03     72.6856E-03    -34.8477E-03     19.7640E-03
            2357     5.21888E-03     6.21223E-03    -28.1728E+06    -117.219E+06    -5.41396E+06    -4.16629E+06    -36.9722E-03     71.5578E-03    -34.5856E-03     17.8709E-03    -36.9431E-03     71.0281E-03    -34.4018E-03     17.7565E-03
            2358     4.35077E-03     6.20796E-03    -28.7081E+06    -120.378E+06    -11.8758E+06    -4.21718E+06    -35.9056E-03     70.0670E-03    -34.1614E-03     15.5633E-03    -35.8624E-03     69.5286E-03    -34.0046E-03     15.4646E-03
            2359     3.48183E-03     6.20418E-03    -29.8776E+06    -122.819E+06    -16.8840E+06    -4.09124E+06    -34.9613E-03     68.7613E-03    -33.8000E-03     13.0265E-03    -34.9111E-03     68.2175E-03    -33.6630E-03     12.9427E-03
            2360     2.61216E-03     6.20115E-03    -31.2629E+06    -125.855E+06    -22.4701E+06    -3.56038E+06    -34.1813E-03     67.6805E-03    -33.4992E-03     10.1601E-03    -34.1242E-03     67.1303E-03    -33.3837E-03     10.0936E-03
            2361     1.74180E-03     6.19886E-03    -32.5763E+06    -129.195E+06    -28.2881E+06    -2.40938E+06    -33.5800E-03     66.8485E-03    -33.2685E-03     7.01195E-03    -33.5154E-03     66.2911E-03    -33.1753E-03     6.96824E-03
            2362     871.005E-06     6.19745E-03    -33.5342E+06    -131.471E+06    -32.2167E+06    -1.14289E+06    -33.1961E-03     66.3285E-03    -33.1324E-03     3.87182E-03    -33.1266E-03     65.7671E-03    -33.0543E-03     3.85062E-03
            2363     16.2229E-03     5.89446E-03    -5.15098E+06     122.966E+06     86.7500E+06     4.43754E+06    -155.060E-03     208.446E-03    -53.3860E-03     271.976E-03    -165.452E-03     219.012E-03    -53.1231E-03     262.919E-03
            2364     15.4324E-03     5.54424E-03    -11.1661E+06     99.2279E+06     74.9253E+06     8.55348E+06    -129.501E-03     178.757E-03    -49.2565E-03     234.878E-03    -137.271E-03     186.634E-03    -49.0096E-03     227.177E-03
            2365     14.6218E-03     5.38796E-03    -17.7974E+06     61.5486E+06     54.4939E+06     15.3957E+06    -92.5208E-03     138.587E-03    -46.0666E-03     107.206E-03    -94.3554E-03     140.426E-03    -45.8576E-03     104.642E-03
            2366     13.7897E-03     5.32430E-03    -23.5698E+06     35.2915E+06     35.5423E+06     21.1214E+06    -72.3548E-03     116.213E-03    -43.8580E-03     60.0769E-03    -73.0484E-03     116.847E-03    -43.6973E-03     59.1234E-03
            2367     12.9469E-03     5.28208E-03    -26.4885E+06     23.4780E+06     24.2126E+06     20.8058E+06    -62.1238E-03     104.416E-03    -42.2921E-03     47.1458E-03    -62.5951E-03     104.808E-03    -42.1667E-03     46.6253E-03
            2368     12.0980E-03     5.25511E-03    -26.1779E+06     19.6743E+06     20.7775E+06     14.2176E+06    -54.8697E-03     95.9990E-03    -41.1292E-03     39.2633E-03    -55.2199E-03     96.2668E-03    -41.0159E-03     38.9152E-03
            2369     11.2432E-03     5.23787E-03    -23.9408E+06     10.3850E+06     20.7375E+06     5.49543E+06    -49.6857E-03     89.9607E-03    -40.2750E-03     35.5928E-03    -49.9530E-03     90.1204E-03    -40.1516E-03     35.2887E-03
            2370     10.3850E-03     5.22551E-03    -22.7257E+06    -22.8302E+06     18.9772E+06    -294.541E+03    -46.3093E-03     85.9631E-03    -39.6538E-03     33.5680E-03    -46.4870E-03     85.9244E-03    -39.4928E-03     33.2861E-03
            2371     9.52424E-03     5.21702E-03    -23.8881E+06    -61.5119E+06     16.3799E+06    -3.33268E+06    -44.0767E-03     83.2498E-03    -39.1731E-03     32.0105E-03    -44.1790E-03     83.0017E-03    -38.9674E-03     31.7562E-03
            2372     8.66208E-03     5.21022E-03    -25.2855E+06    -85.4388E+06     16.3462E+06    -5.53491E+06    -42.5783E-03     81.3440E-03    -38.7656E-03     30.5839E-03    -42.6387E-03     80.9639E-03    -38.5234E-03     30.3488E-03
            2373     7.79875E-03     5.20460E-03    -25.7360E+06    -101.093E+06     14.4262E+06    -7.14471E+06    -41.4684E-03     79.8510E-03    -38.3826E-03     28.7797E-03    -41.4955E-03     79.3858E-03    -38.1265E-03     28.5601E-03
            2374     6.93471E-03     5.19988E-03    -25.5750E+06    -109.961E+06     8.44027E+06    -8.21051E+06    -40.5625E-03     78.5602E-03    -37.9977E-03     26.6559E-03    -40.5599E-03     78.0516E-03    -37.7590E-03     26.4512E-03
            2375     6.06993E-03     5.19577E-03    -25.5367E+06    -114.907E+06     614.462E+03    -8.40611E+06    -39.7343E-03     77.3550E-03    -37.6208E-03     24.2345E-03    -39.7076E-03     76.8275E-03    -37.4140E-03     24.0505E-03
            2376     5.20441E-03     5.19222E-03    -26.0578E+06    -119.050E+06    -6.85602E+06    -7.59478E+06    -38.9535E-03     76.2224E-03    -37.2688E-03     21.4591E-03    -38.9088E-03     75.6818E-03    -37.0927E-03     21.3043E-03
            2377     4.33833E-03     5.18922E-03    -27.0135E+06    -122.259E+06    -12.7130E+06    -6.65954E+06    -38.2121E-03     75.1648E-03    -36.9527E-03     18.3960E-03    -38.1563E-03     74.6152E-03    -36.7998E-03     18.2685E-03
            2378     3.47150E-03     5.18675E-03    -28.3181E+06    -125.179E+06    -17.9442E+06    -5.66011E+06    -37.5179E-03     74.1960E-03    -36.6780E-03     15.1592E-03    -37.4550E-03     73.6393E-03    -36.5452E-03     15.0571E-03
            2379     2.60409E-03     5.18457E-03    -30.1857E+06    -128.894E+06    -23.9822E+06    -4.27173E+06    -36.9439E-03     73.3924E-03    -36.4485E-03     11.6652E-03    -36.8749E-03     72.8273E-03    -36.3377E-03     11.5907E-03
            2380     1.73635E-03     5.18314E-03    -32.1104E+06    -132.424E+06    -29.4404E+06    -2.72022E+06    -36.5182E-03     72.7878E-03    -36.2696E-03     7.97250E-03    -36.4450E-03     72.2150E-03    -36.1782E-03     7.92543E-03
            2381     868.295E-06     5.18211E-03    -33.1718E+06    -134.304E+06    -32.4228E+06    -1.32319E+06    -36.2252E-03     72.3749E-03    -36.1497E-03     4.39049E-03    -36.1496E-03     71.7989E-03    -36.0690E-03     4.36724E-03
            2382     16.2104E-03     4.72899E-03    -6.05902E+06     117.487E+06     80.1308E+06     5.62238E+06    -159.227E-03     213.042E-03    -53.8152E-03     258.328E-03    -168.090E-03     222.076E-03    -53.5761E-03     249.162E-03
            2383     15.4291E-03     4.41691E-03    -12.3246E+06     89.6330E+06     66.8731E+06     11.1080E+06    -126.969E-03     176.558E-03    -49.5889E-03     203.748E-03    -132.892E-03     182.577E-03    -49.3667E-03     196.962E-03
            2384     14.6156E-03     4.31027E-03    -16.6936E+06     54.2078E+06     51.3657E+06     18.5065E+06    -85.5974E-03     132.225E-03    -46.6278E-03     92.7530E-03    -86.8964E-03     133.515E-03    -46.4254E-03     90.8810E-03
            2385     13.7768E-03     4.26409E-03    -19.2299E+06     36.7907E+06     44.3029E+06     20.8291E+06    -66.1382E-03     111.008E-03    -44.8701E-03     63.3569E-03    -66.7275E-03     111.534E-03    -44.6740E-03     62.6708E-03
            2386     12.9302E-03     4.23123E-03    -18.9305E+06     32.4801E+06     41.5459E+06     15.1470E+06    -57.1483E-03     100.903E-03    -43.7543E-03     53.9590E-03    -57.5774E-03     101.261E-03    -43.5663E-03     53.5175E-03
            2387     12.0766E-03     4.21371E-03    -15.7698E+06     31.7535E+06     37.7978E+06     6.43935E+06    -51.1260E-03     94.1036E-03    -42.9776E-03     47.7323E-03    -51.4423E-03     94.3679E-03    -42.8118E-03     47.3798E-03
            2388     11.2190E-03     4.20089E-03    -14.5980E+06     16.4753E+06     33.9605E+06     168.677E+03    -47.4586E-03     89.9264E-03    -42.4678E-03     44.6148E-03    -47.6945E-03     90.0707E-03    -42.3007E-03     44.3015E-03
            2389     10.3590E-03     4.19246E-03    -17.0534E+06    -21.3119E+06     29.6418E+06    -2.21937E+06    -45.4139E-03     87.5553E-03    -42.1415E-03     41.7211E-03    -45.5718E-03     87.4911E-03    -41.9376E-03     41.4556E-03
            2390     9.49789E-03     4.18575E-03    -20.0434E+06    -58.5843E+06     25.4456E+06    -5.47516E+06    -44.3250E-03     86.2176E-03    -41.8926E-03     39.0415E-03    -44.4193E-03     85.9586E-03    -41.6513E-03     38.7878E-03
            2391     8.63627E-03     4.18038E-03    -21.6466E+06    -83.9086E+06     23.1885E+06    -9.59555E+06    -43.6763E-03     85.3429E-03    -41.6666E-03     36.2422E-03    -43.7261E-03     84.9501E-03    -41.3976E-03     35.9751E-03
            2392     7.77435E-03     4.17589E-03    -22.2133E+06    -100.903E+06     17.7817E+06    -12.2527E+06    -43.1714E-03     84.5949E-03    -41.4235E-03     33.2354E-03    -43.1826E-03     84.1168E-03    -41.1560E-03     32.9651E-03
            2393     6.91199E-03     4.17215E-03    -22.3562E+06    -111.655E+06     6.92432E+06    -12.9601E+06    -42.7139E-03     83.8629E-03    -41.1490E-03     30.0438E-03    -42.6882E-03     83.3406E-03    -40.9201E-03     29.7891E-03
            2394     6.04928E-03     4.16905E-03    -22.6817E+06    -118.353E+06    -3.57240E+06    -11.5665E+06    -42.2456E-03     83.1219E-03    -40.8763E-03     26.7358E-03    -42.1920E-03     82.5771E-03    -40.6897E-03     26.5191E-03
            2395     5.18621E-03     4.16646E-03    -23.5128E+06    -122.556E+06    -10.3128E+06    -9.58153E+06    -41.7633E-03     82.3919E-03    -40.6286E-03     23.2607E-03    -41.6948E-03     81.8338E-03    -40.4683E-03     23.0859E-03
            2396     4.32264E-03     4.16437E-03    -24.8771E+06    -125.653E+06    -15.2044E+06    -7.76110E+06    -41.2818E-03     81.6848E-03    -40.4030E-03     19.6335E-03    -41.2063E-03     81.1180E-03    -40.2608E-03     19.4952E-03
            2397     3.45881E-03     4.16273E-03    -26.8778E+06    -128.988E+06    -20.1456E+06    -5.71422E+06    -40.8141E-03     81.0137E-03    -40.1995E-03     15.9528E-03    -40.7350E-03     80.4386E-03    -40.0743E-03     15.8518E-03
            2398     2.59454E-03     4.16142E-03    -29.1164E+06    -132.512E+06    -25.2113E+06    -3.66577E+06    -40.3976E-03     80.4235E-03    -40.0259E-03     12.1542E-03    -40.3162E-03     79.8403E-03    -39.9176E-03     12.0884E-03
            2399     1.72988E-03     4.16035E-03    -30.9839E+06    -135.470E+06    -29.5365E+06    -2.08270E+06    -40.0802E-03     79.9688E-03    -39.8887E-03     8.21115E-03    -39.9969E-03     79.3791E-03    -39.7950E-03     8.17264E-03
            2400     865.001E-06     4.15992E-03    -32.0495E+06    -137.056E+06    -31.9353E+06    -1.01745E+06    -39.8509E-03     79.6509E-03    -39.8000E-03     4.48911E-03    -39.7665E-03     79.0587E-03    -39.7144E-03     4.46990E-03
            2401     16.1980E-03     3.53555E-03    -4.34783E+06     110.998E+06      73.524E+06     7.25808E+06    -160.142E-03     214.923E-03    -54.7813E-03     238.882E-03    -167.201E-03     222.160E-03    -54.5684E-03     230.196E-03
            2402     15.4179E-03     3.29987E-03    -9.94637E+06     79.1342E+06     61.2240E+06     14.5846E+06    -117.110E-03     167.853E-03    -50.7431E-03     166.721E-03    -120.831E-03     171.662E-03    -50.5373E-03     161.702E-03
            2403     14.5910E-03     3.24052E-03    -13.5301E+06     50.2843E+06     52.4294E+06     18.9515E+06    -75.8512E-03     124.173E-03    -48.3218E-03     87.2765E-03    -76.7156E-03     125.022E-03    -48.1130E-03     86.0983E-03
            2404     13.7476E-03     3.20612E-03    -11.5656E+06     44.8292E+06     55.8146E+06     14.6829E+06    -61.0276E-03     108.143E-03    -47.1150E-03     73.9238E-03    -61.5296E-03     108.602E-03    -46.8842E-03     73.3737E-03
            2405     12.8960E-03     3.18451E-03    -8.70672E+06     43.4647E+06     54.8194E+06     5.98508E+06    -54.4816E-03     100.863E-03    -46.3816E-03     64.3885E-03    -54.8440E-03     101.190E-03    -46.1579E-03     63.9652E-03
            2406     12.0401E-03     3.17163E-03    -8.02653E+06     38.2610E+06     41.8822E+06     969.102E+03    -50.4123E-03     96.2662E-03    -45.8539E-03     56.9156E-03    -50.6737E-03     96.5130E-03    -45.6883E-03     56.5830E-03
            2407     11.1825E-03     3.16249E-03    -11.2835E+06     17.1576E+06     29.6475E+06    -234.922E+03    -48.3608E-03     93.8762E-03    -45.5154E-03     51.3995E-03    -48.5532E-03     94.0027E-03    -45.3757E-03     51.1433E-03
            2408     10.3238E-03     3.15547E-03    -14.7365E+06    -19.3274E+06     24.3302E+06    -2.94580E+06    -47.3248E-03     92.6371E-03    -45.3124E-03     46.2944E-03    -47.4510E-03     92.5709E-03    -45.1413E-03     46.0647E-03
            2409     9.46496E-03     3.14973E-03    -15.9816E+06    -54.1667E+06     19.1906E+06    -8.23884E+06    -46.8283E-03     91.9657E-03    -45.1374E-03     41.7096E-03    -46.8885E-03     91.7202E-03    -44.9397E-03     41.4543E-03
            2410     8.60583E-03     3.14501E-03    -16.3549E+06    -81.4343E+06     14.2720E+06    -13.3365E+06    -46.4652E-03     91.4269E-03    -44.9617E-03     37.3552E-03    -46.4710E-03     91.0432E-03    -44.7486E-03     37.0663E-03
            2411     7.74645E-03     3.14114E-03    -16.9918E+06    -101.859E+06     8.83021E+06    -15.8189E+06    -46.1072E-03     90.8865E-03    -44.7793E-03     33.2592E-03    -46.0722E-03     90.4030E-03    -44.5628E-03     32.9629E-03
            2412     6.88688E-03     3.13809E-03    -18.5774E+06    -115.713E+06    -313.906E+03    -14.9986E+06    -45.7462E-03     90.3222E-03    -44.5760E-03     29.3666E-03    -45.6812E-03     89.7805E-03    -44.3829E-03     29.1004E-03
            2413     6.02701E-03     3.13566E-03    -20.4302E+06    -123.377E+06    -9.83109E+06    -12.6820E+06    -45.3843E-03     89.7536E-03    -44.3693E-03     25.6681E-03    -45.3004E-03     89.1868E-03    -44.2099E-03     25.4479E-03
            2414     5.16679E-03     3.13371E-03    -21.9389E+06    -127.395E+06    -15.2736E+06    -9.95592E+06    -45.0143E-03     89.2008E-03    -44.1865E-03     22.0249E-03    -44.9220E-03     88.6217E-03    -44.0463E-03     21.8526E-03
            2415     4.30637E-03     3.13228E-03    -23.8004E+06    -130.368E+06    -18.8945E+06    -7.02225E+06    -44.6508E-03     88.6757E-03    -44.0249E-03     18.3903E-03    -44.5567E-03     88.0881E-03    -43.8958E-03     18.2661E-03
            2416     3.44550E-03     3.13126E-03    -26.0314E+06    -133.171E+06    -22.2637E+06    -4.47429E+06    -44.3205E-03     88.2016E-03    -43.8810E-03     14.8426E-03    -44.2275E-03     87.6069E-03    -43.7615E-03     14.7602E-03
            2417     2.58444E-03     3.13044E-03    -28.0801E+06    -135.827E+06    -25.7094E+06    -2.57869E+06    -44.0273E-03     87.7836E-03    -43.7563E-03     11.2829E-03    -43.9349E-03     87.1828E-03    -43.6471E-03     11.2324E-03
            2418     1.72315E-03     3.12995E-03    -29.4656E+06    -137.781E+06    -28.4365E+06    -1.31816E+06    -43.7886E-03     87.4475E-03    -43.6590E-03     7.64158E-03    -43.6958E-03     86.8424E-03    -43.5587E-03     7.61355E-03
            2419     861.669E-06     3.12963E-03    -30.3012E+06    -138.918E+06    -30.0888E+06    -554.059E+03    -43.6030E-03     87.2281E-03    -43.6251E-03     4.13235E-03    -43.5097E-03     86.6214E-03    -43.5302E-03     4.11942E-03
            2420     16.1777E-03     2.33959E-03    -2.00849E+06     100.432E+06     69.2576E+06     9.04291E+06    -153.621E-03     210.280E-03    -56.6591E-03     213.635E-03    -158.514E-03     215.346E-03    -56.4555E-03     206.410E-03
            2421     15.3799E-03     2.20111E-03    -6.30563E+06     69.4336E+06     61.2520E+06     16.5112E+06    -100.117E-03     153.353E-03    -53.2361E-03     141.074E-03    -102.001E-03     155.302E-03    -53.0214E-03     138.322E-03
            2422     14.5443E-03     2.17657E-03    -6.63016E+06     55.9242E+06     62.2759E+06     12.9040E+06    -70.3171E-03     121.818E-03    -51.5010E-03     94.5485E-03    -70.9029E-03     122.399E-03    -51.2610E-03     93.7889E-03
            2423     13.6952E-03     2.14834E-03    -2.81110E+06     54.7879E+06     65.9043E+06     4.83119E+06    -62.3209E-03     112.891E-03    -50.5697E-03     82.0365E-03    -62.7076E-03     113.269E-03    -50.3156E-03     81.5551E-03
            2424     12.8461E-03     2.13374E-03    -2.25441E+06     48.9465E+06     54.7116E+06     1.05460E+06    -57.7606E-03     107.612E-03    -49.8515E-03     65.9940E-03    -58.0278E-03     107.885E-03    -49.6457E-03     65.6493E-03
            2425     11.9943E-03     2.12428E-03    -5.87011E+06     37.1246E+06     30.8849E+06     1.45048E+06    -54.6550E-03     103.911E-03    -49.2563E-03     55.3046E-03    -54.8454E-03     104.121E-03    -49.1472E-03     55.0715E-03
            2426     11.1411E-03     2.11694E-03    -8.79998E+06     18.1403E+06     10.5334E+06     1.15271E+06    -52.8403E-03     101.644E-03    -48.8041E-03     47.4193E-03    -52.9649E-03     101.770E-03    -48.7649E-03     47.2508E-03
            2427     10.2872E-03     2.11124E-03    -9.97015E+06    -14.1185E+06    -329.935E+03    -3.84804E+06    -51.7494E-03     100.230E-03    -48.4811E-03     41.0603E-03    -51.8039E-03     100.199E-03    -48.4478E-03     40.8720E-03
            2428     9.43226E-03     2.10629E-03    -10.3329E+06    -49.4913E+06    -6.89690E+06    -10.0265E+06    -50.9243E-03     99.1458E-03    -48.2216E-03     35.6580E-03    -50.9114E-03     98.9396E-03    -48.1693E-03     35.4209E-03
            2429     8.57688E-03     2.10244E-03    -10.8628E+06    -79.3556E+06    -12.0194E+06    -14.3352E+06    -50.1783E-03     98.1717E-03    -47.9934E-03     31.0400E-03    -50.1120E-03     97.8191E-03    -47.9227E-03     30.7702E-03
            2430     7.72088E-03     2.09940E-03    -12.5656E+06    -104.878E+06    -12.9429E+06    -15.4135E+06    -49.5177E-03     97.3301E-03    -47.8124E-03     27.0471E-03    -49.4179E-03     96.8501E-03    -47.7068E-03     26.7809E-03
            2431     6.86422E-03     2.09708E-03    -15.0408E+06    -121.064E+06    -13.0847E+06    -13.5415E+06    -48.9424E-03     96.5938E-03    -47.6514E-03     23.5000E-03    -48.8289E-03     96.0344E-03    -47.5194E-03     23.2717E-03
            2432     6.00713E-03     2.09529E-03    -17.8750E+06    -128.818E+06    -17.4983E+06    -10.7173E+06    -48.4526E-03     95.9361E-03    -47.4836E-03     20.3000E-03    -48.3338E-03     95.3467E-03    -47.3584E-03     20.1193E-03
            2433     5.14969E-03     2.09395E-03    -20.9692E+06    -132.804E+06    -21.5700E+06    -7.72658E+06    -48.0244E-03     95.3624E-03    -47.3380E-03     17.2937E-03    -47.9082E-03     94.7623E-03    -47.2229E-03     17.1606E-03
            2434     4.29180E-03     2.09306E-03    -23.6218E+06    -135.019E+06    -22.9317E+06    -5.00375E+06    -47.6860E-03     94.9128E-03    -47.2268E-03     14.3985E-03    -47.5770E-03     94.3065E-03    -47.1114E-03     14.3080E-03
            2435     3.43381E-03     2.09248E-03    -25.5279E+06    -136.629E+06    -24.1008E+06     -2.9662E+06    -47.4320E-03     94.5661E-03    -47.1341E-03     11.5780E-03    -47.3279E-03     93.9555E-03    -47.0195E-03     11.5201E-03
            2436     2.57551E-03     2.09205E-03    -26.8811E+06    -138.209E+06    -25.9640E+06    -1.63484E+06    -47.2189E-03     94.2756E-03    -47.0566E-03     8.74858E-03    -47.1161E-03     93.6613E-03    -46.9471E-03     8.71334E-03
            2437     1.71706E-03     2.09184E-03    -27.7893E+06    -139.361E+06    -27.4669E+06    -793.959E+03    -47.0581E-03     94.0639E-03    -47.0058E-03     5.93674E-03    -46.9557E-03     93.4471E-03    -46.9008E-03     5.91728E-03
            2438     858.490E-06     2.09175E-03    -28.2454E+06    -139.967E+06    -28.2922E+06    -336.272E+03    -46.9717E-03     93.9735E-03    -47.0018E-03     3.22457E-03    -46.8686E-03     93.3561E-03    -46.8993E-03     3.21536E-03
            2439     16.1303E-03     1.17592E-03    -657.838E+03     92.9041E+06     76.0792E+06     8.93906E+06    -154.795E-03     215.527E-03    -60.7317E-03     197.671E-03    -157.644E-03     218.507E-03    -60.4851E-03     192.279E-03
            2440     15.3090E-03     1.12170E-03    -805.662E+03     72.8411E+06     73.1482E+06     9.12036E+06    -101.525E-03     158.781E-03    -57.2563E-03     120.318E-03    -102.334E-03     159.632E-03    -56.9950E-03     119.084E-03
            2441     14.4706E-03     1.09950E-03     1.73695E+06     65.5787E+06     72.9919E+06     2.34000E+06    -80.3067E-03     135.620E-03    -55.3131E-03     76.7338E-03    -80.6571E-03     135.993E-03    -55.0457E-03     76.2749E-03
            2442     13.6392E-03     1.07990E-03     1.41911E+06     57.6265E+06     63.6010E+06    -535.626E+03    -71.2285E-03     125.209E-03    -53.9801E-03     57.1257E-03    -71.4722E-03     125.475E-03    -53.7477E-03     56.8152E-03
            2443     12.7994E-03     1.07136E-03    -1.12505E+06     48.0845E+06     43.6102E+06     1.43497E+06    -64.8432E-03     117.778E-03    -52.9350E-03     42.7808E-03    -65.0179E-03     117.992E-03    -52.7851E-03     42.6033E-03
            2444     11.9559E-03     1.06622E-03    -3.30446E+06     35.7468E+06     18.8196E+06     1.88833E+06    -61.0810E-03     113.171E-03    -52.0904E-03     34.7437E-03    -61.1985E-03     113.349E-03    -52.0434E-03     34.6287E-03
            2445     11.1089E-03     1.06226E-03    -3.04344E+06     20.1961E+06    -4.82244E+06     652.327E+03    -58.4082E-03     109.799E-03    -51.3907E-03     28.9070E-03    -58.4590E-03     109.924E-03    -51.4397E-03     28.8164E-03
            2446     10.2594E-03     1.05828E-03    -2.67608E+06    -8.14318E+06    -24.5428E+06    -2.58575E+06    -56.3454E-03     107.178E-03    -50.8329E-03     24.2363E-03    -56.3199E-03     107.185E-03    -50.9400E-03     24.1285E-03
            2447     9.40881E-03     1.05548E-03    -3.89321E+06    -45.2428E+06    -35.1496E+06    -7.31008E+06    -54.6649E-03     105.087E-03    -50.4226E-03     20.5381E-03    -54.5735E-03     104.923E-03    -50.5271E-03     20.3861E-03
            2448     8.55637E-03     1.05318E-03    -6.67412E+06    -79.3925E+06    -38.3379E+06    -9.60058E+06    -53.2910E-03     103.415E-03    -50.1236E-03     17.6232E-03    -53.1575E-03     103.086E-03    -50.1905E-03     17.4541E-03
            2449     7.70283E-03     1.05150E-03    -10.3715E+06    -107.590E+06    -35.8995E+06    -9.76342E+06    -52.2051E-03     102.116E-03    -49.9112E-03     15.1816E-03    -52.0516E-03     101.648E-03    -49.9197E-03     15.0196E-03
            2450     6.84848E-03     1.05018E-03    -14.2378E+06    -126.042E+06    -30.2933E+06    -8.62119E+06    -51.3426E-03     101.099E-03    -49.7566E-03     13.1109E-03    -51.1890E-03     100.535E-03    -49.7047E-03     12.9709E-03
            2451     5.99343E-03     1.04923E-03    -17.9748E+06    -133.935E+06    -26.1039E+06    -5.89180E+06    -50.6597E-03     100.288E-03    -49.6282E-03     11.2440E-03    -50.5189E-03     99.6832E-03    -49.5384E-03     11.1451E-03
            2452     5.13778E-03     1.04859E-03    -21.1910E+06    -136.652E+06    -25.3521E+06    -3.66910E+06    -50.1487E-03     99.6655E-03    -49.5168E-03     9.51718E-03    -50.0207E-03     99.0504E-03    -49.4147E-03     9.45155E-03
            2453     4.28186E-03     1.04815E-03    -23.5369E+06    -137.965E+06    -25.3096E+06    -2.48628E+06    -49.7985E-03     99.2319E-03    -49.4335E-03     7.90082E-03    -49.6800E-03     98.6133E-03    -49.3259E-03     7.85422E-03
            2454     3.42563E-03     1.04780E-03    -25.1098E+06    -138.811E+06    -25.3267E+06    -1.55846E+06    -49.5686E-03     98.9435E-03    -49.3749E-03     6.33826E-03    -49.4566E-03     98.3227E-03    -49.2638E-03     6.30694E-03
            2455     2.56937E-03     1.04771E-03    -26.0569E+06    -139.709E+06    -26.2002E+06    -782.187E+03    -49.4213E-03     98.7535E-03    -49.3322E-03     4.78123E-03    -49.3112E-03     98.1307E-03    -49.2229E-03     4.76287E-03
            2456     1.71293E-03     1.04766E-03    -26.5816E+06    -140.170E+06    -26.6275E+06    -364.300E+03    -49.3371E-03     98.6450E-03    -49.3079E-03     3.23146E-03    -49.2282E-03     98.0211E-03    -49.1992E-03     3.22131E-03
            2457     856.486E-06     1.04759E-03    -26.9198E+06    -140.526E+06    -27.0163E+06    -173.518E+03    -49.3428E-03     98.5988E-03    -49.2560E-03     1.73713E-03    -49.2335E-03     97.9750E-03    -49.1482E-03     1.73226E-03


