********************************************************************************
Field Output Report, written Wed May 29 00:58:26 2024

Source 1
---------

   ODB: G:/Abaqus_calc_2019/1740/Vel_5/odb/zeides_2a_32_red_2500_cal_100_vel_5_fric_050.odb
   Step: Step-1
   Frame: Increment  43115453: Step Time =    3.813

Loc 1 : Nodal values from source 1

Output sorted by column "Nodal Label".

Field Output reported at nodes for region: DIE_2A_32_D0_36-1.Region_1
   Computation algorithm: EXTRAPOLATE_COMPUTE_AVERAGE
   Averaged at nodes
   Averaging regions: ODB_REGIONS

      Node Label     COORD.COOR1     COORD.COOR2
                          @Loc 1          @Loc 1
-------------------------------------------------
               1     17.2211E-03     207.369E-03


Field Output reported at nodes for region: DIE_2A_32_D0_36-1.Region_2
   Computation algorithm: EXTRAPOLATE_COMPUTE_AVERAGE
   Averaged at nodes
   Averaging regions: ODB_REGIONS

      Node Label     COORD.COOR1     COORD.COOR2
                          @Loc 1          @Loc 1
-------------------------------------------------
               1     17.2211E-03     207.369E-03


Field Output reported at nodes for part: WIRE-1
   Computation algorithm: EXTRAPOLATE_COMPUTE_AVERAGE
   Averaged at nodes
   Averaging regions: ODB_REGIONS

      Node Label     COORD.COOR1     COORD.COOR2           S.S11           S.S22           S.S33           S.S12         PE.PE11         PE.PE22         PE.PE33         PE.PE12         LE.LE11         LE.LE22         LE.LE33         LE.LE12
                          @Loc 1          @Loc 1          @Loc 1          @Loc 1          @Loc 1          @Loc 1          @Loc 1          @Loc 1          @Loc 1          @Loc 1          @Loc 1          @Loc 1          @Loc 1          @Loc 1
-------------------------------------------------------------------------------------------------------------------------------------------------------------------------------------------------------------------------------------------------
               1     235.397E-09     96.2509E-03    -130.643E+06    -238.694E+06    -130.699E+06    -1.57290E+06    -292.686E-03     584.831E-03    -292.145E-03     14.0271E-03    -292.840E-03     584.053E-03    -292.263E-03     11.1555E-03
               2     13.4343E-03     100.542E-03    -1.40839E+06     51.7118E+06     82.7453E+06    -3.39990E+06    -291.500E-03     584.397E-03    -292.897E-03     97.7752E-03    -294.259E-03     587.095E-03    -292.556E-03     70.7155E-03
               3     13.4713E-03     199.605E-03    -116.320E+06     108.964E+06    -11.2938E+06    -52.3263E+06    -20.8725E-03     315.652E-03    -294.779E-03    -15.1857E-03    -21.3795E-03     316.602E-03    -294.825E-03    -16.6530E-03
               4    -23.9387E-06     193.035E-03    -56.9816E+06    -58.1218E+06    -96.5707E+06    -14.7540E+06    -308.947E-03     643.502E-03    -334.554E-03    -99.4673E-03    -310.375E-03     641.855E-03    -334.870E-03    -101.750E-03
               5    -519.801E-09    -21.5800E-15    -61.9306E+06    -211.853E+06    -62.5460E+06    -367.576E+03    -248.983E-03     499.494E-03    -250.511E-03     1.12384E-03    -248.893E-03     498.616E-03    -250.427E-03     913.262E-06
               6     13.1855E-03    -21.5800E-15     5.79776E+06     81.8258E+06     95.0023E+06    -1.15618E+06    -629.258E-03     926.905E-03    -297.647E-03     312.258E-03    -641.612E-03     939.284E-03    -297.299E-03     224.056E-03
               7     671.701E-06     96.2708E-03    -130.156E+06    -229.193E+06    -129.077E+06    -1.21328E+06    -292.629E-03     584.902E-03    -292.274E-03     23.4365E-03    -292.871E-03     584.244E-03    -292.398E-03     18.8177E-03
               8     1.34373E-03     96.3195E-03    -128.077E+06    -212.653E+06    -120.661E+06    -577.769E+03    -292.728E-03     585.164E-03    -292.436E-03     43.1244E-03    -293.224E-03     584.800E-03    -292.545E-03     34.8077E-03
               9     2.01534E-03     96.3993E-03    -123.547E+06    -196.190E+06    -105.062E+06    -511.980E+03    -293.096E-03     585.607E-03    -292.510E-03     63.7355E-03    -293.996E-03     585.676E-03    -292.572E-03     51.4523E-03
              10     2.68682E-03     96.5094E-03    -116.731E+06    -180.412E+06    -86.0790E+06    -699.436E+03    -293.555E-03     586.154E-03    -292.599E-03     84.2446E-03    -295.001E-03     586.795E-03    -292.598E-03     67.9424E-03
              11     3.35837E-03     96.6498E-03    -108.697E+06    -167.874E+06    -66.2964E+06    -465.522E+03    -294.123E-03     586.813E-03    -292.691E-03     104.356E-03    -296.245E-03     588.146E-03    -292.621E-03     84.0750E-03
              12     4.03010E-03     96.8204E-03    -99.9899E+06    -137.942E+06    -47.1361E+06    -307.900E+03    -294.748E-03     587.498E-03    -292.750E-03     123.927E-03    -297.697E-03     589.739E-03    -292.641E-03     99.7327E-03
              13     4.70170E-03     97.0198E-03    -90.7168E+06    -99.3715E+06    -27.6881E+06    -349.441E+03    -295.361E-03     588.153E-03    -292.792E-03     142.644E-03    -299.249E-03     591.446E-03    -292.655E-03     114.684E-03
              14     5.37324E-03     97.2462E-03    -81.3010E+06    -67.7773E+06    -8.80724E+06    -229.488E+03    -296.010E-03     588.842E-03    -292.832E-03     160.112E-03    -300.890E-03     593.219E-03    -292.660E-03     128.604E-03
              15     6.04493E-03     97.4976E-03    -72.0697E+06    -34.7920E+06     8.58240E+06     90.7798E+03    -296.765E-03     589.629E-03    -292.864E-03     175.876E-03    -302.656E-03     595.115E-03    -292.666E-03     141.106E-03
              16     6.71632E-03     97.7719E-03    -62.6430E+06    -9.84797E+06     23.7429E+06     54.0547E+03    -297.551E-03     590.458E-03    -292.907E-03     189.178E-03    -304.372E-03     596.952E-03    -292.683E-03     151.567E-03
              17     7.38792E-03     98.0639E-03    -54.2298E+06     2.88340E+06     34.3851E+06    -657.317E+03    -298.225E-03     591.185E-03    -292.960E-03     199.539E-03    -305.815E-03     598.493E-03    -292.714E-03     159.622E-03
              18     8.05883E-03     98.3694E-03    -47.5070E+06     10.6748E+06     42.6811E+06    -1.15177E+06    -298.626E-03     591.644E-03    -293.017E-03     206.841E-03    -306.796E-03     599.559E-03    -292.750E-03     165.196E-03
              19     8.72992E-03     98.6829E-03    -40.2430E+06     18.6125E+06     52.3229E+06    -658.938E+03    -298.573E-03     591.643E-03    -293.069E-03     211.140E-03    -307.117E-03     599.958E-03    -292.776E-03     168.329E-03
              20     9.40180E-03     98.9995E-03    -32.5958E+06     25.9192E+06     62.7594E+06     392.603E+03    -298.224E-03     591.332E-03    -293.108E-03     212.206E-03    -306.951E-03     599.853E-03    -292.784E-03     168.611E-03
              21     10.0739E-03     99.3118E-03    -25.7319E+06     33.3806E+06     72.1608E+06     1.68428E+06    -297.847E-03     590.980E-03    -293.134E-03     209.788E-03    -306.516E-03     599.468E-03    -292.784E-03     165.927E-03
              22     10.7441E-03     99.6175E-03    -18.2059E+06     41.7573E+06     79.2019E+06     2.27433E+06    -296.945E-03     590.079E-03    -293.134E-03     204.602E-03    -305.329E-03     598.318E-03    -292.773E-03     161.108E-03
              23     11.4169E-03     99.9080E-03    -12.2459E+06     41.1334E+06     75.7914E+06     2.10348E+06    -295.222E-03     588.285E-03    -293.063E-03     192.216E-03    -302.814E-03     595.760E-03    -292.726E-03     150.536E-03
              24     12.0879E-03     100.168E-03    -9.60146E+06     46.4250E+06     76.4716E+06     1.75817E+06    -293.835E-03     586.815E-03    -292.980E-03     181.818E-03    -301.006E-03     593.895E-03    -292.651E-03     140.719E-03
              25     12.7609E-03     100.417E-03    -5.04076E+06     54.0625E+06     83.0777E+06    -995.665E+03    -292.475E-03     585.402E-03    -292.928E-03     139.225E-03    -297.537E-03     590.398E-03    -292.584E-03     104.673E-03
              26     13.4371E-03     102.244E-03    -41.7124E+03     55.3306E+06     83.9005E+06    -1.30885E+06    -291.918E-03     584.714E-03    -292.797E-03     95.2797E-03    -294.641E-03     587.391E-03    -292.457E-03     68.2739E-03
              27     13.4345E-03     103.949E-03    -2.88392E+06     53.5441E+06     83.1533E+06     2.64991E+06    -290.945E-03     583.807E-03    -292.862E-03     93.1770E-03    -293.611E-03     586.412E-03    -292.520E-03     66.6408E-03
              28     13.4349E-03     105.645E-03    -3.21632E+06     50.4088E+06      82.909E+06    -2.34665E+06    -291.279E-03     584.111E-03    -292.832E-03     98.3913E-03    -294.040E-03     586.799E-03    -292.486E-03     71.5501E-03
              29     13.4383E-03     107.350E-03     816.025E+03     53.2401E+06     83.7355E+06     179.561E+03    -291.486E-03     584.168E-03    -292.681E-03     97.3445E-03    -294.223E-03     586.853E-03    -292.341E-03     70.4679E-03
              30     13.4383E-03     109.052E-03    -1.72801E+06     52.2769E+06     82.7211E+06     1.33535E+06    -292.041E-03     584.777E-03    -292.736E-03     93.9425E-03    -294.732E-03     587.408E-03    -292.396E-03     67.0887E-03
              31     13.4311E-03     110.754E-03    -2.91110E+06     48.6608E+06     79.7085E+06    -494.686E+03    -293.272E-03     586.136E-03    -292.864E-03     95.6201E-03    -296.013E-03     588.808E-03    -292.532E-03     68.4538E-03
              32     13.4367E-03     112.460E-03    -2.13273E+06     51.0493E+06     80.9516E+06     1.60570E+06    -291.590E-03     584.476E-03    -292.887E-03     97.2072E-03    -294.388E-03     587.214E-03    -292.553E-03     69.9229E-03
              33     13.4338E-03     114.157E-03    -3.22251E+06     53.8030E+06     81.5704E+06    -953.636E+03    -291.586E-03     584.438E-03    -292.851E-03     96.5052E-03    -294.368E-03     587.162E-03    -292.517E-03     69.2942E-03
              34     13.4358E-03     115.862E-03    -2.75912E+06     52.5690E+06     78.3834E+06    -1.06021E+06    -291.129E-03     583.835E-03    -292.706E-03     98.7091E-03    -293.882E-03     586.538E-03    -292.386E-03     71.8781E-03
              35     13.4424E-03     117.558E-03      112.08E+03     55.6203E+06     85.4239E+06     968.602E+03    -291.495E-03     584.111E-03    -292.616E-03     95.6516E-03    -294.203E-03     586.769E-03    -292.269E-03     68.8363E-03
              36     13.4326E-03     119.268E-03    -3.81039E+06     52.7872E+06     85.0572E+06    -1.65876E+06    -293.816E-03     586.510E-03    -292.694E-03     93.9661E-03    -296.519E-03     589.140E-03    -292.340E-03     66.9674E-03
              37     13.4387E-03     120.968E-03     363.143E+03     55.5611E+06     86.9862E+06     17.1181E+03    -291.242E-03     583.944E-03    -292.702E-03     98.1134E-03    -293.994E-03     586.643E-03    -292.348E-03     71.2759E-03
              38     13.4397E-03     122.668E-03     1.22247E+06     58.1070E+06     86.7748E+06     249.084E+03    -291.251E-03     583.847E-03    -292.596E-03     97.6708E-03    -294.002E-03     586.557E-03    -292.248E-03     70.7765E-03
              39     13.4369E-03     124.374E-03    -6.38615E+06     52.0963E+06     80.1272E+06    -1.33428E+06    -294.529E-03     587.120E-03    -292.591E-03     97.4696E-03    -297.260E-03     589.781E-03    -292.257E-03     70.6368E-03
              40     13.4367E-03     126.086E-03    -4.79115E+06     52.9882E+06     81.0013E+06     1.51026E+06    -294.715E-03     587.548E-03    -292.833E-03     94.1088E-03    -297.331E-03     590.101E-03    -292.498E-03     67.8913E-03
              41     13.4268E-03     127.788E-03    -4.48784E+06     52.0998E+06     76.3405E+06     2.86377E+06    -290.624E-03     583.665E-03    -293.041E-03     96.1341E-03    -293.262E-03     586.250E-03    -292.728E-03     70.2052E-03
              42     13.4404E-03     129.470E-03     1.91943E+06     59.1578E+06     82.4338E+06     97.8799E+03    -287.460E-03     580.387E-03    -292.927E-03     96.9887E-03    -290.214E-03     583.118E-03    -292.603E-03     70.2609E-03
              43     13.4338E-03     131.171E-03    -1.38047E+06     58.8499E+06     85.2901E+06     62.6901E+03    -291.712E-03     584.525E-03    -292.813E-03     91.5679E-03    -294.444E-03     587.214E-03    -292.470E-03     64.2986E-03
              44     13.4342E-03     132.885E-03    -5.12492E+06     52.1774E+06     81.8270E+06    -510.389E+03    -292.936E-03     585.784E-03    -292.848E-03     94.9426E-03    -295.695E-03     588.473E-03    -292.507E-03     67.7244E-03
              45     13.4366E-03     134.581E-03     844.901E+03     55.4932E+06     86.5056E+06    -2.27532E+06    -290.311E-03     583.078E-03    -292.766E-03     99.4611E-03    -293.123E-03     585.838E-03    -292.415E-03     72.2796E-03
              46     13.4400E-03     136.283E-03    -2.12203E+06     54.4054E+06     84.5336E+06    -2.11049E+06    -290.904E-03     583.513E-03    -292.609E-03     97.5097E-03    -293.629E-03     586.178E-03    -292.262E-03     70.8228E-03
              47     13.4380E-03     137.985E-03    -44.7112E+03     57.6481E+06     85.9321E+06     -13.013E+03    -291.852E-03     584.414E-03    -292.562E-03     96.0960E-03    -294.496E-03     587.013E-03    -292.216E-03     69.8352E-03
              48     13.4398E-03     139.686E-03    -2.56515E+06     57.7984E+06     85.5910E+06     1.60889E+06    -293.251E-03     585.937E-03    -292.686E-03     92.3745E-03    -295.874E-03     588.508E-03    -292.338E-03     65.9699E-03
              49     13.4296E-03     141.393E-03    -3.90815E+06     53.5901E+06     83.4166E+06     2.56863E+06    -291.789E-03     584.646E-03    -292.857E-03     94.1698E-03    -294.450E-03     587.241E-03    -292.512E-03     67.7648E-03
              50     13.4411E-03     143.086E-03    -153.595E+03     61.2926E+06     87.8145E+06     578.460E+03    -290.027E-03     582.826E-03    -292.799E-03     98.8016E-03    -292.808E-03     585.569E-03    -292.448E-03     72.0100E-03
              51     13.4343E-03     144.790E-03    -3.98225E+06     62.4505E+06     83.9753E+06    -976.721E+03    -291.412E-03     584.088E-03    -292.676E-03     95.5178E-03    -294.155E-03     586.796E-03    -292.341E-03     68.6570E-03
              52     13.4400E-03     146.494E-03    -2.55831E+06     60.7138E+06     85.2115E+06     1.28756E+06    -291.103E-03     583.897E-03    -292.794E-03     93.2479E-03    -293.770E-03     586.523E-03    -292.452E-03     66.7506E-03
              53     13.4299E-03     148.190E-03    -4.63582E+06     57.7949E+06     86.6816E+06     599.335E+03    -290.625E-03     583.532E-03    -292.908E-03     95.5391E-03    -293.342E-03     586.187E-03    -292.552E-03     68.9866E-03
              54     13.4399E-03     149.891E-03    -495.091E+03     63.6342E+06     88.4481E+06     369.744E+03    -288.486E-03     581.219E-03    -292.733E-03     99.6380E-03    -291.287E-03     583.988E-03    -292.383E-03     72.9142E-03
              55     13.4419E-03     151.581E-03     798.548E+03     69.3069E+06     89.8687E+06    -414.226E+03    -290.640E-03     583.229E-03    -292.588E-03     94.1404E-03    -293.378E-03     585.955E-03    -292.241E-03     67.1750E-03
              56     13.4320E-03     153.297E-03    -6.19052E+06     60.9944E+06     84.8535E+06     112.114E+03    -292.511E-03     585.188E-03    -292.677E-03     94.2843E-03    -295.188E-03     587.814E-03    -292.332E-03     67.8326E-03
              57     13.4427E-03     154.988E-03    -1.96577E+06     64.1548E+06     88.5591E+06     573.979E+03    -288.745E-03     581.506E-03    -292.761E-03     96.0882E-03    -291.460E-03     584.185E-03    -292.409E-03     69.7314E-03
              58     13.4324E-03     156.687E-03    -3.28851E+06     69.2837E+06     86.3593E+06     772.679E+03    -286.768E-03     579.545E-03    -292.776E-03     94.5946E-03    -289.486E-03     582.245E-03    -292.440E-03     68.3214E-03
              59     13.4431E-03     158.374E-03     900.764E+03     76.5085E+06     91.9377E+06    -271.324E+03    -285.756E-03     578.538E-03    -292.782E-03     95.1346E-03    -288.521E-03     581.311E-03    -292.435E-03     68.6511E-03
              60     13.4336E-03     160.068E-03    -3.97376E+06     75.1003E+06     94.3982E+06     2.29492E+06    -286.440E-03     579.259E-03    -292.819E-03     92.5157E-03    -289.179E-03     581.977E-03    -292.450E-03     66.2050E-03
              61     13.4401E-03     161.764E-03    -3.75641E+06     76.9741E+06     93.4704E+06     1.01701E+06    -283.601E-03     576.363E-03    -292.762E-03     96.5442E-03    -286.351E-03     579.102E-03    -292.401E-03     70.6984E-03
              62     13.4435E-03     163.441E-03     107.201E+03      86.976E+06     98.7481E+06     -415.25E+03    -279.739E-03     572.376E-03    -292.637E-03     93.6747E-03    -282.495E-03     575.156E-03    -292.270E-03     67.7417E-03
              63     13.4420E-03     165.126E-03    -5.61454E+06     87.9548E+06     97.2928E+06     3.82242E+06    -276.465E-03     568.979E-03    -292.514E-03     93.6613E-03    -279.208E-03     571.732E-03    -292.146E-03     68.4063E-03
              64     13.4526E-03     166.790E-03    -2.96339E+06     91.4433E+06     98.7587E+06    -133.857E+03    -275.305E-03     567.330E-03    -292.025E-03     103.141E-03    -278.179E-03     570.232E-03    -291.659E-03     77.7908E-03
              65     13.4606E-03     168.474E-03    -1.70910E+06     96.2303E+06     100.390E+06     382.894E+03    -278.459E-03     569.816E-03    -291.357E-03     101.153E-03    -281.298E-03     572.699E-03    -290.992E-03     75.6032E-03
              66     13.4645E-03     170.156E-03    -3.64916E+06     101.505E+06     103.587E+06     3.38661E+06    -279.551E-03     570.467E-03    -290.916E-03     100.790E-03    -282.400E-03     573.364E-03    -290.540E-03     75.2368E-03
              67     13.4709E-03     171.829E-03    -3.71214E+06     101.478E+06     105.155E+06     866.774E+03    -281.954E-03     572.337E-03    -290.383E-03     106.272E-03    -284.920E-03     575.346E-03    -289.999E-03     80.1369E-03
              68     13.4797E-03     173.522E-03    -3.05779E+06     98.4226E+06     109.543E+06    -325.853E+03    -286.130E-03     575.785E-03    -289.655E-03     110.384E-03    -289.191E-03     578.867E-03    -289.246E-03     83.5295E-03
              69     13.4899E-03     175.214E-03    -449.466E+03     97.8389E+06     117.553E+06     1.36569E+06    -292.898E-03     581.739E-03    -288.841E-03     117.266E-03    -296.091E-03     584.938E-03    -288.395E-03     89.5147E-03
              70     13.4968E-03     176.928E-03    -9.70397E+06     99.2643E+06     120.689E+06    -1.37164E+06    -304.438E-03     592.463E-03    -288.024E-03     121.289E-03    -307.621E-03     595.615E-03    -287.551E-03     93.4041E-03
              71     13.5024E-03     178.660E-03     2.03094E+06     108.154E+06     132.629E+06    -736.024E+03    -317.899E-03     605.265E-03    -287.365E-03     124.135E-03    -320.925E-03     608.299E-03    -286.862E-03     96.5002E-03
              72     13.5037E-03     180.413E-03    -5.67660E+06     107.015E+06     127.357E+06    -51.0935E+03    -332.787E-03     619.632E-03    -286.845E-03     125.751E-03    -335.725E-03     622.562E-03    -286.355E-03     98.2209E-03
              73     13.5034E-03     182.192E-03    -2.37217E+06     110.727E+06     123.666E+06     2.10657E+06    -347.493E-03     633.939E-03    -286.446E-03     128.833E-03    -350.316E-03     636.790E-03    -285.985E-03     101.497E-03
              74     13.5041E-03     183.996E-03    -7.48811E+06     96.0889E+06     115.130E+06    -5.84343E+06    -358.737E-03     644.899E-03    -286.163E-03     131.478E-03    -361.539E-03     647.684E-03    -285.715E-03     103.637E-03
              75     13.5033E-03     185.805E-03     534.704E+03     82.1335E+06     112.716E+06     978.492E+03    -366.808E-03     652.768E-03    -285.960E-03     132.648E-03    -369.624E-03     655.551E-03    -285.516E-03     103.797E-03
              76     13.5046E-03     187.630E-03    -4.59903E+06     60.8509E+06     104.977E+06    -8.51572E+06    -375.084E-03     660.850E-03    -285.766E-03     133.261E-03    -377.865E-03     663.527E-03    -285.322E-03     103.956E-03
              77     13.5029E-03     189.470E-03     3.84964E+06     43.2966E+06     107.195E+06     3.55689E+06    -378.416E-03     664.100E-03    -285.684E-03     127.850E-03    -380.926E-03     666.465E-03    -285.216E-03     99.7344E-03
              78     13.5063E-03     191.297E-03    -11.6142E+06     16.1231E+06     107.676E+06    -8.81042E+06    -375.194E-03     660.951E-03    -285.757E-03     123.990E-03    -377.619E-03     663.078E-03    -285.225E-03     96.5858E-03
              79     13.5044E-03     193.122E-03     12.4107E+06     2.60116E+06     134.080E+06     1.61983E+06    -365.121E-03     651.091E-03    -285.970E-03     116.378E-03    -367.258E-03     652.891E-03    -285.321E-03     90.7866E-03
              80     13.5118E-03     194.911E-03    -16.0113E+06     14.9313E+06     132.204E+06     2.31871E+06    -344.252E-03     630.568E-03    -286.316E-03     107.553E-03    -346.251E-03     632.179E-03    -285.653E-03     85.2296E-03
              81     13.5071E-03     196.672E-03     23.3759E+06     5.13338E+06     140.297E+06    -7.59496E+06    -299.764E-03     586.830E-03    -287.066E-03     111.113E-03    -301.372E-03     588.140E-03    -286.406E-03     93.1326E-03
              82     13.5291E-03     198.339E-03     41.0246E+06     61.3918E+06     97.6812E+06    -1.79515E+06    -144.509E-03     435.717E-03    -291.208E-03     50.5208E-03    -145.156E-03     436.670E-03    -290.868E-03     42.4870E-03
              83     12.4772E-03     199.389E-03    -90.3977E+06    -30.6638E+06     10.3327E+06    -36.3687E+06    -26.9806E-03     328.455E-03    -301.474E-03    -55.7658E-03    -27.1209E-03     328.564E-03    -301.247E-03    -57.7168E-03
              84     11.6191E-03     198.950E-03    -40.9329E+06    -64.7534E+06     110.837E+06    -27.1673E+06    -16.2029E-03     330.074E-03    -313.872E-03    -130.961E-03    -16.0280E-03     329.578E-03    -313.164E-03    -133.584E-03
              85     10.7979E-03     198.499E-03    -7.42534E+06    -7.25187E+06     173.618E+06    -12.2293E+06     5.63395E-03     319.347E-03    -324.981E-03    -188.233E-03     6.00342E-03     318.710E-03    -324.092E-03    -190.883E-03
              86     10.0120E-03     198.027E-03     3.06646E+06    -10.7501E+06     168.313E+06    -3.29455E+06     11.1183E-03     324.205E-03    -335.324E-03    -235.262E-03     11.7641E-03     323.296E-03    -334.471E-03    -237.921E-03
              87     9.25272E-03     197.541E-03    -3.90916E+06     6.01324E+06     162.988E+06    -8.31062E+06     9.08571E-03     335.215E-03    -344.301E-03    -289.974E-03     9.93767E-03     334.135E-03    -343.489E-03    -292.844E-03
              88     8.52905E-03     197.049E-03    -10.1873E+06    -4.53652E+06     146.335E+06    -11.1611E+06     2.70132E-03     348.585E-03    -351.286E-03    -350.324E-03     3.87340E-03     347.098E-03    -350.533E-03    -353.578E-03
              89     7.83977E-03     196.561E-03    -11.1702E+06    -2.38265E+06     134.542E+06    -19.3022E+06    -7.56386E-03     363.629E-03    -356.065E-03    -408.217E-03    -6.05354E-03     361.726E-03    -355.373E-03    -412.035E-03
              90     7.17882E-03     196.087E-03    -15.1946E+06    -13.8526E+06     117.512E+06    -19.0010E+06    -22.6798E-03     381.357E-03    -358.677E-03    -461.002E-03    -20.8411E-03     378.976E-03    -358.048E-03    -465.341E-03
              91     6.54208E-03     195.633E-03    -21.0792E+06    -13.0830E+06     101.806E+06    -21.0567E+06    -42.9182E-03     402.162E-03    -359.244E-03    -505.759E-03    -40.8573E-03     399.404E-03    -358.685E-03    -510.680E-03
              92     5.92455E-03     195.206E-03    -27.6928E+06    -13.9886E+06     83.0979E+06    -24.7902E+06    -68.5076E-03     426.452E-03    -357.944E-03    -539.801E-03    -66.3102E-03     423.380E-03    -357.468E-03    -545.373E-03
              93     5.32143E-03     194.810E-03    -32.8080E+06    -17.3768E+06     64.1569E+06    -29.3376E+06    -98.5570E-03     453.606E-03    -355.049E-03    -560.544E-03    -96.3272E-03     450.295E-03    -354.656E-03    -566.796E-03
              94     4.72872E-03     194.450E-03    -37.0971E+06    -22.9283E+06     46.1989E+06    -31.9493E+06    -131.969E-03     482.898E-03    -350.930E-03    -564.559E-03    -129.852E-03     479.460E-03    -350.612E-03    -571.416E-03
              95     4.14204E-03     194.128E-03    -40.4794E+06    -25.8448E+06     30.3400E+06    -34.2548E+06    -167.065E-03     513.069E-03    -346.004E-03    -549.292E-03    -165.220E-03     509.675E-03    -345.756E-03    -556.601E-03
              96     3.55765E-03     193.845E-03    -42.7922E+06    -28.6114E+06     14.7008E+06    -35.6682E+06    -201.538E-03     542.262E-03    -340.724E-03    -514.441E-03    -200.083E-03     539.057E-03    -340.547E-03    -522.010E-03
              97     2.97168E-03     193.604E-03    -42.9337E+06    -32.2928E+06     426.892E+03    -36.8398E+06    -233.257E-03     568.841E-03    -335.584E-03    -461.685E-03    -232.259E-03     565.928E-03    -335.472E-03    -469.284E-03
              98     2.38183E-03     193.404E-03    -43.2547E+06    -33.2028E+06    -12.4561E+06    -35.3792E+06    -260.623E-03     591.642E-03    -331.019E-03    -394.341E-03    -260.167E-03     589.154E-03    -330.971E-03    -401.449E-03
              99     1.78662E-03     193.247E-03    -45.2685E+06    -32.5781E+06    -26.6363E+06    -31.3463E+06    -282.814E-03     610.223E-03    -327.409E-03    -316.110E-03    -282.921E-03     608.181E-03    -327.429E-03    -322.308E-03
             100     1.18731E-03     193.131E-03    -49.3215E+06    -33.9629E+06    -41.4269E+06    -25.4335E+06    -299.837E-03     625.039E-03    -325.202E-03    -229.090E-03    -300.516E-03     623.358E-03    -325.289E-03    -233.774E-03
             101     586.824E-06     193.059E-03    -54.5864E+06    -45.7050E+06    -72.3946E+06    -18.3385E+06    -308.011E-03     637.545E-03    -329.534E-03    -141.530E-03    -309.220E-03     635.966E-03    -329.750E-03    -144.499E-03
             102     10.7343E-06     191.215E-03    -132.236E+06    -78.9911E+06    -124.475E+06    -7.76471E+06    -259.191E-03     526.304E-03    -267.113E-03    -48.9495E-03    -260.282E-03     525.451E-03    -267.430E-03    -49.9455E-03
             103    -2.99771E-06     189.800E-03    -236.686E+06    -140.462E+06    -225.976E+06    -11.9713E+06    -189.247E-03     373.391E-03    -184.143E-03     4.94574E-03    -189.948E-03     373.313E-03    -184.726E-03     4.83230E-03
             104     3.25834E-06     188.472E-03    -320.175E+06    -211.801E+06    -324.970E+06    -12.8133E+06    -166.272E-03     328.696E-03    -162.424E-03     15.7340E-03    -167.101E-03     328.567E-03    -163.277E-03     15.4877E-03
             105     2.26998E-06     187.169E-03    -304.288E+06    -246.494E+06    -300.453E+06    -874.533E+03    -167.400E-03     328.515E-03    -161.115E-03     25.0554E-03    -168.131E-03     328.157E-03    -161.818E-03     25.0374E-03
             106     1.53444E-06     185.844E-03    -191.103E+06    -236.941E+06    -188.546E+06     5.19653E+06    -179.948E-03     355.553E-03    -175.606E-03     27.2907E-03    -180.303E-03     354.911E-03    -175.928E-03     27.2118E-03
             107     957.382E-09     184.469E-03    -143.411E+06    -218.791E+06    -140.559E+06     1.82243E+06    -199.634E-03     396.289E-03    -196.655E-03     27.1028E-03    -199.858E-03     395.594E-03    -196.833E-03     26.8173E-03
             108     768.470E-09     183.029E-03    -133.020E+06    -216.325E+06    -135.040E+06    -834.834E+03    -222.621E-03     442.846E-03    -220.226E-03     26.0401E-03    -222.812E-03     442.142E-03    -220.395E-03     25.4520E-03
             109     778.234E-09     181.519E-03    -127.736E+06    -219.961E+06    -127.248E+06    -91.3572E+03    -246.251E-03     489.907E-03    -243.656E-03     23.9674E-03    -246.425E-03     489.172E-03    -243.788E-03     23.0121E-03
             110     1.20914E-06     179.937E-03    -127.220E+06    -226.532E+06    -136.548E+06    -1.97653E+06    -267.635E-03     532.943E-03    -265.307E-03     21.8641E-03    -267.783E-03     532.199E-03    -265.477E-03     20.4649E-03
             111    -158.022E-09     178.288E-03    -129.944E+06    -230.642E+06    -130.653E+06     9.86247E+03    -284.222E-03     567.769E-03    -283.547E-03     19.5847E-03    -284.385E-03     567.012E-03    -283.677E-03     17.6820E-03
             112    -62.9539E-09     176.591E-03    -138.808E+06    -234.683E+06    -139.753E+06    -1.13315E+06    -295.859E-03     591.833E-03    -295.974E-03     17.1258E-03    -296.046E-03     591.093E-03    -296.131E-03     14.6880E-03
             113     49.8076E-09     174.862E-03    -148.110E+06    -240.090E+06    -149.381E+06    -69.0304E+03    -303.010E-03     606.156E-03    -303.145E-03     15.6092E-03    -303.223E-03     605.422E-03    -303.329E-03     12.8164E-03
             114    -280.550E-09     173.114E-03    -150.354E+06    -243.521E+06    -149.494E+06    -529.991E+03    -306.347E-03     612.891E-03    -306.544E-03     14.3695E-03    -306.564E-03     612.144E-03    -306.720E-03     11.4039E-03
             115     217.506E-09     171.363E-03    -147.772E+06    -250.276E+06    -149.219E+06    -935.511E+03    -307.021E-03     614.060E-03    -307.039E-03     13.4085E-03    -307.215E-03     613.274E-03    -307.208E-03     10.4012E-03
             116    -217.546E-09     169.613E-03    -149.841E+06    -254.824E+06    -149.534E+06    -129.536E+03    -305.988E-03     611.805E-03    -305.817E-03     12.8923E-03    -306.186E-03     611.000E-03    -305.978E-03     9.81737E-03
             117     429.032E-09     167.868E-03    -151.861E+06    -259.725E+06    -151.322E+06    -1.31226E+06    -304.317E-03     608.044E-03    -303.727E-03     13.0534E-03    -304.516E-03     607.221E-03    -303.887E-03     9.96666E-03
             118     129.953E-09     166.131E-03    -147.735E+06    -264.284E+06    -148.280E+06     281.757E+03    -302.240E-03     603.704E-03    -301.464E-03     13.2636E-03    -302.417E-03     602.848E-03    -301.608E-03     10.2337E-03
             119     318.152E-09     164.403E-03    -143.674E+06    -261.733E+06    -143.659E+06     656.885E+03    -300.182E-03     599.643E-03    -299.461E-03     13.5958E-03    -300.350E-03     598.788E-03    -299.591E-03     10.5668E-03
             120     171.222E-09     162.680E-03    -142.736E+06    -261.983E+06    -142.668E+06    -1.01565E+06    -298.504E-03     596.349E-03    -297.846E-03     13.7234E-03    -298.668E-03     595.491E-03    -297.972E-03     10.7080E-03
             121     192.634E-09     160.963E-03    -142.828E+06    -264.041E+06    -143.424E+06     256.761E+03    -296.914E-03     593.498E-03    -296.584E-03     13.9509E-03    -297.075E-03     592.631E-03    -296.711E-03     10.9473E-03
             122    -148.194E-09     159.250E-03    -142.274E+06    -262.375E+06    -141.359E+06     105.260E+03    -295.783E-03     591.363E-03    -295.579E-03     14.2358E-03    -295.948E-03     590.501E-03    -295.699E-03     11.2311E-03
             123     353.599E-09     157.540E-03    -135.066E+06    -266.541E+06    -135.355E+06    -1.11121E+06    -295.299E-03     590.101E-03    -294.802E-03     14.4986E-03    -295.430E-03     589.200E-03    -294.897E-03     11.4832E-03
             124     68.8922E-09     155.831E-03    -135.720E+06    -269.484E+06    -135.542E+06     298.133E+03    -294.953E-03     589.284E-03    -294.331E-03     14.6897E-03    -295.084E-03     588.370E-03    -294.422E-03     11.6951E-03
             125     305.441E-09     154.124E-03    -135.028E+06    -268.099E+06    -134.278E+06     22.8636E+03    -294.559E-03     588.436E-03    -293.877E-03     14.5244E-03    -294.689E-03     587.525E-03    -293.964E-03     11.5642E-03
             126     204.966E-09     152.419E-03    -131.059E+06    -269.623E+06    -130.788E+06    -498.933E+03    -294.253E-03     587.503E-03    -293.250E-03     14.1153E-03    -294.364E-03     586.572E-03    -293.323E-03     11.2388E-03
             127     598.362E-09     150.716E-03    -129.819E+06    -268.551E+06    -130.394E+06     738.876E+03    -294.132E-03     587.011E-03    -292.878E-03     14.0454E-03    -294.239E-03     586.082E-03    -292.952E-03     11.1815E-03
             128     242.826E-09     149.011E-03    -134.871E+06    -262.669E+06    -135.116E+06     1.09846E+06    -293.749E-03     586.666E-03    -292.918E-03     14.2464E-03    -293.884E-03     585.783E-03    -293.017E-03     11.3054E-03
             129    -3.80425E-09     147.308E-03    -136.141E+06    -257.421E+06    -136.225E+06     410.784E+03    -293.217E-03     585.995E-03    -292.778E-03     14.1893E-03    -293.364E-03     585.140E-03    -292.888E-03     11.2796E-03
             130     319.780E-09     145.607E-03    -126.632E+06    -254.879E+06    -126.854E+06    -235.275E+03    -293.131E-03     585.752E-03    -292.621E-03     14.5862E-03    -293.249E-03     584.884E-03    -292.702E-03     11.6868E-03
             131     8.37938E-09     143.904E-03    -131.746E+06    -252.514E+06    -131.724E+06     532.861E+03    -293.119E-03     585.746E-03    -292.627E-03     14.5995E-03    -293.259E-03     584.905E-03    -292.729E-03     11.6722E-03
             132     285.499E-09     142.203E-03    -136.001E+06    -246.975E+06    -135.737E+06     1.25779E+06    -293.215E-03     585.642E-03    -292.427E-03     14.5623E-03    -293.379E-03     584.840E-03    -292.550E-03     11.6257E-03
             133     444.208E-09     140.501E-03    -134.166E+06    -240.135E+06    -133.547E+06     696.651E+03    -293.501E-03     585.786E-03    -292.285E-03     14.7596E-03    -293.669E-03     585.013E-03    -292.410E-03     11.8082E-03
             134     425.237E-09     138.799E-03    -135.361E+06    -237.751E+06    -135.797E+06     197.229E+03    -293.676E-03     586.065E-03    -292.390E-03     14.6894E-03    -293.850E-03     585.309E-03    -292.527E-03     11.7537E-03
             135     389.253E-09     137.096E-03    -135.938E+06    -236.957E+06    -135.611E+06     250.263E+03    -293.654E-03     586.379E-03    -292.726E-03     14.6655E-03    -293.832E-03     585.628E-03    -292.863E-03     11.7306E-03
             136     5.61834E-09     135.392E-03    -134.489E+06    -235.709E+06    -134.830E+06    -65.5752E+03    -293.597E-03     586.447E-03    -292.850E-03     14.4365E-03    -293.771E-03     585.698E-03    -292.987E-03     11.4747E-03
             137     563.922E-09     133.690E-03    -134.391E+06    -234.878E+06    -134.522E+06     127.153E+03    -293.556E-03     586.137E-03    -292.581E-03     14.3555E-03    -293.730E-03     585.392E-03    -292.718E-03     11.4043E-03
             138     139.323E-09     131.987E-03    -132.530E+06    -233.398E+06    -133.756E+06     107.193E+03    -293.393E-03     585.835E-03    -292.442E-03     14.5678E-03    -293.562E-03     585.094E-03    -292.580E-03     11.6255E-03
             139     386.972E-09     130.285E-03    -132.779E+06    -233.495E+06    -133.386E+06    -295.400E+03    -293.011E-03     585.244E-03    -292.233E-03     14.2941E-03    -293.180E-03     584.501E-03    -292.369E-03     11.3978E-03
             140     90.5967E-09     128.585E-03    -136.002E+06    -236.292E+06    -135.984E+06    -119.246E+03    -292.772E-03     584.790E-03    -292.019E-03     14.3467E-03    -292.949E-03     584.041E-03    -292.159E-03     11.4731E-03
             141     406.104E-09     126.885E-03    -127.224E+06    -237.865E+06    -127.322E+06    -155.128E+03    -292.887E-03     585.127E-03    -292.240E-03     14.6590E-03    -293.031E-03     584.345E-03    -292.347E-03     11.7690E-03
             142    -75.4875E-09     125.182E-03    -128.004E+06    -240.261E+06    -128.090E+06    -670.915E+03    -292.634E-03     585.071E-03    -292.436E-03     14.9283E-03    -292.780E-03     584.281E-03    -292.543E-03     11.9669E-03
             143    -31.5183E-09     123.483E-03    -133.405E+06    -248.375E+06    -132.425E+06    -1.48247E+06    -292.618E-03     585.048E-03    -292.430E-03     15.0012E-03    -292.773E-03     584.232E-03    -292.539E-03     12.0007E-03
             144     357.551E-09     121.782E-03    -129.103E+06    -253.838E+06    -129.050E+06     137.982E+03    -293.170E-03     585.462E-03    -292.292E-03     14.5025E-03    -293.299E-03     584.606E-03    -292.382E-03     11.5667E-03
             145     459.539E-09     120.080E-03    -133.973E+06    -246.925E+06    -134.788E+06     1.81308E+06    -293.547E-03     585.618E-03    -292.071E-03     14.3042E-03    -293.702E-03     584.812E-03    -292.192E-03     11.3923E-03
             146     665.065E-09     118.379E-03    -130.833E+06    -242.749E+06    -130.437E+06    -568.845E+03    -293.752E-03     585.843E-03    -292.092E-03     14.3319E-03    -293.903E-03     585.047E-03    -292.202E-03     11.4240E-03
             147     407.735E-09     116.676E-03    -130.698E+06    -243.550E+06    -132.458E+06     360.814E+03    -293.570E-03     585.822E-03    -292.252E-03     14.3168E-03    -293.716E-03     585.024E-03    -292.371E-03     11.4165E-03
             148     239.318E-09     114.975E-03    -135.508E+06    -236.135E+06    -134.915E+06     1.42242E+06    -293.053E-03     585.379E-03    -292.326E-03     14.2373E-03    -293.230E-03     584.629E-03    -292.462E-03     11.3617E-03
             149     59.1796E-09     113.273E-03    -132.812E+06    -231.317E+06    -133.364E+06    -283.488E+03    -292.683E-03     585.079E-03    -292.396E-03     14.4620E-03    -292.856E-03     584.347E-03    -292.534E-03     11.5814E-03
             150    -13.9533E-09     111.573E-03    -134.004E+06    -232.623E+06    -134.549E+06    -64.5537E+03    -292.733E-03     585.205E-03    -292.472E-03     14.5175E-03    -292.909E-03     584.470E-03    -292.613E-03     11.6081E-03
             151     277.319E-09     109.871E-03    -134.648E+06    -233.535E+06    -134.170E+06    -72.6581E+03    -292.839E-03     585.486E-03    -292.646E-03     14.6564E-03    -293.017E-03     584.746E-03    -292.783E-03     11.7414E-03
             152    -317.145E-09     108.169E-03    -123.836E+06    -233.817E+06    -123.611E+06    -168.229E+03    -293.002E-03     586.132E-03    -293.130E-03     14.7835E-03    -293.141E-03     585.361E-03    -293.229E-03     11.8714E-03
             153     145.736E-09     106.466E-03    -126.615E+06    -237.307E+06    -125.844E+06    -557.743E+03    -293.506E-03     586.698E-03    -293.192E-03     14.3348E-03    -293.650E-03     585.915E-03    -293.294E-03     11.3944E-03
             154     417.958E-09     104.762E-03    -136.085E+06    -237.410E+06    -134.994E+06     1.03290E+06    -293.900E-03     586.801E-03    -292.901E-03     14.4748E-03    -294.079E-03     586.046E-03    -293.034E-03     11.5264E-03
             155     332.193E-09     103.058E-03    -131.543E+06    -228.960E+06    -132.206E+06     1.13847E+06    -293.921E-03     586.649E-03    -292.728E-03     14.4304E-03    -294.093E-03     585.925E-03    -292.866E-03     11.5211E-03
             156     476.730E-09     101.355E-03    -131.648E+06    -225.792E+06    -132.712E+06    -632.537E+03    -293.688E-03     586.220E-03    -292.532E-03     14.3652E-03    -293.864E-03     585.513E-03    -292.677E-03     11.4409E-03
             157     220.537E-09     99.6523E-03    -133.667E+06    -228.920E+06    -132.979E+06    -210.814E+03    -293.231E-03     585.740E-03    -292.510E-03     14.2760E-03    -293.411E-03     585.020E-03    -292.649E-03     11.3760E-03
             158     20.2123E-09     97.9506E-03    -134.970E+06    -230.758E+06    -134.774E+06    -589.366E+03    -292.758E-03     585.124E-03    -292.366E-03     13.9803E-03    -292.939E-03     584.398E-03    -292.509E-03     11.1137E-03
             159     202.146E-09     94.5498E-03    -130.932E+06    -242.374E+06    -131.926E+06     720.740E+03    -292.830E-03     584.992E-03    -292.161E-03     14.2313E-03    -292.978E-03     584.198E-03    -292.279E-03     11.3950E-03
             160     213.510E-09     92.8489E-03    -134.209E+06    -234.870E+06    -133.306E+06     1.49686E+06    -292.909E-03     585.314E-03    -292.405E-03     14.5903E-03    -293.083E-03     584.565E-03    -292.536E-03     11.7517E-03
             161     14.0259E-09     91.1464E-03    -133.669E+06    -232.554E+06    -133.821E+06    -666.256E+03    -293.027E-03     585.426E-03    -292.399E-03     14.6369E-03    -293.201E-03     584.689E-03    -292.537E-03     11.7867E-03
             162     558.106E-09     89.4452E-03    -133.461E+06    -240.507E+06    -131.884E+06    -1.46348E+06    -293.162E-03     585.471E-03    -292.309E-03     14.9633E-03    -293.326E-03     584.691E-03    -292.426E-03     12.0833E-03
             163    -17.2300E-09     87.7436E-03    -129.461E+06    -248.845E+06    -129.773E+06    -633.249E+03    -293.322E-03     585.843E-03    -292.521E-03     15.0320E-03    -293.458E-03     585.014E-03    -292.621E-03     12.1192E-03
             164     503.011E-09     86.0410E-03    -131.856E+06    -243.656E+06    -133.027E+06     1.83417E+06    -293.321E-03     585.755E-03    -292.434E-03     14.6133E-03    -293.472E-03     584.960E-03    -292.555E-03     11.7102E-03
             165     152.655E-09     84.3401E-03    -135.761E+06    -234.925E+06    -134.563E+06     256.368E+03    -293.064E-03     585.307E-03    -292.244E-03     14.5041E-03    -293.244E-03     584.563E-03    -292.379E-03     11.5985E-03
             166     265.187E-09     82.6394E-03    -130.600E+06    -238.108E+06    -131.486E+06    -993.458E+03    -293.024E-03     585.287E-03    -292.263E-03     14.2366E-03    -293.178E-03     584.514E-03    -292.386E-03     11.3620E-03
             167     295.653E-09     80.9380E-03    -131.571E+06    -240.481E+06    -131.512E+06     425.786E+03    -293.060E-03     585.291E-03    -292.231E-03     14.0522E-03    -293.215E-03     584.508E-03    -292.349E-03     11.1656E-03
             168     223.940E-09     79.2374E-03    -136.338E+06    -236.890E+06    -136.316E+06     416.294E+03    -293.085E-03     585.322E-03    -292.236E-03     14.1655E-03    -293.264E-03     584.571E-03    -292.377E-03     11.2292E-03
             169     364.562E-09     77.5351E-03    -125.685E+06    -234.760E+06    -125.414E+06     153.493E+03    -293.296E-03     585.522E-03    -292.226E-03     14.1727E-03    -293.439E-03     584.750E-03    -292.330E-03     11.2868E-03
             170     452.175E-09     75.8335E-03    -125.518E+06    -236.275E+06    -127.324E+06    -447.532E+03    -293.148E-03     585.280E-03    -292.132E-03     14.2049E-03    -293.283E-03     584.501E-03    -292.244E-03     11.4081E-03
             171     40.8632E-09     74.1328E-03    -134.835E+06    -237.043E+06    -135.595E+06     50.3496E+03    -292.929E-03     585.050E-03    -292.121E-03     14.3356E-03    -293.098E-03     584.293E-03    -292.260E-03     11.5346E-03
             172     505.040E-09     72.4316E-03    -131.356E+06    -239.464E+06    -130.695E+06    -600.993E+03    -293.099E-03     585.234E-03    -292.135E-03     14.5771E-03    -293.257E-03     584.455E-03    -292.251E-03     11.6812E-03
             173     210.275E-09     70.7301E-03    -132.016E+06    -239.840E+06    -133.649E+06     554.631E+03    -293.035E-03     585.175E-03    -292.140E-03     14.5141E-03    -293.190E-03     584.398E-03    -292.269E-03     11.6766E-03
             174     220.983E-09     69.0300E-03    -135.232E+06    -233.226E+06    -134.589E+06     1.27232E+06    -292.692E-03     585.135E-03    -292.443E-03     14.5809E-03    -292.871E-03     584.397E-03    -292.581E-03     11.7848E-03
             175    -354.958E-09     67.3281E-03    -137.575E+06    -232.774E+06    -135.223E+06    -982.235E+03    -292.784E-03     585.470E-03    -292.686E-03     14.5748E-03    -292.976E-03     584.740E-03    -292.825E-03     11.6672E-03
             176     600.680E-09     65.6266E-03    -132.272E+06    -239.411E+06    -132.469E+06    -768.883E+03    -293.349E-03     585.975E-03    -292.626E-03     14.5717E-03    -293.508E-03     585.200E-03    -292.750E-03     11.6719E-03
             177     81.5808E-09     63.9236E-03    -129.978E+06    -239.735E+06    -130.916E+06     741.364E+03    -293.522E-03     586.214E-03    -292.692E-03     14.4868E-03    -293.671E-03     585.431E-03    -292.810E-03     11.6477E-03
             178     302.395E-09     62.2210E-03    -134.434E+06    -234.882E+06    -133.879E+06     172.557E+03    -293.298E-03     586.123E-03    -292.825E-03     14.5373E-03    -293.473E-03     585.376E-03    -292.959E-03     11.6251E-03
             179    -84.8901E-09     60.5182E-03    -127.688E+06    -238.003E+06    -127.949E+06    -979.242E+03    -293.308E-03     586.046E-03    -292.738E-03     14.5206E-03    -293.453E-03     585.266E-03    -292.848E-03     11.5860E-03
             180     591.623E-09     58.8157E-03    -127.745E+06    -239.520E+06    -128.508E+06     703.583E+03    -293.091E-03     585.642E-03    -292.551E-03     14.3612E-03    -293.232E-03     584.853E-03    -292.661E-03     11.5560E-03
             181    -420.526E-09     57.1152E-03    -131.468E+06    -231.986E+06    -131.485E+06     1.26990E+06    -292.708E-03     585.185E-03    -292.477E-03     14.1378E-03    -292.873E-03     584.442E-03    -292.607E-03     11.3564E-03
             182     521.320E-09     55.4143E-03    -130.486E+06    -226.623E+06    -130.561E+06     291.211E+03    -292.695E-03     585.050E-03    -292.355E-03     14.0715E-03    -292.866E-03     584.332E-03    -292.490E-03     11.1938E-03
             183    -200.066E-09     53.7133E-03    -131.626E+06    -226.601E+06    -131.642E+06    -345.805E+03    -292.728E-03     585.025E-03    -292.297E-03     14.1151E-03    -292.903E-03     584.311E-03    -292.436E-03     11.2225E-03
             184     422.663E-09     52.0130E-03    -132.274E+06    -227.651E+06    -132.482E+06    -90.2393E+03    -293.188E-03     585.330E-03    -292.142E-03     13.8991E-03    -293.363E-03     584.612E-03    -292.283E-03     11.0513E-03
             185     724.257E-09     50.3106E-03    -132.196E+06    -227.581E+06    -131.838E+06     340.431E+03    -293.630E-03     585.726E-03    -292.096E-03     14.0499E-03    -293.805E-03     585.007E-03    -292.234E-03     11.2295E-03
             186     155.741E-09     48.6084E-03    -132.323E+06    -230.220E+06    -132.671E+06    -1.08222E+06    -293.090E-03     585.619E-03    -292.529E-03     14.2042E-03    -293.260E-03     584.888E-03    -292.667E-03     11.3912E-03
             187    -324.814E-09     46.9065E-03    -127.601E+06    -237.636E+06    -127.260E+06    -966.925E+03    -292.830E-03     585.477E-03    -292.648E-03     14.1473E-03    -292.973E-03     584.694E-03    -292.754E-03     11.3806E-03
             188     701.670E-09     45.2048E-03    -127.739E+06    -238.804E+06    -127.862E+06     790.751E+03    -293.229E-03     585.506E-03    -292.277E-03     14.2219E-03    -293.370E-03     584.718E-03    -292.385E-03     11.4936E-03
             189     157.024E-09     43.5035E-03    -132.132E+06    -231.050E+06     -132.09E+06     1.39233E+06    -293.145E-03     585.267E-03    -292.121E-03     14.1679E-03    -293.314E-03     584.530E-03    -292.255E-03     11.3933E-03
             190     320.940E-09     41.8031E-03    -131.443E+06    -225.903E+06    -130.964E+06    -314.100E+03    -292.917E-03     584.997E-03    -292.080E-03     14.0014E-03    -293.091E-03     584.283E-03    -292.217E-03     11.1976E-03
             191     293.041E-09     40.1020E-03    -132.057E+06    -226.340E+06    -132.745E+06     -22.445E+03    -292.842E-03     584.764E-03    -291.922E-03     13.9687E-03    -293.016E-03     584.052E-03    -292.066E-03     11.1693E-03
             192     286.574E-09     38.4021E-03    -131.492E+06    -225.798E+06    -131.248E+06     287.320E+03    -292.467E-03     584.130E-03    -291.663E-03     13.8094E-03    -292.640E-03     583.416E-03    -291.801E-03     11.0638E-03
             193     180.217E-09     36.7033E-03    -130.715E+06    -225.304E+06    -131.296E+06    -36.9802E+03    -292.072E-03     583.409E-03    -291.337E-03     13.8650E-03    -292.241E-03     582.696E-03    -291.478E-03     11.1757E-03
             194     297.021E-09     35.0058E-03    -130.957E+06    -224.324E+06    -130.692E+06     704.638E+03    -291.823E-03     582.910E-03    -291.087E-03     13.8129E-03    -291.996E-03     582.201E-03    -291.225E-03     11.1257E-03
             195     180.475E-09     33.3090E-03    -130.356E+06    -221.944E+06    -130.352E+06    -217.342E+03    -291.438E-03     582.281E-03    -290.843E-03     13.6896E-03    -291.611E-03     581.582E-03    -290.984E-03     11.0270E-03
             196     105.506E-09     31.6135E-03    -129.640E+06    -222.438E+06    -130.352E+06     187.615E+03    -290.903E-03     581.433E-03    -290.530E-03     13.4881E-03    -291.071E-03     580.730E-03    -290.671E-03     10.8708E-03
             197     69.2602E-09     29.9199E-03    -128.489E+06    -222.942E+06    -128.453E+06    -122.773E+03    -290.285E-03     580.312E-03    -290.027E-03     13.2378E-03    -290.448E-03     579.601E-03    -290.160E-03     10.6275E-03
             198     70.3840E-09     28.2279E-03    -126.452E+06    -222.232E+06    -126.886E+06    -189.062E+03    -289.275E-03     578.514E-03    -289.239E-03     12.8703E-03    -289.431E-03     577.801E-03    -289.368E-03     10.2949E-03
             199    -193.904E-09     26.5406E-03    -125.176E+06    -221.443E+06    -125.354E+06     266.376E+03    -287.709E-03     575.722E-03    -288.013E-03     12.3113E-03    -287.860E-03     575.006E-03    -288.137E-03     9.81880E-03
             200    -118.760E-09     24.8583E-03    -123.684E+06    -220.551E+06    -123.861E+06     157.437E+03    -285.475E-03     571.573E-03    -286.097E-03     11.5273E-03    -285.620E-03     570.855E-03    -286.217E-03     9.14544E-03
             201    -429.959E-09     23.1850E-03    -123.096E+06    -218.742E+06    -123.118E+06     138.353E+03    -282.258E-03     565.352E-03    -283.094E-03     10.3409E-03    -282.400E-03     564.638E-03    -283.214E-03     8.11286E-03
             202    -164.916E-09     21.5241E-03    -123.292E+06    -217.926E+06    -123.580E+06    -55.5335E+03    -278.018E-03     556.760E-03    -278.742E-03     9.10256E-03    -278.158E-03     556.046E-03    -278.866E-03     7.05011E-03
             203    -229.155E-09     19.8789E-03    -123.172E+06    -217.007E+06    -123.324E+06     288.564E+03    -272.588E-03     545.791E-03    -273.203E-03     7.99145E-03    -272.727E-03     545.078E-03    -273.326E-03     6.11086E-03
             204    -212.056E-09     18.2541E-03    -122.814E+06    -215.027E+06    -122.946E+06     237.038E+03    -265.861E-03     532.459E-03    -266.598E-03     6.76662E-03    -266.000E-03     531.752E-03    -266.723E-03     5.05348E-03
             205    -346.570E-09     16.6529E-03    -120.660E+06    -212.265E+06    -120.815E+06     543.900E+03    -258.221E-03     517.178E-03    -258.956E-03     5.45585E-03    -258.354E-03     516.475E-03    -259.078E-03     3.93105E-03
             206    -90.7364E-09     15.0771E-03    -117.349E+06    -210.151E+06    -117.144E+06     46.4195E+03    -249.969E-03     500.429E-03    -250.460E-03     4.08455E-03    -250.092E-03     499.724E-03    -250.571E-03     2.73664E-03
             207    -124.755E-09     13.5292E-03    -114.217E+06    -210.524E+06    -114.279E+06    -118.931E+03    -241.329E-03     483.031E-03    -241.702E-03     2.96455E-03    -241.438E-03     482.313E-03    -241.803E-03     1.78024E-03
             208    -156.346E-09     12.0076E-03    -113.194E+06    -211.322E+06    -112.627E+06    -121.562E+03    -232.724E-03     465.607E-03    -232.883E-03     1.68766E-03    -232.828E-03     464.880E-03    -232.975E-03     623.681E-06
             209     251.743E-09     10.5126E-03    -122.366E+06    -214.142E+06    -121.986E+06    -737.034E+03    -224.543E-03     448.640E-03    -224.097E-03     772.012E-06    -224.674E-03     447.926E-03    -224.219E-03    -265.993E-06
             210     329.641E-09     9.04208E-03    -123.111E+06    -214.052E+06    -123.028E+06     472.549E+03    -218.318E-03     436.030E-03    -217.712E-03     1.68041E-03    -218.451E-03     435.322E-03    -217.838E-03     617.376E-06
             211    -16.5113E-09     7.58492E-03    -118.896E+06    -207.923E+06    -117.368E+06     1.72441E+06    -217.080E-03     434.122E-03    -217.042E-03     4.25538E-03    -217.211E-03     433.433E-03    -217.155E-03     3.21603E-03
             212    -214.863E-09     6.11936E-03    -113.121E+06    -203.887E+06    -112.136E+06     129.431E+03    -221.995E-03     444.875E-03    -222.881E-03     6.60585E-03    -222.113E-03     444.189E-03    -222.982E-03     5.62216E-03
             213    -799.848E-09     4.62884E-03    -97.9807E+06    -206.613E+06    -98.3298E+06    -646.052E+03    -230.739E-03     463.098E-03    -232.359E-03     6.85217E-03    -230.796E-03     462.353E-03    -232.409E-03     5.96640E-03
             214    -480.019E-09     3.10855E-03    -87.5587E+06    -209.587E+06    -87.8844E+06     14.9282E+03    -240.000E-03     481.645E-03    -241.645E-03     5.53944E-03    -240.013E-03     480.853E-03    -241.653E-03     4.85004E-03
             215    -555.496E-09     1.56134E-03     -72.486E+06    -210.748E+06    -72.8761E+06    -346.918E+03    -246.688E-03     494.879E-03    -248.191E-03     2.94173E-03    -246.641E-03     494.037E-03    -248.144E-03     2.54882E-03
             216     700.579E-06    -21.5800E-15    -61.3535E+06    -207.864E+06    -60.8146E+06    -657.566E+03    -249.353E-03     499.481E-03    -250.128E-03     2.13137E-03    -249.270E-03     498.620E-03    -250.042E-03     1.78416E-03
             217     1.40087E-03    -21.5800E-15    -59.8917E+06    -196.281E+06    -56.4484E+06     339.240E+03    -249.666E-03     499.401E-03    -249.735E-03     4.45920E-03    -249.602E-03     498.591E-03    -249.646E-03     3.83455E-03
             218     2.10096E-03    -21.5800E-15    -58.6559E+06    -180.571E+06    -51.2980E+06     1.77835E+06    -249.566E-03     499.277E-03    -249.712E-03     7.10225E-03    -249.530E-03     498.541E-03    -249.621E-03     6.19069E-03
             219     2.80151E-03    -21.5800E-15    -57.3966E+06    -160.331E+06    -45.1250E+06     1.77975E+06    -249.597E-03     499.294E-03    -249.697E-03     9.66050E-03    -249.598E-03     498.653E-03    -249.607E-03     8.45780E-03
             220     3.50173E-03    -21.5800E-15    -54.1798E+06    -135.216E+06    -37.5630E+06    -1.33049E+06    -249.864E-03     499.587E-03    -249.723E-03     12.1018E-03    -249.903E-03     499.062E-03    -249.636E-03     10.5697E-03
             221     4.20189E-03    -21.5800E-15    -48.1691E+06    -106.601E+06    -28.9828E+06    -4.55294E+06    -250.447E-03     500.258E-03    -249.811E-03     14.3925E-03    -250.518E-03     499.863E-03    -249.731E-03     12.5290E-03
             222     4.90159E-03    -21.5800E-15    -40.4435E+06    -65.2525E+06    -17.4783E+06    -5.38378E+06    -251.504E-03     501.490E-03    -249.987E-03     16.5154E-03    -251.621E-03     501.283E-03    -249.921E-03     14.3576E-03
             223     5.60029E-03    -21.5800E-15    -31.9232E+06    -22.7382E+06    -2.08393E+06    -5.55142E+06    -253.265E-03     503.577E-03    -250.312E-03     18.8163E-03    -253.434E-03     503.558E-03    -250.244E-03     16.3753E-03
             224     6.29725E-03    -21.5800E-15    -24.5903E+06    -1.56439E+06     12.5618E+06    -1.91934E+06    -256.024E-03     506.873E-03    -250.848E-03     21.4244E-03    -256.221E-03     506.940E-03    -250.748E-03     18.7251E-03
             225     6.99198E-03    -21.5800E-15    -21.9431E+06     2.43949E+06     21.0933E+06     5.99190E+06    -259.916E-03     511.533E-03    -251.617E-03     24.4881E-03    -260.134E-03     511.620E-03    -251.483E-03     21.5418E-03
             226     7.68293E-03    -21.5800E-15    -24.7752E+06    -1.44843E+06     21.7963E+06     10.2727E+06    -265.100E-03     517.741E-03    -252.641E-03     28.0275E-03    -265.347E-03     517.832E-03    -252.494E-03     24.7295E-03
             227     8.37073E-03    -21.5800E-15    -28.3614E+06    -2.61790E+06     21.5853E+06     6.12235E+06    -272.222E-03     526.218E-03    -253.996E-03     30.8143E-03    -272.507E-03     526.333E-03    -253.843E-03     26.9082E-03
             228     9.05407E-03    -21.5800E-15    -27.5252E+06     3.77173E+06     28.6863E+06     2.56385E+06    -282.425E-03     538.240E-03    -255.815E-03     33.8582E-03    -282.755E-03     538.405E-03    -255.637E-03     29.2467E-03
             229     9.72671E-03    -21.5800E-15    -23.4971E+06     13.8511E+06     44.1030E+06     2.54816E+06    -297.051E-03     555.321E-03    -258.270E-03     41.5885E-03    -297.437E-03     555.547E-03    -258.035E-03     36.4483E-03
             230     10.3852E-03    -21.5800E-15    -19.3687E+06     24.0416E+06     59.4020E+06     182.570E+03    -318.133E-03     579.674E-03    -261.541E-03     54.9238E-03    -318.594E-03     579.986E-03    -261.250E-03     49.0743E-03
             231     11.0289E-03    -21.5800E-15    -16.1679E+06     32.0218E+06     67.3841E+06    -1.93473E+06    -349.653E-03     615.568E-03    -265.915E-03     69.4023E-03    -350.253E-03     616.047E-03    -265.601E-03     61.2700E-03
             232     11.6531E-03    -21.5800E-15    -13.1040E+06     40.8316E+06     72.8060E+06     342.959E+03    -397.304E-03     669.183E-03    -271.878E-03     85.3843E-03    -398.234E-03     670.039E-03    -271.555E-03     71.7395E-03
             233     12.2396E-03    -21.5800E-15    -9.97665E+06     51.8148E+06     77.4914E+06     2.93030E+06    -471.512E-03     751.619E-03    -280.106E-03     128.494E-03    -473.941E-03     754.045E-03    -279.779E-03     99.0502E-03
             234     12.7614E-03    -21.5800E-15    -1.39727E+06     69.8170E+06     87.1467E+06     1.06144E+06    -573.178E-03     864.443E-03    -291.265E-03     237.337E-03    -581.201E-03     872.500E-03    -290.928E-03     172.482E-03
             235     13.3693E-03     2.60670E-03    -2.92561E+06     73.6540E+06     81.2997E+06    -7.36447E+06    -544.518E-03     839.649E-03    -295.131E-03     253.738E-03    -554.051E-03     849.181E-03    -294.827E-03     184.018E-03
             236     13.4053E-03     4.59206E-03    -4.74888E+06     64.4932E+06     71.7422E+06    -8.86766E+06    -427.722E-03     720.153E-03    -292.430E-03     188.619E-03    -433.930E-03     726.343E-03    -292.158E-03     141.015E-03
             237     13.4165E-03     6.42756E-03     471.539E+03     61.0497E+06     78.3937E+06    -741.920E+03    -385.988E-03     678.100E-03    -292.112E-03     163.123E-03    -391.018E-03     683.108E-03    -291.809E-03     121.741E-03
             238     13.4230E-03     8.25970E-03    -1.86545E+06     60.2173E+06     82.0220E+06     2.68836E+06    -366.714E-03     658.749E-03    -292.035E-03     137.729E-03    -370.971E-03     662.971E-03    -291.710E-03     99.5671E-03
             239     13.4250E-03     10.0665E-03    -3.53582E+06     59.7623E+06     81.4669E+06    -259.773E+03    -350.004E-03     642.189E-03    -292.185E-03     130.329E-03    -354.109E-03     646.256E-03    -291.859E-03     93.4988E-03
             240     13.4269E-03     11.8512E-03    -2.46827E+06     58.0855E+06     82.1514E+06    -2.09715E+06    -337.018E-03     629.421E-03    -292.403E-03     126.037E-03    -340.944E-03     633.306E-03    -292.073E-03     90.8277E-03
             241     13.4262E-03     13.6151E-03    -1.40721E+06     55.8491E+06     83.8950E+06     74.3354E+03    -325.384E-03     618.094E-03    -292.710E-03     118.703E-03    -329.083E-03     621.742E-03    -292.369E-03     85.1606E-03
             242     13.4247E-03     15.3535E-03    -1.99754E+06     54.7235E+06     82.7715E+06     1.41965E+06    -315.527E-03     608.509E-03    -292.983E-03     114.975E-03    -319.099E-03     612.028E-03    -292.645E-03     82.6606E-03
             243     13.4266E-03     17.0878E-03    -2.59643E+06     54.9584E+06     82.3473E+06     147.968E+03    -308.825E-03     601.930E-03    -293.105E-03     113.781E-03    -312.310E-03     605.362E-03    -292.769E-03     82.3488E-03
             244     13.4267E-03     18.8138E-03    -1.92107E+06     53.0843E+06     81.2702E+06    -959.208E+03    -303.602E-03     596.788E-03    -293.186E-03     111.001E-03    -306.962E-03     600.094E-03    -292.854E-03     80.4196E-03
             245     13.4270E-03     20.5277E-03    -1.93848E+06     52.8035E+06     80.1964E+06     250.297E+03    -298.838E-03     592.124E-03    -293.285E-03     108.192E-03    -302.085E-03     595.318E-03    -292.958E-03     78.4859E-03
             246     13.4271E-03     22.2358E-03    -2.30384E+06     53.6668E+06     80.7847E+06     74.5182E+03    -294.850E-03     588.184E-03    -293.335E-03     105.953E-03    -298.008E-03     591.290E-03    -293.005E-03     76.9454E-03
             247     13.4294E-03     23.9372E-03    -2.58230E+06     50.6413E+06     77.9425E+06    -1.43649E+06    -291.784E-03     585.030E-03    -293.246E-03     105.161E-03    -294.901E-03     588.091E-03    -292.926E-03     76.4566E-03
             248     13.4330E-03     25.6349E-03    -3.13806E+06     49.0946E+06     80.7502E+06    -1.85882E+06    -290.807E-03     583.918E-03    -293.110E-03     102.466E-03    -293.847E-03     586.886E-03    -292.773E-03     74.0715E-03
             249     13.4327E-03     27.3383E-03    -1.84551E+06     50.8434E+06     82.6122E+06    -393.688E+03    -292.386E-03     585.404E-03    -293.017E-03     100.559E-03    -295.288E-03     588.240E-03    -292.675E-03     72.8716E-03
             250     13.4328E-03     29.0444E-03    -4.97357E+06     46.9333E+06     75.2294E+06    -377.347E+03    -292.735E-03     585.637E-03    -292.902E-03     100.941E-03    -295.579E-03     588.412E-03    -292.587E-03     73.6305E-03
             251     13.4372E-03     30.7414E-03    -889.124E+03     50.8582E+06     80.2179E+06    -1.52649E+06    -291.989E-03     584.872E-03    -292.883E-03     96.3197E-03    -294.775E-03     587.603E-03    -292.555E-03     68.9014E-03
             252     13.4306E-03     32.4470E-03    -887.475E+03     50.9280E+06     82.2352E+06     1.67576E+06    -292.619E-03     585.618E-03    -293.000E-03     94.0587E-03    -295.328E-03     588.267E-03    -292.661E-03     67.0754E-03
             253     13.4329E-03     34.1500E-03    -3.18144E+06     49.4466E+06     79.1587E+06     2.01860E+06    -292.044E-03     585.064E-03    -293.021E-03     97.3569E-03    -294.791E-03     587.746E-03    -292.692E-03     70.5008E-03
             254     13.4343E-03     35.8490E-03    -2.22379E+06     51.6427E+06     80.7718E+06    -180.311E+03    -291.758E-03     584.725E-03    -292.966E-03     95.7771E-03    -294.536E-03     587.444E-03    -292.634E-03     68.4545E-03
             255     13.4324E-03     37.5552E-03    -2.15654E+06     52.7847E+06     82.8264E+06     853.042E+03    -291.745E-03     584.706E-03    -292.961E-03     95.5227E-03    -294.499E-03     587.400E-03    -292.621E-03     68.4189E-03
             256     13.4356E-03     39.2544E-03    -833.758E+03     55.5847E+06     84.3643E+06    -312.216E+03    -291.044E-03     583.950E-03    -292.907E-03     97.2974E-03    -293.809E-03     586.665E-03    -292.564E-03     70.3027E-03
             257     13.4351E-03     40.9568E-03    -2.63592E+06     54.1111E+06     81.0167E+06    -1.23343E+06    -292.608E-03     585.448E-03    -292.840E-03     95.8834E-03    -295.369E-03     588.158E-03    -292.510E-03     68.6415E-03
             258     13.4334E-03     42.6633E-03    -3.45259E+06     53.2026E+06     80.4416E+06     40.9944E+03    -292.654E-03     585.501E-03    -292.848E-03     95.6096E-03    -295.399E-03     588.190E-03    -292.517E-03     68.5299E-03
             259     13.4368E-03     44.3626E-03    -1.97659E+06     51.2393E+06     83.4960E+06    -182.072E+03    -292.185E-03     585.118E-03    -292.933E-03     93.8818E-03    -294.913E-03     587.779E-03    -292.587E-03     66.7560E-03
             260     13.4285E-03     46.0705E-03    -2.52034E+06     49.3206E+06     83.0167E+06     375.616E+03    -291.955E-03     584.926E-03    -292.971E-03     96.6103E-03    -294.718E-03     587.614E-03    -292.624E-03     69.5001E-03
             261     13.4403E-03     47.7657E-03     2.58824E+06     54.5373E+06     84.0264E+06    -2.46864E+06    -290.868E-03     583.642E-03    -292.774E-03     99.6597E-03    -293.681E-03     586.414E-03    -292.436E-03     72.3183E-03
             262     13.4365E-03     49.4685E-03    -951.715E+03     52.5111E+06     80.4109E+06    -2.74855E+06    -293.368E-03     585.965E-03    -292.597E-03     95.3393E-03    -296.103E-03     588.650E-03    -292.270E-03     68.0447E-03
             263     13.4374E-03     51.1826E-03    -2.67525E+06     51.0112E+06     82.0983E+06     51.9818E+03    -294.797E-03     587.552E-03    -292.755E-03     92.5337E-03    -297.468E-03     590.156E-03    -292.415E-03     65.5306E-03
             264     13.4298E-03     52.8835E-03    -2.78229E+06     50.0058E+06     80.1627E+06     870.151E+03    -293.376E-03     586.309E-03    -292.933E-03     96.1492E-03    -296.102E-03     588.970E-03    -292.601E-03     69.2152E-03
             265     13.4366E-03     54.5894E-03    -5.26929E+06     50.0830E+06     78.1010E+06     2.08826E+06    -292.417E-03     585.410E-03    -292.994E-03     96.8332E-03    -295.131E-03     588.057E-03    -292.668E-03     70.2196E-03
             266     13.4285E-03     56.2950E-03    -2.44682E+06     52.5575E+06     77.4277E+06     477.146E+03    -291.844E-03     584.839E-03    -292.995E-03     99.1260E-03    -294.572E-03     587.520E-03    -292.680E-03     72.5667E-03
             267     13.4382E-03     57.9906E-03    -2.01734E+06     54.2146E+06     79.4807E+06    -40.9424E+03    -291.385E-03     584.291E-03    -292.905E-03     99.8059E-03    -294.140E-03     587.000E-03    -292.584E-03     73.1449E-03
             268     13.4326E-03     59.6960E-03    -929.569E+03     55.6359E+06     83.8547E+06     1.81654E+06    -291.047E-03     583.964E-03    -292.917E-03     95.4291E-03    -293.743E-03     586.612E-03    -292.577E-03     68.8431E-03
             269     13.4346E-03     61.3956E-03    -4.55473E+06     51.3927E+06     79.5430E+06     1.72910E+06    -291.137E-03     584.078E-03    -292.941E-03     98.8056E-03    -293.929E-03     586.806E-03    -292.611E-03     71.9054E-03
             270     13.4344E-03     63.0927E-03     172.719E+03     56.3718E+06     82.9009E+06    -736.270E+03    -291.268E-03     584.047E-03    -292.779E-03     99.8012E-03    -294.128E-03     586.867E-03    -292.446E-03     72.2995E-03
             271     13.4411E-03     64.7950E-03     696.753E+03     55.9377E+06     83.6437E+06    -1.56650E+06    -291.781E-03     584.427E-03    -292.647E-03     95.5300E-03    -294.547E-03     587.152E-03    -292.311E-03     68.1689E-03
             272     13.4341E-03     66.4996E-03    -4.79020E+06     50.3116E+06     81.0643E+06     796.455E+03    -293.254E-03     585.985E-03    -292.730E-03     93.7960E-03    -295.941E-03     588.598E-03    -292.391E-03     66.9443E-03
             273     13.4353E-03     68.2078E-03    -2.43458E+06     52.9297E+06     82.4039E+06     1.13996E+06    -291.585E-03     584.379E-03    -292.793E-03     97.5974E-03    -294.320E-03     587.054E-03    -292.454E-03     70.8569E-03
             274     13.4391E-03     69.8979E-03    -473.231E+03     55.4026E+06     84.7373E+06    -380.369E+03    -291.660E-03     584.429E-03    -292.769E-03     95.3314E-03    -294.413E-03     587.131E-03    -292.425E-03     68.1697E-03
             275     13.4314E-03     71.6093E-03    -5.42732E+06     51.6706E+06     82.2002E+06    -333.726E+03    -292.581E-03     585.389E-03    -292.807E-03     92.9193E-03    -295.284E-03     588.018E-03    -292.463E-03     65.9226E-03
             276     13.4395E-03     73.3048E-03    -361.582E+03     53.0050E+06     83.1314E+06    -2.65265E+06    -290.127E-03     582.843E-03    -292.716E-03     97.6514E-03    -292.886E-03     585.548E-03    -292.377E-03     70.6867E-03
             277     13.4392E-03     75.0043E-03     350.171E+03     52.3662E+06     81.5240E+06    -1.80786E+06    -292.215E-03     584.799E-03    -292.584E-03     94.2758E-03    -294.927E-03     587.462E-03    -292.253E-03     67.1432E-03
             278     13.4352E-03     76.7182E-03    -3.27858E+06     52.6099E+06     80.8956E+06     103.912E+03    -293.557E-03     586.203E-03    -292.646E-03     95.1029E-03    -296.233E-03     588.819E-03    -292.313E-03     68.4373E-03
             279     13.4387E-03     78.4155E-03    -456.340E+03     55.6128E+06     82.9287E+06     713.266E+03    -292.185E-03     584.926E-03    -292.741E-03     95.6746E-03    -294.861E-03     587.557E-03    -292.407E-03     69.1171E-03
             280     13.4326E-03     80.1209E-03    -5.03321E+06     51.0314E+06     81.0585E+06     3.47600E+06    -291.826E-03     584.704E-03    -292.878E-03     92.8415E-03    -294.472E-03     587.278E-03    -292.539E-03     66.4122E-03
             281     13.4347E-03     81.8173E-03    -2.82457E+06     51.9844E+06     80.5089E+06    -697.320E+03    -290.577E-03     583.429E-03    -292.853E-03     96.8317E-03    -293.311E-03     586.105E-03    -292.522E-03     70.0639E-03
             282     13.4395E-03     83.5126E-03     401.485E+03     55.5564E+06     83.1199E+06    -1.63066E+06    -291.396E-03     584.055E-03    -292.659E-03     95.9340E-03    -294.154E-03     586.770E-03    -292.324E-03     68.7112E-03
             283     13.4368E-03     85.2279E-03    -2.98965E+06     52.3252E+06     83.2543E+06     1.72281E+06    -293.317E-03     585.967E-03    -292.649E-03     94.9015E-03    -296.012E-03     588.595E-03    -292.305E-03     68.1230E-03
             284     13.4359E-03     86.9301E-03    -3.23438E+06     51.4821E+06     81.2005E+06    -284.173E+03    -291.173E-03     583.864E-03    -292.691E-03     98.1860E-03    -293.923E-03     586.550E-03    -292.355E-03     71.4109E-03
             285     13.4410E-03     88.6209E-03    -625.806E+03     56.0905E+06     85.2563E+06    -256.041E+03    -291.078E-03     583.758E-03    -292.681E-03     95.3012E-03    -293.803E-03     586.433E-03    -292.335E-03     68.4156E-03
             286     13.4327E-03     90.3304E-03    -2.50548E+06     54.3857E+06     84.2629E+06     701.265E+03    -293.079E-03     585.810E-03    -292.731E-03     93.7205E-03    -295.760E-03     588.430E-03    -292.385E-03     66.9490E-03
             287     13.4387E-03     92.0320E-03    -2.28891E+06     54.7614E+06     83.0483E+06    -922.268E+03    -291.555E-03     584.308E-03    -292.753E-03     97.6372E-03    -294.319E-03     587.018E-03    -292.414E-03     70.6824E-03
             288     13.4356E-03     93.7340E-03    -1.78651E+06     54.6652E+06     81.8130E+06    -1.10814E+06    -292.493E-03     585.256E-03    -292.762E-03     95.9224E-03    -295.235E-03     587.948E-03    -292.430E-03     68.8744E-03
             289     13.4336E-03     95.4391E-03    -4.50307E+06     51.9219E+06     79.1520E+06     1.11790E+06    -293.145E-03     586.062E-03    -292.917E-03     93.2152E-03    -295.804E-03     588.659E-03    -292.590E-03     66.5675E-03
             290     13.4315E-03     97.1421E-03    -2.59062E+06     52.5492E+06     80.2122E+06     1.98433E+06    -291.551E-03     584.609E-03    -293.058E-03     95.7295E-03    -294.198E-03     587.201E-03    -292.730E-03     69.5261E-03
             291     13.4328E-03     98.8410E-03    -2.90726E+06     50.1814E+06     80.5003E+06     1.35594E+06    -291.218E-03     584.252E-03    -293.034E-03     96.9517E-03    -293.901E-03     586.870E-03    -292.700E-03     70.5440E-03
             292     671.785E-06     97.9716E-03    -133.628E+06    -225.956E+06    -130.512E+06    -571.146E+03    -292.789E-03     585.280E-03    -292.491E-03     23.3767E-03    -293.051E-03     584.645E-03    -292.623E-03     18.7624E-03
             293     1.34296E-03     98.0206E-03    -129.626E+06    -213.088E+06    -119.528E+06    -465.204E+03    -292.936E-03     585.587E-03    -292.651E-03     43.0118E-03    -293.441E-03     585.222E-03    -292.752E-03     34.6747E-03
             294     2.01461E-03     98.1003E-03    -123.626E+06    -195.480E+06    -103.885E+06    -314.948E+03    -293.227E-03     585.943E-03    -292.716E-03     63.5431E-03    -294.130E-03     586.014E-03    -292.773E-03     51.2360E-03
             295     2.68638E-03     98.2109E-03    -116.518E+06    -179.791E+06    -84.9291E+06    -355.512E+03    -293.697E-03     586.489E-03    -292.792E-03     83.9815E-03    -295.143E-03     587.129E-03    -292.787E-03     67.6649E-03
             296     3.35790E-03     98.3516E-03    -108.306E+06    -167.524E+06    -65.4191E+06    -641.393E+03    -294.300E-03     587.179E-03    -292.880E-03     104.139E-03    -296.423E-03     588.513E-03    -292.807E-03     83.8106E-03
             297     4.02913E-03     98.5223E-03    -99.4034E+06    -137.635E+06    -46.8694E+06    -880.254E+03    -294.855E-03     587.787E-03    -292.932E-03     123.816E-03    -297.803E-03     590.030E-03    -292.823E-03     99.5768E-03
             298     4.70064E-03     98.7216E-03    -90.3300E+06    -99.5724E+06    -28.2510E+06    -863.892E+03    -295.445E-03     588.406E-03    -292.961E-03     142.518E-03    -299.331E-03     591.700E-03    -292.827E-03     114.521E-03
             299     5.37239E-03     98.9481E-03    -81.4863E+06    -68.3470E+06    -10.1056E+06    -785.711E+03    -296.197E-03     589.193E-03    -292.996E-03     159.903E-03    -301.073E-03     593.566E-03    -292.829E-03     128.364E-03
             300     6.04379E-03     99.2002E-03    -72.3203E+06    -34.9692E+06     6.91490E+06    -1.10865E+06    -296.981E-03     590.011E-03    -293.030E-03     175.700E-03    -302.862E-03     595.492E-03    -292.840E-03     140.915E-03
             301     6.71526E-03     99.4746E-03    -63.1147E+06    -10.3175E+06     22.3057E+06    -1.20684E+06    -297.653E-03     590.728E-03    -293.075E-03     189.176E-03    -304.469E-03     597.219E-03    -292.857E-03     151.552E-03
             302     7.38632E-03     99.7671E-03    -54.5797E+06     2.45973E+06     33.8779E+06    -258.318E+03    -298.169E-03     591.286E-03    -293.117E-03     199.829E-03    -305.758E-03     598.591E-03    -292.872E-03     159.956E-03
             303     8.05791E-03     100.073E-03    -46.7174E+06     11.2561E+06     43.2608E+06     698.274E+03    -298.354E-03     591.496E-03    -293.143E-03     207.410E-03    -306.524E-03     599.415E-03    -292.875E-03     165.865E-03
             304     8.72966E-03     100.386E-03    -40.0843E+06     19.0546E+06     52.7433E+06     922.933E+03    -298.180E-03     591.332E-03    -293.152E-03     211.770E-03    -306.731E-03     599.656E-03    -292.858E-03     169.064E-03
             305     9.40140E-03     100.701E-03    -34.4105E+06     25.4847E+06     62.3117E+06     417.886E+03    -297.888E-03     591.036E-03    -293.148E-03     213.082E-03    -306.620E-03     599.556E-03    -292.824E-03     169.624E-03
             306     10.0725E-03     101.016E-03    -27.8040E+06     32.3640E+06     71.8717E+06    -572.702E+03    -297.217E-03     590.347E-03    -293.130E-03     210.946E-03    -305.891E-03     598.829E-03    -292.777E-03     167.256E-03
             307     10.7461E-03     101.319E-03    -21.1329E+06     39.3846E+06     77.5041E+06    -642.068E+03    -296.071E-03     589.142E-03    -293.071E-03     205.382E-03    -304.464E-03     597.375E-03    -292.710E-03     162.028E-03
             308     11.4185E-03     101.609E-03    -16.0375E+06     38.3497E+06     72.0039E+06    -278.958E+03    -294.699E-03     587.650E-03    -292.951E-03     192.015E-03    -302.311E-03     595.132E-03    -292.624E-03     150.263E-03
             309     12.0937E-03     101.868E-03    -8.47245E+06     45.8009E+06     76.2071E+06     1.35857E+06    -293.538E-03     586.402E-03    -292.864E-03     180.640E-03    -300.688E-03     593.464E-03    -292.537E-03     139.432E-03
             310     12.7666E-03     102.121E-03    -1.67121E+06     56.3076E+06     85.3758E+06     877.109E+03    -292.519E-03     585.344E-03    -292.825E-03     137.195E-03    -297.527E-03     590.298E-03    -292.477E-03     102.692E-03
             311     671.231E-06     99.6731E-03    -132.289E+06    -224.472E+06    -129.725E+06    -316.184E+03    -293.124E-03     585.818E-03    -292.694E-03     23.6167E-03    -293.384E-03     585.188E-03    -292.825E-03     18.9851E-03
             312     1.34301E-03     99.7226E-03    -128.711E+06    -212.695E+06    -119.831E+06    -423.704E+03    -293.159E-03     586.061E-03    -292.903E-03     43.1573E-03    -293.659E-03     585.698E-03    -293.007E-03     34.8175E-03
             313     2.01428E-03     99.8022E-03    -123.413E+06    -195.726E+06    -104.590E+06    -257.876E+03    -293.485E-03     586.443E-03    -292.958E-03     63.6399E-03    -294.386E-03     586.514E-03    -293.019E-03     51.3229E-03
             314     2.68550E-03     99.9129E-03    -116.382E+06    -179.486E+06    -85.8081E+06    -101.888E+03    -293.895E-03     586.922E-03    -293.027E-03     84.0879E-03    -295.341E-03     587.566E-03    -293.027E-03     67.7565E-03
             315     3.35682E-03     100.054E-03    -108.344E+06    -166.207E+06    -65.9138E+06    -426.775E+03    -294.402E-03     587.499E-03    -293.097E-03     104.224E-03    -296.529E-03     588.842E-03    -293.029E-03     83.8847E-03
             316     4.02848E-03     100.225E-03    -100.036E+06    -136.588E+06    -47.0482E+06    -905.072E+03    -294.968E-03     588.101E-03    -293.133E-03     123.791E-03    -297.920E-03     590.350E-03    -293.025E-03     99.5464E-03
             317     4.70005E-03     100.424E-03    -91.4371E+06    -99.1230E+06    -28.6657E+06    -1.28463E+06    -295.613E-03     588.766E-03    -293.153E-03     142.476E-03    -299.503E-03     592.063E-03    -293.020E-03     114.467E-03
             318     5.37117E-03     100.651E-03    -82.3312E+06    -67.9066E+06    -10.7667E+06    -1.53915E+06    -296.340E-03     589.522E-03    -293.182E-03     160.032E-03    -301.220E-03     593.899E-03    -293.018E-03     128.485E-03
             319     6.04251E-03     100.903E-03    -73.6568E+06    -33.8743E+06     6.25719E+06    -1.67690E+06    -296.981E-03     590.181E-03    -293.200E-03     176.083E-03    -302.872E-03     595.672E-03    -293.013E-03     141.315E-03
             320     6.71381E-03     101.178E-03    -65.7830E+06    -10.5123E+06     21.9591E+06    -1.90268E+06    -297.518E-03     590.737E-03    -293.219E-03     189.870E-03    -304.353E-03     597.238E-03    -292.999E-03     152.282E-03
             321     7.38564E-03     101.470E-03    -57.8219E+06    -286.992E+03     33.3496E+06    -1.61515E+06    -297.891E-03     591.115E-03    -293.224E-03     200.601E-03    -305.499E-03     598.420E-03    -292.973E-03     160.778E-03
             322     8.05733E-03     101.776E-03    -49.3057E+06     8.75781E+06     41.2245E+06    -700.366E+03    -297.931E-03     591.127E-03    -293.196E-03     207.970E-03    -306.116E-03     599.048E-03    -292.931E-03     166.463E-03
             323     8.72936E-03     102.088E-03    -41.0020E+06     17.7876E+06     50.0757E+06    -85.3136E+03    -297.753E-03     590.908E-03    -293.155E-03     212.307E-03    -306.317E-03     599.245E-03    -292.871E-03     169.610E-03
             324     9.40151E-03     102.404E-03    -33.1669E+06     26.1818E+06     61.3089E+06    -100.435E+03    -297.344E-03     590.456E-03    -293.112E-03     213.746E-03    -306.076E-03     598.985E-03    -292.795E-03     170.368E-03
             325     10.0749E-03     102.717E-03    -26.1455E+06     33.6648E+06     72.4783E+06    -110.934E+03    -296.564E-03     589.621E-03    -293.057E-03     211.130E-03    -305.226E-03     598.100E-03    -292.706E-03     167.559E-03
             326     10.7468E-03     103.020E-03    -21.1184E+06     37.7566E+06     77.3951E+06     65.7228E+03    -295.830E-03     588.807E-03    -292.977E-03     204.846E-03    -304.200E-03     597.011E-03    -292.614E-03     161.579E-03
             327     11.4197E-03     103.310E-03    -14.9549E+06     41.5642E+06     74.3037E+06    -45.3626E+03    -295.510E-03     588.396E-03    -292.886E-03     191.040E-03    -303.082E-03     595.848E-03    -292.554E-03     149.329E-03
             328     12.0893E-03     103.568E-03    -9.41678E+06     47.6305E+06     75.5573E+06    -2.15075E+06    -294.778E-03     587.640E-03    -292.862E-03     178.887E-03    -301.989E-03     594.768E-03    -292.540E-03     137.034E-03
             329     12.7613E-03     103.819E-03    -5.46233E+06     52.1231E+06     81.5082E+06    -719.649E+03    -292.527E-03     585.398E-03    -292.871E-03     134.996E-03    -297.587E-03     590.388E-03    -292.531E-03     100.089E-03
             330     671.438E-06     101.376E-03    -131.066E+06    -222.967E+06    -129.655E+06    -558.088E+03    -293.496E-03     586.328E-03    -292.832E-03     23.6470E-03    -293.752E-03     585.704E-03    -292.967E-03     18.9968E-03
             331     1.34235E-03     101.425E-03    -128.472E+06    -212.929E+06    -120.321E+06    -173.025E+03    -293.402E-03     586.556E-03    -293.153E-03     43.1095E-03    -293.901E-03     586.191E-03    -293.260E-03     34.7664E-03
             332     2.01370E-03     101.505E-03    -123.643E+06    -195.598E+06    -105.665E+06    -51.3907E+03    -293.645E-03     586.836E-03    -293.190E-03     63.6461E-03    -294.546E-03     586.909E-03    -293.256E-03     51.3292E-03
             333     2.68503E-03     101.616E-03    -116.965E+06    -179.044E+06    -87.2096E+06    -456.960E+03    -294.006E-03     587.236E-03    -293.231E-03     84.2507E-03    -295.455E-03     587.887E-03    -293.237E-03     67.9126E-03
             334     3.35646E-03     101.757E-03    -108.838E+06    -165.706E+06    -67.1999E+06    -487.226E+03    -294.516E-03     587.794E-03    -293.278E-03     104.466E-03    -296.645E-03     589.143E-03    -293.216E-03     84.1366E-03
             335     4.02756E-03     101.928E-03    -100.111E+06    -135.635E+06    -47.4453E+06    -347.881E+03    -295.095E-03     588.397E-03    -293.302E-03     124.113E-03    -298.051E-03     590.653E-03    -293.197E-03     99.8839E-03
             336     4.69867E-03     102.127E-03    -91.6000E+06    -98.3249E+06    -28.1809E+06    -244.784E+03    -295.692E-03     589.003E-03    -293.310E-03     143.010E-03    -299.589E-03     592.307E-03    -293.176E-03     115.031E-03
             337     5.37033E-03     102.354E-03    -83.5345E+06    -66.4133E+06    -9.68947E+06    -263.879E+03    -296.276E-03     589.591E-03    -293.315E-03     160.773E-03    -301.175E-03     593.986E-03    -293.146E-03     129.267E-03
             338     6.04191E-03     102.606E-03    -75.2302E+06    -31.6810E+06     7.84183E+06    -902.150E+03    -296.780E-03     590.077E-03    -293.297E-03     176.902E-03    -302.697E-03     595.592E-03    -293.103E-03     142.175E-03
             339     6.71389E-03     102.881E-03    -66.4581E+06    -9.62897E+06     22.5540E+06    -1.22685E+06    -297.259E-03     590.528E-03    -293.269E-03     190.700E-03    -304.108E-03     597.042E-03    -293.046E-03     153.193E-03
             340     7.38552E-03     103.173E-03    -57.8549E+06     33.1901E+03     34.1539E+06    -1.45175E+06    -297.583E-03     590.818E-03    -293.234E-03     201.349E-03    -305.202E-03     598.132E-03    -292.980E-03     161.594E-03
             341     8.05760E-03     103.478E-03    -50.4597E+06     8.08568E+06     42.4178E+06    -2.53136E+06    -297.642E-03     590.819E-03    -293.177E-03     208.763E-03    -305.853E-03     598.757E-03    -292.904E-03     167.257E-03
             342     8.72981E-03     103.790E-03    -42.5554E+06     16.3816E+06     49.8091E+06    -3.21885E+06    -297.502E-03     590.607E-03    -293.105E-03     213.022E-03    -306.095E-03     598.963E-03    -292.818E-03     170.285E-03
             343     9.40254E-03     104.105E-03    -33.7869E+06     24.6832E+06     59.6494E+06    -2.62393E+06    -297.139E-03     590.178E-03    -293.039E-03     213.775E-03    -305.884E-03     598.718E-03    -292.728E-03     170.325E-03
             344     10.0746E-03     104.417E-03    -26.1972E+06     30.0456E+06     69.1275E+06    -1.29780E+06    -296.611E-03     589.594E-03    -292.982E-03     210.459E-03    -305.272E-03     598.067E-03    -292.642E-03     166.760E-03
             345     10.7480E-03     104.721E-03    -18.0026E+06     36.1573E+06     76.2498E+06     614.256E+03    -296.245E-03     589.178E-03    -292.932E-03     203.895E-03    -304.602E-03     597.377E-03    -292.578E-03     160.446E-03
             346     11.4198E-03     105.012E-03    -12.1344E+06     43.4005E+06     74.8375E+06     1.78685E+06    -295.833E-03     588.708E-03    -292.875E-03     191.073E-03    -303.399E-03     596.168E-03    -292.546E-03     149.306E-03
             347     12.0921E-03     105.277E-03    -9.01658E+06     50.5880E+06     77.3308E+06     980.732E+03    -294.677E-03     587.534E-03    -292.858E-03     180.998E-03    -301.914E-03     594.695E-03    -292.531E-03     139.412E-03
             348     12.7617E-03     105.522E-03    -5.11991E+06     52.5893E+06     83.5664E+06    -1.09330E+06    -292.565E-03     585.419E-03    -292.854E-03     139.182E-03    -297.696E-03     590.476E-03    -292.505E-03     104.344E-03
             349     670.934E-06     103.079E-03    -131.102E+06    -225.116E+06    -128.629E+06     1.37931E+06    -293.682E-03     586.709E-03    -293.026E-03     23.7773E-03    -293.937E-03     586.072E-03    -293.153E-03     19.1629E-03
             350     1.34221E-03     103.129E-03    -129.038E+06    -213.637E+06    -119.293E+06     1.39737E+06    -293.533E-03     586.865E-03    -293.331E-03     43.4319E-03    -294.036E-03     586.497E-03    -293.431E-03     35.1164E-03
             351     2.01324E-03     103.208E-03    -124.527E+06    -195.143E+06    -105.029E+06     1.04793E+06    -293.743E-03     587.086E-03    -293.343E-03     64.0325E-03    -294.653E-03     587.166E-03    -293.405E-03     51.7165E-03
             352     2.68459E-03     103.319E-03    -118.010E+06    -176.790E+06    -86.2263E+06     294.120E+03    -294.078E-03     587.442E-03    -293.364E-03     84.5605E-03    -295.539E-03     588.106E-03    -293.367E-03     68.2342E-03
             353     3.35576E-03     103.460E-03    -110.108E+06    -164.057E+06    -66.6277E+06    -1.05248E+06    -294.544E-03     587.936E-03    -293.392E-03     104.840E-03    -296.685E-03     589.297E-03    -293.327E-03     84.5112E-03
             354     4.02729E-03     103.631E-03    -101.434E+06    -137.792E+06    -48.1889E+06    -790.411E+03    -295.030E-03     588.417E-03    -293.387E-03     124.655E-03    -297.993E-03     590.671E-03    -293.281E-03     100.441E-03
             355     4.69901E-03     103.831E-03    -92.4592E+06    -100.307E+06    -28.5624E+06     838.947E+03    -295.536E-03     588.897E-03    -293.361E-03     143.674E-03    -299.441E-03     592.200E-03    -293.224E-03     115.747E-03
             356     5.37036E-03     104.057E-03    -82.9538E+06    -64.3835E+06    -8.42203E+06     936.299E+03    -296.062E-03     589.389E-03    -293.327E-03     161.507E-03    -300.974E-03     593.802E-03    -293.156E-03     130.047E-03
             357     6.04216E-03     104.309E-03    -73.2631E+06    -29.5660E+06     9.55401E+06     354.243E+03    -296.594E-03     589.870E-03    -293.276E-03     177.632E-03    -302.522E-03     595.405E-03    -293.079E-03     142.939E-03
             358     6.71389E-03     104.583E-03    -64.1780E+06    -8.28995E+06     24.0434E+06    -4.36147E+03    -297.034E-03     590.254E-03    -293.220E-03     191.288E-03    -303.890E-03     596.783E-03    -292.995E-03     153.813E-03
             359     7.38625E-03     104.875E-03    -55.2472E+06     2.53256E+06     35.2584E+06    -724.122E+03    -297.234E-03     590.387E-03    -293.153E-03     201.832E-03    -304.857E-03     597.721E-03    -292.900E-03     162.121E-03
             360     8.05861E-03     105.180E-03    -46.6874E+06     11.6066E+06     45.2437E+06    -1.56383E+06    -297.390E-03     590.466E-03    -293.076E-03     209.236E-03    -305.598E-03     598.418E-03    -292.799E-03     167.803E-03
             361     8.73110E-03     105.492E-03    -39.4262E+06     18.5824E+06     54.1628E+06    -2.32771E+06    -297.561E-03     590.570E-03    -293.009E-03     213.346E-03    -306.156E-03     598.934E-03    -292.708E-03     170.638E-03
             362     9.40310E-03     105.807E-03    -33.0073E+06     23.9352E+06     63.0403E+06    -2.39711E+06    -297.525E-03     590.493E-03    -292.967E-03     213.964E-03    -306.289E-03     599.042E-03    -292.639E-03     170.442E-03
             363     10.0757E-03     106.119E-03    -26.2812E+06     29.1869E+06     70.9467E+06    -2.48198E+06    -297.253E-03     590.195E-03    -292.942E-03     210.816E-03    -305.938E-03     598.685E-03    -292.592E-03     166.992E-03
             364     10.7467E-03     106.422E-03    -19.7189E+06     32.7992E+06     74.0387E+06    -2.56597E+06    -296.796E-03     589.711E-03    -292.915E-03     204.809E-03    -305.187E-03     597.934E-03    -292.564E-03     161.192E-03
             365     11.4182E-03     106.715E-03    -13.9907E+06     37.9747E+06     69.0911E+06    -1.30128E+06    -295.353E-03     588.195E-03    -292.842E-03     191.952E-03    -302.960E-03     595.687E-03    -292.532E-03     150.042E-03
             366     12.0910E-03     106.974E-03    -7.42844E+06     48.9779E+06     74.0171E+06     1.24029E+06    -293.115E-03     585.886E-03    -292.770E-03     180.038E-03    -300.265E-03     592.969E-03    -292.461E-03     138.811E-03
             367     12.7681E-03     107.224E-03    -1.41535E+06     54.4794E+06     83.8536E+06     1.47256E+06    -291.766E-03     584.486E-03    -292.719E-03     137.474E-03    -296.780E-03     589.444E-03    -292.377E-03     103.025E-03
             368     671.176E-06     104.783E-03    -133.616E+06    -231.575E+06    -130.665E+06     1.72792E+06    -293.658E-03     586.792E-03    -293.133E-03     23.8390E-03    -293.914E-03     586.130E-03    -293.257E-03     19.2091E-03
             369     1.34224E-03     104.832E-03    -128.502E+06    -215.367E+06    -119.195E+06     2.21819E+06    -293.501E-03     586.859E-03    -293.358E-03     43.5311E-03    -294.000E-03     586.482E-03    -293.455E-03     35.2255E-03
             370     2.01353E-03     104.912E-03    -122.139E+06    -194.207E+06    -102.682E+06     1.42586E+06    -293.736E-03     587.089E-03    -293.353E-03     64.2806E-03    -294.641E-03     587.169E-03    -293.408E-03     51.9639E-03
             371     2.68456E-03     105.023E-03    -114.206E+06    -175.599E+06    -82.9007E+06     939.943E+03    -294.058E-03     587.423E-03    -293.365E-03     85.0664E-03    -295.512E-03     588.088E-03    -293.359E-03     68.7445E-03
             372     3.35597E-03     105.164E-03    -105.778E+06    -161.208E+06    -61.8961E+06     754.184E+03    -294.471E-03     587.849E-03    -293.379E-03     105.509E-03    -296.608E-03     589.218E-03    -293.301E-03     85.2151E-03
             373     4.02732E-03     105.334E-03    -97.1908E+06    -140.083E+06    -42.4446E+06     712.994E+03    -294.936E-03     588.303E-03    -293.366E-03     125.299E-03    -297.893E-03     590.541E-03    -293.235E-03     101.101E-03
             374     4.69878E-03     105.533E-03    -87.8620E+06    -102.744E+06    -24.8416E+06     1.00126E+06    -295.375E-03     588.683E-03    -293.308E-03     144.225E-03    -299.270E-03     591.973E-03    -293.156E-03     116.291E-03
             375     5.37093E-03     105.760E-03    -78.0759E+06    -63.5513E+06    -7.25585E+06     1.29421E+06    -295.895E-03     589.131E-03    -293.236E-03     161.917E-03    -300.793E-03     593.547E-03    -293.067E-03     130.480E-03
             376     6.04292E-03     106.012E-03    -68.9389E+06    -30.0185E+06     10.2950E+06     1.81143E+06    -296.433E-03     589.603E-03    -293.170E-03     177.909E-03    -302.344E-03     595.132E-03    -292.975E-03     143.262E-03
             377     6.71511E-03     106.286E-03    -60.3897E+06    -5.65505E+06     26.1228E+06     1.51264E+06    -296.810E-03     589.914E-03    -293.104E-03     191.442E-03    -303.660E-03     596.454E-03    -292.878E-03     154.000E-03
             378     7.38721E-03     106.577E-03    -52.2223E+06     5.78964E+06     37.9231E+06     407.875E+03    -297.095E-03     590.128E-03    -293.033E-03     201.780E-03    -304.719E-03     597.478E-03    -292.777E-03     162.069E-03
             379     8.05988E-03     106.881E-03    -44.0257E+06     14.1502E+06     47.2414E+06    -327.657E+03    -297.424E-03     590.387E-03    -292.963E-03     208.868E-03    -305.618E-03     598.338E-03    -292.683E-03     167.453E-03
             380     8.73219E-03     107.194E-03    -37.0577E+06     20.2343E+06     55.6319E+06    -544.174E+03    -297.670E-03     590.583E-03    -292.914E-03     212.717E-03    -306.236E-03     598.928E-03    -292.611E-03     170.054E-03
             381     9.40450E-03     107.509E-03    -30.8779E+06     25.1324E+06     65.0952E+06    -441.279E+03    -297.684E-03     590.581E-03    -292.897E-03     213.447E-03    -306.427E-03     599.115E-03    -292.563E-03     169.942E-03
             382     10.0759E-03     107.821E-03    -25.0364E+06     31.4971E+06     73.7537E+06    -843.895E+03    -297.347E-03     590.237E-03    -292.890E-03     210.881E-03    -306.031E-03     598.731E-03    -292.531E-03     167.077E-03
             383     10.7483E-03     108.126E-03    -20.5922E+06     32.1698E+06     75.4750E+06    -1.43114E+06    -296.505E-03     589.363E-03    -292.858E-03     205.389E-03    -304.899E-03     597.579E-03    -292.497E-03     161.929E-03
             384     11.4210E-03     108.416E-03    -15.4438E+06     36.0200E+06     68.5910E+06    -942.714E+03    -295.240E-03     588.005E-03    -292.765E-03     192.301E-03    -302.855E-03     595.494E-03    -292.452E-03     150.496E-03
             385     12.0936E-03     108.674E-03    -10.8261E+06     47.7850E+06     70.9567E+06    -2.33214E+06    -294.096E-03     586.809E-03    -292.713E-03     179.907E-03    -301.344E-03     593.982E-03    -292.412E-03     138.077E-03
             386     12.7628E-03     108.920E-03    -5.49918E+06     52.6262E+06     80.8481E+06    -1.46787E+06    -292.856E-03     585.588E-03    -292.732E-03     135.634E-03    -297.932E-03     590.597E-03    -292.396E-03     100.622E-03
             387     670.989E-06     106.487E-03    -125.143E+06    -234.752E+06    -123.621E+06    -395.826E+03    -293.447E-03     586.698E-03    -293.251E-03     23.8187E-03    -293.666E-03     585.999E-03    -293.348E-03     19.1540E-03
             388     1.34220E-03     106.536E-03    -121.528E+06    -217.358E+06    -116.712E+06    -22.8008E+03    -293.409E-03     586.683E-03    -293.274E-03     43.7211E-03    -293.874E-03     586.284E-03    -293.366E-03     35.3703E-03
             389     2.01343E-03     106.615E-03    -116.710E+06    -193.494E+06    -102.623E+06     81.3985E+03    -293.546E-03     586.773E-03    -293.226E-03     64.6003E-03    -294.428E-03     586.850E-03    -293.290E-03     52.2712E-03
             390     2.68508E-03     106.726E-03    -110.541E+06    -177.480E+06    -82.3189E+06     527.286E+03    -293.858E-03     587.075E-03    -293.217E-03     85.3858E-03    -295.295E-03     587.728E-03    -293.211E-03     69.0603E-03
             391     3.35660E-03     106.866E-03    -102.797E+06    -163.018E+06    -61.1953E+06     1.90995E+06    -294.301E-03     587.518E-03    -293.217E-03     105.840E-03    -296.426E-03     588.877E-03    -293.138E-03     85.5713E-03
             392     4.02828E-03     107.037E-03    -94.0894E+06    -139.465E+06    -41.5273E+06     2.11290E+06    -294.817E-03     588.015E-03    -293.198E-03     125.687E-03    -297.768E-03     590.257E-03    -293.067E-03     101.511E-03
             393     4.70013E-03     107.236E-03    -85.4150E+06    -101.982E+06    -23.0105E+06     1.06946E+06    -295.368E-03     588.522E-03    -293.154E-03     144.557E-03    -299.263E-03     591.818E-03    -292.997E-03     116.611E-03
             394     5.37175E-03     107.462E-03     -77.121E+06    -65.5365E+06    -5.89718E+06     1.14981E+06    -295.884E-03     588.985E-03    -293.101E-03     162.069E-03    -300.782E-03     593.394E-03    -292.924E-03     130.616E-03
             395     6.04363E-03     107.714E-03    -68.3101E+06    -31.7058E+06     10.7568E+06     1.72077E+06    -296.287E-03     589.324E-03    -293.037E-03     177.853E-03    -302.194E-03     594.846E-03    -292.839E-03     143.213E-03
             396     6.71583E-03     107.987E-03    -58.9617E+06    -4.57887E+06     26.9860E+06     1.87723E+06    -296.725E-03     589.698E-03    -292.973E-03     191.186E-03    -303.566E-03     596.235E-03    -292.746E-03     153.772E-03
             397     7.38838E-03     108.278E-03    -50.2843E+06     8.16426E+06     40.6815E+06     1.65941E+06    -297.286E-03     590.215E-03    -292.929E-03     201.377E-03    -304.904E-03     597.565E-03    -292.664E-03     161.655E-03
             398     8.06016E-03     108.582E-03    -43.4419E+06     15.1269E+06     49.7258E+06     1.61747E+06    -297.717E-03     590.613E-03    -292.896E-03     208.465E-03    -305.919E-03     598.570E-03    -292.606E-03     166.982E-03
             399     8.73212E-03     108.895E-03    -37.7903E+06     20.8672E+06     55.9556E+06     1.93782E+06    -297.834E-03     590.702E-03    -292.867E-03     212.378E-03    -306.406E-03     599.051E-03    -292.563E-03     169.690E-03
             400     9.40402E-03     109.210E-03    -31.7926E+06     27.1616E+06     64.7951E+06     1.15261E+06    -297.630E-03     590.487E-03    -292.857E-03     213.211E-03    -306.375E-03     599.027E-03    -292.526E-03     169.721E-03
             401     10.0766E-03     109.524E-03    -25.6345E+06     33.3651E+06     73.8306E+06    -206.766E+03    -296.984E-03     589.829E-03    -292.845E-03     210.421E-03    -305.660E-03     598.318E-03    -292.487E-03     166.680E-03
             402     10.7488E-03     109.826E-03    -19.2175E+06     31.6921E+06     76.4910E+06    -198.034E+03    -296.285E-03     589.094E-03    -292.809E-03     203.984E-03    -304.624E-03     597.255E-03    -292.444E-03     160.649E-03
             403     11.4214E-03     110.116E-03    -13.4682E+06     35.4529E+06     70.1511E+06    -302.060E+03    -295.741E-03     588.481E-03    -292.741E-03     190.156E-03    -303.306E-03     595.921E-03    -292.422E-03     148.248E-03
             404     12.0929E-03     110.377E-03    -8.93613E+06     50.9108E+06     74.7480E+06    -1.17501E+06    -295.282E-03     588.039E-03    -292.756E-03     178.240E-03    -302.512E-03     595.200E-03    -292.443E-03     136.237E-03
             405     12.7651E-03     110.628E-03    -4.83964E+06     53.2523E+06     82.2967E+06    -958.911E+03    -294.201E-03     587.042E-03    -292.841E-03     135.926E-03    -299.293E-03     592.067E-03    -292.499E-03     100.748E-03
             406     671.346E-06     108.190E-03    -123.983E+06    -232.042E+06    -122.155E+06    -765.665E+03    -293.078E-03     586.165E-03    -293.086E-03     24.1166E-03    -293.298E-03     585.476E-03    -293.181E-03     19.4605E-03
             407     1.34265E-03     108.239E-03    -122.438E+06    -217.153E+06    -115.857E+06    -1.18661E+06    -293.196E-03     586.217E-03    -293.021E-03     43.9369E-03    -293.669E-03     585.821E-03    -293.108E-03     35.5660E-03
             408     2.01427E-03     108.318E-03    -118.548E+06    -195.223E+06    -102.691E+06    -233.492E+03    -293.376E-03     586.371E-03    -292.996E-03     64.7674E-03    -294.264E-03     586.444E-03    -293.054E-03     52.4419E-03
             409     2.68570E-03     108.428E-03    -112.897E+06    -179.562E+06    -84.4015E+06     680.848E+03    -293.728E-03     586.728E-03    -293.000E-03     85.3973E-03    -295.171E-03     587.377E-03    -292.998E-03     69.0893E-03
             410     3.35733E-03     108.569E-03    -105.589E+06    -166.640E+06    -65.4095E+06     1.10270E+06    -294.180E-03     587.192E-03    -293.012E-03     105.663E-03    -296.306E-03     588.542E-03    -292.944E-03     85.3863E-03
             411     4.02909E-03     108.739E-03    -97.4525E+06    -138.410E+06    -46.6123E+06     1.12895E+06    -294.681E-03     587.679E-03    -292.998E-03     125.327E-03    -297.636E-03     589.932E-03    -292.889E-03     101.165E-03
             412     4.70073E-03     108.939E-03    -88.5712E+06    -100.585E+06    -25.8652E+06     756.391E+03    -295.241E-03     588.219E-03    -292.977E-03     144.210E-03    -299.143E-03     591.524E-03    -292.832E-03     116.288E-03
             413     5.37253E-03     109.165E-03    -79.2966E+06    -67.0430E+06    -5.54964E+06     567.194E+03    -295.767E-03     588.721E-03    -292.954E-03     161.869E-03    -300.677E-03     593.128E-03    -292.770E-03     130.396E-03
             414     6.04467E-03     109.416E-03    -70.1528E+06    -32.0700E+06     11.9093E+06     310.298E+03    -296.306E-03     589.215E-03    -292.909E-03     177.689E-03    -302.227E-03     594.738E-03    -292.701E-03     143.003E-03
             415     6.71689E-03     109.689E-03    -61.0610E+06    -6.46197E+06     26.5646E+06     348.747E+03    -296.937E-03     589.805E-03    -292.868E-03     190.909E-03    -303.782E-03     596.333E-03    -292.638E-03     153.440E-03
             416     7.38861E-03     109.980E-03    -52.7078E+06     6.04366E+06     37.8501E+06     1.46698E+06    -297.474E-03     590.319E-03    -292.845E-03     201.149E-03    -305.091E-03     597.661E-03    -292.588E-03     161.408E-03
             417     8.06072E-03     110.285E-03    -45.6246E+06     13.4701E+06     47.3964E+06     2.75792E+06    -297.816E-03     590.650E-03    -292.834E-03     208.467E-03    -306.027E-03     598.609E-03    -292.551E-03     166.978E-03
             418     8.73270E-03     110.597E-03    -38.1465E+06     21.5184E+06     56.8581E+06     2.78594E+06    -297.953E-03     590.781E-03    -292.828E-03     212.674E-03    -306.543E-03     599.146E-03    -292.520E-03     169.959E-03
             419     9.40476E-03     110.912E-03    -30.4439E+06     29.3649E+06     66.9614E+06     2.25635E+06    -297.731E-03     590.560E-03    -292.828E-03     213.392E-03    -306.490E-03     599.120E-03    -292.492E-03     169.882E-03
             420     10.0766E-03     111.224E-03    -23.0716E+06     36.6995E+06     76.6123E+06     2.07664E+06    -297.404E-03     590.241E-03    -292.837E-03     209.953E-03    -306.077E-03     598.740E-03    -292.473E-03     166.166E-03
             421     10.7489E-03     111.528E-03    -16.1306E+06     35.6840E+06     80.1303E+06     701.345E+03    -297.260E-03     590.116E-03    -292.856E-03     202.942E-03    -305.613E-03     598.306E-03    -292.484E-03     159.311E-03
             422     11.4198E-03     111.820E-03    -11.5131E+06     34.3895E+06     72.3465E+06    -893.333E+03    -296.540E-03     589.391E-03    -292.850E-03     189.116E-03    -304.093E-03     596.814E-03    -292.522E-03     147.018E-03
             423     12.0904E-03     112.081E-03    -7.70547E+06     48.4000E+06     74.7686E+06     352.068E+03    -295.044E-03     587.915E-03    -292.870E-03     178.040E-03    -302.186E-03     594.983E-03    -292.556E-03     136.454E-03
             424     12.7603E-03     112.331E-03    -3.75102E+06     54.8139E+06     82.6160E+06     1.71909E+06    -292.904E-03     585.802E-03    -292.899E-03     136.938E-03    -297.970E-03     590.811E-03    -292.560E-03     102.049E-03
             425     671.594E-06     109.892E-03    -133.275E+06    -228.880E+06    -130.137E+06    -308.035E+03    -292.848E-03     585.544E-03    -292.696E-03     23.8800E-03    -293.107E-03     584.895E-03    -292.821E-03     19.2353E-03
             426     1.34319E-03     109.941E-03    -129.394E+06    -216.002E+06    -118.777E+06    -598.908E+03    -292.969E-03     585.728E-03    -292.760E-03     43.5699E-03    -293.472E-03     585.350E-03    -292.853E-03     35.2206E-03
             427     2.01460E-03     110.020E-03    -123.095E+06    -197.489E+06    -102.894E+06    -370.522E+03    -293.253E-03     586.040E-03    -292.788E-03     64.4290E-03    -294.157E-03     586.105E-03    -292.837E-03     52.1244E-03
             428     2.68625E-03     110.130E-03    -115.443E+06    -180.756E+06    -84.9909E+06     116.324E+03    -293.649E-03     586.472E-03    -292.822E-03     85.1193E-03    -295.098E-03     587.115E-03    -292.818E-03     68.8245E-03
             429     3.35782E-03     110.271E-03    -107.146E+06    -167.793E+06    -65.5074E+06     371.221E+03    -294.135E-03     587.000E-03    -292.864E-03     105.443E-03    -296.267E-03     588.345E-03    -292.793E-03     85.1531E-03
             430     4.02936E-03     110.441E-03    -98.2781E+06    -138.144E+06    -45.7677E+06     450.986E+03    -294.620E-03     587.493E-03    -292.873E-03     125.219E-03    -297.582E-03     589.748E-03    -292.759E-03     101.039E-03
             431     4.70127E-03     110.640E-03    -89.3573E+06    -100.061E+06    -26.3728E+06     217.877E+03    -295.105E-03     587.957E-03    -292.853E-03     144.057E-03    -299.009E-03     591.266E-03    -292.710E-03     116.137E-03
             432     5.37344E-03     110.866E-03    -80.1052E+06    -67.7253E+06    -7.12422E+06     165.843E+03    -295.719E-03     588.553E-03    -292.834E-03     161.429E-03    -300.621E-03     592.951E-03    -292.655E-03     129.958E-03
             433     6.04538E-03     111.117E-03    -71.0831E+06    -32.1014E+06     11.0465E+06     633.905E+03    -296.419E-03     589.233E-03    -292.814E-03     177.102E-03    -302.331E-03     594.747E-03    -292.609E-03     142.410E-03
             434     6.71700E-03     111.391E-03    -63.3873E+06    -7.50680E+06     25.9866E+06     1.16186E+06    -297.045E-03     589.851E-03    -292.806E-03     190.524E-03    -303.895E-03     596.374E-03    -292.573E-03     153.040E-03
             435     7.38908E-03     111.682E-03    -56.2145E+06     3.02608E+06     36.0167E+06     1.42258E+06    -297.524E-03     590.323E-03    -292.800E-03     200.945E-03    -305.154E-03     597.660E-03    -292.542E-03     161.169E-03
             436     8.06107E-03     111.986E-03    -47.6744E+06     12.0540E+06     44.5775E+06     1.02208E+06    -297.865E-03     590.657E-03    -292.792E-03     208.129E-03    -306.078E-03     598.614E-03    -292.517E-03     166.582E-03
             437     8.73313E-03     112.299E-03    -38.4479E+06     21.6198E+06     55.3423E+06     781.879E+03    -298.034E-03     590.836E-03    -292.802E-03     211.950E-03    -306.613E-03     599.195E-03    -292.501E-03     169.164E-03
             438     9.40504E-03     112.614E-03    -30.5208E+06     28.6723E+06     66.6496E+06     926.405E+03    -298.084E-03     590.921E-03    -292.836E-03     212.223E-03    -306.822E-03     599.459E-03    -292.501E-03     168.628E-03
             439     10.0769E-03     112.927E-03    -23.2565E+06     35.8128E+06     75.7194E+06     1.55047E+06    -298.078E-03     590.965E-03    -292.887E-03     209.044E-03    -306.737E-03     599.449E-03    -292.526E-03     165.131E-03
             440     10.7468E-03     113.232E-03    -17.5769E+06     38.2607E+06     78.9377E+06     2.10203E+06    -297.455E-03     590.385E-03    -292.930E-03     203.382E-03    -305.854E-03     598.628E-03    -292.565E-03     159.622E-03
             441     11.4173E-03     113.523E-03    -13.3317E+06     37.1752E+06     73.4127E+06     2.23711E+06    -296.000E-03     588.913E-03    -292.913E-03     191.259E-03    -303.599E-03     596.384E-03    -292.581E-03     149.358E-03
             442     12.0896E-03     113.783E-03    -9.74743E+06     47.1940E+06     75.7626E+06     1.86735E+06    -294.506E-03     587.393E-03    -292.887E-03     181.101E-03    -301.687E-03     594.487E-03    -292.562E-03     139.792E-03
             443     12.7643E-03     114.033E-03    -5.85445E+06     54.8715E+06     82.3271E+06     164.336E+03    -292.731E-03     585.603E-03    -292.872E-03     138.167E-03    -297.828E-03     590.636E-03    -292.532E-03     103.342E-03
             444     671.504E-06     111.593E-03    -132.567E+06    -227.380E+06    -130.390E+06    -260.364E+03    -292.743E-03     585.284E-03    -292.542E-03     23.8269E-03    -292.999E-03     584.642E-03    -292.672E-03     19.1889E-03
             445     1.34310E-03     111.642E-03    -128.831E+06    -214.845E+06    -119.868E+06    -567.106E+03    -292.882E-03     585.513E-03    -292.631E-03     43.4861E-03    -293.381E-03     585.140E-03    -292.732E-03     35.1660E-03
             446     2.01485E-03     111.722E-03    -123.759E+06    -197.748E+06    -104.742E+06    -597.478E+03    -293.165E-03     585.837E-03    -292.672E-03     64.2480E-03    -294.068E-03     585.902E-03    -292.730E-03     51.9653E-03
             447     2.68645E-03     111.832E-03    -117.064E+06    -181.366E+06    -85.3865E+06    -427.923E+03    -293.551E-03     586.274E-03    -292.723E-03     84.9335E-03    -295.005E-03     586.915E-03    -292.717E-03     68.6349E-03
             448     3.35816E-03     111.973E-03    -108.715E+06    -168.302E+06    -65.0838E+06    -331.413E+03    -294.060E-03     586.835E-03    -292.776E-03     105.225E-03    -296.197E-03     588.178E-03    -292.699E-03     84.9228E-03
             449     4.03003E-03     112.143E-03    -99.9400E+06    -138.299E+06    -46.2428E+06    -307.473E+03    -294.563E-03     587.353E-03    -292.790E-03     124.831E-03    -297.527E-03     589.605E-03    -292.675E-03     100.635E-03
             450     4.70186E-03     112.342E-03    -90.9967E+06    -99.7701E+06    -27.4569E+06    -205.756E+03    -295.125E-03     587.907E-03    -292.782E-03     143.522E-03    -299.028E-03     591.212E-03    -292.643E-03     115.595E-03
             451     5.37349E-03     112.568E-03    -82.1391E+06    -68.2717E+06    -9.21753E+06    -240.293E+03    -295.824E-03     588.608E-03    -292.783E-03     160.983E-03    -300.722E-03     592.998E-03    -292.611E-03     129.513E-03
             452     6.04517E-03     112.819E-03    -73.3484E+06    -35.0213E+06     7.87515E+06     479.519E+03    -296.477E-03     589.258E-03    -292.781E-03     176.744E-03    -302.384E-03     594.758E-03    -292.585E-03     142.050E-03
             453     6.71737E-03     113.092E-03    -64.1778E+06    -9.51065E+06     23.6239E+06     1.77138E+06    -297.042E-03     589.826E-03    -292.784E-03     190.136E-03    -303.885E-03     596.339E-03    -292.559E-03     152.645E-03
             454     7.38924E-03     113.384E-03    -54.8712E+06     4.47013E+06     35.9510E+06     1.62154E+06    -297.617E-03     590.409E-03    -292.791E-03     200.490E-03    -305.235E-03     597.744E-03    -292.539E-03     160.692E-03
             455     8.06092E-03     113.688E-03    -46.4405E+06     13.5465E+06     45.4826E+06     835.192E+03    -298.123E-03     590.931E-03    -292.808E-03     207.629E-03    -306.318E-03     598.878E-03    -292.533E-03     166.068E-03
             456     8.73239E-03     114.001E-03    -39.3143E+06     21.2142E+06     55.2495E+06     591.695E+03    -298.390E-03     591.236E-03    -292.846E-03     211.480E-03    -306.959E-03     599.581E-03    -292.544E-03     168.673E-03
             457     9.40376E-03     114.317E-03    -32.7018E+06     27.7481E+06     65.4224E+06     610.996E+03    -298.406E-03     591.307E-03    -292.900E-03     212.376E-03    -307.146E-03     599.839E-03    -292.566E-03     168.776E-03
             458     10.0741E-03     114.631E-03    -27.4042E+06     32.9942E+06     72.1288E+06     1.01026E+06    -297.741E-03     590.674E-03    -292.933E-03     210.295E-03    -306.423E-03     599.166E-03    -292.580E-03     166.491E-03
             459     10.7466E-03     114.935E-03    -21.7126E+06     37.2637E+06     75.7518E+06     1.23268E+06    -296.444E-03     589.359E-03    -292.915E-03     205.142E-03    -304.852E-03     597.603E-03    -292.559E-03     161.700E-03
             460     11.4207E-03     115.225E-03    -15.1146E+06     39.2659E+06     72.6674E+06     927.003E+03    -295.222E-03     588.059E-03    -292.838E-03     192.320E-03    -302.848E-03     595.560E-03    -292.509E-03     150.518E-03
             461     12.0937E-03     115.485E-03    -8.08596E+06     49.1691E+06     76.3862E+06     1.65848E+06    -294.115E-03     586.896E-03    -292.781E-03     181.226E-03    -301.318E-03     594.024E-03    -292.459E-03     139.818E-03
             462     12.7630E-03     115.736E-03    -3.38440E+06     55.6854E+06     81.6705E+06     768.541E+03    -292.342E-03     585.085E-03    -292.744E-03     139.205E-03    -297.409E-03     590.101E-03    -292.411E-03     104.602E-03
             463     671.808E-06     113.294E-03    -132.070E+06    -226.829E+06    -130.203E+06    -172.185E+03    -292.716E-03     585.196E-03    -292.480E-03     23.8014E-03    -292.971E-03     584.555E-03    -292.610E-03     19.1865E-03
             464     1.34340E-03     113.343E-03    -129.643E+06    -214.781E+06    -120.688E+06     183.061E+03    -292.883E-03     585.477E-03    -292.594E-03     43.3963E-03    -293.385E-03     585.106E-03    -292.698E-03     35.0860E-03
             465     2.01487E-03     113.423E-03    -124.782E+06    -197.118E+06    -105.132E+06     223.401E+03    -293.149E-03     585.799E-03    -292.650E-03     64.0107E-03    -294.055E-03     585.868E-03    -292.709E-03     51.7299E-03
             466     2.68659E-03     113.533E-03    -117.834E+06    -180.760E+06    -85.9305E+06    -95.6979E+03    -293.511E-03     586.214E-03    -292.703E-03     84.6384E-03    -294.966E-03     586.858E-03    -292.700E-03     68.3473E-03
             467     3.35828E-03     113.674E-03    -109.752E+06    -168.318E+06    -66.4014E+06    -259.847E+03    -294.039E-03     586.794E-03    -292.755E-03     104.867E-03    -296.173E-03     588.134E-03    -292.684E-03     84.5810E-03
             468     4.02978E-03     113.844E-03    -101.006E+06    -138.353E+06    -47.5580E+06    -244.551E+03    -294.610E-03     587.389E-03    -292.779E-03     124.408E-03    -297.571E-03     589.639E-03    -292.670E-03     100.211E-03
             469     4.70149E-03     114.043E-03    -92.2542E+06    -100.209E+06    -28.9130E+06    -84.9379E+03    -295.221E-03     588.009E-03    -292.788E-03     143.157E-03    -299.123E-03     591.312E-03    -292.654E-03     115.215E-03
             470     5.37342E-03     114.269E-03    -83.5494E+06    -68.5357E+06    -10.6972E+06     267.010E+03    -295.859E-03     588.661E-03    -292.801E-03     160.652E-03    -300.755E-03     593.047E-03    -292.634E-03     129.186E-03
             471     6.04538E-03     114.521E-03    -74.6159E+06    -35.9192E+06     6.19942E+06    -42.8982E+03    -296.478E-03     589.281E-03    -292.803E-03     176.378E-03    -302.379E-03     594.772E-03    -292.612E-03     141.683E-03
             472     6.71691E-03     114.794E-03    -64.9606E+06    -10.9278E+06     21.1509E+06    -976.844E+03    -297.151E-03     589.959E-03    -292.809E-03     189.825E-03    -303.982E-03     596.460E-03    -292.593E-03     152.302E-03
             473     7.38869E-03     115.086E-03    -55.3554E+06     3.85224E+06     33.9409E+06    -749.692E+03    -297.776E-03     590.604E-03    -292.829E-03     200.270E-03    -305.382E-03     597.929E-03    -292.584E-03     160.440E-03
             474     8.06041E-03     115.391E-03    -47.0736E+06     12.1809E+06     44.4048E+06     388.075E+03    -298.203E-03     591.061E-03    -292.859E-03     207.558E-03    -306.383E-03     598.989E-03    -292.586E-03     166.027E-03
             475     8.73196E-03     115.704E-03    -39.7273E+06     19.7553E+06     54.1496E+06     1.41865E+06    -298.317E-03     591.205E-03    -292.888E-03     212.015E-03    -306.876E-03     599.537E-03    -292.588E-03     169.307E-03
             476     9.40334E-03     116.020E-03    -34.0359E+06     26.7955E+06     63.7617E+06     2.44047E+06    -297.880E-03     590.783E-03    -292.904E-03     213.690E-03    -306.628E-03     599.321E-03    -292.574E-03     170.286E-03
             477     10.0764E-03     116.334E-03    -27.5984E+06     33.8036E+06     72.6823E+06     2.42164E+06    -296.876E-03     589.759E-03    -292.883E-03     211.311E-03    -305.568E-03     598.262E-03    -292.529E-03     167.707E-03
             478     10.7493E-03     116.635E-03    -20.1178E+06     40.0699E+06     78.5905E+06     1.18821E+06    -296.036E-03     588.864E-03    -292.828E-03     205.166E-03    -304.429E-03     597.100E-03    -292.464E-03     161.841E-03
             479     11.4205E-03     116.926E-03    -13.8888E+06     39.9568E+06     74.7146E+06     627.101E+03    -295.158E-03     587.899E-03    -292.741E-03     192.050E-03    -302.773E-03     595.390E-03    -292.405E-03     150.271E-03
             480     12.0914E-03     117.186E-03    -9.97639E+06     46.6866E+06     74.4265E+06    -946.753E+03    -293.671E-03     586.338E-03    -292.667E-03     181.514E-03    -300.915E-03     593.497E-03    -292.348E-03     139.931E-03
             481     12.7676E-03     117.436E-03    -4.50355E+06     55.5540E+06     82.4526E+06    -835.704E+03    -292.165E-03     584.796E-03    -292.632E-03     138.044E-03    -297.242E-03     589.816E-03    -292.293E-03     103.305E-03
             482     671.465E-06     114.995E-03    -133.962E+06    -229.539E+06    -131.022E+06     1.35672E+06    -292.915E-03     585.417E-03    -292.502E-03     23.6177E-03    -293.174E-03     584.766E-03    -292.630E-03     19.0254E-03
             483     1.34308E-03     115.045E-03    -130.109E+06    -214.672E+06    -120.567E+06     845.302E+03    -292.896E-03     585.585E-03    -292.689E-03     43.2210E-03    -293.399E-03     585.213E-03    -292.792E-03     34.9311E-03
             484     2.01473E-03     115.124E-03    -124.378E+06    -196.739E+06    -105.245E+06     351.098E+03    -293.183E-03     585.902E-03    -292.719E-03     63.8006E-03    -294.086E-03     585.971E-03    -292.780E-03     51.5194E-03
             485     2.68630E-03     115.235E-03    -117.142E+06    -180.700E+06    -86.2813E+06     428.555E+03    -293.560E-03     586.325E-03    -292.765E-03     84.3948E-03    -295.009E-03     586.967E-03    -292.765E-03     68.1053E-03
             486     3.35794E-03     115.375E-03    -109.269E+06    -167.715E+06    -66.4684E+06     412.289E+03    -294.054E-03     586.868E-03    -292.814E-03     104.641E-03    -296.183E-03     588.206E-03    -292.745E-03     84.3758E-03
             487     4.02977E-03     115.546E-03    -100.785E+06    -138.041E+06    -47.7137E+06     98.1942E+03    -294.645E-03     587.479E-03    -292.834E-03     124.273E-03    -297.603E-03     589.727E-03    -292.726E-03     100.092E-03
             488     4.70141E-03     115.745E-03    -91.7410E+06    -100.641E+06    -29.1557E+06     72.7489E+03    -295.278E-03     588.120E-03    -292.842E-03     143.058E-03    -299.174E-03     591.418E-03    -292.709E-03     115.115E-03
             489     5.37293E-03     115.971E-03    -82.2594E+06    -69.7037E+06    -10.9944E+06     441.644E+03    -295.880E-03     588.733E-03    -292.853E-03     160.566E-03    -300.763E-03     593.109E-03    -292.688E-03     129.115E-03
             490     6.04455E-03     116.222E-03    -72.9449E+06    -33.2328E+06     7.09482E+06     193.921E+03    -296.518E-03     589.369E-03    -292.851E-03     176.466E-03    -302.413E-03     594.866E-03    -292.661E-03     141.797E-03
             491     6.71664E-03     116.496E-03    -65.1256E+06    -7.90956E+06     23.4201E+06    -928.212E+03    -297.272E-03     590.137E-03    -292.865E-03     190.084E-03    -304.107E-03     596.645E-03    -292.642E-03     152.591E-03
             492     7.38822E-03     116.788E-03    -57.9362E+06     1.60107E+06     34.9496E+06    -1.55363E+06    -297.818E-03     590.707E-03    -292.889E-03     200.627E-03    -305.434E-03     598.021E-03    -292.632E-03     160.819E-03
             493     8.05977E-03     117.093E-03    -49.5940E+06     9.29156E+06     42.6864E+06    -978.429E+03    -297.969E-03     590.858E-03    -292.888E-03     208.155E-03    -306.161E-03     598.782E-03    -292.617E-03     166.658E-03
             494     8.73178E-03     117.406E-03    -42.3520E+06     15.5003E+06     49.1598E+06     293.870E+03    -297.721E-03     590.584E-03    -292.863E-03     212.619E-03    -306.282E-03     598.907E-03    -292.578E-03     170.005E-03
             495     9.40467E-03     117.722E-03    -35.0602E+06     24.9028E+06     59.8240E+06     920.298E+03    -297.072E-03     589.897E-03    -292.825E-03     213.660E-03    -305.805E-03     598.420E-03    -292.511E-03     170.370E-03
             496     10.0770E-03     118.033E-03    -26.3124E+06     34.0919E+06     71.4485E+06     827.132E+03    -296.479E-03     589.254E-03    -292.775E-03     210.997E-03    -305.147E-03     597.743E-03    -292.429E-03     167.443E-03
             497     10.7489E-03     118.337E-03    -19.4276E+06     39.4271E+06     77.7842E+06     1.71589E+06    -295.998E-03     588.715E-03    -292.717E-03     205.374E-03    -304.387E-03     596.949E-03    -292.357E-03     162.065E-03
             498     11.4222E-03     118.628E-03    -13.9830E+06     40.6667E+06     75.2133E+06     1.67486E+06    -295.038E-03     587.673E-03    -292.635E-03     192.473E-03    -302.666E-03     595.178E-03    -292.298E-03     150.673E-03
             499     12.0969E-03     118.886E-03    -8.04495E+06     50.7095E+06     80.4696E+06     472.808E+03    -294.544E-03     587.153E-03    -292.609E-03     180.579E-03    -301.781E-03     594.308E-03    -292.269E-03     138.871E-03
             500     12.7666E-03     119.135E-03    -4.32839E+06     57.6370E+06     87.7233E+06    -731.128E+03    -294.267E-03     586.932E-03    -292.665E-03     136.112E-03    -299.330E-03     591.930E-03    -292.303E-03     101.191E-03
             501     671.440E-06     116.697E-03    -130.133E+06    -232.232E+06    -130.566E+06     198.371E+03    -293.227E-03     585.765E-03    -292.539E-03     23.6601E-03    -293.463E-03     585.095E-03    -292.666E-03     19.0467E-03
             502     1.34293E-03     116.746E-03    -127.888E+06    -214.258E+06    -121.869E+06     160.767E+03    -292.962E-03     585.781E-03    -292.819E-03     43.2742E-03    -293.453E-03     585.411E-03    -292.932E-03     34.9708E-03
             503     2.01448E-03     116.826E-03    -123.686E+06    -197.870E+06    -106.379E+06     606.611E+03    -293.221E-03     586.040E-03    -292.819E-03     63.8783E-03    -294.118E-03     586.105E-03    -292.885E-03     51.5944E-03
             504     2.68603E-03     116.936E-03    -117.333E+06    -180.903E+06    -87.4593E+06     685.667E+03    -293.627E-03     586.476E-03    -292.849E-03     84.4481E-03    -295.075E-03     587.119E-03    -292.854E-03     68.1589E-03
             505     3.35766E-03     117.077E-03    -109.195E+06    -167.025E+06    -67.3786E+06     307.401E+03    -294.110E-03     587.001E-03    -292.891E-03     104.669E-03    -296.237E-03     588.342E-03    -292.827E-03     84.4143E-03
             506     4.02919E-03     117.247E-03    -100.391E+06    -137.762E+06    -47.8224E+06     152.397E+03    -294.621E-03     587.523E-03    -292.902E-03     124.351E-03    -297.573E-03     589.768E-03    -292.796E-03     100.207E-03
             507     4.70088E-03     117.447E-03    -91.5544E+06    -100.852E+06    -28.5675E+06     130.669E+03    -295.212E-03     588.107E-03    -292.895E-03     143.247E-03    -299.104E-03     591.399E-03    -292.759E-03     115.356E-03
             508     5.37278E-03     117.673E-03    -82.8023E+06    -69.2118E+06    -10.0683E+06    -466.887E+03    -295.904E-03     588.799E-03    -292.895E-03     160.827E-03    -300.792E-03     593.177E-03    -292.725E-03     129.385E-03
             509     6.04486E-03     117.924E-03    -73.8233E+06    -33.3203E+06     7.52929E+06    -559.631E+03    -296.619E-03     589.510E-03    -292.891E-03     176.705E-03    -302.520E-03     595.009E-03    -292.698E-03     142.024E-03
             510     6.71636E-03     118.199E-03    -64.5037E+06    -7.83480E+06     22.9267E+06     959.316E+03    -297.165E-03     590.055E-03    -292.891E-03     190.281E-03    -303.994E-03     596.562E-03    -292.671E-03     152.846E-03
             511     7.38814E-03     118.491E-03    -55.9142E+06     3.63881E+06     35.2370E+06     1.62040E+06    -297.444E-03     590.327E-03    -292.883E-03     201.056E-03    -305.047E-03     597.642E-03    -292.631E-03     161.400E-03
             512     8.06034E-03     118.795E-03    -49.3390E+06     10.3728E+06     44.1207E+06     636.837E+03    -297.520E-03     590.370E-03    -292.850E-03     208.822E-03    -305.717E-03     598.301E-03    -292.573E-03     167.457E-03
             513     8.73273E-03     119.107E-03    -42.5875E+06     15.1623E+06     51.1091E+06    -930.912E+03    -297.344E-03     590.138E-03    -292.794E-03     213.136E-03    -305.917E-03     598.465E-03    -292.498E-03     170.577E-03
             514     9.40494E-03     119.421E-03    -34.0542E+06     24.3932E+06     60.6939E+06    -1.79431E+06    -297.005E-03     589.740E-03    -292.734E-03     213.910E-03    -305.741E-03     598.264E-03    -292.417E-03     170.594E-03
             515     10.0781E-03     119.734E-03    -26.7928E+06     31.3986E+06     69.7514E+06    -1.03014E+06    -296.622E-03     589.306E-03    -292.684E-03     211.067E-03    -305.283E-03     597.781E-03    -292.342E-03     167.477E-03
             516     10.7515E-03     120.038E-03    -21.1964E+06     36.5367E+06     75.4476E+06    -390.990E+03    -296.170E-03     588.813E-03    -292.644E-03     204.493E-03    -304.553E-03     597.032E-03    -292.289E-03     161.047E-03
             517     11.4239E-03     120.327E-03    -15.7701E+06     42.9022E+06     73.8566E+06    -1.59214E+06    -295.901E-03     588.510E-03    -292.609E-03     190.120E-03    -303.532E-03     596.023E-03    -292.279E-03     147.947E-03
             518     12.0935E-03     120.588E-03    -10.7858E+06     50.3280E+06     76.5817E+06    -122.223E+03    -295.435E-03     588.078E-03    -292.643E-03     178.527E-03    -302.623E-03     595.184E-03    -292.317E-03     136.768E-03
             519     12.7636E-03     120.846E-03    -4.00459E+06     55.8644E+06     85.2229E+06     1.25892E+06    -293.115E-03     585.812E-03    -292.698E-03     137.611E-03    -298.155E-03     590.789E-03    -292.347E-03     102.944E-03
             520     671.303E-06     118.399E-03    -130.876E+06    -232.863E+06    -129.183E+06    -56.3158E+03    -293.358E-03     585.837E-03    -292.480E-03     23.6952E-03    -293.599E-03     585.163E-03    -292.598E-03     19.0786E-03
             521     1.34277E-03     118.448E-03    -129.291E+06    -215.696E+06    -121.472E+06     638.408E+03    -293.038E-03     585.906E-03    -292.868E-03     43.4078E-03    -293.536E-03     585.531E-03    -292.975E-03     35.1068E-03
             522     2.01430E-03     118.528E-03    -124.320E+06    -198.252E+06    -106.523E+06     407.517E+03    -293.266E-03     586.135E-03    -292.869E-03     64.1046E-03    -294.167E-03     586.200E-03    -292.934E-03     51.8260E-03
             523     2.68593E-03     118.638E-03    -117.109E+06    -180.864E+06    -87.8765E+06     89.5615E+03    -293.653E-03     586.542E-03    -292.889E-03     84.6882E-03    -295.100E-03     587.186E-03    -292.896E-03     68.4159E-03
             524     3.35742E-03     118.779E-03    -109.139E+06    -166.795E+06    -67.5549E+06     235.029E+03    -294.121E-03     587.044E-03    -292.923E-03     104.962E-03    -296.250E-03     588.389E-03    -292.861E-03     84.7158E-03
             525     4.02917E-03     118.949E-03    -100.998E+06    -137.831E+06    -47.8698E+06     344.595E+03    -294.605E-03     587.530E-03    -292.926E-03     124.722E-03    -297.563E-03     589.780E-03    -292.819E-03     100.587E-03
             526     4.70111E-03     119.148E-03    -92.3585E+06    -100.564E+06    -28.3158E+06     288.998E+03    -295.201E-03     588.112E-03    -292.911E-03     143.501E-03    -299.097E-03     591.405E-03    -292.773E-03     115.634E-03
             527     5.37290E-03     119.375E-03    -83.3928E+06    -67.9441E+06    -9.46081E+06     269.374E+03    -295.914E-03     588.820E-03    -292.905E-03     161.017E-03    -300.808E-03     593.203E-03    -292.733E-03     129.602E-03
             528     6.04419E-03     119.626E-03    -74.9591E+06    -33.7587E+06     7.18035E+06     347.116E+03    -296.499E-03     589.388E-03    -292.889E-03     177.124E-03    -302.410E-03     594.892E-03    -292.695E-03     142.481E-03
             529     6.71612E-03     119.900E-03    -66.2758E+06    -9.87787E+06     21.2202E+06     -48.321E+03    -296.823E-03     589.680E-03    -292.856E-03     190.966E-03    -303.671E-03     596.196E-03    -292.640E-03     153.544E-03
             530     7.38870E-03     120.191E-03    -57.2028E+06     2.17499E+06     33.0735E+06     231.267E+03    -297.062E-03     589.870E-03    -292.808E-03     201.626E-03    -304.677E-03     597.194E-03    -292.563E-03     161.989E-03
             531     8.06131E-03     120.496E-03    -48.7436E+06     11.5862E+06     42.8419E+06     858.165E+03    -297.201E-03     589.946E-03    -292.746E-03     208.818E-03    -305.394E-03     597.883E-03    -292.477E-03     167.495E-03
             532     8.73396E-03     120.808E-03    -40.7176E+06     20.3923E+06     52.0086E+06     273.155E+03    -297.236E-03     589.922E-03    -292.686E-03     212.717E-03    -305.804E-03     598.266E-03    -292.396E-03     170.161E-03
             533     9.40694E-03     121.123E-03    -34.3706E+06     27.4351E+06     62.4218E+06    -1.07686E+06    -297.317E-03     589.975E-03    -292.657E-03     213.311E-03    -306.059E-03     598.511E-03    -292.335E-03     169.903E-03
             534     10.0787E-03     121.434E-03    -28.7341E+06     31.0851E+06     71.2274E+06    -2.55611E+06    -297.291E-03     589.953E-03    -292.662E-03     209.949E-03    -305.963E-03     598.426E-03    -292.309E-03     166.145E-03
             535     10.7499E-03     121.738E-03    -21.4157E+06     34.5138E+06     75.8867E+06    -2.91506E+06    -296.930E-03     589.606E-03    -292.676E-03     203.367E-03    -305.319E-03     597.821E-03    -292.316E-03     159.655E-03
             536     11.4205E-03     122.030E-03    -15.0408E+06     40.8808E+06     71.7373E+06    -951.483E+03    -296.093E-03     588.747E-03    -292.654E-03     191.351E-03    -303.699E-03     596.236E-03    -292.333E-03     149.415E-03
             537     12.0913E-03     122.295E-03    -11.0175E+06     47.5658E+06     72.8789E+06    -602.385E+03    -294.228E-03     586.861E-03    -292.633E-03     182.114E-03    -301.459E-03     594.010E-03    -292.322E-03     140.650E-03
             538     12.7663E-03     122.539E-03    -4.06963E+06     54.2672E+06     83.0880E+06     -821.57E+03    -292.085E-03     584.703E-03    -292.618E-03     139.383E-03    -297.196E-03     589.751E-03    -292.276E-03     104.614E-03
             539     671.579E-06     120.101E-03    -133.486E+06    -235.097E+06    -131.631E+06     1.40583E+06    -293.251E-03     585.686E-03    -292.435E-03     23.7337E-03    -293.500E-03     585.009E-03    -292.558E-03     19.1043E-03
             540     1.34298E-03     120.150E-03    -129.923E+06    -215.140E+06    -121.399E+06     202.485E+03    -293.047E-03     585.861E-03    -292.814E-03     43.4881E-03    -293.549E-03     585.491E-03    -292.921E-03     35.1698E-03
             541     2.01447E-03     120.230E-03    -123.874E+06    -197.213E+06    -105.838E+06    -541.972E+03    -293.272E-03     586.111E-03    -292.838E-03     64.2496E-03    -294.174E-03     586.179E-03    -292.902E-03     51.9641E-03
             542     2.68595E-03     120.340E-03    -117.302E+06    -181.172E+06    -87.1837E+06    -386.759E+03    -293.602E-03     586.464E-03    -292.862E-03     84.9357E-03    -295.052E-03     587.107E-03    -292.865E-03     68.6606E-03
             543     3.35771E-03     120.481E-03    -109.162E+06    -168.177E+06    -67.0777E+06     87.9305E+03    -294.086E-03     586.977E-03    -292.891E-03     105.185E-03    -296.217E-03     588.318E-03    -292.824E-03     84.9330E-03
             544     4.02941E-03     120.651E-03    -99.9651E+06    -138.277E+06    -47.5119E+06     582.805E+03    -294.651E-03     587.545E-03    -292.894E-03     124.849E-03    -297.606E-03     589.792E-03    -292.786E-03     100.717E-03
             545     4.70096E-03     120.850E-03    -91.0878E+06    -100.965E+06    -28.4553E+06     1.07784E+06    -295.186E-03     588.066E-03    -292.880E-03     143.733E-03    -299.077E-03     591.358E-03    -292.744E-03     115.885E-03
             546     5.37264E-03     121.077E-03    -82.5924E+06    -69.3366E+06    -9.99589E+06     2.00352E+06    -295.670E-03     588.525E-03    -292.856E-03     161.647E-03    -300.563E-03     592.909E-03    -292.685E-03     130.298E-03
             547     6.04507E-03     121.328E-03    -73.6704E+06    -32.4272E+06     8.45913E+06     2.11840E+06    -296.118E-03     588.923E-03    -292.804E-03     177.884E-03    -302.039E-03     594.442E-03    -292.608E-03     143.315E-03
             548     6.71764E-03     121.601E-03    -65.0174E+06    -7.29242E+06     24.4045E+06     1.16549E+06    -296.666E-03     589.419E-03    -292.753E-03     191.392E-03    -303.526E-03     595.951E-03    -292.526E-03     154.007E-03
             549     7.38977E-03     121.893E-03    -57.1730E+06     2.27936E+06     35.0081E+06     2.49478E+03    -297.127E-03     589.834E-03    -292.708E-03     201.580E-03    -304.752E-03     597.164E-03    -292.453E-03     161.908E-03
             550     8.06199E-03     122.196E-03    -48.8632E+06     11.5202E+06     43.0577E+06    -751.850E+03    -297.385E-03     590.046E-03    -292.661E-03     208.443E-03    -305.583E-03     597.986E-03    -292.391E-03     167.028E-03
             551     8.73438E-03     122.508E-03    -40.4506E+06     21.1605E+06     52.4988E+06    -700.359E+03    -297.661E-03     590.299E-03    -292.638E-03     212.040E-03    -306.231E-03     598.648E-03    -292.347E-03     169.340E-03
             552     9.40607E-03     122.823E-03    -32.0746E+06     29.3993E+06     64.6820E+06    -421.913E+03    -297.817E-03     590.477E-03    -292.660E-03     212.531E-03    -306.559E-03     599.021E-03    -292.333E-03     168.961E-03
             553     10.0779E-03     123.137E-03    -25.1003E+06     35.3090E+06     74.6017E+06    -861.989E+03    -297.533E-03     590.228E-03    -292.695E-03     209.945E-03    -306.206E-03     598.721E-03    -292.337E-03     166.103E-03
             554     10.7492E-03     123.442E-03    -19.1838E+06     34.3069E+06     77.1344E+06    -1.51565E+06    -296.695E-03     589.394E-03    -292.699E-03     204.891E-03    -305.090E-03     597.619E-03    -292.335E-03     161.340E-03
             555     11.4219E-03     123.732E-03    -13.4141E+06     37.6735E+06     70.4354E+06    -1.31467E+06    -294.998E-03     587.615E-03    -292.617E-03     192.489E-03    -302.603E-03     595.102E-03    -292.300E-03     150.719E-03
             556     12.0980E-03     123.992E-03    -6.98059E+06     49.9683E+06     75.6170E+06    -409.841E+03    -293.501E-03     586.056E-03    -292.555E-03     180.588E-03    -300.704E-03     593.193E-03    -292.239E-03     139.109E-03
             557     12.7691E-03     124.243E-03    -4.66483E+06     54.0189E+06     83.4738E+06    -565.811E+03    -293.840E-03     586.418E-03    -292.578E-03     137.813E-03    -298.913E-03     591.425E-03    -292.233E-03     103.034E-03
             558     671.446E-06     121.803E-03    -128.089E+06    -237.112E+06    -128.482E+06     63.6093E+03    -293.015E-03     585.499E-03    -292.484E-03     23.9114E-03    -293.239E-03     584.800E-03    -292.597E-03     19.2507E-03
             559     1.34300E-03     121.852E-03    -126.753E+06    -214.278E+06    -121.309E+06     408.783E+03    -292.965E-03     585.664E-03    -292.699E-03     43.6368E-03    -293.454E-03     585.294E-03    -292.811E-03     35.3090E-03
             560     2.01453E-03     121.931E-03    -123.914E+06    -197.598E+06    -105.536E+06     954.529E+03    -293.217E-03     585.957E-03    -292.739E-03     64.3926E-03    -294.120E-03     586.024E-03    -292.801E-03     52.1267E-03
             561     2.68630E-03     122.042E-03    -117.728E+06    -179.711E+06    -86.1247E+06     470.713E+03    -293.557E-03     586.335E-03    -292.777E-03     85.0271E-03    -295.015E-03     586.986E-03    -292.777E-03     68.7532E-03
             562     3.35793E-03     122.182E-03    -109.779E+06    -167.398E+06    -66.7389E+06    -833.858E+03    -294.034E-03     586.846E-03    -292.812E-03     105.360E-03    -296.172E-03     588.194E-03    -292.744E-03     85.0941E-03
             563     4.02950E-03     122.353E-03    -100.941E+06    -141.270E+06    -48.6076E+06    -558.488E+03    -294.531E-03     587.341E-03    -292.810E-03     125.239E-03    -297.489E-03     589.580E-03    -292.702E-03     101.104E-03
             564     4.70144E-03     122.552E-03    -91.9369E+06    -104.274E+06    -29.5367E+06     1.16578E+06    -294.963E-03     587.741E-03    -292.778E-03     144.245E-03    -298.862E-03     591.029E-03    -292.642E-03     116.405E-03
             565     5.37385E-03     122.778E-03    -82.3457E+06    -69.9782E+06    -9.77211E+06     1.40879E+06    -295.457E-03     588.193E-03    -292.736E-03     161.885E-03    -300.356E-03     592.579E-03    -292.564E-03     130.532E-03
             566     6.04616E-03     123.029E-03    -72.3509E+06    -33.4865E+06     8.41921E+06     1.36345E+06    -296.088E-03     588.771E-03    -292.683E-03     177.519E-03    -301.994E-03     594.277E-03    -292.487E-03     142.940E-03
             567     6.71823E-03     123.303E-03    -62.7090E+06    -6.88334E+06     23.9803E+06     2.22227E+06    -296.732E-03     589.378E-03    -292.646E-03     190.623E-03    -303.562E-03     595.891E-03    -292.425E-03     153.262E-03
             568     7.39038E-03     123.594E-03    -54.0284E+06     6.44196E+06     36.9360E+06     1.85483E+06    -297.236E-03     589.868E-03    -292.631E-03     200.806E-03    -304.844E-03     597.199E-03    -292.378E-03     161.129E-03
             569     8.06257E-03     123.897E-03    -46.0170E+06     15.1587E+06     48.5559E+06     252.945E+03    -297.756E-03     590.392E-03    -292.637E-03     207.998E-03    -305.953E-03     598.340E-03    -292.349E-03     166.510E-03
             570     8.73422E-03     124.210E-03    -37.9719E+06     22.2108E+06     58.5128E+06    -1.51136E+06    -298.163E-03     590.823E-03    -292.660E-03     212.101E-03    -306.736E-03     599.171E-03    -292.345E-03     169.326E-03
             571     9.40576E-03     124.526E-03    -30.5713E+06     27.5009E+06     66.7807E+06    -2.07498E+06    -298.014E-03     590.704E-03    -292.690E-03     213.210E-03    -306.769E-03     599.255E-03    -292.352E-03     169.589E-03
             572     10.0774E-03     124.839E-03    -23.2512E+06     34.6715E+06     74.8777E+06    -769.548E+03    -297.181E-03     589.884E-03    -292.703E-03     210.580E-03    -305.874E-03     598.400E-03    -292.345E-03     166.713E-03
             573     10.7509E-03     125.142E-03    -16.9458E+06     35.5791E+06     78.2937E+06     314.907E+03    -296.334E-03     589.021E-03    -292.686E-03     204.103E-03    -304.723E-03     597.249E-03    -292.322E-03     160.514E-03
             574     11.4236E-03     125.433E-03    -11.4676E+06     39.6425E+06     72.9012E+06     361.850E+03    -295.705E-03     588.343E-03    -292.637E-03     189.359E-03    -303.289E-03     595.815E-03    -292.313E-03     147.298E-03
             575     12.0923E-03     125.691E-03    -8.63439E+06     49.1844E+06     74.2599E+06    -1.17076E+06    -295.403E-03     588.066E-03    -292.663E-03     176.699E-03    -302.554E-03     595.146E-03    -292.351E-03     134.832E-03
             576     12.7647E-03     125.945E-03    -6.80272E+06     51.7779E+06     80.6796E+06    -550.998E+03    -295.089E-03     587.868E-03    -292.779E-03     134.452E-03    -300.059E-03     592.764E-03    -292.441E-03     99.8510E-03
             577     671.725E-06     123.504E-03     -132.43E+06    -237.751E+06    -130.392E+06    -444.615E+03    -292.672E-03     585.149E-03    -292.477E-03     24.2006E-03    -292.914E-03     584.456E-03    -292.592E-03     19.5275E-03
             578     1.34337E-03     123.553E-03    -129.019E+06    -217.598E+06    -120.770E+06     1.07915E+06    -292.847E-03     585.400E-03    -292.553E-03     43.7011E-03    -293.342E-03     585.015E-03    -292.655E-03     35.4166E-03
             579     2.01507E-03     123.633E-03    -122.847E+06    -197.358E+06    -104.229E+06     1.01347E+06    -293.137E-03     585.743E-03    -292.606E-03     64.4237E-03    -294.036E-03     585.808E-03    -292.663E-03     52.1869E-03
             580     2.68653E-03     123.743E-03    -114.779E+06    -178.822E+06    -84.7739E+06     531.448E+03    -293.494E-03     586.149E-03    -292.655E-03     85.1189E-03    -294.941E-03     586.800E-03    -292.653E-03     68.8508E-03
             581     3.35825E-03     123.884E-03    -106.600E+06    -164.612E+06    -63.7839E+06     435.271E+03    -293.895E-03     586.591E-03    -292.696E-03     105.536E-03    -296.028E-03     587.947E-03    -292.622E-03     85.2845E-03
             582     4.03034E-03     124.054E-03    -98.5543E+06    -143.668E+06    -44.2456E+06     530.378E+03    -294.350E-03     587.051E-03    -292.702E-03     125.267E-03    -297.303E-03     589.273E-03    -292.572E-03     101.135E-03
             583     4.70251E-03     124.252E-03    -89.3019E+06    -107.008E+06    -26.4040E+06     791.986E+03    -294.907E-03     587.574E-03    -292.667E-03     143.893E-03    -298.793E-03     590.839E-03    -292.514E-03     116.024E-03
             584     5.37441E-03     124.478E-03    -79.7561E+06    -68.5888E+06    -9.22882E+06     582.397E+03    -295.627E-03     588.261E-03    -292.634E-03     161.284E-03    -300.510E-03     592.644E-03    -292.465E-03     129.884E-03
             585     6.04622E-03     124.730E-03    -70.7934E+06    -36.1843E+06     7.57282E+06     755.219E+03    -296.318E-03     588.940E-03    -292.621E-03     176.987E-03    -302.205E-03     594.425E-03    -292.428E-03     142.363E-03
             586     6.71819E-03     125.004E-03    -61.9688E+06    -8.48119E+06     23.5471E+06     1.03097E+06    -296.805E-03     589.418E-03    -292.613E-03     190.257E-03    -303.628E-03     595.923E-03    -292.393E-03     152.837E-03
             587     7.39041E-03     125.294E-03    -52.8086E+06     8.11774E+06     37.4070E+06     570.365E+03    -297.397E-03     590.012E-03    -292.615E-03     200.594E-03    -304.996E-03     597.344E-03    -292.363E-03     160.886E-03
             588     8.06225E-03     125.599E-03    -43.5119E+06     17.5123E+06     49.4641E+06     191.447E+03    -297.970E-03     590.608E-03    -292.638E-03     207.869E-03    -306.155E-03     598.557E-03    -292.353E-03     166.371E-03
             589     8.73405E-03     125.912E-03    -36.2554E+06     24.8816E+06     59.0376E+06     589.374E+03    -298.097E-03     590.763E-03    -292.666E-03     212.098E-03    -306.670E-03     599.124E-03    -292.355E-03     169.345E-03
             590     9.40612E-03     126.228E-03    -31.1120E+06     29.2467E+06     67.4271E+06      380.02E+03    -297.890E-03     590.586E-03    -292.696E-03     212.972E-03    -306.656E-03     599.150E-03    -292.356E-03     169.350E-03
             591     10.0786E-03     126.540E-03    -25.1593E+06     34.7435E+06     75.4826E+06    -1.01046E+06    -297.645E-03     590.377E-03    -292.732E-03     209.478E-03    -306.358E-03     598.906E-03    -292.368E-03     165.404E-03
             592     10.7494E-03     126.843E-03    -18.1746E+06     35.1221E+06     78.1289E+06    -1.92411E+06    -297.649E-03     590.431E-03    -292.782E-03     202.347E-03    -306.048E-03     598.663E-03    -292.415E-03     158.380E-03
             593     11.4194E-03     127.135E-03    -12.3371E+06     36.2566E+06     71.2368E+06    -293.909E+03    -297.378E-03     590.206E-03    -292.829E-03     187.805E-03    -304.977E-03     597.684E-03    -292.507E-03     145.249E-03
             594     12.0919E-03     127.397E-03    -7.07320E+06     49.0123E+06     74.6305E+06     1.08214E+06    -296.987E-03     589.932E-03    -292.946E-03     176.857E-03    -304.172E-03     597.050E-03    -292.634E-03     134.621E-03
             595     12.7584E-03     127.653E-03    -4.36213E+06     54.5110E+06     80.2103E+06     1.76778E+06    -293.793E-03     586.838E-03    -293.044E-03     136.226E-03    -298.795E-03     591.784E-03    -292.716E-03     101.680E-03
             596     671.802E-06     125.205E-03    -127.432E+06    -236.948E+06    -125.351E+06    -560.782E+03    -292.623E-03     585.099E-03    -292.476E-03     23.9864E-03    -292.848E-03     584.394E-03    -292.574E-03     19.3344E-03
             597     1.34345E-03     125.254E-03    -124.252E+06    -219.600E+06    -117.764E+06    -563.158E+03    -292.727E-03     585.233E-03    -292.506E-03     43.4708E-03    -293.200E-03     584.827E-03    -292.596E-03     35.1577E-03
             598     2.01506E-03     125.334E-03    -119.016E+06    -196.282E+06    -104.034E+06    -667.777E+03    -292.984E-03     585.496E-03    -292.511E-03     64.2778E-03    -293.867E-03     585.560E-03    -292.574E-03     51.9972E-03
             599     2.68702E-03     125.444E-03    -112.839E+06    -180.504E+06    -84.4574E+06    -191.019E+03    -293.336E-03     585.885E-03    -292.549E-03     84.9246E-03    -294.771E-03     586.523E-03    -292.546E-03     68.6456E-03
             600     3.35895E-03     125.585E-03    -105.077E+06    -166.810E+06    -63.6401E+06     1.29968E+06    -293.819E-03     586.408E-03    -292.590E-03     105.144E-03    -295.938E-03     587.747E-03    -292.514E-03     84.9069E-03
             601     4.03073E-03     125.754E-03    -96.3350E+06    -142.820E+06    -43.9842E+06     1.67611E+06    -294.402E-03     587.012E-03    -292.610E-03     124.720E-03    -297.339E-03     589.228E-03    -292.484E-03     100.595E-03
             602     4.70244E-03     125.953E-03    -87.6136E+06    -105.326E+06    -25.3231E+06     353.288E+03    -295.068E-03     587.681E-03    -292.613E-03     143.435E-03    -298.944E-03     590.946E-03    -292.459E-03     115.535E-03
             603     5.37436E-03     126.179E-03    -78.9225E+06    -69.3967E+06    -7.74004E+06     224.088E+03    -295.771E-03     588.389E-03    -292.618E-03     161.023E-03    -300.651E-03     592.764E-03    -292.441E-03     129.581E-03
             604     6.04630E-03     126.431E-03    -69.7935E+06    -37.4686E+06     9.50725E+06     722.697E+03    -296.390E-03     589.016E-03    -292.626E-03     176.766E-03    -302.275E-03     594.493E-03    -292.423E-03     142.105E-03
             605     6.71842E-03     126.704E-03    -60.5045E+06    -8.04603E+06     26.4265E+06     435.637E+03    -296.994E-03     589.631E-03    -292.638E-03     189.936E-03    -303.817E-03     596.135E-03    -292.406E-03     152.443E-03
             606     7.39033E-03     126.996E-03    -51.4568E+06     8.76825E+06     39.0231E+06     371.180E+03    -297.614E-03     590.269E-03    -292.655E-03     200.288E-03    -305.209E-03     597.600E-03    -292.398E-03     160.523E-03
             607     8.06205E-03     127.301E-03    -44.3881E+06     16.2091E+06     47.7964E+06     973.581E+03    -297.993E-03     590.673E-03    -292.680E-03     207.491E-03    -306.177E-03     598.618E-03    -292.400E-03     165.962E-03
             608     8.73396E-03     127.613E-03    -38.2719E+06     23.8396E+06     57.0302E+06     1.48549E+06    -298.154E-03     590.869E-03    -292.715E-03     211.321E-03    -306.735E-03     599.234E-03    -292.409E-03     168.475E-03
             609     9.40580E-03     127.929E-03    -31.2639E+06     31.4971E+06     67.5917E+06     1.01744E+06    -298.313E-03     591.087E-03    -292.774E-03     211.655E-03    -307.067E-03     599.647E-03    -292.437E-03     167.921E-03
             610     10.0765E-03     128.243E-03    -24.7471E+06     37.4057E+06     75.9320E+06     200.129E+03    -298.459E-03     591.317E-03    -292.858E-03     208.377E-03    -307.151E-03     599.834E-03    -292.497E-03     164.217E-03
             611     10.7471E-03     128.548E-03    -19.7472E+06     37.3291E+06     77.3320E+06    -216.626E+03    -298.442E-03     591.392E-03    -292.950E-03     202.706E-03    -306.834E-03     599.622E-03    -292.588E-03     158.806E-03
             612     11.4171E-03     128.842E-03    -15.4126E+06     33.6998E+06     69.5461E+06    -806.154E+03    -297.662E-03     590.672E-03    -293.010E-03     190.740E-03    -305.332E-03     598.205E-03    -292.689E-03     148.175E-03
             613     12.0843E-03     129.102E-03    -10.7141E+06     43.0582E+06     71.1167E+06     896.646E+03    -295.564E-03     588.619E-03    -293.055E-03     182.272E-03    -302.832E-03     595.796E-03    -292.747E-03     140.414E-03
             614     12.7577E-03     129.360E-03    -3.18849E+06     56.2972E+06     80.7993E+06     1.56843E+06    -290.816E-03     583.822E-03    -293.006E-03     139.820E-03    -295.888E-03     588.848E-03    -292.679E-03     105.369E-03
             615     671.354E-06     126.906E-03    -125.782E+06    -234.290E+06    -124.068E+06    -714.964E+03    -292.718E-03     585.093E-03    -292.375E-03     24.0341E-03    -292.940E-03     584.397E-03    -292.474E-03     19.4142E-03
             616     1.34326E-03     126.955E-03    -123.532E+06    -218.449E+06    -116.486E+06    -1.00469E+06    -292.654E-03     585.143E-03    -292.489E-03     43.7320E-03    -293.128E-03     584.741E-03    -292.575E-03     35.3998E-03
             617     2.01524E-03     127.034E-03    -120.263E+06    -197.279E+06    -103.285E+06    -157.133E+03    -292.905E-03     585.383E-03    -292.478E-03     64.2759E-03    -293.795E-03     585.445E-03    -292.534E-03     51.9719E-03
             618     2.68699E-03     127.145E-03    -114.482E+06    -182.301E+06    -84.5686E+06     635.081E+03    -293.311E-03     585.824E-03    -292.513E-03     84.7159E-03    -294.750E-03     586.455E-03    -292.506E-03     68.4350E-03
             619     3.35877E-03     127.285E-03    -107.002E+06    -170.149E+06    -65.7843E+06     863.370E+03    -293.911E-03     586.475E-03    -292.564E-03     104.835E-03    -296.027E-03     587.799E-03    -292.491E-03     84.5897E-03
             620     4.03061E-03     127.455E-03    -98.6003E+06    -141.270E+06    -47.6249E+06     463.373E+03    -294.539E-03     587.138E-03    -292.599E-03     124.368E-03    -297.480E-03     589.365E-03    -292.489E-03     100.219E-03
             621     4.70257E-03     127.654E-03    -89.6914E+06    -102.995E+06    -27.3739E+06    -108.394E+03    -295.171E-03     587.801E-03    -292.631E-03     143.119E-03    -299.055E-03     591.081E-03    -292.488E-03     115.193E-03
             622     5.37429E-03     127.881E-03    -80.5425E+06    -70.7891E+06    -7.16407E+06    -336.431E+03    -295.834E-03     588.502E-03    -292.668E-03     160.572E-03    -300.718E-03     592.869E-03    -292.484E-03     129.086E-03
             623     6.04619E-03     128.132E-03    -71.5298E+06    -36.8294E+06     10.3611E+06    -738.154E+03    -296.511E-03     589.200E-03    -292.689E-03     176.137E-03    -302.397E-03     594.671E-03    -292.480E-03     141.419E-03
             624     6.71784E-03     128.406E-03    -62.5247E+06    -8.44074E+06     26.3578E+06    -949.226E+03    -297.232E-03     589.950E-03    -292.719E-03     189.384E-03    -304.057E-03     596.448E-03    -292.484E-03     151.816E-03
             625     7.38926E-03     128.698E-03    -54.7648E+06     6.10764E+06     37.0140E+06    -33.5496E+03    -297.800E-03     590.554E-03    -292.754E-03     199.696E-03    -305.410E-03     597.884E-03    -292.498E-03     159.808E-03
             626     8.06118E-03     129.002E-03    -47.6680E+06     13.9916E+06     44.9540E+06     804.648E+03    -298.186E-03     590.979E-03    -292.793E-03     206.683E-03    -306.378E-03     598.920E-03    -292.519E-03     165.046E-03
             627     8.73263E-03     129.316E-03    -39.7508E+06     23.0518E+06     55.2482E+06     663.926E+03    -298.530E-03     591.382E-03    -292.852E-03     210.484E-03    -307.096E-03     599.728E-03    -292.552E-03     167.579E-03
             628     9.40336E-03     129.632E-03    -32.6354E+06     31.8192E+06     65.8133E+06     702.260E+03    -298.681E-03     591.611E-03    -292.930E-03     211.507E-03    -307.412E-03     600.149E-03    -292.600E-03     167.843E-03
             629     10.0744E-03     129.947E-03    -26.8126E+06     36.8478E+06     73.0385E+06     1.49561E+06    -298.410E-03     591.412E-03    -293.002E-03     209.467E-03    -307.077E-03     599.902E-03    -292.651E-03     165.589E-03
             630     10.7452E-03     130.253E-03    -20.8242E+06     38.6143E+06     76.4855E+06     2.53671E+06    -297.499E-03     590.540E-03    -293.041E-03     204.731E-03    -305.891E-03     598.773E-03    -292.684E-03     161.202E-03
             631     11.4170E-03     130.547E-03    -15.4098E+06     35.2823E+06     72.1530E+06     1.59425E+06    -295.711E-03     588.714E-03    -293.003E-03     193.589E-03    -303.380E-03     596.244E-03    -292.671E-03     151.615E-03
             632     12.0924E-03     130.809E-03    -10.4143E+06     43.2975E+06     74.6637E+06    -1.30659E+06    -293.308E-03     586.228E-03    -292.920E-03     183.011E-03    -300.558E-03     593.378E-03    -292.595E-03     141.604E-03
             633     12.7679E-03     131.052E-03    -4.51965E+06     57.2183E+06     84.1119E+06    -1.36604E+06    -291.878E-03     584.727E-03    -292.849E-03     136.179E-03    -296.932E-03     589.725E-03    -292.505E-03     101.506E-03
             634     672.095E-06     128.606E-03    -134.509E+06    -231.421E+06    -131.436E+06    -436.711E+03    -292.688E-03     584.913E-03    -292.225E-03     23.8034E-03    -292.947E-03     584.255E-03    -292.352E-03     19.1949E-03
             635     1.34369E-03     128.655E-03    -130.287E+06    -217.951E+06    -119.490E+06    -503.807E+03    -292.697E-03     585.152E-03    -292.455E-03     43.5026E-03    -293.200E-03     584.765E-03    -292.547E-03     35.1850E-03
             636     2.01523E-03     128.735E-03    -124.056E+06    -199.677E+06    -103.455E+06     86.7592E+03    -292.981E-03     585.481E-03    -292.500E-03     64.0193E-03    -293.885E-03     585.535E-03    -292.548E-03     51.7204E-03
             637     2.68705E-03     128.845E-03    -116.411E+06    -183.273E+06    -85.1339E+06     511.665E+03    -293.466E-03     586.025E-03    -292.559E-03     84.4716E-03    -294.911E-03     586.653E-03    -292.550E-03     68.1779E-03
             638     3.35880E-03     128.986E-03    -107.954E+06    -170.257E+06    -65.5067E+06     455.307E+03    -294.081E-03     586.722E-03    -292.641E-03     104.538E-03    -296.200E-03     588.044E-03    -292.565E-03     84.2687E-03
             639     4.03033E-03     129.157E-03    -99.1181E+06    -140.490E+06    -45.8360E+06     279.625E+03    -294.698E-03     587.400E-03    -292.703E-03     123.981E-03    -297.641E-03     589.626E-03    -292.585E-03     99.8009E-03
             640     4.70181E-03     129.356E-03    -90.2805E+06    -102.323E+06    -26.6554E+06     28.8995E+03    -295.324E-03     588.069E-03    -292.745E-03     142.636E-03    -299.208E-03     591.347E-03    -292.599E-03     114.681E-03
             641     5.37355E-03     129.582E-03    -81.5585E+06    -70.4540E+06    -8.16099E+06    -118.468E+03    -296.006E-03     588.794E-03    -292.789E-03     160.019E-03    -300.886E-03     593.159E-03    -292.609E-03     128.502E-03
             642     6.04506E-03     129.834E-03    -72.9303E+06    -35.5384E+06     9.45614E+06    -147.436E+03    -296.711E-03     589.536E-03    -292.824E-03     175.705E-03    -302.604E-03     595.016E-03    -292.620E-03     140.936E-03
             643     6.71668E-03     130.108E-03    -65.0428E+06    -8.87164E+06     24.5136E+06    -23.8342E+03    -297.350E-03     590.212E-03    -292.862E-03     189.086E-03    -304.185E-03     596.713E-03    -292.632E-03     151.484E-03
             644     7.38844E-03     130.400E-03    -57.1063E+06     4.58095E+06     35.2627E+06    -89.0329E+03    -297.953E-03     590.854E-03    -292.901E-03     199.529E-03    -305.563E-03     598.176E-03    -292.649E-03     159.640E-03
             645     8.05936E-03     130.705E-03    -48.8446E+06     13.5902E+06     43.7444E+06    -531.835E+03    -298.486E-03     591.430E-03    -292.944E-03     206.978E-03    -306.674E-03     599.366E-03    -292.674E-03     165.360E-03
             646     8.73049E-03     131.019E-03    -41.2620E+06     21.5988E+06     52.4440E+06      198.26E+03    -298.673E-03     591.667E-03    -292.994E-03     211.394E-03    -307.237E-03     600.008E-03    -292.703E-03     168.586E-03
             647     9.40213E-03     131.336E-03    -33.5615E+06     30.0300E+06     63.1630E+06     1.79955E+06    -298.354E-03     591.394E-03    -293.040E-03     212.857E-03    -307.087E-03     599.931E-03    -292.719E-03     169.367E-03
             648     10.0739E-03     131.650E-03    -26.7298E+06     35.7276E+06     72.3603E+06     2.29253E+06    -297.578E-03     590.634E-03    -293.056E-03     210.987E-03    -306.246E-03     599.125E-03    -292.707E-03     167.337E-03
             649     10.7464E-03     131.956E-03    -19.9877E+06     38.4891E+06     77.8048E+06     1.02133E+06    -296.334E-03     589.359E-03    -293.025E-03     205.506E-03    -304.749E-03     597.615E-03    -292.663E-03     162.027E-03
             650     11.4197E-03     132.246E-03    -13.2038E+06     37.3309E+06     75.3198E+06     285.162E+03    -294.683E-03     587.616E-03    -292.933E-03     191.584E-03    -302.315E-03     595.114E-03    -292.591E-03     149.639E-03
             651     12.0919E-03     132.505E-03    -6.24946E+06     49.1574E+06     80.9172E+06     869.305E+03    -293.640E-03     586.504E-03    -292.864E-03     178.145E-03    -300.792E-03     593.573E-03    -292.522E-03     136.692E-03
             652     12.7614E-03     132.755E-03    -3.59214E+06     58.1472E+06     86.6538E+06     314.980E+03    -293.211E-03     586.066E-03    -292.855E-03     134.996E-03    -298.242E-03     591.039E-03    -292.501E-03     100.190E-03
             653     671.421E-06     130.307E-03    -132.111E+06    -229.710E+06    -129.993E+06    -211.852E+03    -292.890E-03     585.322E-03    -292.433E-03     23.5431E-03    -293.140E-03     584.666E-03    -292.558E-03     18.9281E-03
             654     1.34311E-03     130.356E-03    -129.243E+06    -218.347E+06    -120.106E+06    -35.1663E+03    -292.843E-03     585.486E-03    -292.644E-03     42.9762E-03    -293.336E-03     585.094E-03    -292.740E-03     34.6631E-03
             655     2.01500E-03     130.436E-03    -123.887E+06    -200.507E+06    -104.814E+06     18.5984E+03    -293.131E-03     585.806E-03    -292.675E-03     63.5307E-03    -294.026E-03     585.854E-03    -292.729E-03     51.2323E-03
             656     2.68650E-03     130.547E-03    -116.939E+06    -183.672E+06    -85.6548E+06    -13.1679E+03    -293.630E-03     586.367E-03    -292.737E-03     84.0570E-03    -295.071E-03     586.990E-03    -292.730E-03     67.7529E-03
             657     3.35789E-03     130.688E-03    -108.807E+06    -170.498E+06    -65.3545E+06     134.330E+03    -294.212E-03     587.035E-03    -292.822E-03     104.193E-03    -296.333E-03     588.353E-03    -292.744E-03     83.8982E-03
             658     4.02948E-03     130.858E-03    -100.052E+06    -140.551E+06    -46.0166E+06     281.054E+03    -294.814E-03     587.691E-03    -292.878E-03     123.779E-03    -297.761E-03     589.918E-03    -292.759E-03     99.5702E-03
             659     4.70109E-03     131.058E-03    -91.1722E+06    -102.382E+06    -27.1441E+06     500.347E+03    -295.478E-03     588.394E-03    -292.915E-03     142.531E-03    -299.366E-03     591.673E-03    -292.770E-03     114.558E-03
             660     5.37245E-03     131.284E-03    -82.3486E+06    -70.7321E+06    -9.01745E+06     738.750E+03    -296.168E-03     589.124E-03    -292.957E-03     160.052E-03    -301.053E-03     593.492E-03    -292.780E-03     128.523E-03
             661     6.04404E-03     131.536E-03    -73.5585E+06    -35.8759E+06     8.23406E+06     1.08384E+06    -296.805E-03     589.788E-03    -292.984E-03     175.908E-03    -302.699E-03     595.270E-03    -292.784E-03     141.165E-03
             662     6.71548E-03     131.810E-03    -64.8960E+06    -8.53247E+06     23.6579E+06     1.06674E+06    -297.431E-03     590.439E-03    -293.008E-03     189.454E-03    -304.261E-03     596.940E-03    -292.783E-03     151.917E-03
             663     7.38682E-03     132.102E-03    -55.9724E+06     5.72410E+06     35.0873E+06     1.05289E+06    -298.016E-03     591.049E-03    -293.033E-03     200.072E-03    -305.618E-03     598.370E-03    -292.784E-03     160.274E-03
             664     8.05883E-03     132.408E-03    -47.7728E+06     14.3823E+06     43.9453E+06     1.72326E+06    -298.359E-03     591.413E-03    -293.054E-03     207.651E-03    -306.541E-03     599.349E-03    -292.786E-03     166.154E-03
             665     8.73050E-03     132.722E-03    -41.3902E+06     21.3913E+06     52.6016E+06     1.50071E+06    -298.260E-03     591.327E-03    -293.067E-03     212.179E-03    -306.833E-03     599.677E-03    -292.775E-03     169.459E-03
             666     9.40218E-03     133.038E-03    -34.8576E+06     28.9477E+06     62.9937E+06     363.985E+03    -297.799E-03     590.866E-03    -293.067E-03     213.587E-03    -306.558E-03     599.422E-03    -292.744E-03     170.100E-03
             667     10.0744E-03     133.352E-03    -26.6821E+06     35.0803E+06     73.8595E+06    -174.063E+03    -297.026E-03     590.075E-03    -293.049E-03     211.046E-03    -305.716E-03     598.581E-03    -292.692E-03     167.321E-03
             668     10.7470E-03     133.657E-03    -19.3825E+06     39.8391E+06     80.2326E+06    -203.022E+03    -296.079E-03     589.079E-03    -293.000E-03     204.561E-03    -304.485E-03     597.326E-03    -292.629E-03     161.052E-03
             669     11.4186E-03     133.947E-03    -14.0425E+06     38.8065E+06     76.1238E+06    -829.090E+03    -295.236E-03     588.153E-03    -292.917E-03     190.951E-03    -302.837E-03     595.622E-03    -292.573E-03     149.091E-03
             670     12.0899E-03     134.208E-03    -9.87726E+06     46.6516E+06     77.3454E+06     1.31386E+06    -294.027E-03     586.884E-03    -292.857E-03     180.404E-03    -301.192E-03     593.955E-03    -292.523E-03     139.168E-03
             671     12.7635E-03     134.458E-03    -3.71334E+06     56.9565E+06     85.3399E+06     875.225E+03    -291.755E-03     584.562E-03    -292.806E-03     139.446E-03    -296.841E-03     589.589E-03    -292.457E-03     104.813E-03
             672     671.435E-06     132.009E-03    -131.970E+06    -229.770E+06    -130.438E+06     164.389E+03    -293.200E-03     585.873E-03    -292.673E-03     23.8086E-03    -293.450E-03     585.218E-03    -292.801E-03     19.1680E-03
             673     1.34280E-03     132.058E-03    -129.263E+06    -218.585E+06    -120.644E+06     161.860E+03    -293.132E-03     586.049E-03    -292.917E-03     43.1617E-03    -293.626E-03     585.658E-03    -293.016E-03     34.8308E-03
             674     2.01405E-03     132.137E-03    -123.958E+06    -200.727E+06    -105.239E+06     193.445E+03    -293.415E-03     586.367E-03    -292.951E-03     63.6216E-03    -294.311E-03     586.415E-03    -293.007E-03     51.3049E-03
             675     2.68562E-03     132.248E-03    -116.918E+06    -183.788E+06    -85.9493E+06     320.762E+03    -293.782E-03     586.783E-03    -293.000E-03     84.0925E-03    -295.224E-03     587.406E-03    -292.994E-03     67.7744E-03
             676     3.35724E-03     132.390E-03    -108.839E+06    -170.793E+06    -66.0876E+06     335.437E+03    -294.281E-03     587.334E-03    -293.053E-03     104.230E-03    -296.402E-03     588.653E-03    -292.978E-03     83.9218E-03
             677     4.02866E-03     132.560E-03    -100.214E+06    -141.239E+06    -47.2592E+06     440.574E+03    -294.855E-03     587.930E-03    -293.075E-03     123.879E-03    -297.801E-03     590.156E-03    -292.961E-03     99.6752E-03
             678     4.70010E-03     132.760E-03    -91.3532E+06    -103.493E+06    -28.3963E+06     788.664E+03    -295.484E-03     588.568E-03    -293.084E-03     142.718E-03    -299.367E-03     591.842E-03    -292.944E-03     114.778E-03
             679     5.37169E-03     132.987E-03    -82.4691E+06    -72.0886E+06    -9.99803E+06     1.18207E+06    -296.158E-03     589.257E-03    -293.100E-03     160.383E-03    -301.036E-03     593.616E-03    -292.925E-03     128.915E-03
             680     6.04316E-03     133.239E-03    -73.7167E+06    -36.7508E+06     7.24425E+06     1.41925E+06    -296.805E-03     589.907E-03    -293.102E-03     176.329E-03    -302.694E-03     595.383E-03    -292.905E-03     141.650E-03
             681     6.71501E-03     133.513E-03    -64.8324E+06    -8.32857E+06     23.6195E+06     1.71371E+06    -297.435E-03     590.544E-03    -293.109E-03     189.920E-03    -304.260E-03     597.041E-03    -292.885E-03     152.458E-03
             682     7.38680E-03     133.806E-03    -56.5385E+06     5.56412E+06     35.7853E+06     1.86494E+06    -297.914E-03     591.031E-03    -293.118E-03     200.609E-03    -305.527E-03     598.360E-03    -292.865E-03     160.835E-03
             683     8.05795E-03     134.111E-03    -48.6639E+06     13.6600E+06     44.1984E+06     1.61767E+06    -298.013E-03     591.120E-03    -293.107E-03     208.178E-03    -306.220E-03     599.075E-03    -292.836E-03     166.652E-03
             684     8.72994E-03     134.424E-03    -40.5277E+06     22.1694E+06     54.1984E+06     1.27841E+06    -297.856E-03     590.944E-03    -293.087E-03     212.497E-03    -306.445E-03     599.310E-03    -292.790E-03     169.760E-03
             685     9.40245E-03     134.740E-03    -33.3743E+06     31.9683E+06     66.1879E+06     744.198E+03    -297.547E-03     590.614E-03    -293.067E-03     213.467E-03    -306.314E-03     599.184E-03    -292.734E-03     169.965E-03
             686     10.0746E-03     135.054E-03    -27.2007E+06     37.1513E+06     75.7025E+06    -109.444E+03    -296.843E-03     589.878E-03    -293.036E-03     210.634E-03    -305.531E-03     598.383E-03    -292.671E-03     166.948E-03
             687     10.7465E-03     135.358E-03    -20.5005E+06     39.2281E+06     80.3644E+06    -594.913E+03    -295.861E-03     588.832E-03    -292.971E-03     204.903E-03    -304.243E-03     597.047E-03    -292.596E-03     161.599E-03
             688     11.4194E-03     135.649E-03    -14.3906E+06     37.9960E+06     76.1446E+06     162.855E+03    -294.616E-03     587.469E-03    -292.853E-03     192.410E-03    -302.183E-03     594.899E-03    -292.506E-03     150.973E-03
             689     12.0931E-03     135.909E-03    -10.5473E+06     46.5865E+06     77.6616E+06     548.843E+03    -292.956E-03     585.695E-03    -292.739E-03     181.624E-03    -300.172E-03     592.814E-03    -292.403E-03     140.391E-03
             690     12.7667E-03     136.155E-03    -5.61294E+06     56.5699E+06     84.6560E+06    -964.807E+03    -291.474E-03     584.128E-03    -292.654E-03     138.790E-03    -296.581E-03     589.171E-03    -292.305E-03     104.147E-03
             691     671.288E-06     133.711E-03    -133.157E+06    -230.771E+06    -130.940E+06     202.958E+03    -293.396E-03     586.229E-03    -292.833E-03     23.7167E-03    -293.650E-03     585.571E-03    -292.960E-03     19.0667E-03
             692     1.34258E-03     133.760E-03    -129.795E+06    -218.900E+06    -120.959E+06     266.696E+03    -293.369E-03     586.476E-03    -293.108E-03     43.3033E-03    -293.865E-03     586.086E-03    -293.207E-03     34.9643E-03
             693     2.01386E-03     133.840E-03    -124.659E+06    -201.088E+06    -106.078E+06     266.640E+03    -293.634E-03     586.785E-03    -293.151E-03     63.9144E-03    -294.534E-03     586.836E-03    -293.209E-03     51.5893E-03
             694     2.68502E-03     133.951E-03    -117.807E+06    -184.383E+06    -87.5178E+06     330.227E+03    -293.940E-03     587.130E-03    -293.190E-03     84.4749E-03    -295.387E-03     587.758E-03    -293.190E-03     68.1500E-03
             695     3.35632E-03     134.092E-03    -109.849E+06    -170.966E+06    -67.6692E+06     391.803E+03    -294.361E-03     587.583E-03    -293.222E-03     104.659E-03    -296.488E-03     588.909E-03    -293.153E-03     84.3578E-03
             696     4.02788E-03     134.263E-03    -101.467E+06    -141.630E+06    -48.5556E+06     361.171E+03    -294.861E-03     588.079E-03    -293.218E-03     124.361E-03    -297.814E-03     590.310E-03    -293.108E-03     100.180E-03
             697     4.69952E-03     134.463E-03    -92.6982E+06    -104.732E+06    -29.6618E+06     450.619E+03    -295.434E-03     588.632E-03    -293.198E-03     143.242E-03    -299.324E-03     591.907E-03    -293.060E-03     115.325E-03
             698     5.37118E-03     134.689E-03    -83.6280E+06    -73.5472E+06    -11.0530E+06     833.901E+03    -296.101E-03     589.287E-03    -293.186E-03     160.835E-03    -300.983E-03     593.643E-03    -293.013E-03     129.399E-03
             699     6.04302E-03     134.941E-03    -74.5579E+06    -38.4101E+06     6.81321E+06     1.56170E+06    -296.783E-03     589.953E-03    -293.170E-03     176.739E-03    -302.680E-03     595.429E-03    -292.973E-03     142.065E-03
             700     6.71441E-03     135.216E-03    -65.5218E+06    -9.41160E+06     23.3891E+06     2.17532E+06    -297.329E-03     590.489E-03    -293.160E-03     190.376E-03    -304.171E-03     596.997E-03    -292.934E-03     152.894E-03
             701     7.38600E-03     135.508E-03    -56.7338E+06     6.06085E+06     36.7036E+06     1.83768E+06    -297.621E-03     590.765E-03    -293.144E-03     201.134E-03    -305.254E-03     598.112E-03    -292.887E-03     161.354E-03
             702     8.05847E-03     135.813E-03    -48.6461E+06     14.8159E+06     46.8311E+06     876.632E+03    -297.758E-03     590.870E-03    -293.112E-03     208.634E-03    -305.989E-03     598.845E-03    -292.829E-03     167.086E-03
             703     8.73071E-03     136.126E-03    -41.0352E+06     22.0118E+06     55.6332E+06     590.830E+03    -297.804E-03     590.878E-03    -293.074E-03     212.801E-03    -306.405E-03     599.250E-03    -292.768E-03     170.066E-03
             704     9.40238E-03     136.442E-03    -33.3379E+06     32.7063E+06     65.9881E+06     739.252E+03    -297.378E-03     590.412E-03    -293.034E-03     213.702E-03    -306.147E-03     598.988E-03    -292.703E-03     170.250E-03
             705     10.0745E-03     136.755E-03    -25.6596E+06     38.7856E+06     75.6873E+06      705.51E+03    -296.366E-03     589.343E-03    -292.977E-03     211.131E-03    -305.059E-03     597.863E-03    -292.618E-03     167.518E-03
             706     10.7480E-03     137.058E-03    -19.9621E+06     38.7189E+06     80.0559E+06     871.052E+03    -295.191E-03     588.069E-03    -292.878E-03     205.514E-03    -303.580E-03     596.292E-03    -292.505E-03     162.321E-03
             707     11.4215E-03     137.348E-03    -15.5189E+06     36.4500E+06     75.2279E+06     987.187E+03    -294.035E-03     586.763E-03    -292.727E-03     192.285E-03    -301.617E-03     594.201E-03    -292.382E-03     150.848E-03
             708     12.0948E-03     137.607E-03    -9.51445E+06     45.7240E+06     78.1682E+06    -646.418E+03    -293.186E-03     585.806E-03    -292.620E-03     180.724E-03    -300.444E-03     592.966E-03    -292.282E-03     139.102E-03
             709     12.7671E-03     137.856E-03    -3.02867E+06     58.1384E+06     86.3350E+06    -1.13002E+06    -292.384E-03     584.965E-03    -292.581E-03     137.530E-03    -297.484E-03     590.010E-03    -292.229E-03     102.775E-03
             710     671.152E-06     135.414E-03    -133.576E+06    -231.545E+06    -131.562E+06     150.661E+03    -293.463E-03     586.495E-03    -293.032E-03     23.8444E-03    -293.717E-03     585.835E-03    -293.160E-03     19.1941E-03
             711     1.34229E-03     135.463E-03    -130.448E+06    -219.792E+06    -121.911E+06     427.344E+03    -293.406E-03     586.622E-03    -293.217E-03     43.5122E-03    -293.903E-03     586.230E-03    -293.318E-03     35.1959E-03
             712     2.01352E-03     135.543E-03    -125.282E+06    -201.866E+06    -106.925E+06     652.663E+03    -293.609E-03     586.830E-03    -293.221E-03     64.1905E-03    -294.510E-03     586.879E-03    -293.281E-03     51.8955E-03
             713     2.68495E-03     135.654E-03    -118.828E+06    -184.776E+06    -88.2363E+06     744.143E+03    -293.938E-03     587.171E-03    -293.233E-03     84.9243E-03    -295.391E-03     587.802E-03    -293.234E-03     68.6287E-03
             714     3.35642E-03     135.795E-03    -110.982E+06    -171.266E+06    -68.2714E+06     632.788E+03    -294.393E-03     587.644E-03    -293.251E-03     105.298E-03    -296.529E-03     588.977E-03    -293.183E-03     85.0181E-03
             715     4.02785E-03     135.966E-03    -102.406E+06    -141.932E+06    -48.9224E+06     735.614E+03    -294.910E-03     588.152E-03    -293.241E-03     125.041E-03    -297.876E-03     590.391E-03    -293.132E-03     100.864E-03
             716     4.69947E-03     136.165E-03    -93.9399E+06    -105.124E+06    -29.7558E+06     909.525E+03    -295.500E-03     588.720E-03    -293.220E-03     143.814E-03    -299.405E-03     592.005E-03    -293.081E-03     115.886E-03
             717     5.37111E-03     136.392E-03    -85.1913E+06    -74.0966E+06    -11.0437E+06     1.05011E+06    -296.129E-03     589.336E-03    -293.207E-03     161.355E-03    -301.032E-03     593.706E-03    -293.031E-03     129.881E-03
             718     6.04260E-03     136.644E-03    -76.0264E+06    -39.7135E+06     6.39885E+06     846.457E+03    -296.689E-03     589.869E-03    -293.180E-03     177.337E-03    -302.606E-03     595.356E-03    -292.980E-03     142.631E-03
             719     6.71463E-03     136.919E-03    -66.6749E+06    -10.4341E+06     22.6569E+06     488.944E+03    -297.140E-03     590.285E-03    -293.146E-03     190.974E-03    -304.001E-03     596.807E-03    -292.921E-03     153.466E-03
             720     7.38686E-03     137.210E-03    -57.2644E+06     6.26300E+06     36.3576E+06     370.001E+03    -297.450E-03     590.559E-03    -293.110E-03     201.457E-03    -305.096E-03     597.919E-03    -292.854E-03     161.664E-03
             721     8.05875E-03     137.515E-03    -48.1268E+06     15.5460E+06     46.7101E+06     479.839E+03    -297.642E-03     590.707E-03    -293.065E-03     208.753E-03    -305.871E-03     598.685E-03    -292.784E-03     167.226E-03
             722     8.73056E-03     137.828E-03    -40.3458E+06     22.1350E+06     55.0958E+06     430.899E+03    -297.511E-03     590.522E-03    -293.011E-03     213.076E-03    -306.110E-03     598.897E-03    -292.709E-03     170.395E-03
             723     9.40316E-03     138.144E-03    -33.2399E+06     32.3339E+06     65.5471E+06     147.407E+03    -296.861E-03     589.806E-03    -292.944E-03     214.233E-03    -305.638E-03     598.388E-03    -292.615E-03     170.860E-03
             724     10.0765E-03     138.455E-03    -25.7101E+06     38.5366E+06     75.5314E+06     237.594E+03    -296.043E-03     588.906E-03    -292.863E-03     211.430E-03    -304.755E-03     597.445E-03    -292.504E-03     167.810E-03
             725     10.7494E-03     138.757E-03    -18.9096E+06     36.8485E+06     79.5046E+06     947.126E+03    -295.386E-03     588.154E-03    -292.768E-03     204.880E-03    -303.786E-03     596.388E-03    -292.397E-03     161.525E-03
             726     11.4226E-03     139.047E-03    -12.8671E+06     38.1402E+06     76.0697E+06     1.11066E+06    -294.761E-03     587.423E-03    -292.662E-03     190.997E-03    -302.384E-03     594.916E-03    -292.319E-03     149.074E-03
             727     12.0950E-03     139.307E-03    -8.92239E+06     48.2675E+06     78.2899E+06    -317.677E+03    -294.325E-03     586.947E-03    -292.623E-03     179.162E-03    -301.585E-03     594.121E-03    -292.288E-03     137.193E-03
             728     12.7669E-03     139.559E-03    -5.27958E+06     57.4504E+06     85.0367E+06     133.261E+03    -293.743E-03     586.405E-03    -292.662E-03     134.798E-03    -298.792E-03     591.393E-03    -292.313E-03     99.9941E-03
             729     671.156E-06     137.117E-03    -134.717E+06    -232.569E+06    -132.413E+06     274.675E+03    -293.451E-03     586.395E-03    -292.944E-03     24.0803E-03    -293.709E-03     585.733E-03    -293.073E-03     19.4398E-03
             730     1.34244E-03     137.167E-03    -131.456E+06    -220.781E+06    -122.669E+06     435.873E+03    -293.309E-03     586.464E-03    -293.155E-03     43.7994E-03    -293.810E-03     586.070E-03    -293.258E-03     35.4857E-03
             731     2.01382E-03     137.246E-03    -126.112E+06    -203.063E+06    -107.210E+06     622.801E+03    -293.503E-03     586.648E-03    -293.145E-03     64.5252E-03    -294.408E-03     586.695E-03    -293.203E-03     52.2376E-03
             732     2.68525E-03     137.357E-03    -118.856E+06    -185.473E+06    -87.9202E+06     909.922E+03    -293.859E-03     587.009E-03    -293.150E-03     85.2124E-03    -295.313E-03     587.637E-03    -293.148E-03     68.9241E-03
             733     3.35674E-03     137.498E-03    -110.848E+06    -171.574E+06    -67.6218E+06     1.23221E+06    -294.381E-03     587.554E-03    -293.173E-03     105.503E-03    -296.519E-03     588.886E-03    -293.102E-03     85.2280E-03
             734     4.02833E-03     137.668E-03    -102.463E+06    -142.662E+06    -48.1469E+06     1.45843E+06    -294.980E-03     588.160E-03    -293.180E-03     125.233E-03    -297.949E-03     590.398E-03    -293.065E-03     101.050E-03
             735     4.69978E-03     137.868E-03    -93.1966E+06    -105.520E+06    -28.5411E+06     1.62053E+06    -295.545E-03     588.720E-03    -293.175E-03     144.056E-03    -299.455E-03     592.008E-03    -293.030E-03     116.110E-03
             736     5.37131E-03     138.095E-03    -83.5744E+06    -74.2792E+06    -9.61131E+06     1.55192E+06    -296.080E-03     589.244E-03    -293.164E-03     161.728E-03    -300.988E-03     593.620E-03    -292.983E-03     130.236E-03
             737     6.04328E-03     138.347E-03    -74.2170E+06    -38.7717E+06     8.24751E+06     1.37817E+06    -296.562E-03     589.690E-03    -293.128E-03     177.678E-03    -302.483E-03     595.186E-03    -292.923E-03     142.980E-03
             738     6.71516E-03     138.621E-03    -65.3349E+06    -8.61021E+06     24.3916E+06     757.444E+03    -296.970E-03     590.051E-03    -293.081E-03     191.178E-03    -303.835E-03     596.582E-03    -292.851E-03     153.689E-03
             739     7.38700E-03     138.913E-03    -56.7072E+06     7.11284E+06     36.5704E+06    -282.027E+03    -297.355E-03     590.385E-03    -293.030E-03     201.765E-03    -305.004E-03     597.752E-03    -292.775E-03     161.995E-03
             740     8.05913E-03     139.217E-03    -49.0172E+06     14.9300E+06     45.1509E+06    -1.00675E+06    -297.474E-03     590.446E-03    -292.972E-03     209.265E-03    -305.715E-03     598.434E-03    -292.697E-03     167.758E-03
             741     8.73189E-03     139.530E-03    -40.9389E+06     22.0184E+06     53.7606E+06    -1.04587E+06    -297.158E-03     590.059E-03    -292.901E-03     213.338E-03    -305.775E-03     598.453E-03    -292.605E-03     170.635E-03
             742     9.40496E-03     139.843E-03    -32.6181E+06     31.7288E+06     65.2820E+06    -478.506E+03    -296.760E-03     589.593E-03    -292.833E-03     213.703E-03    -305.541E-03     598.181E-03    -292.505E-03     170.246E-03
             743     10.0777E-03     140.155E-03    -26.8594E+06     36.7037E+06     74.4171E+06     220.213E+03    -296.477E-03     589.259E-03    -292.781E-03     210.027E-03    -305.191E-03     597.792E-03    -292.424E-03     166.219E-03
             744     10.7502E-03     140.458E-03    -21.0698E+06     36.1803E+06     78.2436E+06     254.849E+03    -296.396E-03     589.149E-03    -292.753E-03     203.121E-03    -304.809E-03     597.389E-03    -292.384E-03     159.435E-03
             745     11.4215E-03     140.748E-03    -15.4985E+06     38.4688E+06     74.4835E+06    -138.831E+03    -296.197E-03     588.933E-03    -292.736E-03     189.259E-03    -303.840E-03     596.442E-03    -292.397E-03     146.923E-03
             746     12.0926E-03     141.009E-03    -9.68150E+06     51.1832E+06     78.6888E+06    -462.964E+03    -295.524E-03     588.309E-03    -292.784E-03     177.416E-03    -302.767E-03     595.471E-03    -292.451E-03     135.234E-03
             747     12.7627E-03     141.263E-03    -4.89844E+06     57.7282E+06     85.6188E+06     947.788E+03    -293.444E-03     586.294E-03    -292.850E-03     134.841E-03    -298.483E-03     591.272E-03    -292.499E-03     100.039E-03
             748     671.373E-06     138.820E-03    -134.438E+06    -233.386E+06    -132.420E+06     262.278E+03    -293.379E-03     586.075E-03    -292.696E-03     23.9915E-03    -293.634E-03     585.409E-03    -292.825E-03     19.3495E-03
             749     1.34275E-03     138.869E-03    -131.018E+06    -221.381E+06    -122.122E+06     267.439E+03    -293.166E-03     586.168E-03    -293.002E-03     43.6965E-03    -293.665E-03     585.770E-03    -293.101E-03     35.3675E-03
             750     2.01420E-03     138.949E-03    -125.478E+06    -203.711E+06    -106.578E+06     302.873E+03    -293.448E-03     586.457E-03    -293.009E-03     64.4583E-03    -294.351E-03     586.501E-03    -293.065E-03     52.1477E-03
             751     2.68567E-03     139.059E-03    -118.440E+06    -186.635E+06    -87.5901E+06     477.770E+03    -293.855E-03     586.898E-03    -293.043E-03     85.0635E-03    -295.306E-03     587.520E-03    -293.038E-03     68.7492E-03
             752     3.35716E-03     139.200E-03    -109.814E+06    -173.048E+06    -67.0981E+06     882.039E+03    -294.363E-03     587.451E-03    -293.088E-03     105.423E-03    -296.495E-03     588.774E-03    -293.014E-03     85.1282E-03
             753     4.02849E-03     139.371E-03    -100.220E+06    -143.785E+06    -46.9246E+06     1.34840E+06    -294.905E-03     588.008E-03    -293.103E-03     125.290E-03    -297.865E-03     590.239E-03    -292.984E-03     101.096E-03
             754     4.70009E-03     139.571E-03    -90.6826E+06    -106.707E+06    -27.1351E+06     1.64583E+06    -295.420E-03     588.514E-03    -293.094E-03     144.209E-03    -299.324E-03     591.796E-03    -292.943E-03     116.253E-03
             755     5.37195E-03     139.797E-03    -81.5788E+06    -74.8208E+06    -8.11447E+06     1.99103E+06    -295.958E-03     589.035E-03    -293.076E-03     161.859E-03    -300.863E-03     593.408E-03    -292.890E-03     130.374E-03
             756     6.04369E-03     140.049E-03    -72.3468E+06    -37.9967E+06     10.0370E+06     1.91365E+06    -296.452E-03     589.488E-03    -293.036E-03     177.769E-03    -302.374E-03     594.989E-03    -292.826E-03     143.072E-03
             757     6.71574E-03     140.323E-03    -62.8518E+06    -7.19715E+06     26.2322E+06     1.57380E+06    -296.889E-03     589.875E-03    -292.986E-03     191.258E-03    -303.755E-03     596.416E-03    -292.753E-03     153.760E-03
             758     7.38826E-03     140.614E-03    -54.4686E+06     8.95979E+06     38.2634E+06     1.60386E+06    -297.199E-03     590.132E-03    -292.933E-03     201.682E-03    -304.845E-03     597.506E-03    -292.676E-03     161.930E-03
             759     8.06072E-03     140.919E-03    -47.6365E+06     17.3191E+06     47.7334E+06     1.25043E+06    -297.279E-03     590.157E-03    -292.878E-03     208.622E-03    -305.513E-03     598.145E-03    -292.595E-03     167.141E-03
             760     8.73306E-03     141.230E-03    -41.5288E+06     23.6451E+06     56.8210E+06     406.769E+03    -297.327E-03     590.158E-03    -292.831E-03     212.154E-03    -305.938E-03     598.541E-03    -292.521E-03     169.416E-03
             761     9.40518E-03     141.544E-03    -35.5475E+06     31.4041E+06     66.1360E+06    -97.4031E+03    -297.452E-03     590.261E-03    -292.809E-03     212.336E-03    -306.231E-03     598.834E-03    -292.473E-03     168.754E-03
             762     10.0769E-03     141.856E-03    -28.6189E+06     36.4487E+06     74.4139E+06    -792.982E+03    -297.469E-03     590.294E-03    -292.825E-03     208.761E-03    -306.179E-03     598.816E-03    -292.464E-03     164.747E-03
             763     10.7481E-03     142.160E-03    -20.7704E+06     35.8118E+06     78.7069E+06    -591.885E+03    -297.320E-03     590.184E-03    -292.864E-03     202.432E-03    -305.731E-03     598.420E-03    -292.493E-03     158.542E-03
             764     11.4191E-03     142.452E-03    -13.0807E+06     37.9757E+06     75.7752E+06     175.871E+03    -296.505E-03     589.383E-03    -292.878E-03     189.981E-03    -304.114E-03     596.861E-03    -292.535E-03     147.803E-03
             765     12.0887E-03     142.715E-03    -8.07675E+06     47.4507E+06     78.1279E+06     1.08153E+06    -294.652E-03     587.531E-03    -292.879E-03     180.949E-03    -301.846E-03     594.638E-03    -292.546E-03     139.500E-03
             766     12.7600E-03     142.966E-03    -3.44143E+06     57.7567E+06     86.1144E+06     1.28877E+06    -291.767E-03     584.611E-03    -292.844E-03     139.824E-03    -296.851E-03     589.638E-03    -292.492E-03     105.318E-03
             767     671.362E-06     140.523E-03    -132.852E+06    -235.399E+06    -130.213E+06     815.531E+03    -293.251E-03     585.837E-03    -292.585E-03     23.9241E-03    -293.498E-03     585.155E-03    -292.702E-03     19.2829E-03
             768     1.34285E-03     140.571E-03    -129.879E+06    -223.000E+06    -120.523E+06     1.33110E+06    -293.114E-03     586.011E-03    -292.897E-03     43.5471E-03    -293.606E-03     585.600E-03    -292.988E-03     35.2375E-03
             769     2.01432E-03     140.651E-03    -125.440E+06    -204.332E+06    -105.363E+06     1.63419E+06    -293.393E-03     586.317E-03    -292.924E-03     64.3987E-03    -294.296E-03     586.355E-03    -292.973E-03     52.1061E-03
             770     2.68568E-03     140.762E-03    -118.805E+06    -185.417E+06    -86.2572E+06     795.883E+03    -293.795E-03     586.761E-03    -292.966E-03     85.1043E-03    -295.253E-03     587.389E-03    -292.956E-03     68.7824E-03
             771     3.35715E-03     140.902E-03    -110.287E+06    -172.361E+06    -66.3669E+06    -629.235E+03    -294.293E-03     587.306E-03    -293.014E-03     105.560E-03    -296.434E-03     588.636E-03    -292.936E-03     85.2259E-03
             772     4.02893E-03     141.074E-03    -101.068E+06    -146.585E+06    -47.7172E+06    -574.401E+03    -294.748E-03     587.770E-03    -293.022E-03     125.320E-03    -297.711E-03     589.992E-03    -292.901E-03     101.085E-03
             773     4.70078E-03     141.273E-03    -91.9557E+06    -109.725E+06    -28.5176E+06     959.620E+03    -295.241E-03     588.241E-03    -293.000E-03     144.133E-03    -299.146E-03     591.512E-03    -292.850E-03     116.171E-03
             774     5.37250E-03     141.500E-03    -82.5172E+06    -74.9534E+06    -9.09644E+06     1.27921E+06    -295.851E-03     588.826E-03    -292.975E-03     161.718E-03    -300.759E-03     593.201E-03    -292.792E-03     130.222E-03
             775     6.04456E-03     141.751E-03    -73.0375E+06    -38.2783E+06     8.80647E+06     933.573E+03    -296.424E-03     589.365E-03    -292.941E-03     177.441E-03    -302.347E-03     594.867E-03    -292.735E-03     142.700E-03
             776     6.71671E-03     142.024E-03    -64.3994E+06    -8.44007E+06     25.2206E+06     1.49324E+06    -296.923E-03     589.835E-03    -292.912E-03     190.605E-03    -303.785E-03     596.365E-03    -292.680E-03     153.078E-03
             777     7.38844E-03     142.316E-03    -55.9836E+06     8.59651E+06     38.5115E+06     1.92766E+06    -297.259E-03     590.146E-03    -292.887E-03     200.605E-03    -304.903E-03     597.510E-03    -292.626E-03     160.789E-03
             778     8.06059E-03     142.619E-03    -46.9538E+06     17.2413E+06     48.4917E+06     2.43134E+06    -297.536E-03     590.401E-03    -292.864E-03     207.241E-03    -305.748E-03     598.366E-03    -292.579E-03     165.693E-03
             779     8.73274E-03     142.931E-03    -38.8488E+06     24.7085E+06     57.7337E+06     2.98501E+06    -297.873E-03     590.734E-03    -292.861E-03     210.692E-03    -306.438E-03     599.081E-03    -292.552E-03     167.940E-03
             780     9.40442E-03     143.246E-03    -31.9174E+06     34.0293E+06     68.3288E+06     2.70376E+06    -298.027E-03     590.917E-03    -292.890E-03     211.324E-03    -306.762E-03     599.462E-03    -292.552E-03     167.754E-03
             781     10.0756E-03     143.560E-03    -24.2049E+06     40.5140E+06     78.8555E+06     1.87855E+06    -297.855E-03     590.798E-03    -292.942E-03     208.831E-03    -306.532E-03     599.304E-03    -292.572E-03     164.921E-03
             782     10.7466E-03     143.864E-03    -18.4456E+06     38.9937E+06     82.0802E+06    -146.636E+03    -297.074E-03     590.043E-03    -292.969E-03     203.764E-03    -305.471E-03     598.276E-03    -292.589E-03     160.100E-03
             783     11.4178E-03     144.155E-03    -14.5439E+06     35.4855E+06     74.1003E+06    -801.140E+03    -295.135E-03     588.037E-03    -292.903E-03     191.787E-03    -302.740E-03     595.503E-03    -292.563E-03     149.967E-03
             784     12.0931E-03     144.415E-03    -8.80712E+06     45.2945E+06     77.3080E+06     2.13185E+06    -292.896E-03     585.705E-03    -292.809E-03     180.709E-03    -300.040E-03     592.754E-03    -292.475E-03     139.676E-03
             785     12.7704E-03     144.663E-03    -4.71232E+06     59.1132E+06     85.5021E+06     1.60154E+06    -291.697E-03     584.425E-03    -292.728E-03     137.098E-03    -296.715E-03     589.388E-03    -292.379E-03     102.759E-03
             786     671.569E-06     142.224E-03    -134.845E+06    -241.468E+06    -132.081E+06     1.83322E+06    -293.088E-03     585.714E-03    -292.626E-03     23.7962E-03    -293.333E-03     585.007E-03    -292.741E-03     19.1811E-03
             787     1.34296E-03     142.273E-03    -131.110E+06    -225.910E+06    -121.386E+06     2.36136E+06    -293.064E-03     585.903E-03    -292.839E-03     43.5028E-03    -293.557E-03     585.481E-03    -292.928E-03     35.2161E-03
             788     2.01440E-03     142.353E-03    -124.467E+06    -204.133E+06    -104.850E+06     1.62723E+06    -293.302E-03     586.165E-03    -292.863E-03     64.3978E-03    -294.201E-03     586.202E-03    -292.911E-03     52.1027E-03
             789     2.68615E-03     142.464E-03    -116.140E+06    -184.022E+06    -84.7524E+06     1.01049E+06    -293.695E-03     586.590E-03    -292.895E-03     85.1217E-03    -295.144E-03     587.220E-03    -292.884E-03     68.8093E-03
             790     3.35774E-03     142.605E-03    -108.016E+06    -169.239E+06    -63.7925E+06     591.920E+03    -294.223E-03     587.166E-03    -292.943E-03     105.457E-03    -296.361E-03     588.504E-03    -292.860E-03     85.1426E-03
             791     4.02918E-03     142.775E-03    -99.8033E+06    -148.861E+06    -44.5355E+06     418.435E+03    -294.734E-03     587.705E-03    -292.971E-03     125.054E-03    -297.692E-03     589.910E-03    -292.833E-03     100.810E-03
             792     4.70088E-03     142.974E-03    -90.9252E+06    -112.697E+06    -27.2423E+06     943.955E+03    -295.259E-03     588.214E-03    -292.955E-03     143.735E-03    -299.155E-03     591.466E-03    -292.796E-03     115.741E-03
             793     5.37294E-03     143.201E-03    -81.9121E+06    -73.9278E+06    -10.1566E+06     1.06916E+06    -295.870E-03     588.800E-03    -292.930E-03     161.086E-03    -300.766E-03     593.172E-03    -292.755E-03     129.571E-03
             794     6.04464E-03     143.453E-03    -73.4040E+06    -40.4053E+06     6.96636E+06     1.66751E+06    -296.525E-03     589.442E-03    -292.918E-03     176.627E-03    -302.430E-03     594.923E-03    -292.718E-03     141.882E-03
             795     6.71624E-03     143.726E-03    -65.2699E+06    -9.32255E+06     23.5371E+06     2.28525E+06    -297.078E-03     589.991E-03    -292.913E-03     189.778E-03    -303.926E-03     596.506E-03    -292.687E-03     152.243E-03
             796     7.38834E-03     144.018E-03    -57.0287E+06     8.93318E+06     37.3994E+06     1.75560E+06    -297.567E-03     590.486E-03    -292.919E-03     199.841E-03    -305.195E-03     597.836E-03    -292.663E-03     160.011E-03
             797     8.06001E-03     144.321E-03    -48.4349E+06     15.6526E+06     47.5499E+06     1.32340E+06    -298.082E-03     591.022E-03    -292.940E-03     206.728E-03    -306.279E-03     598.964E-03    -292.654E-03     165.144E-03
             798     8.73123E-03     144.634E-03    -39.7918E+06     23.1652E+06     56.1389E+06     1.24742E+06    -298.330E-03     591.299E-03    -292.968E-03     210.533E-03    -306.886E-03     599.633E-03    -292.663E-03     167.723E-03
             799     9.40253E-03     144.949E-03    -31.7428E+06     33.6191E+06     66.3452E+06     1.34255E+06    -298.048E-03     591.050E-03    -293.001E-03     211.583E-03    -306.781E-03     599.597E-03    -292.672E-03     167.986E-03
             800     10.0744E-03     145.262E-03    -24.8588E+06     40.0344E+06     76.6344E+06     2.03388E+06    -297.184E-03     590.203E-03    -293.020E-03     209.510E-03    -305.865E-03     598.717E-03    -292.658E-03     165.689E-03
             801     10.7468E-03     145.566E-03    -20.0576E+06     41.8594E+06     81.2523E+06     2.96811E+06    -295.880E-03     588.862E-03    -292.983E-03     203.959E-03    -304.290E-03     597.114E-03    -292.608E-03     160.473E-03
             802     11.4208E-03     145.855E-03    -16.7665E+06     38.8297E+06     75.5801E+06     2.09618E+06    -294.730E-03     587.616E-03    -292.885E-03     190.248E-03    -302.354E-03     595.098E-03    -292.539E-03     148.374E-03
             803     12.0922E-03     146.112E-03    -12.6572E+06     45.6423E+06     76.2127E+06    -1.49937E+06    -293.938E-03     586.764E-03    -292.825E-03     177.650E-03    -301.153E-03     593.874E-03    -292.492E-03     135.850E-03
             804     12.7601E-03     146.363E-03    -6.30536E+06     58.5800E+06     84.0505E+06    -1.24486E+06    -292.341E-03     585.151E-03    -292.810E-03     134.224E-03    -297.382E-03     590.133E-03    -292.466E-03     99.4443E-03
             805     671.366E-06     143.926E-03    -130.038E+06    -246.714E+06    -128.548E+06     716.599E+03    -293.029E-03     585.765E-03    -292.736E-03     23.8078E-03    -293.248E-03     585.019E-03    -292.832E-03     19.1744E-03
             806     1.34294E-03     143.975E-03    -126.016E+06    -226.699E+06    -120.603E+06     258.465E+03    -293.027E-03     585.855E-03    -292.828E-03     43.4669E-03    -293.495E-03     585.420E-03    -292.919E-03     35.1291E-03
             807     2.01458E-03     144.055E-03    -121.144E+06    -203.031E+06    -106.780E+06    -342.331E+03    -293.302E-03     586.130E-03    -292.827E-03     64.2596E-03    -294.184E-03     586.170E-03    -292.891E-03     51.9228E-03
             808     2.68601E-03     144.165E-03    -115.049E+06    -186.114E+06    -86.8484E+06     253.673E+03    -293.716E-03     586.589E-03    -292.874E-03     84.8347E-03    -295.152E-03     587.208E-03    -292.871E-03     68.5041E-03
             809     3.35762E-03     144.307E-03    -107.432E+06    -171.098E+06    -65.5844E+06     1.90578E+06    -294.199E-03     587.128E-03    -292.929E-03     104.967E-03    -296.323E-03     588.454E-03    -292.853E-03     84.6698E-03
             810     4.02939E-03     144.477E-03    -99.1691E+06    -148.529E+06    -45.6362E+06     2.48852E+06    -294.778E-03     587.744E-03    -292.965E-03     124.495E-03    -297.725E-03     589.943E-03    -292.834E-03     100.283E-03
             811     4.70099E-03     144.677E-03    -90.6699E+06    -112.185E+06    -26.8613E+06     1.45034E+06    -295.437E-03     588.416E-03    -292.979E-03     143.224E-03    -299.326E-03     591.662E-03    -292.819E-03     115.220E-03
             812     5.37235E-03     144.903E-03    -81.9471E+06    -75.6912E+06    -9.50559E+06     1.61377E+06    -296.081E-03     589.068E-03    -292.987E-03     160.521E-03    -300.967E-03     593.422E-03    -292.806E-03     128.989E-03
             813     6.04412E-03     145.155E-03    -73.0881E+06    -43.3398E+06     7.01304E+06     2.55431E+06    -296.699E-03     589.694E-03    -292.996E-03     176.025E-03    -302.582E-03     595.144E-03    -292.792E-03     141.301E-03
             814     6.71600E-03     145.429E-03    -63.9466E+06    -10.4117E+06     23.9910E+06     3.16077E+06    -297.272E-03     590.278E-03    -293.006E-03     189.077E-03    -304.094E-03     596.766E-03    -292.778E-03     151.552E-03
             815     7.38746E-03     145.719E-03    -55.1807E+06     10.5248E+06     37.8027E+06     3.42692E+06    -297.815E-03     590.841E-03    -293.026E-03     199.189E-03    -305.411E-03     598.169E-03    -292.772E-03     159.401E-03
             816     8.05889E-03     146.024E-03    -47.4822E+06     19.0905E+06     47.9423E+06     2.26997E+06    -298.199E-03     591.253E-03    -293.054E-03     206.494E-03    -306.375E-03     599.188E-03    -292.773E-03     164.964E-03
             817     8.73041E-03     146.337E-03    -40.4101E+06     24.2014E+06     57.6175E+06     742.833E+03    -298.227E-03     591.310E-03    -293.083E-03     210.879E-03    -306.789E-03     599.648E-03    -292.772E-03     168.090E-03
             818     9.40213E-03     146.652E-03    -33.8191E+06     31.1788E+06     67.3097E+06     549.064E+03    -297.765E-03     590.861E-03    -293.096E-03     212.077E-03    -306.524E-03     599.415E-03    -292.756E-03     168.460E-03
             819     10.0742E-03     146.964E-03    -28.1023E+06     37.0725E+06      74.724E+06     1.19651E+06    -296.757E-03     589.832E-03    -293.074E-03     209.206E-03    -305.463E-03     598.353E-03    -292.714E-03     165.323E-03
             820     10.7471E-03     147.266E-03    -20.7697E+06     37.7612E+06     78.9090E+06     1.95574E+06    -295.910E-03     588.937E-03    -293.027E-03     202.396E-03    -304.299E-03     597.158E-03    -292.657E-03     158.804E-03
             821     11.4186E-03     147.555E-03    -10.8595E+06     40.2710E+06     78.8599E+06     3.21955E+06    -295.436E-03     588.407E-03    -292.971E-03     188.813E-03    -303.028E-03     595.875E-03    -292.620E-03     146.744E-03
             822     12.0896E-03     147.818E-03    -5.92474E+06     53.8680E+06     83.2287E+06     2.58759E+06    -294.444E-03     587.396E-03    -292.953E-03     178.158E-03    -301.668E-03     594.549E-03    -292.606E-03     136.324E-03
             823     12.7641E-03     148.066E-03    -5.39112E+06     61.3926E+06     88.0216E+06     833.131E+03    -292.161E-03     585.097E-03    -292.935E-03     136.219E-03    -297.243E-03     590.122E-03    -292.577E-03     101.494E-03
             824     671.487E-06     145.628E-03    -126.703E+06    -246.684E+06    -126.153E+06    -567.407E+03    -293.073E-03     585.808E-03    -292.735E-03     23.8529E-03    -293.279E-03     585.054E-03    -292.824E-03     19.2184E-03
             825     1.34293E-03     145.677E-03    -126.038E+06    -225.822E+06    -120.670E+06    -604.811E+03    -293.137E-03     585.994E-03    -292.857E-03     43.4310E-03    -293.606E-03     585.564E-03    -292.950E-03     35.0836E-03
             826     2.01438E-03     145.757E-03    -123.219E+06    -204.047E+06    -107.261E+06     165.453E+03    -293.430E-03     586.324E-03    -292.894E-03     64.0471E-03    -294.318E-03     586.361E-03    -292.956E-03     51.7203E-03
             827     2.68592E-03     145.868E-03    -118.051E+06    -188.479E+06    -88.8614E+06     942.896E+03    -293.812E-03     586.766E-03    -292.955E-03     84.5409E-03    -295.254E-03     587.378E-03    -292.954E-03     68.2125E-03
             828     3.35735E-03     146.009E-03    -110.977E+06    -175.847E+06    -69.8714E+06     1.74645E+06    -294.306E-03     587.318E-03    -293.012E-03     104.620E-03    -296.430E-03     588.627E-03    -292.946E-03     84.3178E-03
             829     4.02879E-03     146.179E-03    -102.639E+06    -147.648E+06    -50.9980E+06     1.83594E+06    -294.914E-03     587.959E-03    -293.045E-03     124.064E-03    -297.861E-03     590.166E-03    -292.937E-03     99.8594E-03
             830     4.70030E-03     146.379E-03    -93.5572E+06    -110.529E+06    -30.3989E+06     1.14515E+06    -295.588E-03     588.667E-03    -293.078E-03     142.697E-03    -299.475E-03     591.917E-03    -292.935E-03     114.709E-03
             831     5.37194E-03     146.606E-03    -84.3282E+06    -78.4537E+06    -10.3708E+06     985.842E+03    -296.279E-03     589.399E-03    -293.120E-03     160.004E-03    -301.160E-03     593.732E-03    -292.936E-03     128.458E-03
             832     6.04326E-03     146.857E-03    -75.1223E+06    -45.5165E+06     6.92784E+06     1.32078E+06    -296.931E-03     590.078E-03    -293.148E-03     175.510E-03    -302.810E-03     595.510E-03    -292.938E-03     140.738E-03
             833     6.71455E-03     147.131E-03    -65.5094E+06    -13.1930E+06     23.1156E+06     1.78182E+06    -297.495E-03     590.664E-03    -293.169E-03     188.613E-03    -304.307E-03     597.130E-03    -292.940E-03     151.033E-03
             834     7.38605E-03     147.422E-03    -55.9600E+06     9.43880E+06     36.6154E+06     2.24156E+06    -297.933E-03     591.123E-03    -293.190E-03     198.823E-03    -305.519E-03     598.437E-03    -292.939E-03     158.984E-03
             835     8.05768E-03     147.727E-03    -47.5904E+06     20.2153E+06     46.6853E+06     2.90314E+06    -298.017E-03     591.220E-03    -293.203E-03     205.919E-03    -306.184E-03     599.155E-03    -292.930E-03     164.360E-03
             836     8.72964E-03     148.039E-03    -40.9923E+06     26.8526E+06     54.6198E+06     3.22028E+06    -297.712E-03     590.905E-03    -293.193E-03     209.951E-03    -306.258E-03     599.243E-03    -292.900E-03     167.203E-03
             837     9.40164E-03     148.354E-03    -35.2222E+06     32.3787E+06     64.3127E+06     2.37386E+06    -297.232E-03     590.404E-03    -293.173E-03     210.951E-03    -305.954E-03     598.930E-03    -292.847E-03     167.471E-03
             838     10.0737E-03     148.665E-03    -28.5722E+06      36.435E+06     75.0749E+06     1.23280E+06    -296.753E-03     589.906E-03    -293.153E-03     208.268E-03    -305.419E-03     598.382E-03    -292.789E-03     164.485E-03
             839     10.7450E-03     148.967E-03    -20.9441E+06     38.7990E+06     81.0751E+06     184.856E+03    -296.304E-03     589.423E-03    -293.119E-03     202.905E-03    -304.685E-03     597.632E-03    -292.739E-03     159.367E-03
             840     11.4164E-03     149.259E-03    -17.5411E+06     37.2634E+06     73.8583E+06    -1.29941E+06    -295.112E-03     588.141E-03    -293.029E-03     191.023E-03    -302.739E-03     595.623E-03    -292.688E-03     149.099E-03
             841     12.0895E-03     149.517E-03    -10.7766E+06     49.9798E+06     78.1285E+06     1.75634E+06    -293.015E-03     585.952E-03    -292.937E-03     180.498E-03    -300.213E-03     593.063E-03    -292.603E-03     139.251E-03
             842     12.7604E-03     149.766E-03    -2.01909E+06     64.7889E+06     89.8021E+06     3.02146E+06    -290.175E-03     582.998E-03    -292.823E-03     139.246E-03    -295.245E-03     588.031E-03    -292.465E-03     104.921E-03
             843     671.498E-06     147.330E-03    -135.706E+06    -246.286E+06    -132.847E+06     299.577E+03    -293.162E-03     586.043E-03    -292.881E-03     23.5233E-03    -293.403E-03     585.314E-03    -292.992E-03     18.8932E-03
             844     1.34284E-03     147.379E-03    -132.499E+06    -226.316E+06    -122.064E+06     593.673E+03    -293.257E-03     586.267E-03    -293.010E-03     43.1945E-03    -293.753E-03     585.844E-03    -293.100E-03     34.8687E-03
             845     2.01405E-03     147.459E-03    -126.384E+06    -207.262E+06    -105.996E+06     1.45868E+06    -293.575E-03     586.638E-03    -293.063E-03     63.8621E-03    -294.474E-03     586.660E-03    -293.109E-03     51.5577E-03
             846     2.68533E-03     147.570E-03    -119.095E+06    -190.438E+06    -87.4375E+06     2.16677E+06    -293.982E-03     587.106E-03    -293.124E-03     84.2891E-03    -295.425E-03     587.704E-03    -293.113E-03     67.9822E-03
             847     3.35680E-03     147.711E-03    -110.844E+06    -177.190E+06    -67.8978E+06     2.07059E+06    -294.533E-03     587.726E-03    -293.193E-03     104.323E-03    -296.653E-03     589.020E-03    -293.115E-03     84.0164E-03
             848     4.02814E-03     147.882E-03    -101.990E+06    -147.606E+06    -48.8302E+06     1.73146E+06    -295.149E-03     588.387E-03    -293.238E-03     123.836E-03    -298.093E-03     590.586E-03    -293.120E-03     99.6032E-03
             849     4.69941E-03     148.082E-03    -93.4130E+06    -110.163E+06    -29.8226E+06     1.76328E+06    -295.785E-03     589.056E-03    -293.272E-03     142.412E-03    -299.665E-03     592.301E-03    -293.126E-03     114.415E-03
             850     5.37060E-03     148.308E-03    -85.2107E+06    -79.0053E+06    -11.1069E+06     1.96924E+06    -296.466E-03     589.779E-03    -293.313E-03     159.682E-03    -301.340E-03     594.102E-03    -293.130E-03     128.131E-03
             851     6.04196E-03     148.561E-03    -76.6974E+06    -45.0936E+06     6.05947E+06     1.58221E+06    -297.142E-03     590.485E-03    -293.344E-03     175.269E-03    -303.024E-03     595.918E-03    -293.137E-03     140.453E-03
             852     6.71332E-03     148.834E-03    -68.3077E+06    -12.7387E+06     21.7862E+06     265.615E+03    -297.697E-03     591.066E-03    -293.370E-03     188.445E-03    -304.520E-03     597.538E-03    -293.143E-03     150.785E-03
             853     7.38466E-03     149.126E-03    -60.3307E+06     6.87851E+06     34.3287E+06    -248.840E+03    -297.950E-03     591.339E-03    -293.389E-03     198.507E-03    -305.546E-03     598.645E-03    -293.140E-03     158.604E-03
             854     8.05594E-03     149.430E-03    -52.4697E+06     15.9952E+06     43.9473E+06     429.471E+03    -297.834E-03     591.220E-03    -293.385E-03     205.587E-03    -306.008E-03     599.136E-03    -293.113E-03     164.006E-03
             855     8.72739E-03     149.741E-03    -43.8679E+06     24.4388E+06     53.4423E+06     1.39673E+06    -297.427E-03     590.777E-03    -293.349E-03     209.722E-03    -305.969E-03     599.095E-03    -293.054E-03     167.013E-03
             856     9.39974E-03     150.054E-03    -34.8231E+06     32.7247E+06     65.0866E+06     2.42773E+06    -296.844E-03     590.139E-03    -293.295E-03     210.773E-03    -305.525E-03     598.624E-03    -292.966E-03     167.495E-03
             857     10.0723E-03     150.366E-03    -26.0364E+06     39.2141E+06     77.4852E+06     2.39360E+06    -296.168E-03     589.396E-03    -293.229E-03     208.823E-03    -304.780E-03     597.831E-03    -292.860E-03     165.384E-03
             858     10.7451E-03     150.670E-03    -20.3825E+06     40.3383E+06     82.2925E+06     2.10107E+06    -295.191E-03     588.313E-03    -293.122E-03     204.395E-03    -303.567E-03     596.522E-03    -292.740E-03     161.181E-03
             859     11.4190E-03     150.959E-03    -15.2616E+06     41.5068E+06     77.3283E+06     2.79840E+06    -293.708E-03     586.655E-03    -292.947E-03     192.610E-03    -301.322E-03     594.138E-03    -292.598E-03     151.172E-03
             860     12.0919E-03     151.218E-03    -12.7275E+06     48.1621E+06     76.3624E+06    -220.068E+03    -291.919E-03     584.686E-03    -292.768E-03     181.719E-03    -299.160E-03     591.831E-03    -292.437E-03     140.544E-03
             861     12.7695E-03     151.463E-03    -6.63605E+06     61.0150E+06     84.7777E+06    -2.05098E+06    -290.816E-03     583.458E-03    -292.642E-03     137.034E-03    -295.925E-03     588.514E-03    -292.297E-03     102.318E-03
             862     670.943E-06     149.032E-03    -133.411E+06    -249.114E+06    -131.909E+06     1.12487E+06    -293.531E-03     586.622E-03    -293.090E-03     23.5978E-03    -293.758E-03     585.874E-03    -293.195E-03     18.9586E-03
             863     1.34224E-03     149.082E-03    -130.364E+06    -228.175E+06    -122.117E+06     1.27127E+06    -293.436E-03     586.701E-03    -293.266E-03     43.2179E-03    -293.919E-03     586.266E-03    -293.356E-03     34.8884E-03
             864     2.01367E-03     149.162E-03    -125.607E+06    -210.503E+06    -106.441E+06     1.78504E+06    -293.751E-03     587.040E-03    -293.289E-03     63.7438E-03    -294.639E-03     587.043E-03    -293.333E-03     51.4343E-03
             865     2.68493E-03     149.273E-03    -118.471E+06    -192.581E+06    -86.9945E+06     2.17808E+06    -294.220E-03     587.567E-03    -293.347E-03     84.1642E-03    -295.655E-03     588.150E-03    -293.331E-03     67.8401E-03
             866     3.35593E-03     149.414E-03    -110.086E+06    -177.850E+06    -66.4981E+06     2.26468E+06    -294.799E-03     588.224E-03    -293.425E-03     104.248E-03    -296.918E-03     589.514E-03    -293.340E-03     83.8904E-03
             867     4.02706E-03     149.585E-03    -101.627E+06    -148.599E+06    -46.9979E+06     2.62821E+06    -295.406E-03     588.887E-03    -293.482E-03     123.712E-03    -298.351E-03     591.081E-03    -293.354E-03     99.4307E-03
             868     4.69828E-03     149.785E-03    -93.0374E+06    -111.735E+06    -28.1170E+06     3.32223E+06    -296.047E-03     589.569E-03    -293.522E-03     142.180E-03    -299.926E-03     592.802E-03    -293.366E-03     114.143E-03
             869     5.36951E-03     150.012E-03    -83.8255E+06    -79.9264E+06    -9.77267E+06     3.77551E+06    -296.688E-03     590.252E-03    -293.563E-03     159.361E-03    -301.553E-03     594.563E-03    -293.375E-03     127.783E-03
             870     6.04064E-03     150.264E-03    -74.8493E+06    -43.8464E+06     8.04459E+06     3.80197E+06    -297.276E-03     590.866E-03    -293.590E-03     174.883E-03    -303.142E-03     596.287E-03    -293.377E-03     140.090E-03
             871     6.71172E-03     150.538E-03    -66.6546E+06    -10.1480E+06     25.3311E+06     3.90144E+06    -297.674E-03     591.280E-03    -293.606E-03     188.081E-03    -304.480E-03     597.740E-03    -293.368E-03     150.514E-03
             872     7.38276E-03     150.830E-03    -59.1775E+06     9.34126E+06     38.1112E+06     3.19313E+06    -297.690E-03     591.285E-03    -293.595E-03     198.377E-03    -305.273E-03     598.581E-03    -293.332E-03     158.599E-03
             873     8.05466E-03     151.132E-03    -51.6551E+06     18.4335E+06     47.8904E+06     979.992E+03    -297.506E-03     591.055E-03    -293.549E-03     205.800E-03    -305.666E-03     598.959E-03    -293.262E-03     164.362E-03
             874     8.72721E-03     151.443E-03    -43.8282E+06     23.2848E+06     57.3971E+06    -994.499E+03    -297.261E-03     590.745E-03    -293.484E-03     209.977E-03    -305.790E-03     599.035E-03    -293.167E-03     167.349E-03
             875     9.39942E-03     151.756E-03    -35.2489E+06     28.6014E+06     66.8659E+06    -947.691E+03    -296.597E-03     589.996E-03    -293.398E-03     210.792E-03    -305.279E-03     598.460E-03    -293.054E-03     167.477E-03
             876     10.0723E-03     152.066E-03    -27.1632E+06     37.3625E+06     76.3966E+06      421.56E+03    -295.390E-03     588.669E-03    -293.279E-03     208.242E-03    -303.987E-03     597.081E-03    -292.912E-03     164.853E-03
             877     10.7464E-03     152.368E-03    -20.0525E+06     36.5836E+06     80.3083E+06     1.81519E+06    -294.075E-03     587.192E-03    -293.117E-03     202.212E-03    -302.367E-03     595.309E-03    -292.739E-03     159.224E-03
             878     11.4203E-03     152.657E-03    -12.6324E+06     39.1524E+06     76.5921E+06     3.28050E+06    -292.728E-03     585.629E-03    -292.901E-03     188.612E-03    -300.229E-03     593.002E-03    -292.557E-03     147.275E-03
             879     12.0958E-03     152.915E-03    -5.59999E+06     58.8735E+06     83.1199E+06     2.51106E+06    -292.114E-03     584.859E-03    -292.745E-03     176.393E-03    -299.275E-03     591.968E-03    -292.407E-03     134.947E-03
             880     12.7658E-03     153.160E-03    -4.23740E+06     66.1323E+06     88.9252E+06     518.857E+03    -292.374E-03     585.068E-03    -292.695E-03     134.137E-03    -297.419E-03     590.076E-03    -292.340E-03     99.4419E-03
             881     671.171E-06     150.736E-03    -129.988E+06    -253.444E+06    -130.126E+06     1.08737E+06    -293.891E-03     587.061E-03    -293.170E-03     23.5701E-03    -294.096E-03     586.283E-03    -293.265E-03     18.9692E-03
             882     1.34215E-03     150.785E-03    -128.507E+06    -230.815E+06    -122.516E+06     1.49854E+06    -293.784E-03     587.278E-03    -293.493E-03     43.3212E-03    -294.255E-03     586.828E-03    -293.585E-03     34.9812E-03
             883     2.01300E-03     150.866E-03    -123.771E+06    -213.136E+06    -106.392E+06     1.71905E+06    -294.097E-03     587.653E-03    -293.556E-03     63.7348E-03    -294.973E-03     587.642E-03    -293.600E-03     51.3851E-03
             884     2.68402E-03     150.977E-03    -117.065E+06    -195.104E+06    -87.3763E+06     2.35132E+06    -294.514E-03     588.140E-03    -293.626E-03     84.0195E-03    -295.939E-03     588.710E-03    -293.611E-03     67.6499E-03
             885     3.35518E-03     151.118E-03    -109.410E+06    -180.109E+06    -66.8968E+06     3.10073E+06    -295.083E-03     588.792E-03    -293.709E-03     104.002E-03    -297.193E-03     590.068E-03    -293.623E-03     83.6195E-03
             886     4.02611E-03     151.290E-03    -100.708E+06    -151.026E+06    -46.6875E+06     3.63860E+06    -295.693E-03     589.465E-03    -293.771E-03     123.411E-03    -298.628E-03     591.642E-03    -293.640E-03     99.1025E-03
             887     4.69692E-03     151.490E-03    -91.3107E+06    -114.385E+06    -26.7980E+06     4.05419E+06    -296.274E-03     590.088E-03    -293.815E-03     141.925E-03    -300.140E-03     593.302E-03    -293.651E-03     113.856E-03
             888     5.36772E-03     151.717E-03    -82.1173E+06    -82.2711E+06    -7.71770E+06     4.64990E+06    -296.844E-03     590.694E-03    -293.849E-03     159.208E-03    -301.699E-03     594.987E-03    -293.649E-03     127.601E-03
             889     6.03871E-03     151.969E-03    -73.1953E+06    -46.0706E+06     10.4023E+06     5.72567E+06    -297.256E-03     591.109E-03    -293.854E-03     174.875E-03    -303.106E-03     596.507E-03    -293.629E-03     140.128E-03
             890     6.70996E-03     152.242E-03    -63.9876E+06    -11.2890E+06     28.1152E+06     6.43809E+06    -297.387E-03     591.213E-03    -293.826E-03     188.164E-03    -304.169E-03     597.646E-03    -293.576E-03     150.722E-03
             891     7.38209E-03     152.533E-03    -54.5699E+06     12.4002E+06     42.9042E+06     6.19985E+06    -297.404E-03     591.172E-03    -293.768E-03     198.186E-03    -304.961E-03     598.455E-03    -293.492E-03     158.512E-03
             892     8.05422E-03     152.835E-03    -45.5354E+06     24.0430E+06     54.4799E+06     5.91740E+06    -297.369E-03     591.066E-03    -293.697E-03     204.991E-03    -305.496E-03     598.959E-03    -293.394E-03     163.623E-03
             893     8.72608E-03     153.145E-03    -38.9862E+06     28.9564E+06     62.9316E+06     4.95614E+06    -297.010E-03     590.623E-03    -293.613E-03     208.710E-03    -305.501E-03     598.896E-03    -293.283E-03     166.178E-03
             894     9.39846E-03     153.457E-03    -34.6137E+06     33.3905E+06     70.3203E+06     2.19460E+06    -296.333E-03     589.844E-03    -293.511E-03     209.309E-03    -304.995E-03     598.298E-03    -293.158E-03     166.034E-03
             895     10.0712E-03     153.765E-03    -29.8589E+06     38.3972E+06     77.3055E+06    -743.311E+03    -295.456E-03     588.850E-03    -293.394E-03     206.304E-03    -304.047E-03     597.247E-03    -293.019E-03     162.796E-03
             896     10.7439E-03     154.066E-03    -22.6236E+06     32.9643E+06     78.8217E+06    -1.69528E+06    -294.451E-03     587.707E-03    -293.255E-03     199.643E-03    -302.712E-03     595.775E-03    -292.876E-03     156.452E-03
             897     11.4173E-03     154.353E-03    -15.0926E+06     33.4303E+06     74.5049E+06    -875.505E+03    -293.356E-03     586.440E-03    -293.085E-03     185.783E-03    -300.831E-03     593.764E-03    -292.739E-03     144.132E-03
             898     12.0886E-03     154.611E-03    -9.02205E+06     57.9895E+06     80.6069E+06     1.58040E+06    -292.256E-03     585.202E-03    -292.946E-03     175.776E-03    -299.393E-03     592.279E-03    -292.614E-03     134.400E-03
             899     12.7618E-03     154.866E-03    -3.88881E+06     69.6442E+06     89.2932E+06     2.00582E+06    -290.245E-03     583.078E-03    -292.833E-03     135.817E-03    -295.287E-03     588.094E-03    -292.482E-03     101.446E-03
             900     670.878E-06     152.440E-03    -130.625E+06    -255.838E+06    -129.516E+06    -158.484E+03    -294.131E-03     587.637E-03    -293.506E-03     23.5004E-03    -294.337E-03     586.847E-03    -293.593E-03     18.8649E-03
             901     1.34169E-03     152.490E-03    -128.023E+06    -234.436E+06    -121.503E+06     863.571E+03    -294.137E-03     587.939E-03    -293.803E-03     43.1177E-03    -294.600E-03     587.468E-03    -293.885E-03     34.7477E-03
             902     2.01254E-03     152.571E-03    -123.283E+06    -216.385E+06    -105.955E+06     2.09004E+06    -294.448E-03     588.329E-03    -293.881E-03     63.6053E-03    -295.319E-03     588.301E-03    -293.918E-03     51.2352E-03
             903     2.68319E-03     152.682E-03    -116.927E+06    -198.095E+06    -86.5633E+06     2.68186E+06    -294.873E-03     588.835E-03    -293.963E-03     83.9602E-03    -296.295E-03     589.390E-03    -293.939E-03     67.5545E-03
             904     3.35380E-03     152.823E-03    -108.649E+06    -183.012E+06    -65.8878E+06     3.02756E+06    -295.386E-03     589.431E-03    -294.046E-03     103.978E-03    -297.489E-03     590.690E-03    -293.952E-03     83.5661E-03
             905     4.02445E-03     152.995E-03    -99.6184E+06    -154.020E+06    -45.9221E+06     3.58141E+06    -295.882E-03     589.975E-03    -294.092E-03     123.444E-03    -298.809E-03     592.134E-03    -293.954E-03     99.1075E-03
             906     4.69537E-03     153.195E-03     -90.538E+06    -117.207E+06    -25.9159E+06     4.18722E+06    -296.383E-03     590.493E-03    -294.110E-03     142.076E-03    -300.243E-03     593.691E-03    -293.939E-03     113.992E-03
             907     5.36645E-03     153.422E-03    -81.0319E+06    -85.8814E+06    -6.50635E+06     4.82651E+06    -296.875E-03     590.991E-03    -294.116E-03     159.411E-03    -301.722E-03     595.265E-03    -293.907E-03     127.799E-03
             908     6.03760E-03     153.673E-03    -70.9876E+06    -50.2600E+06     11.7375E+06     5.64890E+06    -297.211E-03     591.301E-03    -294.090E-03     174.764E-03    -303.047E-03     596.672E-03    -293.855E-03     139.986E-03
             909     6.70938E-03     153.946E-03    -61.2447E+06    -14.4067E+06     30.1834E+06     6.58719E+06    -297.382E-03     591.425E-03    -294.043E-03     187.367E-03    -304.139E-03     597.826E-03    -293.782E-03     149.860E-03
             910     7.38086E-03     154.236E-03    -52.8261E+06     10.9255E+06     45.1706E+06     7.44875E+06    -297.499E-03     591.483E-03    -293.984E-03     196.801E-03    -305.027E-03     598.731E-03    -293.697E-03     157.064E-03
             911     8.05226E-03     154.538E-03    -45.2519E+06     23.4306E+06     54.5826E+06     7.92138E+06    -297.398E-03     591.307E-03    -293.910E-03     203.301E-03    -305.496E-03     599.170E-03    -293.605E-03     161.877E-03
             912     8.72430E-03     154.847E-03    -37.4479E+06     29.9930E+06     63.4895E+06     8.50398E+06    -296.875E-03     590.699E-03    -293.824E-03     206.754E-03    -305.328E-03     598.941E-03    -293.495E-03     164.212E-03
             913     9.39705E-03     155.157E-03    -30.1675E+06     41.0764E+06     74.7192E+06     8.60133E+06    -296.219E-03     589.942E-03    -293.724E-03     207.162E-03    -304.820E-03     598.365E-03    -293.366E-03     164.000E-03
             914     10.0694E-03     155.466E-03    -24.0800E+06     49.9007E+06     84.7802E+06     5.67889E+06    -295.505E-03     589.120E-03    -293.615E-03     204.400E-03    -304.043E-03     597.504E-03    -293.228E-03     160.998E-03
             915     10.7419E-03     155.765E-03    -19.3497E+06     37.9455E+06     85.3714E+06     2.17625E+06    -294.778E-03     588.271E-03    -293.493E-03     199.037E-03    -303.030E-03     596.342E-03    -293.093E-03     155.853E-03
             916     11.4138E-03     156.053E-03    -15.3501E+06     30.5551E+06     76.5217E+06     989.637E+03    -293.540E-03     586.856E-03    -293.316E-03     187.028E-03    -301.034E-03     594.182E-03    -292.956E-03     145.461E-03
             917     12.0878E-03     156.311E-03    -10.6698E+06     54.4133E+06     80.4806E+06    -119.164E+03    -291.245E-03     584.371E-03    -293.126E-03     177.412E-03    -298.435E-03     591.483E-03    -292.787E-03     136.096E-03
             918     12.7643E-03     156.557E-03    -5.67089E+06     71.1848E+06     88.2028E+06    -159.295E+03    -288.320E-03     581.231E-03    -292.911E-03     135.661E-03    -293.407E-03     586.295E-03    -292.565E-03     101.296E-03
             919     670.572E-06     154.146E-03    -133.576E+06    -256.889E+06    -131.121E+06     367.115E+03    -294.452E-03     588.493E-03    -294.041E-03     23.7089E-03    -294.671E-03     587.706E-03    -294.131E-03     19.0241E-03
             920     1.34106E-03     154.196E-03    -130.884E+06    -237.891E+06    -121.781E+06     952.325E+03    -294.438E-03     588.658E-03    -294.220E-03     43.1074E-03    -294.911E-03     588.175E-03    -294.295E-03     34.7163E-03
             921     2.01156E-03     154.276E-03    -125.696E+06    -219.716E+06    -106.393E+06     1.33068E+06    -294.703E-03     588.958E-03    -294.255E-03     63.6131E-03    -295.580E-03     588.917E-03    -294.286E-03     51.2128E-03
             922     2.68224E-03     154.388E-03    -117.607E+06    -201.027E+06    -86.7138E+06     1.90829E+06    -295.129E-03     589.435E-03    -294.306E-03     84.0543E-03    -296.552E-03     589.978E-03    -294.277E-03     67.6123E-03
             923     3.35282E-03     154.530E-03    -109.289E+06    -186.038E+06    -66.1042E+06     2.61389E+06    -295.609E-03     589.976E-03    -294.368E-03     104.110E-03    -297.714E-03     591.225E-03    -294.270E-03     83.6450E-03
             924     4.02360E-03     154.701E-03    -100.574E+06    -157.237E+06    -46.1091E+06     3.24536E+06    -296.070E-03     590.465E-03    -294.396E-03     123.484E-03    -298.999E-03     592.613E-03    -294.253E-03     99.0902E-03
             925     4.69439E-03     154.901E-03    -91.3941E+06    -120.236E+06    -26.3571E+06     3.87243E+06    -296.566E-03     590.965E-03    -294.399E-03     141.807E-03    -300.426E-03     594.150E-03    -294.223E-03     113.650E-03
             926     5.36521E-03     155.128E-03    -82.1494E+06    -88.2423E+06    -7.12880E+06     4.04078E+06    -297.064E-03     591.463E-03    -294.399E-03     158.600E-03    -301.902E-03     595.717E-03    -294.188E-03     126.901E-03
             927     6.03634E-03     155.379E-03    -73.2805E+06    -54.1783E+06     10.7995E+06     4.28707E+06    -297.493E-03     591.879E-03    -294.386E-03     173.343E-03    -303.318E-03     597.220E-03    -294.147E-03     138.419E-03
             928     6.70694E-03     155.651E-03    -64.7908E+06    -21.1023E+06     27.1559E+06     6.09026E+06    -297.736E-03     592.097E-03    -294.360E-03     185.597E-03    -304.479E-03     598.456E-03    -294.100E-03     147.921E-03
             929     7.37804E-03     155.940E-03    -55.8117E+06     7.42876E+06     41.7911E+06     7.81945E+06    -297.691E-03     592.005E-03    -294.314E-03     195.040E-03    -305.193E-03     599.214E-03    -294.035E-03     155.217E-03
             930     8.04970E-03     156.241E-03    -47.7879E+06     21.7628E+06     52.2254E+06     7.61399E+06    -297.366E-03     591.609E-03    -294.243E-03     201.394E-03    -305.426E-03     599.425E-03    -293.944E-03     159.952E-03
             931     8.72153E-03     156.549E-03    -40.5055E+06     26.3889E+06     59.6947E+06     7.39889E+06    -296.902E-03     591.050E-03    -294.148E-03     204.736E-03    -305.303E-03     599.228E-03    -293.829E-03     162.189E-03
             932     9.39309E-03     156.859E-03    -32.3801E+06     40.9911E+06     70.8097E+06     7.33077E+06    -296.164E-03     590.199E-03    -294.035E-03     205.368E-03    -304.722E-03     598.582E-03    -293.694E-03     162.182E-03
             933     10.0658E-03     157.166E-03    -23.9354E+06     54.3989E+06     84.0058E+06     7.34872E+06    -295.028E-03     588.937E-03    -293.909E-03     202.789E-03    -303.527E-03     597.301E-03    -293.533E-03     159.453E-03
             934     10.7391E-03     157.465E-03    -17.8506E+06     42.6607E+06     86.9368E+06     7.19082E+06    -293.738E-03     587.480E-03    -293.742E-03     197.763E-03    -301.945E-03     595.523E-03    -293.343E-03     154.826E-03
             935     11.4132E-03     157.753E-03    -14.3685E+06     35.2528E+06     79.5399E+06     5.15245E+06    -291.971E-03     585.460E-03    -293.489E-03     186.109E-03    -299.448E-03     592.780E-03    -293.121E-03     144.769E-03
             936     12.0873E-03     158.006E-03    -11.0758E+06     56.0451E+06     82.2595E+06     1.99726E+06    -289.949E-03     583.163E-03    -293.214E-03     176.839E-03    -297.131E-03     590.266E-03    -292.868E-03     135.737E-03
             937     12.7590E-03     158.254E-03    -4.30578E+06     73.7527E+06     90.6293E+06     54.9273E+03    -287.396E-03     580.333E-03    -292.937E-03     135.781E-03    -292.492E-03     585.412E-03    -292.584E-03     101.466E-03
             938     670.187E-06     155.853E-03    -135.111E+06    -258.617E+06    -133.853E+06     387.844E+03    -294.821E-03     589.281E-03    -294.460E-03     23.8619E-03    -295.041E-03     588.492E-03    -294.559E-03     19.1452E-03
             939     1.34057E-03     155.903E-03    -132.024E+06    -239.752E+06    -124.431E+06     547.958E+03    -294.790E-03     589.389E-03    -294.600E-03     43.2015E-03    -295.263E-03     588.904E-03    -294.683E-03     34.7653E-03
             940     2.01102E-03     155.983E-03    -126.537E+06    -221.563E+06    -107.525E+06     819.349E+03    -295.023E-03     589.647E-03    -294.624E-03     63.6261E-03    -295.902E-03     589.602E-03    -294.657E-03     51.1654E-03
             941     2.68136E-03     156.095E-03    -119.902E+06    -204.089E+06    -88.3430E+06     1.40611E+06    -295.380E-03     590.038E-03    -294.658E-03     83.9715E-03    -296.809E-03     590.573E-03    -294.630E-03     67.4622E-03
             942     3.35185E-03     156.237E-03    -111.766E+06    -189.601E+06    -68.0354E+06     2.25462E+06    -295.929E-03     590.640E-03    -294.710E-03     103.750E-03    -298.039E-03     591.876E-03    -294.613E-03     83.2034E-03
             943     4.02219E-03     156.408E-03    -102.784E+06    -160.372E+06    -47.8668E+06     3.03512E+06    -296.531E-03     591.286E-03    -294.755E-03     122.723E-03    -299.461E-03     593.420E-03    -294.613E-03     98.2158E-03
             944     4.69258E-03     156.608E-03    -93.9669E+06    -123.302E+06    -28.2325E+06     3.69929E+06    -297.087E-03     591.880E-03    -294.792E-03     140.609E-03    -300.945E-03     595.048E-03    -294.619E-03     112.304E-03
             945     5.36302E-03     156.834E-03    -85.4539E+06    -90.6328E+06    -9.43113E+06     4.61154E+06    -297.605E-03     592.435E-03    -294.830E-03     157.022E-03    -302.437E-03     596.668E-03    -294.621E-03     125.183E-03
             946     6.03309E-03     157.085E-03    -77.4581E+06    -57.1665E+06     7.63368E+06     5.46704E+06    -297.946E-03     592.792E-03    -294.846E-03     171.627E-03    -303.758E-03     598.104E-03    -294.613E-03     136.601E-03
             947     6.70385E-03     157.357E-03    -69.4754E+06    -26.3111E+06     22.5257E+06     5.68185E+06    -298.033E-03     592.864E-03    -294.832E-03     183.877E-03    -304.752E-03     599.178E-03    -294.580E-03     146.116E-03
             948     7.37469E-03     157.645E-03    -61.0346E+06     3.26650E+06     35.0184E+06     5.91744E+06    -297.812E-03     592.584E-03    -294.772E-03     193.170E-03    -305.281E-03     599.747E-03    -294.514E-03     153.284E-03
             949     8.04581E-03     157.945E-03    -52.5079E+06     20.1948E+06     46.8579E+06     6.51724E+06    -297.366E-03     592.057E-03    -294.691E-03     199.403E-03    -305.380E-03     599.821E-03    -294.410E-03     157.979E-03
             950     8.71735E-03     158.252E-03    -43.9882E+06     25.7066E+06     58.6316E+06     6.14819E+06    -296.804E-03     591.398E-03    -294.594E-03     202.925E-03    -305.151E-03     599.510E-03    -294.274E-03     160.457E-03
             951     9.38982E-03     158.561E-03    -35.7535E+06     39.1167E+06     71.2811E+06     5.80804E+06    -295.812E-03     590.271E-03    -294.459E-03     203.721E-03    -304.334E-03     598.598E-03    -294.107E-03     160.582E-03
             952     10.0623E-03     158.866E-03    -29.8026E+06     51.7607E+06     81.3968E+06     6.17368E+06    -294.237E-03     588.507E-03    -294.271E-03     201.458E-03    -302.726E-03     596.838E-03    -293.896E-03     158.188E-03
             953     10.7355E-03     159.163E-03    -23.0462E+06     44.8749E+06     83.6174E+06     5.07642E+06    -292.331E-03     586.344E-03    -294.013E-03     196.587E-03    -300.538E-03     594.386E-03    -293.627E-03     153.745E-03
             954     11.4102E-03     159.446E-03    -15.1607E+06     38.1420E+06     80.1636E+06     3.71415E+06    -290.196E-03     583.868E-03    -293.672E-03     185.060E-03    -297.670E-03     591.191E-03    -293.305E-03     143.811E-03
             955     12.0858E-03     159.702E-03    -7.82486E+06     61.8088E+06     87.7611E+06     3.11395E+06    -288.215E-03     581.527E-03    -293.312E-03     175.635E-03    -295.365E-03     588.614E-03    -292.951E-03     134.753E-03
             956     12.7660E-03     159.945E-03    -3.79320E+06     79.0199E+06     96.2006E+06     2.51318E+06    -286.904E-03     579.886E-03    -292.982E-03     133.657E-03    -291.958E-03     584.928E-03    -292.610E-03     99.5943E-03
             957     670.123E-06     157.561E-03    -135.131E+06    -258.107E+06    -134.069E+06    -670.115E+03    -295.210E-03     590.117E-03    -294.907E-03     23.6542E-03    -295.431E-03     589.331E-03    -295.007E-03     18.9063E-03
             958     1.34012E-03     157.611E-03    -132.921E+06    -242.327E+06    -125.293E+06     397.719E+03    -295.230E-03     590.258E-03    -295.028E-03     42.9594E-03    -295.703E-03     589.763E-03    -295.110E-03     34.4738E-03
             959     2.01007E-03     157.692E-03    -127.995E+06    -224.021E+06    -108.889E+06     1.37910E+06    -295.527E-03     590.597E-03    -295.070E-03     63.2126E-03    -296.408E-03     590.543E-03    -295.104E-03     50.6862E-03
             960     2.68027E-03     157.803E-03    -121.606E+06    -206.164E+06    -89.3507E+06     1.77652E+06    -295.986E-03     591.128E-03    -295.142E-03     83.2166E-03    -297.417E-03     591.654E-03    -295.113E-03     66.6095E-03
             961     3.35032E-03     157.945E-03    -113.411E+06    -192.987E+06    -69.0499E+06     2.31635E+06    -296.583E-03     591.823E-03    -295.240E-03     102.657E-03    -298.687E-03     593.039E-03    -295.141E-03     81.9996E-03
             962     4.02013E-03     158.117E-03    -104.602E+06    -163.857E+06    -49.9554E+06     3.28360E+06    -297.224E-03     592.547E-03    -295.323E-03     121.395E-03    -300.144E-03     594.658E-03    -295.183E-03     96.7618E-03
             963     4.68981E-03     158.316E-03    -95.5719E+06    -126.520E+06    -30.8334E+06     4.06210E+06    -297.797E-03     593.194E-03    -295.396E-03     139.115E-03    -301.639E-03     596.337E-03    -295.229E-03     110.671E-03
             964     5.35934E-03     158.543E-03    -86.0429E+06    -95.4789E+06    -12.4087E+06     5.16713E+06    -298.188E-03     593.647E-03    -295.459E-03     155.435E-03    -302.990E-03     597.841E-03    -295.258E-03     123.476E-03
             965     6.02948E-03     158.793E-03    -76.0299E+06     -61.583E+06     5.51807E+06     6.83733E+06    -298.353E-03     593.834E-03    -295.481E-03     169.907E-03    -304.115E-03     599.092E-03    -295.254E-03     134.812E-03
             966     6.69951E-03     159.064E-03    -67.2917E+06    -29.2693E+06     23.1578E+06     8.56736E+06    -298.293E-03     593.761E-03    -295.467E-03     181.910E-03    -304.951E-03     600.009E-03    -295.212E-03     144.148E-03
             967     7.37000E-03     159.351E-03    -60.4406E+06     2.10441E+06     38.0383E+06     9.18709E+06    -297.969E-03     593.373E-03    -295.404E-03     191.007E-03    -305.387E-03     600.473E-03    -295.129E-03     151.118E-03
             968     8.04112E-03     159.650E-03    -52.8351E+06     21.2149E+06     48.6083E+06     8.06462E+06    -297.379E-03     592.674E-03    -295.295E-03     197.110E-03    -305.342E-03     600.384E-03    -295.006E-03     155.664E-03
             969     8.71282E-03     159.955E-03    -45.4942E+06     27.4258E+06     57.7975E+06     6.90322E+06    -296.420E-03     591.570E-03    -295.151E-03     200.492E-03    -304.708E-03     599.626E-03    -294.835E-03     158.068E-03
             970     9.38461E-03     160.262E-03    -39.7104E+06     38.5524E+06     68.2473E+06     5.63427E+06    -294.856E-03     589.803E-03    -294.947E-03     201.322E-03    -303.315E-03     598.060E-03    -294.604E-03     158.342E-03
             971     10.0580E-03     160.565E-03    -31.7057E+06     50.3669E+06     79.8577E+06     4.73439E+06    -292.846E-03     587.518E-03    -294.672E-03     199.397E-03    -301.270E-03     595.776E-03    -294.300E-03     156.341E-03
             972     10.7330E-03     160.859E-03    -22.8739E+06     50.1507E+06     87.1827E+06     3.74493E+06    -290.765E-03     585.089E-03    -294.324E-03     194.937E-03    -298.943E-03     593.111E-03    -293.927E-03     152.251E-03
             973     11.4085E-03     161.141E-03    -16.8772E+06     41.1896E+06     82.2828E+06     1.16485E+06    -288.560E-03     582.441E-03    -293.880E-03     183.565E-03    -295.994E-03     589.722E-03    -293.504E-03     142.584E-03
             974     12.0855E-03     161.391E-03    -11.2494E+06     61.2955E+06     87.6183E+06     2.59565E+06    -286.818E-03     580.242E-03    -293.425E-03     174.660E-03    -293.887E-03     587.235E-03    -293.059E-03     134.329E-03
             975     12.7576E-03     161.637E-03    -5.88656E+06     81.4638E+06     96.2110E+06     3.27038E+06    -284.923E-03     577.913E-03    -292.990E-03     135.458E-03    -289.945E-03     582.924E-03    -292.618E-03     101.961E-03
             976     669.531E-06     159.272E-03    -140.460E+06    -258.080E+06    -136.684E+06     346.634E+03    -295.794E-03     591.435E-03    -295.641E-03     23.2843E-03    -296.037E-03     590.659E-03    -295.746E-03     18.5293E-03
             977     1.33923E-03     159.321E-03    -136.280E+06    -245.391E+06    -125.355E+06     843.047E+03    -295.944E-03     591.672E-03    -295.728E-03     42.3085E-03    -296.428E-03     591.164E-03    -295.801E-03     33.7822E-03
             978     2.00899E-03     159.402E-03    -130.406E+06    -226.546E+06    -110.266E+06     1.24700E+06    -296.357E-03     592.157E-03    -295.800E-03     62.2977E-03    -297.239E-03     592.092E-03    -295.834E-03     49.6995E-03
             979     2.67820E-03     159.514E-03    -122.530E+06    -208.892E+06    -90.9435E+06     1.90849E+06    -296.902E-03     592.823E-03    -295.921E-03     82.0711E-03    -298.325E-03     593.332E-03    -295.895E-03     65.3614E-03
             980     3.34727E-03     159.656E-03    -114.295E+06    -195.935E+06    -70.4747E+06     2.62405E+06    -297.459E-03     593.521E-03    -296.062E-03     101.385E-03    -299.552E-03     594.717E-03    -295.964E-03     80.6013E-03
             981     4.01653E-03     159.827E-03    -105.584E+06    -167.211E+06    -51.5882E+06     3.00700E+06    -298.005E-03     594.169E-03    -296.164E-03     120.049E-03    -300.907E-03     596.253E-03    -296.027E-03     95.2917E-03
             982     4.68567E-03     160.028E-03    -96.0623E+06    -130.226E+06    -32.7480E+06     3.61395E+06    -298.447E-03     594.685E-03    -296.238E-03     137.562E-03    -302.260E-03     597.790E-03    -296.074E-03     109.002E-03
             983     5.35509E-03     160.254E-03    -87.1028E+06    -100.425E+06    -14.5075E+06     4.53450E+06    -298.737E-03     595.031E-03    -296.293E-03     153.640E-03    -303.504E-03     599.174E-03    -296.094E-03     121.557E-03
             984     6.02439E-03     160.504E-03    -78.7581E+06    -68.7075E+06     2.56946E+06     5.99996E+06    -298.808E-03     595.113E-03    -296.305E-03     167.784E-03    -304.528E-03     600.302E-03    -296.078E-03     132.569E-03
             985     6.69429E-03     160.773E-03    -69.9302E+06    -38.3273E+06     19.6788E+06     8.64641E+06    -298.605E-03     594.881E-03    -296.275E-03     179.432E-03    -305.202E-03     601.036E-03    -296.020E-03     141.589E-03
             986     7.36460E-03     161.059E-03    -60.2233E+06    -1.25072E+06     37.1311E+06     11.0410E+06    -298.092E-03     594.280E-03    -296.188E-03     188.270E-03    -305.433E-03     601.296E-03    -295.913E-03     148.359E-03
             987     8.03508E-03     161.356E-03    -51.4519E+06     24.1825E+06     50.3225E+06     11.1951E+06    -297.162E-03     593.204E-03    -296.042E-03     194.262E-03    -305.050E-03     600.849E-03    -295.750E-03     152.861E-03
             988     8.70617E-03     161.659E-03    -44.3196E+06     29.3888E+06     58.5077E+06     9.76176E+06    -295.607E-03     591.432E-03    -295.825E-03     197.799E-03    -303.811E-03     599.413E-03    -295.510E-03     155.544E-03
             989     9.37928E-03     161.963E-03    -36.4706E+06     43.7045E+06     69.7064E+06     7.89447E+06    -293.491E-03     589.003E-03    -295.512E-03     198.929E-03    -301.847E-03     597.182E-03    -295.174E-03     156.281E-03
             990     10.0537E-03     162.262E-03    -28.7811E+06     54.7567E+06     82.5909E+06     4.71243E+06    -291.249E-03     586.372E-03    -295.123E-03     197.230E-03    -299.580E-03     594.555E-03    -294.747E-03     154.495E-03
             991     10.7287E-03     162.553E-03    -21.5372E+06     52.4882E+06     91.2848E+06     2.73449E+06    -289.096E-03     583.766E-03    -294.670E-03     192.811E-03    -297.199E-03     591.714E-03    -294.258E-03     150.408E-03
             992     11.4057E-03     162.831E-03    -14.6707E+06     43.6502E+06     87.1590E+06     3.60196E+06    -286.968E-03     581.094E-03    -294.125E-03     181.380E-03    -294.319E-03     588.295E-03    -293.732E-03     140.765E-03
             993     12.0827E-03     163.081E-03    -12.0084E+06     58.0406E+06     87.1462E+06     4.63462E+06    -284.527E-03     578.069E-03    -293.541E-03     173.369E-03    -291.514E-03     584.966E-03    -293.172E-03     133.557E-03
             994     12.7658E-03     163.326E-03    -6.00228E+06     83.4218E+06     96.6542E+06     2.29437E+06    -281.450E-03     574.398E-03    -292.948E-03     133.835E-03    -286.437E-03     579.379E-03    -292.577E-03     100.611E-03
             995     669.007E-06     160.984E-03    -141.066E+06    -259.356E+06    -139.000E+06     71.8402E+03    -296.904E-03     593.583E-03    -296.678E-03     22.8792E-03    -297.144E-03     592.804E-03    -296.793E-03     18.1042E-03
             996     1.33780E-03     161.034E-03    -137.019E+06    -247.104E+06    -128.202E+06     364.547E+03    -297.073E-03     593.885E-03    -296.811E-03     41.6779E-03    -297.551E-03     593.370E-03    -296.895E-03     33.0875E-03
             997     2.00631E-03     161.115E-03    -131.773E+06    -229.180E+06    -112.895E+06     1.18369E+06    -297.447E-03     594.350E-03    -296.903E-03     61.5422E-03    -298.325E-03     594.274E-03    -296.944E-03     48.8472E-03
             998     2.67505E-03     161.228E-03    -124.856E+06    -211.586E+06    -93.7436E+06     1.57631E+06    -297.901E-03     594.922E-03    -297.021E-03     81.1979E-03    -299.320E-03     595.419E-03    -297.002E-03     64.3742E-03
             999     3.34381E-03     161.370E-03    -116.164E+06    -197.877E+06    -73.2986E+06     1.66673E+06    -298.474E-03     595.628E-03    -297.154E-03     100.336E-03    -300.560E-03     596.812E-03    -297.065E-03     79.4086E-03
            1000     4.01218E-03     161.542E-03    -107.154E+06    -170.020E+06    -53.5811E+06     1.90798E+06    -298.922E-03     596.179E-03    -297.257E-03     118.687E-03    -301.809E-03     598.238E-03    -297.123E-03     93.7715E-03
            1001     4.68080E-03     161.741E-03    -98.4058E+06    -134.973E+06    -34.5263E+06     2.93603E+06    -299.237E-03     596.560E-03    -297.323E-03     135.769E-03    -303.022E-03     599.617E-03    -297.158E-03     107.075E-03
            1002     5.34936E-03     161.967E-03    -89.5452E+06    -105.782E+06    -16.2748E+06     4.62177E+06    -299.463E-03     596.829E-03    -297.366E-03     151.320E-03    -304.189E-03     600.909E-03    -297.164E-03     119.103E-03
            1003     6.01828E-03     162.216E-03    -80.5083E+06    -74.9165E+06     374.882E+03     6.24480E+06    -299.346E-03     596.706E-03    -297.360E-03     164.995E-03    -305.008E-03     601.815E-03    -297.133E-03     129.648E-03
            1004     6.68736E-03     162.484E-03    -70.6875E+06    -45.6158E+06     15.9646E+06     7.08000E+06    -298.883E-03     596.176E-03    -297.292E-03     176.505E-03    -305.401E-03     602.235E-03    -297.044E-03     138.551E-03
            1005     7.35687E-03     162.769E-03    -60.7127E+06    -10.3861E+06     31.9228E+06     8.49902E+06    -297.937E-03     595.082E-03    -297.144E-03     185.391E-03    -305.177E-03     601.976E-03    -296.882E-03     145.477E-03
            1006     8.02765E-03     163.063E-03    -52.0164E+06     20.3832E+06     46.1000E+06     10.7005E+06    -296.359E-03     593.261E-03    -296.901E-03     191.523E-03    -304.136E-03     600.792E-03    -296.625E-03     150.320E-03
            1007     8.69998E-03     163.363E-03    -43.2024E+06     33.0040E+06     58.9340E+06     10.5951E+06    -294.323E-03     590.892E-03    -296.569E-03     195.084E-03    -302.425E-03     598.788E-03    -296.260E-03     153.098E-03
            1008     9.37356E-03     163.661E-03    -35.6074E+06     47.6764E+06     72.4326E+06     8.21879E+06    -291.953E-03     588.087E-03    -296.134E-03     196.216E-03    -300.214E-03     596.181E-03    -295.789E-03     153.852E-03
            1009     10.0486E-03     163.958E-03    -29.3216E+06     60.6842E+06     85.8453E+06     6.40516E+06    -289.462E-03     585.075E-03    -295.613E-03     194.716E-03    -297.692E-03     593.167E-03    -295.229E-03     152.425E-03
            1010     10.7256E-03     164.245E-03    -23.8864E+06     56.5480E+06     93.2155E+06     4.40655E+06    -287.126E-03     582.148E-03    -295.021E-03     190.987E-03    -295.131E-03     589.999E-03    -294.603E-03     149.167E-03
            1011     11.4027E-03     164.521E-03    -17.7814E+06     41.5047E+06     86.2840E+06     3.64618E+06    -284.994E-03     579.332E-03    -294.338E-03     180.920E-03    -292.291E-03     586.463E-03    -293.941E-03     140.788E-03
            1012     12.0819E-03     164.766E-03    -9.02816E+06     60.4603E+06     91.1212E+06     3.31615E+06    -282.188E-03     575.823E-03    -293.636E-03     172.658E-03    -289.249E-03     582.803E-03    -293.255E-03     132.616E-03
            1013     12.7597E-03     165.003E-03    -5.08604E+06     88.4124E+06     100.326E+06     2.98359E+06    -278.435E-03     571.341E-03    -292.906E-03     132.946E-03    -283.501E-03     576.412E-03    -292.525E-03     99.6497E-03
            1014     667.780E-06     162.702E-03    -141.583E+06    -259.164E+06    -139.783E+06    -477.896E+03    -298.389E-03     596.401E-03    -298.013E-03     22.5966E-03    -298.629E-03     595.624E-03    -298.130E-03     17.7991E-03
            1015     1.33574E-03     162.752E-03    -138.442E+06    -248.783E+06    -130.278E+06     199.944E+03    -298.431E-03     596.642E-03    -298.211E-03     41.4155E-03    -298.910E-03     596.124E-03    -298.301E-03     32.7529E-03
            1016     2.00374E-03     162.833E-03    -133.320E+06    -231.227E+06    -115.043E+06     468.004E+03    -298.774E-03     597.063E-03    -298.289E-03     61.0365E-03    -299.652E-03     596.980E-03    -298.335E-03     48.2138E-03
            1017     2.67158E-03     162.945E-03    -126.286E+06    -213.106E+06    -96.0895E+06     763.468E+03    -299.214E-03     597.612E-03    -298.398E-03     80.2495E-03    -300.628E-03     598.099E-03    -298.386E-03     63.2803E-03
            1018     3.33910E-03     163.088E-03    -118.174E+06    -198.635E+06    -75.7135E+06     809.790E+03    -299.699E-03     598.225E-03    -298.525E-03     98.9483E-03    -301.776E-03     599.396E-03    -298.445E-03     77.8541E-03
            1019     4.00676E-03     163.260E-03    -109.312E+06    -172.275E+06    -55.9548E+06     865.890E+03    -300.057E-03     598.680E-03    -298.622E-03     116.768E-03    -302.924E-03     600.709E-03    -298.494E-03     91.6613E-03
            1020     4.67443E-03     163.459E-03    -99.9013E+06    -139.838E+06    -36.9940E+06     1.64658E+06    -300.258E-03     598.936E-03    -298.678E-03     133.541E-03    -304.007E-03     601.941E-03    -298.515E-03     104.644E-03
            1021     5.34216E-03     163.684E-03    -89.8045E+06    -112.815E+06    -19.2830E+06     3.19729E+06    -300.208E-03     598.898E-03    -298.690E-03     148.885E-03    -304.876E-03     602.903E-03    -298.493E-03     116.494E-03
            1022     6.01008E-03     163.931E-03    -79.6992E+06    -81.0986E+06    -2.31067E+06     4.83699E+06    -299.770E-03     598.400E-03    -298.629E-03     162.513E-03    -305.360E-03     603.425E-03    -298.408E-03     127.048E-03
            1023     6.67889E-03     164.198E-03    -71.0654E+06    -49.0599E+06     14.5338E+06     5.81869E+06    -298.864E-03     597.349E-03    -298.485E-03     174.119E-03    -305.306E-03     603.323E-03    -298.238E-03     136.155E-03
            1024     7.34884E-03     164.479E-03    -63.3267E+06    -18.6378E+06     30.9526E+06     6.82934E+06    -297.302E-03     595.537E-03    -298.234E-03     182.989E-03    -304.450E-03     602.304E-03    -297.961E-03     143.217E-03
            1025     8.02005E-03     164.770E-03    -55.1213E+06     13.7214E+06     44.2471E+06     7.65107E+06    -295.179E-03     593.018E-03    -297.840E-03     189.013E-03    -302.846E-03     600.411E-03    -297.558E-03     148.071E-03
            1026     8.69287E-03     165.064E-03    -45.5647E+06     33.2879E+06     54.9433E+06     7.65381E+06    -292.728E-03     590.052E-03    -297.324E-03     192.612E-03    -300.711E-03     597.833E-03    -297.032E-03     151.003E-03
            1027     9.36715E-03     165.360E-03    -36.1706E+06     47.8405E+06     69.5366E+06     7.98780E+06    -289.989E-03     586.709E-03    -296.720E-03     194.349E-03    -298.120E-03     594.680E-03    -296.389E-03     152.548E-03
            1028     10.0436E-03     165.650E-03    -28.5431E+06     59.4349E+06     85.1783E+06     9.41721E+06    -287.106E-03     583.129E-03    -296.023E-03     194.006E-03    -295.193E-03     591.080E-03    -295.642E-03     152.557E-03
            1029     10.7213E-03     165.935E-03    -21.2261E+06     61.5666E+06     95.9790E+06     10.1810E+06    -284.290E-03     579.523E-03    -295.233E-03     191.784E-03    -292.182E-03     587.280E-03    -294.812E-03     150.967E-03
            1030     11.4021E-03     166.205E-03    -17.1173E+06     49.4786E+06     89.3926E+06     6.82410E+06    -281.631E-03     575.960E-03    -294.329E-03     184.143E-03    -288.920E-03     583.104E-03    -293.929E-03     144.864E-03
            1031     12.0823E-03     166.451E-03    -12.4825E+06     63.0627E+06     90.6746E+06     3.18587E+06    -278.681E-03     572.076E-03    -293.395E-03     179.001E-03    -285.830E-03     579.142E-03    -293.015E-03     139.781E-03
            1032     12.7657E-03     166.682E-03    -5.53106E+06     91.2816E+06     100.788E+06     1.26836E+06    -276.158E-03     568.643E-03    -292.485E-03     141.631E-03    -281.348E-03     573.844E-03    -292.105E-03     108.758E-03
            1033     666.940E-06     164.424E-03    -143.624E+06    -259.422E+06    -141.098E+06     551.188E+03    -300.090E-03     599.750E-03    -299.661E-03     22.2851E-03    -300.337E-03     598.976E-03    -299.782E-03     17.4447E-03
            1034     1.33376E-03     164.474E-03    -140.912E+06    -249.521E+06    -131.832E+06     167.795E+03    -300.119E-03     600.017E-03    -299.899E-03     40.7335E-03    -300.604E-03     599.498E-03    -299.992E-03     31.9857E-03
            1035     2.00042E-03     164.556E-03    -135.109E+06    -231.829E+06    -116.492E+06     8.85158E+03    -300.429E-03     600.414E-03    -299.985E-03     59.9722E-03    -301.306E-03     600.326E-03    -300.036E-03     47.0251E-03
            1036     2.66688E-03     164.668E-03    -128.298E+06    -213.339E+06    -98.1134E+06    -154.474E+03    -300.790E-03     600.879E-03    -300.090E-03     78.9540E-03    -302.201E-03     601.362E-03    -300.085E-03     61.8086E-03
            1037     3.33349E-03     164.811E-03    -120.031E+06    -198.204E+06    -78.3601E+06    -661.661E+03    -301.111E-03     601.305E-03    -300.194E-03     97.4754E-03    -303.178E-03     602.470E-03    -300.124E-03     76.1826E-03
            1038     4.00001E-03     164.982E-03    -110.664E+06    -173.490E+06    -58.7765E+06    -873.148E+03    -301.319E-03     601.576E-03    -300.257E-03     115.116E-03    -304.165E-03     603.583E-03    -300.139E-03     89.8043E-03
            1039     4.66654E-03     165.181E-03    -101.155E+06    -143.675E+06    -39.8284E+06    -417.682E+03    -301.206E-03     601.468E-03    -300.262E-03     131.759E-03    -304.922E-03     604.430E-03    -300.106E-03     102.666E-03
            1040     5.33370E-03     165.404E-03    -92.1668E+06    -118.154E+06    -22.1358E+06     488.520E+03    -300.683E-03     600.874E-03    -300.191E-03     147.052E-03    -305.303E-03     604.812E-03    -299.996E-03     114.560E-03
            1041     6.00175E-03     165.650E-03    -83.5632E+06    -88.3182E+06    -5.74458E+06     1.94360E+06    -299.797E-03     599.808E-03    -300.011E-03     160.719E-03    -305.322E-03     604.739E-03    -299.790E-03     125.289E-03
            1042     6.67049E-03     165.913E-03    -75.0718E+06    -56.5060E+06     10.5587E+06     4.50143E+06    -298.333E-03     598.049E-03    -299.716E-03     172.217E-03    -304.689E-03     603.908E-03    -299.472E-03     134.447E-03
            1043     7.34054E-03     166.191E-03    -67.0090E+06    -24.4486E+06     27.4756E+06     6.94892E+06    -296.175E-03     595.463E-03    -299.288E-03     181.113E-03    -303.215E-03     602.099E-03    -299.018E-03     141.729E-03
            1044     8.01253E-03     166.476E-03    -58.8202E+06     13.6016E+06      43.963E+06     6.75258E+06    -293.502E-03     592.202E-03    -298.700E-03     187.696E-03    -301.054E-03     599.466E-03    -298.414E-03     147.356E-03
            1045     8.68625E-03     166.767E-03    -51.0773E+06     35.1887E+06     54.7610E+06     3.64148E+06    -290.430E-03     588.388E-03    -297.958E-03     192.240E-03    -298.293E-03     596.036E-03    -297.661E-03     151.447E-03
            1046     9.36294E-03     167.055E-03    -42.3613E+06     40.9529E+06     64.5413E+06     2.89586E+06    -287.123E-03     584.216E-03    -297.093E-03     195.084E-03    -295.110E-03     592.011E-03    -296.768E-03     154.306E-03
            1047     10.0417E-03     167.342E-03    -33.3998E+06     49.3867E+06     77.4726E+06     6.46812E+06    -283.687E-03     579.804E-03    -296.117E-03     195.989E-03    -291.640E-03     587.590E-03    -295.753E-03     155.685E-03
            1048     10.7238E-03     167.618E-03    -25.8789E+06     59.5827E+06     90.3715E+06     8.58265E+06    -280.451E-03     575.501E-03    -295.050E-03     195.319E-03    -288.265E-03     583.173E-03    -294.647E-03     155.671E-03
            1049     11.4066E-03     167.886E-03    -17.0742E+06     58.5084E+06     92.1718E+06     7.73555E+06    -277.491E-03     571.388E-03    -293.896E-03     188.204E-03    -284.732E-03     578.508E-03    -293.495E-03     150.120E-03
            1050     12.0940E-03     168.123E-03    -9.83660E+06     70.8273E+06     94.4950E+06     4.73793E+06    -275.490E-03     568.241E-03    -292.752E-03     180.592E-03    -282.517E-03     575.211E-03    -292.367E-03     142.471E-03
            1051     12.7833E-03     168.352E-03    -4.65899E+06     94.0165E+06     101.079E+06     1.40065E+06    -276.713E-03     568.495E-03    -291.782E-03     140.382E-03    -281.786E-03     573.592E-03    -291.406E-03     107.907E-03
            1052     665.439E-06     166.153E-03    -146.564E+06    -260.065E+06    -144.709E+06     157.110E+03    -302.126E-03     603.803E-03    -301.677E-03     21.9202E-03    -302.382E-03     603.035E-03    -301.811E-03     17.0078E-03
            1053     1.33070E-03     166.203E-03    -143.545E+06    -248.652E+06    -134.612E+06    -75.5723E+03    -302.093E-03     604.014E-03    -301.921E-03     40.1811E-03    -302.586E-03     603.505E-03    -302.025E-03     31.3081E-03
            1054     1.99604E-03     166.285E-03    -138.165E+06    -231.514E+06    -119.501E+06    -585.084E+03    -302.254E-03     604.232E-03    -301.978E-03     59.3274E-03    -303.139E-03     604.150E-03    -302.039E-03     46.2436E-03
            1055     2.66153E-03     166.397E-03    -130.837E+06    -211.642E+06    -101.029E+06    -1.36271E+06    -302.424E-03     604.449E-03    -302.025E-03     78.1453E-03    -303.837E-03     604.939E-03    -302.034E-03     60.8388E-03
            1056     3.32694E-03     166.539E-03    -122.816E+06    -195.161E+06    -81.2585E+06    -2.43552E+06    -302.506E-03     604.562E-03    -302.055E-03     96.4504E-03    -304.570E-03     605.732E-03    -302.001E-03     75.0177E-03
            1057     3.99254E-03     166.710E-03    -114.038E+06    -173.414E+06    -61.8039E+06    -3.19291E+06    -302.319E-03     604.343E-03    -302.024E-03     114.108E-03    -305.150E-03     606.332E-03    -301.916E-03     88.7011E-03
            1058     4.65870E-03     166.907E-03    -104.740E+06    -146.748E+06    -42.6910E+06    -2.76661E+06    -301.783E-03     603.686E-03    -301.904E-03     130.727E-03    -305.466E-03     606.601E-03    -301.752E-03     101.619E-03
            1059     5.32547E-03     167.128E-03    -95.0381E+06    -122.006E+06    -24.5020E+06    -1.67220E+06    -300.807E-03     602.486E-03    -301.679E-03     146.010E-03    -305.375E-03     606.355E-03    -301.487E-03     113.609E-03
            1060     5.99318E-03     167.370E-03    -85.3967E+06    -95.2379E+06    -8.35653E+06     206.246E+03    -299.253E-03     600.566E-03    -301.313E-03     159.812E-03    -304.690E-03     605.386E-03    -301.093E-03     124.671E-03
            1061     6.66247E-03     167.631E-03    -75.0718E+06    -65.9941E+06     7.35050E+06     2.88370E+06    -297.075E-03     597.862E-03    -300.788E-03     171.651E-03    -303.301E-03     603.566E-03    -300.546E-03     134.420E-03
            1062     7.33382E-03     167.902E-03    -64.2700E+06    -32.4175E+06     24.4111E+06     5.63924E+06    -294.278E-03     594.371E-03    -300.093E-03     181.224E-03    -301.155E-03     600.834E-03    -299.830E-03     142.628E-03
            1063     8.00737E-03     168.182E-03    -54.6220E+06     12.4026E+06     44.0771E+06     8.06762E+06    -290.850E-03     590.068E-03    -299.218E-03     188.571E-03    -298.218E-03     597.159E-03    -298.936E-03     149.340E-03
            1064     8.68431E-03     168.464E-03    -47.7841E+06     42.2630E+06     59.5001E+06     8.54818E+06    -287.137E-03     585.314E-03    -298.177E-03     193.935E-03    -294.824E-03     592.809E-03    -297.871E-03     154.521E-03
            1065     9.36328E-03     168.747E-03    -44.3720E+06     43.5022E+06     66.8532E+06     5.99538E+06    -283.478E-03     580.479E-03    -297.002E-03     197.612E-03    -291.307E-03     588.112E-03    -296.666E-03     158.303E-03
            1066     10.0457E-03     169.024E-03    -39.4337E+06     41.7625E+06     74.0237E+06     3.99415E+06    -280.069E-03     575.802E-03    -295.733E-03     198.939E-03    -287.883E-03     583.410E-03    -295.367E-03     159.962E-03
            1067     10.7301E-03     169.296E-03    -30.7711E+06     58.6872E+06     88.6233E+06     3.41824E+06    -277.346E-03     571.782E-03    -294.436E-03     197.483E-03    -285.036E-03     579.315E-03    -294.034E-03     158.969E-03
            1068     11.4180E-03     169.557E-03    -20.6178E+06     63.9532E+06     95.3175E+06     2.09545E+06    -276.035E-03     569.210E-03    -293.175E-03     187.809E-03    -283.156E-03     576.208E-03    -292.761E-03     150.438E-03
            1069     12.1034E-03     169.793E-03    -14.0644E+06     70.1667E+06     95.0952E+06    -302.348E+03    -277.237E-03     569.313E-03    -292.076E-03     179.134E-03    -284.252E-03     576.251E-03    -291.682E-03     140.641E-03
            1070     12.7815E-03     170.028E-03    -8.26384E+06      94.826E+06     100.969E+06     740.211E+03    -279.082E-03     570.336E-03    -291.254E-03     139.779E-03    -284.206E-03     575.474E-03    -290.874E-03     106.756E-03
            1071     663.837E-06     167.889E-03    -150.432E+06    -257.570E+06    -148.399E+06    -1.30574E+06    -304.176E-03     608.045E-03    -303.868E-03     21.9510E-03    -304.450E-03     607.300E-03    -304.019E-03     16.9639E-03
            1072     1.32794E-03     167.940E-03    -146.283E+06    -246.446E+06    -138.675E+06    -1.67407E+06    -304.059E-03     608.065E-03    -304.006E-03     40.2507E-03    -304.563E-03     607.577E-03    -304.130E-03     31.2780E-03
            1073     1.99200E-03     168.021E-03    -140.501E+06    -228.763E+06    -123.154E+06    -2.33733E+06    -304.057E-03     608.051E-03    -303.994E-03     59.1679E-03    -304.945E-03     607.985E-03    -304.074E-03     46.0077E-03
            1074     2.65612E-03     168.133E-03    -133.315E+06    -209.616E+06    -104.118E+06    -2.81613E+06    -303.937E-03     607.891E-03    -303.954E-03     77.9440E-03    -305.348E-03     608.386E-03    -303.977E-03     60.6087E-03
            1075     3.32051E-03     168.274E-03    -124.802E+06    -190.127E+06    -83.0746E+06    -3.91722E+06    -303.559E-03     607.413E-03    -303.854E-03     96.2957E-03    -305.618E-03     608.595E-03    -303.813E-03     74.8621E-03
            1076     3.98556E-03     168.443E-03    -115.687E+06    -171.337E+06    -62.7701E+06    -5.05128E+06    -302.847E-03     606.503E-03    -303.656E-03     114.098E-03    -305.655E-03     608.474E-03    -303.554E-03     88.7813E-03
            1077     4.65141E-03     168.637E-03    -105.864E+06    -148.042E+06    -44.0504E+06    -5.20509E+06    -301.756E-03     605.084E-03    -303.327E-03     130.917E-03    -305.388E-03     607.942E-03    -303.180E-03     102.063E-03
            1078     5.31834E-03     168.855E-03    -95.7617E+06    -124.526E+06    -26.9910E+06    -4.90636E+06    -300.104E-03     602.957E-03    -302.853E-03     146.655E-03    -304.597E-03     606.746E-03    -302.668E-03     114.685E-03
            1079     5.98694E-03     169.093E-03    -85.3666E+06    -101.200E+06    -11.0914E+06    -3.95404E+06    -297.779E-03     599.982E-03    -302.203E-03     161.138E-03    -303.109E-03     604.683E-03    -301.988E-03     126.655E-03
            1080     6.65793E-03     169.346E-03    -74.8028E+06    -74.1459E+06     4.34985E+06    -2.32626E+06    -294.822E-03     596.178E-03    -301.356E-03     173.678E-03    -300.902E-03     601.717E-03    -301.118E-03     137.396E-03
            1081     7.33133E-03     169.612E-03    -64.5928E+06    -42.7598E+06     20.0203E+06     150.236E+03    -291.337E-03     591.648E-03    -300.311E-03     183.875E-03    -298.033E-03     597.905E-03    -300.055E-03     146.497E-03
            1082     8.00801E-03     169.883E-03    -55.6018E+06    -2.72808E+06     37.4186E+06     5.99985E+06    -287.451E-03     586.535E-03    -299.085E-03     191.653E-03    -294.614E-03     593.383E-03    -298.813E-03     153.843E-03
            1083     8.68733E-03     170.158E-03    -48.3738E+06     36.3326E+06     53.9881E+06     13.0634E+06    -283.515E-03     581.223E-03    -297.708E-03     197.188E-03    -290.986E-03     588.494E-03    -297.420E-03     159.423E-03
            1084     9.37059E-03     170.432E-03    -41.4162E+06     53.9437E+06     65.8266E+06     14.3199E+06    -280.175E-03     576.423E-03    -296.248E-03     200.578E-03    -287.787E-03     583.889E-03    -295.937E-03     162.960E-03
            1085     10.0556E-03     170.703E-03    -34.1571E+06     53.6953E+06     76.7106E+06     8.41094E+06    -277.936E-03     572.743E-03    -294.807E-03     201.299E-03    -285.536E-03     580.191E-03    -294.452E-03     163.745E-03
            1086     10.7420E-03     170.968E-03    -25.8437E+06     65.3391E+06     93.1188E+06     3.16182E+06    -277.046E-03     570.516E-03    -293.470E-03     199.037E-03    -284.546E-03     577.886E-03    -293.061E-03     161.489E-03
            1087     11.4263E-03     171.228E-03    -18.4727E+06     66.0272E+06     99.8269E+06     189.428E+03    -277.842E-03     570.135E-03    -292.292E-03     190.507E-03    -284.897E-03     577.068E-03    -291.862E-03     153.378E-03
            1088     12.1087E-03     171.468E-03    -12.9631E+06     69.8161E+06     99.9474E+06    -1.66822E+06    -280.074E-03     571.419E-03    -291.345E-03     185.658E-03    -287.133E-03     578.389E-03    -290.927E-03     147.218E-03
            1089     12.7926E-03     171.712E-03    -6.89931E+06     93.5825E+06     104.247E+06    -278.042E+03    -281.692E-03     572.353E-03    -290.661E-03     146.875E-03    -286.900E-03     577.567E-03    -290.266E-03     113.716E-03
            1090     662.718E-06     169.633E-03    -148.899E+06    -252.689E+06    -146.511E+06    -893.139E+03    -305.927E-03     611.772E-03    -305.845E-03     21.9534E-03    -306.201E-03     611.046E-03    -305.995E-03     16.9864E-03
            1091     1.32530E-03     169.683E-03    -146.046E+06    -241.217E+06    -138.771E+06    -2.59550E+06    -305.731E-03     611.551E-03    -305.820E-03     40.3992E-03    -306.237E-03     611.084E-03    -305.952E-03     31.4542E-03
            1092     1.98814E-03     169.763E-03    -141.255E+06    -223.833E+06    -124.788E+06    -3.94396E+06    -305.374E-03     611.064E-03    -305.690E-03     59.5627E-03    -306.260E-03     611.016E-03    -305.785E-03     46.4789E-03
            1093     2.65144E-03     169.874E-03    -134.272E+06    -205.752E+06    -105.432E+06    -4.94548E+06    -304.781E-03     610.264E-03    -305.483E-03     78.8185E-03    -306.183E-03     610.764E-03    -305.517E-03     61.6350E-03
            1094     3.31556E-03     170.013E-03    -125.528E+06    -185.269E+06    -84.9068E+06    -5.90331E+06    -303.855E-03     609.016E-03    -305.161E-03     97.5677E-03    -305.895E-03     610.199E-03    -305.135E-03     76.3908E-03
            1095     3.98060E-03     170.179E-03    -116.210E+06    -166.573E+06    -64.7735E+06    -7.09955E+06    -302.516E-03     607.220E-03    -304.704E-03     115.886E-03    -305.288E-03     609.176E-03    -304.618E-03     90.9986E-03
            1096     4.64694E-03     170.370E-03    -106.832E+06    -145.910E+06    -46.1555E+06    -8.26989E+06    -300.604E-03     604.677E-03    -304.074E-03     133.469E-03    -304.178E-03     607.488E-03    -303.938E-03     105.272E-03
            1097     5.31526E-03     170.582E-03    -97.6809E+06    -124.156E+06    -29.0618E+06    -8.74980E+06    -298.104E-03     601.353E-03    -303.249E-03     149.987E-03    -302.514E-03     605.059E-03    -303.072E-03     118.945E-03
            1098     5.98609E-03     170.813E-03    -88.3374E+06    -103.194E+06    -13.6666E+06    -8.73804E+06    -295.094E-03     597.315E-03    -302.222E-03     165.151E-03    -300.313E-03     601.895E-03    -302.012E-03     131.844E-03
            1099     6.65938E-03     171.059E-03    -79.3618E+06    -79.2031E+06     280.495E+03    -7.69055E+06    -291.561E-03     592.551E-03    -300.990E-03     178.301E-03    -297.498E-03     597.925E-03    -300.758E-03     143.439E-03
            1100     7.33617E-03     171.315E-03    -71.8701E+06    -53.2166E+06     13.5402E+06    -4.64962E+06    -287.718E-03     587.293E-03    -299.575E-03     188.995E-03    -294.242E-03     593.334E-03    -299.326E-03     153.252E-03
            1101     8.01583E-03     171.579E-03    -63.8119E+06    -22.8031E+06     27.5581E+06     476.495E+03    -283.975E-03     581.996E-03    -298.021E-03     196.987E-03    -290.924E-03     588.558E-03    -297.757E-03     160.911E-03
            1102     8.69899E-03     171.844E-03    -52.6190E+06     17.2389E+06     43.7253E+06     7.04395E+06    -280.764E-03     577.152E-03    -296.389E-03     202.313E-03    -287.975E-03     584.111E-03    -296.119E-03     166.270E-03
            1103     9.38371E-03     172.112E-03    -40.4795E+06     53.8379E+06     58.8952E+06     10.8780E+06    -278.590E-03     573.359E-03    -294.769E-03     205.368E-03    -285.939E-03     580.585E-03    -294.494E-03     169.366E-03
            1104     10.0697E-03     172.378E-03    -30.6514E+06     69.2048E+06     73.7084E+06     8.74958E+06    -277.843E-03     571.134E-03    -293.291E-03     206.119E-03    -285.214E-03     578.428E-03    -292.979E-03     169.982E-03
            1105     10.7552E-03     172.642E-03    -24.3231E+06     74.3686E+06     88.0693E+06     3.96082E+06    -278.711E-03     570.742E-03    -292.032E-03     205.250E-03    -286.100E-03     578.054E-03    -291.664E-03     168.506E-03
            1106     11.4405E-03     172.903E-03    -19.1562E+06     69.9437E+06     98.2992E+06    -144.926E+03    -280.801E-03     571.841E-03    -291.040E-03     198.128E-03    -287.878E-03     578.814E-03    -290.622E-03     161.250E-03
            1107     12.1247E-03     173.147E-03    -12.0105E+06     73.2726E+06     105.416E+06     17.4987E+03    -283.172E-03     573.484E-03    -290.312E-03     191.746E-03    -290.227E-03     580.451E-03    -289.874E-03     153.573E-03
            1108     12.8037E-03     173.392E-03    -5.49736E+06     91.2985E+06     108.941E+06     773.603E+03    -285.220E-03     575.048E-03    -289.828E-03     151.122E-03    -290.441E-03     580.258E-03    -289.408E-03     117.775E-03
            1109     661.566E-06     171.383E-03    -147.100E+06    -246.701E+06    -146.738E+06    -1.61034E+06    -306.900E-03     613.870E-03    -306.970E-03     22.6811E-03    -307.172E-03     613.170E-03    -307.133E-03     17.8003E-03
            1110     1.32350E-03     171.432E-03    -145.240E+06    -233.920E+06    -137.932E+06    -2.90156E+06    -306.440E-03     613.220E-03    -306.780E-03     41.6396E-03    -306.949E-03     612.783E-03    -306.920E-03     32.8559E-03
            1111     1.98608E-03     171.510E-03     -140.38E+06    -217.200E+06    -122.488E+06    -4.40719E+06    -305.603E-03     612.073E-03    -306.470E-03     61.3874E-03    -306.488E-03     612.044E-03    -306.564E-03     48.5733E-03
            1112     2.64958E-03     171.618E-03    -133.302E+06    -199.647E+06    -104.132E+06    -5.67632E+06    -304.387E-03     610.393E-03    -306.006E-03     81.2710E-03    -305.773E-03     610.900E-03    -306.044E-03     64.5295E-03
            1113     3.31408E-03     171.754E-03    -125.833E+06    -179.866E+06    -85.3167E+06    -6.65888E+06    -302.771E-03     608.142E-03    -305.371E-03     100.890E-03    -304.780E-03     609.313E-03    -305.354E-03     80.4090E-03
            1114     3.98017E-03     171.915E-03    -117.700E+06    -160.053E+06    -66.3957E+06    -7.86497E+06    -300.653E-03     605.208E-03    -304.554E-03     120.171E-03    -303.380E-03     607.141E-03    -304.483E-03     96.2383E-03
            1115     4.64854E-03     172.100E-03    -109.614E+06    -140.319E+06    -47.8718E+06    -9.13968E+06    -297.916E-03     601.450E-03    -303.535E-03     138.641E-03    -301.426E-03     604.212E-03    -303.412E-03     111.659E-03
            1116     5.31958E-03     172.305E-03    -101.193E+06    -120.613E+06    -30.2009E+06    -9.93314E+06    -294.730E-03     597.033E-03    -302.303E-03     156.061E-03    -299.042E-03     600.645E-03    -302.132E-03     126.536E-03
            1117     5.99320E-03     172.528E-03    -93.0963E+06    -100.725E+06    -14.9388E+06    -10.2518E+06    -291.252E-03     592.122E-03    -300.870E-03     172.025E-03    -296.340E-03     596.565E-03    -300.664E-03     140.515E-03
            1118     6.67040E-03     172.765E-03    -85.4210E+06    -80.9927E+06    -1.90548E+06    -9.69629E+06    -287.638E-03     586.907E-03    -299.270E-03     185.739E-03    -293.406E-03     592.090E-03    -299.038E-03     152.860E-03
            1119     7.35045E-03     173.013E-03     -76.691E+06    -58.9918E+06     10.6817E+06    -8.30522E+06    -284.207E-03     581.762E-03    -297.554E-03     196.644E-03    -290.510E-03     587.551E-03    -297.304E-03     162.971E-03
            1120     8.03386E-03     173.267E-03    -65.6696E+06    -33.3014E+06     23.8192E+06    -6.82460E+06    -281.390E-03     577.187E-03    -295.796E-03     204.493E-03    -288.060E-03     583.436E-03    -295.534E-03     170.437E-03
            1121     8.71877E-03     173.526E-03    -53.5901E+06     548.592E+03     38.5317E+06    -3.76707E+06    -279.551E-03     573.632E-03    -294.082E-03     209.607E-03    -286.458E-03     580.239E-03    -293.812E-03     175.364E-03
            1122     9.40532E-03     173.788E-03    -42.7811E+06     43.5044E+06     55.5481E+06     929.374E+03    -278.837E-03     571.333E-03    -292.496E-03     212.631E-03    -285.913E-03     578.251E-03    -292.219E-03     178.193E-03
            1123     10.0920E-03     174.052E-03    -33.5481E+06     69.3780E+06     70.8638E+06     4.57722E+06    -279.535E-03     570.667E-03    -291.132E-03     213.604E-03    -286.698E-03     577.753E-03    -290.830E-03     178.763E-03
            1124     10.7782E-03     174.316E-03    -26.6223E+06     80.1918E+06     81.7738E+06     4.42527E+06    -281.782E-03     571.829E-03    -290.047E-03     212.985E-03    -289.045E-03     579.046E-03    -289.716E-03     177.133E-03
            1125     11.4609E-03     174.582E-03    -19.5695E+06     79.5986E+06     96.2056E+06     1.88995E+06    -285.224E-03     574.553E-03    -289.329E-03     205.688E-03    -292.235E-03     581.499E-03    -288.935E-03     169.368E-03
            1126     12.1382E-03     174.830E-03    -10.9894E+06     74.9404E+06     109.911E+06     233.899E+03    -288.699E-03     577.654E-03    -288.954E-03     198.914E-03    -295.812E-03     584.675E-03    -288.498E-03     160.501E-03
            1127     12.8155E-03     175.080E-03    -3.60748E+06     88.1679E+06     115.724E+06     579.810E+03    -291.558E-03     580.391E-03    -288.834E-03     158.075E-03    -296.928E-03     585.727E-03    -288.378E-03     123.819E-03
            1128     662.004E-06     173.135E-03    -149.486E+06    -238.939E+06    -146.469E+06    -1.46570E+06    -306.079E-03     612.443E-03    -306.363E-03     23.9364E-03    -306.373E-03     611.782E-03    -306.532E-03     19.2330E-03
            1129     1.32442E-03     173.182E-03    -145.357E+06    -226.495E+06    -135.796E+06    -2.83043E+06    -305.321E-03     611.290E-03    -305.969E-03     43.9080E-03    -305.837E-03     610.879E-03    -306.109E-03     35.5314E-03
            1130     1.98758E-03     173.258E-03    -139.567E+06    -210.860E+06    -120.015E+06    -3.74998E+06    -304.044E-03     609.487E-03    -305.443E-03     64.7927E-03    -304.921E-03     609.467E-03    -305.535E-03     52.6013E-03
            1131     2.65205E-03     173.361E-03    -133.106E+06    -193.448E+06    -102.179E+06    -4.87488E+06    -302.151E-03     606.850E-03    -304.699E-03     85.8011E-03    -303.517E-03     607.353E-03    -304.736E-03     69.9362E-03
            1132     3.31872E-03     173.491E-03    -125.139E+06    -173.998E+06    -82.5391E+06    -5.82355E+06    -299.721E-03     603.439E-03    -303.718E-03     106.664E-03    -301.685E-03     604.579E-03    -303.697E-03     87.3753E-03
            1133     3.98769E-03     173.646E-03    -116.900E+06    -154.224E+06    -63.0512E+06    -6.30887E+06    -296.839E-03     599.342E-03    -302.504E-03     127.046E-03    -299.488E-03     601.211E-03    -302.426E-03     104.668E-03
            1134     4.65923E-03     173.823E-03    -108.457E+06    -134.536E+06    -44.5073E+06    -6.57421E+06    -293.559E-03     594.631E-03    -301.071E-03     146.674E-03    -296.955E-03     597.291E-03    -300.942E-03     121.582E-03
            1135     5.33377E-03     174.019E-03    -100.163E+06    -114.670E+06    -27.0283E+06    -7.07306E+06    -290.084E-03     589.532E-03    -299.448E-03     165.175E-03    -294.238E-03     593.001E-03    -299.272E-03     137.848E-03
            1136     6.01208E-03     174.233E-03    -92.1989E+06    -95.3726E+06    -11.2430E+06    -7.81928E+06    -286.718E-03     584.398E-03    -297.680E-03     181.837E-03    -291.599E-03     588.644E-03    -297.464E-03     152.753E-03
            1137     6.69307E-03     174.462E-03    -84.2660E+06    -77.2657E+06     2.34362E+06    -9.06572E+06    -283.793E-03     579.628E-03    -295.836E-03     195.831E-03    -289.308E-03     584.563E-03    -295.590E-03     165.437E-03
            1138     7.37703E-03     174.701E-03    -75.0420E+06    -56.0323E+06     15.0808E+06    -10.7154E+06    -281.593E-03     575.589E-03    -293.996E-03     206.716E-03    -287.607E-03     581.094E-03    -293.731E-03     175.434E-03
            1139     8.06228E-03     174.949E-03    -65.9073E+06    -32.7369E+06     27.6209E+06    -11.9231E+06    -280.343E-03     572.594E-03    -292.251E-03     214.438E-03    -286.720E-03     578.540E-03    -291.970E-03     182.541E-03
            1140     8.74902E-03     175.203E-03    -58.5527E+06    -6.85502E+06     39.2843E+06    -11.7278E+06    -280.165E-03     570.836E-03    -290.672E-03     219.330E-03    -286.795E-03     577.121E-03    -290.380E-03     186.932E-03
            1141     9.43539E-03     175.462E-03    -49.8334E+06     28.7836E+06     53.4253E+06    -7.63124E+06    -281.179E-03     570.501E-03    -289.322E-03     221.853E-03    -287.992E-03     577.085E-03    -289.024E-03     188.938E-03
            1142     10.1210E-03     175.726E-03    -40.2675E+06     61.9399E+06     69.7049E+06    -3.07852E+06    -283.557E-03     571.831E-03    -288.274E-03     222.357E-03    -290.513E-03     578.663E-03    -287.957E-03     188.650E-03
            1143     10.8037E-03     175.994E-03    -29.4021E+06     80.5604E+06     81.7490E+06    -2.19617E+06    -287.324E-03     574.885E-03    -287.561E-03     221.250E-03    -294.415E-03     581.921E-03    -287.227E-03     186.179E-03
            1144     11.4841E-03     176.265E-03    -18.6245E+06     80.8588E+06     95.1506E+06    -2.03092E+06    -291.759E-03     579.009E-03    -287.250E-03     213.326E-03    -298.672E-03     585.868E-03    -286.865E-03     177.272E-03
            1145     12.1625E-03     176.524E-03    -11.1170E+06     74.0851E+06     108.388E+06     1.43636E+06    -296.239E-03     583.562E-03    -287.323E-03     204.885E-03    -303.411E-03     590.644E-03    -286.872E-03     165.817E-03
            1146     12.8341E-03     176.778E-03    -8.74626E+06     86.2546E+06     116.623E+06     1.56743E+06    -301.470E-03     589.199E-03    -287.729E-03     162.384E-03    -306.899E-03     594.567E-03    -287.258E-03     127.469E-03
            1147     663.802E-06     174.880E-03    -146.116E+06    -233.489E+06    -143.022E+06    -483.065E+03    -302.624E-03     605.565E-03    -302.941E-03     25.7855E-03    -302.909E-03     604.915E-03    -303.106E-03     21.4596E-03
            1148     1.32854E-03     174.925E-03    -141.603E+06    -220.897E+06    -130.767E+06    -1.40314E+06    -301.506E-03     603.927E-03    -302.422E-03     47.3178E-03    -302.004E-03     603.516E-03    -302.550E-03     39.6761E-03
            1149     1.99453E-03     174.997E-03    -135.739E+06    -205.948E+06    -115.814E+06    -2.38996E+06    -299.714E-03     601.375E-03    -301.661E-03     69.9607E-03    -300.556E-03     601.337E-03    -301.745E-03     58.8331E-03
            1150     2.66243E-03     175.094E-03    -128.669E+06    -187.637E+06    -96.5066E+06    -3.22862E+06    -297.299E-03     597.933E-03    -300.634E-03     92.6867E-03    -298.608E-03     598.396E-03    -300.658E-03     78.2504E-03
            1151     3.33249E-03     175.217E-03    -120.701E+06    -169.196E+06    -75.9155E+06    -3.77508E+06    -294.320E-03     593.658E-03    -299.338E-03     115.214E-03    -296.196E-03     594.721E-03    -299.297E-03     97.7382E-03
            1152     4.00558E-03     175.364E-03    -111.730E+06    -149.761E+06    -55.6778E+06    -4.17706E+06    -290.960E-03     588.747E-03    -297.787E-03     137.096E-03    -293.476E-03     590.492E-03    -297.686E-03     116.913E-03
            1153     4.68213E-03     175.532E-03    -102.125E+06    -130.140E+06    -36.8779E+06    -4.67378E+06    -287.622E-03     583.656E-03    -296.033E-03     158.056E-03    -290.825E-03     586.138E-03    -295.881E-03     135.507E-03
            1154     5.36206E-03     175.719E-03    -92.0719E+06    -110.300E+06    -19.3229E+06    -4.83062E+06    -284.672E-03     578.834E-03    -294.162E-03     177.486E-03    -288.576E-03     582.072E-03    -293.965E-03     152.915E-03
            1155     6.04448E-03     175.925E-03    -82.2850E+06    -90.1292E+06    -2.44843E+06    -4.88930E+06    -282.359E-03     574.626E-03    -292.266E-03     194.650E-03    -286.941E-03     578.600E-03    -292.029E-03     168.382E-03
            1156     6.72967E-03     176.146E-03    -72.5104E+06    -68.8366E+06     14.1794E+06    -5.81497E+06    -280.903E-03     571.339E-03    -290.437E-03     208.695E-03    -286.084E-03     575.976E-03    -290.161E-03     181.058E-03
            1157     7.41594E-03     176.380E-03    -63.8096E+06    -47.7807E+06     28.2474E+06    -7.24712E+06    -280.455E-03     569.202E-03    -288.747E-03     219.448E-03    -286.126E-03     574.394E-03    -288.444E-03     190.726E-03
            1158     8.10329E-03     176.624E-03    -56.6109E+06    -26.2719E+06     40.6763E+06    -8.03492E+06    -281.159E-03     568.432E-03    -287.273E-03     226.963E-03    -287.197E-03     574.058E-03    -286.950E-03     197.383E-03
            1159     8.78970E-03     176.877E-03    -48.9879E+06    -2.58789E+06     52.8434E+06    -8.70959E+06    -283.107E-03     569.184E-03    -286.077E-03     231.419E-03    -289.405E-03     575.146E-03    -285.738E-03     201.028E-03
            1160     9.47513E-03     177.137E-03    -40.3383E+06     20.9237E+06     64.1289E+06    -7.67551E+06    -286.312E-03     571.518E-03    -285.206E-03     233.385E-03    -292.804E-03     577.757E-03    -284.857E-03     202.042E-03
            1161     10.1578E-03     177.405E-03    -30.9575E+06     56.8295E+06     81.2410E+06    -4.10233E+06    -290.550E-03     575.256E-03    -284.706E-03     233.216E-03    -297.243E-03     581.807E-03    -284.337E-03     200.607E-03
            1162     10.8379E-03     177.679E-03    -24.0975E+06     81.2250E+06     92.7802E+06    -1.59672E+06    -295.750E-03     580.324E-03    -284.574E-03     231.390E-03    -302.675E-03     587.185E-03    -284.193E-03     196.942E-03
            1163     11.5126E-03     177.959E-03    -20.3658E+06     76.2674E+06     97.7172E+06    -291.510E+03    -301.743E-03     586.595E-03    -284.852E-03     222.079E-03    -308.588E-03     593.357E-03    -284.444E-03     186.088E-03
            1164     12.1805E-03     178.223E-03    -17.3272E+06     66.9277E+06     103.407E+06    -29.2945E+03    -308.386E-03     593.950E-03    -285.564E-03     211.865E-03    -315.669E-03     601.112E-03    -285.119E-03     171.555E-03
            1165     12.8442E-03     178.494E-03    -6.90919E+06     85.5796E+06     118.550E+06    -631.651E+03    -314.907E-03     601.599E-03    -286.692E-03     166.929E-03    -320.379E-03     607.009E-03    -286.213E-03     131.022E-03
            1166     668.725E-06     176.608E-03    -136.463E+06    -229.937E+06    -135.292E+06    -1.10902E+06    -295.403E-03     591.133E-03    -295.730E-03     28.3634E-03    -295.653E-03     590.467E-03    -295.875E-03     24.5925E-03
            1167     1.33802E-03     176.650E-03    -132.390E+06    -218.243E+06    -124.574E+06    -1.24693E+06    -294.013E-03     589.106E-03    -295.093E-03     52.1399E-03    -294.458E-03     588.659E-03    -295.208E-03     45.5223E-03
            1168     2.00907E-03     176.716E-03    -127.465E+06    -202.517E+06    -108.854E+06    -1.37461E+06    -291.862E-03     586.012E-03    -294.150E-03     77.1373E-03    -292.631E-03     585.916E-03    -294.215E-03     67.5386E-03
            1169     2.68235E-03     176.807E-03    -120.054E+06    -183.890E+06    -88.5579E+06    -1.46807E+06    -289.189E-03     582.097E-03    -292.908E-03     102.049E-03    -290.386E-03     582.464E-03    -292.911E-03     89.6362E-03
            1170     3.35860E-03     176.923E-03    -111.295E+06    -165.022E+06    -66.9305E+06    -1.95226E+06    -286.181E-03     577.589E-03    -291.408E-03     126.662E-03    -287.899E-03     578.512E-03    -291.342E-03     111.626E-03
            1171     4.03798E-03     177.060E-03    -101.796E+06    -145.437E+06    -45.8766E+06    -2.66285E+06    -283.250E-03     572.960E-03    -289.710E-03     150.346E-03    -285.561E-03     574.519E-03    -289.581E-03     132.899E-03
            1172     4.72049E-03     177.219E-03    -91.7941E+06    -125.049E+06    -26.1941E+06    -3.43738E+06    -280.841E-03     568.750E-03    -287.909E-03     172.483E-03    -283.786E-03     570.995E-03    -287.726E-03     152.885E-03
            1173     5.40549E-03     177.400E-03    -81.8559E+06    -106.047E+06    -8.55477E+06    -4.36334E+06    -279.272E-03     565.384E-03    -286.112E-03     192.619E-03    -282.872E-03     568.337E-03    -285.882E-03     171.058E-03
            1174     6.09280E-03     177.599E-03    -71.3403E+06    -86.8817E+06     7.99057E+06    -4.82267E+06    -278.751E-03     563.171E-03    -284.420E-03     210.254E-03    -282.991E-03     566.823E-03    -284.150E-03     186.925E-03
            1175     6.78069E-03     177.817E-03    -60.9433E+06    -65.3605E+06     24.2542E+06    -3.94971E+06    -279.355E-03     562.274E-03    -282.920E-03     224.582E-03    -284.174E-03     566.572E-03    -282.615E-03     199.744E-03
            1176     7.46915E-03     178.049E-03    -52.2687E+06    -42.6361E+06     39.8373E+06    -2.62976E+06    -281.227E-03     562.914E-03    -281.687E-03     235.295E-03    -286.533E-03     567.768E-03    -281.350E-03     209.175E-03
            1177     8.15640E-03     178.294E-03    -44.5717E+06    -20.4860E+06     53.8655E+06    -2.06404E+06    -284.433E-03     565.215E-03    -280.783E-03     242.235E-03    -290.106E-03     570.503E-03    -280.419E-03     214.977E-03
            1178     8.84220E-03     178.549E-03    -37.8811E+06     2.83989E+06     66.5057E+06    -1.18958E+06    -288.894E-03     569.146E-03    -280.252E-03     245.630E-03    -294.836E-03     574.774E-03    -279.869E-03     217.261E-03
            1179     9.52436E-03     178.816E-03    -33.5707E+06     24.8075E+06     77.0399E+06    -1.71949E+06    -294.472E-03     574.597E-03    -280.125E-03     246.347E-03    -300.657E-03     580.531E-03    -279.727E-03     216.570E-03
            1180     10.2027E-03     179.090E-03    -29.1756E+06     53.1093E+06     88.4928E+06    -1.83487E+06    -300.826E-03     581.233E-03    -280.408E-03     244.457E-03    -307.260E-03     587.500E-03    -280.000E-03     212.861E-03
            1181     10.8759E-03     179.374E-03    -23.4433E+06     77.3194E+06     96.8393E+06     726.062E+03    -307.997E-03     589.090E-03    -281.093E-03     240.201E-03    -314.697E-03     595.706E-03    -280.687E-03     206.259E-03
            1182     11.5448E-03     179.665E-03    -16.5108E+06     75.0527E+06     101.163E+06     3.93685E+06    -316.060E-03     598.286E-03    -282.226E-03     228.433E-03    -322.725E-03     604.870E-03    -281.805E-03     192.322E-03
            1183     12.2072E-03     179.950E-03    -9.22418E+06     69.4839E+06     106.169E+06     3.92621E+06    -324.179E-03     607.989E-03    -283.809E-03     216.972E-03    -331.383E-03     615.102E-03    -283.366E-03     175.595E-03
            1184     12.8586E-03     180.237E-03    -5.89830E+06     89.3559E+06     117.688E+06     999.034E+03    -330.437E-03     616.210E-03    -285.772E-03     170.215E-03    -335.866E-03     621.596E-03    -285.305E-03     133.530E-03
            1185     676.293E-06     178.305E-03    -129.248E+06    -227.038E+06    -127.602E+06    -267.872E+03    -283.538E-03     567.014E-03    -283.476E-03     32.0691E-03    -283.760E-03     566.323E-03    -283.597E-03     29.0816E-03
            1186     1.35393E-03     178.342E-03    -126.486E+06    -216.527E+06    -117.614E+06    -706.482E+03    -282.004E-03     565.007E-03    -283.003E-03     58.5694E-03    -282.400E-03     564.509E-03    -283.094E-03     53.3010E-03
            1187     2.03328E-03     178.403E-03    -121.120E+06    -199.581E+06    -101.546E+06    -967.121E+03    -280.068E-03     562.118E-03    -282.050E-03     86.4418E-03    -280.750E-03     561.938E-03    -282.092E-03     78.7756E-03
            1188     2.71497E-03     178.488E-03    -113.637E+06    -180.442E+06    -81.7657E+06    -1.52537E+06    -277.850E-03     558.687E-03    -280.837E-03     113.805E-03    -278.913E-03     558.927E-03    -280.819E-03     103.791E-03
            1189     3.39931E-03     178.596E-03    -104.460E+06    -161.294E+06    -60.1034E+06    -2.43890E+06    -275.788E-03     555.235E-03    -279.447E-03     140.289E-03    -277.315E-03     555.979E-03    -279.362E-03     128.014E-03
            1190     4.08628E-03     178.727E-03    -94.3492E+06    -141.088E+06    -38.5689E+06    -3.02696E+06    -274.333E-03     552.311E-03    -277.979E-03     165.463E-03    -276.394E-03     553.637E-03    -277.830E-03     151.025E-03
            1191     4.77507E-03     178.881E-03    -84.2126E+06    -120.692E+06    -18.2426E+06    -3.12818E+06    -273.786E-03     550.324E-03    -276.538E-03     188.913E-03    -276.438E-03     552.293E-03    -276.332E-03     172.412E-03
            1192     5.46549E-03     179.057E-03    -74.5073E+06    -101.195E+06     100.646E+03    -3.23214E+06    -274.372E-03     549.593E-03    -275.221E-03     210.156E-03    -277.650E-03     552.240E-03    -274.966E-03     191.669E-03
            1193     6.15622E-03     179.256E-03    -66.1546E+06    -83.9015E+06     15.5968E+06    -3.17253E+06    -276.232E-03     550.344E-03    -274.113E-03     228.421E-03    -280.127E-03     553.658E-03    -273.817E-03     208.083E-03
            1194     6.84722E-03     179.473E-03    -59.5172E+06    -66.1961E+06     28.7186E+06    -1.87878E+06    -279.533E-03     552.826E-03    -273.292E-03     242.927E-03    -283.998E-03     556.760E-03    -272.967E-03     220.909E-03
            1195     7.53642E-03     179.709E-03    -53.5242E+06    -43.6620E+06     42.2218E+06     978.891E+03    -284.447E-03     557.292E-03    -272.845E-03     253.238E-03    -289.400E-03     561.780E-03    -272.493E-03     229.699E-03
            1196     8.22293E-03     179.960E-03    -48.7492E+06    -17.3992E+06     56.0187E+06     3.26050E+06    -290.756E-03     563.589E-03    -272.833E-03     259.038E-03    -296.102E-03     568.542E-03    -272.457E-03     234.030E-03
            1197     8.90480E-03     180.224E-03    -44.6436E+06     6.41705E+06     67.1173E+06     3.25039E+06    -298.212E-03     571.492E-03    -273.280E-03     260.734E-03    -303.852E-03     576.808E-03    -272.889E-03     234.182E-03
            1198     9.58226E-03     180.501E-03    -39.2637E+06     32.4380E+06     78.1628E+06     2.24457E+06    -306.546E-03     580.740E-03    -274.194E-03     258.911E-03    -312.443E-03     586.394E-03    -273.793E-03     230.488E-03
            1199     10.2537E-03     180.789E-03    -33.5864E+06     54.6797E+06     86.7591E+06     1.12664E+06    -315.573E-03     591.140E-03    -275.566E-03     253.630E-03    -321.710E-03     597.108E-03    -275.163E-03     222.866E-03
            1200     10.9189E-03     181.086E-03    -26.5398E+06     73.0618E+06     92.2655E+06     1.38768E+06    -325.219E-03     602.599E-03    -277.381E-03     245.778E-03    -331.618E-03     608.904E-03    -276.987E-03     212.045E-03
            1201     11.5748E-03     181.396E-03    -20.4940E+06     74.9829E+06     95.6051E+06     1.49438E+06    -333.919E-03     613.543E-03    -279.625E-03     231.688E-03    -340.412E-03     619.960E-03    -279.226E-03     194.826E-03
            1202     12.2214E-03     181.696E-03    -15.4255E+06     68.1853E+06     97.6866E+06     925.130E+03    -340.694E-03     622.891E-03    -282.197E-03     219.705E-03    -347.774E-03     629.880E-03    -281.785E-03     177.298E-03
            1203     12.8653E-03     182.002E-03    -7.19015E+06     90.9697E+06     111.705E+06     1.63067E+06    -345.602E-03     630.596E-03    -284.994E-03     173.137E-03    -350.879E-03     635.850E-03    -284.557E-03     136.206E-03
            1204     688.776E-06     179.951E-03    -128.709E+06    -223.519E+06    -130.640E+06    -1.76563E+06    -266.818E-03     532.554E-03    -265.736E-03     35.8853E-03    -267.029E-03     531.861E-03    -265.878E-03     33.7098E-03
            1205     1.37806E-03     179.986E-03    -126.732E+06    -212.911E+06    -116.404E+06    -1.83827E+06    -265.535E-03     531.432E-03    -265.898E-03     65.3805E-03    -265.901E-03     530.900E-03    -265.987E-03     61.5208E-03
            1206     2.06862E-03     180.043E-03    -119.084E+06    -195.240E+06    -98.2115E+06    -2.47893E+06    -264.604E-03     529.863E-03    -265.259E-03     96.0842E-03    -265.201E-03     529.602E-03    -265.294E-03     90.3827E-03
            1207     2.76088E-03     180.124E-03    -110.297E+06    -176.061E+06    -77.2828E+06    -2.96964E+06    -263.926E-03     528.397E-03    -264.471E-03     125.953E-03    -264.841E-03     528.496E-03    -264.442E-03     118.372E-03
            1208     3.45458E-03     180.228E-03    -101.089E+06    -157.286E+06    -55.8524E+06    -3.29950E+06    -263.894E-03     527.531E-03    -263.637E-03     154.649E-03    -265.212E-03     528.073E-03    -263.541E-03     145.151E-03
            1209     4.14932E-03     180.357E-03    -92.1282E+06    -138.055E+06    -35.6863E+06    -3.19323E+06    -264.745E-03     527.586E-03    -262.841E-03     181.726E-03    -266.543E-03     528.655E-03    -262.686E-03     170.287E-03
            1210     4.84512E-03     180.510E-03    -83.6234E+06    -119.028E+06    -16.8692E+06    -2.18290E+06    -266.778E-03     528.949E-03    -262.171E-03     206.731E-03    -269.124E-03     530.613E-03    -261.961E-03     193.326E-03
            1211     5.54069E-03     180.688E-03    -76.6882E+06    -100.587E+06    -29.3614E+03     93.6245E+03    -270.268E-03     531.984E-03    -261.716E-03     229.050E-03    -273.209E-03     534.289E-03    -261.459E-03     213.683E-03
            1212     6.23555E-03     180.890E-03    -71.6268E+06    -83.0224E+06     14.8656E+06     3.02157E+06    -275.342E-03     536.909E-03    -261.567E-03     247.685E-03    -278.883E-03     539.855E-03    -261.268E-03     230.414E-03
            1213     6.92765E-03     181.115E-03    -67.6128E+06    -66.7132E+06     27.2313E+06     5.53111E+06    -282.221E-03     544.026E-03    -261.805E-03     262.104E-03    -286.326E-03     547.577E-03    -261.474E-03     242.949E-03
            1214     7.61612E-03     181.360E-03    -63.9681E+06    -45.2319E+06     38.3903E+06     7.83136E+06    -290.861E-03     553.366E-03    -262.505E-03     271.585E-03    -295.464E-03     557.476E-03    -262.155E-03     250.558E-03
            1215     8.29915E-03     181.624E-03    -59.4936E+06    -14.7536E+06     50.8744E+06     8.91866E+06    -300.871E-03     564.598E-03    -263.726E-03     275.518E-03    -305.878E-03     569.203E-03    -263.364E-03     252.611E-03
            1216     8.97623E-03     181.904E-03    -53.9811E+06     16.8159E+06     63.5171E+06     6.65377E+06    -311.927E-03     577.419E-03    -265.492E-03     274.476E-03    -317.255E-03     582.443E-03    -265.121E-03     249.481E-03
            1217     9.64519E-03     182.198E-03    -47.3073E+06     42.4347E+06     73.7044E+06     1.73331E+06    -323.539E-03     591.325E-03    -267.786E-03     268.977E-03    -329.132E-03     596.700E-03    -267.411E-03     241.486E-03
            1218     10.3061E-03     182.505E-03    -39.3013E+06     54.6035E+06     79.0950E+06    -242.889E+03    -335.080E-03     605.645E-03    -270.565E-03     259.839E-03    -340.889E-03     611.292E-03    -270.192E-03     229.449E-03
            1219     10.9571E-03     182.824E-03    -33.0568E+06     71.3977E+06     84.5059E+06    -198.389E+03    -345.433E-03     619.174E-03    -273.741E-03     249.765E-03    -351.544E-03     625.186E-03    -273.374E-03     215.918E-03
            1220     11.6009E-03     183.153E-03    -26.6200E+06     77.1670E+06     91.6334E+06    -1.58394E+06    -352.890E-03     630.096E-03    -277.206E-03     235.004E-03    -359.190E-03     636.318E-03    -276.822E-03     197.586E-03
            1221     12.2415E-03     183.469E-03    -17.9071E+06     71.4562E+06     95.3951E+06    -4.94319E+06    -357.672E-03     638.463E-03    -280.790E-03     222.579E-03    -364.596E-03     645.305E-03    -280.391E-03     179.305E-03
            1222     12.8751E-03     183.790E-03    -10.5740E+06     85.7276E+06     105.672E+06    -6.72889E+06    -359.202E-03     643.574E-03    -284.372E-03     175.786E-03    -364.386E-03     648.721E-03    -283.952E-03     138.125E-03
            1223     703.888E-06     181.534E-03    -127.071E+06    -217.635E+06    -123.837E+06    -1.12792E+06    -245.839E-03     490.134E-03    -244.295E-03     39.2598E-03    -246.049E-03     489.436E-03    -244.414E-03     37.7934E-03
            1224     1.40786E-03     181.568E-03    -124.449E+06    -205.947E+06    -115.001E+06    -2.96400E+06    -245.666E-03     490.565E-03    -244.899E-03     71.4273E-03    -245.990E-03     490.010E-03    -244.995E-03     68.7956E-03
            1225     2.11232E-03     181.625E-03    -119.135E+06    -188.687E+06    -100.166E+06    -4.49968E+06    -246.512E-03     491.339E-03    -244.827E-03     104.932E-03    -247.025E-03     491.014E-03    -244.882E-03     100.957E-03
            1226     2.81690E-03     181.706E-03    -111.902E+06    -173.188E+06    -80.5461E+06    -4.48516E+06    -248.176E-03     492.962E-03    -244.786E-03     137.429E-03    -248.947E-03     492.924E-03    -244.775E-03     132.031E-03
            1227     3.52146E-03     181.812E-03    -104.618E+06    -156.087E+06    -59.8707E+06    -2.10037E+06    -250.849E-03     495.687E-03    -244.838E-03     168.470E-03    -251.959E-03     496.021E-03    -244.759E-03     161.559E-03
            1228     4.22566E-03     181.945E-03    -98.2915E+06    -137.520E+06    -39.7660E+06     651.297E+03    -254.797E-03     499.843E-03    -245.046E-03     197.564E-03    -256.332E-03     500.638E-03    -244.903E-03     189.008E-03
            1229     4.92834E-03     182.104E-03    -93.6673E+06    -121.969E+06    -22.7106E+06     3.69557E+06    -260.329E-03     505.813E-03    -245.485E-03     224.111E-03    -262.360E-03     507.134E-03    -245.285E-03     213.770E-03
            1230     5.62911E-03     182.290E-03    -89.6965E+06    -104.870E+06    -7.59950E+06     7.63645E+06    -267.650E-03     513.888E-03    -246.238E-03     247.202E-03    -270.231E-03     515.797E-03    -245.994E-03     234.967E-03
            1231     6.32612E-03     182.503E-03    -85.5081E+06    -85.3475E+06     6.28401E+06     10.9808E+06    -276.916E-03     524.314E-03    -247.399E-03     265.813E-03    -280.072E-03     526.848E-03    -247.120E-03     251.540E-03
            1232     7.01863E-03     182.742E-03    -80.8008E+06    -67.2626E+06     18.4088E+06     12.7341E+06    -288.188E-03     537.241E-03    -249.053E-03     279.463E-03    -291.897E-03     540.380E-03    -248.746E-03     263.023E-03
            1233     7.70445E-03     183.006E-03    -74.5172E+06    -43.1750E+06     30.7881E+06     12.5600E+06    -301.149E-03     552.414E-03    -251.265E-03     287.134E-03    -305.353E-03     556.124E-03    -250.940E-03     268.409E-03
            1234     8.38232E-03     183.292E-03    -66.7269E+06    -7.66564E+06     45.0953E+06     10.5388E+06    -315.305E-03     569.376E-03    -254.071E-03     288.377E-03    -319.926E-03     573.620E-03    -253.738E-03     267.234E-03
            1235     9.05018E-03     183.595E-03    -57.5304E+06     31.2684E+06     60.6543E+06     6.59314E+06    -329.968E-03     587.440E-03    -257.472E-03     284.030E-03    -334.926E-03     592.147E-03    -257.131E-03     260.261E-03
            1236     9.70819E-03     183.915E-03    -48.9201E+06     55.7712E+06     70.5920E+06     2.03820E+06    -344.265E-03     605.667E-03    -261.401E-03     275.547E-03    -349.488E-03     610.726E-03    -261.058E-03     248.840E-03
            1237     10.3553E-03     184.248E-03    -41.2298E+06     60.3789E+06     73.2120E+06    -3.04875E+06    -357.056E-03     622.803E-03    -265.747E-03     264.440E-03    -362.513E-03     628.130E-03    -265.409E-03     234.339E-03
            1238     10.9946E-03     184.589E-03    -31.0227E+06     72.2544E+06     80.9121E+06    -6.03550E+06    -366.588E-03     636.947E-03    -270.358E-03     251.834E-03    -372.383E-03     642.665E-03    -270.014E-03     217.662E-03
            1239     11.6283E-03     184.936E-03    -19.7341E+06     83.5861E+06     93.9302E+06    -7.59531E+06    -371.797E-03     646.854E-03    -275.057E-03     234.030E-03    -377.805E-03     652.824E-03    -274.680E-03     195.891E-03
            1240     12.2534E-03     185.267E-03    -11.5359E+06     70.9999E+06     95.7036E+06    -11.7179E+06    -373.312E-03     652.931E-03    -279.619E-03     220.244E-03    -379.892E-03     659.449E-03    -279.226E-03     176.474E-03
            1241     12.8768E-03     185.600E-03    -3.93523E+06     71.3248E+06     102.249E+06    -6.61763E+06    -370.063E-03     653.959E-03    -283.896E-03     175.175E-03    -375.050E-03     658.890E-03    -283.482E-03     136.918E-03
            1242     721.251E-06     183.046E-03    -131.521E+06    -212.319E+06    -130.525E+06    -1.24662E+06    -222.695E-03     443.626E-03    -220.931E-03     42.3669E-03    -222.913E-03     442.956E-03    -221.085E-03     41.4561E-03
            1243     1.44184E-03     183.083E-03    -128.220E+06    -199.040E+06    -120.382E+06    -2.07406E+06    -224.021E-03     445.907E-03    -221.886E-03     76.7473E-03    -224.325E-03     445.355E-03    -222.013E-03     75.1045E-03
            1244     2.16138E-03     183.144E-03    -125.251E+06    -183.783E+06    -107.086E+06    -1.92675E+06    -227.120E-03     449.620E-03    -222.500E-03     112.634E-03    -227.571E-03     449.247E-03    -222.587E-03     110.122E-03
            1245     2.87961E-03     183.231E-03    -123.031E+06    -174.311E+06    -90.2918E+06     234.728E+03    -231.559E-03     454.914E-03    -223.355E-03     147.444E-03    -232.217E-03     454.747E-03    -223.375E-03     143.954E-03
            1246     3.59583E-03     183.344E-03    -120.121E+06    -159.760E+06    -71.4619E+06     3.77387E+06    -237.541E-03     462.005E-03    -224.464E-03     180.414E-03    -238.477E-03     462.131E-03    -224.415E-03     175.814E-03
            1247     4.30936E-03     183.487E-03    -116.234E+06    -142.020E+06    -52.7702E+06     7.76566E+06    -245.358E-03     471.234E-03    -225.876E-03     210.995E-03    -246.645E-03     471.742E-03    -225.765E-03     205.085E-03
            1248     5.01943E-03     183.659E-03    -111.418E+06    -127.614E+06    -35.4113E+06     11.5675E+06    -255.332E-03     483.006E-03    -227.674E-03     238.310E-03    -257.030E-03     483.952E-03    -227.504E-03     230.849E-03
            1249     5.72430E-03     183.862E-03    -105.223E+06    -109.454E+06    -19.6892E+06     13.9948E+06    -267.457E-03     497.385E-03    -229.928E-03     261.263E-03    -269.633E-03     498.858E-03    -229.715E-03     251.939E-03
            1250     6.42299E-03     184.096E-03    -97.2475E+06    -86.7287E+06    -5.00050E+06     14.4052E+06    -281.730E-03     514.446E-03    -232.716E-03     278.951E-03    -284.434E-03     516.522E-03    -232.474E-03     267.407E-03
            1251     7.11303E-03     184.359E-03    -87.1772E+06    -63.8091E+06     9.23474E+06     12.3747E+06    -297.907E-03     534.016E-03    -236.108E-03     290.598E-03    -301.132E-03     536.694E-03    -235.843E-03     276.565E-03
            1252     7.79346E-03     184.651E-03    -75.1384E+06    -37.7245E+06     24.0597E+06     9.13736E+06    -315.242E-03     555.375E-03    -240.132E-03     295.546E-03    -318.941E-03     558.624E-03    -239.848E-03     278.807E-03
            1253     8.46254E-03     184.966E-03    -61.9399E+06     215.208E+03     41.3602E+06     6.58225E+06    -333.041E-03     577.810E-03    -244.769E-03     294.179E-03    -337.155E-03     581.608E-03    -244.473E-03     274.589E-03
            1254     9.12004E-03     185.303E-03    -49.4942E+06     42.9904E+06     59.6316E+06     4.16415E+06    -350.344E-03     600.309E-03    -249.965E-03     287.383E-03    -354.811E-03     604.602E-03    -249.657E-03     264.754E-03
            1255     9.76558E-03     185.654E-03    -38.1670E+06     67.2315E+06     71.5486E+06     627.054E+03    -365.979E-03     621.580E-03    -255.601E-03     276.494E-03    -370.715E-03     626.232E-03    -255.285E-03     250.563E-03
            1256     10.4015E-03     186.017E-03    -27.2051E+06     71.8857E+06     77.8829E+06    -2.27888E+06    -378.516E-03     640.028E-03    -261.513E-03     262.640E-03    -383.479E-03     644.941E-03    -261.188E-03     233.061E-03
            1257     11.0274E-03     186.384E-03    -18.4082E+06     79.9128E+06     85.6109E+06    -4.43336E+06    -386.361E-03     653.847E-03    -267.486E-03     247.995E-03    -391.687E-03     659.155E-03    -267.147E-03     214.015E-03
            1258     11.6450E-03     186.748E-03    -12.6460E+06     89.4184E+06     96.3653E+06    -8.66331E+06    -388.433E-03     661.720E-03    -273.286E-03     231.427E-03    -394.096E-03     667.381E-03    -272.916E-03     193.084E-03
            1259     12.2635E-03     187.090E-03    -9.63560E+06     72.6836E+06     97.8461E+06    -8.41970E+06    -385.609E-03     664.272E-03    -278.663E-03     219.004E-03    -391.857E-03     670.463E-03    -278.265E-03     175.571E-03
            1260     12.8841E-03     187.421E-03    -6.80372E+06     57.3062E+06     98.9812E+06    -6.95567E+06    -379.192E-03     662.679E-03    -283.488E-03     174.697E-03    -383.951E-03     667.332E-03    -283.066E-03     136.737E-03
            1261     738.475E-06     184.487E-03    -145.115E+06    -210.988E+06    -142.809E+06     1.19044E+06    -200.032E-03     397.639E-03    -197.607E-03     44.3444E-03    -200.286E-03     397.003E-03    -197.804E-03     43.8754E-03
            1262     1.47603E-03     184.529E-03    -148.395E+06    -200.745E+06    -139.881E+06     3.22949E+06    -202.633E-03     401.723E-03    -199.090E-03     80.4667E-03    -202.963E-03     401.181E-03    -199.283E-03     79.6364E-03
            1263     2.21119E-03     184.599E-03    -150.807E+06    -188.770E+06    -126.071E+06     8.20020E+06    -208.051E-03     408.439E-03    -200.388E-03     117.918E-03    -208.504E-03     408.020E-03    -200.526E-03     116.661E-03
            1264     2.94328E-03     184.696E-03    -149.936E+06    -176.081E+06    -107.718E+06     9.63690E+06    -215.599E-03     417.761E-03    -202.161E-03     154.159E-03    -216.208E-03     417.500E-03    -202.227E-03     152.289E-03
            1265     3.67124E-03     184.825E-03    -144.846E+06    -164.230E+06    -88.8665E+06     9.53543E+06    -225.521E-03     429.933E-03    -204.412E-03     188.118E-03    -226.318E-03     429.875E-03    -204.408E-03     185.424E-03
            1266     4.39396E-03     184.985E-03    -136.594E+06    -147.835E+06    -70.1568E+06     10.9115E+06    -238.020E-03     445.206E-03    -207.186E-03     218.823E-03    -239.060E-03     445.433E-03    -207.124E-03     215.080E-03
            1267     5.10967E-03     185.179E-03    -125.655E+06    -131.115E+06    -51.6516E+06     11.2837E+06    -253.032E-03     463.578E-03    -210.546E-03     245.194E-03    -254.373E-03     464.160E-03    -210.431E-03     240.078E-03
            1268     5.81701E-03     185.408E-03    -112.593E+06    -110.527E+06    -33.7888E+06     9.99167E+06    -270.348E-03     484.877E-03    -214.529E-03     266.328E-03    -272.063E-03     485.910E-03    -214.374E-03     259.412E-03
            1269     6.51400E-03     185.671E-03    -97.5986E+06    -83.8561E+06    -15.6574E+06     7.03083E+06    -289.670E-03     508.840E-03    -219.170E-03     281.716E-03    -291.825E-03     510.415E-03    -218.985E-03     272.541E-03
            1270     7.19961E-03     185.969E-03    -82.2150E+06    -57.3000E+06     1.59978E+06     3.02773E+06    -310.252E-03     534.733E-03    -224.480E-03     290.697E-03    -312.874E-03     536.878E-03    -224.270E-03     278.849E-03
            1271     7.87217E-03     186.297E-03    -67.8432E+06    -31.3202E+06     17.9619E+06    -1.23591E+06    -331.151E-03     561.578E-03    -230.428E-03     293.081E-03    -334.225E-03     564.275E-03    -230.194E-03     278.255E-03
            1272     8.53184E-03     186.651E-03    -54.9944E+06     1.72154E+06     35.3221E+06    -3.18450E+06    -351.343E-03     588.275E-03    -236.932E-03     289.306E-03    -354.825E-03     591.492E-03    -236.678E-03     271.352E-03
            1273     9.17819E-03     187.026E-03    -44.1814E+06     44.2510E+06     54.3760E+06    -2.18854E+06    -369.768E-03     613.641E-03    -243.873E-03     280.310E-03    -373.621E-03     617.361E-03    -243.602E-03     259.064E-03
            1274     9.81214E-03     187.415E-03    -35.2486E+06     77.2105E+06     70.1761E+06    -3.04887E+06    -385.212E-03     636.302E-03    -251.090E-03     267.835E-03    -389.380E-03     640.436E-03    -250.800E-03     243.059E-03
            1275     10.4338E-03     187.811E-03    -29.2474E+06     79.5867E+06     76.0535E+06    -7.61721E+06    -395.825E-03     654.178E-03    -258.353E-03     253.867E-03    -400.267E-03     658.593E-03    -258.046E-03     225.244E-03
            1276     11.0487E-03     188.202E-03    -24.0867E+06     81.8038E+06     82.6827E+06    -11.5165E+06    -400.793E-03     666.194E-03    -265.401E-03     240.450E-03    -405.607E-03     670.983E-03    -265.072E-03     207.502E-03
            1277     11.6632E-03     188.582E-03    -17.1427E+06     91.7789E+06     100.183E+06    -13.1355E+06    -400.000E-03     672.042E-03    -272.042E-03     223.420E-03    -405.145E-03     677.167E-03    -271.650E-03     186.319E-03
            1278     12.2752E-03     188.927E-03    -6.34326E+06     69.2450E+06     104.491E+06    -9.69297E+06    -394.217E-03     672.253E-03    -278.035E-03     208.661E-03    -399.945E-03     677.902E-03    -277.604E-03     165.973E-03
            1279     12.8882E-03     189.258E-03     2.24983E+06     44.4071E+06     102.527E+06    -1.01923E+06    -384.393E-03     667.650E-03    -283.256E-03     166.234E-03    -388.754E-03     671.878E-03    -282.811E-03     128.967E-03
            1280     754.558E-06     185.865E-03    -190.624E+06    -224.631E+06    -184.506E+06     8.56521E+06    -180.501E-03     357.550E-03    -177.049E-03     44.4311E-03    -180.882E-03     356.967E-03    -177.370E-03     44.3536E-03
            1281     1.50701E-03     185.914E-03    -189.204E+06    -213.257E+06    -171.793E+06     13.0286E+06    -184.098E-03     363.390E-03    -179.292E-03     80.5179E-03    -184.522E-03     362.861E-03    -179.568E-03     80.3720E-03
            1282     2.25646E-03     185.995E-03    -183.199E+06    -198.732E+06    -151.984E+06     14.4236E+06    -191.694E-03     372.915E-03    -181.221E-03     117.870E-03    -192.169E-03     372.457E-03    -181.427E-03     117.530E-03
            1283     3.00074E-03     186.109E-03    -173.074E+06    -175.107E+06    -129.533E+06     13.0208E+06    -202.481E-03     386.345E-03    -183.865E-03     153.704E-03    -203.030E-03     386.022E-03    -184.007E-03     153.006E-03
            1284     3.73843E-03     186.258E-03    -161.753E+06    -161.933E+06    -107.856E+06     8.30507E+06    -216.654E-03     403.949E-03    -187.294E-03     186.757E-03    -217.298E-03     403.752E-03    -187.364E-03     185.459E-03
            1285     4.46725E-03     186.444E-03    -148.103E+06    -147.571E+06    -87.7389E+06     3.71824E+06    -233.977E-03     425.503E-03    -191.526E-03     215.621E-03    -234.755E-03     425.491E-03    -191.536E-03     213.474E-03
            1286     5.18567E-03     186.668E-03    -132.412E+06    -127.334E+06    -68.3849E+06    -1.18739E+06    -253.855E-03     450.407E-03    -196.553E-03     239.212E-03    -254.839E-03     450.682E-03    -196.518E-03     235.828E-03
            1287     5.89219E-03     186.932E-03    -115.316E+06    -106.178E+06    -49.6005E+06    -7.53103E+06    -275.769E-03     478.124E-03    -202.354E-03     256.904E-03    -277.021E-03     478.753E-03    -202.281E-03     251.860E-03
            1288     6.58551E-03     187.234E-03    -98.6842E+06    -80.8170E+06    -30.7373E+06    -12.1038E+06    -298.930E-03     507.816E-03    -208.886E-03     268.409E-03    -300.513E-03     508.875E-03    -208.779E-03     261.294E-03
            1289     7.26432E-03     187.573E-03    -83.9407E+06    -54.9568E+06    -12.1784E+06    -15.2402E+06    -322.293E-03     538.370E-03    -216.077E-03     273.501E-03    -324.261E-03     539.908E-03    -215.937E-03     263.841E-03
            1290     7.92873E-03     187.944E-03    -71.6266E+06    -29.8511E+06     5.77851E+06    -17.2779E+06    -344.921E-03     568.749E-03    -223.828E-03     272.602E-03    -347.282E-03     570.760E-03    -223.652E-03     260.045E-03
            1291     8.57779E-03     188.343E-03    -61.3736E+06    -3.69605E+06     23.5705E+06    -17.5879E+06    -365.667E-03     597.664E-03    -231.996E-03     266.693E-03    -368.404E-03     600.127E-03    -231.784E-03     250.971E-03
            1292     9.21302E-03     188.760E-03    -51.5649E+06     32.7457E+06     42.5066E+06    -15.3054E+06    -383.293E-03     623.681E-03    -240.388E-03     257.502E-03    -386.387E-03     626.607E-03    -240.148E-03     238.441E-03
            1293     9.83589E-03     189.190E-03    -41.4910E+06     72.9086E+06     62.2969E+06    -11.9516E+06    -396.364E-03     645.140E-03    -248.776E-03     246.691E-03    -399.804E-03     648.528E-03    -248.510E-03     224.102E-03
            1294     10.4514E-03     189.618E-03    -32.1573E+06     89.2909E+06     77.8919E+06    -11.5013E+06    -404.336E-03     661.268E-03    -256.932E-03     234.815E-03    -408.120E-03     665.041E-03    -256.626E-03     208.236E-03
            1295     11.0625E-03     190.030E-03    -24.3396E+06     89.2654E+06     90.3957E+06    -13.1778E+06    -407.407E-03     672.060E-03    -264.653E-03     221.780E-03    -411.548E-03     676.177E-03    -264.295E-03     190.861E-03
            1296     11.6673E-03     190.425E-03    -16.9048E+06     93.1903E+06     107.797E+06    -11.8939E+06    -404.623E-03     676.391E-03    -271.768E-03     204.832E-03    -409.022E-03     680.752E-03    -271.340E-03     170.209E-03
            1297     12.2724E-03     190.776E-03    -17.5545E+06     62.4856E+06     106.231E+06    -12.6619E+06    -395.963E-03     673.998E-03    -278.036E-03     193.660E-03    -401.036E-03     678.922E-03    -277.570E-03     153.336E-03
            1298     12.8827E-03     191.098E-03    -16.8306E+06     21.5562E+06     100.710E+06     -12.214E+06    -382.781E-03     666.119E-03    -283.338E-03     158.284E-03    -386.829E-03     669.889E-03    -282.841E-03     122.327E-03
            1299     765.488E-06     187.195E-03    -295.964E+06    -236.539E+06    -288.650E+06    -1.00908E+06    -167.849E-03     331.044E-03    -163.195E-03     40.2909E-03    -168.571E-03     330.706E-03    -163.866E-03     40.2799E-03
            1300     1.52887E-03     187.252E-03    -275.156E+06    -217.310E+06    -259.464E+06    -4.19598E+06    -171.967E-03     338.277E-03    -166.310E-03     72.5708E-03    -172.655E-03     337.963E-03    -166.893E-03     72.5172E-03
            1301     2.28752E-03     187.347E-03    -250.178E+06    -197.242E+06    -223.552E+06    -10.2246E+06    -181.243E-03     350.090E-03    -168.847E-03     106.053E-03    -181.892E-03     349.796E-03    -169.316E-03     105.871E-03
            1302     3.03995E-03     187.480E-03    -223.749E+06    -174.975E+06    -186.191E+06    -13.8892E+06    -194.558E-03     366.922E-03    -172.364E-03     137.798E-03    -195.179E-03     366.669E-03    -172.717E-03     137.437E-03
            1303     3.78274E-03     187.656E-03    -196.599E+06    -153.701E+06    -150.512E+06    -18.4889E+06    -211.823E-03     388.743E-03    -176.920E-03     166.538E-03    -212.432E-03     388.552E-03    -177.164E-03     165.850E-03
            1304     4.51384E-03     187.873E-03    -171.165E+06    -142.050E+06    -120.079E+06    -25.7483E+06    -232.426E-03     414.934E-03    -182.508E-03     190.876E-03    -233.048E-03     414.804E-03    -182.654E-03     189.610E-03
            1305     5.23129E-03     188.135E-03    -146.636E+06    -120.921E+06    -92.6324E+06    -32.2585E+06    -255.584E-03     444.637E-03    -189.053E-03     209.715E-03    -256.287E-03     444.677E-03    -189.128E-03     207.539E-03
            1306     5.93343E-03     188.439E-03    -123.991E+06    -100.907E+06    -67.9486E+06    -37.3711E+06    -280.346E-03     476.834E-03    -196.488E-03     222.279E-03    -281.184E-03     477.092E-03    -196.502E-03     218.851E-03
            1307     6.61944E-03     188.785E-03    -104.252E+06    -84.3577E+06    -44.9933E+06    -39.2313E+06    -305.301E-03     509.995E-03    -204.694E-03     228.318E-03    -306.321E-03     510.499E-03    -204.646E-03     223.276E-03
            1308     7.28952E-03     189.169E-03    -86.2784E+06    -61.0050E+06    -22.0854E+06    -37.7681E+06    -329.157E-03     542.646E-03    -213.489E-03     228.502E-03    -330.413E-03     543.466E-03    -213.386E-03     221.418E-03
            1309     7.94328E-03     189.587E-03    -70.1838E+06    -40.9962E+06    -518.018E+03    -33.5580E+06    -350.839E-03     573.518E-03    -222.680E-03     224.222E-03    -352.345E-03     574.653E-03    -222.521E-03     214.725E-03
            1310     8.58304E-03     190.031E-03    -55.0359E+06    -13.5059E+06     21.7343E+06    -28.4524E+06    -369.196E-03     601.221E-03    -232.025E-03     217.360E-03    -370.973E-03     602.711E-03    -231.817E-03     205.087E-03
            1311     9.21025E-03     190.492E-03    -40.5237E+06     15.1729E+06     42.9992E+06    -22.8660E+06    -383.224E-03     624.485E-03    -241.261E-03     209.984E-03    -385.286E-03     626.349E-03    -241.009E-03     194.605E-03
            1312     9.82905E-03     190.959E-03    -28.1293E+06     53.4918E+06     65.1464E+06    -13.4936E+06    -392.635E-03     642.768E-03    -250.133E-03     202.539E-03    -395.028E-03     645.076E-03    -249.844E-03     183.773E-03
            1313     10.4414E-03     191.416E-03    -17.4228E+06     89.6167E+06     89.1525E+06    -5.75156E+06    -398.127E-03     656.602E-03    -258.475E-03     195.492E-03    -400.899E-03     659.384E-03    -258.134E-03     172.946E-03
            1314     11.0466E-03     191.857E-03    -8.67964E+06     97.0502E+06     108.610E+06    -2.46812E+06    -399.495E-03     665.645E-03    -266.150E-03     190.144E-03    -402.652E-03     668.810E-03    -265.735E-03     163.645E-03
            1315     11.6533E-03     192.264E-03    -3.72820E+06     92.9524E+06     121.438E+06    -518.876E+03    -395.481E-03     668.464E-03    -272.983E-03     183.364E-03    -399.048E-03     672.000E-03    -272.505E-03     152.832E-03
            1316     12.2654E-03     192.619E-03     4.34947E+06     71.6737E+06     129.264E+06     4.37907E+06    -386.340E-03     665.211E-03    -278.871E-03     177.202E-03    -390.572E-03     669.338E-03    -278.335E-03     141.148E-03
            1317     12.8855E-03     192.928E-03     11.7135E+06     26.5309E+06     133.068E+06     5.27179E+06    -372.908E-03     656.681E-03    -283.773E-03     146.011E-03    -376.316E-03     659.837E-03    -283.163E-03     113.474E-03
            1318     767.312E-06     188.501E-03    -315.667E+06    -205.542E+06    -316.043E+06    -20.2953E+06    -167.170E-03     331.128E-03    -163.958E-03     26.9644E-03    -167.999E-03     331.010E-03    -164.783E-03     26.6361E-03
            1319     1.53137E-03     188.567E-03    -303.402E+06    -188.760E+06    -295.142E+06    -33.5020E+06    -171.985E-03     338.688E-03    -166.703E-03     49.6610E-03    -172.808E-03     338.605E-03    -167.465E-03     49.1844E-03
            1320     2.29079E-03     188.676E-03    -284.018E+06    -171.381E+06    -261.646E+06    -44.8210E+06    -181.792E-03     351.601E-03    -169.809E-03     71.5120E-03    -182.594E-03     351.530E-03    -170.457E-03     70.8560E-03
            1321     3.04142E-03     188.831E-03    -257.991E+06    -157.685E+06    -221.232E+06    -55.7059E+06    -195.224E-03     369.417E-03    -174.193E-03     90.9475E-03    -195.983E-03     369.327E-03    -174.696E-03     90.0265E-03
            1322     3.78140E-03     189.033E-03    -228.359E+06    -139.165E+06    -184.719E+06    -64.4766E+06    -211.775E-03     391.498E-03    -179.723E-03     107.335E-03    -212.481E-03     391.422E-03    -180.114E-03     106.103E-03
            1323     4.50801E-03     189.285E-03    -198.275E+06    -128.727E+06    -151.753E+06    -72.5628E+06    -230.998E-03     417.351E-03    -186.353E-03     119.823E-03    -231.648E-03     417.270E-03    -186.637E-03     118.147E-03
            1324     5.21915E-03     189.584E-03    -171.055E+06    -115.541E+06    -122.708E+06    -79.1648E+06    -252.211E-03     446.197E-03    -193.987E-03     127.937E-03    -252.833E-03     446.151E-03    -194.185E-03     125.682E-03
            1325     5.91330E-03     189.932E-03    -147.773E+06    -103.022E+06    -97.8589E+06    -81.8070E+06    -274.329E-03     476.832E-03    -202.503E-03     131.274E-03    -274.952E-03     476.847E-03    -202.629E-03     128.324E-03
            1326     6.58951E-03     190.323E-03    -127.557E+06    -96.0568E+06    -75.4005E+06    -82.7269E+06    -295.944E-03     507.660E-03    -211.715E-03     130.345E-03    -296.588E-03     507.733E-03    -211.768E-03     126.468E-03
            1327     7.24827E-03     190.752E-03    -110.065E+06    -85.8086E+06    -55.0542E+06    -80.6159E+06    -315.684E-03     537.023E-03    -221.339E-03     126.736E-03    -316.379E-03     537.191E-03    -221.330E-03     121.708E-03
            1328     7.89217E-03     191.214E-03    -94.7617E+06    -75.7368E+06    -35.0980E+06    -75.8955E+06    -332.491E-03     563.557E-03    -231.066E-03     122.451E-03    -333.258E-03     563.835E-03    -230.994E-03     116.031E-03
            1329     8.52320E-03     191.698E-03    -82.0344E+06    -53.8790E+06    -12.3998E+06    -70.5968E+06    -345.558E-03     586.116E-03    -240.558E-03     119.667E-03    -346.450E-03     586.582E-03    -240.423E-03     111.508E-03
            1330     9.14610E-03     192.195E-03    -69.8065E+06    -30.8299E+06     16.1895E+06    -63.9013E+06    -354.977E-03     604.515E-03    -249.537E-03     119.494E-03    -356.041E-03     605.199E-03    -249.311E-03     109.203E-03
            1331     9.76398E-03     192.691E-03    -55.5253E+06    -10.1655E+06     43.4293E+06    -53.9020E+06    -361.472E-03     619.230E-03    -257.758E-03     122.491E-03    -362.742E-03     620.169E-03    -257.446E-03     109.634E-03
            1332     10.3786E-03     193.179E-03    -41.3427E+06     32.0436E+06     74.3826E+06    -39.1763E+06    -364.742E-03     629.812E-03    -265.070E-03     128.988E-03    -366.336E-03     631.185E-03    -264.684E-03     113.113E-03
            1333     10.9984E-03     193.641E-03    -29.7015E+06     56.2408E+06     110.200E+06    -20.9528E+06    -364.520E-03     635.963E-03    -271.443E-03     137.479E-03    -366.542E-03     637.783E-03    -270.931E-03     118.153E-03
            1334     11.6210E-03     194.067E-03    -22.9183E+06     68.2517E+06     133.336E+06    -3.71650E+06    -361.419E-03     638.200E-03    -276.781E-03     144.208E-03    -364.008E-03     640.582E-03    -276.180E-03     120.509E-03
            1335     12.2443E-03     194.431E-03    -19.4188E+06     65.1093E+06     138.186E+06    -1.80895E+06    -356.588E-03     637.734E-03    -281.146E-03     150.815E-03    -359.951E-03     640.871E-03    -280.521E-03     121.307E-03
            1336     12.8682E-03     194.736E-03    -16.7936E+06     28.8246E+06     133.699E+06    -2.52722E+06    -349.101E-03     633.819E-03    -284.718E-03     131.302E-03    -351.993E-03     636.369E-03    -284.067E-03     103.750E-03
            1337     751.839E-06     189.830E-03    -235.647E+06    -139.297E+06    -226.179E+06    -20.3738E+06    -190.505E-03     377.139E-03    -186.634E-03     2.92890E-03    -191.220E-03     377.046E-03    -187.221E-03     2.54608E-03
            1338     1.50200E-03     189.904E-03    -230.071E+06    -131.203E+06    -216.149E+06    -37.8195E+06    -194.840E-03     385.869E-03    -191.029E-03    -2.07930E-03    -195.566E-03     385.761E-03    -191.586E-03    -3.07399E-03
            1339     2.24406E-03     190.027E-03    -216.974E+06    -120.518E+06    -192.562E+06    -54.2078E+06    -201.515E-03     396.887E-03    -195.372E-03    -8.70697E-03    -202.202E-03     396.749E-03    -195.845E-03    -10.4247E-03
            1340     2.97640E-03     190.200E-03    -199.362E+06    -111.454E+06    -165.786E+06    -68.2811E+06    -209.170E-03     409.921E-03    -200.751E-03    -16.4830E-03    -209.781E-03     409.726E-03    -201.129E-03    -18.9695E-03
            1341     3.69647E-03     190.423E-03    -180.937E+06    -101.909E+06    -141.039E+06    -80.0334E+06    -217.676E-03     424.793E-03    -207.117E-03    -25.1724E-03    -218.196E-03     424.539E-03    -207.412E-03    -28.3823E-03
            1342     4.40278E-03     190.699E-03    -162.735E+06    -95.4662E+06    -119.496E+06    -88.4507E+06    -226.772E-03     441.200E-03    -214.428E-03    -35.1323E-03    -227.185E-03     440.873E-03    -214.651E-03    -39.0137E-03
            1343     5.09381E-03     191.027E-03    -146.927E+06    -91.0375E+06    -100.133E+06    -93.4147E+06    -235.850E-03     458.436E-03    -222.587E-03    -46.1966E-03    -236.154E-03     458.030E-03    -222.742E-03    -50.6860E-03
            1344     5.76863E-03     191.404E-03    -133.909E+06    -86.0276E+06    -82.5197E+06    -95.9986E+06    -244.089E-03     475.469E-03    -231.381E-03    -57.3717E-03    -244.290E-03     474.994E-03    -231.474E-03    -62.3920E-03
            1345     6.42824E-03     191.827E-03    -122.741E+06    -82.9352E+06    -66.2971E+06    -97.1419E+06    -250.911E-03     491.415E-03    -240.504E-03    -67.0799E-03    -251.019E-03     490.879E-03    -240.537E-03    -72.6017E-03
            1346     7.07450E-03     192.288E-03    -113.503E+06    -83.1610E+06    -51.4287E+06    -97.1167E+06    -256.043E-03     505.624E-03    -249.581E-03    -73.1274E-03    -256.075E-03     505.039E-03    -249.553E-03    -79.1116E-03
            1347     7.71020E-03     192.780E-03    -105.979E+06    -82.5912E+06    -35.7739E+06    -94.6141E+06    -259.371E-03     517.575E-03    -258.204E-03    -73.5716E-03    -259.371E-03     516.984E-03    -258.109E-03    -79.9431E-03
            1348     8.34069E-03     193.292E-03    -98.5179E+06    -70.7310E+06    -15.0025E+06    -91.5879E+06    -261.356E-03     527.349E-03    -265.992E-03    -67.2669E-03    -261.390E-03     526.842E-03    -265.822E-03    -74.0815E-03
            1349     8.97003E-03     193.814E-03    -89.5887E+06    -54.8193E+06     12.3133E+06    -87.5273E+06    -263.173E-03     535.854E-03    -272.681E-03    -53.6210E-03    -263.294E-03     535.486E-03    -272.410E-03    -61.0308E-03
            1350     9.60042E-03     194.339E-03    -80.0527E+06    -46.8079E+06     36.8092E+06    -81.5711E+06    -265.311E-03     543.369E-03    -278.058E-03    -32.0692E-03    -265.561E-03     543.156E-03    -277.690E-03    -40.3493E-03
            1351     10.2379E-03     194.848E-03    -70.8564E+06    -31.2318E+06     60.6894E+06    -69.8713E+06    -267.951E-03     549.962E-03    -282.010E-03    -3.08718E-03    -268.422E-03     550.013E-03    -281.559E-03    -12.5945E-03
            1352     10.8792E-03     195.332E-03    -60.5181E+06    -13.4717E+06     93.0042E+06    -49.0523E+06    -271.572E-03     556.173E-03    -284.601E-03     32.4988E-03    -272.382E-03     556.579E-03    -284.028E-03     21.3375E-03
            1353     11.5283E-03     195.773E-03    -39.0874E+06     4.23722E+06     125.723E+06    -27.3380E+06    -277.135E-03     563.117E-03    -285.982E-03     72.2696E-03    -278.365E-03     563.964E-03    -285.303E-03     58.7194E-03
            1354     12.1884E-03     196.160E-03    -12.7326E+06     45.0834E+06     159.181E+06    -4.16124E+06    -285.910E-03     572.502E-03    -286.592E-03     110.716E-03    -287.839E-03     574.142E-03    -285.843E-03     93.2685E-03
            1355     12.8567E-03     196.481E-03     10.6828E+06     39.1985E+06     159.033E+06     699.914E+03    -295.480E-03     582.407E-03    -286.928E-03     119.952E-03    -297.485E-03     584.149E-03    -286.205E-03     100.994E-03
            1356     714.156E-06     191.263E-03    -128.272E+06    -74.4267E+06    -120.026E+06    -15.4707E+06    -259.258E-03     526.003E-03    -266.745E-03    -76.3509E-03    -260.229E-03     525.162E-03    -267.051E-03    -77.9349E-03
            1357     1.41480E-03     191.350E-03    -118.569E+06    -66.0002E+06    -104.936E+06    -29.9116E+06    -256.783E-03     524.760E-03    -267.977E-03    -133.272E-03    -257.467E-03     523.838E-03    -268.234E-03    -136.253E-03
            1358     2.10787E-03     191.481E-03    -107.679E+06    -61.2494E+06    -85.3852E+06    -41.9810E+06    -250.092E-03     521.823E-03    -271.731E-03    -190.150E-03    -250.442E-03     520.679E-03    -271.913E-03    -194.487E-03
            1359     2.79199E-03     191.662E-03    -97.6919E+06    -58.1581E+06    -67.1021E+06    -50.2166E+06    -240.343E-03     516.859E-03    -276.516E-03    -242.256E-03    -240.343E-03     515.436E-03    -276.625E-03    -247.615E-03
            1360     3.46582E-03     191.891E-03    -88.5773E+06    -53.6662E+06    -48.8864E+06    -55.4321E+06    -227.727E-03     509.904E-03    -282.177E-03    -288.313E-03    -227.375E-03     508.206E-03    -282.215E-03    -294.418E-03
            1361     4.12731E-03     192.171E-03    -81.5658E+06    -50.3954E+06    -32.3649E+06    -58.1093E+06    -212.543E-03     501.077E-03    -288.534E-03    -326.583E-03    -211.879E-03     499.158E-03    -288.504E-03    -333.097E-03
            1362     4.77555E-03     192.501E-03    -75.7847E+06    -48.0034E+06    -16.6879E+06    -58.6162E+06    -195.254E-03     490.566E-03    -295.312E-03    -355.269E-03    -194.313E-03     488.479E-03    -295.216E-03    -362.011E-03
            1363     5.41202E-03     192.878E-03    -69.9769E+06    -44.2570E+06    -425.276E+03    -57.7966E+06    -176.625E-03     478.760E-03    -302.134E-03    -372.603E-03    -175.468E-03     476.586E-03    -301.971E-03    -379.418E-03
            1364     6.03904E-03     193.296E-03    -63.9495E+06    -39.6556E+06     16.7176E+06    -56.1407E+06    -157.778E-03     466.360E-03    -308.582E-03    -377.818E-03    -156.491E-03     464.198E-03    -308.348E-03    -384.560E-03
            1365     6.66106E-03     193.751E-03    -58.3881E+06    -37.5457E+06     34.0058E+06    -53.0937E+06    -139.868E-03     454.098E-03    -314.229E-03    -371.008E-03    -138.541E-03     452.022E-03    -313.920E-03    -377.563E-03
            1366     7.28366E-03     194.234E-03    -52.2954E+06    -38.5532E+06     51.2000E+06    -49.3312E+06    -123.831E-03     442.498E-03    -318.667E-03    -352.989E-03    -122.544E-03     440.569E-03    -318.280E-03    -359.250E-03
            1367     7.91235E-03     194.739E-03    -44.7361E+06    -33.3524E+06     69.8006E+06    -45.8741E+06    -110.774E-03     432.341E-03    -321.567E-03    -325.048E-03    -109.608E-03     430.650E-03    -321.104E-03    -330.964E-03
            1368     8.55125E-03     195.259E-03    -37.2016E+06    -21.8172E+06     88.7177E+06    -44.3423E+06    -101.308E-03     424.011E-03    -322.704E-03    -288.125E-03    -100.338E-03     422.639E-03    -322.174E-03    -293.702E-03
            1369     9.20794E-03     195.782E-03    -36.2465E+06    -18.0175E+06     102.725E+06    -37.4592E+06    -95.5883E-03     417.517E-03    -321.929E-03    -243.539E-03    -94.8668E-03     416.459E-03    -321.336E-03    -248.756E-03
            1370     9.88483E-03     196.303E-03    -34.0811E+06    -16.7913E+06     116.090E+06    -34.5522E+06    -93.8574E-03     413.043E-03    -319.185E-03    -192.062E-03    -93.3899E-03     412.276E-03    -318.531E-03    -197.061E-03
            1371     10.5904E-03     196.807E-03    -30.0042E+06    -27.6545E+06     124.441E+06    -28.5418E+06    -96.6881E-03     411.297E-03    -314.609E-03    -136.248E-03    -96.4513E-03     410.732E-03    -313.903E-03    -141.130E-03
            1372     11.3241E-03     197.282E-03    -18.6843E+06    -21.4222E+06     144.134E+06    -27.4179E+06    -106.033E-03     414.732E-03    -308.699E-03    -79.7384E-03    -106.066E-03     414.438E-03    -307.920E-03    -84.9050E-03
            1373     12.0676E-03     197.715E-03     3.35911E+06    -15.8097E+06     151.235E+06    -10.6173E+06    -126.687E-03     428.833E-03    -302.146E-03    -22.5804E-03    -127.014E-03     428.912E-03    -301.371E-03    -28.7698E-03
            1374     12.7976E-03     198.097E-03     27.1008E+06     15.5951E+06     118.109E+06     6.88425E+06    -142.612E-03     437.611E-03    -294.999E-03     28.4638E-03    -143.169E-03     438.207E-03    -294.470E-03     21.0341E-03
            1375     12.7611E-03     98.7160E-03    -4.84919E+06     53.1362E+06     81.3880E+06     764.036E+03    -292.582E-03     585.643E-03    -293.061E-03     137.960E-03    -297.642E-03     590.638E-03    -292.724E-03     103.384E-03
            1376     12.0898E-03     98.4666E-03    -9.54915E+06     46.8709E+06     74.7862E+06    -505.901E+03    -294.828E-03     587.903E-03    -293.075E-03     180.373E-03    -302.050E-03     595.040E-03    -292.755E-03     138.689E-03
            1377     11.4161E-03     98.2067E-03    -15.0182E+06     39.1968E+06     72.0950E+06    -572.044E+03    -296.475E-03     589.554E-03    -293.079E-03     190.725E-03    -304.072E-03     597.027E-03    -292.753E-03     148.696E-03
            1378     10.7459E-03     97.9123E-03    -19.7060E+06     39.8688E+06     76.8558E+06     695.138E+03    -297.409E-03     590.498E-03    -293.089E-03     203.161E-03    -305.775E-03     598.712E-03    -292.734E-03     159.536E-03
            1379     10.0736E-03     97.6088E-03    -25.0555E+06     34.7952E+06     73.1612E+06     939.779E+03    -297.924E-03     590.989E-03    -293.065E-03     209.053E-03    -306.588E-03     599.475E-03    -292.713E-03     165.120E-03
            1380     9.40260E-03     97.2961E-03    -31.6718E+06     27.3909E+06     64.4091E+06     706.892E+03    -298.597E-03     591.609E-03    -293.012E-03     211.765E-03    -307.335E-03     600.145E-03    -292.684E-03     168.029E-03
            1381     8.73187E-03     96.9798E-03    -38.2131E+06     20.6963E+06     54.8201E+06     700.224E+03    -298.810E-03     591.748E-03    -292.938E-03     210.720E-03    -307.361E-03     600.077E-03    -292.638E-03     167.811E-03
            1382     8.06059E-03     96.6662E-03    -46.2529E+06     11.9357E+06     44.7074E+06     113.435E+03    -298.460E-03     591.327E-03    -292.867E-03     206.723E-03    -306.634E-03     599.249E-03    -292.593E-03     165.077E-03
            1383     7.38884E-03     96.3613E-03    -55.4383E+06     1.88021E+06     34.7813E+06    -310.958E+03    -297.944E-03     590.759E-03    -292.814E-03     199.771E-03    -305.547E-03     598.071E-03    -292.563E-03     159.875E-03
            1384     6.71753E-03     96.0694E-03    -64.1439E+06    -10.3133E+06     23.9242E+06    -231.396E+03    -297.289E-03     590.063E-03    -292.774E-03     189.520E-03    -304.123E-03     596.564E-03    -292.547E-03     151.932E-03
            1385     6.04565E-03     95.7960E-03    -72.8434E+06    -34.0522E+06     8.77972E+06    -226.081E+03    -296.584E-03     589.325E-03    -292.742E-03     176.207E-03    -302.479E-03     594.816E-03    -292.543E-03     141.486E-03
            1386     5.37386E-03     95.5445E-03    -81.8927E+06    -67.7066E+06    -8.69339E+06    -309.937E+03    -295.949E-03     588.665E-03    -292.716E-03     160.445E-03    -300.831E-03     593.041E-03    -292.542E-03     128.986E-03
            1387     4.70214E-03     95.3180E-03    -90.9510E+06    -99.8336E+06    -27.2191E+06    -153.139E+03    -295.279E-03     587.956E-03    -292.678E-03     142.996E-03    -299.168E-03     591.247E-03    -292.537E-03     115.083E-03
            1388     4.03052E-03     95.1190E-03    -99.7291E+06    -137.871E+06    -46.4275E+06    -70.2872E+03    -294.586E-03     587.230E-03    -292.644E-03     124.309E-03    -297.536E-03     589.471E-03    -292.531E-03     100.160E-03
            1389     3.35887E-03     94.9490E-03    -108.291E+06    -167.442E+06    -65.9057E+06    -255.784E+03    -293.956E-03     586.556E-03    -292.600E-03     104.716E-03    -296.079E-03     587.892E-03    -292.530E-03     84.4701E-03
            1390     2.68700E-03     94.8083E-03    -116.231E+06    -180.508E+06    -86.1262E+06    -484.721E+03    -293.414E-03     585.943E-03    -292.530E-03     84.5624E-03    -294.857E-03     586.583E-03    -292.530E-03     68.2948E-03
            1391     2.01521E-03     94.6983E-03    -122.926E+06    -197.034E+06    -105.460E+06    -698.181E+03    -292.982E-03     585.451E-03    -292.468E-03     64.1016E-03    -293.878E-03     585.517E-03    -292.532E-03     51.8332E-03
            1392     1.34342E-03     94.6192E-03    -127.588E+06    -213.449E+06    -121.172E+06    -504.574E+03    -292.647E-03     585.081E-03    -292.434E-03     43.4753E-03    -293.139E-03     584.714E-03    -292.546E-03     35.1706E-03
            1393     671.780E-06     94.5707E-03    -130.098E+06    -231.220E+06    -129.890E+06     259.135E+03    -292.667E-03     584.960E-03    -292.293E-03     23.6761E-03    -292.905E-03     584.293E-03    -292.419E-03     19.0865E-03
            1394     12.7584E-03     97.0112E-03    -4.51501E+06     53.8509E+06     82.0087E+06     777.270E+03    -293.170E-03     586.242E-03    -293.072E-03     136.319E-03    -298.205E-03     591.215E-03    -292.734E-03     101.681E-03
            1395     12.0862E-03     96.7628E-03    -8.14833E+06     46.8114E+06     75.5212E+06    -170.093E+03    -295.620E-03     588.655E-03    -293.035E-03     178.278E-03    -302.839E-03     595.792E-03    -292.713E-03     136.224E-03
            1396     11.4183E-03     96.4994E-03    -12.9828E+06     37.6945E+06     71.6633E+06    -287.523E+03    -296.735E-03     589.719E-03    -292.984E-03     189.255E-03    -304.331E-03     597.195E-03    -292.662E-03     146.973E-03
            1397     10.7467E-03     96.2110E-03    -19.5910E+06     36.9864E+06     75.8228E+06    -345.300E+03    -297.307E-03     590.282E-03    -292.975E-03     202.556E-03    -305.671E-03     598.488E-03    -292.621E-03     158.837E-03
            1398     10.0754E-03     95.9060E-03    -25.8460E+06     34.0469E+06     72.9184E+06     336.850E+03    -298.010E-03     590.950E-03    -292.940E-03     208.545E-03    -306.665E-03     599.423E-03    -292.587E-03     164.579E-03
            1399     9.40413E-03     95.5921E-03    -31.6072E+06     28.1965E+06     65.4207E+06     617.473E+03    -298.549E-03     591.424E-03    -292.875E-03     211.369E-03    -307.279E-03     599.951E-03    -292.543E-03     167.639E-03
            1400     8.73292E-03     95.2761E-03    -38.5885E+06     20.9427E+06     56.3198E+06     752.247E+03    -298.485E-03     591.290E-03    -292.805E-03     210.832E-03    -307.051E-03     599.630E-03    -292.498E-03     167.928E-03
            1401     8.06143E-03     94.9643E-03    -45.8839E+06     12.7744E+06     47.9113E+06     1.47791E+06    -298.106E-03     590.866E-03    -292.761E-03     207.239E-03    -306.294E-03     598.798E-03    -292.473E-03     165.661E-03
            1402     7.38987E-03     94.6593E-03    -53.5543E+06     3.99614E+06     37.7280E+06     1.54264E+06    -297.648E-03     590.378E-03    -292.730E-03     200.354E-03    -305.248E-03     597.693E-03    -292.469E-03     160.577E-03
            1403     6.71773E-03     94.3679E-03    -62.6513E+06    -8.94189E+06     24.6291E+06     509.291E+03    -297.110E-03     589.815E-03    -292.704E-03     190.024E-03    -303.938E-03     596.317E-03    -292.478E-03     152.530E-03
            1404     6.04594E-03     94.0944E-03    -71.7220E+06    -33.7375E+06     9.37876E+06    -108.872E+03    -296.557E-03     589.243E-03    -292.686E-03     176.638E-03    -302.450E-03     594.734E-03    -292.486E-03     141.964E-03
            1405     5.37423E-03     93.8429E-03    -80.6831E+06    -68.0086E+06    -7.85951E+06    -122.348E+03    -295.885E-03     588.553E-03    -292.668E-03     160.854E-03    -300.767E-03     592.930E-03    -292.492E-03     129.421E-03
            1406     4.70249E-03     93.6168E-03    -89.8809E+06    -100.022E+06    -26.4932E+06    -64.2344E+03    -295.124E-03     587.770E-03    -292.646E-03     143.385E-03    -299.012E-03     591.060E-03    -292.503E-03     115.505E-03
            1407     4.03051E-03     93.4180E-03    -98.9309E+06    -137.830E+06    -45.5496E+06    -38.1922E+03    -294.474E-03     587.110E-03    -292.636E-03     124.662E-03    -297.423E-03     589.351E-03    -292.521E-03     100.545E-03
            1408     3.35862E-03     93.2479E-03    -107.622E+06    -167.282E+06    -64.8322E+06    -54.5077E+03    -293.891E-03     586.506E-03    -292.615E-03     105.027E-03    -296.015E-03     587.842E-03    -292.541E-03     84.8016E-03
            1409     2.68693E-03     93.1077E-03    -115.854E+06    -180.365E+06    -85.0774E+06    -46.6356E+03    -293.328E-03     585.901E-03    -292.573E-03     84.7836E-03    -294.772E-03     586.540E-03    -292.569E-03     68.5485E-03
            1410     2.01506E-03     92.9978E-03    -123.088E+06    -197.198E+06    -104.272E+06    -141.638E+03    -292.915E-03     585.471E-03    -292.557E-03     64.1666E-03    -293.813E-03     585.535E-03    -292.614E-03     51.9116E-03
            1411     1.34328E-03     92.9185E-03    -128.962E+06    -215.570E+06    -119.769E+06     294.357E+03    -292.678E-03     585.254E-03    -292.577E-03     43.4625E-03    -293.177E-03     584.877E-03    -292.676E-03     35.1596E-03
            1412     671.500E-06     92.8698E-03    -132.912E+06    -229.399E+06    -129.918E+06     1.16483E+06    -292.754E-03     585.253E-03    -292.500E-03     23.8661E-03    -293.009E-03     584.600E-03    -292.624E-03     19.2852E-03
            1413     12.7625E-03     95.3109E-03    -4.45111E+06     54.9316E+06     81.6350E+06    -34.6355E+03    -293.779E-03     586.681E-03    -292.902E-03     133.605E-03    -298.766E-03     591.611E-03    -292.567E-03     98.8368E-03
            1414     12.0934E-03     95.0558E-03    -7.82939E+06     47.8734E+06     74.3143E+06    -1.45397E+06    -294.768E-03     587.617E-03    -292.849E-03     176.632E-03    -301.906E-03     594.682E-03    -292.535E-03     134.844E-03
            1415     11.4197E-03     94.7995E-03    -13.5759E+06     34.2015E+06     70.5736E+06    -775.218E+03    -296.048E-03     588.886E-03    -292.839E-03     189.001E-03    -303.603E-03     596.310E-03    -292.516E-03     146.943E-03
            1416     10.7479E-03     94.5064E-03    -18.4083E+06     34.9840E+06     77.8608E+06     891.840E+03    -297.365E-03     590.215E-03    -292.850E-03     202.293E-03    -305.716E-03     598.399E-03    -292.485E-03     158.593E-03
            1417     10.0771E-03     94.2031E-03    -23.4802E+06     35.9179E+06     75.8222E+06     1.54956E+06    -297.877E-03     590.683E-03    -292.805E-03     208.652E-03    -306.530E-03     599.159E-03    -292.444E-03     164.722E-03
            1418     9.40587E-03     93.8894E-03    -30.2190E+06     28.4918E+06     66.4795E+06     1.48434E+06    -297.974E-03     590.730E-03    -292.756E-03     212.093E-03    -306.694E-03     599.252E-03    -292.422E-03     168.539E-03
            1419     8.73394E-03     93.5747E-03    -38.0217E+06     20.7702E+06     56.1495E+06     1.39926E+06    -297.971E-03     590.698E-03    -292.727E-03     211.673E-03    -306.528E-03     599.031E-03    -292.422E-03     168.945E-03
            1420     8.06187E-03     93.2623E-03    -45.4761E+06     12.9185E+06     47.6581E+06     901.078E+03    -297.912E-03     590.629E-03    -292.717E-03     207.958E-03    -306.100E-03     598.563E-03    -292.431E-03     166.457E-03
            1421     7.38966E-03     92.9579E-03    -53.4416E+06     4.12414E+06     38.0185E+06     782.697E+03    -297.585E-03     590.290E-03    -292.706E-03     200.762E-03    -305.187E-03     597.608E-03    -292.444E-03     161.019E-03
            1422     6.71783E-03     92.6664E-03    -61.8098E+06    -7.28992E+06     25.8044E+06     1.03522E+06    -297.047E-03     589.737E-03    -292.691E-03     190.230E-03    -303.870E-03     596.241E-03    -292.461E-03     152.795E-03
            1423     6.04595E-03     92.3926E-03    -70.8637E+06    -32.6346E+06     10.3260E+06     679.122E+03    -296.432E-03     589.117E-03    -292.685E-03     176.893E-03    -302.326E-03     594.613E-03    -292.483E-03     142.251E-03
            1424     5.37407E-03     92.1415E-03    -80.1235E+06    -67.9086E+06    -7.39012E+06     524.583E+03    -295.746E-03     588.434E-03    -292.688E-03     161.155E-03    -300.630E-03     592.814E-03    -292.510E-03     129.750E-03
            1425     4.70203E-03     91.9157E-03    -89.3895E+06    -99.6710E+06    -26.2341E+06     520.939E+03    -295.052E-03     587.738E-03    -292.687E-03     143.637E-03    -298.939E-03     591.030E-03    -292.544E-03     115.796E-03
            1426     4.03022E-03     91.7170E-03    -98.7458E+06    -137.682E+06    -45.4636E+06     320.349E+03    -294.439E-03     587.136E-03    -292.697E-03     124.870E-03    -297.388E-03     589.378E-03    -292.582E-03     100.776E-03
            1427     3.35848E-03     91.5470E-03    -107.767E+06    -167.180E+06    -64.7803E+06     243.642E+03    -293.873E-03     586.571E-03    -292.698E-03     105.168E-03    -295.999E-03     587.909E-03    -292.623E-03     84.9525E-03
            1428     2.68651E-03     91.4069E-03    -116.120E+06    -180.235E+06    -84.6436E+06     272.620E+03    -293.375E-03     586.051E-03    -292.676E-03     84.8873E-03    -294.824E-03     586.693E-03    -292.670E-03     68.6393E-03
            1429     2.01481E-03     91.2968E-03    -123.451E+06    -197.161E+06    -103.392E+06     333.696E+03    -293.032E-03     585.699E-03    -292.667E-03     64.2335E-03    -293.935E-03     585.764E-03    -292.719E-03     51.9666E-03
            1430     1.34311E-03     91.2176E-03    -129.285E+06    -215.802E+06    -119.049E+06     172.314E+03    -292.810E-03     585.484E-03    -292.673E-03     43.4473E-03    -293.312E-03     585.105E-03    -292.768E-03     35.1337E-03
            1431     671.501E-06     91.1685E-03    -132.662E+06    -228.265E+06    -129.882E+06    -324.866E+03    -292.875E-03     585.414E-03    -292.539E-03     23.8662E-03    -293.131E-03     584.766E-03    -292.665E-03     19.2712E-03
            1432     12.7668E-03     93.6031E-03    -5.51751E+06     53.7784E+06     80.6089E+06    -1.27118E+06    -293.288E-03     586.046E-03    -292.758E-03     136.878E-03    -298.332E-03     591.027E-03    -292.425E-03     102.098E-03
            1433     12.0920E-03     93.3605E-03    -10.1768E+06     47.5174E+06     71.2656E+06    -545.953E+03    -294.880E-03     587.597E-03    -292.717E-03     179.477E-03    -302.030E-03     594.673E-03    -292.415E-03     138.023E-03
            1434     11.4206E-03     93.0943E-03    -13.1360E+06     34.9294E+06     69.9961E+06    -517.533E+03    -296.198E-03     588.915E-03    -292.717E-03     190.086E-03    -303.754E-03     596.346E-03    -292.398E-03     148.157E-03
            1435     10.7503E-03     92.8045E-03    -18.0712E+06     32.3844E+06     77.9497E+06    -1.08410E+06    -296.888E-03     589.637E-03    -292.750E-03     203.252E-03    -305.243E-03     597.817E-03    -292.381E-03     159.638E-03
            1436     10.0782E-03     92.5005E-03    -24.7819E+06     33.4919E+06     74.9197E+06    -118.606E+03    -297.314E-03     590.057E-03    -292.744E-03     210.201E-03    -305.982E-03     598.539E-03    -292.382E-03     166.418E-03
            1437     9.40567E-03     92.1887E-03    -31.2645E+06     27.4136E+06     66.1927E+06     1.02827E+06    -297.736E-03     590.472E-03    -292.735E-03     213.284E-03    -306.469E-03     598.999E-03    -292.399E-03     169.846E-03
            1438     8.73327E-03     91.8728E-03    -37.0930E+06     21.5761E+06     57.1575E+06     1.29371E+06    -297.949E-03     590.676E-03    -292.727E-03     212.239E-03    -306.496E-03     599.003E-03    -292.419E-03     169.612E-03
            1439     8.06132E-03     91.5606E-03    -44.7466E+06     13.4081E+06     47.7830E+06     1.19760E+06    -297.884E-03     590.604E-03    -292.721E-03     208.035E-03    -306.068E-03     598.539E-03    -292.436E-03     166.556E-03
            1440     7.38976E-03     91.2560E-03    -53.4704E+06     3.90275E+06     37.8557E+06     1.22333E+06    -297.537E-03     590.252E-03    -292.715E-03     200.823E-03    -305.147E-03     597.576E-03    -292.454E-03     161.064E-03
            1441     6.71789E-03     90.9649E-03    -61.7231E+06    -6.53878E+06     26.2466E+06     1.22104E+06    -296.964E-03     589.675E-03    -292.711E-03     190.479E-03    -303.794E-03     596.186E-03    -292.480E-03     153.054E-03
            1442     6.04577E-03     90.6915E-03    -70.8888E+06    -31.4600E+06     10.2655E+06     1.25065E+06    -296.305E-03     589.024E-03    -292.720E-03     177.113E-03    -302.199E-03     594.525E-03    -292.520E-03     142.520E-03
            1443     5.37362E-03     90.4403E-03    -80.7211E+06    -67.3750E+06    -7.91610E+06     1.12075E+06    -295.669E-03     588.411E-03    -292.742E-03     161.186E-03    -300.551E-03     592.790E-03    -292.567E-03     129.827E-03
            1444     4.70180E-03     90.2145E-03    -89.7424E+06    -98.9540E+06    -26.4605E+06     998.101E+03    -295.024E-03     587.782E-03    -292.758E-03     143.593E-03    -298.912E-03     591.077E-03    -292.616E-03     115.760E-03
            1445     4.02982E-03     90.0158E-03    -98.7064E+06    -136.907E+06    -45.6964E+06     894.985E+03    -294.436E-03     587.218E-03    -292.782E-03     124.844E-03    -297.387E-03     589.465E-03    -292.669E-03     100.739E-03
            1446     3.35788E-03     89.8458E-03    -107.583E+06    -166.548E+06    -64.7690E+06     723.449E+03    -293.924E-03     586.718E-03    -292.795E-03     105.122E-03    -296.050E-03     588.059E-03    -292.721E-03     84.8937E-03
            1447     2.68628E-03     89.7056E-03    -115.793E+06    -179.704E+06    -84.6716E+06     477.598E+03    -293.481E-03     586.257E-03    -292.776E-03     84.8238E-03    -294.929E-03     586.901E-03    -292.770E-03     68.5535E-03
            1448     2.01458E-03     89.5954E-03    -122.933E+06    -196.650E+06    -103.929E+06     306.914E+03    -293.164E-03     585.920E-03    -292.756E-03     64.1917E-03    -294.064E-03     585.987E-03    -292.812E-03     51.9133E-03
            1449     1.34308E-03     89.5160E-03    -128.155E+06    -213.964E+06    -119.633E+06    -433.401E+03    -292.955E-03     585.690E-03    -292.736E-03     43.4776E-03    -293.452E-03     585.320E-03    -292.838E-03     35.1603E-03
            1450     671.621E-06     89.4672E-03    -131.835E+06    -230.753E+06    -129.159E+06    -1.29784E+06    -293.017E-03     585.533E-03    -292.515E-03     24.0561E-03    -293.267E-03     584.870E-03    -292.635E-03     19.4394E-03
            1451     12.7616E-03     91.9061E-03    -5.83140E+06     53.8105E+06     81.8298E+06    -150.815E+03    -293.073E-03     585.827E-03    -292.755E-03     137.580E-03    -298.132E-03     590.819E-03    -292.415E-03     102.813E-03
            1452     12.0927E-03     91.6513E-03    -10.0157E+06     49.4259E+06     73.6856E+06    -189.953E+03    -295.185E-03     587.898E-03    -292.713E-03     179.565E-03    -302.368E-03     595.007E-03    -292.401E-03     137.958E-03
            1453     11.4231E-03     91.3937E-03    -13.3477E+06     37.8084E+06     70.7949E+06    -886.586E+03    -296.013E-03     588.718E-03    -292.704E-03     191.700E-03    -303.616E-03     596.202E-03    -292.386E-03     149.761E-03
            1454     10.7493E-03     91.1029E-03    -19.6960E+06     31.0333E+06     75.0908E+06    -1.10685E+06    -296.686E-03     589.440E-03    -292.754E-03     205.244E-03    -305.065E-03     597.642E-03    -292.395E-03     161.773E-03
            1455     10.0766E-03     90.7994E-03    -26.4356E+06     30.5257E+06     72.2295E+06    -1.53983E+06    -297.463E-03     590.230E-03    -292.767E-03     210.737E-03    -306.136E-03     598.708E-03    -292.411E-03     166.960E-03
            1456     9.40493E-03     90.4862E-03    -33.0167E+06     25.3850E+06     63.7855E+06    -2.04005E+06    -297.914E-03     590.663E-03    -292.749E-03     212.886E-03    -306.651E-03     599.187E-03    -292.419E-03     169.334E-03
            1457     8.73357E-03     90.1713E-03    -40.2123E+06     18.5048E+06     54.2672E+06    -1.61806E+06    -297.933E-03     590.664E-03    -292.731E-03     211.893E-03    -306.491E-03     598.988E-03    -292.428E-03     169.170E-03
            1458     8.06181E-03     89.8588E-03    -47.1278E+06     11.1800E+06     45.8986E+06    -315.791E+03    -297.709E-03     590.442E-03    -292.733E-03     208.125E-03    -305.897E-03     598.369E-03    -292.451E-03     166.663E-03
            1459     7.38950E-03     89.5547E-03    -54.1862E+06     3.14050E+06     36.7032E+06     579.293E+03    -297.386E-03     590.131E-03    -292.745E-03     201.092E-03    -304.990E-03     597.448E-03    -292.488E-03     161.394E-03
            1460     6.71725E-03     89.2633E-03    -63.0492E+06    -7.46011E+06     25.0465E+06     1.38450E+06    -296.923E-03     589.681E-03    -292.758E-03     190.630E-03    -303.756E-03     596.191E-03    -292.531E-03     153.226E-03
            1461     6.04523E-03     88.9902E-03    -72.1681E+06    -30.5576E+06     10.1016E+06     1.76726E+06    -296.328E-03     589.105E-03    -292.777E-03     177.062E-03    -302.229E-03     594.612E-03    -292.577E-03     142.471E-03
            1462     5.37339E-03     88.7388E-03    -81.2624E+06    -65.7636E+06    -7.72114E+06     1.27670E+06    -295.659E-03     588.463E-03    -292.804E-03     161.156E-03    -300.547E-03     592.851E-03    -292.629E-03     129.786E-03
            1463     4.70135E-03     88.5132E-03    -90.7707E+06    -98.7514E+06    -26.9419E+06     838.848E+03    -295.033E-03     587.860E-03    -292.826E-03     143.596E-03    -298.929E-03     591.161E-03    -292.686E-03     115.730E-03
            1464     4.02950E-03     88.3144E-03    -99.7278E+06    -135.972E+06    -46.3804E+06     841.896E+03    -294.499E-03     587.351E-03    -292.851E-03     124.740E-03    -297.456E-03     589.605E-03    -292.742E-03     100.618E-03
            1465     3.35787E-03     88.1445E-03    -108.422E+06    -165.261E+06    -66.1234E+06     511.305E+03    -294.002E-03     586.860E-03    -292.858E-03     105.004E-03    -296.130E-03     588.208E-03    -292.792E-03     84.7749E-03
            1466     2.68605E-03     88.0039E-03    -116.242E+06    -179.030E+06    -86.4408E+06     115.103E+03    -293.559E-03     586.392E-03    -292.834E-03     84.7479E-03    -295.005E-03     587.041E-03    -292.838E-03     68.4787E-03
            1467     2.01453E-03     87.8938E-03    -122.553E+06    -196.003E+06    -105.592E+06     15.2183E+03    -293.209E-03     586.025E-03    -292.817E-03     64.1795E-03    -294.105E-03     586.097E-03    -292.883E-03     51.9024E-03
            1468     1.34290E-03     87.8142E-03    -126.778E+06    -212.362E+06    -121.156E+06    -134.111E+03    -292.979E-03     585.798E-03    -292.819E-03     43.5503E-03    -293.470E-03     585.436E-03    -292.933E-03     35.2484E-03
            1469     671.365E-06     87.7654E-03    -128.863E+06    -233.823E+06    -128.822E+06    -462.945E+03    -293.112E-03     585.785E-03    -292.673E-03     24.1325E-03    -293.343E-03     585.102E-03    -292.791E-03     19.5095E-03
            1470     12.7671E-03     90.2006E-03    -2.38547E+06     57.1666E+06     86.1823E+06     1.03065E+06    -293.300E-03     586.028E-03    -292.727E-03     135.872E-03    -298.360E-03     591.032E-03    -292.376E-03     101.050E-03
            1471     12.0937E-03     89.9512E-03    -7.63400E+06     50.1655E+06      77.177E+06     1.04967E+06    -294.035E-03     586.742E-03    -292.707E-03     179.684E-03    -301.242E-03     593.875E-03    -292.383E-03     138.057E-03
            1472     11.4184E-03     89.6913E-03    -16.8439E+06     37.2770E+06     69.5400E+06    -78.7421E+03    -295.523E-03     588.250E-03    -292.727E-03     190.723E-03    -303.099E-03     595.697E-03    -292.409E-03     148.881E-03
            1473     10.7479E-03     89.4001E-03    -22.4261E+06     33.0229E+06     73.0214E+06    -1.95468E+06    -296.853E-03     589.619E-03    -292.766E-03     203.444E-03    -305.220E-03     597.812E-03    -292.416E-03     159.839E-03
            1474     10.0773E-03     89.0966E-03    -27.3697E+06     30.1935E+06     70.0568E+06    -2.82474E+06    -297.431E-03     590.190E-03    -292.760E-03     209.469E-03    -306.085E-03     598.651E-03    -292.413E-03     165.613E-03
            1475     9.40585E-03     88.7841E-03    -34.3991E+06     24.2025E+06     61.0947E+06    -2.19920E+06    -297.697E-03     590.440E-03    -292.743E-03     212.765E-03    -306.430E-03     598.959E-03    -292.422E-03     169.247E-03
            1476     8.73360E-03     88.4699E-03    -41.8494E+06     16.4052E+06     51.1562E+06    -1.78397E+06    -297.737E-03     590.480E-03    -292.743E-03     212.398E-03    -306.308E-03     598.812E-03    -292.450E-03     169.697E-03
            1477     8.06099E-03     88.1577E-03    -49.2559E+06     8.85566E+06     42.9020E+06    -1.72465E+06    -297.648E-03     590.413E-03    -292.765E-03     208.546E-03    -305.837E-03     598.334E-03    -292.492E-03     167.118E-03
            1478     7.38889E-03     87.8532E-03    -57.3665E+06     28.4959E+03     33.8599E+06    -1.20737E+06    -297.410E-03     590.199E-03    -292.789E-03     201.117E-03    -305.014E-03     597.502E-03    -292.537E-03     161.419E-03
            1479     6.71698E-03     87.5619E-03    -66.1319E+06    -9.88302E+06     22.7294E+06    -768.867E+03    -296.961E-03     589.765E-03    -292.804E-03     190.464E-03    -303.799E-03     596.267E-03    -292.580E-03     153.015E-03
            1480     6.04511E-03     87.2883E-03    -74.7332E+06    -31.6826E+06     8.62337E+06    -458.378E+03    -296.330E-03     589.153E-03    -292.823E-03     176.893E-03    -302.241E-03     594.661E-03    -292.626E-03     142.239E-03
            1481     5.37300E-03     87.0378E-03    -82.9937E+06    -65.6662E+06    -8.31388E+06     195.220E+03    -295.695E-03     588.546E-03    -292.851E-03     160.993E-03    -300.590E-03     592.937E-03    -292.677E-03     129.586E-03
            1482     4.70109E-03     86.8115E-03    -91.7218E+06    -98.3164E+06    -27.2517E+06     344.624E+03    -295.103E-03     587.971E-03    -292.868E-03     143.352E-03    -298.998E-03     591.271E-03    -292.729E-03     115.485E-03
            1483     4.02935E-03     86.6128E-03    -100.527E+06    -135.611E+06    -46.7329E+06     35.0352E+03    -294.554E-03     587.439E-03    -292.885E-03     124.483E-03    -297.509E-03     589.692E-03    -292.777E-03     100.357E-03
            1484     3.35754E-03     86.4427E-03    -108.857E+06    -164.440E+06    -66.5580E+06    -52.7887E+03    -294.042E-03     586.926E-03    -292.884E-03     104.851E-03    -296.170E-03     588.277E-03    -292.821E-03     84.6130E-03
            1485     2.68603E-03     86.3022E-03    -116.860E+06    -178.732E+06    -87.0285E+06    -96.8331E+03    -293.580E-03     586.437E-03    -292.857E-03     84.6305E-03    -295.029E-03     587.088E-03    -292.863E-03     68.3534E-03
            1486     2.01434E-03     86.1920E-03    -123.774E+06    -195.869E+06    -105.893E+06    -128.683E+03    -293.233E-03     586.072E-03    -292.839E-03     64.0078E-03    -294.135E-03     586.146E-03    -292.905E-03     51.7233E-03
            1487     1.34281E-03     86.1125E-03    -129.021E+06    -213.234E+06    -121.601E+06     482.416E+03    -293.013E-03     585.843E-03    -292.830E-03     43.3093E-03    -293.511E-03     585.479E-03    -292.942E-03     35.0221E-03
            1488     671.318E-06     86.0631E-03    -131.529E+06    -232.279E+06    -130.850E+06     1.44522E+06    -293.128E-03     585.758E-03    -292.630E-03     23.8028E-03    -293.371E-03     585.089E-03    -292.757E-03     19.2045E-03
            1489     12.7650E-03     88.5015E-03    -5.66940E+06     53.1795E+06     83.2383E+06    -915.572E+03    -292.520E-03     585.215E-03    -292.696E-03     137.337E-03    -297.607E-03     590.230E-03    -292.348E-03     102.488E-03
            1490     12.0922E-03     88.2513E-03    -10.9588E+06     45.8996E+06     76.1207E+06     429.852E+03    -294.692E-03     587.381E-03    -292.689E-03     179.671E-03    -301.905E-03     594.497E-03    -292.359E-03     137.973E-03
            1491     11.4231E-03     87.9898E-03    -12.9178E+06     43.3688E+06     76.6773E+06     1.93974E+06    -295.805E-03     588.496E-03    -292.691E-03     189.427E-03    -303.361E-03     595.937E-03    -292.351E-03     147.555E-03
            1492     10.7509E-03     87.6986E-03    -18.3072E+06     39.0600E+06     78.9275E+06     601.988E+03    -296.359E-03     589.081E-03    -292.722E-03     202.986E-03    -304.686E-03     597.253E-03    -292.357E-03     159.597E-03
            1493     10.0779E-03     87.3955E-03    -26.0028E+06     30.5414E+06     70.6566E+06     150.773E+03    -296.762E-03     589.502E-03    -292.740E-03     209.957E-03    -305.393E-03     597.944E-03    -292.393E-03     166.363E-03
            1494     9.40479E-03     87.0831E-03    -33.5394E+06     24.7993E+06     60.1403E+06     73.7074E+03    -297.270E-03     590.032E-03    -292.763E-03     213.318E-03    -305.984E-03     598.541E-03    -292.449E-03     169.990E-03
            1495     8.73239E-03     86.7683E-03    -40.9744E+06     17.3705E+06     50.6696E+06    -565.252E+03    -297.738E-03     590.527E-03    -292.789E-03     212.492E-03    -306.299E-03     598.857E-03    -292.501E-03     169.832E-03
            1496     8.06075E-03     86.4562E-03    -49.1485E+06     8.93000E+06     43.6263E+06    -769.763E+03    -297.851E-03     590.664E-03    -292.813E-03     208.242E-03    -306.045E-03     598.589E-03    -292.537E-03     166.742E-03
            1497     7.38880E-03     86.1515E-03    -57.8060E+06    -378.560E+03     34.8862E+06    -1.32338E+06    -297.512E-03     590.337E-03    -292.826E-03     200.822E-03    -305.122E-03     597.640E-03    -292.567E-03     161.053E-03
            1498     6.71687E-03     85.8600E-03    -65.8784E+06    -10.4225E+06     22.7993E+06    -1.88573E+06    -296.939E-03     589.769E-03    -292.830E-03     190.274E-03    -303.772E-03     596.265E-03    -292.605E-03     152.805E-03
            1499     6.04473E-03     85.5870E-03    -74.1544E+06    -33.6365E+06     7.38115E+06    -1.81866E+06    -296.374E-03     589.218E-03    -292.843E-03     176.705E-03    -302.271E-03     594.710E-03    -292.650E-03     142.042E-03
            1500     5.37295E-03     85.3360E-03    -83.1484E+06    -68.0494E+06    -10.0590E+06    -1.31126E+06    -295.826E-03     588.685E-03    -292.859E-03     160.728E-03    -300.710E-03     593.062E-03    -292.691E-03     129.299E-03
            1501     4.70126E-03     85.1099E-03    -91.5780E+06    -98.5728E+06    -28.0252E+06    -756.521E+03    -295.180E-03     588.042E-03    -292.862E-03     143.091E-03    -299.068E-03     591.336E-03    -292.726E-03     115.214E-03
            1502     4.02942E-03     84.9113E-03    -100.046E+06    -135.917E+06    -46.7997E+06    -555.702E+03    -294.578E-03     587.448E-03    -292.870E-03     124.280E-03    -297.529E-03     589.698E-03    -292.762E-03     100.133E-03
            1503     3.35783E-03     84.7410E-03    -108.733E+06    -165.412E+06    -65.7253E+06    -177.686E+03    -294.056E-03     586.920E-03    -292.864E-03     104.638E-03    -296.184E-03     588.266E-03    -292.795E-03     84.3753E-03
            1504     2.68604E-03     84.6005E-03    -117.137E+06    -178.799E+06    -85.5606E+06     328.123E+03    -293.585E-03     586.411E-03    -292.826E-03     84.4101E-03    -295.036E-03     587.059E-03    -292.825E-03     68.1328E-03
            1505     2.01456E-03     84.4901E-03    -124.723E+06    -195.795E+06    -104.755E+06     483.880E+03    -293.249E-03     586.033E-03    -292.784E-03     63.8216E-03    -294.156E-03     586.106E-03    -292.843E-03     51.5434E-03
            1506     1.34312E-03     84.4106E-03    -130.625E+06    -214.227E+06    -120.428E+06     480.699E+03    -293.015E-03     585.748E-03    -292.733E-03     43.2521E-03    -293.522E-03     585.380E-03    -292.835E-03     34.9505E-03
            1507     671.733E-06     84.3613E-03    -134.424E+06    -228.809E+06    -130.891E+06     374.764E+03    -292.990E-03     585.463E-03    -292.473E-03     23.7754E-03    -293.253E-03     584.816E-03    -292.601E-03     19.1640E-03
            1508     12.7636E-03     86.7982E-03    -4.50961E+06     52.7863E+06     83.5530E+06     678.101E+03    -293.093E-03     585.794E-03    -292.701E-03     137.620E-03    -298.150E-03     590.780E-03    -292.353E-03     102.846E-03
            1509     12.0948E-03     86.5455E-03    -9.02688E+06     46.1307E+06     77.1773E+06    -554.918E+03    -295.030E-03     587.700E-03    -292.670E-03     179.249E-03    -302.223E-03     594.801E-03    -292.338E-03     137.526E-03
            1510     11.4219E-03     86.2880E-03    -13.4291E+06     42.3131E+06     76.1393E+06    -291.636E+03    -295.419E-03     588.096E-03    -292.678E-03     191.543E-03    -303.014E-03     595.573E-03    -292.339E-03     149.767E-03
            1511     10.7492E-03     85.9980E-03    -18.4771E+06     40.6643E+06     80.4506E+06     2.41437E+06    -296.109E-03     588.862E-03    -292.753E-03     205.218E-03    -304.474E-03     597.073E-03    -292.383E-03     162.016E-03
            1512     10.0769E-03     85.6953E-03    -25.4468E+06     32.3908E+06     73.4579E+06     1.78297E+06    -296.882E-03     589.680E-03    -292.798E-03     211.005E-03    -305.544E-03     598.154E-03    -292.441E-03     167.408E-03
            1513     9.40467E-03     85.3827E-03    -32.5728E+06     26.1259E+06     63.7758E+06     693.882E+03    -297.602E-03     590.419E-03    -292.816E-03     213.247E-03    -306.321E-03     598.930E-03    -292.488E-03     169.855E-03
            1514     8.73261E-03     85.0666E-03    -40.0918E+06     18.4522E+06     52.9255E+06     475.681E+03    -297.926E-03     590.741E-03    -292.816E-03     211.934E-03    -306.469E-03     599.054E-03    -292.520E-03     169.276E-03
            1515     8.06055E-03     84.7538E-03    -47.3536E+06     10.4095E+06     43.9287E+06     98.2215E+03    -297.878E-03     590.694E-03    -292.816E-03     207.778E-03    -306.054E-03     598.611E-03    -292.543E-03     166.283E-03
            1516     7.38884E-03     84.4498E-03    -54.8848E+06     2.06981E+06     35.4646E+06    -531.658E+03    -297.519E-03     590.341E-03    -292.822E-03     200.490E-03    -305.114E-03     597.646E-03    -292.568E-03     160.725E-03
            1517     6.71674E-03     84.1587E-03    -63.0695E+06    -9.87920E+06     24.0058E+06    -803.260E+03    -297.007E-03     589.831E-03    -292.825E-03     189.886E-03    -303.817E-03     596.313E-03    -292.599E-03     152.444E-03
            1518     6.04490E-03     83.8852E-03    -72.0141E+06    -34.4915E+06     8.06491E+06    -599.032E+03    -296.456E-03     589.281E-03    -292.826E-03     176.262E-03    -302.330E-03     594.755E-03    -292.631E-03     141.629E-03
            1519     5.37313E-03     83.6340E-03    -81.2756E+06    -68.4334E+06    -9.73295E+06    -583.387E+03    -295.821E-03     588.650E-03    -292.829E-03     160.388E-03    -300.692E-03     593.017E-03    -292.660E-03     128.963E-03
            1520     4.70131E-03     83.4084E-03    -90.8430E+06    -99.5678E+06    -28.3802E+06    -696.896E+03    -295.156E-03     587.980E-03    -292.825E-03     142.932E-03    -299.039E-03     591.270E-03    -292.690E-03     115.032E-03
            1521     4.02966E-03     83.2095E-03    -100.234E+06    -136.763E+06    -47.1510E+06    -383.850E+03    -294.574E-03     587.402E-03    -292.829E-03     124.260E-03    -297.526E-03     589.650E-03    -292.721E-03     100.098E-03
            1522     3.35792E-03     83.0395E-03    -109.328E+06    -166.454E+06    -66.0867E+06    -81.2339E+03    -294.058E-03     586.873E-03    -292.815E-03     104.703E-03    -296.189E-03     588.216E-03    -292.745E-03     84.4349E-03
            1523     2.68644E-03     82.8989E-03    -117.424E+06    -179.348E+06    -85.9679E+06     27.0042E+03    -293.579E-03     586.343E-03    -292.764E-03     84.5273E-03    -295.031E-03     586.991E-03    -292.763E-03     68.2484E-03
            1524     2.01477E-03     82.7885E-03    -123.827E+06    -195.868E+06    -105.140E+06     150.811E+03    -293.202E-03     585.914E-03    -292.712E-03     63.9871E-03    -294.104E-03     585.986E-03    -292.774E-03     51.7110E-03
            1525     1.34315E-03     82.7090E-03    -128.173E+06    -213.028E+06    -120.724E+06    -161.527E+03    -292.936E-03     585.600E-03    -292.664E-03     43.4102E-03    -293.432E-03     585.235E-03    -292.773E-03     35.0930E-03
            1526     671.490E-06     82.6600E-03    -130.149E+06    -229.066E+06    -129.380E+06    -779.385E+03    -292.925E-03     585.376E-03    -292.451E-03     23.6988E-03    -293.168E-03     584.719E-03    -292.577E-03     19.0825E-03
            1527     12.7674E-03     85.0919E-03    -3.82451E+06     54.2013E+06     84.2978E+06     411.824E+03    -292.899E-03     585.552E-03    -292.654E-03     136.227E-03    -297.935E-03     590.523E-03    -292.305E-03     101.556E-03
            1528     12.0933E-03     84.8465E-03    -6.64069E+06     46.9041E+06     77.8460E+06     458.029E+03    -293.210E-03     585.887E-03    -292.677E-03     179.778E-03    -300.372E-03     592.966E-03    -292.346E-03     138.433E-03
            1529     11.4204E-03     84.5871E-03    -14.3852E+06     38.5726E+06     72.6257E+06     387.958E+03    -294.899E-03     587.648E-03    -292.749E-03     191.775E-03    -302.477E-03     595.102E-03    -292.421E-03     150.120E-03
            1530     10.7481E-03     84.2969E-03    -22.7396E+06     37.4686E+06     74.7777E+06    -1.11594E+06    -296.458E-03     589.283E-03    -292.825E-03     204.805E-03    -304.855E-03     597.515E-03    -292.473E-03     161.316E-03
            1531     10.0759E-03     83.9932E-03    -27.6517E+06     32.7260E+06     73.0046E+06    -690.619E+03    -297.487E-03     590.340E-03    -292.853E-03     210.340E-03    -306.155E-03     598.815E-03    -292.495E-03     166.572E-03
            1532     9.40444E-03     83.6798E-03    -33.2636E+06     26.3873E+06     66.1882E+06     106.207E+03    -298.051E-03     590.895E-03    -292.843E-03     212.882E-03    -306.770E-03     599.396E-03    -292.502E-03     169.432E-03
            1533     8.73291E-03     83.3650E-03    -39.7018E+06     19.1336E+06     55.5710E+06     203.102E+03    -298.123E-03     590.938E-03    -292.815E-03     211.875E-03    -306.667E-03     599.248E-03    -292.508E-03     169.206E-03
            1534     8.06103E-03     83.0523E-03    -46.2704E+06     11.3026E+06     44.0532E+06    -30.6464E+03    -297.905E-03     590.696E-03    -292.791E-03     207.577E-03    -306.062E-03     598.601E-03    -292.520E-03     166.141E-03
            1535     7.38883E-03     82.7480E-03    -53.7090E+06     2.81882E+06     34.0761E+06     115.370E+03    -297.576E-03     590.358E-03    -292.782E-03     200.058E-03    -305.147E-03     597.649E-03    -292.538E-03     160.347E-03
            1536     6.71719E-03     82.4569E-03    -62.5161E+06    -9.75671E+06     23.5862E+06     386.276E+03    -297.084E-03     589.862E-03    -292.777E-03     189.526E-03    -303.886E-03     596.339E-03    -292.555E-03     152.086E-03
            1537     6.04545E-03     82.1835E-03    -72.2593E+06    -34.5009E+06     8.60289E+06     448.485E+03    -296.396E-03     589.172E-03    -292.776E-03     176.133E-03    -302.272E-03     594.644E-03    -292.578E-03     141.514E-03
            1538     5.37353E-03     81.9328E-03    -81.8810E+06    -67.7799E+06    -8.75281E+06     369.336E+03    -295.711E-03     588.494E-03    -292.783E-03     160.424E-03    -300.587E-03     592.865E-03    -292.610E-03     129.020E-03
            1539     4.70169E-03     81.7068E-03    -91.2575E+06    -99.4216E+06    -27.4805E+06     261.228E+03    -295.083E-03     587.868E-03    -292.785E-03     142.966E-03    -298.971E-03     591.159E-03    -292.646E-03     115.083E-03
            1540     4.02979E-03     81.5082E-03    -100.465E+06    -136.922E+06    -46.8304E+06     69.8667E+03    -294.525E-03     587.314E-03    -292.789E-03     124.292E-03    -297.477E-03     589.559E-03    -292.679E-03     100.155E-03
            1541     3.35811E-03     81.3380E-03    -109.045E+06    -166.051E+06    -66.2315E+06    -329.251E+03    -294.007E-03     586.782E-03    -292.775E-03     104.759E-03    -296.137E-03     588.127E-03    -292.707E-03     84.4994E-03
            1542     2.68631E-03     81.1974E-03    -116.951E+06    -179.658E+06    -86.6083E+06    -693.611E+03    -293.520E-03     586.249E-03    -292.729E-03     84.6197E-03    -294.969E-03     586.895E-03    -292.731E-03     68.3337E-03
            1543     2.01472E-03     81.0871E-03    -123.577E+06    -196.595E+06    -105.788E+06    -780.554E+03    -293.161E-03     585.847E-03    -292.686E-03     64.0602E-03    -294.060E-03     585.917E-03    -292.751E-03     51.7790E-03
            1544     1.34314E-03     81.0076E-03    -128.259E+06    -213.291E+06    -121.155E+06    -474.864E+03    -292.902E-03     585.550E-03    -292.648E-03     43.3481E-03    -293.398E-03     585.184E-03    -292.758E-03     35.0321E-03
            1545     671.638E-06     80.9587E-03    -130.856E+06    -230.307E+06    -129.702E+06     121.409E+03    -292.924E-03     585.352E-03    -292.429E-03     23.5353E-03    -293.168E-03     584.691E-03    -292.554E-03     18.9147E-03
            1546     12.7670E-03     83.3996E-03    -4.84212E+06     53.8918E+06     81.9503E+06    -401.488E+03    -291.919E-03     584.617E-03    -292.698E-03     138.631E-03    -296.986E-03     589.620E-03    -292.360E-03     104.057E-03
            1547     12.0925E-03     83.1465E-03    -12.2729E+06     42.6086E+06     74.1481E+06     475.583E+03    -293.709E-03     586.468E-03    -292.759E-03     181.864E-03    -300.892E-03     593.543E-03    -292.432E-03     140.718E-03
            1548     11.4199E-03     82.8868E-03    -14.3829E+06     38.6304E+06     74.4533E+06     797.197E+03    -295.752E-03     588.567E-03    -292.815E-03     191.356E-03    -303.327E-03     596.012E-03    -292.478E-03     149.570E-03
            1549     10.7478E-03     82.5940E-03    -17.9612E+06     41.1862E+06     79.2026E+06     1.18772E+06    -296.907E-03     589.756E-03    -292.849E-03     203.673E-03    -305.249E-03     597.951E-03    -292.487E-03     160.227E-03
            1550     10.0767E-03     82.2907E-03    -25.1930E+06     33.8154E+06     72.8092E+06     501.455E+03    -297.601E-03     590.439E-03    -292.838E-03     209.540E-03    -306.231E-03     598.888E-03    -292.486E-03     165.812E-03
            1551     9.40469E-03     81.9779E-03    -31.8475E+06     26.4654E+06     63.0103E+06    -129.277E+03    -298.025E-03     590.831E-03    -292.806E-03     212.396E-03    -306.725E-03     599.330E-03    -292.484E-03     168.918E-03
            1552     8.73270E-03     81.6624E-03    -39.1874E+06     18.8802E+06     52.7836E+06    -554.182E+03    -298.153E-03     590.928E-03    -292.776E-03     211.495E-03    -306.691E-03     599.242E-03    -292.482E-03     168.758E-03
            1553     8.06104E-03     81.3504E-03    -47.1790E+06     10.4163E+06     44.2841E+06    -441.119E+03    -298.018E-03     590.774E-03    -292.756E-03     207.257E-03    -306.179E-03     598.676E-03    -292.481E-03     165.767E-03
            1554     7.38957E-03     81.0464E-03    -55.4793E+06     1.40709E+06     35.1856E+06     358.179E+03    -297.566E-03     590.306E-03    -292.741E-03     199.941E-03    -305.142E-03     597.588E-03    -292.486E-03     160.239E-03
            1555     6.71768E-03     80.7550E-03    -64.5237E+06    -9.63282E+06     23.6382E+06     885.011E+03    -296.914E-03     589.647E-03    -292.733E-03     189.685E-03    -303.732E-03     596.133E-03    -292.507E-03     152.258E-03
            1556     6.04560E-03     80.4825E-03    -73.4111E+06    -33.2820E+06     8.86764E+06     472.419E+03    -296.292E-03     589.033E-03    -292.741E-03     176.432E-03    -302.183E-03     594.519E-03    -292.542E-03     141.814E-03
            1557     5.37359E-03     80.2313E-03    -82.0944E+06    -67.8365E+06    -8.64381E+06    -28.8789E+03    -295.695E-03     588.449E-03    -292.754E-03     160.648E-03    -300.575E-03     592.821E-03    -292.580E-03     129.248E-03
            1558     4.70170E-03     80.0056E-03    -90.5672E+06    -99.3400E+06    -27.2369E+06         697.223    -295.067E-03     587.823E-03    -292.756E-03     143.095E-03    -298.951E-03     591.112E-03    -292.617E-03     115.228E-03
            1559     4.02994E-03     79.8068E-03    -98.9994E+06    -136.424E+06    -46.3865E+06     34.8580E+03    -294.520E-03     587.280E-03    -292.760E-03     124.377E-03    -297.464E-03     589.523E-03    -292.650E-03     100.262E-03
            1560     3.35818E-03     79.6366E-03    -107.529E+06    -165.650E+06    -65.9720E+06     75.2558E+03    -293.988E-03     586.732E-03    -292.744E-03     104.748E-03    -296.109E-03     588.074E-03    -292.678E-03     84.5172E-03
            1561     2.68652E-03     79.4962E-03    -115.949E+06    -179.297E+06    -85.4096E+06     167.141E+03    -293.474E-03     586.180E-03    -292.706E-03     84.5364E-03    -294.917E-03     586.823E-03    -292.705E-03     68.2852E-03
            1562     2.01479E-03     79.3856E-03    -123.798E+06    -196.313E+06    -103.447E+06    -131.376E+03    -293.090E-03     585.772E-03    -292.682E-03     64.0270E-03    -293.993E-03     585.839E-03    -292.735E-03     51.7649E-03
            1563     1.34322E-03     79.3062E-03    -130.348E+06    -215.291E+06    -119.505E+06    -252.895E+03    -292.848E-03     585.516E-03    -292.668E-03     43.4156E-03    -293.354E-03     585.141E-03    -292.764E-03     35.1016E-03
            1564     671.582E-06     79.2574E-03    -134.752E+06    -230.511E+06    -131.653E+06     172.803E+03    -292.922E-03     585.370E-03    -292.448E-03     23.6377E-03    -293.184E-03     584.717E-03    -292.577E-03     18.9936E-03
            1565     12.7604E-03     81.6962E-03    -5.62461E+06     53.0543E+06     82.1372E+06     711.363E+03    -292.958E-03     585.832E-03    -292.874E-03     138.582E-03    -298.039E-03     590.843E-03    -292.532E-03     103.910E-03
            1566     12.0903E-03     81.4443E-03    -9.14444E+06     45.9167E+06     76.5406E+06     116.503E+03    -295.679E-03     588.531E-03    -292.852E-03     180.932E-03    -302.886E-03     595.647E-03    -292.523E-03     139.291E-03
            1567     11.4200E-03     81.1820E-03    -12.0783E+06     37.6456E+06     75.2547E+06    -1.67937E+06    -296.462E-03     589.289E-03    -292.827E-03     190.905E-03    -304.048E-03     596.748E-03    -292.488E-03     148.846E-03
            1568     10.7493E-03     80.8928E-03    -16.6537E+06     38.2163E+06     80.7511E+06     137.211E+03    -297.195E-03     590.031E-03    -292.836E-03     203.807E-03    -305.552E-03     598.230E-03    -292.464E-03     160.245E-03
            1569     10.0766E-03     80.5881E-03    -22.9542E+06     34.9910E+06     75.0003E+06     1.47157E+06    -297.707E-03     590.512E-03    -292.805E-03     209.554E-03    -306.348E-03     598.978E-03    -292.447E-03     165.753E-03
            1570     9.40517E-03     80.2758E-03    -30.4690E+06     27.4245E+06     63.9481E+06     1.37070E+06    -298.060E-03     590.818E-03    -292.758E-03     212.064E-03    -306.770E-03     599.331E-03    -292.434E-03     168.506E-03
            1571     8.73358E-03     79.9607E-03    -37.6507E+06     19.8565E+06     54.1449E+06     1.90526E+06    -298.075E-03     590.796E-03    -292.721E-03     211.034E-03    -306.605E-03     599.106E-03    -292.425E-03     168.314E-03
            1572     8.06183E-03     79.6484E-03    -45.9316E+06     11.3285E+06     45.9444E+06     2.30969E+06    -297.751E-03     590.461E-03    -292.710E-03     207.093E-03    -305.908E-03     598.362E-03    -292.430E-03     165.659E-03
            1573     7.38981E-03     79.3447E-03     -54.868E+06     1.94426E+06     36.4945E+06     1.83990E+06    -297.304E-03     590.019E-03    -292.715E-03     200.274E-03    -304.888E-03     597.309E-03    -292.456E-03     160.607E-03
            1574     6.71760E-03     79.0544E-03    -63.0117E+06    -8.27806E+06     24.9422E+06     834.965E+03    -296.850E-03     589.573E-03    -292.723E-03     190.053E-03    -303.667E-03     596.064E-03    -292.494E-03     152.652E-03
            1575     6.04551E-03     78.7809E-03    -71.2295E+06    -31.7304E+06     10.3901E+06     260.730E+03    -296.347E-03     589.081E-03    -292.734E-03     176.520E-03    -302.229E-03     594.567E-03    -292.532E-03     141.912E-03
            1576     5.37373E-03     78.5301E-03    -80.0939E+06    -67.0836E+06    -6.98780E+06    -129.658E+03    -295.710E-03     588.456E-03    -292.746E-03     160.608E-03    -300.581E-03     592.824E-03    -292.567E-03     129.217E-03
            1577     4.70183E-03     78.3044E-03    -89.0958E+06    -99.8114E+06    -26.8777E+06    -353.466E+03    -295.082E-03     587.824E-03    -292.741E-03     143.130E-03    -298.956E-03     591.104E-03    -292.602E-03     115.277E-03
            1578     4.02998E-03     78.1054E-03    -97.9237E+06    -137.300E+06    -47.0342E+06     188.559E+03    -294.539E-03     587.277E-03    -292.738E-03     124.391E-03    -297.475E-03     589.514E-03    -292.632E-03     100.283E-03
            1579     3.35825E-03     77.9354E-03    -106.408E+06    -165.754E+06    -65.4383E+06     761.771E+03    -293.996E-03     586.718E-03    -292.722E-03     104.732E-03    -296.110E-03     588.056E-03    -292.654E-03     84.5181E-03
            1580     2.68654E-03     77.7948E-03    -113.881E+06    -178.514E+06    -84.4902E+06     690.488E+03    -293.460E-03     586.140E-03    -292.680E-03     84.5326E-03    -294.895E-03     586.782E-03    -292.678E-03     68.2978E-03
            1581     2.01485E-03     77.6848E-03    -119.482E+06    -194.229E+06    -102.943E+06    -30.8309E+03    -293.039E-03     585.696E-03    -292.657E-03     64.0624E-03    -293.924E-03     585.767E-03    -292.717E-03     51.8036E-03
            1582     1.34302E-03     77.6048E-03    -123.106E+06    -216.477E+06    -115.935E+06    -802.355E+03    -292.815E-03     585.501E-03    -292.686E-03     43.4072E-03    -293.288E-03     585.104E-03    -292.773E-03     35.0912E-03
            1583     671.445E-06     77.5562E-03    -125.078E+06    -232.121E+06    -122.936E+06    -442.741E+03    -293.026E-03     585.497E-03    -292.471E-03     23.5962E-03    -293.249E-03     584.809E-03    -292.568E-03     18.9775E-03
            1584     12.7623E-03     79.9894E-03    -3.77386E+06     54.2082E+06     83.8088E+06     229.150E+03    -293.371E-03     586.248E-03    -292.877E-03     135.092E-03    -298.402E-03     591.215E-03    -292.531E-03     100.310E-03
            1585     12.0923E-03     79.7385E-03    -6.73989E+06     48.9627E+06     76.7129E+06    -2.08687E+06    -295.427E-03     588.249E-03    -292.822E-03     178.958E-03    -302.648E-03     595.398E-03    -292.500E-03     136.899E-03
            1586     11.4203E-03     79.4805E-03    -14.4664E+06     37.2916E+06     71.1174E+06    -1.99971E+06    -296.416E-03     589.195E-03    -292.779E-03     190.095E-03    -304.028E-03     596.682E-03    -292.457E-03     147.834E-03
            1587     10.7478E-03     79.1883E-03    -20.7391E+06     32.9655E+06     75.0357E+06    -2.80182E+06    -297.202E-03     589.981E-03    -292.779E-03     203.116E-03    -305.578E-03     598.183E-03    -292.421E-03     159.360E-03
            1588     10.0776E-03     78.8860E-03    -26.1027E+06     30.3427E+06     72.1315E+06    -1.44850E+06    -297.660E-03     590.408E-03    -292.749E-03     209.078E-03    -306.323E-03     598.877E-03    -292.394E-03     165.108E-03
            1589     9.40579E-03     78.5734E-03    -32.2898E+06     25.2331E+06     64.1659E+06     673.739E+03    -297.863E-03     590.575E-03    -292.712E-03     212.127E-03    -306.584E-03     599.085E-03    -292.381E-03     168.571E-03
            1590     8.73421E-03     78.2586E-03    -38.9757E+06     18.6672E+06     55.1558E+06     1.99091E+06    -297.792E-03     590.488E-03    -292.695E-03     211.631E-03    -306.330E-03     598.793E-03    -292.390E-03     169.015E-03
            1591     8.06204E-03     77.9478E-03    -45.3490E+06     12.0228E+06     46.9840E+06     2.50210E+06    -297.562E-03     590.267E-03    -292.705E-03     207.829E-03    -305.720E-03     598.171E-03    -292.422E-03     166.492E-03
            1592     7.38946E-03     77.6440E-03    -51.9729E+06     4.50908E+06     37.5600E+06     2.02547E+06    -297.332E-03     590.051E-03    -292.719E-03     200.559E-03    -304.903E-03     597.345E-03    -292.463E-03     160.936E-03
            1593     6.71741E-03     77.3527E-03    -59.7972E+06    -6.12218E+06     25.8741E+06     1.40940E+06    -296.966E-03     589.690E-03    -292.724E-03     189.985E-03    -303.761E-03     596.176E-03    -292.499E-03     152.620E-03
            1594     6.04575E-03     77.0793E-03    -68.6312E+06    -30.6783E+06     10.7150E+06     1.04372E+06    -296.384E-03     589.113E-03    -292.728E-03     176.479E-03    -302.249E-03     594.594E-03    -292.531E-03     141.902E-03
            1595     5.37370E-03     76.8289E-03    -77.4549E+06    -64.5653E+06    -6.03126E+06     305.373E+03    -295.750E-03     588.488E-03    -292.738E-03     160.650E-03    -300.611E-03     592.863E-03    -292.563E-03     129.276E-03
            1596     4.70182E-03     76.6029E-03    -86.2553E+06    -101.821E+06    -23.5570E+06     403.872E+03    -295.162E-03     587.907E-03    -292.745E-03     143.128E-03    -299.023E-03     591.168E-03    -292.590E-03     115.287E-03
            1597     4.03006E-03     76.4042E-03    -95.1809E+06    -139.237E+06    -42.3061E+06     1.72910E+06    -294.550E-03     587.291E-03    -292.741E-03     124.305E-03    -297.476E-03     589.508E-03    -292.612E-03     100.212E-03
            1598     3.35834E-03     76.2340E-03    -104.125E+06    -162.840E+06    -62.2631E+06     1.53447E+06    -293.939E-03     586.652E-03    -292.712E-03     104.708E-03    -296.051E-03     587.997E-03    -292.637E-03     84.5076E-03
            1599     2.68661E-03     76.0938E-03    -111.888E+06    -176.860E+06    -83.3995E+06     145.131E+03    -293.447E-03     586.115E-03    -292.667E-03     84.5611E-03    -294.876E-03     586.760E-03    -292.666E-03     68.3223E-03
            1600     2.01484E-03     75.9835E-03    -118.030E+06    -193.313E+06    -103.582E+06    -408.391E+03    -293.098E-03     585.724E-03    -292.626E-03     64.0282E-03    -293.976E-03     585.797E-03    -292.692E-03     51.7684E-03
            1601     1.34328E-03     75.9038E-03    -122.637E+06    -216.920E+06    -117.450E+06    -249.924E+03    -292.850E-03     585.467E-03    -292.617E-03     43.3078E-03    -293.317E-03     585.069E-03    -292.712E-03     35.0115E-03
            1602     671.602E-06     75.8545E-03    -125.018E+06    -233.508E+06    -124.634E+06    -230.530E+03    -292.949E-03     585.328E-03    -292.379E-03     23.5644E-03    -293.165E-03     584.633E-03    -292.482E-03     19.0052E-03
            1603     12.7660E-03     78.2904E-03    -2.85335E+06     55.3179E+06     83.6589E+06     421.330E+03    -293.314E-03     586.056E-03    -292.742E-03     136.523E-03    -298.341E-03     591.026E-03    -292.399E-03     101.833E-03
            1604     12.0916E-03     78.0358E-03    -9.89773E+06     47.3833E+06     73.5356E+06    -448.047E+03    -294.753E-03     587.448E-03    -292.695E-03     178.132E-03    -301.959E-03     594.573E-03    -292.382E-03     136.191E-03
            1605     11.4209E-03     77.7762E-03    -15.5546E+06     39.7076E+06     69.5038E+06    -943.484E+03    -295.724E-03     588.401E-03    -292.677E-03     188.976E-03    -303.330E-03     595.891E-03    -292.365E-03     146.736E-03
            1606     10.7510E-03     77.4871E-03    -20.2322E+06     35.1590E+06     74.0376E+06    -1.46434E+06    -296.673E-03     589.378E-03    -292.706E-03     203.120E-03    -305.039E-03     597.583E-03    -292.357E-03     159.475E-03
            1607     10.0780E-03     77.1834E-03    -28.1337E+06     26.9832E+06     67.9901E+06    -2.02412E+06    -297.232E-03     589.936E-03    -292.704E-03     209.882E-03    -305.893E-03     598.396E-03    -292.363E-03     166.041E-03
            1608     9.40625E-03     76.8723E-03    -34.6640E+06     21.4276E+06     60.4225E+06    -1.43274E+06    -297.577E-03     590.282E-03    -292.705E-03     212.993E-03    -306.298E-03     598.780E-03    -292.384E-03     169.552E-03
            1609     8.73336E-03     76.5579E-03    -40.7139E+06     16.2982E+06     52.1133E+06    -1.32646E+06    -297.675E-03     590.388E-03    -292.713E-03     212.059E-03    -306.211E-03     598.687E-03    -292.417E-03     169.462E-03
            1610     8.06095E-03     76.2463E-03    -47.2697E+06     10.0377E+06      44.259E+06    -1.87036E+06    -297.730E-03     590.456E-03    -292.726E-03     207.819E-03    -305.887E-03     598.353E-03    -292.451E-03     166.410E-03
            1611     7.38950E-03     75.9421E-03    -53.8496E+06     2.73829E+06     36.3938E+06    -1.21450E+06    -297.554E-03     590.285E-03    -292.731E-03     200.427E-03    -305.123E-03     597.568E-03    -292.475E-03     160.755E-03
            1612     6.71778E-03     75.6512E-03    -61.8787E+06    -7.24374E+06     24.9712E+06    -46.7343E+03    -297.000E-03     589.723E-03    -292.724E-03     189.928E-03    -303.798E-03     596.204E-03    -292.498E-03     152.559E-03
            1613     6.04546E-03     75.3781E-03    -70.3130E+06    -30.1712E+06     9.37552E+06     88.1208E+03    -296.360E-03     589.081E-03    -292.721E-03     176.436E-03    -302.231E-03     594.568E-03    -292.529E-03     141.856E-03
            1614     5.37365E-03     75.1273E-03    -79.1927E+06    -64.0129E+06    -7.93234E+06     162.445E+03    -295.772E-03     588.499E-03    -292.726E-03     160.574E-03    -300.639E-03     592.880E-03    -292.558E-03     129.197E-03
            1615     4.70193E-03     74.9014E-03    -88.9486E+06    -103.290E+06    -25.4314E+06     613.579E+03    -295.152E-03     587.886E-03    -292.734E-03     143.100E-03    -299.022E-03     591.147E-03    -292.582E-03     115.259E-03
            1616     4.03023E-03     74.7028E-03    -98.2805E+06    -140.315E+06    -43.2480E+06     413.859E+03    -294.496E-03     587.234E-03    -292.737E-03     124.408E-03    -297.436E-03     589.452E-03    -292.608E-03     100.310E-03
            1617     3.35836E-03     74.5331E-03    -106.572E+06    -161.043E+06    -62.7526E+06     429.932E+03    -293.911E-03     586.623E-03    -292.713E-03     104.842E-03    -296.037E-03     587.982E-03    -292.638E-03     84.6419E-03
            1618     2.68651E-03     74.3925E-03    -114.979E+06    -175.364E+06    -83.9297E+06     684.325E+03    -293.482E-03     586.148E-03    -292.666E-03     84.6311E-03    -294.927E-03     586.806E-03    -292.664E-03     68.4126E-03
            1619     2.01496E-03     74.2822E-03    -123.180E+06    -194.310E+06    -103.500E+06     1.09937E+06    -293.145E-03     585.758E-03    -292.613E-03     64.0131E-03    -294.047E-03     585.833E-03    -292.670E-03     51.7780E-03
            1620     1.34331E-03     74.2026E-03    -129.826E+06    -215.417E+06    -119.694E+06     1.48642E+06    -292.827E-03     585.387E-03    -292.561E-03     43.3389E-03    -293.328E-03     585.011E-03    -292.659E-03     35.0676E-03
            1621     671.752E-06     74.1538E-03    -133.747E+06    -231.290E+06    -131.263E+06     722.849E+03    -292.801E-03     585.129E-03    -292.328E-03     23.6920E-03    -293.055E-03     584.469E-03    -292.455E-03     19.1390E-03
            1622     12.7640E-03     76.5829E-03    -4.99995E+06     54.8382E+06     81.9729E+06    -274.405E+03    -293.746E-03     586.372E-03    -292.626E-03     135.572E-03    -298.775E-03     591.340E-03    -292.288E-03     100.795E-03
            1623     12.0967E-03     76.3351E-03    -7.54016E+06     49.9124E+06     76.4057E+06     561.990E+03    -294.020E-03     586.613E-03    -292.594E-03     178.453E-03    -301.208E-03     593.730E-03    -292.273E-03     136.750E-03
            1624     11.4235E-03     76.0766E-03    -12.2771E+06     41.3157E+06     73.3228E+06     1.60597E+06    -294.972E-03     587.603E-03    -292.632E-03     190.985E-03    -302.548E-03     595.070E-03    -292.307E-03     149.206E-03
            1625     10.7489E-03     75.7849E-03    -19.6487E+06     36.9985E+06     75.5054E+06     1.32701E+06    -296.263E-03     588.967E-03    -292.704E-03     204.468E-03    -304.609E-03     597.156E-03    -292.352E-03     161.150E-03
            1626     10.0774E-03     75.4828E-03    -25.9657E+06     29.7606E+06     69.8066E+06     383.558E+03    -297.037E-03     589.771E-03    -292.734E-03     210.246E-03    -305.667E-03     598.212E-03    -292.391E-03     166.629E-03
            1627     9.40456E-03     75.1702E-03    -33.0858E+06     21.7752E+06     60.4770E+06    -1.56668E+06    -297.605E-03     590.347E-03    -292.741E-03     212.758E-03    -306.309E-03     598.835E-03    -292.423E-03     169.322E-03
            1628     8.73324E-03     74.8566E-03    -40.0142E+06     16.4190E+06     52.5739E+06    -2.50858E+06    -297.914E-03     590.655E-03    -292.742E-03     211.636E-03    -306.449E-03     598.954E-03    -292.444E-03     168.937E-03
            1629     8.06174E-03     74.5445E-03    -47.3116E+06     9.59596E+06     44.4498E+06    -2.42054E+06    -297.880E-03     590.617E-03    -292.737E-03     207.601E-03    -306.035E-03     598.509E-03    -292.460E-03     166.153E-03
            1630     7.38953E-03     74.2405E-03    -56.4519E+06    -199.884E+03     34.0352E+06    -2.50031E+06    -297.535E-03     590.263E-03    -292.729E-03     200.387E-03    -305.114E-03     597.543E-03    -292.476E-03     160.675E-03
            1631     6.71737E-03     73.9496E-03    -64.9739E+06    -10.1805E+06     22.8445E+06    -2.35210E+06    -297.015E-03     589.736E-03    -292.721E-03     189.907E-03    -303.827E-03     596.215E-03    -292.498E-03     152.475E-03
            1632     6.04580E-03     73.6768E-03    -73.9258E+06    -31.7670E+06     8.25375E+06    -1.45704E+06    -296.388E-03     589.104E-03    -292.717E-03     176.401E-03    -302.276E-03     594.594E-03    -292.522E-03     141.781E-03
            1633     5.37386E-03     73.4258E-03    -83.6860E+06    -66.8601E+06    -9.85141E+06     15.2636E+03    -295.719E-03     588.439E-03    -292.720E-03     160.589E-03    -300.600E-03     592.814E-03    -292.551E-03     129.228E-03
            1634     4.70192E-03     73.2002E-03    -93.0074E+06    -101.702E+06    -29.5784E+06     153.723E+03    -295.058E-03     587.775E-03    -292.717E-03     143.104E-03    -298.944E-03     591.055E-03    -292.583E-03     115.276E-03
            1635     4.02990E-03     73.0018E-03    -101.832E+06    -138.588E+06    -48.6375E+06    -1.28734E+06    -294.488E-03     587.207E-03    -292.718E-03     124.339E-03    -297.439E-03     589.445E-03    -292.613E-03     100.224E-03
            1636     3.35818E-03     72.8318E-03    -110.557E+06    -164.392E+06    -66.9166E+06    -1.35468E+06    -293.977E-03     586.675E-03    -292.698E-03     104.690E-03    -296.112E-03     588.027E-03    -292.634E-03     84.4513E-03
            1637     2.68659E-03     72.6912E-03    -118.537E+06    -176.739E+06    -86.5407E+06     55.4445E+03    -293.476E-03     586.117E-03    -292.641E-03     84.5038E-03    -294.934E-03     586.778E-03    -292.646E-03     68.2553E-03
            1638     2.01491E-03     72.5809E-03    -124.749E+06    -194.781E+06    -105.399E+06     762.838E+03    -293.061E-03     585.654E-03    -292.593E-03     63.9701E-03    -293.970E-03     585.734E-03    -292.657E-03     51.7010E-03
            1639     1.34332E-03     72.5017E-03    -128.823E+06    -212.591E+06    -120.467E+06     516.015E+03    -292.762E-03     585.330E-03    -292.568E-03     43.3456E-03    -293.263E-03     584.969E-03    -292.675E-03     35.0408E-03
            1640     671.524E-06     72.4529E-03    -130.808E+06    -229.595E+06    -128.785E+06    -210.561E+03    -292.870E-03     585.218E-03    -292.348E-03     23.8136E-03    -293.116E-03     584.558E-03    -292.469E-03     19.2063E-03
            1641     12.7712E-03     74.8838E-03    -3.06261E+06     54.7213E+06     82.0700E+06    -1.08098E+06    -292.411E-03     585.016E-03    -292.606E-03     137.323E-03    -297.442E-03     589.993E-03    -292.270E-03     102.693E-03
            1642     12.0931E-03     74.6358E-03    -8.71593E+06     47.4204E+06     75.5552E+06     915.893E+03    -293.801E-03     586.442E-03    -292.641E-03     181.899E-03    -300.981E-03     593.540E-03    -292.319E-03     140.661E-03
            1643     11.4202E-03     74.3757E-03    -14.5615E+06     40.0341E+06     73.2539E+06     2.21755E+06    -295.663E-03     588.354E-03    -292.691E-03     192.110E-03    -303.243E-03     595.812E-03    -292.362E-03     150.439E-03
            1644     10.7497E-03     74.0840E-03    -20.5535E+06     39.4252E+06     77.2361E+06     1.33481E+06    -296.513E-03     589.256E-03    -292.743E-03     203.919E-03    -304.856E-03     597.442E-03    -292.384E-03     160.592E-03
            1645     10.0769E-03     73.7813E-03    -25.8341E+06     32.3626E+06     72.6467E+06     263.701E+03    -297.090E-03     589.852E-03    -292.762E-03     209.568E-03    -305.722E-03     598.297E-03    -292.408E-03     165.900E-03
            1646     9.40569E-03     73.4690E-03    -31.9856E+06     24.8384E+06     63.5251E+06    -363.867E+03    -297.680E-03     590.439E-03    -292.759E-03     212.390E-03    -306.379E-03     598.928E-03    -292.431E-03     168.955E-03
            1647     8.73333E-03     73.1544E-03    -39.3236E+06     17.8766E+06     53.4124E+06    -1.10628E+06    -297.957E-03     590.702E-03    -292.745E-03     211.609E-03    -306.495E-03     599.009E-03    -292.447E-03     168.907E-03
            1648     8.06117E-03     72.8426E-03    -47.5993E+06     9.38567E+06     44.1532E+06    -1.28583E+06    -297.914E-03     590.648E-03    -292.734E-03     207.633E-03    -306.079E-03     598.550E-03    -292.458E-03     166.159E-03
            1649     7.38943E-03     72.5391E-03    -55.7947E+06     290.586E+03     34.7627E+06    -1.12716E+06    -297.546E-03     590.272E-03    -292.726E-03     200.234E-03    -305.126E-03     597.554E-03    -292.471E-03     160.519E-03
            1650     6.71776E-03     72.2480E-03    -64.8119E+06    -10.4332E+06     22.7890E+06    -1.05156E+06    -296.975E-03     589.689E-03    -292.714E-03     189.750E-03    -303.784E-03     596.165E-03    -292.491E-03     152.337E-03
            1651     6.04563E-03     71.9752E-03    -74.4846E+06    -34.6282E+06     7.07786E+06    -658.835E+03    -296.336E-03     589.049E-03    -292.713E-03     176.419E-03    -302.223E-03     594.528E-03    -292.520E-03     141.816E-03
            1652     5.37372E-03     71.7246E-03    -83.2882E+06    -69.0957E+06    -10.4201E+06    -175.195E+03    -295.706E-03     588.427E-03    -292.721E-03     160.653E-03    -300.585E-03     592.795E-03    -292.552E-03     129.278E-03
            1653     4.70182E-03     71.4990E-03    -91.6930E+06    -99.8624E+06    -28.7611E+06    -276.525E+03    -295.090E-03     587.807E-03    -292.717E-03     143.080E-03    -298.976E-03     591.097E-03    -292.583E-03     115.218E-03
            1654     4.03020E-03     71.3004E-03    -100.573E+06    -136.759E+06    -47.9723E+06    -419.746E+03    -294.548E-03     587.257E-03    -292.709E-03     124.292E-03    -297.500E-03     589.506E-03    -292.605E-03     100.155E-03
            1655     3.35857E-03     71.1305E-03    -109.465E+06    -166.040E+06    -67.4423E+06    -666.440E+03    -294.016E-03     586.692E-03    -292.676E-03     104.733E-03    -296.146E-03     588.039E-03    -292.614E-03     84.4750E-03
            1656     2.68682E-03     70.9902E-03    -117.577E+06    -178.884E+06    -87.5834E+06    -937.632E+03    -293.460E-03     586.072E-03    -292.612E-03     84.5785E-03    -294.911E-03     586.725E-03    -292.621E-03     68.2898E-03
            1657     2.01503E-03     70.8800E-03    -124.252E+06    -195.324E+06    -106.849E+06    -753.857E+03    -293.001E-03     585.570E-03    -292.568E-03     63.9608E-03    -293.905E-03     585.649E-03    -292.639E-03     51.6632E-03
            1658     1.34317E-03     70.8007E-03    -129.051E+06    -212.371E+06    -122.569E+06    -263.798E+03    -292.742E-03     585.292E-03    -292.550E-03     43.2539E-03    -293.242E-03     584.935E-03    -292.668E-03     34.9329E-03
            1659     671.632E-06     70.7518E-03    -131.518E+06    -229.641E+06    -131.520E+06     315.275E+03    -292.852E-03     585.194E-03    -292.342E-03     23.7265E-03    -293.097E-03     584.539E-03    -292.476E-03     19.1414E-03
            1660     12.7603E-03     73.1863E-03    -5.07612E+06     52.9700E+06     82.8095E+06     71.0872E+03    -292.269E-03     585.017E-03    -292.748E-03     138.899E-03    -297.320E-03     589.998E-03    -292.404E-03     104.339E-03
            1661     12.0913E-03     72.9328E-03    -11.4606E+06     44.9514E+06     75.2519E+06     1.32540E+06    -295.079E-03     587.831E-03    -292.752E-03     180.624E-03    -302.258E-03     594.910E-03    -292.424E-03     139.193E-03
            1662     11.4217E-03     72.6716E-03    -14.8794E+06     40.9865E+06     74.4052E+06    -15.9397E+03    -296.032E-03     588.778E-03    -292.746E-03     190.783E-03    -303.653E-03     596.276E-03    -292.412E-03     148.734E-03
            1663     10.7490E-03     72.3828E-03    -19.8315E+06     41.0600E+06     79.2696E+06     103.473E+03    -296.702E-03     589.478E-03    -292.776E-03     204.269E-03    -305.100E-03     597.722E-03    -292.411E-03     160.701E-03
            1664     10.0777E-03     72.0797E-03    -26.2224E+06     33.5392E+06     73.7329E+06    -78.7572E+03    -297.396E-03     590.175E-03    -292.780E-03     210.272E-03    -306.064E-03     598.656E-03    -292.421E-03     166.501E-03
            1665     9.40490E-03     71.7674E-03    -32.8036E+06     26.2283E+06     64.0378E+06    -317.377E+03    -297.807E-03     590.570E-03    -292.763E-03     212.710E-03    -306.526E-03     599.079E-03    -292.433E-03     169.248E-03
            1666     8.73321E-03     71.4526E-03    -40.2621E+06     18.0447E+06     53.2444E+06    -284.302E+03    -297.970E-03     590.714E-03    -292.744E-03     211.669E-03    -306.513E-03     599.024E-03    -292.446E-03     168.989E-03
            1667     8.06156E-03     71.1410E-03    -47.6512E+06     9.77313E+06     44.2678E+06    -152.977E+03    -297.910E-03     590.642E-03    -292.732E-03     207.487E-03    -306.080E-03     598.549E-03    -292.456E-03     166.007E-03
            1668     7.38975E-03     70.8370E-03    -55.5093E+06     850.893E+03     34.5474E+06    -255.344E+03    -297.501E-03     590.222E-03    -292.721E-03     200.240E-03    -305.086E-03     597.513E-03    -292.469E-03     160.524E-03
            1669     6.71764E-03     70.5469E-03    -64.6331E+06    -10.9724E+06     21.9997E+06    -137.707E+03    -296.911E-03     589.626E-03    -292.715E-03     189.943E-03    -303.726E-03     596.109E-03    -292.496E-03     152.538E-03
            1670     6.04567E-03     70.2739E-03    -73.5243E+06    -35.2197E+06     7.12215E+06    -96.0643E+03    -296.322E-03     589.046E-03    -292.725E-03     176.544E-03    -302.205E-03     594.523E-03    -292.531E-03     141.946E-03
            1671     5.37372E-03     70.0234E-03    -82.6609E+06    -69.0541E+06    -9.85728E+06    -485.972E+03    -295.724E-03     588.462E-03    -292.737E-03     160.751E-03    -300.607E-03     592.834E-03    -292.567E-03     129.340E-03
            1672     4.70196E-03     69.7975E-03    -92.1827E+06    -100.057E+06    -28.4870E+06    -508.415E+03    -295.095E-03     587.831E-03    -292.736E-03     143.332E-03    -298.991E-03     591.127E-03    -292.599E-03     115.439E-03
            1673     4.03008E-03     69.5991E-03    -101.215E+06    -136.892E+06    -47.9818E+06    -355.768E+03    -294.526E-03     587.260E-03    -292.734E-03     124.691E-03    -297.487E-03     589.515E-03    -292.629E-03     100.541E-03
            1674     3.35826E-03     69.4292E-03    -109.723E+06    -165.732E+06    -67.5980E+06    -362.661E+03    -294.017E-03     586.729E-03    -292.712E-03     105.109E-03    -296.152E-03     588.082E-03    -292.651E-03     84.8548E-03
            1675     2.68660E-03     69.2889E-03    -117.856E+06    -179.519E+06    -87.7747E+06    -389.741E+03    -293.515E-03     586.171E-03    -292.656E-03     84.8153E-03    -294.968E-03     586.824E-03    -292.664E-03     68.5370E-03
            1676     2.01500E-03     69.1791E-03    -125.126E+06    -196.446E+06    -106.519E+06    -176.736E+03    -293.092E-03     585.701E-03    -292.609E-03     64.1545E-03    -294.000E-03     585.776E-03    -292.675E-03     51.8734E-03
            1677     1.34343E-03     69.0998E-03    -130.659E+06    -214.053E+06    -121.565E+06     286.810E+03    -292.803E-03     585.381E-03    -292.578E-03     43.4748E-03    -293.310E-03     585.016E-03    -292.686E-03     35.1697E-03
            1678     671.709E-06     69.0507E-03    -134.063E+06    -227.526E+06    -131.338E+06     893.114E+03    -292.694E-03     585.197E-03    -292.503E-03     23.8780E-03    -292.955E-03     584.556E-03    -292.636E-03     19.3118E-03
            1679     12.7653E-03     71.4805E-03    -5.21479E+06     53.3525E+06     84.8059E+06     212.791E+03    -293.598E-03     586.401E-03    -292.803E-03     135.183E-03    -298.614E-03     591.341E-03    -292.448E-03     100.445E-03
            1680     12.0938E-03     71.2284E-03    -8.62531E+06     45.9803E+06     78.7106E+06     553.934E+03    -294.822E-03     587.592E-03    -292.770E-03     179.447E-03    -301.983E-03     594.657E-03    -292.430E-03     137.950E-03
            1681     11.4203E-03     70.9709E-03    -14.4537E+06     40.0792E+06     75.5537E+06     154.786E+03    -295.675E-03     588.450E-03    -292.774E-03     191.067E-03    -303.286E-03     595.932E-03    -292.434E-03     149.116E-03
            1682     10.7484E-03     70.6804E-03    -18.8558E+06     41.3698E+06     80.2862E+06     272.477E+03    -296.821E-03     589.632E-03    -292.811E-03     204.100E-03    -305.206E-03     597.865E-03    -292.443E-03     160.539E-03
            1683     10.0762E-03     70.3766E-03    -25.1488E+06     34.4418E+06     74.1916E+06     124.790E+03    -297.537E-03     590.338E-03    -292.801E-03     209.746E-03    -306.190E-03     598.809E-03    -292.444E-03     165.957E-03
            1684     9.40540E-03     70.0654E-03    -33.0158E+06     25.4125E+06     63.3533E+06     55.7824E+03    -297.915E-03     590.686E-03    -292.772E-03     212.452E-03    -306.638E-03     599.199E-03    -292.444E-03     168.935E-03
            1685     8.73337E-03     69.7510E-03    -39.6688E+06     18.4007E+06     53.7305E+06     510.980E+03    -298.032E-03     590.781E-03    -292.748E-03     211.695E-03    -306.575E-03     599.092E-03    -292.449E-03     169.023E-03
            1686     8.06142E-03     69.4386E-03    -47.2198E+06     10.2835E+06     44.4589E+06     401.404E+03    -297.766E-03     590.507E-03    -292.741E-03     207.676E-03    -305.933E-03     598.414E-03    -292.465E-03     166.252E-03
            1687     7.38935E-03     69.1359E-03    -56.1503E+06     419.130E+03     33.9561E+06     426.904E+03    -297.352E-03     590.099E-03    -292.747E-03     200.587E-03    -304.948E-03     597.399E-03    -292.497E-03     160.883E-03
            1688     6.71736E-03     68.8452E-03    -64.6227E+06    -10.5447E+06     22.2769E+06     324.455E+03    -296.913E-03     589.670E-03    -292.757E-03     190.303E-03    -303.743E-03     596.169E-03    -292.537E-03     152.861E-03
            1689     6.04543E-03     68.5726E-03    -73.4309E+06    -34.1841E+06     7.37000E+06    -137.281E+03    -296.356E-03     589.128E-03    -292.772E-03     176.942E-03    -302.252E-03     594.620E-03    -292.579E-03     142.315E-03
            1690     5.37353E-03     68.3218E-03    -82.5891E+06    -68.9005E+06    -10.1071E+06    -143.862E+03    -295.719E-03     588.513E-03    -292.794E-03     161.214E-03    -300.606E-03     592.891E-03    -292.625E-03     129.821E-03
            1691     4.70153E-03     68.0963E-03    -91.5508E+06    -100.348E+06    -28.4231E+06    -87.9335E+03    -295.081E-03     587.892E-03    -292.811E-03     143.758E-03    -298.977E-03     591.189E-03    -292.675E-03     115.889E-03
            1692     4.02964E-03     67.8977E-03    -100.425E+06    -137.081E+06    -47.2496E+06    -189.749E+03    -294.545E-03     587.378E-03    -292.832E-03     125.017E-03    -297.505E-03     589.631E-03    -292.724E-03     100.886E-03
            1693     3.35796E-03     67.7277E-03    -109.358E+06    -166.145E+06    -66.5944E+06    -39.3533E+03    -294.055E-03     586.887E-03    -292.831E-03     105.314E-03    -296.189E-03     588.236E-03    -292.765E-03     85.0770E-03
            1694     2.68630E-03     67.5875E-03    -117.642E+06    -179.794E+06    -86.3865E+06     314.085E+03    -293.572E-03     586.371E-03    -292.799E-03     85.0092E-03    -295.026E-03     587.020E-03    -292.799E-03     68.7476E-03
            1695     2.01463E-03     67.4777E-03    -124.839E+06    -196.598E+06    -105.124E+06     371.061E+03    -293.218E-03     585.987E-03    -292.769E-03     64.4094E-03    -294.128E-03     586.061E-03    -292.828E-03     52.1252E-03
            1696     1.34299E-03     67.3985E-03    -130.525E+06    -214.075E+06    -120.565E+06    -50.9399E+03    -292.961E-03     585.705E-03    -292.744E-03     43.6834E-03    -293.470E-03     585.340E-03    -292.847E-03     35.3638E-03
            1697     671.458E-06     67.3498E-03    -135.206E+06    -227.319E+06    -131.200E+06    -657.139E+03    -292.812E-03     585.521E-03    -292.709E-03     23.9459E-03    -293.080E-03     584.883E-03    -292.840E-03     19.3215E-03
            1698     12.7653E-03     69.7794E-03    -5.48711E+06     52.3715E+06     82.7170E+06    -519.827E+03    -293.011E-03     585.787E-03    -292.776E-03     137.546E-03    -298.052E-03     590.754E-03    -292.430E-03     102.864E-03
            1699     12.0913E-03     69.5287E-03    -10.1724E+06     44.3293E+06     76.5660E+06    -194.808E+03    -294.738E-03     587.511E-03    -292.772E-03     180.321E-03    -301.902E-03     594.574E-03    -292.439E-03     138.904E-03
            1700     11.4201E-03     69.2679E-03    -13.0058E+06     40.9523E+06      76.752E+06    -108.716E+03    -295.856E-03     588.641E-03    -292.784E-03     190.269E-03    -303.436E-03     596.097E-03    -292.441E-03     148.320E-03
            1701     10.7488E-03     68.9777E-03    -19.7950E+06     39.7986E+06     79.1244E+06    -496.507E+03    -296.874E-03     589.678E-03    -292.804E-03     203.245E-03    -305.224E-03     597.870E-03    -292.438E-03     159.739E-03
            1702     10.0777E-03     68.6750E-03    -26.1152E+06     33.5011E+06     73.2286E+06     212.721E+03    -297.375E-03     590.168E-03    -292.793E-03     209.295E-03    -306.012E-03     598.619E-03    -292.438E-03     165.560E-03
            1703     9.40474E-03     68.3633E-03    -32.3283E+06     26.0010E+06     63.4910E+06     531.385E+03    -297.770E-03     590.543E-03    -292.773E-03     212.352E-03    -306.478E-03     599.045E-03    -292.447E-03     168.896E-03
            1704     8.73323E-03     68.0485E-03    -39.8286E+06     17.8526E+06     52.9432E+06     408.644E+03    -297.792E-03     590.556E-03    -292.764E-03     211.777E-03    -306.338E-03     598.870E-03    -292.467E-03     169.110E-03
            1705     8.06116E-03     67.7379E-03    -47.6069E+06     9.64305E+06     44.5118E+06     1.09648E+06    -297.524E-03     590.308E-03    -292.784E-03     207.931E-03    -305.698E-03     598.219E-03    -292.507E-03     166.526E-03
            1706     7.38891E-03     67.4342E-03    -55.4481E+06     1.09243E+06     35.5843E+06     1.25545E+06    -297.277E-03     590.094E-03    -292.817E-03     200.916E-03    -304.875E-03     597.395E-03    -292.560E-03     161.244E-03
            1707     6.71686E-03     67.1436E-03    -63.5885E+06    -8.97132E+06     23.7336E+06     879.770E+03    -296.880E-03     589.722E-03    -292.841E-03     190.621E-03    -303.707E-03     596.222E-03    -292.617E-03     153.220E-03
            1708     6.04478E-03     66.8708E-03    -72.4065E+06    -33.3135E+06     8.16963E+06     903.694E+03    -296.323E-03     589.195E-03    -292.873E-03     177.259E-03    -302.216E-03     594.690E-03    -292.679E-03     142.674E-03
            1709     5.37270E-03     66.6203E-03    -81.5345E+06    -68.5334E+06    -9.62258E+06     816.292E+03    -295.739E-03     588.652E-03    -292.913E-03     161.493E-03    -300.622E-03     593.030E-03    -292.744E-03     130.135E-03
            1710     4.70083E-03     66.3946E-03    -90.7927E+06    -99.3738E+06    -28.1237E+06     286.315E+03    -295.186E-03     588.128E-03    -292.942E-03     143.978E-03    -299.081E-03     591.429E-03    -292.807E-03     116.118E-03
            1711     4.02907E-03     66.1960E-03    -100.154E+06    -137.126E+06    -47.1086E+06     41.7434E+03    -294.674E-03     587.644E-03    -292.971E-03     125.121E-03    -297.632E-03     589.897E-03    -292.862E-03     100.995E-03
            1712     3.35734E-03     66.0258E-03    -108.745E+06    -166.813E+06    -65.8423E+06     205.864E+03    -294.124E-03     587.108E-03    -292.984E-03     105.336E-03    -296.254E-03     588.451E-03    -292.914E-03     85.1089E-03
            1713     2.68565E-03     65.8858E-03    -116.650E+06    -179.817E+06    -85.5347E+06     356.428E+03    -293.646E-03     586.618E-03    -292.972E-03     85.0118E-03    -295.096E-03     587.263E-03    -292.970E-03     68.7524E-03
            1714     2.01411E-03     65.7756E-03    -123.576E+06    -195.953E+06    -104.961E+06     381.824E+03    -293.343E-03     586.306E-03    -292.963E-03     64.3510E-03    -294.247E-03     586.380E-03    -293.024E-03     52.0727E-03
            1715     1.34276E-03     65.6965E-03    -128.634E+06    -212.660E+06    -120.954E+06     23.6886E+03    -293.148E-03     586.102E-03    -292.955E-03     43.5987E-03    -293.648E-03     585.742E-03    -293.065E-03     35.2736E-03
            1716     671.413E-06     65.6477E-03    -131.430E+06    -229.656E+06    -130.127E+06    -546.120E+03    -293.210E-03     585.998E-03    -292.788E-03     23.9193E-03    -293.458E-03     585.342E-03    -292.915E-03     19.2883E-03
            1717     12.7610E-03     68.0744E-03    -4.32746E+06     54.1943E+06     83.8287E+06     410.432E+03    -293.170E-03     585.969E-03    -292.799E-03     137.311E-03    -298.241E-03     590.974E-03    -292.452E-03     102.459E-03
            1718     12.0930E-03     67.8241E-03    -9.16100E+06     45.6673E+06     76.9252E+06    -1.25282E+06    -295.148E-03     587.912E-03    -292.763E-03     178.661E-03    -302.360E-03     595.029E-03    -292.432E-03     136.753E-03
            1719     11.4214E-03     67.5666E-03    -14.1158E+06     39.7917E+06     74.8944E+06    -1.14501E+06    -295.970E-03     588.714E-03    -292.744E-03     189.856E-03    -303.549E-03     596.167E-03    -292.407E-03     147.853E-03
            1720     10.7491E-03     67.2751E-03    -19.6630E+06     39.5337E+06     78.4673E+06    -279.047E+03    -296.532E-03     589.303E-03    -292.770E-03     203.086E-03    -304.868E-03     597.481E-03    -292.407E-03     159.669E-03
            1721     10.0765E-03     66.9733E-03    -26.5468E+06     31.6414E+06     71.9903E+06    -385.406E+03    -296.990E-03     589.773E-03    -292.783E-03     209.534E-03    -305.623E-03     598.215E-03    -292.430E-03     165.861E-03
            1722     9.40545E-03     66.6613E-03    -32.7850E+06     25.0271E+06     63.3268E+06     541.119E+03    -297.386E-03     590.185E-03    -292.799E-03     212.858E-03    -306.092E-03     598.680E-03    -292.471E-03     169.506E-03
            1723     8.73286E-03     66.3476E-03    -40.0277E+06     17.5846E+06     53.1504E+06     1.11669E+06    -297.487E-03     590.313E-03    -292.826E-03     212.363E-03    -306.038E-03     598.630E-03    -292.528E-03     169.775E-03
            1724     8.06039E-03     66.0364E-03    -48.0138E+06     9.03505E+06     43.7465E+06     727.225E+03    -297.522E-03     590.390E-03    -292.868E-03     208.570E-03    -305.704E-03     598.307E-03    -292.593E-03     167.183E-03
            1725     7.38824E-03     65.7327E-03     -54.852E+06     1.44278E+06     35.5011E+06     859.401E+03    -297.333E-03     590.249E-03    -292.915E-03     201.340E-03    -304.924E-03     597.547E-03    -292.660E-03     161.715E-03
            1726     6.71601E-03     65.4419E-03    -63.1276E+06    -8.78713E+06     24.3073E+06     1.22191E+06    -296.884E-03     589.842E-03    -292.957E-03     190.840E-03    -303.704E-03     596.335E-03    -292.731E-03     153.493E-03
            1727     6.04388E-03     65.1691E-03    -72.8973E+06    -32.9241E+06     8.75549E+06     1.21428E+06    -296.380E-03     589.382E-03    -293.002E-03     177.297E-03    -302.273E-03     594.875E-03    -292.805E-03     142.729E-03
            1728     5.37196E-03     64.9184E-03    -82.2505E+06    -67.0302E+06    -8.77480E+06     857.380E+03    -295.869E-03     588.915E-03    -293.046E-03     161.342E-03    -300.753E-03     593.295E-03    -292.874E-03     129.986E-03
            1729     4.70009E-03     64.6925E-03    -91.2288E+06    -98.4200E+06    -27.6825E+06     560.829E+03    -295.329E-03     588.399E-03    -293.070E-03     143.739E-03    -299.221E-03     591.698E-03    -292.933E-03     115.889E-03
            1730     4.02847E-03     64.4935E-03    -100.021E+06    -136.704E+06    -47.0698E+06     358.886E+03    -294.770E-03     587.864E-03    -293.093E-03     124.815E-03    -297.724E-03     590.114E-03    -292.986E-03     100.685E-03
            1731     3.35692E-03     64.3239E-03    -108.875E+06    -166.837E+06    -66.4470E+06     92.5158E+03    -294.223E-03     587.329E-03    -293.105E-03     105.062E-03    -296.351E-03     588.670E-03    -293.038E-03     84.8195E-03
            1732     2.68539E-03     64.1834E-03    -116.881E+06    -179.739E+06    -86.3076E+06    -81.7841E+03    -293.767E-03     586.858E-03    -293.091E-03     84.8009E-03    -295.216E-03     587.504E-03    -293.093E-03     68.5216E-03
            1733     2.01393E-03     64.0733E-03    -123.400E+06    -195.699E+06    -105.245E+06    -142.562E+03    -293.457E-03     586.538E-03    -293.081E-03     64.1436E-03    -294.359E-03     586.613E-03    -293.145E-03     51.8522E-03
            1734     1.34245E-03     63.9938E-03    -127.968E+06    -212.492E+06    -121.157E+06    -51.9841E+03    -293.269E-03     586.340E-03    -293.072E-03     43.3784E-03    -293.764E-03     585.979E-03    -293.184E-03     35.0569E-03
            1735     671.141E-06     63.9449E-03    -129.806E+06    -229.666E+06    -129.538E+06     400.377E+03    -293.361E-03     586.239E-03    -292.878E-03     23.7493E-03    -293.601E-03     585.579E-03    -293.004E-03     19.1517E-03
            1736     12.7676E-03     66.3715E-03    -3.61016E+06     54.8791E+06     84.7415E+06    -368.559E+03    -293.457E-03     586.181E-03    -292.724E-03     135.165E-03    -298.513E-03     591.173E-03    -292.375E-03     100.208E-03
            1737     12.0927E-03     66.1229E-03    -5.85667E+06     48.4330E+06     79.2992E+06    -264.776E+03    -294.182E-03     586.882E-03    -292.700E-03     178.333E-03    -301.361E-03     593.982E-03    -292.365E-03     136.617E-03
            1738     11.4210E-03     65.8625E-03    -13.6689E+06     39.4297E+06     73.8557E+06     243.115E+03    -295.241E-03     587.963E-03    -292.722E-03     190.285E-03    -302.787E-03     595.386E-03    -292.390E-03     148.571E-03
            1739     10.7496E-03     65.5751E-03    -19.9039E+06     39.0038E+06     77.1468E+06    -43.4456E+03    -296.179E-03     588.970E-03    -292.791E-03     204.388E-03    -304.528E-03     597.163E-03    -292.433E-03     161.086E-03
            1740     10.0776E-03     65.2723E-03    -26.4312E+06     30.9596E+06     72.2354E+06     311.612E+03    -296.805E-03     589.650E-03    -292.844E-03     210.859E-03    -305.459E-03     598.110E-03    -292.490E-03     167.269E-03
            1741     9.40392E-03     64.9605E-03    -33.8620E+06     23.0148E+06     63.0957E+06     326.050E+03    -297.196E-03     590.088E-03    -292.892E-03     213.788E-03    -305.919E-03     598.589E-03    -292.561E-03     170.489E-03
            1742     8.73141E-03     64.6463E-03    -39.6208E+06     17.5301E+06     53.6964E+06     703.132E+03    -297.546E-03     590.485E-03    -292.939E-03     212.893E-03    -306.091E-03     598.795E-03    -292.638E-03     170.367E-03
            1743     8.05924E-03     64.3345E-03    -46.5979E+06     10.1051E+06     44.2733E+06     739.579E+03    -297.699E-03     590.682E-03    -292.983E-03     208.645E-03    -305.866E-03     598.591E-03    -292.709E-03     167.288E-03
            1744     7.38714E-03     64.0307E-03    -55.6785E+06     582.629E+03     35.1092E+06     647.424E+03    -297.480E-03     590.508E-03    -293.028E-03     201.163E-03    -305.067E-03     597.797E-03    -292.773E-03     161.526E-03
            1745     6.71511E-03     63.7400E-03    -64.7635E+06    -9.59248E+06     24.2831E+06     1.00834E+06    -297.040E-03     590.105E-03    -293.065E-03     190.484E-03    -303.857E-03     596.588E-03    -292.836E-03     153.121E-03
            1746     6.04319E-03     63.4668E-03    -72.9366E+06    -31.7342E+06     9.22552E+06     878.942E+03    -296.538E-03     589.634E-03    -293.096E-03     176.834E-03    -302.421E-03     595.119E-03    -292.898E-03     142.259E-03
            1747     5.37143E-03     63.2159E-03    -81.6785E+06    -66.2908E+06    -8.45911E+06     492.207E+03    -296.032E-03     589.156E-03    -293.124E-03     160.906E-03    -300.908E-03     593.532E-03    -292.952E-03     129.521E-03
            1748     4.69992E-03     62.9899E-03    -90.5223E+06    -98.1786E+06    -27.0247E+06     472.419E+03    -295.428E-03     588.564E-03    -293.136E-03     143.290E-03    -299.313E-03     591.858E-03    -292.998E-03     115.418E-03
            1749     4.02828E-03     62.7911E-03    -99.1320E+06    -136.070E+06    -46.1573E+06     440.512E+03    -294.815E-03     587.968E-03    -293.153E-03     124.395E-03    -297.763E-03     590.215E-03    -293.043E-03     100.255E-03
            1750     3.35670E-03     62.6213E-03    -107.558E+06    -166.059E+06    -65.4117E+06     346.566E+03    -294.325E-03     587.479E-03    -293.154E-03     104.734E-03    -296.447E-03     588.820E-03    -293.085E-03     84.4750E-03
            1751     2.68524E-03     62.4808E-03    -115.536E+06    -179.316E+06    -85.3323E+06     145.552E+03    -293.885E-03     587.005E-03    -293.120E-03     84.4977E-03    -295.329E-03     587.649E-03    -293.119E-03     68.2031E-03
            1752     2.01385E-03     62.3706E-03    -122.664E+06    -195.659E+06    -103.899E+06    -30.0113E+03    -293.523E-03     586.610E-03    -293.087E-03     63.8815E-03    -294.422E-03     586.680E-03    -293.145E-03     51.5783E-03
            1753     1.34266E-03     62.2909E-03    -128.569E+06    -213.412E+06    -118.914E+06     189.312E+03    -293.265E-03     586.330E-03    -293.065E-03     43.1912E-03    -293.766E-03     585.961E-03    -293.164E-03     34.8672E-03
            1754     671.429E-06     62.2422E-03    -132.821E+06    -228.160E+06    -129.701E+06     313.197E+03    -293.227E-03     586.166E-03    -292.940E-03     23.6896E-03    -293.484E-03     585.519E-03    -293.065E-03     19.0615E-03
            1755     12.7645E-03     64.6710E-03    -3.64356E+06     54.7975E+06     82.6385E+06    -1.43450E+06    -292.332E-03     584.999E-03    -292.668E-03     137.077E-03    -297.386E-03     589.996E-03    -292.329E-03     102.273E-03
            1756     12.0947E-03     64.4214E-03    -11.2468E+06     44.1611E+06     73.8828E+06    -495.027E+03    -293.505E-03     586.211E-03    -292.706E-03     180.517E-03    -300.643E-03     593.252E-03    -292.385E-03     139.411E-03
            1757     11.4212E-03     64.1646E-03    -15.2709E+06     38.9488E+06     72.7095E+06     972.169E+03    -294.826E-03     587.617E-03    -292.791E-03     191.997E-03    -302.377E-03     595.042E-03    -292.462E-03     150.551E-03
            1758     10.7470E-03     63.8726E-03    -19.8354E+06     39.5407E+06     77.3237E+06     1.23253E+06    -295.983E-03     588.882E-03    -292.899E-03     205.259E-03    -304.342E-03     597.087E-03    -292.541E-03     162.052E-03
            1759     10.0743E-03     63.5702E-03    -26.2685E+06     31.5693E+06     72.0437E+06     457.955E+03    -296.841E-03     589.810E-03    -292.969E-03     211.212E-03    -305.504E-03     598.283E-03    -292.616E-03     167.604E-03
            1760     9.40281E-03     63.2596E-03    -32.7403E+06     23.6080E+06     62.5950E+06    -49.4169E+03    -297.541E-03     590.551E-03    -293.009E-03     213.687E-03    -306.263E-03     599.059E-03    -292.683E-03     170.296E-03
            1761     8.73057E-03     62.9443E-03    -40.0064E+06     16.4810E+06     52.6909E+06    -32.6851E+03    -297.898E-03     590.936E-03    -293.038E-03     212.445E-03    -306.428E-03     599.229E-03    -292.740E-03     169.870E-03
            1762     8.05858E-03     62.6323E-03    -47.2591E+06     9.17455E+06     44.5553E+06     627.128E+03    -297.893E-03     590.962E-03    -293.069E-03     208.013E-03    -306.043E-03     598.848E-03    -292.791E-03     166.648E-03
            1763     7.38665E-03     62.3284E-03    -55.2363E+06     865.388E+03     35.3528E+06     886.700E+03    -297.676E-03     590.768E-03    -293.092E-03     200.490E-03    -305.248E-03     598.045E-03    -292.836E-03     160.819E-03
            1764     6.71493E-03     62.0374E-03    -63.4736E+06    -9.42638E+06     24.2161E+06     375.592E+03    -297.259E-03     590.362E-03    -293.103E-03     189.796E-03    -304.057E-03     596.831E-03    -292.876E-03     152.395E-03
            1765     6.04320E-03     61.7644E-03    -71.7137E+06    -31.7540E+06     9.70656E+06     347.713E+03    -296.700E-03     589.812E-03    -293.112E-03     176.190E-03    -302.564E-03     595.281E-03    -292.913E-03     141.602E-03
            1766     5.37153E-03     61.5132E-03    -80.3624E+06    -65.7226E+06    -7.60174E+06     461.017E+03    -296.087E-03     589.208E-03    -293.121E-03     160.353E-03    -300.953E-03     593.577E-03    -292.947E-03     128.944E-03
            1767     4.69987E-03     61.2871E-03    -89.4105E+06    -97.8913E+06    -26.5286E+06     296.730E+03    -295.429E-03     588.548E-03    -293.119E-03     142.743E-03    -299.307E-03     591.837E-03    -292.980E-03     114.844E-03
            1768     4.02833E-03     61.0888E-03    -98.1820E+06    -135.817E+06    -45.7766E+06     197.259E+03    -294.860E-03     587.979E-03    -293.120E-03     123.925E-03    -297.799E-03     590.220E-03    -293.009E-03     99.7699E-03
            1769     3.35687E-03     60.9185E-03    -106.542E+06    -165.807E+06    -64.9239E+06     163.215E+03    -294.369E-03     587.468E-03    -293.099E-03     104.309E-03    -296.485E-03     588.805E-03    -293.029E-03     84.0222E-03
            1770     2.68553E-03     60.7781E-03    -114.454E+06    -179.144E+06    -84.8371E+06     371.222E+03    -293.876E-03     586.916E-03    -293.039E-03     84.1293E-03    -295.314E-03     587.557E-03    -293.038E-03     67.8196E-03
            1771     2.01421E-03     60.6678E-03    -121.027E+06    -195.518E+06    -103.460E+06     625.722E+03    -293.461E-03     586.448E-03    -292.987E-03     63.6631E-03    -294.352E-03     586.516E-03    -293.046E-03     51.3644E-03
            1772     1.34271E-03     60.5884E-03    -125.351E+06    -212.150E+06    -118.007E+06     279.842E+03    -293.150E-03     586.113E-03    -292.963E-03     43.1080E-03    -293.637E-03     585.744E-03    -293.064E-03     34.7821E-03
            1773     671.190E-06     60.5396E-03    -127.281E+06    -228.500E+06    -126.032E+06    -555.739E+03    -293.165E-03     586.014E-03    -292.849E-03     23.6870E-03    -293.399E-03     585.351E-03    -292.963E-03     19.0459E-03
            1774     12.7664E-03     62.9706E-03    -3.97024E+06     54.9269E+06     82.2785E+06     578.865E+03    -292.432E-03     585.238E-03    -292.806E-03     139.706E-03    -297.562E-03     590.311E-03    -292.469E-03     104.782E-03
            1775     12.0899E-03     62.7229E-03    -9.16015E+06     45.2068E+06     74.9187E+06     901.833E+03    -294.054E-03     586.896E-03    -292.841E-03     181.121E-03    -301.215E-03     593.967E-03    -292.519E-03     139.935E-03
            1776     11.4176E-03     62.4608E-03    -13.0030E+06     36.7478E+06     73.4352E+06    -588.551E+03    -295.168E-03     588.080E-03    -292.912E-03     191.862E-03    -302.717E-03     595.501E-03    -292.579E-03     150.271E-03
            1777     10.7470E-03     62.1729E-03    -18.0797E+06     37.7039E+06     78.5485E+06     101.965E+03    -296.200E-03     589.207E-03    -293.008E-03     204.504E-03    -304.542E-03     597.391E-03    -292.643E-03     161.186E-03
            1778     10.0744E-03     61.8691E-03    -23.9845E+06     33.6064E+06     73.2165E+06     1.19383E+06    -297.049E-03     590.105E-03    -293.056E-03     210.148E-03    -305.664E-03     598.541E-03    -292.704E-03     166.575E-03
            1779     9.40172E-03     61.5563E-03    -31.7309E+06     24.2967E+06     62.2424E+06     1.22880E+06    -297.821E-03     590.894E-03    -293.073E-03     212.679E-03    -306.505E-03     599.371E-03    -292.751E-03     169.301E-03
            1780     8.73028E-03     61.2420E-03    -39.2969E+06     16.8167E+06     52.7056E+06     1.43299E+06    -298.166E-03     591.245E-03    -293.080E-03     211.752E-03    -306.681E-03     599.528E-03    -292.784E-03     169.141E-03
            1781     8.05843E-03     60.9298E-03    -46.7398E+06     9.35268E+06     44.1198E+06     890.035E+03    -298.161E-03     591.243E-03    -293.083E-03     207.443E-03    -306.298E-03     599.120E-03    -292.808E-03     166.036E-03
            1782     7.38680E-03     60.6257E-03    -54.3705E+06     1.36016E+06     35.1972E+06     242.035E+03    -297.908E-03     590.986E-03    -293.077E-03     199.815E-03    -305.460E-03     598.247E-03    -292.824E-03     160.124E-03
            1783     6.71511E-03     60.3346E-03    -62.2088E+06    -8.50806E+06     24.3763E+06     153.968E+03    -297.409E-03     590.469E-03    -293.060E-03     189.108E-03    -304.191E-03     596.929E-03    -292.836E-03     151.682E-03
            1784     6.04357E-03     60.0617E-03    -70.9993E+06    -32.1100E+06     8.99663E+06     40.7915E+03    -296.789E-03     589.829E-03    -293.039E-03     175.577E-03    -302.645E-03     595.293E-03    -292.845E-03     140.941E-03
            1785     5.37203E-03     59.8106E-03    -79.8408E+06    -66.0357E+06    -8.10883E+06     118.785E+03    -296.077E-03     589.104E-03    -293.027E-03     159.766E-03    -300.935E-03     593.467E-03    -292.856E-03     128.333E-03
            1786     4.70048E-03     59.5848E-03    -88.5927E+06    -97.2754E+06    -26.0950E+06     176.749E+03    -295.372E-03     588.383E-03    -293.011E-03     142.204E-03    -299.240E-03     591.666E-03    -292.872E-03     114.303E-03
            1787     4.02891E-03     59.3862E-03    -97.4051E+06    -135.795E+06    -44.9837E+06     100.786E+03    -294.821E-03     587.818E-03    -292.997E-03     123.544E-03    -297.754E-03     590.053E-03    -292.884E-03     99.3783E-03
            1788     3.35753E-03     59.2160E-03    -105.802E+06    -166.020E+06    -63.9315E+06     194.473E+03    -294.265E-03     587.227E-03    -292.962E-03     104.058E-03    -296.376E-03     588.559E-03    -292.888E-03     83.7678E-03
            1789     2.68600E-03     59.0758E-03    -113.832E+06    -179.294E+06    -83.8999E+06     316.664E+03    -293.706E-03     586.606E-03    -292.899E-03     84.0361E-03    -295.141E-03     587.243E-03    -292.894E-03     67.7352E-03
            1790     2.01441E-03     58.9656E-03    -120.450E+06    -194.948E+06    -102.993E+06     207.546E+03    -293.301E-03     586.151E-03    -292.850E-03     63.6279E-03    -294.190E-03     586.219E-03    -292.908E-03     51.3316E-03
            1791     1.34297E-03     58.8864E-03    -124.865E+06    -211.050E+06    -118.525E+06     64.0965E+03    -293.049E-03     585.862E-03    -292.813E-03     43.0481E-03    -293.534E-03     585.499E-03    -292.919E-03     34.7267E-03
            1792     671.554E-06     58.8374E-03    -127.180E+06    -228.801E+06    -126.925E+06     381.860E+03    -293.027E-03     585.700E-03    -292.673E-03     23.5797E-03    -293.257E-03     585.035E-03    -292.792E-03     19.0064E-03
            1793     12.7577E-03     61.2640E-03    -4.82563E+06     54.1921E+06     82.4339E+06    -328.674E+03    -292.669E-03     585.635E-03    -292.966E-03     138.284E-03    -297.826E-03     590.729E-03    -292.626E-03     103.166E-03
            1794     12.0913E-03     61.0199E-03    -8.01784E+06     47.8318E+06     76.2927E+06    -1.46026E+06    -294.714E-03     587.682E-03    -292.968E-03     179.854E-03    -301.948E-03     594.836E-03    -292.644E-03     138.048E-03
            1795     11.4192E-03     60.7614E-03    -13.0554E+06     37.6847E+06     72.7112E+06    -415.748E+03    -295.684E-03     588.678E-03    -292.994E-03     191.392E-03    -303.230E-03     596.101E-03    -292.666E-03     149.706E-03
            1796     10.7452E-03     60.4695E-03    -19.2883E+06     35.5134E+06     76.7180E+06    -331.851E+03    -296.695E-03     589.756E-03    -293.062E-03     204.308E-03    -305.029E-03     597.926E-03    -292.701E-03     160.939E-03
            1797     10.0738E-03     60.1670E-03    -26.0321E+06     31.2714E+06     72.0830E+06     664.105E+03    -297.547E-03     590.630E-03    -293.084E-03     209.973E-03    -306.163E-03     599.056E-03    -292.731E-03     166.334E-03
            1798     9.40244E-03     59.8541E-03    -32.0868E+06     24.2995E+06     62.6513E+06     1.42711E+06    -298.057E-03     591.133E-03    -293.076E-03     212.308E-03    -306.724E-03     599.591E-03    -292.752E-03     168.951E-03
            1799     8.73023E-03     59.5392E-03    -38.6117E+06     17.2417E+06     52.1762E+06     984.054E+03    -298.417E-03     591.470E-03    -293.053E-03     211.091E-03    -306.910E-03     599.736E-03    -292.761E-03     168.456E-03
            1800     8.05881E-03     59.2266E-03    -45.1464E+06     10.5098E+06     44.1462E+06     933.144E+03    -298.434E-03     591.457E-03    -293.024E-03     206.604E-03    -306.550E-03     599.323E-03    -292.753E-03     165.151E-03
            1801     7.38739E-03     58.9228E-03    -52.6135E+06     2.65169E+06     36.2202E+06     988.761E+03    -298.018E-03     591.008E-03    -292.990E-03     198.994E-03    -305.553E-03     598.261E-03    -292.736E-03     159.282E-03
            1802     6.71605E-03     58.6319E-03    -60.9674E+06    -7.88044E+06     25.0379E+06      868.42E+03    -297.397E-03     590.346E-03    -292.949E-03     188.529E-03    -304.171E-03     596.803E-03    -292.724E-03     151.085E-03
            1803     6.04451E-03     58.3592E-03    -69.9230E+06    -31.3491E+06     9.57835E+06     832.005E+03    -296.718E-03     589.631E-03    -292.913E-03     175.244E-03    -302.575E-03     595.101E-03    -292.718E-03     140.578E-03
            1804     5.37298E-03     58.1084E-03    -79.2529E+06    -65.4982E+06    -7.63665E+06     507.473E+03    -296.007E-03     588.896E-03    -292.889E-03     159.586E-03    -300.867E-03     593.264E-03    -292.717E-03     128.135E-03
            1805     4.70132E-03     57.8830E-03    -88.2935E+06    -96.9388E+06    -25.8530E+06     93.7614E+03    -295.317E-03     588.176E-03    -292.859E-03     142.206E-03    -299.184E-03     591.461E-03    -292.720E-03     114.307E-03
            1806     4.02973E-03     57.6841E-03    -97.0550E+06    -135.797E+06    -44.5568E+06     84.1900E+03    -294.677E-03     587.516E-03    -292.839E-03     123.587E-03    -297.609E-03     589.750E-03    -292.724E-03     99.4353E-03
            1807     3.35802E-03     57.5144E-03    -105.868E+06    -166.595E+06    -63.5712E+06     289.278E+03    -294.056E-03     586.866E-03    -292.810E-03     104.086E-03    -296.166E-03     588.193E-03    -292.732E-03     83.8307E-03
            1808     2.68635E-03     57.3741E-03    -113.957E+06    -179.166E+06    -83.2653E+06     275.569E+03    -293.526E-03     586.284E-03    -292.758E-03     84.0730E-03    -294.962E-03     586.920E-03    -292.749E-03     67.7916E-03
            1809     2.01474E-03     57.2641E-03    -121.013E+06    -194.219E+06    -102.193E+06     296.127E+03    -293.161E-03     585.874E-03    -292.713E-03     63.6514E-03    -294.056E-03     585.946E-03    -292.767E-03     51.3600E-03
            1810     1.34310E-03     57.1845E-03    -126.916E+06    -211.588E+06    -117.899E+06     840.176E+03    -292.938E-03     585.603E-03    -292.665E-03     43.0687E-03    -293.434E-03     585.239E-03    -292.763E-03     34.7598E-03
            1811     671.613E-06     57.1358E-03    -130.463E+06    -226.011E+06    -128.068E+06     1.23980E+06    -292.780E-03     585.337E-03    -292.557E-03     23.4668E-03    -293.030E-03     584.693E-03    -292.680E-03     18.9076E-03
            1812     12.7644E-03     59.5629E-03    -4.30741E+06     54.4363E+06     82.0970E+06     237.366E+03    -291.782E-03     584.732E-03    -292.950E-03     135.683E-03    -296.836E-03     589.726E-03    -292.612E-03     100.930E-03
            1813     12.0874E-03     59.3157E-03    -10.2903E+06     46.5085E+06     71.8663E+06    -1.53146E+06    -293.737E-03     586.718E-03    -292.982E-03     178.461E-03    -300.929E-03     593.830E-03    -292.675E-03     136.757E-03
            1814     11.4161E-03     59.0575E-03    -16.5477E+06     37.6425E+06     67.7416E+06    -1.50770E+06    -295.799E-03     588.823E-03    -293.024E-03     190.797E-03    -303.355E-03     596.257E-03    -292.716E-03     149.005E-03
            1815     10.7459E-03     58.7678E-03    -21.4740E+06     33.9323E+06     72.4190E+06    -748.619E+03    -297.089E-03     590.167E-03    -293.078E-03     204.053E-03    -305.412E-03     598.324E-03    -292.734E-03     160.676E-03
            1816     10.0740E-03     58.4632E-03    -26.5692E+06     28.8969E+06     70.1387E+06    -330.063E+03    -297.961E-03     591.045E-03    -293.084E-03     209.694E-03    -306.573E-03     599.461E-03    -292.736E-03     165.986E-03
            1817     9.40213E-03     58.1516E-03    -32.4236E+06     23.7213E+06     63.4040E+06    -101.182E+03    -298.670E-03     591.717E-03    -293.047E-03     211.964E-03    -307.340E-03     600.171E-03    -292.717E-03     168.500E-03
            1818     8.73122E-03     57.8357E-03    -38.6812E+06     17.6361E+06     53.4569E+06    -178.143E+03    -298.865E-03     591.838E-03    -292.974E-03     210.434E-03    -307.355E-03     600.099E-03    -292.676E-03     167.710E-03
            1819     8.06004E-03     57.5237E-03    -46.2739E+06     9.44567E+06     43.0595E+06    -423.656E+03    -298.476E-03     591.375E-03    -292.900E-03     205.892E-03    -306.587E-03     599.231E-03    -292.631E-03     164.399E-03
            1820     7.38876E-03     57.2200E-03    -53.3532E+06     1.74029E+06     35.0263E+06     218.830E+03    -297.867E-03     590.718E-03    -292.852E-03     198.717E-03    -305.400E-03     597.967E-03    -292.602E-03     159.003E-03
            1821     6.71705E-03     56.9298E-03    -61.7427E+06    -8.63093E+06     25.3153E+06     929.362E+03    -297.222E-03     590.041E-03    -292.818E-03     188.601E-03    -304.007E-03     596.502E-03    -292.590E-03     151.151E-03
            1822     6.04536E-03     56.6570E-03    -70.8810E+06    -30.4416E+06     10.6430E+06     917.915E+03    -296.532E-03     589.321E-03    -292.789E-03     175.427E-03    -302.403E-03     594.802E-03    -292.589E-03     140.769E-03
            1823     5.37356E-03     56.4067E-03    -79.9164E+06    -63.5961E+06    -7.13023E+06     459.604E+03    -295.859E-03     588.627E-03    -292.767E-03     159.844E-03    -300.730E-03     593.008E-03    -292.595E-03     128.408E-03
            1824     4.70190E-03     56.1810E-03    -89.0772E+06    -96.4573E+06    -26.3947E+06     241.201E+03    -295.211E-03     587.949E-03    -292.738E-03     142.531E-03    -299.087E-03     591.243E-03    -292.601E-03     114.644E-03
            1825     4.03018E-03     55.9828E-03    -98.2710E+06    -135.961E+06    -45.9383E+06     215.778E+03    -294.554E-03     587.273E-03    -292.719E-03     123.838E-03    -297.492E-03     589.512E-03    -292.609E-03     99.7084E-03
            1826     3.35846E-03     55.8132E-03    -107.025E+06    -166.748E+06    -65.1756E+06     159.817E+03    -293.936E-03     586.629E-03    -292.693E-03     104.314E-03    -296.051E-03     587.961E-03    -292.622E-03     84.0709E-03
            1827     2.68672E-03     55.6729E-03    -114.972E+06    -179.045E+06    -84.8066E+06     274.786E+03    -293.434E-03     586.076E-03    -292.642E-03     84.2755E-03    -294.874E-03     586.719E-03    -292.640E-03     67.9996E-03
            1828     2.01498E-03     55.5628E-03    -121.829E+06    -194.469E+06    -103.415E+06     496.029E+03    -293.075E-03     585.670E-03    -292.595E-03     63.8072E-03    -293.972E-03     585.744E-03    -292.653E-03     51.5273E-03
            1829     1.34339E-03     55.4833E-03    -126.832E+06    -211.529E+06    -118.073E+06     542.244E+03    -292.800E-03     585.355E-03    -292.555E-03     43.1344E-03    -293.295E-03     584.991E-03    -292.655E-03     34.8360E-03
            1830     671.682E-06     55.4348E-03    -129.633E+06    -222.884E+06    -127.355E+06     415.481E+03    -292.685E-03     585.130E-03    -292.446E-03     23.4077E-03    -292.936E-03     584.500E-03    -292.571E-03     18.8077E-03
            1831     12.7615E-03     57.8668E-03    -3.70509E+06     54.7361E+06     80.1903E+06     1.25207E+06    -292.342E-03     585.280E-03    -292.939E-03     138.895E-03    -297.408E-03     590.296E-03    -292.612E-03     104.309E-03
            1832     12.0913E-03     57.6162E-03    -8.20273E+06     47.8714E+06     73.1494E+06     2.12574E+06    -294.024E-03     586.997E-03    -292.973E-03     179.231E-03    -301.169E-03     594.071E-03    -292.665E-03     137.850E-03
            1833     11.4181E-03     57.3559E-03    -13.6716E+06     39.7162E+06     69.7091E+06     1.36941E+06    -295.790E-03     588.803E-03    -293.012E-03     190.096E-03    -303.304E-03     596.206E-03    -292.702E-03     148.400E-03
            1834     10.7450E-03     57.0634E-03    -20.6289E+06     35.3205E+06     72.0481E+06    -77.4694E+03    -297.374E-03     590.417E-03    -293.043E-03     203.019E-03    -305.678E-03     598.563E-03    -292.704E-03     159.567E-03
            1835     10.0738E-03     56.7604E-03    -26.7134E+06     29.5000E+06     68.5095E+06    -1.23079E+06    -298.346E-03     591.354E-03    -293.008E-03     208.378E-03    -306.934E-03     599.753E-03    -292.670E-03     164.569E-03
            1836     9.40321E-03     56.4465E-03    -33.0737E+06     23.1032E+06     60.6546E+06    -1.79351E+06    -298.901E-03     591.827E-03    -292.926E-03     210.696E-03    -307.557E-03     600.272E-03    -292.608E-03     167.094E-03
            1837     8.73248E-03     56.1319E-03    -40.6999E+06     15.7401E+06     51.3520E+06    -1.74269E+06    -298.741E-03     591.576E-03    -292.834E-03     209.722E-03    -307.244E-03     599.840E-03    -292.541E-03     166.887E-03
            1838     8.06138E-03     55.8209E-03    -47.5403E+06     8.53873E+06     44.2197E+06    -864.907E+03    -298.143E-03     590.918E-03    -292.775E-03     205.819E-03    -306.268E-03     598.776E-03    -292.497E-03     164.328E-03
            1839     7.38948E-03     55.5185E-03    -55.7625E+06    -206.074E+03     35.2224E+06    -520.946E+03    -297.576E-03     590.317E-03    -292.741E-03     199.058E-03    -305.126E-03     597.566E-03    -292.484E-03     159.373E-03
            1840     6.71773E-03     55.2277E-03    -64.0739E+06    -9.54233E+06     23.8973E+06    -596.058E+03    -297.008E-03     589.723E-03    -292.715E-03     189.014E-03    -303.808E-03     596.193E-03    -292.489E-03     151.567E-03
            1841     6.04586E-03     54.9557E-03    -72.2156E+06    -30.3886E+06     8.58569E+06    -545.222E+03    -296.354E-03     589.049E-03    -292.695E-03     175.755E-03    -302.232E-03     594.538E-03    -292.504E-03     141.113E-03
            1842     5.37403E-03     54.7051E-03    -80.7625E+06    -63.9876E+06    -8.89233E+06    -121.009E+03    -295.688E-03     588.379E-03    -292.691E-03     160.206E-03    -300.559E-03     592.762E-03    -292.526E-03     128.810E-03
            1843     4.70213E-03     54.4798E-03    -89.5847E+06    -96.4834E+06    -26.9541E+06     265.418E+03    -295.042E-03     587.730E-03    -292.688E-03     142.934E-03    -298.924E-03     591.029E-03    -292.553E-03     115.073E-03
            1844     4.03031E-03     54.2814E-03    -98.3713E+06    -135.764E+06    -45.6773E+06     321.336E+03    -294.462E-03     587.153E-03    -292.691E-03     124.251E-03    -297.405E-03     589.398E-03    -292.580E-03     100.138E-03
            1845     3.35856E-03     54.1123E-03    -106.910E+06    -166.498E+06    -64.6612E+06     289.922E+03    -293.935E-03     586.611E-03    -292.676E-03     104.754E-03    -296.054E-03     587.947E-03    -292.603E-03     84.5250E-03
            1846     2.68677E-03     53.9718E-03    -114.873E+06    -179.172E+06    -84.3196E+06     412.401E+03    -293.453E-03     586.080E-03    -292.626E-03     84.6826E-03    -294.896E-03     586.723E-03    -292.622E-03     68.4267E-03
            1847     2.01510E-03     53.8618E-03    -121.816E+06    -194.430E+06    -103.258E+06     336.119E+03    -293.071E-03     585.647E-03    -292.576E-03     64.0879E-03    -293.968E-03     585.721E-03    -292.633E-03     51.8318E-03
            1848     1.34333E-03     53.7824E-03    -127.087E+06    -210.806E+06    -118.462E+06    -44.2746E+03    -292.777E-03     585.312E-03    -292.535E-03     43.2817E-03    -293.273E-03     584.952E-03    -292.637E-03     34.9910E-03
            1849     671.652E-06     53.7340E-03    -130.356E+06    -222.318E+06    -128.158E+06    -304.407E+03    -292.688E-03     585.095E-03    -292.407E-03     23.4807E-03    -292.942E-03     584.470E-03    -292.537E-03     18.8738E-03
            1850     12.7603E-03     56.1579E-03    -5.38766E+06     52.6051E+06     78.9096E+06     279.730E+03    -293.167E-03     586.179E-03    -293.012E-03     138.241E-03    -298.238E-03     591.189E-03    -292.686E-03     103.519E-03
            1851     12.0883E-03     55.9143E-03    -10.7324E+06     45.3124E+06     72.3660E+06     1.13379E+06    -295.384E-03     588.376E-03    -292.992E-03     179.410E-03    -302.550E-03     595.455E-03    -292.681E-03     137.853E-03
            1852     11.4174E-03     55.6525E-03    -14.0661E+06     41.2245E+06     72.2436E+06     2.36934E+06    -296.977E-03     589.942E-03    -292.965E-03     190.278E-03    -304.509E-03     597.361E-03    -292.643E-03     148.474E-03
            1853     10.7472E-03     55.3608E-03    -18.3069E+06     40.9446E+06     77.4961E+06     1.58666E+06    -297.975E-03     590.910E-03    -292.935E-03     201.926E-03    -306.295E-03     599.085E-03    -292.580E-03     158.270E-03
            1854     10.0767E-03     55.0559E-03    -24.9848E+06     31.9527E+06     71.4778E+06     55.4112E+03    -298.411E-03     591.261E-03    -292.850E-03     207.284E-03    -306.993E-03     599.660E-03    -292.503E-03     163.397E-03
            1855     9.40562E-03     54.7437E-03    -32.2360E+06     23.2419E+06     61.8168E+06    -129.522E+03    -298.404E-03     591.163E-03    -292.760E-03     210.343E-03    -307.053E-03     599.601E-03    -292.437E-03     166.806E-03
            1856     8.73402E-03     54.4292E-03    -39.6453E+06     16.3709E+06     50.9862E+06    -66.4504E+03    -298.000E-03     590.693E-03    -292.692E-03     209.733E-03    -306.491E-03     598.953E-03    -292.404E-03     167.040E-03
            1857     8.06190E-03     54.1196E-03    -47.3700E+06     8.47158E+06     42.5464E+06    -342.306E+03    -297.630E-03     590.303E-03    -292.673E-03     206.179E-03    -305.748E-03     598.160E-03    -292.404E-03     164.800E-03
            1858     7.39012E-03     53.8168E-03    -54.9812E+06     407.615E+03     34.4529E+06    -814.207E+03    -297.335E-03     590.009E-03    -292.675E-03     199.648E-03    -304.887E-03     597.268E-03    -292.423E-03     160.006E-03
            1859     6.71805E-03     53.5267E-03    -62.8575E+06    -9.74398E+06     22.7347E+06    -1.35505E+06    -296.843E-03     589.514E-03    -292.671E-03     189.613E-03    -303.640E-03     595.987E-03    -292.452E-03     152.211E-03
            1860     6.04607E-03     53.2541E-03    -71.6235E+06    -32.5159E+06     7.32575E+06    -916.824E+03    -296.233E-03     588.910E-03    -292.676E-03     176.375E-03    -302.110E-03     594.395E-03    -292.489E-03     141.765E-03
            1861     5.37402E-03     53.0044E-03    -80.4085E+06    -65.4964E+06    -9.01479E+06    -200.081E+03    -295.611E-03     588.309E-03    -292.698E-03     160.765E-03    -300.484E-03     592.690E-03    -292.531E-03     129.395E-03
            1862     4.70199E-03     52.7785E-03    -89.2964E+06    -96.6594E+06    -26.7038E+06    -46.8017E+03    -294.955E-03     587.671E-03    -292.716E-03     143.337E-03    -298.835E-03     590.969E-03    -292.580E-03     115.519E-03
            1863     4.03000E-03     52.5805E-03    -98.0035E+06    -135.884E+06    -44.8973E+06    -32.8903E+03    -294.402E-03     587.148E-03    -292.746E-03     124.569E-03    -297.344E-03     589.390E-03    -292.631E-03     100.488E-03
            1864     3.35812E-03     52.4108E-03    -106.569E+06    -166.709E+06    -63.2847E+06     158.895E+03    -293.962E-03     586.715E-03    -292.753E-03     105.009E-03    -296.081E-03     588.048E-03    -292.674E-03     84.7993E-03
            1865     2.68650E-03     52.2708E-03    -114.893E+06     -179.28E+06    -82.9267E+06     137.994E+03    -293.528E-03     586.241E-03    -292.713E-03     84.8900E-03    -294.974E-03     586.882E-03    -292.701E-03     68.6390E-03
            1866     2.01478E-03     52.1605E-03    -121.953E+06    -193.825E+06    -102.119E+06      68.037E+03    -293.124E-03     585.793E-03    -292.668E-03     64.2334E-03    -294.026E-03     585.869E-03    -292.721E-03     51.9734E-03
            1867     1.34326E-03     52.0815E-03    -127.084E+06    -210.021E+06    -117.893E+06     28.5573E+03    -292.825E-03     585.471E-03    -292.646E-03     43.4685E-03    -293.325E-03     585.117E-03    -292.747E-03     35.1648E-03
            1868     671.666E-06     52.0329E-03    -130.744E+06    -222.853E+06    -128.587E+06    -66.5308E+03    -292.954E-03     585.346E-03    -292.393E-03     23.5370E-03    -293.210E-03     584.720E-03    -292.523E-03     18.9433E-03
            1869     12.7611E-03     54.4594E-03    -5.52743E+06     51.1328E+06     79.9997E+06     2.60365E+06    -293.483E-03     586.480E-03    -292.998E-03     136.545E-03    -298.484E-03     591.412E-03    -292.664E-03     102.006E-03
            1870     12.0895E-03     54.2081E-03    -7.63248E+06     47.4064E+06     73.4116E+06     1.01445E+06    -295.948E-03     588.883E-03    -292.934E-03     177.835E-03    -303.075E-03     595.938E-03    -292.625E-03     136.127E-03
            1871     11.4195E-03     53.9475E-03    -12.7965E+06     40.2585E+06     71.2126E+06    -1.49191E+06    -297.746E-03     590.593E-03    -292.847E-03     188.895E-03    -305.310E-03     598.048E-03    -292.531E-03     146.596E-03
            1872     10.7493E-03     53.6549E-03    -17.8972E+06     38.0519E+06     78.0798E+06    -45.2856E+03    -298.055E-03     590.841E-03    -292.786E-03     201.866E-03    -306.385E-03     599.016E-03    -292.425E-03     158.134E-03
            1873     10.0783E-03     53.3535E-03    -23.1930E+06     33.0081E+06     74.9004E+06     2.59874E+06    -297.929E-03     590.645E-03    -292.716E-03     208.213E-03    -306.526E-03     599.060E-03    -292.356E-03     164.468E-03
            1874     9.40659E-03     53.0413E-03    -29.6071E+06     25.5839E+06     66.4091E+06     2.86081E+06    -297.726E-03     590.398E-03    -292.672E-03     211.556E-03    -306.388E-03     598.854E-03    -292.334E-03     168.218E-03
            1875     8.73452E-03     52.7286E-03    -36.9769E+06     18.8492E+06     55.0052E+06     2.03444E+06    -297.521E-03     590.176E-03    -292.655E-03     210.910E-03    -306.008E-03     598.439E-03    -292.354E-03     168.433E-03
            1876     8.06231E-03     52.4188E-03    -44.0373E+06     11.2507E+06     43.6923E+06     1.12326E+06    -297.471E-03     590.130E-03    -292.659E-03     207.220E-03    -305.580E-03     597.996E-03    -292.393E-03     165.981E-03
            1877     7.38982E-03     52.1156E-03    -51.7121E+06     2.90710E+06     34.5648E+06     105.031E+03    -297.233E-03     589.915E-03    -292.682E-03     200.389E-03    -304.781E-03     597.189E-03    -292.438E-03     160.811E-03
            1878     6.71774E-03     51.8254E-03    -61.2567E+06    -10.4253E+06     24.1652E+06     121.027E+03    -296.748E-03     589.462E-03    -292.714E-03     190.170E-03    -303.542E-03     595.932E-03    -292.490E-03     152.833E-03
            1879     6.04546E-03     51.5532E-03    -70.5446E+06    -33.4151E+06     10.0145E+06     447.708E+03    -296.221E-03     588.967E-03    -292.746E-03     176.761E-03    -302.093E-03     594.441E-03    -292.545E-03     142.218E-03
            1880     5.37344E-03     51.3027E-03    -80.0462E+06    -65.1713E+06    -7.20093E+06     102.003E+03    -295.637E-03     588.411E-03    -292.774E-03     160.927E-03    -300.510E-03     592.790E-03    -292.600E-03     129.587E-03
            1881     4.70155E-03     51.0776E-03    -89.3094E+06    -96.6873E+06    -26.0113E+06    -37.5369E+03    -295.003E-03     587.798E-03    -292.795E-03     143.398E-03    -298.882E-03     591.093E-03    -292.655E-03     115.603E-03
            1882     4.02962E-03     50.8792E-03    -98.4838E+06    -136.124E+06    -45.2858E+06    -24.2117E+03    -294.454E-03     587.280E-03    -292.826E-03     124.598E-03    -297.396E-03     589.521E-03    -292.713E-03     100.527E-03
            1883     3.35789E-03     50.7094E-03    -107.294E+06    -166.852E+06    -64.0188E+06    -251.387E+03    -293.987E-03     586.828E-03    -292.841E-03     105.008E-03    -296.111E-03     588.164E-03    -292.763E-03     84.7790E-03
            1884     2.68612E-03     50.5691E-03    -115.492E+06    -178.948E+06    -83.5689E+06    -446.158E+03    -293.549E-03     586.364E-03    -292.815E-03     84.8543E-03    -294.998E-03     587.011E-03    -292.806E-03     68.5801E-03
            1885     2.01463E-03     50.4590E-03    -122.374E+06    -193.981E+06    -102.626E+06    -702.135E+03    -293.163E-03     585.958E-03    -292.795E-03     64.2089E-03    -294.067E-03     586.037E-03    -292.850E-03     51.9086E-03
            1886     1.34286E-03     50.3801E-03    -127.786E+06    -210.956E+06    -118.440E+06    -570.462E+03    -292.917E-03     585.722E-03    -292.805E-03     43.5000E-03    -293.419E-03     585.365E-03    -292.906E-03     35.1735E-03
            1887     671.253E-06     50.3312E-03    -131.243E+06    -223.301E+06    -128.647E+06     43.1622E+03    -293.243E-03     585.700E-03    -292.457E-03     23.6392E-03    -293.500E-03     585.072E-03    -292.586E-03     19.0636E-03
            1888     12.7623E-03     52.7572E-03    -3.11427E+06     51.3135E+06     82.0841E+06     1.39228E+06    -294.865E-03     587.761E-03    -292.896E-03     136.244E-03    -299.878E-03     592.707E-03    -292.556E-03     101.384E-03
            1889     12.0917E-03     52.5023E-03    -6.39415E+06     48.5670E+06     73.4204E+06     936.304E+03    -296.455E-03     589.216E-03    -292.761E-03     177.194E-03    -303.585E-03     596.283E-03    -292.455E-03     135.290E-03
            1890     11.4216E-03     52.2414E-03    -11.7776E+06      41.114E+06     69.8494E+06     384.763E+03    -296.630E-03     589.301E-03    -292.671E-03     188.173E-03    -304.173E-03     596.746E-03    -292.365E-03     146.003E-03
            1891     10.7504E-03     51.9526E-03    -18.4479E+06     34.1938E+06     74.7136E+06     271.873E+03    -296.800E-03     589.475E-03    -292.675E-03     202.380E-03    -305.104E-03     597.618E-03    -292.324E-03     158.922E-03
            1892     10.0784E-03     51.6507E-03    -24.8746E+06     29.6495E+06     71.3419E+06     130.733E+03    -297.088E-03     589.766E-03    -292.678E-03     209.367E-03    -305.686E-03     598.174E-03    -292.328E-03     165.776E-03
            1893     9.40620E-03     51.3407E-03    -30.6403E+06     25.3336E+06     64.8008E+06     902.847E+03    -297.345E-03     590.037E-03    -292.693E-03     212.572E-03    -306.011E-03     598.497E-03    -292.361E-03     169.340E-03
            1894     8.73348E-03     51.0278E-03    -36.3362E+06     19.5908E+06     56.4788E+06     1.12602E+06    -297.520E-03     590.235E-03    -292.715E-03     211.671E-03    -305.999E-03     598.491E-03    -292.409E-03     169.277E-03
            1895     8.06116E-03     50.7171E-03    -43.1444E+06     12.1263E+06     47.8001E+06     1.10205E+06    -297.550E-03     590.293E-03    -292.743E-03     207.697E-03    -305.663E-03     598.157E-03    -292.459E-03     166.480E-03
            1896     7.38936E-03     50.4144E-03    -51.9178E+06     2.80261E+06     37.9572E+06     2.07221E+06    -297.270E-03     590.041E-03    -292.771E-03     200.603E-03    -304.829E-03     597.315E-03    -292.510E-03     161.050E-03
            1897     6.71698E-03     50.1244E-03    -60.7519E+06    -8.78815E+06     27.2885E+06     2.51497E+06    -296.832E-03     589.633E-03    -292.801E-03     190.160E-03    -303.628E-03     596.103E-03    -292.564E-03     152.864E-03
            1898     6.04505E-03     49.8515E-03    -70.2003E+06    -31.1141E+06     12.1181E+06     1.46205E+06    -296.289E-03     589.115E-03    -292.826E-03     176.596E-03    -302.158E-03     594.590E-03    -292.619E-03     142.089E-03
            1899     5.37312E-03     49.6014E-03    -79.4605E+06    -63.9105E+06    -5.77068E+06     702.489E+03    -295.708E-03     588.559E-03    -292.851E-03     160.738E-03    -300.579E-03     592.937E-03    -292.672E-03     129.405E-03
            1900     4.70113E-03     49.3760E-03    -88.6363E+06    -96.6207E+06    -24.7891E+06     592.034E+03    -295.116E-03     587.981E-03    -292.865E-03     143.148E-03    -298.996E-03     591.275E-03    -292.721E-03     115.320E-03
            1901     4.02939E-03     49.1776E-03    -97.6926E+06    -135.269E+06    -44.2464E+06     439.280E+03    -294.541E-03     587.425E-03    -292.884E-03     124.383E-03    -297.484E-03     589.669E-03    -292.767E-03     100.278E-03
            1902     3.35762E-03     49.0079E-03    -106.533E+06    -165.672E+06    -63.8488E+06    -17.7166E+03    -294.036E-03     586.923E-03    -292.888E-03     104.826E-03    -296.157E-03     588.264E-03    -292.812E-03     84.5807E-03
            1903     2.68602E-03     48.8673E-03    -114.693E+06    -178.561E+06    -83.8561E+06    -466.780E+03    -293.557E-03     586.420E-03    -292.863E-03     84.5872E-03    -295.001E-03     587.066E-03    -292.857E-03     68.3004E-03
            1904     2.01423E-03     48.7574E-03    -121.840E+06    -194.660E+06    -102.670E+06    -615.421E+03    -293.221E-03     586.068E-03    -292.847E-03     63.8915E-03    -294.120E-03     586.142E-03    -292.902E-03     51.5833E-03
            1905     1.34283E-03     48.6782E-03    -127.655E+06    -212.264E+06    -118.089E+06    -680.188E+03    -293.036E-03     585.868E-03    -292.832E-03     43.1658E-03    -293.534E-03     585.502E-03    -292.929E-03     34.8375E-03
            1906     671.539E-06     48.6289E-03    -131.202E+06    -225.083E+06    -128.714E+06    -910.148E+03    -293.022E-03     585.696E-03    -292.674E-03     23.5344E-03    -293.275E-03     585.059E-03    -292.801E-03     18.9565E-03
            1907     12.7641E-03     51.0474E-03    -5.07307E+06     50.0474E+06     80.5270E+06    -1.54961E+06    -294.995E-03     587.687E-03    -292.692E-03     133.613E-03    -300.000E-03     592.618E-03    -292.354E-03     98.5367E-03
            1908     12.0959E-03     50.7976E-03    -8.60248E+06     46.0080E+06      71.309E+06    -936.208E+03    -294.858E-03     587.436E-03    -292.579E-03     177.039E-03    -301.991E-03     594.495E-03    -292.276E-03     135.254E-03
            1909     11.4236E-03     50.5414E-03    -12.6542E+06     40.7011E+06     69.8580E+06     1.18876E+06    -295.025E-03     587.612E-03    -292.587E-03     189.826E-03    -302.540E-03     595.024E-03    -292.279E-03     148.189E-03
            1910     10.7504E-03     50.2518E-03    -17.1574E+06     36.1764E+06     75.9976E+06     1.10374E+06    -295.965E-03     588.645E-03    -292.680E-03     203.925E-03    -304.240E-03     596.768E-03    -292.328E-03     160.839E-03
            1911     10.0775E-03     49.9503E-03    -23.5488E+06     30.1052E+06     71.4308E+06     406.103E+03    -296.767E-03     589.500E-03    -292.733E-03     209.945E-03    -305.337E-03     597.886E-03    -292.385E-03     166.535E-03
            1912     9.40471E-03     49.6392E-03    -30.6267E+06     24.4060E+06     63.1557E+06    -442.524E+03    -297.390E-03     590.151E-03    -292.762E-03     212.407E-03    -306.032E-03     598.588E-03    -292.437E-03     169.207E-03
            1913     8.73292E-03     49.3264E-03    -37.3379E+06     18.3003E+06     55.4160E+06    -32.0161E+03    -297.658E-03     590.444E-03    -292.786E-03     211.285E-03    -306.123E-03     598.681E-03    -292.482E-03     168.876E-03
            1914     8.06096E-03     49.0156E-03    -45.9525E+06     9.76330E+06     47.4498E+06     1.22205E+06    -297.572E-03     590.388E-03    -292.816E-03     207.327E-03    -305.691E-03     598.241E-03    -292.527E-03     166.085E-03
            1915     7.38844E-03     48.7131E-03    -53.8337E+06     1.28565E+06     38.8374E+06     1.86350E+06    -297.382E-03     590.223E-03    -292.842E-03     200.214E-03    -304.943E-03     597.486E-03    -292.571E-03     160.635E-03
            1916     6.71676E-03     48.4222E-03    -61.2437E+06    -7.12607E+06     27.9511E+06     1.64371E+06    -296.951E-03     589.803E-03    -292.852E-03     189.713E-03    -303.747E-03     596.275E-03    -292.613E-03     152.384E-03
            1917     6.04476E-03     48.1502E-03    -69.4912E+06    -28.5861E+06     12.8165E+06     1.30708E+06    -296.318E-03     589.183E-03    -292.865E-03     176.245E-03    -302.189E-03     594.668E-03    -292.659E-03     141.703E-03
            1918     5.37272E-03     47.8995E-03    -78.6200E+06    -63.2430E+06    -4.94591E+06     1.04105E+06    -295.745E-03     588.634E-03    -292.888E-03     160.515E-03    -300.614E-03     593.013E-03    -292.707E-03     129.160E-03
            1919     4.70117E-03     47.6741E-03    -87.6273E+06    -95.9827E+06    -23.6749E+06     761.058E+03    -295.178E-03     588.076E-03    -292.898E-03     142.996E-03    -299.058E-03     591.373E-03    -292.750E-03     115.124E-03
            1920     4.02938E-03     47.4762E-03    -96.3942E+06    -134.511E+06    -43.1062E+06     515.905E+03    -294.655E-03     587.559E-03    -292.903E-03     124.271E-03    -297.597E-03     589.806E-03    -292.784E-03     100.129E-03
            1921     3.35776E-03     47.3060E-03    -104.814E+06    -164.483E+06    -62.5981E+06     404.985E+03    -294.139E-03     587.025E-03    -292.885E-03     104.632E-03    -296.254E-03     588.365E-03    -292.808E-03     84.3789E-03
            1922     2.68610E-03     47.1657E-03    -112.710E+06    -178.007E+06    -82.8445E+06     213.298E+03    -293.616E-03     586.453E-03    -292.837E-03     84.3469E-03    -295.051E-03     587.096E-03    -292.830E-03     68.0580E-03
            1923     2.01465E-03     47.0556E-03    -119.569E+06    -194.703E+06    -102.038E+06     65.4483E+03    -293.264E-03     586.057E-03    -292.793E-03     63.7975E-03    -294.152E-03     586.125E-03    -292.847E-03     51.5082E-03
            1924     1.34316E-03     46.9759E-03    -124.219E+06    -211.587E+06    -117.117E+06    -363.031E+03    -293.018E-03     585.767E-03    -292.749E-03     43.1347E-03    -293.501E-03     585.398E-03    -292.848E-03     34.8075E-03
            1925     671.532E-06     46.9277E-03    -126.714E+06    -228.117E+06    -125.306E+06    -874.790E+03    -292.858E-03     585.544E-03    -292.686E-03     23.4641E-03    -293.089E-03     584.880E-03    -292.798E-03     18.8940E-03
            1926     12.7713E-03     49.3460E-03    -4.11614E+06     49.0764E+06     79.0790E+06    -1.75053E+06    -293.151E-03     585.748E-03    -292.597E-03     137.570E-03    -298.182E-03     590.710E-03    -292.267E-03     102.802E-03
            1927     12.0950E-03     49.0995E-03    -9.44970E+06     43.9765E+06     70.2700E+06    -174.689E+03    -293.640E-03     586.241E-03    -292.601E-03     181.368E-03    -300.773E-03     593.292E-03    -292.299E-03     140.249E-03
            1928     11.4211E-03     48.8412E-03    -12.6785E+06     40.8662E+06     70.6172E+06     288.941E+03    -295.201E-03     587.875E-03    -292.674E-03     192.080E-03    -302.710E-03     595.280E-03    -292.362E-03     150.709E-03
            1929     10.7486E-03     48.5511E-03    -18.1487E+06     36.5679E+06     76.8997E+06    -58.2317E+03    -296.372E-03     589.141E-03    -292.769E-03     204.281E-03    -304.651E-03     597.262E-03    -292.411E-03     161.198E-03
            1930     10.0766E-03     48.2488E-03    -24.8445E+06     30.6907E+06     72.5535E+06    -132.189E+03    -297.072E-03     589.877E-03    -292.805E-03     209.609E-03    -305.649E-03     598.264E-03    -292.450E-03     166.135E-03
            1931     9.40492E-03     47.9379E-03    -30.6074E+06     24.3622E+06     64.2851E+06     624.439E+03    -297.603E-03     590.417E-03    -292.814E-03     211.908E-03    -306.230E-03     598.836E-03    -292.483E-03     168.719E-03
            1932     8.73264E-03     47.6244E-03    -38.0911E+06     17.1434E+06     53.8827E+06     1.44202E+06    -297.715E-03     590.531E-03    -292.816E-03     210.778E-03    -306.173E-03     598.759E-03    -292.516E-03     168.371E-03
            1933     8.06034E-03     47.3146E-03    -45.6770E+06     9.50891E+06     45.2133E+06     1.07176E+06    -297.676E-03     590.507E-03    -292.830E-03     206.994E-03    -305.793E-03     598.364E-03    -292.552E-03     165.702E-03
            1934     7.38878E-03     47.0108E-03    -52.9875E+06     1.79245E+06     37.5478E+06     114.026E+03    -297.467E-03     590.314E-03    -292.847E-03     199.907E-03    -305.021E-03     597.578E-03    -292.585E-03     160.274E-03
            1935     6.71674E-03     46.7207E-03    -61.1594E+06    -7.34806E+06     27.3608E+06    -270.986E+03    -296.933E-03     589.790E-03    -292.857E-03     189.427E-03    -303.725E-03     596.259E-03    -292.621E-03     152.049E-03
            1936     6.04480E-03     46.4485E-03    -69.8426E+06    -28.8351E+06     12.6716E+06     77.9133E+03    -296.325E-03     589.195E-03    -292.870E-03     176.113E-03    -302.199E-03     594.682E-03    -292.664E-03     141.523E-03
            1937     5.37307E-03     46.1979E-03    -78.5227E+06    -63.1243E+06    -5.07030E+06     402.753E+03    -295.734E-03     588.625E-03    -292.891E-03     160.446E-03    -300.602E-03     593.005E-03    -292.711E-03     129.074E-03
            1938     4.70092E-03     45.9724E-03    -87.2522E+06    -95.8220E+06    -24.0739E+06     340.197E+03    -295.185E-03     588.084E-03    -292.899E-03     142.951E-03    -299.061E-03     591.380E-03    -292.754E-03     115.082E-03
            1939     4.02931E-03     45.7739E-03    -95.9865E+06    -134.151E+06    -43.3654E+06     392.650E+03    -294.743E-03     587.640E-03    -292.897E-03     124.211E-03    -297.681E-03     589.887E-03    -292.780E-03     100.066E-03
            1940     3.35784E-03     45.6042E-03    -104.580E+06    -164.346E+06    -62.6548E+06     427.435E+03    -294.233E-03     587.093E-03    -292.860E-03     104.573E-03    -296.346E-03     588.433E-03    -292.784E-03     84.3130E-03
            1941     2.68633E-03     45.4639E-03    -112.399E+06    -177.561E+06    -82.5912E+06     449.577E+03    -293.670E-03     586.458E-03    -292.788E-03     84.3386E-03    -295.103E-03     587.102E-03    -292.781E-03     68.0582E-03
            1942     2.01465E-03     45.3539E-03    -119.070E+06    -193.810E+06    -101.842E+06     368.890E+03    -293.213E-03     585.943E-03    -292.729E-03     63.8652E-03    -294.099E-03     586.013E-03    -292.785E-03     51.5935E-03
            1943     1.34302E-03     45.2743E-03    -123.827E+06    -210.945E+06    -117.381E+06     265.721E+03    -292.899E-03     585.601E-03    -292.702E-03     43.1687E-03    -293.382E-03     585.235E-03    -292.803E-03     34.8531E-03
            1944     671.528E-06     45.2262E-03    -126.659E+06    -228.617E+06    -125.885E+06     547.384E+03    -293.007E-03     585.494E-03    -292.487E-03     23.4786E-03    -293.236E-03     584.828E-03    -292.601E-03     18.9358E-03
            1945     12.7606E-03     47.6465E-03    -3.45473E+06     49.7852E+06     80.7336E+06    -95.3383E+03    -292.446E-03     585.245E-03    -292.798E-03     139.910E-03    -297.499E-03     590.227E-03    -292.462E-03     105.244E-03
            1946     12.0901E-03     47.3972E-03    -10.3499E+06     44.8715E+06     70.4165E+06     64.6719E+03    -294.762E-03     587.561E-03    -292.799E-03     181.498E-03    -301.906E-03     594.623E-03    -292.497E-03     140.267E-03
            1947     11.4197E-03     47.1382E-03    -14.2989E+06     40.1216E+06     69.4040E+06    -2.02211E+06    -296.163E-03     588.977E-03    -292.815E-03     191.784E-03    -303.742E-03     596.447E-03    -292.505E-03     149.924E-03
            1948     10.7486E-03     46.8489E-03    -19.8841E+06     34.6710E+06     75.7243E+06    -1.33593E+06    -297.065E-03     589.925E-03    -292.860E-03     204.137E-03    -305.404E-03     598.097E-03    -292.503E-03     160.691E-03
            1949     10.0766E-03     46.5475E-03    -25.3547E+06     29.4576E+06     72.6079E+06    -287.011E+03    -297.570E-03     590.431E-03    -292.861E-03     209.768E-03    -306.178E-03     598.843E-03    -292.504E-03     166.142E-03
            1950     9.40437E-03     46.2354E-03    -32.0572E+06     22.3402E+06     63.6565E+06     352.192E+03    -297.834E-03     590.680E-03    -292.846E-03     211.946E-03    -306.484E-03     599.111E-03    -292.514E-03     168.662E-03
            1951     8.73260E-03     45.9234E-03    -38.4237E+06     16.8590E+06     53.8640E+06     162.563E+03    -297.837E-03     590.671E-03    -292.834E-03     210.813E-03    -306.317E-03     598.918E-03    -292.533E-03     168.289E-03
            1952     8.06085E-03     45.6125E-03    -44.2762E+06     10.6272E+06     45.0587E+06    -209.747E+03    -297.789E-03     590.622E-03    -292.834E-03     207.187E-03    -305.914E-03     598.497E-03    -292.560E-03     165.824E-03
            1953     7.38872E-03     45.3091E-03    -51.8207E+06     2.72782E+06     36.6070E+06    -365.940E+03    -297.490E-03     590.334E-03    -292.844E-03     200.145E-03    -305.047E-03     597.610E-03    -292.590E-03     160.488E-03
            1954     6.71679E-03     45.0191E-03    -60.8548E+06    -7.56791E+06     26.0830E+06    -563.771E+03    -296.963E-03     589.819E-03    -292.856E-03     189.634E-03    -303.759E-03     596.296E-03    -292.626E-03     152.231E-03
            1955     6.04487E-03     44.7467E-03    -69.7617E+06    -30.4683E+06     11.0946E+06    -624.591E+03    -296.407E-03     589.273E-03    -292.866E-03     176.253E-03    -302.279E-03     594.757E-03    -292.665E-03     141.638E-03
            1956     5.37276E-03     44.4963E-03    -78.5631E+06    -64.1632E+06    -6.17113E+06    -91.7771E+03    -295.854E-03     588.731E-03    -292.877E-03     160.413E-03    -300.719E-03     593.107E-03    -292.701E-03     129.023E-03
            1957     4.70124E-03     44.2706E-03    -87.9951E+06    -95.7512E+06    -24.9167E+06     451.980E+03    -295.274E-03     588.143E-03    -292.869E-03     142.751E-03    -299.143E-03     591.432E-03    -292.727E-03     114.911E-03
            1958     4.02948E-03     44.0720E-03    -97.3766E+06    -133.953E+06    -44.3718E+06     459.341E+03    -294.710E-03     587.565E-03    -292.855E-03     123.929E-03    -297.645E-03     589.807E-03    -292.741E-03     99.8273E-03
            1959     3.35787E-03     43.9021E-03    -106.283E+06    -164.100E+06    -63.8372E+06     407.391E+03    -294.151E-03     586.970E-03    -292.818E-03     104.322E-03    -296.265E-03     588.309E-03    -292.746E-03     84.0973E-03
            1960     2.68633E-03     43.7622E-03    -114.713E+06    -177.400E+06    -83.9973E+06     348.375E+03    -293.629E-03     586.376E-03    -292.748E-03     84.2406E-03    -295.068E-03     587.022E-03    -292.744E-03     67.9852E-03
            1961     2.01485E-03     43.6524E-03    -121.963E+06    -193.514E+06    -102.960E+06     442.233E+03    -293.197E-03     585.879E-03    -292.682E-03     63.7320E-03    -294.095E-03     585.956E-03    -292.739E-03     51.4708E-03
            1962     1.34321E-03     43.5732E-03    -127.623E+06    -211.299E+06    -118.241E+06     897.761E+03    -292.858E-03     585.497E-03    -292.639E-03     43.0000E-03    -293.356E-03     585.135E-03    -292.739E-03     34.7124E-03
            1963     671.508E-06     43.5245E-03    -131.115E+06    -225.247E+06    -128.471E+06     1.31378E+06    -292.935E-03     585.308E-03    -292.373E-03     23.4189E-03    -293.188E-03     584.669E-03    -292.498E-03     18.8765E-03
            1964     12.7624E-03     45.9400E-03    -3.23885E+06     52.7977E+06     84.0985E+06     695.416E+03    -293.369E-03     586.339E-03    -292.969E-03     136.418E-03    -298.381E-03     591.283E-03    -292.621E-03     101.667E-03
            1965     12.0910E-03     45.6949E-03    -7.80942E+06     50.0552E+06     75.1888E+06    -52.9917E+03    -295.360E-03     588.278E-03    -292.918E-03     178.944E-03    -302.500E-03     595.349E-03    -292.603E-03     137.370E-03
            1966     11.4186E-03     45.4337E-03    -15.0657E+06     38.7199E+06     68.8359E+06    -1.29705E+06    -296.385E-03     589.271E-03    -292.886E-03     190.583E-03    -303.985E-03     596.755E-03    -292.576E-03     148.456E-03
            1967     10.7467E-03     45.1458E-03    -20.3028E+06     33.4524E+06     73.5099E+06    -1.28457E+06    -297.158E-03     590.062E-03    -292.904E-03     203.133E-03    -305.502E-03     598.239E-03    -292.556E-03     159.523E-03
            1968     10.0754E-03     44.8433E-03    -26.2074E+06     28.1828E+06     69.9339E+06    -1.40624E+06    -297.633E-03     590.525E-03    -292.892E-03     209.153E-03    -306.247E-03     598.943E-03    -292.545E-03     165.396E-03
            1969     9.40429E-03     44.5337E-03    -32.7644E+06     21.2998E+06     60.8790E+06    -2.08825E+06    -297.831E-03     590.701E-03    -292.870E-03     211.825E-03    -306.502E-03     599.154E-03    -292.549E-03     168.387E-03
            1970     8.73232E-03     44.2208E-03    -39.2095E+06     15.9398E+06     52.6380E+06    -2.24041E+06    -297.932E-03     590.794E-03    -292.863E-03     211.163E-03    -306.432E-03     599.059E-03    -292.566E-03     168.540E-03
            1971     8.06030E-03     43.9108E-03    -46.0964E+06     9.33487E+06     44.7227E+06    -1.64367E+06    -297.884E-03     590.751E-03    -292.866E-03     207.524E-03    -306.025E-03     598.632E-03    -292.590E-03     166.125E-03
            1972     7.38840E-03     43.6071E-03    -53.1619E+06     1.73048E+06     35.5371E+06    -997.116E+03    -297.548E-03     590.419E-03    -292.871E-03     200.298E-03    -305.109E-03     597.694E-03    -292.618E-03     160.637E-03
            1973     6.71653E-03     43.3171E-03    -61.6745E+06    -8.39298E+06     24.0859E+06    -339.939E+03    -297.078E-03     589.951E-03    -292.872E-03     189.727E-03    -303.873E-03     596.427E-03    -292.650E-03     152.327E-03
            1974     6.04461E-03     43.0449E-03    -70.9342E+06    -31.0435E+06     9.31031E+06     252.018E+03    -296.620E-03     589.489E-03    -292.870E-03     176.250E-03    -302.491E-03     594.972E-03    -292.675E-03     141.643E-03
            1975     5.37318E-03     42.7942E-03    -80.6789E+06    -64.7737E+06    -8.14708E+06     303.081E+03    -296.077E-03     588.932E-03    -292.854E-03     160.311E-03    -300.945E-03     593.306E-03    -292.684E-03     128.921E-03
            1976     4.70143E-03     42.5686E-03    -89.9105E+06    -95.7179E+06    -26.7865E+06     146.493E+03    -295.408E-03     588.224E-03    -292.816E-03     142.655E-03    -299.281E-03     591.516E-03    -292.680E-03     114.817E-03
            1977     4.02990E-03     42.3703E-03    -99.0301E+06    -134.019E+06    -45.9917E+06     98.0082E+03    -294.733E-03     587.512E-03    -292.780E-03     123.776E-03    -297.669E-03     589.755E-03    -292.672E-03     99.6908E-03
            1978     3.35823E-03     42.2006E-03    -107.975E+06    -164.385E+06    -65.1907E+06     199.537E+03    -294.084E-03     586.816E-03    -292.732E-03     103.996E-03    -296.198E-03     588.152E-03    -292.663E-03     83.7978E-03
            1979     2.68645E-03     42.0608E-03    -116.017E+06    -177.297E+06    -84.9965E+06     307.671E+03    -293.524E-03     586.181E-03    -292.657E-03     83.8437E-03    -294.963E-03     586.825E-03    -292.656E-03     67.6116E-03
            1980     2.01480E-03     41.9507E-03    -122.997E+06    -193.521E+06    -104.012E+06     410.220E+03    -293.097E-03     585.685E-03    -292.589E-03     63.4055E-03    -293.996E-03     585.762E-03    -292.650E-03     51.1466E-03
            1981     1.34333E-03     41.8722E-03    -128.134E+06    -210.975E+06    -119.264E+06     454.220E+03    -292.785E-03     585.321E-03    -292.536E-03     42.9373E-03    -293.285E-03     584.962E-03    -292.640E-03     34.6496E-03
            1982     671.800E-06     41.8234E-03    -130.789E+06    -222.310E+06    -128.350E+06     21.4538E+03    -292.792E-03     585.088E-03    -292.296E-03     23.4058E-03    -293.048E-03     584.463E-03    -292.426E-03     18.8514E-03
            1983     12.7614E-03     44.2388E-03    -4.48154E+06     51.8923E+06     82.6822E+06    -610.508E+03    -293.278E-03     586.205E-03    -292.927E-03     134.748E-03    -298.263E-03     591.119E-03    -292.582E-03     99.9754E-03
            1984     12.0893E-03     43.9891E-03    -8.86339E+06     49.2076E+06     75.4101E+06    -315.452E+03    -294.945E-03     587.833E-03    -292.888E-03     177.528E-03    -302.053E-03     594.865E-03    -292.569E-03     135.970E-03
            1985     11.4191E-03     43.7312E-03    -13.0525E+06     40.4691E+06     72.1571E+06     342.372E+03    -295.957E-03     588.833E-03    -292.876E-03     188.945E-03    -303.498E-03     596.263E-03    -292.555E-03     146.974E-03
            1986     10.7482E-03     43.4425E-03     -18.936E+06     34.8072E+06     74.4556E+06    -9.11358E+03    -296.736E-03     589.638E-03    -292.902E-03     202.419E-03    -305.042E-03     597.784E-03    -292.553E-03     158.950E-03
            1987     10.0763E-03     43.1417E-03    -25.1619E+06     30.3018E+06     70.0929E+06    -859.956E+03    -297.287E-03     590.194E-03    -292.908E-03     208.953E-03    -305.895E-03     598.618E-03    -292.565E-03     165.227E-03
            1988     9.40370E-03     42.8311E-03    -32.1641E+06     22.4036E+06     60.0095E+06    -1.64800E+06    -297.672E-03     590.573E-03    -292.901E-03     211.870E-03    -306.341E-03     599.034E-03    -292.587E-03     168.444E-03
            1989     8.73174E-03     42.5191E-03    -39.9565E+06     15.4891E+06      50.039E+06    -1.99738E+06    -297.951E-03     590.849E-03    -292.899E-03     211.230E-03    -306.454E-03     599.120E-03    -292.613E-03     168.593E-03
            1990     8.05997E-03     42.2080E-03    -47.5765E+06     7.88279E+06     42.6755E+06    -2.09401E+06    -297.988E-03     590.894E-03    -292.906E-03     207.446E-03    -306.132E-03     598.774E-03    -292.635E-03     166.010E-03
            1991     7.38825E-03     41.9053E-03    -55.9201E+06    -994.577E+03     34.0380E+06    -1.45354E+06    -297.726E-03     590.631E-03    -292.906E-03     200.133E-03    -305.287E-03     597.892E-03    -292.653E-03     160.459E-03
            1992     6.71628E-03     41.6150E-03    -64.4191E+06    -10.5595E+06     22.9739E+06    -399.925E+03    -297.314E-03     590.203E-03    -292.889E-03     189.464E-03    -304.102E-03     596.658E-03    -292.665E-03     152.086E-03
            1993     6.04473E-03     41.3424E-03    -73.6347E+06    -31.4514E+06     7.81451E+06     2.40141E+03    -296.831E-03     589.685E-03    -292.854E-03     175.884E-03    -302.698E-03     595.157E-03    -292.663E-03     141.293E-03
            1994     5.37304E-03     41.0917E-03    -82.4488E+06    -64.3100E+06    -9.51309E+06    -224.657E+03    -296.216E-03     589.024E-03    -292.808E-03     159.930E-03    -301.081E-03     593.396E-03    -292.643E-03     128.538E-03
            1995     4.70167E-03     40.8666E-03    -90.7672E+06    -95.8751E+06    -27.6481E+06    -386.227E+03    -295.510E-03     588.252E-03    -292.742E-03     142.236E-03    -299.379E-03     591.539E-03    -292.610E-03     114.382E-03
            1996     4.03008E-03     40.6683E-03    -99.6615E+06    -134.355E+06    -47.0601E+06    -278.454E+03    -294.794E-03     587.467E-03    -292.672E-03     123.299E-03    -297.726E-03     589.704E-03    -292.568E-03     99.1991E-03
            1997     3.35862E-03     40.4993E-03    -108.334E+06    -164.912E+06    -66.4896E+06    -217.670E+03    -294.098E-03     586.686E-03    -292.588E-03     103.600E-03    -296.207E-03     588.018E-03    -292.524E-03     83.3976E-03
            1998     2.68716E-03     40.3595E-03    -116.085E+06    -177.678E+06    -85.9529E+06    -120.676E+03    -293.434E-03     585.917E-03    -292.483E-03     83.4987E-03    -294.868E-03     586.558E-03    -292.487E-03     67.2739E-03
            1999     2.01541E-03     40.2502E-03    -122.528E+06    -193.277E+06    -104.389E+06     2.21870E+03    -292.878E-03     585.287E-03    -292.409E-03     63.0777E-03    -293.771E-03     585.362E-03    -292.473E-03     50.8320E-03
            2000     1.34341E-03     40.1712E-03    -127.633E+06    -210.231E+06    -119.283E+06     22.1304E+03    -292.559E-03     584.938E-03    -292.379E-03     42.7090E-03    -293.055E-03     584.581E-03    -292.485E-03     34.4342E-03
            2001     671.585E-06     40.1228E-03    -130.967E+06    -222.024E+06    -129.206E+06     7.87739E+03    -292.657E-03     584.805E-03    -292.147E-03     23.2806E-03    -292.912E-03     584.181E-03    -292.281E-03     18.7349E-03
            2002     12.7641E-03     42.5359E-03    -4.73374E+06     52.7625E+06     81.0814E+06    -1.02123E+06    -293.485E-03     586.326E-03    -292.841E-03     135.455E-03    -298.487E-03     591.264E-03    -292.506E-03     100.632E-03
            2003     12.0934E-03     42.2873E-03    -8.23930E+06     46.8999E+06     75.9027E+06    -942.038E+03    -294.423E-03     587.244E-03    -292.821E-03     177.512E-03    -301.519E-03     594.257E-03    -292.498E-03     136.049E-03
            2004     11.4203E-03     42.0293E-03    -13.3624E+06     39.5308E+06     73.6151E+06     443.553E+03    -295.204E-03     588.058E-03    -292.854E-03     189.705E-03    -302.720E-03     595.454E-03    -292.524E-03     148.059E-03
            2005     10.7472E-03     41.7406E-03    -19.1369E+06     36.9763E+06     76.2522E+06     158.080E+03    -296.333E-03     589.254E-03    -292.922E-03     203.477E-03    -304.640E-03     597.404E-03    -292.566E-03     160.203E-03
            2006     10.0749E-03     41.4390E-03    -25.9113E+06     31.3448E+06     70.6396E+06    -347.854E+03    -297.154E-03     590.105E-03    -292.951E-03     209.510E-03    -305.774E-03     598.539E-03    -292.606E-03     165.843E-03
            2007     9.40336E-03     41.1294E-03    -32.7069E+06     23.3458E+06     60.8123E+06    -365.921E+03    -297.755E-03     590.709E-03    -292.954E-03     212.020E-03    -306.430E-03     599.175E-03    -292.636E-03     168.617E-03
            2008     8.73146E-03     40.8163E-03    -39.2152E+06     16.5741E+06     51.4397E+06    -307.411E+03    -298.124E-03     591.071E-03    -292.947E-03     211.200E-03    -306.621E-03     599.339E-03    -292.657E-03     168.589E-03
            2009     8.05965E-03     40.5058E-03    -47.4603E+06     7.93212E+06     42.5398E+06    -129.880E+03    -298.250E-03     591.184E-03    -292.934E-03     207.143E-03    -306.378E-03     599.049E-03    -292.664E-03     165.729E-03
            2010     7.38781E-03     40.2025E-03    -56.3036E+06    -1.35909E+06     33.5845E+06    -354.897E+03    -298.096E-03     590.998E-03    -292.902E-03     199.473E-03    -305.639E-03     598.239E-03    -292.651E-03     159.784E-03
            2011     6.71659E-03     39.9123E-03    -64.7381E+06    -11.6696E+06     22.2601E+06    -829.756E+03    -297.656E-03     590.496E-03    -292.840E-03     188.603E-03    -304.419E-03     596.923E-03    -292.618E-03     151.207E-03
            2012     6.04509E-03     39.6398E-03    -72.7058E+06    -32.2143E+06     7.32597E+06    -944.756E+03    -296.993E-03     589.753E-03    -292.760E-03     174.911E-03    -302.827E-03     595.194E-03    -292.571E-03     140.319E-03
            2013     5.37381E-03     39.3895E-03    -81.0727E+06    -64.2158E+06    -9.05974E+06    -973.119E+03    -296.256E-03     588.936E-03    -292.681E-03     158.891E-03    -301.089E-03     593.280E-03    -292.515E-03     127.518E-03
            2014     4.70232E-03     39.1644E-03    -90.7828E+06    -96.8977E+06    -27.3954E+06    -786.911E+03    -295.488E-03     588.073E-03    -292.584E-03     141.231E-03    -299.333E-03     591.331E-03    -292.449E-03     113.412E-03
            2015     4.03099E-03     38.9669E-03    -99.2598E+06    -135.074E+06    -46.4450E+06    -314.957E+03    -294.705E-03     587.190E-03    -292.486E-03     122.409E-03    -297.614E-03     589.403E-03    -292.378E-03     98.3619E-03
            2016     3.35937E-03     38.7982E-03    -106.748E+06    -164.596E+06    -65.5331E+06    -125.655E+03    -293.941E-03     586.319E-03    -292.378E-03     102.947E-03    -296.028E-03     587.633E-03    -292.312E-03     82.8104E-03
            2017     2.68755E-03     38.6589E-03    -115.065E+06    -177.976E+06    -85.7064E+06    -113.605E+03    -293.245E-03     585.502E-03    -292.256E-03     83.0540E-03    -294.666E-03     586.130E-03    -292.260E-03     66.8823E-03
            2018     2.01574E-03     38.5501E-03    -122.379E+06    -193.772E+06    -104.381E+06    -81.8779E+03    -292.712E-03     584.873E-03    -292.161E-03     62.7795E-03    -293.599E-03     584.940E-03    -292.225E-03     50.5831E-03
            2019     1.34394E-03     38.4714E-03    -127.675E+06    -210.385E+06    -119.073E+06     87.1782E+03    -292.350E-03     584.447E-03    -292.097E-03     42.4448E-03    -292.842E-03     584.085E-03    -292.203E-03     34.2264E-03
            2020     672.026E-06     38.4226E-03    -130.684E+06    -221.837E+06    -128.297E+06     267.177E+03    -292.335E-03     584.203E-03    -291.868E-03     23.0523E-03    -292.588E-03     583.577E-03    -291.998E-03     18.5608E-03
            2021     12.7638E-03     40.8301E-03    -4.60757E+06     53.1283E+06     81.6395E+06    -1.31295E+06    -293.097E-03     585.947E-03    -292.849E-03     136.636E-03    -298.132E-03     590.917E-03    -292.511E-03     101.811E-03
            2022     12.0912E-03     40.5868E-03    -8.99830E+06     45.3166E+06     75.3379E+06    -60.7327E+03    -294.158E-03     587.016E-03    -292.858E-03     179.757E-03    -301.285E-03     594.054E-03    -292.534E-03     138.478E-03
            2023     11.4187E-03     40.3286E-03    -14.2255E+06     40.4658E+06     73.5293E+06     703.514E+03    -295.419E-03     588.326E-03    -292.907E-03     191.189E-03    -302.956E-03     595.743E-03    -292.577E-03     149.628E-03
            2024     10.7469E-03     40.0391E-03    -20.0702E+06     38.0738E+06     76.5494E+06    -150.146E+03    -296.478E-03     589.454E-03    -292.976E-03     203.625E-03    -304.787E-03     597.605E-03    -292.619E-03     160.371E-03
            2025     10.0749E-03     39.7370E-03    -26.5690E+06     30.3853E+06     70.6969E+06    -384.366E+03    -297.246E-03     590.249E-03    -293.003E-03     209.239E-03    -305.836E-03     598.648E-03    -292.655E-03     165.664E-03
            2026     9.40268E-03     39.4265E-03    -33.2999E+06     23.6197E+06     61.5305E+06    -115.487E+03    -298.036E-03     591.033E-03    -292.998E-03     211.741E-03    -306.682E-03     599.467E-03    -292.676E-03     168.412E-03
            2027     8.73101E-03     39.1137E-03    -40.0041E+06     16.1856E+06     51.3842E+06     438.325E+03    -298.624E-03     591.583E-03    -292.959E-03     210.539E-03    -307.088E-03     599.814E-03    -292.667E-03     167.961E-03
            2028     8.05955E-03     38.8025E-03    -47.3727E+06     8.00605E+06     41.9469E+06     536.328E+03    -298.771E-03     591.661E-03    -292.890E-03     205.932E-03    -306.853E-03     599.482E-03    -292.624E-03     164.528E-03
            2029     7.38877E-03     38.4992E-03    -54.5811E+06    -56.4403E+03     33.8548E+06     245.967E+03    -298.475E-03     591.276E-03    -292.801E-03     198.116E-03    -305.966E-03     598.475E-03    -292.553E-03     158.445E-03
            2030     6.71757E-03     38.2093E-03    -62.0902E+06    -10.0376E+06     23.5769E+06    -297.937E+03    -297.867E-03     590.556E-03    -292.689E-03     187.362E-03    -304.581E-03     596.945E-03    -292.467E-03     149.997E-03
            2031     6.04656E-03     37.9373E-03    -71.0198E+06    -32.1724E+06     8.18730E+06    -971.489E+03    -297.080E-03     589.644E-03    -292.565E-03     173.865E-03    -302.874E-03     595.048E-03    -292.374E-03     139.311E-03
            2032     5.37517E-03     37.6876E-03    -80.2890E+06    -65.2951E+06    -9.06819E+06    -671.021E+03    -296.211E-03     588.657E-03    -292.446E-03     158.033E-03    -301.008E-03     592.964E-03    -292.281E-03     126.741E-03
            2033     4.70384E-03     37.4630E-03    -88.9583E+06    -96.8586E+06    -27.6139E+06    -480.772E+03    -295.298E-03     587.621E-03    -292.323E-03     140.512E-03    -299.106E-03     590.850E-03    -292.191E-03     112.797E-03
            2034     4.03210E-03     37.2660E-03    -97.7881E+06    -135.780E+06    -46.4172E+06    -853.093E+03    -294.450E-03     586.667E-03    -292.217E-03     121.859E-03    -297.330E-03     588.853E-03    -292.110E-03     97.9071E-03
            2035     3.36039E-03     37.0981E-03    -106.715E+06    -166.102E+06    -64.6379E+06    -252.040E+03    -293.680E-03     585.791E-03    -292.111E-03     102.472E-03    -295.750E-03     587.080E-03    -292.038E-03     82.4304E-03
            2036     2.68849E-03     36.9594E-03    -114.440E+06    -178.155E+06    -84.0507E+06     721.711E+03    -292.979E-03     584.963E-03    -291.984E-03     82.5990E-03    -294.386E-03     585.575E-03    -291.980E-03     66.5259E-03
            2037     2.01644E-03     36.8506E-03    -121.296E+06    -193.355E+06    -103.278E+06     875.733E+03    -292.469E-03     584.342E-03    -291.873E-03     62.4638E-03    -293.345E-03     584.401E-03    -291.933E-03     50.3578E-03
            2038     1.34438E-03     36.7723E-03    -126.616E+06    -209.761E+06    -118.527E+06     449.636E+03    -292.102E-03     583.883E-03    -291.781E-03     42.3309E-03    -292.588E-03     583.519E-03    -291.886E-03     34.1609E-03
            2039     672.218E-06     36.7241E-03    -129.664E+06    -221.229E+06    -128.024E+06     62.1261E+03    -292.002E-03     583.541E-03    -291.538E-03     23.0807E-03    -292.251E-03     582.915E-03    -291.670E-03     18.6256E-03
            2040     12.7620E-03     39.1306E-03    -4.91157E+06     53.5049E+06     82.0486E+06    -118.215E+03    -292.255E-03     585.186E-03    -292.930E-03     136.950E-03    -297.273E-03     590.138E-03    -292.591E-03     102.329E-03
            2041     12.0892E-03     38.8842E-03    -11.6807E+06     44.1329E+06     72.5348E+06    -815.043E+03    -294.425E-03     587.371E-03    -292.946E-03     178.885E-03    -301.539E-03     594.390E-03    -292.630E-03     137.561E-03
            2042     11.4180E-03     38.6252E-03    -15.4375E+06     39.6991E+06     72.0219E+06    -767.704E+03    -295.895E-03     588.870E-03    -292.975E-03     190.379E-03    -303.442E-03     596.294E-03    -292.650E-03     148.613E-03
            2043     10.7462E-03     38.3364E-03    -19.6240E+06     38.3746E+06     76.5604E+06     614.179E+03    -296.789E-03     589.811E-03    -293.022E-03     203.329E-03    -305.097E-03     597.964E-03    -292.666E-03     160.019E-03
            2044     10.0743E-03     38.0348E-03    -25.7152E+06     31.3046E+06     71.0933E+06     963.570E+03    -297.739E-03     590.763E-03    -293.024E-03     209.041E-03    -306.302E-03     599.140E-03    -292.677E-03     165.511E-03
            2045     9.40264E-03     37.7237E-03    -33.0350E+06     23.9207E+06     61.0455E+06     430.734E+03    -298.731E-03     591.703E-03    -292.972E-03     210.869E-03    -307.339E-03     600.102E-03    -292.654E-03     167.521E-03
            2046     8.73165E-03     37.4095E-03    -40.6615E+06     15.4929E+06     50.0505E+06    -461.477E+03    -299.241E-03     592.110E-03    -292.868E-03     209.160E-03    -307.670E-03     600.304E-03    -292.581E-03     166.487E-03
            2047     8.06134E-03     37.0986E-03    -47.0247E+06     7.80161E+06     41.6754E+06    -779.235E+03    -299.120E-03     591.860E-03    -292.741E-03     204.636E-03    -307.160E-03     599.640E-03    -292.475E-03     163.199E-03
            2048     7.39029E-03     36.7960E-03    -53.9344E+06       -6.81E+03     34.0097E+06    -745.368E+03    -298.593E-03     591.199E-03    -292.607E-03     197.204E-03    -306.039E-03     598.356E-03    -292.358E-03     157.582E-03
            2049     6.71943E-03     36.5065E-03    -61.8612E+06    -9.71886E+06     23.9685E+06    -559.201E+03    -297.867E-03     590.330E-03    -292.463E-03     186.710E-03    -304.546E-03     596.685E-03    -292.240E-03     149.415E-03
            2050     6.04810E-03     36.2354E-03    -70.7183E+06    -32.0194E+06     8.32118E+06         501.504    -297.009E-03     589.321E-03    -292.312E-03     173.332E-03    -302.771E-03     594.694E-03    -292.121E-03     138.883E-03
            2051     5.37682E-03     35.9863E-03    -80.0393E+06    -65.3891E+06    -9.90228E+06    -11.8935E+03    -296.044E-03     588.214E-03    -292.170E-03     157.607E-03    -300.810E-03     592.492E-03    -292.009E-03     126.441E-03
            2052     4.70510E-03     35.7626E-03    -89.2581E+06    -96.2659E+06    -28.5498E+06    -316.946E+03    -295.034E-03     587.071E-03    -292.037E-03     140.167E-03    -298.819E-03     590.280E-03    -291.911E-03     112.580E-03
            2053     4.03330E-03     35.5664E-03    -98.3605E+06    -136.093E+06    -47.4651E+06    -107.732E+03    -294.162E-03     586.093E-03    -291.931E-03     121.557E-03    -297.024E-03     588.260E-03    -291.828E-03     97.7348E-03
            2054     3.36129E-03     35.3988E-03    -107.135E+06    -167.825E+06    -66.0530E+06     136.054E+03    -293.419E-03     585.242E-03    -291.823E-03     102.209E-03    -295.472E-03     586.511E-03    -291.754E-03     82.2708E-03
            2055     2.68922E-03     35.2607E-03    -114.837E+06    -179.228E+06    -84.7097E+06     441.683E+03    -292.730E-03     584.422E-03    -291.692E-03     82.4224E-03    -294.127E-03     585.021E-03    -291.689E-03     66.4281E-03
            2056     2.01703E-03     35.1524E-03    -121.182E+06    -192.267E+06    -102.851E+06     925.048E+03    -292.165E-03     583.744E-03    -291.579E-03     62.3352E-03    -293.036E-03     583.801E-03    -291.639E-03     50.3000E-03
            2057     1.34469E-03     35.0743E-03    -126.326E+06    -207.814E+06    -117.770E+06     950.589E+03    -291.770E-03     583.272E-03    -291.501E-03     42.1810E-03    -292.256E-03     582.913E-03    -291.606E-03     34.0569E-03
            2058     672.365E-06     35.0263E-03    -129.731E+06    -220.000E+06    -127.318E+06     744.829E+03    -291.722E-03     583.002E-03    -291.280E-03     22.9743E-03    -291.973E-03     582.381E-03    -291.409E-03     18.5340E-03
            2059     12.7608E-03     37.4273E-03    -3.48683E+06     54.7391E+06     82.9781E+06     1.22093E+06    -292.753E-03     585.726E-03    -292.973E-03     135.349E-03    -297.732E-03     590.646E-03    -292.632E-03     100.721E-03
            2060     12.0900E-03     37.1817E-03    -7.33472E+06     47.3926E+06     75.7295E+06     1.70348E+06    -294.398E-03     587.376E-03    -292.978E-03     177.916E-03    -301.454E-03     594.355E-03    -292.657E-03     136.734E-03
            2061     11.4179E-03     36.9221E-03    -14.6297E+06     38.9319E+06     71.7399E+06     679.862E+03    -295.773E-03     588.778E-03    -293.005E-03     190.171E-03    -303.296E-03     596.179E-03    -292.681E-03     148.494E-03
            2062     10.7459E-03     36.6346E-03    -21.5470E+06     37.1955E+06     74.3878E+06    -460.748E+03    -297.382E-03     590.414E-03    -293.032E-03     203.083E-03    -305.694E-03     598.566E-03    -292.683E-03     159.643E-03
            2063     10.0744E-03     36.3310E-03    -26.8954E+06     30.7349E+06     70.2600E+06    -504.754E+03    -298.776E-03     591.754E-03    -292.978E-03     208.036E-03    -307.339E-03     600.127E-03    -292.632E-03     164.264E-03
            2064     9.40405E-03     36.0190E-03    -32.7304E+06     23.9358E+06     61.6807E+06    -338.766E+03    -299.421E-03     592.273E-03    -292.852E-03     209.638E-03    -308.007E-03     600.648E-03    -292.531E-03     166.147E-03
            2065     8.73390E-03     35.7050E-03    -38.8335E+06     16.9819E+06     51.7857E+06    -217.390E+03    -299.412E-03     592.109E-03    -292.696E-03     208.378E-03    -307.804E-03     600.272E-03    -292.406E-03     165.732E-03
            2066     8.06288E-03     35.3951E-03    -46.2116E+06     8.55096E+06     42.5033E+06    -730.780E+03    -299.107E-03     591.650E-03    -292.542E-03     204.275E-03    -307.109E-03     599.395E-03    -292.275E-03     162.938E-03
            2067     7.39216E-03     35.0931E-03    -54.3577E+06    -275.200E+03     33.0052E+06    -1.09860E+06    -298.602E-03     590.986E-03    -292.384E-03     196.964E-03    -306.017E-03     598.111E-03    -292.140E-03     157.427E-03
            2068     6.72088E-03     34.8045E-03    -63.2524E+06    -11.8049E+06     21.3612E+06    -541.496E+03    -297.809E-03     590.026E-03    -292.217E-03     186.367E-03    -304.455E-03     596.344E-03    -292.002E-03     149.175E-03
            2069     6.04971E-03     34.5338E-03    -72.1660E+06    -32.9961E+06     6.33573E+06     164.855E+03    -296.838E-03     588.891E-03    -292.053E-03     172.911E-03    -302.565E-03     594.226E-03    -291.869E-03     138.606E-03
            2070     5.37810E-03     34.2858E-03    -81.1320E+06    -64.2576E+06    -11.1672E+06     240.513E+03    -295.815E-03     587.719E-03    -291.904E-03     157.167E-03    -300.549E-03     591.969E-03    -291.749E-03     126.159E-03
            2071     4.70638E-03     34.0631E-03    -90.4423E+06    -96.5861E+06    -29.6531E+06     280.668E+03    -294.818E-03     586.585E-03    -291.767E-03     139.727E-03    -298.574E-03     589.764E-03    -291.645E-03     112.304E-03
            2072     4.03434E-03     33.8675E-03    -98.9324E+06    -136.282E+06    -47.8204E+06     500.276E+03    -293.943E-03     585.598E-03    -291.655E-03     121.128E-03    -296.779E-03     587.737E-03    -291.553E-03     97.4672E-03
            2073     3.36225E-03     33.7005E-03    -106.769E+06    -167.308E+06    -66.1087E+06     371.806E+03    -293.163E-03     584.701E-03    -291.539E-03     101.788E-03    -295.193E-03     585.951E-03    -291.472E-03     81.9953E-03
            2074     2.68995E-03     33.5628E-03    -114.668E+06    -179.690E+06    -85.0481E+06     138.697E+03    -292.455E-03     583.858E-03    -291.403E-03     82.0195E-03    -293.835E-03     584.440E-03    -291.402E-03     66.1406E-03
            2075     2.01758E-03     33.4550E-03    -121.669E+06    -192.288E+06    -103.103E+06     209.902E+03    -291.888E-03     583.174E-03    -291.285E-03     62.0005E-03    -292.753E-03     583.223E-03    -291.346E-03     50.0460E-03
            2076     1.34512E-03     33.3773E-03    -126.698E+06    -206.690E+06    -117.835E+06     414.391E+03    -291.482E-03     582.680E-03    -291.198E-03     41.9175E-03    -291.966E-03     582.323E-03    -291.304E-03     33.8554E-03
            2077     672.547E-06     33.3294E-03    -129.514E+06    -218.164E+06    -127.210E+06     136.127E+03    -291.380E-03     582.383E-03    -291.003E-03     22.7914E-03    -291.631E-03     581.769E-03    -291.135E-03     18.3933E-03
            2078     12.7631E-03     35.7268E-03    -5.11487E+06     52.7651E+06     80.6082E+06     1.05995E+06    -292.803E-03     585.784E-03    -292.982E-03     136.138E-03    -297.779E-03     590.696E-03    -292.648E-03     101.579E-03
            2079     12.0896E-03     35.4792E-03    -9.81855E+06     46.3816E+06     73.8516E+06     1.99119E+06    -294.631E-03     587.619E-03    -292.988E-03     178.695E-03    -301.694E-03     594.598E-03    -292.672E-03     137.602E-03
            2080     11.4171E-03     35.2213E-03    -13.4605E+06     41.5405E+06     72.9102E+06     1.53618E+06    -296.542E-03     589.533E-03    -292.992E-03     189.744E-03    -304.068E-03     596.948E-03    -292.668E-03     147.915E-03
            2081     10.7457E-03     34.9288E-03    -19.4840E+06     39.4889E+06     75.5913E+06     372.443E+03    -298.312E-03     591.268E-03    -292.955E-03     201.708E-03    -306.599E-03     599.406E-03    -292.606E-03     158.090E-03
            2082     10.0765E-03     34.6253E-03    -25.8445E+06     31.7759E+06     70.9167E+06    -607.179E+03    -299.183E-03     592.024E-03    -292.841E-03     207.021E-03    -307.722E-03     600.378E-03    -292.495E-03     163.161E-03
            2083     9.40634E-03     34.3142E-03    -31.4920E+06     24.0170E+06     63.5562E+06    -642.291E+03    -299.438E-03     592.131E-03    -292.693E-03     209.556E-03    -307.994E-03     600.477E-03    -292.365E-03     166.144E-03
            2084     8.73524E-03     34.0016E-03    -38.8785E+06     16.0445E+06     52.9641E+06    -428.894E+03    -299.404E-03     591.933E-03    -292.529E-03     208.505E-03    -307.763E-03     600.057E-03    -292.231E-03     165.990E-03
            2085     8.06446E-03     33.6919E-03    -46.1674E+06     9.00332E+06     43.5238E+06     219.253E+03    -299.174E-03     591.533E-03    -292.359E-03     204.118E-03    -307.134E-03     599.234E-03    -292.088E-03     162.924E-03
            2086     7.39336E-03     33.3903E-03    -54.1227E+06    -352.083E+03     33.1993E+06     749.737E+03    -298.621E-03     590.799E-03    -292.178E-03     196.496E-03    -305.987E-03     597.876E-03    -291.933E-03     157.101E-03
            2087     6.72258E-03     33.1026E-03    -63.2030E+06    -12.0095E+06     20.4119E+06     726.248E+03    -297.728E-03     589.716E-03    -291.988E-03     185.823E-03    -304.320E-03     595.982E-03    -291.777E-03     148.801E-03
            2088     6.05112E-03     32.8333E-03    -72.2266E+06    -33.0806E+06     5.43503E+06     490.652E+03    -296.699E-03     588.510E-03    -291.811E-03     172.373E-03    -302.371E-03     593.793E-03    -291.632E-03     138.262E-03
            2089     5.37948E-03     32.5861E-03    -81.1193E+06    -64.4630E+06    -11.1507E+06     818.679E+03    -295.684E-03     587.338E-03    -291.654E-03     156.542E-03    -300.366E-03     591.536E-03    -291.499E-03     125.744E-03
            2090     4.70754E-03     32.3642E-03    -89.4733E+06    -95.4783E+06    -28.8988E+06     805.915E+03    -294.700E-03     586.199E-03    -291.498E-03     139.020E-03    -298.409E-03     589.335E-03    -291.375E-03     111.800E-03
            2091     4.03551E-03     32.1694E-03    -97.7769E+06    -135.503E+06    -46.7858E+06     103.017E+03    -293.793E-03     585.155E-03    -291.363E-03     120.398E-03    -296.589E-03     587.259E-03    -291.258E-03     96.9144E-03
            2092     3.36325E-03     32.0031E-03    -106.179E+06    -167.433E+06    -64.3931E+06    -4.99940E+03    -292.953E-03     584.178E-03    -291.225E-03     101.072E-03    -294.955E-03     585.396E-03    -291.150E-03     81.4368E-03
            2093     2.69085E-03     31.8660E-03    -113.893E+06    -179.306E+06    -83.0707E+06     211.776E+03    -292.185E-03     583.250E-03    -291.065E-03     81.3196E-03    -293.545E-03     583.810E-03    -291.055E-03     65.5880E-03
            2094     2.01825E-03     31.7587E-03    -120.627E+06    -191.974E+06    -101.934E+06     37.1247E+03    -291.575E-03     582.495E-03    -290.920E-03     61.3776E-03    -292.424E-03     582.530E-03    -290.976E-03     49.5364E-03
            2095     1.34558E-03     31.6812E-03    -125.854E+06    -206.438E+06    -117.294E+06    -274.367E+03    -291.133E-03     581.940E-03    -290.806E-03     41.4763E-03    -291.609E-03     581.576E-03    -290.911E-03     33.4800E-03
            2096     672.877E-06     31.6338E-03    -128.813E+06    -218.034E+06    -126.964E+06    -108.889E+03    -290.928E-03     581.573E-03    -290.644E-03     22.5221E-03    -291.174E-03     580.956E-03    -290.776E-03     18.1694E-03
            2097     12.7590E-03     34.0227E-03    -4.85128E+06     51.8875E+06     80.3456E+06     1.51855E+06    -293.411E-03     586.434E-03    -293.023E-03     136.274E-03    -298.396E-03     591.353E-03    -292.689E-03     101.700E-03
            2098     12.0885E-03     33.7768E-03    -9.42681E+06     46.9580E+06     73.1818E+06    -528.752E+03    -295.766E-03     588.737E-03    -292.971E-03     177.748E-03    -302.872E-03     595.763E-03    -292.659E-03     136.177E-03
            2099     11.4188E-03     33.5150E-03    -13.2035E+06     39.3643E+06     71.5661E+06    -911.053E+03    -297.610E-03     590.509E-03    -292.900E-03     189.262E-03    -305.159E-03     597.944E-03    -292.580E-03     147.083E-03
            2100     10.7499E-03     33.2240E-03    -15.9838E+06     39.2593E+06     77.7692E+06     1.60799E+06    -298.592E-03     591.416E-03    -292.824E-03     201.831E-03    -306.865E-03     599.546E-03    -292.469E-03     158.212E-03
            2101     10.0782E-03     32.9212E-03    -22.0831E+06     35.4334E+06     73.3625E+06     2.49968E+06    -298.979E-03     591.678E-03    -292.700E-03     207.570E-03    -307.489E-03     600.024E-03    -292.352E-03     163.902E-03
            2102     9.40677E-03     32.6102E-03    -30.6975E+06     25.4568E+06     63.2972E+06     1.77687E+06    -299.392E-03     591.944E-03    -292.552E-03     209.679E-03    -307.921E-03     600.271E-03    -292.228E-03     166.390E-03
            2103     8.73633E-03     32.2977E-03    -38.3665E+06     16.3870E+06     52.0774E+06     1.39183E+06    -299.558E-03     591.932E-03    -292.374E-03     208.177E-03    -307.870E-03     600.016E-03    -292.082E-03     165.761E-03
            2104     8.06575E-03     31.9885E-03    -45.8743E+06     8.74690E+06     42.3029E+06     1.25255E+06    -299.313E-03     591.493E-03    -292.180E-03     203.668E-03    -307.216E-03     599.141E-03    -291.915E-03     162.595E-03
            2105     7.39525E-03     31.6880E-03    -54.2086E+06    -783.499E+03     33.0361E+06     1.34365E+06    -298.617E-03     590.601E-03    -291.984E-03     196.017E-03    -305.923E-03     597.616E-03    -291.739E-03     156.792E-03
            2106     6.72383E-03     31.4015E-03    -62.6580E+06    -11.1275E+06     21.9845E+06     1.47776E+06    -297.707E-03     589.490E-03    -291.782E-03     185.221E-03    -304.235E-03     595.691E-03    -291.566E-03     148.412E-03
            2107     6.05244E-03     31.1331E-03    -71.4215E+06    -32.0038E+06     7.35929E+06     1.47404E+06    -296.756E-03     588.336E-03    -291.580E-03     171.514E-03    -302.359E-03     593.551E-03    -291.394E-03     137.639E-03
            2108     5.38079E-03     30.8870E-03    -80.2233E+06    -63.6336E+06    -9.10475E+06     912.040E+03    -295.746E-03     587.128E-03    -291.382E-03     155.439E-03    -300.362E-03     591.260E-03    -291.219E-03     124.867E-03
            2109     4.70901E-03     30.6659E-03    -88.5599E+06    -93.9286E+06    -26.9010E+06     230.210E+03    -294.678E-03     585.853E-03    -291.175E-03     137.751E-03    -298.329E-03     588.934E-03    -291.045E-03     110.743E-03
            2110     4.03690E-03     30.4721E-03    -96.5719E+06    -134.577E+06    -45.4272E+06     129.263E+03    -293.677E-03     584.661E-03    -290.983E-03     119.068E-03    -296.423E-03     586.717E-03    -290.875E-03     95.7934E-03
            2111     3.36464E-03     30.3067E-03    -104.698E+06    -167.466E+06    -63.5690E+06    -29.8924E+03    -292.739E-03     583.529E-03    -290.790E-03     99.7983E-03    -294.700E-03     584.708E-03    -290.713E-03     80.3444E-03
            2112     2.69208E-03     30.1703E-03    -112.470E+06    -179.286E+06    -82.2592E+06    -260.446E+03    -291.860E-03     582.437E-03    -290.577E-03     80.1967E-03    -293.190E-03     582.970E-03    -290.565E-03     64.6073E-03
            2113     2.01936E-03     30.0636E-03    -119.208E+06    -191.723E+06    -100.697E+06    -183.616E+03    -291.133E-03     581.522E-03    -290.389E-03     60.4571E-03    -291.964E-03     581.541E-03    -290.442E-03     48.7308E-03
            2114     1.34636E-03     29.9868E-03    -124.347E+06    -206.433E+06    -115.990E+06    -19.2151E+03    -290.594E-03     580.843E-03    -290.249E-03     40.8207E-03    -291.057E-03     580.468E-03    -290.349E-03     32.9103E-03
            2115     673.181E-06     29.9396E-03    -127.488E+06    -218.551E+06    -125.473E+06    -37.4258E+03    -290.331E-03     580.441E-03    -290.110E-03     22.1492E-03    -290.569E-03     579.815E-03    -290.236E-03     17.8340E-03
            2116     12.7620E-03     32.3172E-03    -3.99281E+06     51.5722E+06     80.4048E+06    -353.245E+03    -293.845E-03     586.818E-03    -292.973E-03     134.302E-03    -298.840E-03     591.749E-03    -292.640E-03     99.3818E-03
            2117     12.0914E-03     32.0723E-03    -8.01793E+06     47.9423E+06     71.5164E+06    -1.23562E+06    -296.059E-03     588.940E-03    -292.881E-03     177.918E-03    -303.200E-03     596.015E-03    -292.581E-03     136.077E-03
            2118     11.4206E-03     31.8086E-03    -11.3096E+06     37.9280E+06     70.0709E+06    -324.572E+03    -297.500E-03     590.308E-03    -292.808E-03     190.491E-03    -305.056E-03     597.755E-03    -292.496E-03     148.406E-03
            2119     10.7485E-03     31.5194E-03    -17.1139E+06     33.6624E+06     75.7110E+06     188.450E+03    -298.465E-03     591.220E-03    -292.755E-03     203.204E-03    -306.746E-03     599.340E-03    -292.400E-03     159.692E-03
            2120     10.0784E-03     31.2165E-03    -23.7978E+06     32.8143E+06     73.3292E+06     1.99237E+06    -299.329E-03     591.965E-03    -292.636E-03     208.414E-03    -307.852E-03     600.308E-03    -292.283E-03     164.741E-03
            2121     9.40852E-03     30.9061E-03    -29.4897E+06     26.2998E+06     65.5672E+06     3.48284E+06    -299.825E-03     592.290E-03    -292.465E-03     209.945E-03    -308.338E-03     600.602E-03    -292.133E-03     166.663E-03
            2122     8.73789E-03     30.5939E-03    -35.6500E+06     18.7891E+06     54.5897E+06     3.98654E+06    -299.874E-03     592.128E-03    -292.254E-03     208.172E-03    -308.137E-03     600.173E-03    -291.956E-03     165.874E-03
            2123     8.06726E-03     30.2854E-03    -43.4827E+06     10.8444E+06     44.3777E+06     3.91513E+06    -299.501E-03     591.533E-03    -292.032E-03     203.353E-03    -307.335E-03     599.123E-03    -291.763E-03     162.474E-03
            2124     7.39606E-03     29.9860E-03    -52.2652E+06     1.17056E+06     35.3330E+06     3.28848E+06    -298.858E-03     590.665E-03    -291.807E-03     195.263E-03    -306.081E-03     597.604E-03    -291.556E-03     156.264E-03
            2125     6.72523E-03     29.7004E-03    -61.1801E+06    -9.38361E+06     24.8183E+06     2.44148E+06    -298.058E-03     589.616E-03    -291.558E-03     183.912E-03    -304.492E-03     595.728E-03    -291.332E-03     147.341E-03
            2126     6.05405E-03     29.4330E-03    -69.7560E+06    -29.6476E+06     10.3082E+06     1.39735E+06    -297.090E-03     588.371E-03    -291.281E-03     169.704E-03    -302.598E-03     593.496E-03    -291.085E-03     136.062E-03
            2127     5.38279E-03     29.1880E-03    -77.8692E+06    -61.6030E+06    -6.64028E+06     526.581E+03    -295.956E-03     586.948E-03    -290.991E-03     153.333E-03    -300.479E-03     590.994E-03    -290.822E-03     122.997E-03
            2128     4.71114E-03     28.9683E-03    -85.8388E+06    -93.5279E+06    -24.7000E+06     511.923E+03    -294.726E-03     585.417E-03    -290.690E-03     135.503E-03    -298.289E-03     588.415E-03    -290.554E-03     108.752E-03
            2129     4.03916E-03     28.7758E-03    -94.3647E+06    -133.949E+06    -43.5876E+06     597.438E+03    -293.532E-03     583.934E-03    -290.402E-03     116.819E-03    -296.206E-03     585.924E-03    -290.289E-03     93.8013E-03
            2130     3.36679E-03     28.6115E-03    -102.808E+06    -166.362E+06    -62.2903E+06     374.337E+03    -292.388E-03     582.504E-03    -290.116E-03     97.7010E-03    -294.294E-03     583.635E-03    -290.037E-03     78.4878E-03
            2131     2.69405E-03     28.4764E-03    -110.673E+06    -178.847E+06    -81.3618E+06     141.702E+03    -291.314E-03     581.140E-03    -289.826E-03     78.3948E-03    -292.603E-03     581.638E-03    -289.813E-03     63.0190E-03
            2132     2.02086E-03     28.3706E-03    -117.525E+06    -191.958E+06    -99.6647E+06     51.1754E+03    -290.437E-03     580.018E-03    -289.581E-03     59.0224E-03    -291.240E-03     580.011E-03    -289.630E-03     47.4677E-03
            2133     1.34742E-03     28.2946E-03    -122.589E+06    -206.556E+06    -114.345E+06     84.3621E+03    -289.801E-03     579.199E-03    -289.398E-03     39.7912E-03    -290.248E-03     578.809E-03    -289.493E-03     32.0013E-03
            2134     673.766E-06     28.2479E-03    -125.506E+06    -218.020E+06    -123.650E+06    -38.6396E+03    -289.410E-03     578.692E-03    -289.282E-03     21.5649E-03    -289.639E-03     578.060E-03    -289.402E-03     17.3127E-03
            2135     12.7627E-03     30.6171E-03    -3.23727E+06     51.8660E+06     79.5211E+06    -288.446E+03    -293.447E-03     586.322E-03    -292.874E-03     136.275E-03    -298.457E-03     591.273E-03    -292.547E-03     101.387E-03
            2136     12.0907E-03     30.3649E-03    -7.37986E+06     49.3169E+06     70.3400E+06     586.270E+03    -295.524E-03     588.333E-03    -292.809E-03     178.977E-03    -302.665E-03     595.419E-03    -292.518E-03     137.371E-03
            2137     11.4198E-03     30.1061E-03    -12.9153E+06     38.0431E+06     67.1227E+06     45.9812E+03    -296.976E-03     589.741E-03    -292.766E-03     190.846E-03    -304.552E-03     597.212E-03    -292.467E-03     148.805E-03
            2138     10.7495E-03     29.8142E-03    -20.1510E+06     31.5020E+06     72.2131E+06    -339.703E+03    -298.477E-03     591.208E-03    -292.731E-03     203.387E-03    -306.754E-03     599.316E-03    -292.386E-03     159.901E-03
            2139     10.0788E-03     29.5110E-03    -25.9452E+06     29.3107E+06     70.0582E+06    -671.390E+03    -299.612E-03     592.219E-03    -292.606E-03     208.687E-03    -308.118E-03     600.533E-03    -292.261E-03     164.982E-03
            2140     9.40818E-03     29.2004E-03    -31.1499E+06     22.1435E+06     63.5773E+06    -10.4047E+03    -300.297E-03     592.717E-03    -292.420E-03     210.299E-03    -308.768E-03     600.971E-03    -292.089E-03     167.056E-03
            2141     8.73819E-03     28.8892E-03    -37.2817E+06     15.8584E+06     55.0426E+06     1.56455E+06    -300.494E-03     592.674E-03    -292.180E-03     208.047E-03    -308.697E-03     600.642E-03    -291.874E-03     165.832E-03
            2142     8.06783E-03     28.5820E-03    -43.5353E+06     9.85346E+06     46.8023E+06     2.97388E+06    -300.276E-03     592.175E-03    -291.899E-03     202.290E-03    -308.019E-03     599.663E-03    -291.616E-03     161.540E-03
            2143     7.39778E-03     28.2834E-03    -49.9529E+06     2.89951E+06     38.8103E+06     3.67580E+06    -299.716E-03     591.291E-03    -291.575E-03     193.189E-03    -306.811E-03     598.106E-03    -291.312E-03     154.392E-03
            2144     6.72734E-03     27.9988E-03    -57.4092E+06    -5.58068E+06     28.0070E+06     3.17895E+06    -298.818E-03     590.013E-03    -291.195E-03     181.110E-03    -305.108E-03     595.998E-03    -290.964E-03     144.789E-03
            2145     6.05696E-03     27.7328E-03    -65.3777E+06    -26.2719E+06     12.6187E+06     2.37811E+06    -297.621E-03     588.397E-03    -290.775E-03     166.443E-03    -302.979E-03     593.393E-03    -290.579E-03     133.106E-03
            2146     5.38606E-03     27.4896E-03    -73.9581E+06    -59.6787E+06    -4.59468E+06     2.03695E+06    -296.221E-03     586.565E-03    -290.344E-03     149.827E-03    -300.600E-03     590.483E-03    -290.173E-03     119.847E-03
            2147     4.71472E-03     27.2717E-03    -83.2377E+06    -92.3728E+06    -22.5875E+06     1.65618E+06    -294.704E-03     584.606E-03    -289.902E-03     131.964E-03    -298.145E-03     587.489E-03    -289.761E-03     105.590E-03
            2148     4.04282E-03     27.0811E-03    -92.0766E+06    -132.694E+06    -40.8926E+06     1.35802E+06    -293.205E-03     582.685E-03    -289.480E-03     113.464E-03    -295.780E-03     584.581E-03    -289.359E-03     90.8202E-03
            2149     3.37030E-03     26.9187E-03    -100.482E+06    -164.956E+06    -59.4626E+06     1.20165E+06    -291.775E-03     580.845E-03    -289.070E-03     94.6534E-03    -293.604E-03     581.904E-03    -288.983E-03     75.8045E-03
            2150     2.69708E-03     26.7852E-03    -108.473E+06    -177.814E+06    -78.6591E+06     984.148E+03    -290.450E-03     579.122E-03    -288.673E-03     75.7341E-03    -291.683E-03     579.568E-03    -288.651E-03     60.6897E-03
            2151     2.02336E-03     26.6808E-03    -115.353E+06    -191.022E+06    -97.1909E+06     737.483E+03    -289.366E-03     577.703E-03    -288.336E-03     56.8758E-03    -290.132E-03     577.663E-03    -288.378E-03     45.5909E-03
            2152     1.34918E-03     26.6058E-03    -120.720E+06    -205.785E+06    -112.280E+06     395.515E+03    -288.578E-03     576.659E-03    -288.081E-03     38.2704E-03    -289.004E-03     576.251E-03    -288.169E-03     30.6691E-03
            2153     674.724E-06     26.5597E-03    -124.103E+06    -217.384E+06    -121.988E+06     233.653E+03    -287.984E-03     575.978E-03    -287.993E-03     20.6922E-03    -288.204E-03     575.339E-03    -288.108E-03     16.5537E-03
            2154     12.7630E-03     28.9099E-03    -4.73974E+06     50.9605E+06     78.3262E+06    -215.020E+03    -293.808E-03     586.707E-03    -292.899E-03     139.265E-03    -298.899E-03     591.735E-03    -292.575E-03     104.325E-03
            2155     12.0926E-03     28.6647E-03    -8.10534E+06     49.5137E+06     71.2825E+06     57.2527E+03    -295.507E-03     588.350E-03    -292.843E-03     180.855E-03    -302.736E-03     595.520E-03    -292.547E-03     139.135E-03
            2156     11.4205E-03     28.4011E-03    -13.4824E+06     39.0556E+06     67.6923E+06     645.873E+03    -297.285E-03     590.086E-03    -292.801E-03     192.892E-03    -304.919E-03     597.615E-03    -292.500E-03     150.798E-03
            2157     10.7493E-03     28.1099E-03    -17.3366E+06     34.8296E+06     74.5920E+06     657.271E+03    -299.076E-03     591.831E-03    -292.755E-03     204.714E-03    -307.353E-03     599.953E-03    -292.407E-03     161.232E-03
            2158     10.0785E-03     27.8054E-03    -23.0159E+06     30.0773E+06     70.4656E+06    -28.3539E+03    -300.255E-03     592.850E-03    -292.596E-03     208.859E-03    -308.692E-03     601.108E-03    -292.254E-03     165.260E-03
            2159     9.40865E-03     27.4948E-03    -30.7482E+06     19.9936E+06     60.0267E+06    -287.068E+03    -301.155E-03     593.499E-03    -292.345E-03     209.002E-03    -309.513E-03     601.645E-03    -292.029E-03     165.851E-03
            2160     8.73872E-03     27.1835E-03    -38.1028E+06     12.9996E+06     50.1948E+06    -406.832E+03    -301.625E-03     593.633E-03    -292.008E-03     205.472E-03    -309.680E-03     601.453E-03    -291.720E-03     163.331E-03
            2161     8.06969E-03     26.8766E-03    -44.6848E+06     7.26584E+06     42.7245E+06    -665.369E+03    -301.588E-03     593.179E-03    -291.590E-03     198.722E-03    -309.150E-03     600.484E-03    -291.322E-03     158.085E-03
            2162     7.40061E-03     26.5794E-03    -50.9919E+06     735.945E+03     36.4103E+06    -421.330E+03    -300.974E-03     592.070E-03    -291.096E-03     188.884E-03    -307.861E-03     598.673E-03    -290.841E-03     150.313E-03
            2163     6.73162E-03     26.2965E-03    -57.7373E+06    -6.97759E+06     27.3980E+06     1.10221E+06    -299.791E-03     590.315E-03    -290.524E-03     176.163E-03    -305.855E-03     596.070E-03    -290.293E-03     140.224E-03
            2164     6.06186E-03     26.0330E-03    -66.0139E+06    -25.5711E+06     12.8082E+06     2.55527E+06    -298.210E-03     588.106E-03    -289.896E-03     160.995E-03    -303.346E-03     592.880E-03    -289.700E-03     128.177E-03
            2165     5.39161E-03     25.7922E-03    -74.8030E+06    -57.0447E+06    -4.02675E+06     2.47927E+06    -296.371E-03     585.626E-03    -289.255E-03     144.163E-03    -300.548E-03     589.347E-03    -289.084E-03     114.782E-03
            2166     4.72051E-03     25.5771E-03    -83.2161E+06    -89.8694E+06    -21.9524E+06     1.71433E+06    -294.410E-03     583.022E-03    -288.613E-03     126.418E-03    -297.672E-03     585.734E-03    -288.471E-03     100.669E-03
            2167     4.04843E-03     25.3892E-03    -91.5131E+06    -131.315E+06    -40.3100E+06     1.25103E+06    -292.510E-03     580.515E-03    -288.005E-03     108.225E-03    -294.936E-03     582.267E-03    -287.883E-03     86.1988E-03
            2168     3.37548E-03     25.2294E-03    -99.6494E+06    -164.017E+06    -58.3510E+06     1.16903E+06    -290.706E-03     578.135E-03    -287.429E-03     89.9142E-03    -292.421E-03     579.083E-03    -287.338E-03     71.6440E-03
            2169     2.70171E-03     25.0982E-03    -107.283E+06    -176.695E+06    -77.0858E+06     1.19949E+06    -289.054E-03     575.939E-03    -286.885E-03     71.7045E-03    -290.209E-03     576.309E-03    -286.858E-03     57.1722E-03
            2170     2.02707E-03     24.9959E-03    -114.062E+06    -189.476E+06    -95.6435E+06     1.09486E+06    -287.694E-03     574.117E-03    -286.423E-03     53.7149E-03    -288.411E-03     574.034E-03    -286.461E-03     42.8491E-03
            2171     1.35180E-03     24.9222E-03    -119.265E+06    -203.882E+06    -110.823E+06     830.047E+03    -286.674E-03     572.748E-03    -286.074E-03     36.0477E-03    -287.075E-03     572.323E-03    -286.160E-03     28.7534E-03
            2172     675.996E-06     24.8774E-03    -122.531E+06    -216.016E+06    -120.488E+06     406.343E+03    -285.865E-03     571.880E-03    -286.014E-03     19.4145E-03    -286.074E-03     571.236E-03    -286.126E-03     15.4558E-03
            2173     12.7607E-03     27.2053E-03    -6.00094E+06     49.3396E+06     79.1426E+06    -1.25828E+06    -293.210E-03     586.224E-03    -293.013E-03     139.749E-03    -298.383E-03     591.321E-03    -292.680E-03     104.486E-03
            2174     12.0884E-03     26.9597E-03    -11.3048E+06     44.8811E+06     67.0606E+06    -1.56619E+06    -295.583E-03     588.545E-03    -292.963E-03     182.748E-03    -302.886E-03     595.774E-03    -292.676E-03     140.852E-03
            2175     11.4178E-03     26.6957E-03    -13.1961E+06     38.9963E+06     66.9736E+06    -774.902E+03    -298.395E-03     591.305E-03    -292.909E-03     194.483E-03    -306.056E-03     598.862E-03    -292.612E-03     152.239E-03
            2176     10.7478E-03     26.4026E-03    -16.5171E+06     35.7669E+06     75.7022E+06    -226.420E+03    -300.533E-03     593.335E-03    -292.802E-03     204.592E-03    -308.790E-03     601.442E-03    -292.452E-03     160.910E-03
            2177     10.0788E-03     26.0982E-03    -22.7486E+06     29.3607E+06     71.7130E+06     708.807E+03    -302.054E-03     594.589E-03    -292.536E-03     207.128E-03    -310.400E-03     602.751E-03    -292.187E-03     163.429E-03
            2178     9.40994E-03     25.7870E-03    -29.1203E+06     21.1799E+06     62.0876E+06     1.39932E+06    -303.097E-03     595.225E-03    -292.128E-03     205.710E-03    -311.283E-03     603.203E-03    -291.806E-03     162.616E-03
            2179     8.74237E-03     25.4760E-03    -35.3236E+06     15.8295E+06     51.9388E+06     879.262E+03    -303.543E-03     595.132E-03    -291.590E-03     200.700E-03    -311.347E-03     602.717E-03    -291.302E-03     158.787E-03
            2180     8.07465E-03     25.1702E-03    -42.4281E+06     8.89907E+06     43.1678E+06     68.9734E+03    -303.325E-03     594.265E-03    -290.940E-03     192.771E-03    -310.579E-03     601.275E-03    -290.675E-03     152.541E-03
            2181     7.40717E-03     24.8746E-03    -50.7080E+06     208.427E+03     35.1738E+06    -87.8374E+03    -302.437E-03     592.623E-03    -290.186E-03     181.934E-03    -308.987E-03     598.892E-03    -289.937E-03     143.930E-03
            2182     6.73911E-03     24.5946E-03    -59.7825E+06    -10.3170E+06     25.3325E+06     82.4465E+03    -300.873E-03     590.209E-03    -289.336E-03     168.437E-03    -306.592E-03     595.606E-03    -289.108E-03     133.207E-03
            2183     6.07061E-03     24.3342E-03    -67.8626E+06    -26.8106E+06     11.8043E+06     353.825E+03    -298.744E-03     587.162E-03    -288.418E-03     152.850E-03    -303.547E-03     591.596E-03    -288.222E-03     120.862E-03
            2184     5.40093E-03     24.0975E-03    -75.3409E+06    -55.6041E+06    -4.43986E+06     515.696E+03    -296.295E-03     583.781E-03    -287.486E-03     135.947E-03    -300.168E-03     587.202E-03    -287.318E-03     107.486E-03
            2185     4.72990E-03     23.8864E-03    -83.2509E+06    -88.5427E+06    -22.1929E+06     513.581E+03    -293.749E-03     580.318E-03    -286.569E-03     118.423E-03    -296.749E-03     582.772E-03    -286.431E-03     93.6351E-03
            2186     4.05761E-03     23.7022E-03    -91.3493E+06    -130.278E+06    -40.3816E+06     637.818E+03    -291.273E-03     576.980E-03    -285.707E-03     100.723E-03    -293.486E-03     578.523E-03    -285.587E-03     79.6532E-03
            2187     3.38399E-03     23.5461E-03    -99.4499E+06    -163.542E+06    -58.6230E+06     771.709E+03    -288.949E-03     573.852E-03    -284.903E-03     83.2228E-03    -290.504E-03     574.643E-03    -284.815E-03     65.8432E-03
            2188     2.70893E-03     23.4180E-03    -107.217E+06    -175.956E+06    -77.2206E+06     833.521E+03    -286.849E-03     571.011E-03    -284.163E-03     66.0308E-03    -287.895E-03     571.276E-03    -284.138E-03     52.2711E-03
            2189     2.03282E-03     23.3183E-03    -113.877E+06    -188.097E+06    -95.3077E+06     794.608E+03    -285.108E-03     568.650E-03    -283.543E-03     49.2245E-03    -285.762E-03     568.508E-03    -283.581E-03     38.9748E-03
            2190     1.35576E-03     23.2468E-03    -118.927E+06    -202.108E+06    -110.259E+06       531.9E+03    -283.810E-03     566.884E-03    -283.074E-03     32.9063E-03    -284.182E-03     566.435E-03    -283.160E-03     26.0413E-03
            2191     678.105E-06     23.2031E-03    -122.041E+06    -214.227E+06    -119.826E+06     248.628E+03    -282.770E-03     565.758E-03    -282.988E-03     17.6011E-03    -282.970E-03     565.111E-03    -283.099E-03     13.8852E-03
            2192     12.7600E-03     25.5061E-03    -4.01975E+06     49.6576E+06     80.4850E+06    -1.11752E+06    -292.676E-03     585.810E-03    -293.134E-03     141.153E-03    -297.895E-03     590.957E-03    -292.798E-03     105.626E-03
            2193     12.0876E-03     25.2554E-03    -7.39586E+06     46.8982E+06     71.3667E+06    -663.669E+03    -296.511E-03     589.600E-03    -293.090E-03     182.705E-03    -303.790E-03     596.813E-03    -292.790E-03     140.717E-03
            2194     11.4170E-03     24.9875E-03    -13.7018E+06     38.9256E+06     66.4614E+06    -1.42183E+06    -300.052E-03     592.998E-03    -292.946E-03     192.817E-03    -307.670E-03     600.512E-03    -292.650E-03     150.278E-03
            2195     10.7485E-03     24.6928E-03    -20.4867E+06     33.0779E+06     70.7137E+06    -1.43495E+06    -302.752E-03     595.441E-03    -292.689E-03     201.634E-03    -310.902E-03     603.430E-03    -292.353E-03     157.728E-03
            2196     10.0809E-03     24.3874E-03    -25.6495E+06     27.4678E+06     68.9815E+06    -804.281E+03    -304.684E-03     596.918E-03    -292.234E-03     202.796E-03    -312.843E-03     604.883E-03    -291.892E-03     158.979E-03
            2197     9.41500E-03     24.0762E-03    -30.9645E+06     21.2220E+06     61.9621E+06    -911.261E+03    -305.819E-03     597.403E-03    -291.584E-03     199.934E-03    -313.721E-03     605.091E-03    -291.260E-03     156.974E-03
            2198     8.74903E-03     23.7662E-03    -36.8639E+06     15.9196E+06     53.1797E+06    -818.446E+03    -306.098E-03     596.858E-03    -290.760E-03     193.591E-03    -313.537E-03     604.068E-03    -290.463E-03     152.102E-03
            2199     8.08370E-03     23.4623E-03    -43.1882E+06     8.38366E+06     44.5314E+06     162.879E+03    -305.591E-03     595.371E-03    -289.781E-03     184.346E-03    -312.412E-03     601.941E-03    -289.508E-03     144.831E-03
            2200     7.41799E-03     23.1698E-03    -50.3728E+06     237.265E+03     35.8801E+06     945.310E+03    -304.207E-03     592.869E-03    -288.662E-03     172.340E-03    -310.287E-03     598.668E-03    -288.410E-03     135.288E-03
            2201     6.75189E-03     22.8937E-03    -57.2552E+06    -8.70227E+06     26.0095E+06     612.534E+03    -301.954E-03     589.386E-03    -287.431E-03     158.095E-03    -307.200E-03     594.323E-03    -287.206E-03     123.972E-03
            2202     6.08434E-03     22.6386E-03    -64.8141E+06    -26.1527E+06     11.7454E+06    -138.691E+03    -299.078E-03     585.212E-03    -286.134E-03     142.281E-03    -303.435E-03     589.213E-03    -285.943E-03     111.512E-03
            2203     5.41511E-03     22.4073E-03    -73.4669E+06    -55.6566E+06    -4.47451E+06    -123.203E+03    -295.891E-03     580.726E-03    -284.835E-03     125.547E-03    -299.374E-03     583.764E-03    -284.670E-03     98.3678E-03
            2204     4.74420E-03     22.2016E-03    -82.0942E+06    -87.9282E+06    -21.2527E+06     151.211E+03    -292.574E-03     576.143E-03    -283.569E-03     108.510E-03    -295.254E-03     578.281E-03    -283.429E-03     85.0080E-03
            2205     4.07117E-03     22.0230E-03    -90.6989E+06    -129.826E+06    -39.2985E+06     377.045E+03    -289.342E-03     571.724E-03    -282.383E-03     91.6358E-03    -291.307E-03     573.020E-03    -282.260E-03     71.7838E-03
            2206     3.39617E-03     21.8717E-03    -98.9909E+06    -162.857E+06    -57.6083E+06     552.552E+03    -286.336E-03     567.624E-03    -281.289E-03     75.2228E-03    -287.712E-03     568.238E-03    -281.197E-03     58.9309E-03
            2207     2.71953E-03     21.7480E-03    -106.666E+06    -175.062E+06    -75.8735E+06     347.763E+03    -283.634E-03     563.938E-03    -280.304E-03     59.3525E-03    -284.563E-03     564.086E-03    -280.275E-03     46.5042E-03
            2208     2.04120E-03     21.6519E-03    -113.462E+06    -187.188E+06    -94.0883E+06     111.844E+03    -281.409E-03     560.899E-03    -279.491E-03     44.0604E-03    -281.996E-03     560.691E-03    -279.525E-03     34.5177E-03
            2209     1.36159E-03     21.5831E-03    -118.750E+06    -201.237E+06    -109.737E+06     76.0038E+03    -279.762E-03     558.645E-03    -278.883E-03     29.3679E-03    -280.103E-03     558.167E-03    -278.968E-03     22.9957E-03
            2210     681.032E-06     21.5412E-03    -122.119E+06    -213.400E+06    -119.999E+06     25.8209E+03    -278.555E-03     557.244E-03    -278.689E-03     15.6297E-03    -278.745E-03     556.590E-03    -278.803E-03     12.1935E-03
            2211     12.7565E-03     23.8018E-03    -4.86165E+06     50.3095E+06     78.9108E+06    -1.69460E+06    -294.571E-03     587.804E-03    -293.233E-03     142.697E-03    -299.849E-03     593.014E-03    -292.904E-03     106.780E-03
            2212     12.0869E-03     23.5478E-03    -9.75469E+06     46.4375E+06     73.2767E+06    -1.22225E+06    -299.272E-03     592.357E-03    -293.084E-03     182.068E-03    -306.560E-03     599.562E-03    -292.771E-03     139.664E-03
            2213     11.4190E-03     23.2769E-03    -15.0411E+06     39.5738E+06     68.5215E+06    -93.1439E+03    -302.862E-03     595.622E-03    -292.760E-03     189.974E-03    -310.382E-03     603.030E-03    -292.453E-03     147.190E-03
            2214     10.7523E-03     22.9800E-03    -20.1701E+06     34.1465E+06     70.0182E+06    -497.133E+03    -305.816E-03     598.080E-03    -292.265E-03     196.749E-03    -313.736E-03     605.847E-03    -291.935E-03     152.792E-03
            2215     10.0878E-03     22.6727E-03    -25.8579E+06     28.2432E+06     66.7822E+06    -1.85079E+06    -307.897E-03     599.425E-03    -291.528E-03     196.171E-03    -315.718E-03     607.061E-03    -291.198E-03     152.509E-03
            2216     9.42398E-03     22.3624E-03    -32.0821E+06     21.1795E+06     59.0525E+06    -2.48458E+06    -309.025E-03     599.573E-03    -290.548E-03     191.812E-03    -316.502E-03     606.841E-03    -290.237E-03     149.261E-03
            2217     8.76126E-03     22.0543E-03    -38.7442E+06     13.8808E+06     50.2868E+06    -2.62363E+06    -309.166E-03     598.511E-03    -289.345E-03     184.105E-03    -316.119E-03     605.231E-03    -289.058E-03     143.258E-03
            2218     8.09835E-03     21.7536E-03    -45.6671E+06     5.59569E+06     41.6809E+06    -2.72394E+06    -308.200E-03     596.141E-03    -287.940E-03     173.543E-03    -314.494E-03     602.172E-03    -287.674E-03     134.923E-03
            2219     7.43520E-03     21.4656E-03    -51.5264E+06    -2.01859E+06     33.5565E+06     -2.5925E+06    -306.036E-03     592.403E-03    -286.367E-03     160.624E-03    -311.568E-03     597.649E-03    -286.122E-03     124.731E-03
            2220     6.77046E-03     21.1958E-03    -57.8490E+06    -9.81588E+06     24.6858E+06    -1.74931E+06    -302.870E-03     587.551E-03    -284.680E-03     145.851E-03    -307.587E-03     591.956E-03    -284.459E-03     113.112E-03
            2221     6.10384E-03     20.9477E-03    -65.5149E+06    -26.1493E+06     11.2902E+06    -730.578E+03    -299.093E-03     582.024E-03    -282.931E-03     129.900E-03    -302.973E-03     585.547E-03    -282.742E-03     100.644E-03
            2222     5.43505E-03     20.7237E-03    -73.5558E+06    -55.5739E+06    -5.54574E+06    -274.010E+03    -294.954E-03     576.140E-03    -281.186E-03     113.480E-03    -298.027E-03     578.771E-03    -281.026E-03     87.8360E-03
            2223     4.76349E-03     20.5257E-03    -81.8049E+06    -87.5638E+06    -22.7400E+06     90.6895E+03    -290.667E-03     570.170E-03    -279.502E-03     97.2034E-03    -293.015E-03     571.982E-03    -279.370E-03     75.1788E-03
            2224     4.08936E-03     20.3543E-03    -90.0657E+06    -128.533E+06    -38.8610E+06     270.069E+03    -286.555E-03     564.502E-03    -277.947E-03     81.4786E-03    -288.272E-03     565.555E-03    -277.824E-03     62.9677E-03
            2225     3.41271E-03     20.2097E-03    -98.2567E+06    -161.681E+06    -55.4859E+06    -123.795E+03    -282.740E-03     559.269E-03    -276.529E-03     66.4363E-03    -283.943E-03     559.710E-03    -276.430E-03     51.3062E-03
            2226     2.73337E-03     20.0918E-03    -106.083E+06    -174.439E+06    -74.3632E+06    -468.353E+03    -279.320E-03     554.588E-03    -275.268E-03     52.1024E-03    -280.135E-03     554.621E-03    -275.233E-03     40.2223E-03
            2227     2.05200E-03     20.0005E-03    -113.008E+06    -187.406E+06    -93.7383E+06    -276.450E+03    -276.540E-03     550.782E-03    -274.242E-03     38.4978E-03    -277.060E-03     550.505E-03    -274.275E-03     29.7121E-03
            2228     1.36894E-03     19.9352E-03    -118.563E+06    -201.212E+06    -109.843E+06     139.065E+03    -274.514E-03     548.008E-03    -273.494E-03     25.5642E-03    -274.823E-03     547.498E-03    -273.580E-03     19.7198E-03
            2229     684.738E-06     19.8956E-03    -122.051E+06    -212.585E+06    -119.973E+06     310.391E+03    -273.142E-03     546.340E-03    -273.198E-03     13.6154E-03    -273.324E-03     545.680E-03    -273.313E-03     10.4703E-03
            2230     12.7574E-03     22.0934E-03    -4.93676E+06     52.6822E+06     80.0640E+06    -223.396E+03    -297.791E-03     591.018E-03    -293.227E-03     142.602E-03    -303.110E-03     596.275E-03    -292.896E-03     106.189E-03
            2231     12.0898E-03     21.8351E-03    -9.57079E+06     46.0703E+06     71.3181E+06    -1.13411E+06    -302.952E-03     595.818E-03    -292.865E-03     180.407E-03    -310.219E-03     603.007E-03    -292.562E-03     137.424E-03
            2232     11.4245E-03     21.5618E-03    -13.2237E+06     36.5639E+06     68.8407E+06    -1.35966E+06    -307.048E-03     599.344E-03    -292.295E-03     186.873E-03    -314.422E-03     606.600E-03    -291.985E-03     143.743E-03
            2233     10.7616E-03     21.2627E-03    -17.5322E+06     34.4011E+06     74.3787E+06    -372.307E+03    -310.153E-03     601.649E-03    -291.496E-03     191.849E-03    -317.809E-03     609.150E-03    -291.149E-03     147.826E-03
            2234     10.0996E-03     20.9553E-03    -23.2992E+06     31.6846E+06     70.2834E+06    -79.5898E+03    -312.122E-03     602.501E-03    -290.379E-03     189.083E-03    -319.565E-03     609.771E-03    -290.040E-03     145.674E-03
            2235     9.43922E-03     20.6460E-03    -29.9538E+06     23.2749E+06     60.4197E+06    -944.431E+03    -313.089E-03     602.051E-03    -288.962E-03     182.598E-03    -320.093E-03     608.857E-03    -288.651E-03     140.564E-03
            2236     8.77920E-03     20.3403E-03    -36.8715E+06     14.8262E+06     50.6630E+06    -1.79775E+06    -312.775E-03     600.046E-03    -287.271E-03     173.005E-03    -319.190E-03     606.238E-03    -286.986E-03     132.942E-03
            2237     8.11948E-03     20.0445E-03    -43.5975E+06     6.42774E+06     42.4884E+06    -2.42266E+06    -310.942E-03     596.289E-03    -285.348E-03     160.950E-03    -316.658E-03     601.752E-03    -285.081E-03     123.435E-03
            2238     7.45828E-03     19.7637E-03    -51.2095E+06    -2.26608E+06     33.5393E+06    -2.97267E+06    -307.744E-03     590.986E-03    -283.242E-03     147.035E-03    -312.698E-03     595.655E-03    -282.997E-03     112.538E-03
            2239     6.79520E-03     19.5023E-03    -59.4690E+06    -12.2029E+06     22.7360E+06    -3.27309E+06    -303.521E-03     584.538E-03    -281.018E-03     131.755E-03    -307.694E-03     588.393E-03    -280.800E-03     100.589E-03
            2240     6.12954E-03     19.2634E-03    -67.3596E+06    -28.8723E+06     8.41679E+06    -2.77247E+06    -298.608E-03     577.350E-03    -278.742E-03     115.875E-03    -302.007E-03     580.384E-03    -278.560E-03     88.2565E-03
            2241     5.46057E-03     19.0494E-03    -75.1945E+06    -56.7338E+06    -8.37510E+06    -1.49882E+06    -293.300E-03     569.799E-03    -276.499E-03     100.008E-03    -295.970E-03     572.026E-03    -276.350E-03     76.0018E-03
            2242     4.78826E-03     18.8614E-03    -83.2912E+06    -88.5664E+06    -25.3221E+06    -277.852E+03    -287.909E-03     562.271E-03    -274.362E-03     84.7222E-03    -289.938E-03     563.763E-03    -274.239E-03     64.2611E-03
            2243     4.11225E-03     18.6994E-03    -91.5200E+06    -125.019E+06    -41.9330E+06    -370.429E+03    -282.742E-03     555.139E-03    -272.397E-03     70.3770E-03    -284.226E-03     555.974E-03    -272.292E-03     53.2959E-03
            2244     3.43281E-03     18.5633E-03    -99.1910E+06    -159.027E+06    -58.2945E+06    -1.97646E+06    -278.032E-03     548.677E-03    -270.645E-03     56.9940E-03    -279.070E-03     548.965E-03    -270.562E-03     43.0992E-03
            2245     2.75046E-03     18.4530E-03    -106.216E+06    -177.309E+06    -75.9407E+06    -1.93261E+06    -273.937E-03     543.061E-03    -269.123E-03     44.4550E-03    -274.638E-03     542.972E-03    -269.092E-03     33.5938E-03
            2246     2.06529E-03     18.3677E-03    -112.787E+06    -189.077E+06    -94.0201E+06    -373.269E+03    -270.620E-03     538.505E-03    -267.885E-03     32.6493E-03    -271.073E-03     538.156E-03    -267.918E-03     24.6645E-03
            2247     1.37803E-03     18.3069E-03    -118.086E+06    -201.372E+06    -109.040E+06     315.407E+03    -268.203E-03     535.183E-03    -266.980E-03     21.5518E-03    -268.482E-03     534.640E-03    -267.062E-03     16.2597E-03
            2248     689.380E-06     18.2698E-03    -121.530E+06    -211.091E+06    -119.199E+06     355.857E+03    -266.546E-03     533.151E-03    -266.606E-03     11.4718E-03    -266.720E-03     532.487E-03    -266.719E-03     8.62084E-03
            2249     12.7591E-03     20.3798E-03    -3.77020E+06     54.0592E+06     80.6583E+06    -56.0335E+03    -301.866E-03     594.935E-03    -293.068E-03     143.600E-03    -307.242E-03     600.255E-03    -292.738E-03     106.520E-03
            2250     12.0943E-03     20.1167E-03    -7.87672E+06     48.8650E+06     72.5718E+06    -481.270E+03    -307.358E-03     599.819E-03    -292.460E-03     179.509E-03    -314.595E-03     606.990E-03    -292.157E-03     136.037E-03
            2251     11.4325E-03     19.8397E-03    -13.2980E+06     37.6036E+06     68.9057E+06    -1.58713E+06    -312.127E-03     603.706E-03    -291.579E-03     184.545E-03    -319.386E-03     610.852E-03    -291.270E-03     141.020E-03
            2252     10.7728E-03     19.5390E-03    -19.5485E+06     32.2664E+06     73.5061E+06    -2.95515E+06    -315.805E-03     606.191E-03    -290.386E-03     187.255E-03    -323.251E-03     613.469E-03    -290.036E-03     142.900E-03
            2253     10.1156E-03     19.2322E-03    -25.1085E+06     29.1199E+06     70.6510E+06    -2.54522E+06    -317.830E-03     606.618E-03    -288.788E-03     181.682E-03    -324.934E-03     613.533E-03    -288.441E-03     138.260E-03
            2254     9.45933E-03     18.9252E-03    -30.1446E+06     23.2363E+06     62.7361E+06    -1.41133E+06    -318.299E-03     605.119E-03    -286.819E-03     172.602E-03    -324.855E-03     611.469E-03    -286.495E-03     130.971E-03
            2255     8.80385E-03     18.6244E-03    -35.8660E+06     15.9137E+06     53.2623E+06    -1.01085E+06    -316.979E-03     601.508E-03    -284.529E-03     160.707E-03    -322.861E-03     607.167E-03    -284.233E-03     121.503E-03
            2256     8.14699E-03     18.3364E-03    -42.4492E+06     8.00657E+06     45.0310E+06    -1.05512E+06    -313.921E-03     595.911E-03    -281.990E-03     146.900E-03    -319.067E-03     600.807E-03    -281.714E-03     110.612E-03
            2257     7.48838E-03     18.0653E-03    -49.4488E+06    -472.211E+03     35.4520E+06    -1.33259E+06    -309.434E-03     588.697E-03    -279.263E-03     131.869E-03    -313.821E-03     592.806E-03    -279.013E-03     98.8573E-03
            2258     6.82687E-03     17.8150E-03    -57.2376E+06    -11.0652E+06     22.7317E+06    -1.72048E+06    -303.820E-03     580.247E-03    -276.427E-03     116.193E-03    -307.456E-03     583.577E-03    -276.214E-03     86.7055E-03
            2259     6.16153E-03     17.5885E-03    -65.8896E+06    -29.7292E+06     7.19864E+06    -1.76348E+06    -297.458E-03     571.039E-03    -273.582E-03     100.577E-03    -300.383E-03     573.606E-03    -273.407E-03     74.7193E-03
            2260     5.49210E-03     17.3873E-03    -74.5613E+06    -58.1079E+06    -9.73980E+06    -1.19311E+06    -290.799E-03     561.624E-03    -270.824E-03     85.6087E-03    -293.077E-03     563.460E-03    -270.681E-03     63.3513E-03
            2261     4.81804E-03     17.2117E-03    -82.7097E+06    -89.9070E+06    -26.9774E+06    -223.448E+03    -284.238E-03     552.464E-03    -268.226E-03     71.6354E-03    -285.957E-03     553.648E-03    -268.110E-03     52.8239E-03
            2262     4.13962E-03     17.0616E-03    -90.2451E+06    -119.574E+06    -44.5023E+06    -623.097E+03    -277.999E-03     543.843E-03    -265.845E-03     58.7698E-03    -279.253E-03     544.481E-03    -265.763E-03     43.1828E-03
            2263     3.45686E-03     16.9362E-03    -97.7327E+06    -155.434E+06    -61.5895E+06    -2.22229E+06    -272.372E-03     536.130E-03    -263.758E-03     47.0299E-03    -273.244E-03     536.279E-03    -263.699E-03     34.4305E-03
            2264     2.77016E-03     16.8346E-03    -105.227E+06    -182.244E+06    -78.0207E+06    -2.13143E+06    -267.579E-03     529.565E-03    -261.986E-03     36.2945E-03    -268.163E-03     529.351E-03    -261.959E-03     26.4920E-03
            2265     2.08053E-03     16.7565E-03    -111.593E+06    -191.834E+06    -94.0449E+06    -770.385E+03    -263.726E-03     524.269E-03    -260.542E-03     26.4544E-03    -264.112E-03     523.845E-03    -260.572E-03     19.2747E-03
            2266     1.38848E-03     16.7009E-03    -116.419E+06    -201.770E+06    -108.092E+06     157.311E+03    -260.919E-03     520.398E-03    -259.479E-03     17.3989E-03    -261.164E-03     519.822E-03    -259.558E-03     12.6558E-03
            2267     694.706E-06     16.6671E-03    -119.592E+06    -209.437E+06    -117.604E+06     494.867E+03    -259.001E-03     518.001E-03    -259.000E-03     9.25405E-03    -259.162E-03     517.330E-03    -259.111E-03     6.70735E-03
            2268     12.7626E-03     18.6582E-03    -4.41028E+06     54.1200E+06     81.5937E+06    -187.255E+03    -306.718E-03     599.557E-03    -292.839E-03     145.688E-03    -312.202E-03     604.981E-03    -292.504E-03     107.785E-03
            2269     12.1016E-03     18.3926E-03    -10.0975E+06     49.8197E+06     73.7422E+06     274.347E+03    -313.036E-03     604.969E-03    -291.932E-03     180.402E-03    -320.372E-03     612.232E-03    -291.621E-03     136.018E-03
            2270     11.4428E-03     18.1107E-03    -15.4238E+06     42.8727E+06     70.3913E+06    -1.05494E+06    -318.850E-03     609.496E-03    -290.646E-03     182.724E-03    -326.113E-03     616.653E-03    -290.334E-03     138.259E-03
            2271     10.7883E-03     17.8066E-03    -20.6718E+06     36.1268E+06     73.2338E+06    -3.08701E+06    -322.842E-03     611.775E-03    -288.933E-03     181.399E-03    -330.099E-03     618.876E-03    -288.589E-03     136.490E-03
            2272     10.1361E-03     17.5015E-03    -27.0310E+06     26.7557E+06     67.6657E+06    -4.87110E+06    -324.644E-03     611.377E-03    -286.733E-03     172.830E-03    -331.412E-03     617.950E-03    -286.394E-03     129.268E-03
            2273     9.48536E-03     17.1987E-03    -33.1589E+06     18.6982E+06     59.3758E+06    -4.98264E+06    -324.295E-03     608.401E-03    -284.106E-03     161.261E-03    -330.420E-03     614.305E-03    -283.788E-03     119.921E-03
            2274     8.83374E-03     16.9063E-03    -38.3697E+06     13.0456E+06     51.2517E+06    -3.77758E+06    -321.712E-03     602.838E-03    -281.126E-03     147.205E-03    -327.102E-03     607.993E-03    -280.833E-03     108.737E-03
            2275     8.18078E-03     16.6289E-03    -43.5989E+06     7.03665E+06     43.7925E+06    -3.28056E+06    -317.203E-03     595.087E-03    -277.884E-03     131.815E-03    -321.835E-03     599.466E-03    -277.612E-03     96.5780E-03
            2276     7.52473E-03     16.3711E-03    -49.9971E+06    -1.83847E+06     34.4540E+06    -2.64143E+06    -311.064E-03     585.533E-03    -274.469E-03     115.729E-03    -314.934E-03     589.124E-03    -274.222E-03     84.1120E-03
            2277     6.86444E-03     16.1357E-03    -57.1462E+06    -11.7224E+06     22.8146E+06    -1.36656E+06    -303.700E-03     574.687E-03    -270.987E-03     99.7137E-03    -306.848E-03     577.528E-03    -270.773E-03     71.9095E-03
            2278     6.19930E-03     15.9250E-03    -64.6882E+06    -29.2722E+06     7.39837E+06    -437.524E+03    -295.655E-03     563.206E-03    -267.551E-03     84.4195E-03    -298.148E-03     565.346E-03    -267.377E-03     60.3641E-03
            2279     5.52840E-03     15.7399E-03    -72.3633E+06    -57.8451E+06    -11.6899E+06     206.976E+03    -287.482E-03     551.745E-03    -264.263E-03     70.4134E-03    -289.394E-03     553.230E-03    -264.133E-03     49.9428E-03
            2280     4.85208E-03     15.5792E-03    -79.5698E+06    -89.2422E+06    -31.2032E+06     461.465E+03    -279.617E-03     540.826E-03    -261.209E-03     57.8747E-03    -281.039E-03     541.740E-03    -261.121E-03     40.7332E-03
            2281     4.17035E-03     15.4432E-03    -86.4277E+06    -116.143E+06    -48.8595E+06     620.624E+03    -272.348E-03     530.800E-03    -258.452E-03     46.7443E-03    -273.379E-03     531.252E-03    -258.403E-03     32.6615E-03
            2282     3.48370E-03     15.3303E-03    -93.7957E+06    -152.193E+06    -62.9078E+06     924.366E+03    -265.922E-03     521.990E-03    -256.068E-03     36.9351E-03    -266.636E-03     522.011E-03    -256.026E-03     25.6559E-03
            2283     2.79279E-03     15.2395E-03    -101.563E+06    -182.670E+06     -76.759E+06     485.060E+03    -260.442E-03     514.501E-03    -254.059E-03     28.1987E-03    -260.918E-03     514.187E-03    -254.030E-03     19.4771E-03
            2284     2.09792E-03     15.1697E-03    -108.521E+06    -193.414E+06    -92.7351E+06     64.5327E+03    -256.033E-03     508.456E-03    -252.423E-03     20.3783E-03    -256.352E-03     507.967E-03    -252.448E-03     14.0059E-03
            2285     1.40019E-03     15.1201E-03    -113.604E+06    -201.972E+06    -106.070E+06     270.011E+03    -252.858E-03     504.081E-03    -251.224E-03     13.2882E-03    -253.067E-03     503.473E-03    -251.296E-03     9.08762E-03
            2286     700.574E-06     15.0901E-03    -116.460E+06    -208.039E+06    -114.265E+06     203.313E+03    -250.776E-03     501.375E-03    -250.599E-03     6.99615E-03    -250.921E-03     500.693E-03    -250.699E-03     4.74380E-03
            2287     12.7655E-03     16.9313E-03    -4.81651E+06     53.9943E+06     82.4416E+06     807.159E+03    -312.939E-03     605.535E-03    -292.596E-03     148.961E-03    -318.603E-03     611.134E-03    -292.255E-03     109.945E-03
            2288     12.1072E-03     16.6574E-03    -8.73086E+06     50.1518E+06     76.1499E+06     527.779E+03    -321.203E-03     612.490E-03    -291.287E-03     181.707E-03    -328.720E-03     619.933E-03    -290.966E-03     135.725E-03
            2289     11.4560E-03     16.3681E-03    -12.8738E+06     46.0777E+06     74.2105E+06    -342.302E+03    -327.688E-03     617.142E-03    -289.454E-03     179.003E-03    -334.950E-03     624.307E-03    -289.131E-03     133.164E-03
            2290     10.8079E-03     16.0649E-03    -18.4645E+06     41.0177E+06     76.3729E+06    -644.743E+03    -331.098E-03     618.193E-03    -287.095E-03     173.652E-03    -338.147E-03     625.103E-03    -286.746E-03     128.123E-03
            2291     10.1617E-03     15.7617E-03    -25.1067E+06     31.4132E+06     68.1426E+06    -2.10694E+06    -332.033E-03     616.223E-03    -284.190E-03     162.169E-03    -338.478E-03     622.496E-03    -283.859E-03     118.444E-03
            2292     9.51603E-03     15.4666E-03    -32.0303E+06     20.5112E+06     56.6790E+06    -4.14386E+06    -330.513E-03     611.335E-03    -280.822E-03     148.123E-03    -336.239E-03     616.860E-03    -280.522E-03     106.980E-03
            2293     8.86964E-03     15.1853E-03    -38.8666E+06     11.7468E+06     45.8507E+06    -5.77675E+06    -326.582E-03     603.666E-03    -277.083E-03     132.250E-03    -331.527E-03     608.386E-03    -276.815E-03     94.3307E-03
            2294     8.22026E-03     14.9225E-03    -45.6068E+06     3.61729E+06     37.0926E+06    -5.61509E+06    -320.417E-03     593.505E-03    -273.088E-03     115.403E-03    -324.580E-03     597.417E-03    -272.842E-03     81.1343E-03
            2295     7.56662E-03     14.6820E-03    -52.3721E+06    -5.53600E+06     29.6895E+06    -4.50106E+06    -312.337E-03     581.303E-03    -268.965E-03     98.4862E-03    -315.744E-03     584.423E-03    -268.733E-03     68.2262E-03
            2296     6.90750E-03     14.4659E-03    -59.4042E+06    -15.6127E+06     19.1493E+06    -3.33679E+06    -303.008E-03     567.842E-03    -264.834E-03     82.6407E-03    -305.736E-03     570.254E-03    -264.630E-03     56.3860E-03
            2297     6.24171E-03     14.2749E-03    -66.6072E+06    -31.9393E+06     3.45152E+06    -1.43022E+06    -293.216E-03     554.033E-03    -260.817E-03     68.1669E-03    -295.352E-03     555.812E-03    -260.656E-03     45.7351E-03
            2298     5.56940E-03     14.1091E-03    -73.9713E+06    -58.0121E+06    -15.9399E+06     311.878E+03    -283.497E-03     540.524E-03    -257.026E-03     55.3678E-03    -285.123E-03     541.729E-03    -256.914E-03     36.4858E-03
            2299     4.89009E-03     13.9666E-03    -81.5110E+06    -88.3268E+06    -36.4199E+06     1.61566E+06    -274.256E-03     527.809E-03    -253.554E-03     44.4006E-03    -275.458E-03     528.515E-03    -253.490E-03     28.7787E-03
            2300     4.20436E-03     13.8468E-03    -88.8537E+06    -116.328E+06    -55.9337E+06     3.06695E+06    -265.891E-03     516.354E-03    -250.464E-03     35.0489E-03    -266.758E-03     516.654E-03    -250.446E-03     22.3701E-03
            2301     3.51288E-03     13.7479E-03    -95.1564E+06    -147.581E+06    -71.1183E+06     3.51774E+06    -258.657E-03     506.476E-03    -247.818E-03     27.2153E-03    -259.258E-03     506.418E-03    -247.822E-03     17.1598E-03
            2302     2.81641E-03     13.6690E-03    -100.202E+06    -177.796E+06    -80.4702E+06     1.93161E+06    -252.636E-03     498.277E-03    -245.641E-03     20.6026E-03    -253.035E-03     497.918E-03    -245.640E-03     12.8663E-03
            2303     2.11605E-03     13.6087E-03    -104.879E+06    -192.923E+06    -89.3696E+06     837.051E+03    -247.854E-03     491.757E-03    -243.903E-03     14.8322E-03    -248.120E-03     491.220E-03    -243.918E-03     9.20204E-03
            2304     1.41253E-03     13.5659E-03    -109.410E+06    -200.524E+06    -100.660E+06     393.287E+03    -244.388E-03     486.999E-03    -242.611E-03     9.64333E-03    -244.568E-03     486.365E-03    -242.665E-03     5.94452E-03
            2305     706.909E-06     13.5399E-03    -112.891E+06    -207.684E+06    -110.404E+06    -114.803E+03    -242.163E-03     484.056E-03    -241.892E-03     5.07746E-03    -242.290E-03     483.359E-03    -241.980E-03     3.09396E-03
            2306     12.7674E-03     15.1944E-03    -3.72092E+06      55.438E+06     83.6898E+06     302.345E+03    -321.342E-03     613.588E-03    -292.246E-03     150.316E-03    -327.170E-03     619.357E-03    -291.903E-03     109.748E-03
            2307     12.1184E-03     14.9040E-03    -7.50775E+06     49.8740E+06     77.2297E+06    -868.974E+03    -331.040E-03     621.451E-03    -290.411E-03     180.764E-03    -338.704E-03     629.041E-03    -290.086E-03     132.888E-03
            2308     11.4740E-03     14.6132E-03    -12.1405E+06     44.8812E+06     74.9366E+06    -440.863E+03    -337.162E-03     625.108E-03    -287.945E-03     174.511E-03    -344.435E-03     632.280E-03    -287.618E-03     127.263E-03
            2309     10.8327E-03     14.3108E-03    -17.3813E+06     42.8229E+06     78.7264E+06    -188.900E+03    -340.223E-03     625.113E-03    -284.890E-03     166.660E-03    -347.184E-03     631.938E-03    -284.533E-03     120.093E-03
            2310     10.1930E-03     14.0136E-03    -22.8564E+06     35.1358E+06     72.1235E+06    -173.495E+03    -340.289E-03     621.516E-03    -281.227E-03     151.920E-03    -346.517E-03     627.583E-03    -280.884E-03     107.748E-03
            2311     9.55308E-03     13.7293E-03    -29.0877E+06     26.0663E+06     61.2460E+06    -677.734E+03    -337.308E-03     614.369E-03    -277.062E-03     134.669E-03    -342.718E-03     619.597E-03    -276.751E-03     93.6251E-03
            2312     8.91073E-03     13.4622E-03    -36.1204E+06     15.5601E+06     47.3202E+06    -1.99939E+06    -331.433E-03     603.948E-03    -272.515E-03     116.394E-03    -335.996E-03     608.307E-03    -272.249E-03     79.0532E-03
            2313     8.26483E-03     13.2182E-03    -43.4631E+06     4.01374E+06     32.7159E+06    -2.84230E+06    -323.002E-03     590.749E-03    -267.747E-03     98.3542E-03    -326.752E-03     594.271E-03    -267.526E-03     65.1113E-03
            2314     7.61319E-03     12.9995E-03    -51.0724E+06    -6.95957E+06     22.4169E+06    -2.80106E+06    -312.747E-03     575.690E-03    -262.943E-03     81.6593E-03    -315.775E-03     578.453E-03    -262.746E-03     52.6067E-03
            2315     6.95405E-03     12.8074E-03    -59.2267E+06    -18.2031E+06     12.8287E+06    -2.07486E+06    -301.522E-03     559.757E-03    -258.235E-03     66.7625E-03    -303.933E-03     561.861E-03    -258.058E-03     41.7806E-03
            2316     6.28723E-03     12.6395E-03    -67.6795E+06    -35.4749E+06    -717.041E+03    -815.497E+03    -290.051E-03     543.783E-03    -253.732E-03     53.6792E-03    -291.934E-03     545.306E-03    -253.586E-03     32.5294E-03
            2317     5.61216E-03     12.4961E-03    -75.9879E+06    -60.9923E+06    -17.5109E+06     1.54419E+06    -278.950E-03     528.489E-03    -249.539E-03     42.4524E-03    -280.387E-03     529.493E-03    -249.428E-03     24.8123E-03
            2318     4.92945E-03     12.3748E-03    -84.3525E+06    -88.6355E+06    -35.2461E+06     4.04833E+06    -268.617E-03     514.348E-03    -245.731E-03     33.0538E-03    -269.690E-03     514.909E-03    -245.656E-03     18.6008E-03
            2319     4.23942E-03     12.2734E-03    -92.2364E+06    -115.690E+06    -53.6866E+06     5.38706E+06    -259.312E-03     501.670E-03    -242.358E-03     25.1954E-03    -260.095E-03     501.869E-03    -242.325E-03     13.5692E-03
            2320     3.54289E-03     12.1904E-03    -99.0166E+06    -141.468E+06    -72.7364E+06     5.12764E+06    -251.267E-03     490.726E-03    -239.459E-03     18.7095E-03    -251.820E-03     490.634E-03    -239.474E-03     9.55948E-03
            2321     2.84089E-03     12.1242E-03    -104.998E+06    -169.636E+06    -88.3378E+06     3.01638E+06    -244.630E-03     481.715E-03    -237.085E-03     13.5190E-03    -245.005E-03     481.367E-03    -237.128E-03     6.52498E-03
            2322     2.13448E-03     12.0737E-03    -109.611E+06    -189.164E+06    -99.4349E+06    -4.03258E+03    -239.465E-03     474.699E-03    -235.235E-03     9.43156E-03    -239.718E-03     474.175E-03    -235.299E-03     4.34509E-03
            2323     1.42481E-03     12.0382E-03    -111.718E+06    -200.445E+06    -106.683E+06    -1.54081E+06    -235.789E-03     469.693E-03    -233.903E-03     6.03798E-03    -235.960E-03     469.059E-03    -233.984E-03     2.68851E-03
            2324     712.891E-06     12.0167E-03    -112.632E+06    -209.803E+06    -110.752E+06    -840.899E+03    -233.529E-03     466.657E-03    -233.129E-03     3.07180E-03    -233.647E-03     465.946E-03    -233.215E-03     1.28128E-03
            2325     12.7761E-03     13.4356E-03    -3.30395E+06     57.4199E+06     84.3849E+06    -1.28922E+06    -331.313E-03     623.016E-03    -291.703E-03     153.197E-03    -337.351E-03     629.000E-03    -291.359E-03     110.924E-03
            2326     12.1327E-03     13.1392E-03    -7.71201E+06     49.3750E+06     76.6071E+06    -1.50236E+06    -341.084E-03     630.378E-03    -289.294E-03     181.180E-03    -348.952E-03     638.172E-03    -288.971E-03     131.521E-03
            2327     11.4937E-03     12.8436E-03    -12.5157E+06     43.0161E+06     74.4020E+06    -864.834E+03    -347.377E-03     633.551E-03    -286.174E-03     171.095E-03    -354.725E-03     640.792E-03    -285.846E-03     122.373E-03
            2328     10.8590E-03     12.5429E-03    -17.5212E+06     42.4910E+06     78.9712E+06    -1.24443E+06    -350.164E-03     632.528E-03    -282.364E-03     158.721E-03    -357.103E-03     639.331E-03    -282.006E-03     110.755E-03
            2329     10.2261E-03     12.2537E-03    -23.0313E+06     34.6098E+06     70.7552E+06    -759.423E+03    -348.927E-03     626.800E-03    -277.873E-03     139.979E-03    -355.002E-03     632.717E-03    -277.536E-03     94.9768E-03
            2330     9.59263E-03     11.9834E-03    -28.1997E+06     26.5577E+06     59.6425E+06    -382.170E+03    -343.849E-03     616.729E-03    -272.880E-03     120.116E-03    -349.011E-03     621.720E-03    -272.579E-03     78.8802E-03
            2331     8.95603E-03     11.7371E-03    -33.6272E+06     17.2384E+06     48.5487E+06     652.168E+03    -335.250E-03     602.837E-03    -267.586E-03     100.841E-03    -339.531E-03     606.927E-03    -267.320E-03     63.8914E-03
            2332     8.31268E-03     11.5176E-03    -40.1977E+06     6.12821E+06     34.8623E+06     1.84115E+06    -324.138E-03     586.317E-03    -262.179E-03     83.2303E-03    -327.615E-03     589.580E-03    -261.956E-03     50.7982E-03
            2333     7.66102E-03     11.3261E-03    -47.8055E+06    -5.63023E+06     21.5840E+06     2.27653E+06    -311.719E-03     568.562E-03    -256.842E-03     67.8375E-03    -314.514E-03     571.111E-03    -256.657E-03     39.7356E-03
            2334     7.00105E-03     11.1604E-03    -56.1980E+06    -17.8876E+06     10.7175E+06     3.03661E+06    -298.871E-03     550.586E-03    -251.715E-03     54.6303E-03    -301.094E-03     552.522E-03    -251.554E-03     30.6304E-03
            2335     6.33182E-03     11.0202E-03    -65.3235E+06    -36.8116E+06    -432.911E+03     4.31963E+06    -286.195E-03     533.089E-03    -246.894E-03     43.3090E-03    -287.942E-03     534.479E-03    -246.748E-03     23.0760E-03
            2336     5.65366E-03     10.9016E-03    -75.1052E+06    -62.6896E+06    -14.4930E+06     5.83892E+06    -274.186E-03     516.624E-03    -242.438E-03     33.6069E-03    -275.533E-03     517.527E-03    -242.311E-03     16.7846E-03
            2337     4.96706E-03     10.8030E-03    -84.3948E+06    -87.9720E+06    -29.9175E+06     6.91385E+06    -263.159E-03     501.553E-03    -238.394E-03     25.5131E-03    -264.184E-03     502.054E-03    -238.293E-03     11.7179E-03
            2338     4.27287E-03     10.7218E-03    -92.8789E+06    -112.122E+06    -46.8231E+06     7.05120E+06    -253.273E-03     488.069E-03    -234.796E-03     18.8826E-03    -254.039E-03     488.244E-03    -234.733E-03     7.74434E-03
            2339     3.57187E-03     10.6560E-03    -100.776E+06    -136.009E+06    -65.2408E+06     6.58993E+06    -244.666E-03     476.347E-03    -231.681E-03     13.4757E-03    -245.227E-03     476.255E-03    -231.664E-03     4.67950E-03
            2340     2.86487E-03     10.6042E-03    -107.583E+06    -160.254E+06    -84.9838E+06     5.17753E+06    -237.476E-03     466.554E-03    -229.077E-03     9.16739E-03    -237.872E-03     466.243E-03    -229.114E-03     2.43883E-03
            2341     2.15291E-03     10.5648E-03    -113.216E+06    -181.064E+06    -103.873E+06     2.10092E+06    -231.791E-03     458.804E-03    -227.013E-03     5.85679E-03    -232.061E-03     458.327E-03    -227.105E-03     960.233E-06
            2342     1.43725E-03     10.5367E-03    -117.830E+06    -200.435E+06    -115.427E+06    -342.961E+03    -227.696E-03     453.231E-03    -225.535E-03     3.38412E-03    -227.881E-03     452.617E-03    -225.651E-03     148.649E-06
            2343     719.346E-06     10.5197E-03    -121.118E+06    -212.779E+06    -120.182E+06    -797.419E+03    -225.301E-03     449.825E-03    -224.524E-03     1.55212E-03    -225.442E-03     449.125E-03    -224.641E-03    -185.230E-06
            2344     12.7840E-03     11.6646E-03    -4.47520E+06     58.8068E+06     83.3244E+06    -1.52847E+06    -342.843E-03     633.946E-03    -291.103E-03     159.288E-03    -349.207E-03     640.261E-03    -290.766E-03     115.072E-03
            2345     12.1466E-03     11.3579E-03    -9.45228E+06     50.8450E+06     76.3114E+06    -1.51598E+06    -353.114E-03     641.161E-03    -288.047E-03     182.781E-03    -361.307E-03     649.279E-03    -287.726E-03     130.888E-03
            2346     11.5167E-03     11.0572E-03    -14.3635E+06     43.2484E+06     73.1669E+06    -2.21503E+06    -359.510E-03     643.664E-03    -284.154E-03     166.191E-03    -366.977E-03     651.024E-03    -283.830E-03     115.517E-03
            2347     10.8910E-03     10.7599E-03    -18.8012E+06     40.3363E+06     76.1843E+06    -2.53659E+06    -360.713E-03     640.205E-03    -279.492E-03     148.536E-03    -367.625E-03     646.977E-03    -279.142E-03     99.0405E-03
            2348     10.2660E-03     10.4839E-03    -23.9252E+06     32.5951E+06     67.3673E+06    -2.36834E+06    -356.725E-03     630.890E-03    -274.165E-03     126.718E-03    -362.680E-03     636.688E-03    -273.841E-03     80.7123E-03
            2349     9.63744E-03     10.2329E-03    -29.3348E+06     24.3206E+06     56.4086E+06    -1.32408E+06    -348.102E-03     616.555E-03    -268.453E-03     105.730E-03    -353.074E-03     621.355E-03    -268.164E-03     64.3202E-03
            2350     9.00211E-03     10.0132E-03    -35.3495E+06     14.2703E+06     45.3851E+06     432.236E+03    -336.240E-03     598.850E-03    -262.610E-03     87.4069E-03    -340.334E-03     602.747E-03    -262.352E-03     50.8492E-03
            2351     8.35855E-03     9.82382E-03    -41.5117E+06     3.54321E+06     33.2239E+06     2.71639E+06    -322.746E-03     579.570E-03    -256.824E-03     71.9218E-03    -326.078E-03     582.679E-03    -256.602E-03     40.1367E-03
            2352     7.70592E-03     9.66279E-03    -47.7265E+06    -7.44103E+06     22.3249E+06     5.51226E+06    -308.679E-03     559.924E-03    -251.245E-03     58.8951E-03    -311.369E-03     562.360E-03    -251.053E-03     31.5877E-03
            2353     7.04280E-03     9.52802E-03    -55.4331E+06    -19.4628E+06     11.6276E+06     8.62312E+06    -294.777E-03     540.744E-03    -245.966E-03     47.9075E-03    -296.937E-03     542.610E-03    -245.800E-03     24.6706E-03
            2354     6.37018E-03     9.41554E-03    -64.6202E+06    -35.2149E+06     1.39851E+06     10.5882E+06    -281.492E-03     522.551E-03    -241.059E-03     38.6421E-03    -283.220E-03     523.925E-03    -240.907E-03     19.0086E-03
            2355     5.68857E-03     9.32379E-03    -73.9337E+06    -58.0967E+06    -9.85401E+06     10.1299E+06    -269.155E-03     505.716E-03    -236.561E-03     31.0242E-03    -270.522E-03     506.646E-03    -236.419E-03     14.5654E-03
            2356     4.99837E-03     9.24892E-03    -82.6611E+06    -83.2122E+06    -24.0279E+06     8.34558E+06    -257.905E-03     490.392E-03    -232.487E-03     24.7329E-03    -258.968E-03     490.939E-03    -232.367E-03     11.0710E-03
            2357     4.30030E-03     9.18885E-03    -90.4645E+06    -107.288E+06    -40.4576E+06     6.92067E+06    -247.865E-03     476.730E-03    -228.865E-03     19.5736E-03    -248.675E-03     476.957E-03    -228.781E-03     8.41526E-03
            2358     3.59516E-03     9.14139E-03    -97.4771E+06    -131.411E+06    -57.6240E+06     6.05246E+06    -239.181E-03     464.905E-03    -225.724E-03     15.2572E-03    -239.780E-03     464.860E-03    -225.680E-03     6.35030E-03
            2359     2.88406E-03     9.10468E-03    -104.143E+06    -153.610E+06    -75.1961E+06     5.36138E+06    -231.908E-03     454.987E-03    -223.078E-03     11.5607E-03    -232.340E-03     454.721E-03    -223.081E-03     4.68992E-03
            2360     2.16805E-03     9.07742E-03    -110.766E+06    -174.587E+06    -92.7876E+06     5.19778E+06    -226.070E-03     447.017E-03    -220.947E-03     8.32673E-03    -226.373E-03     446.575E-03    -220.997E-03     3.32771E-03
            2361     1.44793E-03     9.05850E-03    -116.925E+06    -194.870E+06    -108.570E+06     4.53006E+06    -221.738E-03     441.100E-03    -219.362E-03     5.43375E-03    -221.946E-03     440.515E-03    -219.453E-03     2.15439E-03
            2362     724.669E-06     9.04702E-03    -121.425E+06    -209.321E+06    -119.288E+06     2.07592E+06    -219.142E-03     437.353E-03    -218.211E-03     2.86939E-03    -219.293E-03     436.675E-03    -218.328E-03     1.10746E-03
            2363     12.7895E-03     9.87325E-03    -5.82817E+06     59.3558E+06     81.8519E+06    -108.748E+03    -357.013E-03     647.531E-03    -290.519E-03     163.505E-03    -363.711E-03     654.180E-03    -290.187E-03     116.898E-03
            2364     12.1633E-03     9.55231E-03    -9.90024E+06     53.0324E+06     74.0757E+06    -1.32858E+06    -368.185E-03     654.834E-03    -286.649E-03     183.215E-03    -376.802E-03     663.389E-03    -286.341E-03     127.986E-03
            2365     11.5436E-03     9.24974E-03    -14.1273E+06     46.3671E+06     69.2971E+06    -2.61968E+06    -372.816E-03     654.662E-03    -281.846E-03     159.867E-03    -380.486E-03     662.250E-03    -281.546E-03     106.367E-03
            2366     10.9259E-03     8.96130E-03    -19.1454E+06     41.1635E+06     70.6364E+06    -2.76490E+06    -370.356E-03     646.674E-03    -276.319E-03     137.346E-03    -377.196E-03     653.395E-03    -275.998E-03     86.4853E-03
            2367     10.3063E-03     8.70387E-03    -24.4375E+06     31.0810E+06     64.0546E+06    -2.56974E+06    -361.696E-03     632.006E-03    -270.310E-03     113.625E-03    -367.442E-03     637.599E-03    -269.999E-03     67.4259E-03
            2368     9.68037E-03     8.48301E-03    -30.3687E+06     20.3092E+06     54.3804E+06    -988.029E+03    -348.709E-03     612.856E-03    -264.146E-03     93.5679E-03    -353.455E-03     617.417E-03    -263.860E-03     52.7263E-03
            2369     9.04486E-03     8.29667E-03    -36.6909E+06     9.46398E+06     42.0257E+06     1.29278E+06    -333.733E-03     591.801E-03    -258.068E-03     77.4877E-03    -337.621E-03     595.480E-03    -257.818E-03     41.9974E-03
            2370     8.39874E-03     8.14056E-03    -43.3877E+06    -1.83211E+06     28.7766E+06     4.09752E+06    -318.269E-03     570.505E-03    -252.236E-03     64.7405E-03    -321.449E-03     573.449E-03    -252.026E-03     34.1374E-03
            2371     7.74133E-03     8.01338E-03    -50.7421E+06    -12.9348E+06     18.4853E+06     7.39635E+06    -303.070E-03     549.831E-03    -246.761E-03     54.7333E-03    -305.682E-03     552.170E-03    -246.576E-03     28.4563E-03
            2372     7.07436E-03     7.90879E-03    -57.2186E+06    -22.4059E+06     11.4780E+06     9.94086E+06    -288.490E-03     530.197E-03    -241.708E-03     47.0022E-03    -290.641E-03     532.038E-03    -241.535E-03     24.5098E-03
            2373     6.39739E-03     7.82651E-03    -62.6902E+06    -31.2436E+06     4.03165E+06     10.7598E+06    -274.918E-03     512.026E-03    -237.108E-03     41.3343E-03    -276.684E-03     513.451E-03    -236.951E-03     22.2050E-03
            2374     5.71090E-03     7.76033E-03    -67.8975E+06    -50.0501E+06    -4.76038E+06     9.27652E+06    -262.773E-03     495.770E-03    -232.997E-03     37.1212E-03    -264.199E-03     496.794E-03    -232.849E-03     20.9671E-03
            2375     5.01622E-03     7.70952E-03    -73.6443E+06    -77.0587E+06    -15.1971E+06     7.25135E+06    -252.089E-03     481.461E-03    -229.373E-03     33.5753E-03    -253.214E-03     482.099E-03    -229.230E-03     20.0599E-03
            2376     4.31392E-03     7.67020E-03    -81.3375E+06    -103.128E+06    -30.2476E+06     6.43569E+06    -242.841E-03     469.049E-03    -226.208E-03     30.2175E-03    -243.709E-03     469.352E-03    -226.092E-03     19.1367E-03
            2377     3.60520E-03     7.64047E-03    -90.3431E+06    -127.788E+06    -48.3022E+06     6.10444E+06    -235.034E-03     458.540E-03    -223.506E-03     26.5921E-03    -235.686E-03     458.559E-03    -223.431E-03     17.7340E-03
            2378     2.89093E-03     7.61850E-03    -99.6073E+06    -150.070E+06    -66.6045E+06     5.95586E+06    -228.651E-03     449.925E-03    -221.273E-03     22.5097E-03    -229.129E-03     449.710E-03    -221.244E-03     15.6827E-03
            2379     2.17206E-03     7.60303E-03    -107.978E+06    -169.961E+06    -83.3435E+06     5.19553E+06    -223.693E-03     443.203E-03    -219.510E-03     17.8212E-03    -224.035E-03     442.800E-03    -219.524E-03     12.8486E-03
            2380     1.44992E-03     7.59284E-03    -114.001E+06    -187.377E+06    -99.1065E+06     3.52161E+06    -220.121E-03     438.321E-03    -218.200E-03     12.5340E-03    -220.355E-03     437.772E-03    -218.258E-03     9.25723E-03
            2381     725.749E-06     7.58693E-03    -117.598E+06    -201.721E+06    -112.226E+06     2.17675E+06    -217.875E-03     435.224E-03    -217.348E-03     7.00473E-03    -218.034E-03     434.574E-03    -217.446E-03     5.25374E-03
            2382     12.7981E-03     8.05463E-03    -3.90814E+06     61.3120E+06     81.2072E+06     782.210E+03    -374.949E-03     664.862E-03    -289.912E-03     169.572E-03    -382.083E-03     671.961E-03    -289.590E-03     119.885E-03
            2383     12.1825E-03     7.71816E-03    -7.72565E+06     54.6684E+06     71.9345E+06    -1.40514E+06    -385.788E-03     670.867E-03    -285.079E-03     182.518E-03    -394.898E-03     679.936E-03    -284.787E-03     123.098E-03
            2384     11.5733E-03     7.41961E-03    -11.0141E+06     45.4671E+06     65.5759E+06    -1.42751E+06    -385.922E-03     665.231E-03    -279.309E-03     149.890E-03    -393.579E-03     672.828E-03    -279.031E-03     94.0077E-03
            2385     10.9638E-03     7.15000E-03    -15.3292E+06     41.6351E+06     66.9743E+06     599.425E+03    -376.812E-03     649.839E-03    -273.027E-03     122.384E-03    -383.219E-03     656.156E-03    -272.730E-03     71.6238E-03
            2386     10.3468E-03     6.92436E-03    -21.7802E+06     32.0995E+06     60.8529E+06     2.42817E+06    -361.852E-03     628.455E-03    -266.603E-03     98.7098E-03    -367.045E-03     633.519E-03    -266.314E-03     54.2993E-03
            2387     9.71849E-03     6.74076E-03    -29.2282E+06     18.3461E+06     47.9961E+06     3.23370E+06    -344.801E-03     605.132E-03    -260.331E-03     81.5367E-03    -349.061E-03     609.225E-03    -260.075E-03     42.9157E-03
            2388     9.07864E-03     6.59116E-03    -36.7975E+06     5.28442E+06     36.9754E+06     5.33453E+06    -327.153E-03     581.571E-03    -254.418E-03     69.0861E-03    -330.663E-03     584.871E-03    -254.188E-03     35.8326E-03
            2389     8.42690E-03     6.47290E-03    -44.1879E+06    -5.19574E+06     29.7334E+06     7.38620E+06    -309.691E-03     558.685E-03    -248.994E-03     60.9839E-03    -312.616E-03     561.356E-03    -248.774E-03     32.4760E-03
            2390     7.76450E-03     6.37833E-03    -50.3057E+06    -13.1857E+06     22.0483E+06     7.57608E+06    -293.278E-03     537.394E-03    -244.115E-03     56.5883E-03    -295.743E-03     539.576E-03    -243.913E-03     32.1592E-03
            2391     7.09036E-03     6.30700E-03    -55.4476E+06    -21.1649E+06     15.1148E+06     6.35410E+06    -278.514E-03     518.342E-03    -239.828E-03     54.5135E-03    -280.598E-03     520.116E-03    -239.641E-03     33.6204E-03
            2392     6.40575E-03     6.25215E-03    -60.4786E+06    -29.2498E+06     7.64908E+06     5.74935E+06    -265.732E-03     501.854E-03    -236.122E-03     53.3889E-03    -267.484E-03     503.271E-03    -235.954E-03     35.6538E-03
            2393     5.71256E-03     6.21126E-03    -66.8036E+06    -45.7081E+06    -3.27363E+06     6.08680E+06    -254.936E-03     487.904E-03    -232.968E-03     52.0632E-03    -256.381E-03     488.964E-03    -232.821E-03     37.1563E-03
            2394     5.01167E-03     6.18082E-03    -74.8758E+06    -72.4992E+06    -14.7746E+06     5.46178E+06    -246.120E-03     476.460E-03    -230.340E-03     49.9229E-03    -247.286E-03     477.149E-03    -230.200E-03     37.5053E-03
            2395     4.30512E-03     6.15912E-03    -82.7492E+06    -102.244E+06    -27.1555E+06     4.81152E+06    -239.089E-03     467.256E-03    -228.166E-03     46.5318E-03    -240.000E-03     467.590E-03    -228.034E-03     36.3475E-03
            2396     3.59373E-03     6.14371E-03    -90.4019E+06    -126.902E+06    -42.9053E+06     5.67904E+06    -233.510E-03     459.888E-03    -226.378E-03     41.6823E-03    -234.198E-03     459.929E-03    -226.277E-03     33.5433E-03
            2397     2.87875E-03     6.13330E-03    -98.0695E+06    -145.151E+06    -60.5347E+06     5.00536E+06    -229.242E-03     454.188E-03    -224.946E-03     35.4196E-03    -229.748E-03     454.005E-03    -224.896E-03     29.1254E-03
            2398     2.16121E-03     6.12629E-03    -104.283E+06    -163.081E+06    -80.0793E+06     1.77304E+06    -226.147E-03     449.990E-03    -223.844E-03     27.8911E-03    -226.498E-03     449.621E-03    -223.856E-03     23.2496E-03
            2399     1.44184E-03     6.12208E-03    -108.833E+06    -184.590E+06    -97.5112E+06    -638.190E+03    -224.057E-03     447.123E-03    -223.066E-03     19.4115E-03    -224.280E-03     446.582E-03    -223.128E-03     16.3107E-03
            2400     721.055E-06     6.12010E-03    -112.022E+06    -200.484E+06    -108.328E+06    -514.011E+03    -222.621E-03     445.443E-03    -222.822E-03     10.7992E-03    -222.763E-03     444.785E-03    -222.910E-03     9.13294E-03
            2401     12.8034E-03     6.19367E-03    -2.22160E+06     63.5749E+06     77.6622E+06    -2.33036E+06    -397.624E-03     687.091E-03    -289.467E-03     185.740E-03    -405.550E-03     695.002E-03    -289.168E-03     131.592E-03
            2402     12.2038E-03     5.85014E-03    -5.37987E+06     52.9601E+06     69.7338E+06    -2.59550E+06    -408.027E-03     691.552E-03    -283.525E-03     180.333E-03    -417.341E-03     700.837E-03    -283.245E-03     117.375E-03
            2403     11.6064E-03     5.56593E-03    -7.32182E+06     37.4400E+06     61.8740E+06     453.184E+03    -398.739E-03     675.478E-03    -276.739E-03     134.151E-03    -405.660E-03     682.341E-03    -276.473E-03     78.9438E-03
            2404     11.0009E-03     5.33512E-03    -11.2950E+06     34.2036E+06     62.5000E+06     4.58066E+06    -379.635E-03     649.508E-03    -269.873E-03     102.548E-03    -384.991E-03     654.780E-03    -269.594E-03     55.0812E-03
            2405     10.3812E-03     5.15455E-03    -16.6804E+06     29.5426E+06     59.7034E+06      9.3371E+06    -357.210E-03     620.570E-03    -263.361E-03     81.1622E-03    -361.430E-03     624.677E-03    -263.081E-03     40.8989E-03
            2406     9.74831E-03     5.01198E-03    -23.3511E+06     20.5174E+06     51.8655E+06     12.3355E+06    -334.836E-03     592.276E-03    -257.440E-03     69.3673E-03    -338.281E-03     595.571E-03    -257.176E-03     35.1580E-03
            2407     9.10174E-03     4.90514E-03    -31.1231E+06     9.51890E+06     44.8727E+06     11.6140E+06    -313.826E-03     566.083E-03    -252.257E-03     64.9492E-03    -316.715E-03     568.775E-03    -252.001E-03     35.9927E-03
            2408     8.44122E-03     4.82504E-03    -38.1618E+06    -85.9005E+03     38.1394E+06     8.61187E+06    -295.157E-03     543.004E-03    -247.846E-03     65.3057E-03    -297.618E-03     545.226E-03    -247.600E-03     40.9477E-03
            2409     7.76629E-03     4.76680E-03    -44.4994E+06    -8.87808E+06     31.3953E+06     6.15206E+06    -279.382E-03     523.569E-03    -244.186E-03     67.0276E-03    -281.486E-03     525.399E-03    -243.952E-03     46.5750E-03
            2410     7.08061E-03     4.72363E-03    -52.0761E+06    -18.7319E+06     24.2576E+06     5.30670E+06    -266.649E-03     507.858E-03    -241.209E-03     68.0490E-03    -268.449E-03     509.343E-03    -240.985E-03     50.8346E-03
            2411     6.38714E-03     4.69258E-03    -61.8514E+06    -30.2004E+06     15.0635E+06     5.78200E+06    -256.656E-03     495.472E-03    -238.816E-03     67.5936E-03    -258.192E-03     496.642E-03    -238.607E-03     53.1065E-03
            2412     5.68706E-03     4.67067E-03    -71.9037E+06    -44.1415E+06     2.75748E+06     5.72781E+06    -248.977E-03     485.886E-03    -236.909E-03     65.3359E-03    -250.272E-03     486.764E-03    -236.727E-03     53.1667E-03
            2413     4.98262E-03     4.65517E-03    -80.3166E+06    -65.3494E+06    -13.9914E+06     2.70659E+06    -243.261E-03     478.664E-03    -235.403E-03     61.2553E-03    -244.317E-03     479.244E-03    -235.262E-03     51.0470E-03
            2414     4.27473E-03     4.64435E-03    -86.7661E+06    -102.080E+06    -31.7589E+06    -986.374E+03    -239.178E-03     473.427E-03    -234.249E-03     55.4660E-03    -239.991E-03     473.660E-03    -234.134E-03     46.9486E-03
            2415     3.56481E-03     4.63768E-03    -90.7478E+06    -128.984E+06    -48.0374E+06    -1.89341E+06    -236.306E-03     469.658E-03    -233.352E-03     48.2376E-03    -236.907E-03     469.615E-03    -233.273E-03     41.2824E-03
            2416     2.85329E-03     4.63322E-03    -92.5046E+06    -140.251E+06    -65.7588E+06    -2.75723E+06    -234.282E-03     466.923E-03    -232.640E-03     39.9146E-03    -234.711E-03     466.710E-03    -232.632E-03     34.4162E-03
            2417     2.14071E-03     4.63076E-03    -93.6340E+06    -162.031E+06    -81.1678E+06    -3.83631E+06    -232.964E-03     465.101E-03    -232.138E-03     30.7443E-03    -233.234E-03     464.693E-03    -232.173E-03     26.6147E-03
            2418     1.42736E-03     4.62962E-03    -95.1817E+06    -188.963E+06    -90.2020E+06    -2.38324E+06    -232.171E-03     463.992E-03    -231.821E-03     20.9483E-03    -232.317E-03     463.384E-03    -231.860E-03     18.1753E-03
            2419     713.881E-06     4.62907E-03    -96.9785E+06    -203.986E+06    -95.8084E+06    -838.679E+03    -231.309E-03     463.339E-03    -232.030E-03     11.3948E-03    -231.385E-03     462.618E-03    -232.073E-03     9.90430E-03
            2420     12.7999E-03     4.26923E-03    -4.12058E+06     62.7858E+06     70.3267E+06    -6.91771E+06    -434.183E-03     723.103E-03    -288.920E-03     179.549E-03    -441.685E-03     730.606E-03    -288.653E-03     124.126E-03
            2421     12.2206E-03     3.92636E-03    -4.81587E+06     45.2706E+06     61.3207E+06    -1.82745E+06    -429.366E-03     710.857E-03    -281.490E-03     137.066E-03    -436.477E-03     717.954E-03    -281.243E-03     79.4816E-03
            2422     11.6356E-03     3.69343E-03    -9.09232E+06     29.8858E+06     52.8466E+06     3.60374E+06    -402.495E-03     676.388E-03    -273.893E-03     90.4941E-03    -407.225E-03     681.059E-03    -273.659E-03     42.6702E-03
            2423     11.0321E-03     3.52282E-03    -14.1537E+06     28.0315E+06     53.8436E+06     6.35807E+06    -371.525E-03     638.540E-03    -267.015E-03     71.8804E-03    -375.112E-03     642.036E-03    -266.765E-03     32.1981E-03
            2424     10.4102E-03     3.39915E-03    -17.9965E+06     24.1460E+06     56.0905E+06     7.84794E+06    -342.279E-03     603.416E-03    -261.137E-03     66.1335E-03    -345.124E-03     606.134E-03    -260.865E-03     34.0574E-03
            2425     9.76683E-03     3.31199E-03    -20.9564E+06     20.5203E+06     57.8902E+06     9.87686E+06    -316.793E-03     573.102E-03    -256.309E-03     67.2914E-03    -319.126E-03     575.276E-03    -256.019E-03     41.6411E-03
            2426     9.10333E-03     3.25045E-03    -23.8827E+06     14.8237E+06     57.6760E+06     11.0755E+06    -296.093E-03     548.557E-03    -252.464E-03     69.9948E-03    -298.048E-03     550.321E-03    -252.163E-03     49.3315E-03
            2427     8.42488E-03     3.20725E-03    -29.5830E+06     6.47547E+06     50.8327E+06     10.8661E+06    -280.074E-03     529.523E-03    -249.449E-03     71.5782E-03    -281.734E-03     530.960E-03    -249.162E-03     54.6863E-03
            2428     7.73813E-03     3.17568E-03    -38.7889E+06    -4.83563E+06     39.4581E+06     10.0145E+06    -267.992E-03     515.118E-03    -247.126E-03     71.3544E-03    -269.407E-03     516.268E-03    -246.865E-03     57.3684E-03
            2429     7.04513E-03     3.15333E-03    -48.6596E+06    -16.4393E+06     27.8137E+06     9.00722E+06    -259.120E-03     504.488E-03    -245.368E-03     69.4020E-03    -260.331E-03     505.390E-03    -245.134E-03     57.6579E-03
            2430     6.34695E-03     3.13756E-03    -56.1975E+06    -25.8487E+06     15.8423E+06     6.24016E+06    -252.823E-03     496.867E-03    -244.043E-03     65.8263E-03    -253.853E-03     497.561E-03    -243.845E-03     55.8240E-03
            2431     5.64607E-03     3.12636E-03    -60.5484E+06    -35.6750E+06     2.52983E+06     688.890E+03    -248.471E-03     491.516E-03    -243.045E-03     60.8801E-03    -249.328E-03     492.023E-03    -242.893E-03     52.2581E-03
            2432     4.94296E-03     3.11875E-03    -63.4282E+06    -60.1206E+06    -12.1856E+06    -3.78720E+06    -245.491E-03     487.807E-03    -242.316E-03     54.8594E-03    -246.168E-03     488.078E-03    -242.197E-03     47.4218E-03
            2433     4.23846E-03     3.11384E-03    -67.3024E+06    -101.157E+06    -29.8602E+06    -5.89784E+06    -243.540E-03     485.335E-03    -241.795E-03     48.0376E-03    -244.032E-03     485.313E-03    -241.700E-03     41.6898E-03
            2434     3.53295E-03     3.11048E-03    -72.1553E+06    -130.096E+06    -48.1954E+06    -8.08952E+06    -242.293E-03     483.698E-03    -241.405E-03     40.7270E-03    -242.640E-03     483.463E-03    -241.353E-03     35.3994E-03
            2435     2.82691E-03     3.10895E-03    -76.3330E+06    -145.048E+06    -64.6318E+06    -7.71953E+06    -241.512E-03     482.629E-03    -241.117E-03     33.0689E-03    -241.751E-03     482.265E-03    -241.119E-03     28.7763E-03
            2436     2.12037E-03     3.10809E-03    -79.9820E+06    -170.823E+06    -74.6538E+06    -4.24947E+06    -241.094E-03     482.056E-03    -240.963E-03     25.1036E-03    -241.232E-03     481.516E-03    -240.972E-03     21.8761E-03
            2437     1.41385E-03     3.10784E-03    -83.7609E+06    -195.773E+06    -79.8235E+06    -1.32098E+06    -240.904E-03     481.798E-03    -240.894E-03     17.0372E-03    -240.969E-03     481.097E-03    -240.888E-03     14.8636E-03
            2438     706.951E-06     3.10822E-03    -86.6231E+06    -206.259E+06    -85.3612E+06    -132.903E+03    -240.423E-03     481.676E-03    -241.254E-03     9.27931E-03    -240.449E-03     480.906E-03    -241.256E-03     8.10998E-03
            2439     12.8300E-03     2.25469E-03    -3.58942E+06     65.9544E+06     77.0984E+06    -3.74401E+06    -515.680E-03     805.570E-03    -289.890E-03     199.679E-03    -522.977E-03     812.890E-03    -289.595E-03     140.236E-03
            2440     12.2754E-03     1.98611E-03    -7.66139E+06     46.2356E+06     66.4891E+06     1.48136E+06    -454.741E-03     734.891E-03    -280.150E-03     111.944E-03    -458.439E-03     738.586E-03    -279.873E-03     71.7630E-03
            2441     11.6849E-03     1.84075E-03    -13.0444E+06     33.7716E+06     59.6445E+06     3.00570E+06    -398.575E-03     670.667E-03    -272.092E-03     70.7425E-03    -400.613E-03     672.636E-03    -271.824E-03     42.9869E-03
            2442     11.0636E-03     1.74773E-03    -16.8827E+06     29.9859E+06     58.6902E+06     2.52387E+06    -356.229E-03     622.018E-03    -265.790E-03     61.0069E-03    -357.791E-03     623.474E-03    -265.515E-03     39.6558E-03
            2443     10.4140E-03     1.68910E-03    -20.4715E+06     23.4727E+06     57.0007E+06     1.85126E+06    -324.470E-03     585.433E-03    -260.963E-03     58.0973E-03    -325.739E-03     586.556E-03    -260.682E-03     41.8897E-03
            2444     9.74679E-03     1.64991E-03    -23.5133E+06     16.3511E+06     51.3598E+06     2.20463E+06    -301.337E-03     558.642E-03    -257.305E-03     56.5050E-03    -302.385E-03     559.523E-03    -257.038E-03     44.0320E-03
            2445     9.07080E-03     1.62260E-03    -25.5377E+06     8.96853E+06     44.5256E+06     4.99526E+06    -284.829E-03     539.380E-03    -254.551E-03     54.3467E-03    -285.693E-03     540.060E-03    -254.304E-03     44.4481E-03
            2446     8.38916E-03     1.60376E-03    -27.5045E+06     2.73632E+06     39.5489E+06     9.69424E+06    -273.081E-03     525.569E-03    -252.488E-03     51.5451E-03    -273.805E-03     526.093E-03    -252.254E-03     43.4290E-03
            2447     7.70055E-03     1.59079E-03    -30.7600E+06     -2.2062E+06     32.7070E+06     12.1601E+06    -264.652E-03     515.588E-03    -250.936E-03     48.0960E-03    -265.269E-03     515.994E-03    -250.725E-03     41.2979E-03
            2448     7.00692E-03     1.58121E-03    -34.1286E+06    -6.10623E+06     23.7055E+06     8.75265E+06    -258.637E-03     508.412E-03    -249.775E-03     44.0964E-03    -259.167E-03     508.731E-03    -249.598E-03     38.2447E-03
            2449     6.31085E-03     1.57383E-03    -36.8533E+06    -11.0891E+06     11.7486E+06     1.11172E+06    -254.426E-03     503.337E-03    -248.911E-03     39.8933E-03    -254.876E-03     503.583E-03    -248.783E-03     34.7195E-03
            2450     5.61235E-03     1.56858E-03    -40.2079E+06    -25.6927E+06    -3.62225E+06    -5.15371E+06    -251.529E-03     499.817E-03    -248.287E-03     35.6533E-03    -251.897E-03     499.960E-03    -248.210E-03     31.0360E-03
            2451     4.91248E-03     1.56517E-03    -44.8516E+06    -62.4781E+06    -16.6073E+06    -6.72824E+06    -249.651E-03     497.544E-03    -247.893E-03     31.4288E-03    -249.923E-03     497.481E-03    -247.820E-03     27.3638E-03
            2452     4.21166E-03     1.56296E-03    -49.9007E+06    -103.907E+06    -27.6806E+06    -5.78866E+06    -248.478E-03     496.131E-03    -247.653E-03     27.1778E-03    -248.658E-03     495.843E-03    -247.568E-03     23.6806E-03
            2453     3.51016E-03     1.56190E-03    -55.3619E+06    -132.468E+06    -39.8916E+06    -4.71229E+06    -247.759E-03     495.253E-03    -247.494E-03     22.8361E-03    -247.871E-03     494.812E-03    -247.421E-03     19.9011E-03
            2454     2.80813E-03     1.56120E-03    -61.7882E+06    -155.749E+06    -50.8838E+06    -2.57433E+06    -247.398E-03     494.809E-03    -247.411E-03     18.3917E-03    -247.464E-03     494.249E-03    -247.350E-03     16.0337E-03
            2455     2.10614E-03     1.56109E-03    -67.3757E+06    -178.674E+06    -60.3515E+06    -58.0836E+03    -247.275E-03     494.661E-03    -247.386E-03     13.8504E-03    -247.298E-03     493.984E-03    -247.331E-03     12.0825E-03
            2456     1.40378E-03     1.56133E-03    -70.5634E+06    -197.414E+06    -67.2540E+06     261.727E+03    -247.287E-03     494.686E-03    -247.399E-03     9.31807E-03    -247.272E-03     493.913E-03    -247.347E-03     8.12052E-03
            2457     701.739E-06     1.56125E-03    -72.0108E+06    -207.358E+06    -71.3097E+06    -335.363E+03    -247.005E-03     494.806E-03    -247.802E-03     5.00795E-03    -246.966E-03     493.981E-03    -247.753E-03     4.35280E-03


