********************************************************************************
Field Output Report, written Wed May 29 00:15:02 2024

Source 1
---------

   ODB: G:/Abaqus_calc_2019/1740/Vel_5/odb/zeides_2a_16_red_500_cal_10_vel_5_fric_025.odb
   Step: Step-1
   Frame: Increment  14352252: Step Time =    1.807

Loc 1 : Nodal values from source 1

Output sorted by column "Nodal Label".

Field Output reported at nodes for region: DIE_2A_16_D0_36-1.Region_1
   Computation algorithm: EXTRAPOLATE_COMPUTE_AVERAGE
   Averaged at nodes
   Averaging regions: ODB_REGIONS

      Node Label     COORD.COOR1     COORD.COOR2
                          @Loc 1          @Loc 1
-------------------------------------------------
               1     19.4799E-03     129.092E-03


Field Output reported at nodes for region: DIE_2A_16_D0_36-1.Region_2
   Computation algorithm: EXTRAPOLATE_COMPUTE_AVERAGE
   Averaged at nodes
   Averaging regions: ODB_REGIONS

      Node Label     COORD.COOR1     COORD.COOR2
                          @Loc 1          @Loc 1
-------------------------------------------------
               1     19.4799E-03     129.092E-03


Field Output reported at nodes for part: WIRE-1
   Computation algorithm: EXTRAPOLATE_COMPUTE_AVERAGE
   Averaged at nodes
   Averaging regions: ODB_REGIONS

      Node Label     COORD.COOR1     COORD.COOR2           S.S11           S.S22           S.S33           S.S12         PE.PE11         PE.PE22         PE.PE33         PE.PE12         LE.LE11         LE.LE22         LE.LE33         LE.LE12
                          @Loc 1          @Loc 1          @Loc 1          @Loc 1          @Loc 1          @Loc 1          @Loc 1          @Loc 1          @Loc 1          @Loc 1          @Loc 1          @Loc 1          @Loc 1          @Loc 1
-------------------------------------------------------------------------------------------------------------------------------------------------------------------------------------------------------------------------------------------------
               1     31.0640E-09     60.3945E-03    -65.0603E+06    -175.367E+06    -65.1231E+06    -204.375E+03    -52.7249E-03     105.349E-03    -52.6243E-03     5.97737E-03    -52.7019E-03     104.662E-03    -52.6013E-03     5.95532E-03
               2     17.0822E-03     61.6009E-03    -2.12178E+06     122.078E+06     82.6047E+06     18.5056E+03    -51.4294E-03     104.016E-03    -52.5869E-03     10.4635E-03    -51.9368E-03     104.710E-03    -52.3478E-03     9.98497E-03
               3     16.9300E-03     123.372E-03    -22.7505E+06     33.3154E+06     45.0655E+06    -6.12120E+06     27.2044E-03     30.6016E-03    -57.8060E-03     8.60694E-03     27.0119E-03     30.7707E-03    -57.5960E-03     8.52808E-03
               4    -2.76300E-06     120.919E-03     43.4853E+06    -4.48105E+06     39.6435E+06    -1.69624E+06    -49.8392E-03     102.023E-03    -52.1834E-03    -3.05113E-03    -49.6799E-03     101.872E-03    -52.0418E-03    -3.07912E-03
               5    -63.4028E-09    -2.68535E-15    -29.6952E+06    -138.709E+06    -30.0120E+06     209.886E+03    -53.7302E-03     107.571E-03    -53.8411E-03     616.802E-06    -53.6340E-03     106.964E-03    -53.7470E-03     619.112E-06
               6     16.8650E-03    -2.68535E-15     1.25146E+06     111.653E+06     85.6462E+06     2.44882E+06    -67.7445E-03     130.263E-03    -62.5190E-03     83.0450E-03    -68.2386E-03     130.897E-03    -62.2544E-03     82.4574E-03
               7     853.843E-06     60.4005E-03    -64.3406E+06    -174.207E+06    -62.8049E+06    -184.396E+03    -52.7136E-03     105.367E-03    -52.6533E-03     9.92406E-03    -52.6932E-03     104.682E-03    -52.6214E-03     9.88897E-03
               8     1.70770E-03     60.4144E-03    -62.0599E+06    -171.379E+06    -55.6529E+06    -136.161E+03    -52.7294E-03     105.427E-03    -52.6972E-03     18.1548E-03    -52.7152E-03     104.745E-03    -52.6370E-03     18.0913E-03
               9     2.56158E-03     60.4369E-03    -58.3737E+06    -165.682E+06    -45.5271E+06    -118.173E+03    -52.7951E-03     105.519E-03    -52.7237E-03     26.6666E-03    -52.7913E-03     104.852E-03    -52.6264E-03     26.5700E-03
              10     3.41548E-03     60.4677E-03    -53.8769E+06    -157.825E+06    -34.9265E+06    -102.203E+03    -52.8905E-03     105.636E-03    -52.7456E-03     34.9925E-03    -52.8999E-03     104.995E-03    -52.6133E-03     34.8580E-03
              11     4.26942E-03     60.5068E-03    -49.1362E+06    -147.985E+06    -25.4710E+06    -49.2059E+03    -53.0125E-03     105.770E-03    -52.7572E-03     43.0284E-03    -53.0390E-03     105.170E-03    -52.5987E-03     42.8510E-03
              12     5.12338E-03     60.5538E-03    -44.4985E+06    -135.760E+06    -17.3757E+06         575.772    -53.1521E-03     105.910E-03    -52.7578E-03     50.7207E-03    -53.2025E-03     105.371E-03    -52.5833E-03     50.4940E-03
              13     5.97738E-03     60.6082E-03    -40.1049E+06    -125.222E+06    -10.4484E+06     41.6669E+03    -53.3142E-03     106.069E-03    -52.7552E-03     58.0002E-03    -53.3916E-03     105.590E-03    -52.5677E-03     57.7170E-03
              14     6.83139E-03     60.6697E-03    -36.0708E+06    -114.380E+06    -5.49498E+06     72.6570E+03    -53.4865E-03     106.230E-03    -52.7434E-03     64.8263E-03    -53.5975E-03     105.823E-03    -52.5527E-03     64.4788E-03
              15     7.68542E-03     60.7377E-03    -32.4606E+06    -103.513E+06    -1.77499E+06     96.2594E+03    -53.6575E-03     106.384E-03    -52.7269E-03     71.1441E-03    -53.8115E-03     106.061E-03    -52.5386E-03     70.7239E-03
              16     8.53947E-03     60.8118E-03    -29.2803E+06    -93.0444E+06     429.399E+03     112.995E+03    -53.8195E-03     106.524E-03    -52.7049E-03     76.9050E-03    -54.0272E-03     106.297E-03    -52.5254E-03     76.4032E-03
              17     9.39353E-03     60.8913E-03    -26.5092E+06    -79.3953E+06     1.98809E+06     127.185E+03    -53.9477E-03     106.624E-03    -52.6763E-03     82.0865E-03    -54.2288E-03     106.523E-03    -52.5128E-03     81.4942E-03
              18     10.2476E-03     60.9756E-03    -24.0690E+06    -64.7577E+06     3.63313E+06     137.429E+03    -54.0323E-03     106.680E-03    -52.6474E-03     86.5452E-03    -54.4076E-03     106.729E-03    -52.5004E-03     85.8537E-03
              19     11.1017E-03     61.0638E-03    -21.9377E+06    -46.9776E+06     3.76372E+06     138.350E+03    -54.0469E-03     106.654E-03    -52.6066E-03     89.9866E-03    -54.5424E-03     106.893E-03    -52.4879E-03     89.1879E-03
              20     11.9559E-03     61.1548E-03    -20.0706E+06    -20.6831E+06     4.98453E+06     135.377E+03    -53.9583E-03     106.517E-03    -52.5586E-03     92.5683E-03    -54.6202E-03     107.020E-03    -52.4746E-03     91.6560E-03
              21     12.8100E-03     61.2481E-03    -18.3581E+06     20.2932E+06     6.70212E+06     128.647E+03    -53.7823E-03     106.272E-03    -52.4897E-03     95.3821E-03    -54.6847E-03     107.162E-03    -52.4590E-03     94.3540E-03
              22     13.6643E-03     61.3445E-03    -16.3352E+06     79.5846E+06     22.1727E+06     115.053E+03    -53.5571E-03     106.015E-03    -52.4578E-03     99.5742E-03    -54.7691E-03     107.387E-03    -52.4386E-03     98.4850E-03
              23     14.5187E-03     61.4461E-03    -13.2345E+06     117.010E+06     51.6210E+06     99.8420E+03    -52.9060E-03     105.427E-03    -52.5207E-03     90.9139E-03    -54.2308E-03     106.970E-03    -52.4131E-03     89.8967E-03
              24     15.3732E-03     61.5252E-03    -9.01549E+06     124.079E+06     74.5861E+06     80.0324E+03    -52.1004E-03     104.692E-03    -52.5918E-03     72.9548E-03    -53.3592E-03     106.143E-03    -52.3858E-03     72.0709E-03
              25     16.2277E-03     61.5909E-03    -4.41208E+06     124.868E+06     83.0481E+06     42.6449E+03    -51.6273E-03     104.228E-03    -52.6006E-03     38.3296E-03    -52.5043E-03     105.292E-03    -52.3600E-03     37.6775E-03
              26     17.0822E-03     62.6538E-03    -2.09932E+06     122.153E+06     82.6500E+06     41.3442E+03    -51.4288E-03     104.016E-03    -52.5870E-03     10.4657E-03    -51.9363E-03     104.710E-03    -52.3478E-03     9.98744E-03
              27     17.0822E-03     63.7067E-03    -2.13644E+06     122.262E+06     82.6835E+06     47.6656E+03    -51.4291E-03     104.016E-03    -52.5869E-03     10.4632E-03    -51.9369E-03     104.710E-03    -52.3477E-03     9.98508E-03
              28     17.0822E-03     64.7597E-03    -2.10857E+06     122.376E+06     82.7489E+06     46.6838E+03    -51.4304E-03     104.017E-03    -52.5870E-03     10.4585E-03    -51.9383E-03     104.712E-03    -52.3476E-03     9.98029E-03
              29     17.0822E-03     65.8126E-03    -2.12712E+06     122.506E+06     82.7948E+06     59.0609E+03    -51.4310E-03     104.018E-03    -52.5870E-03     10.4602E-03    -51.9393E-03     104.713E-03    -52.3476E-03     9.98220E-03
              30     17.0822E-03     66.8655E-03    -2.10775E+06     122.673E+06     82.8663E+06     77.7517E+03    -51.4318E-03     104.019E-03    -52.5870E-03     10.4611E-03    -51.9404E-03     104.715E-03    -52.3475E-03     9.98331E-03
              31     17.0822E-03     67.9184E-03    -2.12992E+06     122.885E+06     82.9420E+06     95.8297E+03    -51.4324E-03     104.019E-03    -52.5870E-03     10.4593E-03    -51.9414E-03     104.717E-03    -52.3474E-03     9.98170E-03
              32     17.0822E-03     68.9714E-03    -2.10352E+06     123.157E+06     83.0452E+06     126.120E+03    -51.4322E-03     104.019E-03    -52.5871E-03     10.4616E-03    -51.9417E-03     104.718E-03    -52.3474E-03     9.98435E-03
              33     17.0822E-03     70.0243E-03    -2.13772E+06     123.498E+06     83.1581E+06     152.277E+03    -51.4312E-03     104.018E-03    -52.5871E-03     10.4628E-03    -51.9415E-03     104.718E-03    -52.3473E-03     9.98587E-03
              34     17.0822E-03     71.0772E-03    -2.10327E+06     123.915E+06     83.3077E+06     188.778E+03    -51.4303E-03     104.018E-03    -52.5872E-03     10.4638E-03    -51.9413E-03     104.719E-03    -52.3473E-03     9.98730E-03
              35     17.0822E-03     72.1302E-03    -2.14064E+06     124.427E+06     83.4751E+06     229.814E+03    -51.4289E-03     104.016E-03    -52.5873E-03     10.4638E-03    -51.9410E-03     104.720E-03    -52.3473E-03     9.98785E-03
              36     17.0822E-03     73.1831E-03    -2.09715E+06     125.066E+06     83.6934E+06     291.897E+03    -51.4269E-03     104.014E-03    -52.5874E-03     10.4641E-03    -51.9401E-03     104.721E-03    -52.3473E-03     9.98891E-03
              37     17.0822E-03     74.2361E-03    -2.14360E+06     125.866E+06     83.9805E+06     362.641E+03    -51.4211E-03     104.009E-03    -52.5878E-03     10.4637E-03    -51.9361E-03     104.720E-03    -52.3473E-03     9.98945E-03
              38     17.0822E-03     75.2890E-03    -2.20469E+06     126.706E+06     84.2608E+06     324.519E+03    -51.4151E-03     104.003E-03    -52.5882E-03     10.4652E-03    -51.9320E-03     104.718E-03    -52.3474E-03     9.99045E-03
              39     17.0822E-03     76.3419E-03    -2.13790E+06     127.479E+06     84.5626E+06     307.705E+03    -51.4092E-03     103.998E-03    -52.5886E-03     10.4661E-03    -51.9273E-03     104.716E-03    -52.3475E-03     9.99109E-03
              40     17.0822E-03     77.3949E-03    -2.37754E+06     127.970E+06     84.7007E+06     95.2181E+03    -51.4014E-03     103.991E-03    -52.5891E-03     10.4672E-03    -51.9217E-03     104.711E-03    -52.3477E-03     9.98951E-03
              41     17.0822E-03     78.4478E-03    -2.17905E+06     127.893E+06     84.5680E+06    -157.185E+03    -51.4090E-03     103.998E-03    -52.5885E-03     10.4700E-03    -51.9280E-03     104.718E-03    -52.3480E-03     9.98901E-03
              42     17.0822E-03     79.5007E-03    -1.94565E+06     127.824E+06     84.4248E+06     96.4661E+03    -51.4186E-03     104.006E-03    -52.5878E-03     10.4680E-03    -51.9361E-03     104.726E-03    -52.3482E-03     9.99031E-03
              43     17.0822E-03     80.5537E-03    -2.15799E+06     128.399E+06     84.6421E+06     370.677E+03    -51.4061E-03     103.995E-03    -52.5886E-03     10.4684E-03    -51.9258E-03     104.717E-03    -52.3485E-03     9.99432E-03
              44     17.0822E-03     81.6066E-03    -2.40661E+06     128.987E+06     84.8544E+06     111.600E+03    -51.3935E-03     103.983E-03    -52.5895E-03     10.4689E-03    -51.9156E-03     104.708E-03    -52.3488E-03     9.99146E-03
              45     17.0821E-03     82.6595E-03    -2.18243E+06     128.908E+06     84.6775E+06    -174.423E+03    -51.4019E-03     103.991E-03    -52.5888E-03     10.4722E-03    -51.9225E-03     104.716E-03    -52.3491E-03     9.99105E-03
              46     17.0821E-03     83.7125E-03    -1.92190E+06     128.837E+06     84.5073E+06     113.068E+03    -51.4123E-03     104.000E-03    -52.5881E-03     10.4752E-03    -51.9313E-03     104.725E-03    -52.3496E-03     9.99773E-03
              47     17.0821E-03     84.7654E-03    -2.14705E+06     129.508E+06     84.7355E+06     430.551E+03    -51.3978E-03     103.987E-03    -52.5889E-03     10.4795E-03    -51.9192E-03     104.715E-03    -52.3499E-03     10.0063E-03
              48     17.0822E-03     85.8183E-03    -2.32420E+06     130.402E+06     85.0451E+06     303.405E+03    -51.3870E-03     103.977E-03    -52.5899E-03     10.4849E-03    -51.9111E-03     104.709E-03    -52.3503E-03     10.0100E-03
              49     17.0821E-03     86.8713E-03    -2.12591E+06     131.008E+06     85.2712E+06     186.519E+03    -51.3756E-03     103.966E-03    -52.5899E-03     10.5000E-03    -51.8999E-03     104.700E-03    -52.3504E-03     10.0236E-03
              50     17.0822E-03     87.9241E-03    -2.41044E+06     131.225E+06     85.1785E+06    -18.0178E+03    -51.3396E-03     103.928E-03    -52.5884E-03     10.5009E-03    -51.8655E-03     104.664E-03    -52.3493E-03     10.0218E-03
              51     17.0822E-03     88.9770E-03    -2.15234E+06     130.898E+06     84.8903E+06    -232.201E+03    -51.3464E-03     103.932E-03    -52.5851E-03     10.4805E-03    -51.8702E-03     104.666E-03    -52.3473E-03     9.99833E-03
              52     17.0822E-03     90.0299E-03    -2.14097E+06     130.339E+06     84.4102E+06    -205.999E+03    -51.3437E-03     103.924E-03    -52.5808E-03     10.5029E-03    -51.8660E-03     104.657E-03    -52.3446E-03     10.0210E-03
              53     17.0823E-03     91.0827E-03    -1.90072E+06     130.286E+06      84.364E+06     187.140E+03    -51.3297E-03     103.906E-03    -52.5766E-03     10.4910E-03    -51.8507E-03     104.638E-03    -52.3409E-03     10.0140E-03
              54     17.0823E-03     92.1356E-03    -2.32204E+06     130.874E+06     84.5718E+06     312.895E+03    -51.3475E-03     103.920E-03    -52.5722E-03     10.5006E-03    -51.8720E-03     104.655E-03    -52.3358E-03     10.0241E-03
              55     17.0825E-03     93.1884E-03    -2.13954E+06     131.454E+06     85.0513E+06     173.319E+03    -51.3665E-03     103.932E-03    -52.5659E-03     10.5319E-03    -51.8918E-03     104.670E-03    -52.3282E-03     10.0527E-03
              56     17.0826E-03     94.2413E-03    -2.24500E+06     131.799E+06     85.5954E+06     144.317E+03    -51.3736E-03     103.930E-03    -52.5567E-03     10.6055E-03    -51.9010E-03     104.669E-03    -52.3165E-03     10.1249E-03
              57     17.0830E-03     95.2941E-03    -2.13826E+06     132.101E+06     86.1910E+06     171.887E+03    -51.3763E-03     103.917E-03    -52.5410E-03     10.6751E-03    -51.9048E-03     104.657E-03    -52.2985E-03     10.1933E-03
              58     17.0833E-03     96.3470E-03    -2.31034E+06     132.425E+06     86.7303E+06     206.911E+03    -51.4400E-03     103.958E-03    -52.5181E-03     10.7466E-03    -51.9712E-03     104.700E-03    -52.2731E-03     10.2628E-03
              59     17.0839E-03     97.3999E-03    -2.21614E+06     132.630E+06     87.1133E+06     106.001E+03    -51.5355E-03     104.020E-03    -52.4850E-03     10.8955E-03    -52.0678E-03     104.763E-03    -52.2385E-03     10.4072E-03
              60     17.0846E-03     98.4529E-03    -2.34159E+06     132.622E+06     87.2038E+06     57.6575E+03    -51.6911E-03     104.130E-03    -52.4390E-03     11.0552E-03    -52.2252E-03     104.874E-03    -52.1919E-03     10.5613E-03
              61     17.0854E-03     99.5060E-03    -2.45264E+06     132.014E+06     87.0703E+06    -307.552E+03    -51.9925E-03     104.369E-03    -52.3766E-03     11.3052E-03    -52.5277E-03     105.112E-03    -52.1291E-03     10.7988E-03
              62     17.0867E-03     100.560E-03    -2.28995E+06     130.541E+06     87.0204E+06    -580.432E+03    -52.4556E-03     104.749E-03    -52.2930E-03     11.6775E-03    -52.9901E-03     105.486E-03    -52.0439E-03     11.1572E-03
              63     17.0882E-03     101.613E-03    -2.34969E+06     128.421E+06     87.2276E+06    -708.264E+03    -53.1612E-03     105.344E-03    -52.1831E-03     12.1866E-03    -53.6962E-03     106.074E-03    -51.9297E-03     11.6499E-03
              64     17.0903E-03     102.668E-03    -2.11513E+06     126.184E+06     86.9466E+06    -551.208E+03    -54.2420E-03     106.280E-03    -52.0376E-03     12.8496E-03    -54.7764E-03     107.002E-03    -51.7827E-03     12.2941E-03
              65     17.0926E-03     103.724E-03    -2.09917E+06     124.539E+06     87.1981E+06    -81.8626E+03    -55.8195E-03     107.682E-03    -51.8621E-03     13.6718E-03    -56.3577E-03     108.402E-03    -51.6037E-03     13.0925E-03
              66     17.0952E-03     104.782E-03    -2.85568E+06     122.975E+06     87.2710E+06    -366.238E+03    -58.1624E-03     109.827E-03    -51.6646E-03     14.6372E-03    -58.7102E-03     110.548E-03    -51.4024E-03     14.0111E-03
              67     17.0971E-03     105.843E-03    -1.88855E+06     120.942E+06     87.4190E+06    -449.253E+03    -61.4284E-03     112.888E-03    -51.4597E-03     15.9249E-03    -61.9795E-03     113.608E-03    -51.1952E-03     15.2386E-03
              68     17.0990E-03     106.909E-03    -3.01162E+06     118.411E+06     87.0352E+06    -868.495E+03    -65.4565E-03     116.719E-03    -51.2628E-03     17.7306E-03    -66.0226E-03     117.443E-03    -50.9950E-03     16.9640E-03
              69     17.0999E-03     107.979E-03    -1.47307E+06     115.490E+06     87.0992E+06    -904.805E+03    -69.9878E-03     121.066E-03    -51.0780E-03     20.0793E-03    -70.5590E-03     121.789E-03    -50.8079E-03     19.2221E-03
              70     17.1011E-03     109.054E-03    -3.37948E+06     111.819E+06     86.0979E+06    -1.53473E+06    -74.8620E-03     125.769E-03    -50.9069E-03     22.9599E-03    -75.4561E-03     126.499E-03    -50.6337E-03     21.9891E-03
              71     17.1013E-03     110.134E-03    -1.15491E+06     107.252E+06     86.8484E+06    -1.64933E+06    -80.1127E-03     130.858E-03    -50.7449E-03     26.4966E-03    -80.7144E-03     131.585E-03    -50.4645E-03     25.4018E-03
              72     17.1024E-03     111.220E-03    -3.32392E+06     102.325E+06     86.9912E+06    -1.73956E+06    -85.8814E-03     136.462E-03    -50.5807E-03     30.6982E-03    -86.5170E-03     137.198E-03    -50.2893E-03     29.4569E-03
              73     17.1022E-03     112.314E-03    -1.22081E+06     97.0449E+06     87.1634E+06    -1.84356E+06    -92.1973E-03     142.600E-03    -50.4027E-03     35.5328E-03    -92.8536E-03     143.345E-03    -50.1058E-03     34.1126E-03
              74     17.1034E-03     113.414E-03    -3.72422E+06     90.2150E+06     84.2803E+06    -3.06291E+06    -98.6906E-03     148.897E-03    -50.2065E-03     41.0371E-03    -99.3982E-03     149.668E-03    -49.9105E-03     39.3726E-03
              75     17.1037E-03     114.521E-03     3.51033E+06     85.6691E+06     88.3587E+06    -2.03701E+06    -106.495E-03     156.488E-03    -49.9927E-03     48.7673E-03    -107.229E-03     157.284E-03    -49.6802E-03     46.8573E-03
              76     17.1049E-03     115.642E-03    -7.46210E+06     76.7273E+06     85.4941E+06    -3.94103E+06    -115.920E-03     165.672E-03    -49.7523E-03     59.4417E-03    -116.759E-03     166.513E-03    -49.4252E-03     57.2328E-03
              77     17.1045E-03     116.774E-03       -4.53E+03     65.5794E+06     83.1605E+06    -2.31678E+06    -123.263E-03     172.790E-03    -49.5263E-03     70.3220E-03    -124.097E-03     173.619E-03    -49.2055E-03     67.9445E-03
              78     17.1077E-03     117.907E-03    -4.98426E+06     58.3814E+06     83.2228E+06    -5.30574E+06    -128.622E-03     178.002E-03    -49.3802E-03     77.8302E-03    -129.525E-03     178.856E-03    -49.0415E-03     75.2266E-03
              79     17.1045E-03     119.045E-03     2.03081E+06     53.1335E+06     85.0719E+06     1.53013E+06    -134.081E-03     183.315E-03    -49.2341E-03     85.3116E-03    -135.039E-03     184.225E-03    -48.8887E-03     82.4638E-03
              80     17.1098E-03     120.193E-03    -3.90242E+06     45.7062E+06     64.8217E+06    -1.66606E+06    -133.102E-03     182.220E-03    -49.1177E-03     105.452E-03    -134.220E-03     183.310E-03    -48.8542E-03     102.359E-03
              81     17.1079E-03     121.359E-03    -4.39617E+06     20.2632E+06     36.9799E+06    -15.6661E+06    -104.717E-03     154.439E-03    -49.7228E-03     142.248E-03    -105.710E-03     155.403E-03    -49.5609E-03     139.845E-03
              82     17.1090E-03     122.460E-03     16.3723E+06     17.4309E+06     43.5582E+06    -7.86767E+06    -26.3565E-03     80.4333E-03    -54.0769E-03     86.2555E-03    -26.7086E-03     80.8253E-03    -53.9081E-03     85.4967E-03
              83     15.9977E-03     123.208E-03    -11.1461E+06    -11.3029E+06     43.0498E+06    -4.66048E+06     1.62406E-03     57.1011E-03    -58.7252E-03     10.2746E-03     1.52655E-03     57.0199E-03    -58.4774E-03     10.1758E-03
              84     15.1533E-03     122.954E-03     6.34414E+06    -9.80022E+06     57.1822E+06    -7.38332E+06    -23.5791E-03     83.3544E-03    -59.7753E-03     14.9029E-03    -23.6342E-03     83.2281E-03    -59.4844E-03     14.7307E-03
              85     14.2968E-03     122.697E-03     16.4588E+06     756.942E+03     70.2171E+06    -2.74095E+06    -24.2725E-03     84.3358E-03    -60.0633E-03     9.74846E-03    -24.3076E-03     84.2273E-03    -59.7371E-03     9.62944E-03
              86     13.4495E-03     122.460E-03     24.2266E+06    -3.56478E+06     76.5946E+06     3.65074E+06    -28.8477E-03     89.0860E-03    -60.2384E-03    -4.28780E-03    -28.8499E-03     88.9222E-03    -59.8853E-03    -4.34094E-03
              87     12.6088E-03     122.240E-03     26.8895E+06     3.02783E+06     77.6627E+06     4.96663E+06    -36.5247E-03     96.6240E-03    -60.0994E-03    -15.4494E-03    -36.5223E-03     96.4775E-03    -59.7544E-03    -15.5035E-03
              88     11.7747E-03     122.042E-03     25.8670E+06    -577.447E+03     76.6801E+06     5.09324E+06    -43.6894E-03     103.335E-03    -59.6459E-03    -23.3070E-03    -43.6837E-03     103.166E-03    -59.2992E-03    -23.3707E-03
              89     10.9445E-03     121.862E-03     25.6127E+06     3.50948E+06     79.9824E+06     1.78838E+06    -48.7364E-03     107.705E-03    -58.9682E-03    -26.5796E-03    -48.7405E-03     107.548E-03    -58.6106E-03    -26.6861E-03
              90     10.1133E-03     121.704E-03     26.3442E+06    -2.09733E+06     78.1814E+06     635.308E+03    -52.2462E-03     110.394E-03    -58.1474E-03    -27.1787E-03    -52.2338E-03     110.211E-03    -57.7917E-03    -27.2928E-03
              91     9.28148E-03     121.563E-03     27.7445E+06     668.895E+03     77.6301E+06    -38.8053E+03    -54.4978E-03     111.742E-03    -57.2442E-03    -26.4249E-03    -54.4807E-03     111.574E-03    -56.8972E-03    -26.5365E-03
              92     8.44792E-03     121.441E-03     28.2996E+06    -736.132E+03     75.4474E+06     198.384E+03    -55.6137E-03     111.923E-03    -56.3096E-03    -24.6343E-03    -55.5881E-03     111.752E-03    -55.9724E-03    -24.7295E-03
              93     7.61216E-03     121.334E-03     27.9896E+06     452.296E+03     72.4834E+06    -97.6292E+03    -55.8931E-03     111.273E-03    -55.3800E-03    -22.2833E-03    -55.8660E-03     111.115E-03    -55.0588E-03    -22.3686E-03
              94     6.77389E-03     121.242E-03     27.3276E+06     133.366E+03     68.2484E+06    -700.172E+03    -55.5720E-03     110.061E-03    -54.4892E-03    -19.7287E-03    -55.5412E-03     109.911E-03    -54.1877E-03    -19.8089E-03
              95     5.93308E-03     121.163E-03     27.3339E+06     808.562E+03     62.8647E+06    -1.96901E+06    -54.8712E-03     108.529E-03    -53.6578E-03    -17.1469E-03    -54.8332E-03     108.391E-03    -53.3843E-03    -17.2319E-03
              96     5.08995E-03     121.098E-03     28.5788E+06    -420.400E+03     55.7745E+06    -2.68053E+06    -53.9778E-03     106.885E-03    -52.9076E-03    -14.6362E-03    -53.9214E-03     106.752E-03    -52.6695E-03    -14.7200E-03
              97     4.24463E-03     121.043E-03     30.8688E+06     122.771E+03     50.3320E+06    -3.11142E+06    -53.0381E-03     105.307E-03    -52.2688E-03    -12.2410E-03    -52.9630E-03     105.181E-03    -52.0621E-03    -12.3209E-03
              98     3.39760E-03     120.999E-03     33.9956E+06    -630.129E+03     46.4733E+06    -3.34084E+06    -52.1832E-03     103.945E-03    -51.7617E-03    -9.96429E-03    -52.0857E-03     103.818E-03    -51.5777E-03    -10.0388E-03
              99     2.54898E-03     120.965E-03     37.3903E+06    -733.538E+03     44.2523E+06    -3.14474E+06    -51.5114E-03     102.908E-03    -51.3971E-03    -7.81244E-03    -51.3936E-03     102.779E-03    -51.2290E-03    -7.87662E-03
             100     1.69950E-03     120.941E-03     40.1859E+06    -1.13200E+06     42.4594E+06    -2.47235E+06    -51.1200E-03     102.292E-03    -51.1725E-03    -5.76073E-03    -50.9852E-03     102.160E-03    -51.0168E-03    -5.80892E-03
             101     849.263E-06     120.926E-03     42.3951E+06    -1.71824E+06     40.9214E+06    -1.90024E+06    -50.4255E-03     102.064E-03    -51.6384E-03    -3.90253E-03    -50.2770E-03     101.927E-03    -51.4928E-03    -3.93643E-03
             102     785.961E-09     119.869E-03     35.9457E+06    -5.00461E+06     35.3155E+06    -1.42247E+06    -44.9706E-03     90.5562E-03    -45.5856E-03    -846.792E-06    -44.8397E-03     90.4229E-03    -45.4539E-03    -870.988E-06
             103     206.427E-09     118.844E-03     18.4960E+06    -10.6639E+06     20.2201E+06    -2.05718E+06    -36.0000E-03     71.4261E-03    -35.4262E-03     1.69048E-03    -35.9236E-03     71.3146E-03    -35.3364E-03     1.65858E-03
             104    -164.825E-09     117.833E-03    -3.78210E+06    -20.1603E+06    -3.20786E+06    -3.03636E+06    -29.3735E-03     58.6984E-03    -29.3249E-03     2.80274E-03    -29.3596E-03     58.6069E-03    -29.3063E-03     2.75948E-03
             105     222.108E-09     116.834E-03    -29.2821E+06    -31.0142E+06    -28.7460E+06    -3.24947E+06    -25.4729E-03     50.9292E-03    -25.4563E-03     4.14332E-03    -25.5329E-03     50.8582E-03    -25.5126E-03     4.09913E-03
             106    -248.917E-09     115.838E-03    -57.2585E+06    -42.5969E+06    -56.6156E+06    -3.54883E+06    -23.7270E-03     47.4873E-03    -23.7603E-03     5.17207E-03    -23.8695E-03     47.4395E-03    -23.8985E-03     5.12536E-03
             107     212.865E-09     114.845E-03    -88.4060E+06    -55.4215E+06    -87.9322E+06    -3.92985E+06    -23.8688E-03     47.7602E-03    -23.8914E-03     6.01822E-03    -24.1030E-03     47.7389E-03    -24.1225E-03     5.96757E-03
             108    -226.819E-09     113.849E-03    -111.305E+06    -66.3274E+06    -111.750E+06    -2.44808E+06    -25.6214E-03     51.2189E-03    -25.5975E-03     6.63522E-03    -25.9199E-03     51.2105E-03    -25.8987E-03     6.60424E-03
             109     260.075E-09     112.849E-03    -111.011E+06    -69.6639E+06    -111.961E+06     517.545E+03    -28.5825E-03     57.0870E-03    -28.5044E-03     6.98869E-03    -28.8747E-03     57.0616E-03    -28.8023E-03     6.99585E-03
             110    -185.502E-09     111.841E-03    -84.0764E+06    -64.5624E+06    -84.0158E+06     2.56528E+06    -32.2417E-03     64.3832E-03    -32.1415E-03     7.13962E-03    -32.4472E-03     64.3037E-03    -32.3460E-03     7.17230E-03
             111     268.245E-09     110.826E-03    -55.3332E+06     -60.109E+06    -53.9389E+06     34.8179E+03    -36.0443E-03     71.9880E-03    -35.9436E-03     7.17450E-03    -36.1562E-03     71.8455E-03    -36.0459E-03     7.17282E-03
             112    -178.837E-09     109.803E-03    -42.9256E+06    -63.9038E+06    -43.3326E+06    -2.06014E+06    -39.5463E-03     78.9898E-03    -39.4435E-03     7.11048E-03    -39.6060E-03     78.7951E-03    -39.5052E-03     7.07966E-03
             113     243.971E-09     108.774E-03    -42.4360E+06    -70.9114E+06    -42.3216E+06    -1.96813E+06    -42.5818E-03     85.0607E-03    -42.4789E-03     6.97701E-03    -42.6303E-03     84.8291E-03    -42.5262E-03     6.94505E-03
             114    -149.520E-09     107.739E-03    -42.3870E+06    -78.3994E+06    -42.7110E+06    -2.11870E+06    -45.1398E-03     90.1753E-03    -45.0355E-03     6.80768E-03    -45.1766E-03     89.9069E-03    -45.0739E-03     6.77133E-03
             115     212.126E-09     106.699E-03    -43.6538E+06    -85.7991E+06    -43.6100E+06    -2.04134E+06    -47.2162E-03     94.3263E-03    -47.1101E-03     6.63170E-03    -47.2473E-03     94.0241E-03    -47.1404E-03     6.59402E-03
             116    -110.637E-09     105.655E-03    -46.5595E+06    -94.3734E+06    -46.5759E+06    -2.60782E+06    -48.8332E-03     97.5641E-03    -48.7309E-03     6.47322E-03    -48.8621E-03     97.2277E-03    -48.7594E-03     6.42611E-03
             117     166.266E-09     104.608E-03    -49.6548E+06    -103.452E+06    -49.9276E+06    -2.40126E+06    -50.0542E-03     100.009E-03    -49.9549E-03     6.33485E-03    -50.0805E-03     99.6367E-03    -49.9826E-03     6.28869E-03
             118    -72.7150E-09     103.560E-03    -53.1811E+06    -112.040E+06    -53.2009E+06    -2.24940E+06    -50.9477E-03     101.795E-03    -50.8472E-03     6.22291E-03    -50.9744E-03     101.389E-03    -50.8737E-03     6.17737E-03
             119     133.602E-09     102.509E-03    -56.5017E+06    -120.024E+06    -56.6626E+06    -2.11907E+06    -51.5828E-03     103.062E-03    -51.4789E-03     6.14056E-03    -51.6096E-03     102.626E-03    -51.5063E-03     6.09568E-03
             120    -35.4650E-09     101.458E-03    -60.1581E+06    -127.876E+06    -60.1391E+06    -2.12079E+06    -52.0235E-03     103.943E-03    -51.9195E-03     6.08644E-03    -52.0521E-03     103.479E-03    -51.9476E-03     6.04081E-03
             121     98.6550E-09     100.406E-03    -63.1427E+06    -134.955E+06    -63.4303E+06    -1.73095E+06    -52.3232E-03     104.546E-03    -52.2227E-03     6.04484E-03    -52.3517E-03     104.055E-03    -52.2526E-03     6.00378E-03
             122    -9.74518E-09     99.3535E-03    -66.2741E+06    -141.046E+06    -66.1775E+06    -1.55267E+06    -52.5224E-03     104.945E-03    -52.4224E-03     6.01667E-03    -52.5538E-03     104.432E-03    -52.4527E-03     5.97758E-03
             123     76.5122E-09     98.3006E-03    -67.5561E+06    -146.376E+06    -67.8061E+06    -1.33233E+06    -52.6487E-03     105.193E-03    -52.5448E-03     5.99788E-03    -52.6763E-03     104.658E-03    -52.5736E-03     5.96142E-03
             124     15.2167E-09     97.2477E-03    -69.0336E+06    -151.395E+06    -68.8112E+06    -1.38893E+06    -52.7232E-03     105.342E-03    -52.6191E-03     5.99152E-03    -52.7496E-03     104.786E-03    -52.6435E-03     5.95417E-03
             125     57.3012E-09     96.1946E-03    -70.0441E+06    -156.689E+06    -70.2481E+06    -1.45530E+06    -52.7686E-03     105.436E-03    -52.6670E-03     5.98602E-03    -52.7903E-03     104.856E-03    -52.6895E-03     5.94772E-03
             126     25.4729E-09     95.1415E-03    -71.2559E+06    -161.927E+06    -71.1351E+06    -1.37647E+06    -52.7955E-03     105.489E-03    -52.6939E-03     5.98007E-03    -52.8143E-03     104.887E-03    -52.7115E-03     5.94274E-03
             127     50.6177E-09     94.0883E-03    -71.0877E+06    -166.774E+06    -71.3057E+06    -1.22724E+06    -52.8085E-03     105.513E-03    -52.7049E-03     5.97842E-03    -52.8192E-03     104.887E-03    -52.7166E-03     5.94300E-03
             128     31.7418E-09     93.0352E-03    -70.8607E+06    -170.280E+06    -70.9828E+06     -676.55E+03    -52.8107E-03     105.519E-03    -52.7079E-03     5.97883E-03    -52.8156E-03     104.873E-03    -52.7132E-03     5.95056E-03
             129     44.0129E-09     91.9821E-03    -70.6385E+06    -172.230E+06    -70.6967E+06    -367.330E+03    -52.8049E-03     105.509E-03    -52.7036E-03     5.97724E-03    -52.8064E-03     104.853E-03    -52.7049E-03     5.95299E-03
             130     36.6611E-09     90.9290E-03    -70.3727E+06    -173.595E+06    -70.3347E+06    -286.556E+03    -52.7951E-03     105.486E-03    -52.6909E-03     5.97491E-03    -52.7938E-03     104.823E-03    -52.6888E-03     5.95174E-03
             131     45.1115E-09     89.8759E-03    -69.7812E+06    -174.421E+06    -69.8862E+06    -135.643E+03    -52.7848E-03     105.462E-03    -52.6777E-03     5.97643E-03    -52.7799E-03     104.793E-03    -52.6731E-03     5.95520E-03
             132     38.6945E-09     88.8229E-03    -69.8037E+06    -174.805E+06    -69.8063E+06    -70.2087E+03    -52.7711E-03     105.438E-03    -52.6669E-03     5.97628E-03    -52.7659E-03     104.767E-03    -52.6613E-03     5.95591E-03
             133     39.2586E-09     87.7699E-03    -69.7559E+06    -174.929E+06    -69.8341E+06        -804.922    -52.7556E-03     105.410E-03    -52.6541E-03     5.97528E-03    -52.7499E-03     104.738E-03    -52.6484E-03     5.95584E-03
             134     39.2321E-09     86.7170E-03    -69.4155E+06    -174.720E+06    -69.4801E+06     193.766E+03    -52.7460E-03     105.389E-03    -52.6427E-03     5.97658E-03    -52.7395E-03     104.717E-03    -52.6361E-03     5.95967E-03
             135     41.8079E-09     85.6640E-03    -68.8889E+06    -174.258E+06    -68.7767E+06     127.721E+03    -52.7403E-03     105.376E-03    -52.6354E-03     5.97780E-03    -52.7329E-03     104.705E-03    -52.6267E-03     5.96003E-03
             136     41.5513E-09     84.6111E-03    -68.3962E+06    -173.900E+06    -68.4099E+06     1.91308E+03    -52.7316E-03     105.359E-03    -52.6274E-03     5.97826E-03    -52.7227E-03     104.688E-03    -52.6181E-03     5.95885E-03
             137     36.8385E-09     83.5582E-03    -68.0986E+06    -173.895E+06    -68.0998E+06     59.0484E+03    -52.7254E-03     105.348E-03    -52.6222E-03     5.97997E-03    -52.7155E-03     104.676E-03    -52.6118E-03     5.96133E-03
             138     44.8882E-09     82.5053E-03    -67.1988E+06    -173.715E+06    -67.2020E+06    -20.4281E+03    -52.7256E-03     105.349E-03    -52.6230E-03     5.98088E-03    -52.7127E-03     104.675E-03    -52.6097E-03     5.96120E-03
             139     32.4143E-09     81.4524E-03    -66.9468E+06    -173.946E+06    -66.9757E+06    -124.465E+03    -52.7244E-03     105.346E-03    -52.6214E-03     5.97982E-03    -52.7103E-03     104.671E-03    -52.6070E-03     5.95879E-03
             140     49.8815E-09     80.3995E-03    -66.8060E+06    -174.412E+06    -66.7599E+06    -72.4681E+03    -52.7227E-03     105.341E-03    -52.6187E-03     5.97990E-03    -52.7075E-03     104.664E-03    -52.6027E-03     5.95954E-03
             141     29.8533E-09     79.3466E-03    -66.3771E+06    -174.632E+06    -66.4079E+06    -57.4924E+03    -52.7220E-03     105.341E-03    -52.6189E-03     5.98124E-03    -52.7048E-03     104.661E-03    -52.6015E-03     5.96106E-03
             142     49.9967E-09     78.2937E-03    -66.3877E+06    -174.442E+06    -66.4373E+06     153.407E+03    -52.7195E-03     105.337E-03    -52.6173E-03     5.98029E-03    -52.7026E-03     104.658E-03    -52.6003E-03     5.96288E-03
             143     27.9978E-09     77.2408E-03    -66.2595E+06    -174.076E+06    -66.2157E+06     105.408E+03    -52.7172E-03     105.331E-03    -52.6141E-03     5.97880E-03    -52.7005E-03     104.654E-03    -52.5967E-03     5.96077E-03
             144     54.4963E-09     76.1880E-03    -65.5307E+06    -174.496E+06    -65.3520E+06    -348.923E+03    -52.7220E-03     105.340E-03    -52.6183E-03     5.98031E-03    -52.7023E-03     104.658E-03    -52.5971E-03     5.95636E-03
             145     25.9413E-09     75.1350E-03    -65.2789E+06    -175.554E+06    -65.5217E+06    -252.612E+03    -52.7265E-03     105.351E-03    -52.6248E-03     5.98032E-03    -52.7038E-03     104.664E-03    -52.6032E-03     5.95763E-03
             146     48.5633E-09     74.0822E-03    -65.1744E+06    -175.522E+06    -65.2730E+06     223.419E+03    -52.7251E-03     105.349E-03    -52.6243E-03     5.97678E-03    -52.7023E-03     104.662E-03    -52.6017E-03     5.96028E-03
             147     31.9296E-09     73.0292E-03    -65.8076E+06    -175.097E+06    -65.6115E+06    -32.1750E+03    -52.7173E-03     105.332E-03    -52.6145E-03     5.97775E-03    -52.6978E-03     104.647E-03    -52.5932E-03     5.95794E-03
             148     49.2042E-09     71.9764E-03    -66.1222E+06    -175.856E+06    -66.1214E+06    -301.651E+03    -52.7189E-03     105.334E-03    -52.6149E-03     5.98213E-03    -52.6991E-03     104.647E-03    -52.5946E-03     5.95880E-03
             149     31.1549E-09     70.9235E-03    -65.1354E+06    -176.505E+06    -65.2448E+06    -3.24495E+03    -52.7278E-03     105.352E-03    -52.6243E-03     5.98174E-03    -52.7034E-03     104.659E-03    -52.6002E-03     5.96230E-03
             150     47.8425E-09     69.8706E-03    -64.7753E+06    -176.106E+06    -64.7387E+06     120.552E+03    -52.7292E-03     105.356E-03    -52.6270E-03     5.98110E-03    -52.7043E-03     104.664E-03    -52.6014E-03     5.96325E-03
             151     31.8879E-09     68.8177E-03    -64.7833E+06    -175.935E+06    -64.7566E+06    -58.8857E+03    -52.7300E-03     105.357E-03    -52.6272E-03     5.97945E-03    -52.7054E-03     104.666E-03    -52.6019E-03     5.95926E-03
             152     48.2805E-09     67.7648E-03    -65.0992E+06    -175.938E+06    -65.1942E+06     34.6474E+03    -52.7286E-03     105.351E-03    -52.6226E-03     5.97818E-03    -52.7049E-03     104.661E-03    -52.5991E-03     5.95922E-03
             153     35.3697E-09     66.7119E-03    -64.9664E+06    -175.345E+06    -64.9423E+06     267.841E+03    -52.7280E-03     105.351E-03    -52.6226E-03     5.97937E-03    -52.7048E-03     104.663E-03    -52.5988E-03     5.96344E-03
             154     45.0968E-09     65.6590E-03    -65.2221E+06    -174.457E+06    -65.2685E+06     208.519E+03    -52.7231E-03     105.345E-03    -52.6216E-03     5.97807E-03    -52.7020E-03     104.662E-03    -52.6004E-03     5.96137E-03
             155     31.0976E-09     64.6061E-03    -65.8827E+06    -173.877E+06    -65.8187E+06     59.7215E+03    -52.7180E-03     105.334E-03    -52.6165E-03     5.97680E-03    -52.7003E-03     104.657E-03    -52.5979E-03     5.95818E-03
             156     50.7260E-09     63.5533E-03    -65.0542E+06    -173.945E+06    -64.9883E+06    -74.3493E+03    -52.7243E-03     105.343E-03    -52.6190E-03     5.97751E-03    -52.7036E-03     104.663E-03    -52.5974E-03     5.95714E-03
             157     31.9549E-09     62.5003E-03    -65.2049E+06    -174.285E+06    -65.3149E+06    -70.1745E+03    -52.7236E-03     105.342E-03    -52.6187E-03     5.97853E-03    -52.7027E-03     104.661E-03    -52.5981E-03     5.95821E-03
             158     47.1479E-09     61.4475E-03    -65.6338E+06    -174.837E+06    -65.5200E+06    -169.799E+03    -52.7214E-03     105.342E-03    -52.6206E-03     5.97972E-03    -52.7015E-03     104.658E-03    -52.5995E-03     5.95811E-03
             159     45.7398E-09     59.3417E-03    -65.2783E+06    -175.483E+06    -65.4449E+06     123.438E+03    -52.7235E-03     105.343E-03    -52.6192E-03     5.97522E-03    -52.7010E-03     104.655E-03    -52.5973E-03     5.95744E-03
             160     37.6430E-09     58.2888E-03    -65.2103E+06    -174.400E+06      -65.22E+06     418.626E+03    -52.7191E-03     105.334E-03    -52.6144E-03     5.97612E-03    -52.6982E-03     104.651E-03    -52.5931E-03     5.96216E-03
             161     41.6271E-09     57.2359E-03    -65.3783E+06    -173.306E+06    -65.2024E+06     158.573E+03    -52.7126E-03     105.324E-03    -52.6115E-03     5.97534E-03    -52.6941E-03     104.648E-03    -52.5914E-03     5.95801E-03
             162     37.6120E-09     56.1830E-03    -65.0476E+06    -173.926E+06    -64.8521E+06    -505.591E+03    -52.7119E-03     105.323E-03    -52.6109E-03     5.97305E-03    -52.6914E-03     104.642E-03    -52.5887E-03     5.94710E-03
             163     41.6717E-09     55.1302E-03    -65.2034E+06    -175.526E+06    -65.4520E+06    -443.882E+03    -52.7092E-03     105.315E-03    -52.6053E-03     5.97126E-03    -52.6863E-03     104.627E-03    -52.5835E-03     5.94611E-03
             164     37.6671E-09     54.0773E-03    -65.6972E+06    -175.977E+06    -65.8212E+06     243.022E+03    -52.7002E-03     105.297E-03    -52.5968E-03     5.97049E-03    -52.6786E-03     104.608E-03    -52.5755E-03     5.95428E-03
             165     42.2895E-09     53.0245E-03    -64.9642E+06    -175.221E+06    -64.8408E+06     267.716E+03    -52.6933E-03     105.286E-03    -52.5924E-03     5.96927E-03    -52.6705E-03     104.598E-03    -52.5683E-03     5.95339E-03
             166     35.3939E-09     51.9717E-03    -65.4992E+06    -174.847E+06    -65.5080E+06    -63.5948E+03    -52.6823E-03     105.263E-03    -52.5807E-03     5.96538E-03    -52.6617E-03     104.579E-03    -52.5597E-03     5.94520E-03
             167     44.3042E-09     50.9189E-03    -65.4158E+06    -174.895E+06    -65.4117E+06     28.5669E+03    -52.6721E-03     105.240E-03    -52.5684E-03     5.96235E-03    -52.6512E-03     104.556E-03    -52.5470E-03     5.94338E-03
             168     37.1776E-09     49.8661E-03    -65.4411E+06    -174.918E+06    -65.4304E+06    -49.1618E+03    -52.6580E-03     105.213E-03    -52.5554E-03     5.96027E-03    -52.6371E-03     104.529E-03    -52.5340E-03     5.94029E-03
             169     40.6708E-09     48.8134E-03    -65.5593E+06    -175.110E+06     -65.583E+06    -131.929E+03    -52.6417E-03     105.183E-03    -52.5416E-03     5.95568E-03    -52.6210E-03     104.498E-03    -52.5206E-03     5.93465E-03
             170     36.2161E-09     47.7607E-03    -65.0758E+06    -175.496E+06    -65.0381E+06    -78.6028E+03    -52.6252E-03     105.151E-03    -52.5259E-03     5.94856E-03    -52.6023E-03     104.463E-03    -52.5022E-03     5.92825E-03
             171     41.0410E-09     46.7080E-03    -65.3482E+06    -175.798E+06    -65.3834E+06    -79.0632E+03    -52.5988E-03     105.098E-03    -52.4993E-03     5.94140E-03    -52.5763E-03     104.409E-03    -52.4765E-03     5.92112E-03
             172     35.4006E-09     45.6554E-03    -65.1276E+06    -176.069E+06    -65.1520E+06    -8.29858E+03    -52.5670E-03     105.035E-03    -52.4681E-03     5.93268E-03    -52.5433E-03     104.344E-03    -52.4442E-03     5.91334E-03
             173     40.9088E-09     44.6029E-03    -65.1977E+06    -176.175E+06    -65.1722E+06    -51.9283E+03    -52.5254E-03     104.954E-03    -52.4284E-03     5.92074E-03    -52.5020E-03     104.263E-03    -52.4043E-03     5.90088E-03
             174     33.1051E-09     43.5505E-03    -65.3000E+06    -176.183E+06    -65.3515E+06     22.7294E+03    -52.4706E-03     104.847E-03    -52.3760E-03     5.90631E-03    -52.4473E-03     104.156E-03    -52.3526E-03     5.88748E-03
             175     38.1954E-09     42.4982E-03    -65.5234E+06    -176.187E+06    -65.4609E+06    -5.06236E+03    -52.4008E-03     104.710E-03    -52.3089E-03     5.88830E-03    -52.3785E-03     104.019E-03    -52.2857E-03     5.86918E-03
             176     32.5553E-09     41.4461E-03    -65.2846E+06    -176.046E+06    -65.3550E+06    -53.6436E+03    -52.3162E-03     104.542E-03    -52.2262E-03     5.86571E-03    -52.2930E-03     103.852E-03    -52.2030E-03     5.84605E-03
             177     34.2461E-09     40.3941E-03    -64.8302E+06    -175.704E+06    -64.9870E+06     218.306E+03    -52.2132E-03     104.337E-03    -52.1239E-03     5.83888E-03    -52.1888E-03     103.647E-03    -52.1001E-03     5.82288E-03
             178     34.5092E-09     39.3424E-03    -65.4397E+06    -174.875E+06    -65.3435E+06     358.993E+03    -52.0810E-03     104.072E-03    -51.9914E-03     5.80769E-03    -52.0603E-03     103.388E-03    -51.9697E-03     5.79364E-03
             179     35.7026E-09     38.2910E-03    -66.0975E+06    -174.258E+06    -65.9987E+06     29.4167E+03    -51.9257E-03     103.761E-03    -51.8351E-03     5.77511E-03    -51.9083E-03     103.082E-03    -51.8166E-03     5.75691E-03
             180     35.1698E-09     37.2400E-03    -65.3913E+06    -174.356E+06    -65.3931E+06    -188.678E+03    -51.7589E-03     103.428E-03    -51.6691E-03     5.73781E-03    -51.7387E-03     102.746E-03    -51.6485E-03     5.71691E-03
             181     32.6149E-09     36.1893E-03    -65.1107E+06    -174.960E+06    -65.2049E+06    -96.9935E+03    -51.5664E-03     103.044E-03    -51.4780E-03     5.69136E-03    -51.5442E-03     102.359E-03    -51.4559E-03     5.67184E-03
             182     35.2933E-09     35.1391E-03    -65.3044E+06    -175.275E+06    -65.2872E+06    -27.2885E+03    -51.3424E-03     102.596E-03    -51.2532E-03     5.63954E-03    -51.3206E-03     101.909E-03    -51.2308E-03     5.62114E-03
             183     35.3141E-09     34.0894E-03    -64.9270E+06    -174.983E+06    -64.9652E+06     50.8400E+03    -51.0883E-03     102.087E-03    -50.9988E-03     5.58154E-03    -51.0654E-03     101.401E-03    -50.9757E-03     5.56437E-03
             184     32.8307E-09     33.0402E-03    -65.1884E+06    -174.247E+06    -65.3624E+06     340.906E+03    -50.7981E-03     101.506E-03    -50.7079E-03     5.51643E-03    -50.7771E-03     100.825E-03    -50.6875E-03     5.50328E-03
             185     37.9301E-09     31.9917E-03    -65.2933E+06    -173.155E+06    -65.2091E+06     330.359E+03    -50.4715E-03     100.853E-03    -50.3810E-03     5.44236E-03    -50.4527E-03     100.176E-03    -50.3613E-03     5.42935E-03
             186     33.7996E-09     30.9439E-03    -65.1354E+06    -172.645E+06    -65.0393E+06    -87.6236E+03    -50.1084E-03     100.125E-03    -50.0162E-03     5.35954E-03    -50.0899E-03     99.4506E-03    -49.9967E-03     5.34142E-03
             187     40.5804E-09     29.8970E-03    -65.7704E+06    -172.709E+06    -65.8957E+06        -16.6484    -49.7026E-03     99.3104E-03    -49.6078E-03     5.26517E-03    -49.6858E-03     98.6382E-03    -49.5915E-03     5.24853E-03
             188     33.6333E-09     28.8509E-03    -65.8404E+06    -172.369E+06    -65.8802E+06     259.258E+03    -49.2563E-03     98.4143E-03    -49.1581E-03     5.16526E-03    -49.2404E-03     97.7439E-03    -49.1421E-03     5.15236E-03
             189     48.1558E-09     27.8058E-03    -65.2581E+06    -171.733E+06    -65.1453E+06     3.13653E+03    -48.7780E-03     97.4528E-03    -48.6748E-03     5.05827E-03    -48.7612E-03     96.7836E-03    -48.6569E-03     5.04242E-03
             190     36.8062E-09     26.7617E-03    -65.3659E+06    -171.565E+06    -65.5315E+06     57.8080E+03    -48.2660E-03     96.4249E-03    -48.1589E-03     4.94282E-03    -48.2494E-03     95.7573E-03    -48.1430E-03     4.92807E-03
             191     49.3599E-09     25.7188E-03    -65.2394E+06    -170.748E+06    -65.2372E+06     382.476E+03    -47.7323E-03     95.3501E-03    -47.6177E-03     4.82420E-03    -47.7167E-03     94.6859E-03    -47.6018E-03     4.81409E-03
             192     50.8911E-09     24.6770E-03    -64.9342E+06    -169.624E+06    -64.8648E+06     213.490E+03    -47.1928E-03     94.2621E-03    -47.0693E-03     4.71037E-03    -47.1778E-03     93.6026E-03    -47.0535E-03     4.69850E-03
             193     51.9542E-09     23.6364E-03    -64.9622E+06    -169.319E+06    -64.9585E+06    -3.81629E+03    -46.6699E-03     93.2052E-03    -46.5353E-03     4.59758E-03    -46.6554E-03     92.5474E-03    -46.5204E-03     4.58331E-03
             194     67.2024E-09     22.5968E-03    -64.4988E+06    -169.102E+06    -64.5895E+06     103.297E+03    -46.1830E-03     92.2215E-03    -46.0384E-03     4.48408E-03    -46.1670E-03     91.5635E-03    -46.0226E-03     4.47160E-03
             195     52.4314E-09     21.5582E-03    -64.2758E+06    -168.446E+06    -64.2610E+06     257.869E+03    -45.7434E-03     91.3284E-03    -45.5850E-03     4.36718E-03    -45.7276E-03     90.6729E-03    -45.5689E-03     4.35710E-03
             196     92.0205E-09     20.5204E-03    -64.6880E+06    -167.799E+06    -64.5369E+06     72.1527E+03    -45.3498E-03     90.5264E-03    -45.1766E-03     4.23571E-03    -45.3367E-03     89.8752E-03    -45.1622E-03     4.22358E-03
             197     55.3196E-09     19.4835E-03    -64.7606E+06    -166.741E+06    -65.1401E+06     486.769E+03    -44.9787E-03     89.7910E-03    -44.8124E-03     4.08534E-03    -44.9665E-03     89.1460E-03    -44.8024E-03     4.07893E-03
             198     71.9809E-09     18.4472E-03    -63.5584E+06    -164.005E+06    -63.6242E+06     1.00118E+06    -44.5611E-03     88.9839E-03    -44.4227E-03     3.84931E-03    -44.5491E-03     88.3486E-03    -44.4109E-03     3.85011E-03
             199     31.8337E-09     17.4120E-03    -61.2958E+06    -160.432E+06    -61.3600E+06     949.004E+03    -43.9629E-03     87.8019E-03    -43.8390E-03     3.48783E-03    -43.9480E-03     87.1778E-03    -43.8243E-03     3.48880E-03
             200     71.9670E-09     16.3782E-03    -58.9228E+06    -156.871E+06    -59.0966E+06     985.491E+03    -43.0253E-03     85.9397E-03    -42.9144E-03     3.04099E-03    -43.0070E-03     85.3266E-03    -42.8970E-03     3.04354E-03
             201     9.99123E-09     15.3469E-03    -56.3898E+06    -153.032E+06    -56.6318E+06     1.18641E+06    -41.5995E-03     83.1390E-03    -41.5395E-03     2.49419E-03    -41.5777E-03     82.5379E-03    -41.5190E-03     2.50073E-03
             202     7.28801E-09     14.3188E-03    -53.2604E+06    -148.630E+06    -53.4005E+06     1.28553E+06    -39.6006E-03     79.1616E-03    -39.5609E-03     1.82822E-03    -39.5743E-03     78.5730E-03    -39.5352E-03     1.83766E-03
             203     43.4777E-09     13.2956E-03    -50.6967E+06    -144.750E+06    -50.6322E+06     916.436E+03    -37.0566E-03     74.0183E-03    -36.9617E-03     1.21296E-03    -37.0272E-03     73.4413E-03    -36.9315E-03     1.21903E-03
             204     73.8720E-09     12.2781E-03    -46.8806E+06    -141.558E+06    -47.0652E+06     920.019E+03    -34.1888E-03     68.2187E-03    -34.0299E-03     791.803E-06    -34.1501E-03     67.6469E-03    -33.9920E-03     798.835E-06
             205     86.7394E-09     11.2668E-03    -43.9941E+06    -138.812E+06    -43.5155E+06     541.373E+03    -31.3979E-03     62.6084E-03    -31.2105E-03     626.740E-06    -31.3539E-03     62.0411E-03    -31.1630E-03     629.328E-06
             206     88.0344E-09     10.2608E-03    -45.2966E+06    -138.356E+06    -44.7896E+06    -238.023E+03    -29.2206E-03     58.2759E-03    -29.0553E-03     813.551E-06    -29.1817E-03     57.7147E-03    -29.0129E-03     806.227E-06
             207     33.0619E-09     9.25815E-03    -47.3684E+06    -139.452E+06    -46.9439E+06    -388.344E+03    -28.2754E-03     56.4494E-03    -28.1739E-03     1.34583E-03    -28.2421E-03     55.8890E-03    -28.1378E-03     1.33679E-03
             208     27.8662E-09     8.25576E-03    -48.0562E+06    -141.100E+06    -47.5047E+06    -507.626E+03    -28.9667E-03     57.8945E-03    -28.9279E-03     2.06499E-03    -28.9337E-03     57.3276E-03    -28.8911E-03     2.05481E-03
             209    -15.1934E-09     7.25005E-03    -47.2948E+06    -143.008E+06    -47.1000E+06    -478.700E+03    -31.2268E-03     62.4555E-03    -31.2286E-03     2.72403E-03    -31.1881E-03     61.8771E-03    -31.1882E-03     2.71462E-03
             210     2.18680E-09     6.23831E-03    -45.4692E+06    -144.373E+06    -45.3118E+06    -294.881E+03    -34.6505E-03     69.3203E-03    -34.6698E-03     3.16663E-03    -34.6035E-03     68.7295E-03    -34.6211E-03     3.15989E-03
             211    -19.1186E-09     5.21867E-03    -42.0302E+06    -144.809E+06    -42.1265E+06     30.9524E+03    -38.7573E-03     77.5449E-03    -38.7876E-03     3.36899E-03    -38.6973E-03     76.9422E-03    -38.7273E-03     3.36670E-03
             212    -14.6849E-09     4.19011E-03    -38.2131E+06    -144.129E+06    -38.3674E+06     445.458E+03    -43.0971E-03     86.2335E-03    -43.1364E-03     3.29730E-03    -43.0244E-03     85.6232E-03    -43.0638E-03     3.30061E-03
             213    -18.1016E-09     3.15266E-03    -34.9051E+06    -142.737E+06    -34.9824E+06     365.719E+03    -47.2158E-03     94.4877E-03    -47.2720E-03     2.90886E-03    -47.1333E-03     93.8749E-03    -47.1893E-03     2.91140E-03
             214    -43.9919E-09     2.10705E-03    -31.2370E+06    -140.995E+06    -31.5637E+06     386.105E+03    -50.6474E-03     101.375E-03    -50.7273E-03     2.19087E-03    -50.5537E-03     100.760E-03    -50.6354E-03     2.19417E-03
             215    -32.8974E-09     1.05522E-03    -29.4754E+06    -139.407E+06    -29.8885E+06     423.087E+03    -52.9329E-03     105.965E-03    -53.0320E-03     1.18116E-03    -52.8349E-03     105.354E-03    -52.9365E-03     1.18576E-03
             216     852.599E-06    -2.68535E-15    -29.5323E+06    -141.219E+06    -29.3025E+06     134.886E+03    -53.8659E-03     107.720E-03    -53.8545E-03     1.02748E-03    -53.7663E-03     107.100E-03    -53.7535E-03     1.02842E-03
             217     1.70501E-03    -2.68535E-15    -29.2496E+06    -143.750E+06    -28.9298E+06     60.7693E+03    -54.1875E-03     108.118E-03    -53.9309E-03     1.90518E-03    -54.0834E-03     107.484E-03    -53.8247E-03     1.90433E-03
             218     2.55708E-03    -2.68535E-15    -29.1930E+06    -144.224E+06    -29.9020E+06    -4.32645E+03    -54.6439E-03     108.728E-03    -54.0841E-03     2.83768E-03    -54.5374E-03     108.093E-03    -53.9821E-03     2.83493E-03
             219     3.40873E-03    -2.68535E-15    -29.3955E+06    -145.069E+06    -31.6139E+06    -102.426E+03    -55.2670E-03     109.557E-03    -54.2901E-03     3.79856E-03    -55.1578E-03     108.920E-03    -54.1952E-03     3.79325E-03
             220     4.25970E-03    -2.68535E-15    -29.4609E+06    -146.420E+06    -34.4522E+06    -643.830E+03    -56.0466E-03     110.592E-03    -54.5455E-03     4.80949E-03    -55.9317E-03     109.953E-03    -54.4627E-03     4.79556E-03
             221     5.10998E-03    -2.68535E-15    -28.6901E+06    -148.182E+06    -38.8582E+06    -1.83786E+06    -56.9708E-03     111.815E-03    -54.8438E-03     5.86019E-03    -56.8432E-03     111.172E-03    -54.7817E-03     5.82857E-03
             222     5.95937E-03    -2.68535E-15    -26.8016E+06    -145.247E+06    -44.9304E+06    -3.01473E+06    -58.0225E-03     113.196E-03    -55.1737E-03     7.00035E-03    -57.8810E-03     112.574E-03    -55.1489E-03     6.95083E-03
             223     6.80776E-03    -2.68535E-15    -24.0434E+06    -135.165E+06    -51.7117E+06    -4.06316E+06    -59.1823E-03     114.716E-03    -55.5335E-03     8.25564E-03    -59.0319E-03     114.150E-03    -55.5612E-03     8.18910E-03
             224     7.65510E-03    -2.68535E-15    -20.4408E+06    -121.206E+06    -57.9028E+06    -5.09605E+06    -60.4445E-03     116.376E-03    -55.9316E-03     9.60366E-03    -60.2876E-03     115.884E-03    -56.0157E-03     9.51892E-03
             225     8.50128E-03    -2.68535E-15    -16.0813E+06    -104.395E+06    -62.6422E+06    -5.69460E+06    -61.8137E-03     118.186E-03    -56.3719E-03     11.1686E-03    -61.6528E-03     117.779E-03    -56.5104E-03     11.0702E-03
             226     9.34600E-03    -2.68535E-15    -11.1739E+06    -83.7060E+06    -66.0866E+06    -6.39085E+06    -63.2702E-03     120.121E-03    -56.8508E-03     12.9927E-03    -63.1102E-03     119.816E-03    -57.0436E-03     12.8775E-03
             227     10.1895E-03    -2.68535E-15    -6.39173E+06    -58.1925E+06    -66.4634E+06    -5.77690E+06    -64.7975E-03     122.172E-03    -57.3744E-03     15.0718E-03    -64.6508E-03     121.989E-03    -57.6131E-03     14.9530E-03
             228     11.0314E-03    -2.68535E-15    -3.09937E+06    -27.2297E+06    -61.5226E+06    -4.01775E+06    -66.4023E-03     124.356E-03    -57.9541E-03     17.6640E-03    -66.2923E-03     124.317E-03    -58.2177E-03     17.5537E-03
             229     11.8714E-03    -2.68535E-15    -1.82295E+06     12.8721E+06    -51.2135E+06    -2.20128E+06    -68.0309E-03     126.615E-03    -58.5839E-03     21.0201E-03    -67.9896E-03     126.761E-03    -58.8560E-03     20.9123E-03
             230     12.7096E-03    -2.68535E-15    -2.04446E+06     54.6682E+06    -34.6973E+06    -441.204E+03    -69.5586E-03     128.830E-03    -59.2715E-03     25.3055E-03    -69.6062E-03     129.165E-03    -59.5213E-03     25.1915E-03
             231     13.5458E-03    -2.68535E-15    -1.88721E+06     84.0093E+06    -3.99893E+06     328.910E+03    -70.9527E-03     131.017E-03    -60.0644E-03     31.7801E-03    -71.0931E-03     131.459E-03    -60.2035E-03     31.6348E-03
             232     14.3788E-03    -2.68535E-15           592.5     101.663E+06     39.3510E+06     927.240E+03    -71.3945E-03     132.317E-03    -60.9221E-03     40.9819E-03    -71.6241E-03     132.790E-03    -60.8727E-03     40.7985E-03
             233     15.2099E-03    -2.68535E-15     3.14297E+06     113.682E+06     77.3371E+06     1.48518E+06    -71.0531E-03     132.759E-03    -61.7060E-03     55.2793E-03    -71.3741E-03     133.266E-03    -61.4887E-03     54.9812E-03
             234     16.0397E-03    -2.68535E-15     3.10515E+06     115.202E+06     89.1682E+06     2.07461E+06    -69.3438E-03     131.635E-03    -62.2913E-03     73.7475E-03    -69.7761E-03     132.220E-03    -62.0170E-03     73.2553E-03
             235     16.9556E-03     1.07859E-03    -1.50846E+06     111.040E+06     81.9340E+06     6.36909E+06    -63.5551E-03     123.859E-03    -60.3043E-03     73.7535E-03    -64.0631E-03     124.515E-03    -60.0535E-03     73.2399E-03
             236     17.0176E-03     2.14186E-03    -3.02371E+06     111.514E+06     78.5748E+06     8.61309E+06    -67.9703E-03     124.416E-03    -56.4461E-03     48.2225E-03    -68.4627E-03     125.071E-03    -56.2105E-03     47.6294E-03
             237     17.0510E-03     3.22694E-03    -2.06698E+06     114.784E+06     80.3282E+06     4.50525E+06    -82.4805E-03     136.403E-03    -53.9227E-03     23.0376E-03    -82.9443E-03     137.037E-03    -53.6845E-03     22.1342E-03
             238     17.0671E-03     4.32318E-03    -1.86219E+06     117.210E+06     82.5972E+06     1.16581E+06    -90.1905E-03     142.853E-03    -52.6626E-03     10.1002E-03    -90.6494E-03     143.483E-03    -52.4169E-03     8.98188E-03
             239     17.0737E-03     5.42145E-03    -1.69009E+06     117.297E+06     83.4506E+06    -46.8280E+03    -91.3644E-03     143.531E-03    -52.1668E-03     3.95208E-03    -91.8142E-03     144.150E-03    -51.9172E-03     2.77962E-03
             240     17.0759E-03     6.51664E-03    -1.92362E+06     116.772E+06     82.8406E+06    -413.642E+03    -88.7790E-03     140.843E-03    -52.0643E-03     559.544E-06    -89.2175E-03     141.449E-03    -51.8166E-03    -570.292E-06
             241     17.0759E-03     7.60683E-03    -2.00013E+06     116.033E+06     81.6105E+06    -545.407E+03    -84.4408E-03     136.585E-03    -52.1445E-03    -1.57853E-03    -84.8663E-03     137.179E-03    -51.9018E-03    -2.62129E-03
             242     17.0752E-03     8.69136E-03    -1.90988E+06     115.425E+06     80.6770E+06    -342.541E+03    -79.7193E-03     132.004E-03    -52.2843E-03    -2.95061E-03    -80.1344E-03     132.588E-03    -52.0455E-03    -3.89462E-03
             243     17.0749E-03     9.77074E-03    -1.96803E+06     115.114E+06     79.9999E+06     141.672E+03    -75.4012E-03     127.810E-03    -52.4090E-03    -3.57569E-03    -75.8111E-03     128.390E-03    -52.1731E-03    -4.42925E-03
             244     17.0750E-03     10.8466E-03    -2.16875E+06     115.232E+06     79.6399E+06     278.566E+03    -71.7941E-03     124.284E-03    -52.4900E-03    -3.45417E-03    -72.2043E-03     124.865E-03    -52.2557E-03    -4.24183E-03
             245     17.0756E-03     11.9193E-03    -2.10971E+06     115.683E+06     79.6963E+06     370.782E+03    -69.0625E-03     121.590E-03    -52.5275E-03    -2.70885E-03    -69.4763E-03     122.176E-03    -52.2937E-03    -3.45330E-03
             246     17.0763E-03     12.9899E-03    -2.14322E+06     116.272E+06     79.8466E+06     447.579E+03    -67.3130E-03     119.842E-03    -52.5290E-03    -1.58393E-03    -67.7336E-03     120.436E-03    -52.2952E-03    -2.30454E-03
             247     17.0772E-03     14.0594E-03    -2.08392E+06     116.887E+06     80.1276E+06     379.392E+03    -66.2370E-03     118.743E-03    -52.5063E-03    -213.666E-06    -66.6661E-03     119.348E-03    -52.2721E-03    -924.105E-06
             248     17.0781E-03     15.1281E-03    -2.06569E+06     117.482E+06     80.4208E+06     347.092E+03    -65.4873E-03     117.959E-03    -52.4718E-03     1.18744E-03    -65.9255E-03     118.574E-03    -52.2371E-03     481.658E-06
             249     17.0790E-03     16.1961E-03    -2.05208E+06     118.025E+06     80.6442E+06     285.226E+03    -64.8594E-03     117.296E-03    -52.4368E-03     2.44907E-03    -65.3067E-03     117.921E-03    -52.2017E-03     1.74526E-03
             250     17.0797E-03     17.2634E-03    -2.03899E+06     118.499E+06     80.8353E+06     257.466E+03    -64.2314E-03     116.641E-03    -52.4099E-03     3.56741E-03    -64.6873E-03     117.276E-03    -52.1746E-03     2.86742E-03
             251     17.0802E-03     18.3300E-03    -2.03959E+06     118.922E+06     81.0087E+06     174.029E+03    -63.4742E-03     115.868E-03    -52.3942E-03     4.61349E-03    -63.9378E-03     116.512E-03    -52.1587E-03     3.92066E-03
             252     17.0808E-03     19.3955E-03    -2.04972E+06     119.332E+06     81.1840E+06     191.125E+03    -62.5989E-03     114.988E-03    -52.3890E-03     5.48866E-03    -63.0695E-03     115.639E-03    -52.1531E-03     4.80757E-03
             253     17.0810E-03     20.4600E-03    -2.06540E+06     119.731E+06     81.3371E+06     169.193E+03    -61.6984E-03     114.090E-03    -52.3919E-03     6.26057E-03    -62.1751E-03     114.749E-03    -52.1559E-03     5.59263E-03
             254     17.0813E-03     21.5235E-03    -2.07375E+06     120.088E+06     81.4899E+06     138.466E+03    -60.7488E-03     113.149E-03    -52.4007E-03     6.93565E-03    -61.2307E-03     113.814E-03    -52.1644E-03     6.28291E-03
             255     17.0814E-03     22.5858E-03    -2.08805E+06     120.409E+06     81.6332E+06     122.482E+03    -59.7870E-03     112.200E-03    -52.4132E-03     7.52896E-03    -60.2734E-03     112.870E-03    -52.1766E-03     6.89255E-03
             256     17.0817E-03     23.6472E-03    -2.09305E+06     120.679E+06     81.7594E+06     102.713E+03    -58.8523E-03     111.280E-03    -52.4272E-03     8.02976E-03    -59.3425E-03     111.954E-03    -52.1904E-03     7.40969E-03
             257     17.0817E-03     24.7075E-03    -2.09596E+06     120.924E+06     81.8759E+06     96.3640E+03    -57.9637E-03     110.406E-03    -52.4418E-03     8.45795E-03    -58.4571E-03     111.083E-03    -52.2048E-03     7.85391E-03
             258     17.0819E-03     25.7669E-03    -2.10450E+06     121.151E+06     81.9972E+06     89.8907E+03    -57.1351E-03     109.591E-03    -52.4563E-03     8.81540E-03    -57.6313E-03     110.272E-03    -52.2189E-03     8.22662E-03
             259     17.0819E-03     26.8254E-03    -2.11632E+06     121.349E+06     82.0980E+06     72.4317E+03    -56.3709E-03     108.841E-03    -52.4702E-03     9.10724E-03    -56.8693E-03     109.525E-03    -52.2326E-03     8.53263E-03
             260     17.0821E-03     27.8832E-03    -2.11346E+06     121.506E+06     82.1844E+06     55.9652E+03    -55.6753E-03     108.159E-03    -52.4835E-03     9.34953E-03    -56.1756E-03     108.845E-03    -52.2457E-03     8.78795E-03
             261     17.0821E-03     28.9402E-03    -2.11766E+06     121.636E+06     82.2422E+06     45.0608E+03    -55.0486E-03     107.544E-03    -52.4958E-03     9.54603E-03    -55.5504E-03     108.232E-03    -52.2579E-03     8.99630E-03
             262     17.0822E-03     29.9966E-03    -2.11426E+06     121.748E+06     82.3180E+06     46.9540E+03    -54.4966E-03     107.004E-03    -52.5071E-03     9.69763E-03    -54.9996E-03     107.693E-03    -52.2690E-03     9.15865E-03
             263     17.0821E-03     31.0525E-03    -2.12042E+06     121.856E+06     82.3739E+06     35.6934E+03    -54.0053E-03     106.523E-03    -52.5172E-03     9.81895E-03    -54.5092E-03     107.213E-03    -52.2790E-03     9.28931E-03
             264     17.0823E-03     32.1078E-03    -2.12884E+06     121.941E+06     82.3954E+06     38.4101E+03    -53.5876E-03     106.114E-03    -52.5265E-03     9.89969E-03    -54.0923E-03     106.805E-03    -52.2883E-03     9.37828E-03
             265     17.0821E-03     33.1628E-03    -2.12032E+06     122.009E+06     82.4878E+06     20.3685E+03    -53.2441E-03     105.780E-03    -52.5359E-03     9.99118E-03    -53.7494E-03     106.472E-03    -52.2973E-03     9.47687E-03
             266     17.0823E-03     34.2175E-03    -2.11900E+06     122.055E+06     82.4860E+06    -17.1212E+03    -52.8950E-03     105.438E-03    -52.5433E-03     10.0799E-03    -53.4007E-03     106.131E-03    -52.3048E-03     9.57147E-03
             267     17.0823E-03     35.2717E-03    -2.12231E+06     122.089E+06     82.4776E+06     63.1550E+03    -52.6447E-03     105.194E-03    -52.5496E-03     10.0816E-03    -53.1508E-03     105.887E-03    -52.3111E-03     9.57901E-03
             268     17.0822E-03     36.3259E-03    -2.12601E+06     122.114E+06     82.5312E+06    -15.6199E+03    -52.4512E-03     105.007E-03    -52.5560E-03     10.1743E-03    -52.9576E-03     105.700E-03    -52.3174E-03     9.67531E-03
             269     17.0823E-03     37.3797E-03    -2.12435E+06     122.136E+06     82.5702E+06    -15.3341E+03    -52.2161E-03     104.778E-03    -52.5618E-03     10.2387E-03    -52.7227E-03     105.471E-03    -52.3230E-03     9.74414E-03
             270     17.0822E-03     38.4333E-03    -2.11868E+06     122.165E+06     82.5786E+06     35.4178E+03    -52.0877E-03     104.654E-03    -52.5667E-03     10.2537E-03    -52.5946E-03     105.348E-03    -52.3279E-03     9.76232E-03
             271     17.0822E-03     39.4869E-03    -2.12202E+06     122.174E+06     82.5777E+06    -8.95928E+03    -51.9947E-03     104.566E-03    -52.5708E-03     10.2991E-03    -52.5017E-03     105.259E-03    -52.3320E-03     9.80942E-03
             272     17.0822E-03     40.5404E-03    -2.12115E+06     122.178E+06     82.5950E+06    -9.47311E+03    -51.8665E-03     104.441E-03    -52.5744E-03     10.3557E-03    -52.3736E-03     105.135E-03    -52.3355E-03     9.86848E-03
             273     17.0822E-03     41.5937E-03    -2.12103E+06     122.178E+06     82.5938E+06     1.01678E+03    -51.7699E-03     104.347E-03    -52.5769E-03     10.3827E-03    -52.2771E-03     105.041E-03    -52.3380E-03     9.89746E-03
             274     17.0822E-03     42.6469E-03    -2.12126E+06     122.176E+06     82.5874E+06     1.02322E+03    -51.7051E-03     104.284E-03    -52.5786E-03     10.3913E-03    -52.2124E-03     104.978E-03    -52.3397E-03     9.90727E-03
             275     17.0822E-03     43.7001E-03    -2.11971E+06     122.177E+06     82.5900E+06        -694.984    -51.6557E-03     104.236E-03    -52.5799E-03     10.4048E-03    -52.1630E-03     104.930E-03    -52.3411E-03     9.92167E-03
             276     17.0822E-03     44.7533E-03    -2.12204E+06     122.172E+06     82.5878E+06    -4.69233E+03    -51.6149E-03     104.196E-03    -52.5810E-03     10.4166E-03    -52.1223E-03     104.890E-03    -52.3422E-03     9.93426E-03
             277     17.0822E-03     45.8064E-03    -2.11608E+06     122.164E+06     82.5847E+06    -3.55428E+03    -51.5818E-03     104.164E-03    -52.5820E-03     10.4243E-03    -52.0891E-03     104.858E-03    -52.3431E-03     9.94254E-03
             278     17.0822E-03     46.8594E-03    -2.12208E+06     122.155E+06     82.5796E+06    -4.37171E+03    -51.5548E-03     104.138E-03    -52.5828E-03     10.4310E-03    -52.0622E-03     104.832E-03    -52.3439E-03     9.94976E-03
             279     17.0822E-03     47.9125E-03    -2.11455E+06     122.147E+06     82.5777E+06    -3.46774E+03    -51.5319E-03     104.115E-03    -52.5834E-03     10.4374E-03    -52.0392E-03     104.809E-03    -52.3446E-03     9.95665E-03
             280     17.0822E-03     48.9655E-03    -2.12404E+06     122.136E+06     82.5610E+06    -6.08553E+03    -51.5122E-03     104.096E-03    -52.5840E-03     10.4386E-03    -52.0195E-03     104.790E-03    -52.3452E-03     9.95816E-03
             281     17.0822E-03     50.0185E-03    -2.12443E+06     122.105E+06     82.5577E+06    -20.6511E+03    -51.4956E-03     104.080E-03    -52.5846E-03     10.4447E-03    -52.0029E-03     104.774E-03    -52.3458E-03     9.96442E-03
             282     17.0822E-03     51.0715E-03    -2.10662E+06     122.063E+06     82.5517E+06    -14.7527E+03    -51.4822E-03     104.067E-03    -52.5850E-03     10.4493E-03    -51.9894E-03     104.761E-03    -52.3462E-03     9.96928E-03
             283     17.0822E-03     52.1244E-03    -2.11790E+06     122.042E+06     82.5334E+06    -2.27990E+03    -51.4702E-03     104.056E-03    -52.5853E-03     10.4505E-03    -51.9774E-03     104.749E-03    -52.3466E-03     9.97090E-03
             284     17.0822E-03     53.1774E-03    -2.11836E+06     122.036E+06     82.5356E+06    -3.65070E+03    -51.4600E-03     104.046E-03    -52.5857E-03     10.4562E-03    -51.9672E-03     104.739E-03    -52.3469E-03     9.97675E-03
             285     17.0822E-03     54.2304E-03    -2.11653E+06     122.026E+06     82.5344E+06    -4.43021E+03    -51.4516E-03     104.038E-03    -52.5860E-03     10.4603E-03    -51.9588E-03     104.731E-03    -52.3472E-03     9.98102E-03
             286     17.0822E-03     55.2833E-03    -2.11719E+06     122.018E+06     82.5355E+06    -3.36253E+03    -51.4439E-03     104.030E-03    -52.5862E-03     10.4626E-03    -51.9511E-03     104.724E-03    -52.3474E-03     9.98351E-03
             287     17.0822E-03     56.3362E-03    -2.11638E+06     122.014E+06     82.5407E+06    -1.41694E+03    -51.4375E-03     104.024E-03    -52.5865E-03     10.4662E-03    -51.9447E-03     104.717E-03    -52.3476E-03     9.98728E-03
             288     17.0822E-03     57.3892E-03    -2.11914E+06     122.012E+06     82.5465E+06    -1.40020E+03    -51.4334E-03     104.020E-03    -52.5866E-03     10.4672E-03    -51.9406E-03     104.713E-03    -52.3477E-03     9.98831E-03
             289     17.0822E-03     58.4421E-03    -2.11446E+06     122.012E+06     82.5559E+06     1.49175E+03    -51.4316E-03     104.018E-03    -52.5867E-03     10.4639E-03    -51.9389E-03     104.712E-03    -52.3478E-03     9.98515E-03
             290     17.0822E-03     59.4950E-03    -2.11890E+06     122.019E+06     82.5654E+06     4.56581E+03    -51.4313E-03     104.018E-03    -52.5867E-03     10.4637E-03    -51.9385E-03     104.711E-03    -52.3478E-03     9.98496E-03
             291     17.0822E-03     60.5480E-03    -2.11061E+06     122.039E+06     82.5839E+06     12.3741E+03    -51.4307E-03     104.017E-03    -52.5868E-03     10.4640E-03    -51.9379E-03     104.711E-03    -52.3478E-03     9.98539E-03
             292     853.843E-06     61.4534E-03    -64.7105E+06    -173.959E+06    -62.8865E+06    -132.596E+03    -52.7127E-03     105.365E-03    -52.6522E-03     9.92650E-03    -52.6943E-03     104.682E-03    -52.6206E-03     9.89208E-03
             293     1.70770E-03     61.4673E-03    -62.1153E+06    -171.355E+06    -55.4746E+06    -94.5005E+03    -52.7308E-03     105.430E-03    -52.6987E-03     18.1579E-03    -52.7172E-03     104.748E-03    -52.6375E-03     18.0950E-03
             294     2.56157E-03     61.4897E-03    -58.3170E+06    -165.632E+06    -45.4644E+06    -85.1703E+03    -52.7962E-03     105.521E-03    -52.7247E-03     26.6706E-03    -52.7922E-03     104.854E-03    -52.6273E-03     26.5744E-03
             295     3.41548E-03     61.5206E-03    -53.8593E+06    -157.839E+06    -34.9473E+06    -62.8506E+03    -52.8912E-03     105.637E-03    -52.7463E-03     34.9968E-03    -52.9005E-03     104.997E-03    -52.6141E-03     34.8628E-03
             296     4.26941E-03     61.5597E-03    -49.1678E+06    -148.019E+06    -25.5037E+06    -42.6477E+03    -53.0129E-03     105.771E-03    -52.7578E-03     43.0327E-03    -53.0395E-03     105.171E-03    -52.5994E-03     42.8553E-03
             297     5.12338E-03     61.6067E-03    -44.5393E+06    -135.810E+06    -17.3717E+06    -16.9461E+03    -53.1525E-03     105.911E-03    -52.7586E-03     50.7252E-03    -53.2030E-03     105.372E-03    -52.5840E-03     50.4983E-03
             298     5.97737E-03     61.6611E-03    -40.1448E+06    -125.282E+06    -10.4202E+06     27.1460E+03    -53.3146E-03     106.071E-03    -52.7561E-03     58.0053E-03    -53.3921E-03     105.591E-03    -52.5683E-03     57.7220E-03
             299     6.83138E-03     61.7226E-03    -36.1004E+06    -114.427E+06    -5.47189E+06     68.2629E+03    -53.4867E-03     106.231E-03    -52.7442E-03     64.8319E-03    -53.5978E-03     105.823E-03    -52.5533E-03     64.4843E-03
             300     7.68542E-03     61.7907E-03    -32.4745E+06    -103.557E+06    -1.75385E+06     99.0967E+03    -53.6573E-03     106.385E-03    -52.7276E-03     71.1496E-03    -53.8113E-03     106.061E-03    -52.5391E-03     70.7294E-03
             301     8.53947E-03     61.8647E-03    -29.2836E+06    -93.0790E+06     453.362E+03     124.894E+03    -53.8190E-03     106.524E-03    -52.7055E-03     76.9103E-03    -54.0266E-03     106.296E-03    -52.5258E-03     76.4086E-03
             302     9.39353E-03     61.9442E-03    -26.5111E+06    -79.4245E+06     2.00957E+06     140.784E+03    -53.9469E-03     106.624E-03    -52.6767E-03     82.0916E-03    -54.2280E-03     106.523E-03    -52.5131E-03     81.4994E-03
             303     10.2476E-03     62.0285E-03    -24.0713E+06    -64.7797E+06     3.65303E+06     150.476E+03    -54.0314E-03     106.679E-03    -52.6477E-03     86.5495E-03    -54.4067E-03     106.728E-03    -52.5006E-03     85.8582E-03
             304     11.1017E-03     62.1167E-03    -21.9412E+06    -46.9902E+06     3.78510E+06     157.349E+03    -54.0461E-03     106.653E-03    -52.6069E-03     89.9902E-03    -54.5416E-03     106.893E-03    -52.4880E-03     89.1918E-03
             305     11.9559E-03     62.2077E-03    -20.0729E+06    -20.6887E+06     5.00685E+06     157.324E+03    -53.9576E-03     106.516E-03    -52.5587E-03     92.5714E-03    -54.6196E-03     107.019E-03    -52.4746E-03     91.6595E-03
             306     12.8100E-03     62.3010E-03    -18.3588E+06     20.2963E+06     6.72601E+06     150.861E+03    -53.7819E-03     106.272E-03    -52.4898E-03     95.3848E-03    -54.6844E-03     107.162E-03    -52.4589E-03     94.3569E-03
             307     13.6643E-03     62.3974E-03    -16.3370E+06     79.5999E+06     22.1999E+06     136.888E+03    -53.5572E-03     106.015E-03    -52.4579E-03     99.5771E-03    -54.7693E-03     107.387E-03    -52.4386E-03     98.4882E-03
             308     14.5187E-03     62.4990E-03    -13.2414E+06     117.028E+06     51.6434E+06     115.075E+03    -52.9063E-03     105.427E-03    -52.5208E-03     90.9173E-03    -54.2312E-03     106.971E-03    -52.4130E-03     89.9003E-03
             309     15.3732E-03     62.5781E-03    -9.01939E+06     124.102E+06     74.6066E+06     93.7175E+03    -52.1007E-03     104.693E-03    -52.5919E-03     72.9569E-03    -53.3596E-03     106.144E-03    -52.3857E-03     72.0732E-03
             310     16.2277E-03     62.6438E-03    -4.39809E+06     124.921E+06     83.0838E+06     63.1408E+03    -51.6272E-03     104.228E-03    -52.6007E-03     38.3311E-03    -52.5043E-03     105.292E-03    -52.3600E-03     37.6792E-03
             311     853.849E-06     62.5063E-03    -64.4006E+06    -173.706E+06    -62.8019E+06    -105.651E+03    -52.7140E-03     105.365E-03    -52.6510E-03     9.92574E-03    -52.6946E-03     104.682E-03    -52.6197E-03     9.89166E-03
             312     1.70770E-03     62.5202E-03    -62.0201E+06    -171.384E+06    -55.5447E+06    -83.8098E+03    -52.7315E-03     105.430E-03    -52.6980E-03     18.1583E-03    -52.7174E-03     104.748E-03    -52.6373E-03     18.0956E-03
             313     2.56158E-03     62.5426E-03    -58.3472E+06    -165.636E+06    -45.5326E+06    -14.4512E+03    -52.7973E-03     105.522E-03    -52.7245E-03     26.6722E-03    -52.7934E-03     104.855E-03    -52.6273E-03     26.5769E-03
             314     3.41548E-03     62.5735E-03    -53.8877E+06    -157.835E+06    -34.9397E+06    -14.8825E+03    -52.8920E-03     105.639E-03    -52.7467E-03     34.9992E-03    -52.9015E-03     104.998E-03    -52.6144E-03     34.8658E-03
             315     4.26941E-03     62.6126E-03    -49.1641E+06    -148.014E+06    -25.4810E+06    -25.2565E+03    -53.0133E-03     105.772E-03    -52.7583E-03     43.0357E-03    -53.0399E-03     105.172E-03    -52.5998E-03     42.8586E-03
             316     5.12338E-03     62.6596E-03    -44.5431E+06    -135.839E+06    -17.3568E+06    -15.0288E+03    -53.1527E-03     105.912E-03    -52.7591E-03     50.7287E-03    -53.2032E-03     105.372E-03    -52.5843E-03     50.5018E-03
             317     5.97737E-03     62.7140E-03    -40.1505E+06    -125.344E+06    -10.3889E+06     15.7618E+03    -53.3150E-03     106.072E-03    -52.7567E-03     58.0094E-03    -53.3925E-03     105.592E-03    -52.5687E-03     57.7258E-03
             318     6.83138E-03     62.7755E-03    -36.0980E+06    -114.483E+06    -5.44364E+06     58.7939E+03    -53.4869E-03     106.232E-03    -52.7447E-03     64.8364E-03    -53.5979E-03     105.824E-03    -52.5536E-03     64.4886E-03
             319     7.68542E-03     62.8436E-03    -32.4720E+06    -103.614E+06    -1.73252E+06     100.669E+03    -53.6571E-03     106.385E-03    -52.7280E-03     71.1542E-03    -53.8111E-03     106.061E-03    -52.5393E-03     70.7340E-03
             320     8.53946E-03     62.9176E-03    -29.2831E+06    -93.1251E+06     474.496E+03     135.698E+03    -53.8185E-03     106.524E-03    -52.7058E-03     76.9151E-03    -54.0262E-03     106.296E-03    -52.5260E-03     76.4135E-03
             321     9.39353E-03     62.9971E-03    -26.5084E+06    -79.4546E+06     2.03473E+06     157.232E+03    -53.9463E-03     106.623E-03    -52.6770E-03     82.0961E-03    -54.2274E-03     106.522E-03    -52.5132E-03     81.5041E-03
             322     10.2476E-03     63.0814E-03    -24.0719E+06    -64.8068E+06     3.67515E+06     170.544E+03    -54.0307E-03     106.679E-03    -52.6478E-03     86.5535E-03    -54.4060E-03     106.728E-03    -52.5006E-03     85.8625E-03
             323     11.1017E-03     63.1696E-03    -21.9441E+06    -47.0092E+06     3.80643E+06     178.727E+03    -54.0455E-03     106.652E-03    -52.6069E-03     89.9938E-03    -54.5411E-03     106.892E-03    -52.4879E-03     89.1957E-03
             324     11.9559E-03     63.2607E-03    -20.0761E+06    -20.6972E+06     5.02888E+06     180.323E+03    -53.9572E-03     106.516E-03    -52.5588E-03     92.5749E-03    -54.6193E-03     107.019E-03    -52.4745E-03     91.6632E-03
             325     12.8100E-03     63.3539E-03    -18.3625E+06     20.2975E+06     6.74685E+06     174.501E+03    -53.7818E-03     106.272E-03    -52.4897E-03     95.3885E-03    -54.6843E-03     107.161E-03    -52.4588E-03     94.3609E-03
             326     13.6643E-03     63.4504E-03    -16.3410E+06     79.6120E+06     22.2187E+06     162.496E+03    -53.5572E-03     106.015E-03    -52.4578E-03     99.5813E-03    -54.7693E-03     107.387E-03    -52.4385E-03     98.4927E-03
             327     14.5187E-03     63.5519E-03    -13.2492E+06     117.055E+06     51.6667E+06     140.047E+03    -52.9058E-03     105.427E-03    -52.5207E-03     90.9210E-03    -54.2309E-03     106.970E-03    -52.4129E-03     89.9043E-03
             328     15.3732E-03     63.6311E-03    -9.04136E+06     124.123E+06     74.6240E+06     114.014E+03    -52.1004E-03     104.692E-03    -52.5918E-03     72.9584E-03    -53.3595E-03     106.143E-03    -52.3856E-03     72.0750E-03
             329     16.2277E-03     63.6967E-03    -4.43439E+06     124.977E+06     83.1028E+06     75.3134E+03    -51.6274E-03     104.228E-03    -52.6006E-03     38.3301E-03    -52.5049E-03     105.292E-03    -52.3599E-03     37.6784E-03
             330     853.838E-06     63.5592E-03    -64.3135E+06    -173.599E+06    -62.6301E+06    -23.2097E+03    -52.7146E-03     105.366E-03    -52.6513E-03     9.92473E-03    -52.6951E-03     104.683E-03    -52.6194E-03     9.89174E-03
             331     1.70770E-03     63.5731E-03    -62.0122E+06    -171.462E+06    -55.5453E+06     43.7012E+03    -52.7319E-03     105.430E-03    -52.6983E-03     18.1572E-03    -52.7175E-03     104.748E-03    -52.6375E-03     18.0961E-03
             332     2.56158E-03     63.5955E-03    -58.3286E+06    -165.635E+06    -45.5211E+06     50.7863E+03    -52.7976E-03     105.522E-03    -52.7246E-03     26.6716E-03    -52.7937E-03     104.855E-03    -52.6275E-03     26.5772E-03
             333     3.41548E-03     63.6264E-03    -53.8666E+06    -157.813E+06    -34.9092E+06     32.0859E+03    -52.8923E-03     105.639E-03    -52.7470E-03     34.9999E-03    -52.9018E-03     104.999E-03    -52.6146E-03     34.8672E-03
             334     4.26941E-03     63.6655E-03    -49.1695E+06    -147.987E+06    -25.4579E+06         829.363    -53.0134E-03     105.772E-03    -52.7586E-03     43.0373E-03    -53.0401E-03     105.173E-03    -52.6000E-03     42.8606E-03
             335     5.12338E-03     63.7125E-03    -44.5321E+06    -135.842E+06    -17.3268E+06    -21.0301E+03    -53.1528E-03     105.912E-03    -52.7594E-03     50.7309E-03    -53.2033E-03     105.373E-03    -52.5845E-03     50.5040E-03
             336     5.97737E-03     63.7669E-03    -40.1214E+06    -125.404E+06    -10.3597E+06     2.83710E+03    -53.3150E-03     106.072E-03    -52.7570E-03     58.0124E-03    -53.3924E-03     105.592E-03    -52.5688E-03     57.7287E-03
             337     6.83138E-03     63.8284E-03    -36.0786E+06    -114.558E+06    -5.42076E+06     61.2468E+03    -53.4868E-03     106.232E-03    -52.7450E-03     64.8398E-03    -53.5977E-03     105.824E-03    -52.5537E-03     64.4921E-03
             338     7.68542E-03     63.8965E-03    -32.4686E+06    -103.679E+06    -1.71257E+06     115.669E+03    -53.6569E-03     106.385E-03    -52.7282E-03     71.1578E-03    -53.8108E-03     106.061E-03    -52.5394E-03     70.7378E-03
             339     8.53947E-03     63.9705E-03    -29.2877E+06    -93.1752E+06     491.713E+03     150.380E+03    -53.8181E-03     106.524E-03    -52.7060E-03     76.9191E-03    -54.0257E-03     106.295E-03    -52.5259E-03     76.4177E-03
             340     9.39353E-03     64.0500E-03    -26.5169E+06    -79.4951E+06     2.05209E+06     175.892E+03    -53.9457E-03     106.623E-03    -52.6771E-03     82.1000E-03    -54.2268E-03     106.522E-03    -52.5131E-03     81.5082E-03
             341     10.2476E-03     64.1343E-03    -24.0772E+06    -64.8355E+06     3.69420E+06     192.174E+03    -54.0301E-03     106.678E-03    -52.6478E-03     86.5573E-03    -54.4055E-03     106.727E-03    -52.5004E-03     85.8666E-03
             342     11.1017E-03     64.2226E-03    -21.9459E+06    -47.0329E+06     3.82446E+06     201.209E+03    -54.0451E-03     106.652E-03    -52.6069E-03     89.9977E-03    -54.5406E-03     106.892E-03    -52.4877E-03     89.1999E-03
             343     11.9559E-03     64.3136E-03    -20.0769E+06    -20.7101E+06     5.04897E+06     205.701E+03    -53.9570E-03     106.516E-03    -52.5587E-03     92.5786E-03    -54.6191E-03     107.018E-03    -52.4743E-03     91.6673E-03
             344     12.8100E-03     64.4068E-03    -18.3641E+06     20.2965E+06     6.76747E+06     201.728E+03    -53.7818E-03     106.271E-03    -52.4896E-03     95.3921E-03    -54.6844E-03     107.161E-03    -52.4586E-03     94.3649E-03
             345     13.6643E-03     64.5033E-03    -16.3432E+06     79.6211E+06     22.2405E+06     189.406E+03    -53.5572E-03     106.015E-03    -52.4577E-03     99.5846E-03    -54.7694E-03     107.387E-03    -52.4383E-03     98.4964E-03
             346     14.5187E-03     64.6049E-03    -13.2513E+06     117.077E+06     51.6909E+06     172.925E+03    -52.9062E-03     105.427E-03    -52.5206E-03     90.9226E-03    -54.2313E-03     106.971E-03    -52.4127E-03     89.9063E-03
             347     15.3732E-03     64.6840E-03    -9.03760E+06     124.156E+06      74.652E+06     143.536E+03    -52.1011E-03     104.693E-03    -52.5918E-03     72.9573E-03    -53.3602E-03     106.144E-03    -52.3854E-03     72.0742E-03
             348     16.2277E-03     64.7496E-03    -4.41381E+06     125.054E+06     83.1520E+06     84.7029E+03    -51.6284E-03     104.229E-03    -52.6006E-03     38.3265E-03    -52.5059E-03     105.294E-03    -52.3598E-03     37.6748E-03
             349     853.853E-06     64.6121E-03    -64.8797E+06    -173.671E+06    -62.9251E+06     83.7639E+03    -52.7119E-03     105.363E-03    -52.6510E-03     9.92466E-03    -52.6948E-03     104.681E-03    -52.6197E-03     9.89305E-03
             350     1.70769E-03     64.6260E-03    -62.1463E+06    -171.540E+06    -55.3353E+06     92.3836E+03    -52.7324E-03     105.432E-03    -52.6998E-03     18.1581E-03    -52.7189E-03     104.750E-03    -52.6377E-03     18.0977E-03
             351     2.56157E-03     64.6484E-03    -58.2803E+06    -165.642E+06    -45.4386E+06     75.5348E+03    -52.7974E-03     105.523E-03    -52.7254E-03     26.6731E-03    -52.7933E-03     104.856E-03    -52.6279E-03     26.5789E-03
             352     3.41548E-03     64.6793E-03    -53.7975E+06    -157.824E+06    -34.9000E+06     82.7423E+03    -52.8922E-03     105.639E-03    -52.7471E-03     35.0015E-03    -52.9013E-03     104.998E-03    -52.6148E-03     34.8694E-03
             353     4.26941E-03     64.7184E-03    -49.0950E+06    -147.905E+06    -25.4190E+06     40.2004E+03    -53.0136E-03     105.772E-03    -52.7586E-03     43.0393E-03    -53.0401E-03     105.173E-03    -52.6001E-03     42.8630E-03
             354     5.12337E-03     64.7654E-03    -44.4778E+06    -135.813E+06    -17.2879E+06    -26.9908E+03    -53.1528E-03     105.912E-03    -52.7595E-03     50.7336E-03    -53.2032E-03     105.373E-03    -52.5845E-03     50.5066E-03
             355     5.97737E-03     64.8198E-03    -40.0978E+06    -125.492E+06    -10.3387E+06     6.21693E+03    -53.3149E-03     106.072E-03    -52.7572E-03     58.0156E-03    -53.3920E-03     105.591E-03    -52.5688E-03     57.7319E-03
             356     6.83138E-03     64.8813E-03    -36.0794E+06    -114.651E+06    -5.40710E+06     88.1222E+03    -53.4865E-03     106.232E-03    -52.7452E-03     64.8430E-03    -53.5973E-03     105.823E-03    -52.5536E-03     64.4956E-03
             357     7.68542E-03     64.9494E-03    -32.4768E+06    -103.740E+06    -1.69395E+06     137.747E+03    -53.6565E-03     106.385E-03    -52.7283E-03     71.1610E-03    -53.8104E-03     106.060E-03    -52.5393E-03     70.7412E-03
             358     8.53947E-03     65.0234E-03    -29.2945E+06    -93.2304E+06     507.661E+03     170.763E+03    -53.8176E-03     106.524E-03    -52.7060E-03     76.9224E-03    -54.0252E-03     106.295E-03    -52.5258E-03     76.4213E-03
             359     9.39353E-03     65.1029E-03    -26.5216E+06    -79.5396E+06     2.06745E+06     196.696E+03    -53.9451E-03     106.622E-03    -52.6770E-03     82.1033E-03    -54.2263E-03     106.521E-03    -52.5129E-03     81.5119E-03
             360     10.2476E-03     65.1872E-03    -24.0828E+06    -64.8694E+06     3.71107E+06     214.123E+03    -54.0296E-03     106.677E-03    -52.6477E-03     86.5605E-03    -54.4050E-03     106.726E-03    -52.5002E-03     85.8701E-03
             361     11.1017E-03     65.2755E-03    -21.9532E+06    -47.0592E+06     3.84046E+06     224.977E+03    -54.0447E-03     106.651E-03    -52.6067E-03     90.0007E-03    -54.5403E-03     106.891E-03    -52.4875E-03     89.2032E-03
             362     11.9559E-03     65.3665E-03    -20.0817E+06    -20.7274E+06     5.06591E+06     228.618E+03    -53.9570E-03     106.515E-03    -52.5585E-03     92.5816E-03    -54.6191E-03     107.018E-03    -52.4740E-03     91.6706E-03
             363     12.8101E-03     65.4597E-03    -18.3621E+06     20.2893E+06     6.78870E+06     227.638E+03    -53.7820E-03     106.271E-03    -52.4895E-03     95.3948E-03    -54.6846E-03     107.161E-03    -52.4583E-03     94.3679E-03
             364     13.6643E-03     65.5562E-03    -16.3392E+06     79.6265E+06     22.2659E+06     220.402E+03    -53.5576E-03     106.015E-03    -52.4576E-03     99.5869E-03    -54.7699E-03     107.388E-03    -52.4380E-03     98.4991E-03
             365     14.5187E-03     65.6578E-03    -13.2430E+06     117.093E+06     51.7178E+06     202.175E+03    -52.9071E-03     105.428E-03    -52.5205E-03     90.9250E-03    -54.2323E-03     106.972E-03    -52.4125E-03     89.9090E-03
             366     15.3732E-03     65.7369E-03    -9.02462E+06     124.198E+06     74.6843E+06     169.028E+03    -52.1022E-03     104.694E-03    -52.5917E-03     72.9582E-03    -53.3614E-03     106.145E-03    -52.3853E-03     72.0753E-03
             367     16.2277E-03     65.8026E-03    -4.41906E+06     125.151E+06     83.1935E+06     103.633E+03    -51.6292E-03     104.230E-03    -52.6006E-03     38.3270E-03    -52.5069E-03     105.295E-03    -52.3597E-03     37.6756E-03
             368     853.838E-06     65.6650E-03    -64.4867E+06    -173.880E+06    -62.8192E+06     166.603E+03    -52.7138E-03     105.367E-03    -52.6528E-03     9.92590E-03    -52.6945E-03     104.683E-03    -52.6213E-03     9.89536E-03
             369     1.70770E-03     65.6789E-03    -62.1208E+06    -171.509E+06    -55.5538E+06     81.7626E+03    -52.7317E-03     105.431E-03    -52.6990E-03     18.1603E-03    -52.7178E-03     104.749E-03    -52.6380E-03     18.0996E-03
             370     2.56157E-03     65.7013E-03    -58.3163E+06    -165.696E+06    -45.4657E+06     44.2501E+03    -52.7976E-03     105.523E-03    -52.7254E-03     26.6758E-03    -52.7936E-03     104.856E-03    -52.6279E-03     26.5812E-03
             371     3.41548E-03     65.7322E-03    -53.7792E+06    -157.900E+06    -34.9357E+06     91.0939E+03    -52.8924E-03     105.639E-03    -52.7470E-03     35.0038E-03    -52.9012E-03     104.998E-03    -52.6148E-03     34.8717E-03
             372     4.26941E-03     65.7713E-03    -49.0892E+06    -147.791E+06    -25.6932E+06     70.5744E+03    -53.0129E-03     105.770E-03    -52.7570E-03     43.0415E-03    -53.0392E-03     105.172E-03    -52.6000E-03     42.8656E-03
             373     5.12338E-03     65.8183E-03    -44.5161E+06    -135.737E+06    -17.5173E+06    -19.0991E+03    -53.1522E-03     105.910E-03    -52.7581E-03     50.7364E-03    -53.2025E-03     105.372E-03    -52.5843E-03     50.5094E-03
             374     5.97737E-03     65.8727E-03    -40.1514E+06    -125.645E+06    -10.3488E+06     24.0751E+03    -53.3148E-03     106.072E-03    -52.7572E-03     58.0187E-03    -53.3919E-03     105.591E-03    -52.5685E-03     57.7352E-03
             375     6.83138E-03     65.9342E-03    -36.1188E+06    -114.728E+06    -5.39974E+06     114.084E+03    -53.4862E-03     106.231E-03    -52.7451E-03     64.8462E-03    -53.5971E-03     105.822E-03    -52.5534E-03     64.4991E-03
             376     7.68542E-03     66.0023E-03    -32.5000E+06    -103.806E+06    -1.68393E+06     155.038E+03    -53.6562E-03     106.384E-03    -52.7282E-03     71.1641E-03    -53.8101E-03     106.059E-03    -52.5390E-03     70.7445E-03
             377     8.53947E-03     66.0763E-03    -29.3090E+06    -93.2851E+06     520.226E+03     188.634E+03    -53.8173E-03     106.523E-03    -52.7058E-03     76.9255E-03    -54.0249E-03     106.294E-03    -52.5255E-03     76.4246E-03
             378     9.39354E-03     66.1558E-03    -26.5302E+06    -79.5897E+06     2.07893E+06     214.284E+03    -53.9448E-03     106.622E-03    -52.6768E-03     82.1064E-03    -54.2260E-03     106.520E-03    -52.5126E-03     81.5151E-03
             379     10.2476E-03     66.2401E-03    -24.0855E+06    -64.9105E+06     3.72581E+06     237.240E+03    -54.0294E-03     106.677E-03    -52.6475E-03     86.5633E-03    -54.4047E-03     106.726E-03    -52.4999E-03     85.8731E-03
             380     11.1017E-03     66.3284E-03    -21.9500E+06    -47.0849E+06     3.85910E+06     247.859E+03    -54.0446E-03     106.651E-03    -52.6065E-03     90.0035E-03    -54.5402E-03     106.891E-03    -52.4871E-03     89.2062E-03
             381     11.9559E-03     66.4194E-03    -20.0758E+06    -20.7485E+06     5.08359E+06     251.655E+03    -53.9571E-03     106.515E-03    -52.5583E-03     92.5845E-03    -54.6192E-03     107.018E-03    -52.4737E-03     91.6738E-03
             382     12.8101E-03     66.5127E-03    -18.3593E+06     20.2755E+06     6.80521E+06     253.027E+03    -53.7824E-03     106.272E-03    -52.4893E-03     95.3978E-03    -54.6850E-03     107.161E-03    -52.4581E-03     94.3712E-03
             383     13.6643E-03     66.6091E-03    -16.3327E+06     79.6245E+06     22.2836E+06     248.100E+03    -53.5583E-03     106.016E-03    -52.4574E-03     99.5899E-03    -54.7706E-03     107.388E-03    -52.4378E-03     98.5024E-03
             384     14.5187E-03     66.7107E-03    -13.2364E+06     117.110E+06     51.7426E+06     232.055E+03    -52.9076E-03     105.428E-03    -52.5204E-03     90.9282E-03    -54.2328E-03     106.972E-03    -52.4123E-03     89.9126E-03
             385     15.3732E-03     66.7899E-03    -9.02639E+06     124.239E+06     74.7135E+06     199.868E+03    -52.1024E-03     104.694E-03    -52.5916E-03     72.9600E-03    -53.3617E-03     106.146E-03    -52.3851E-03     72.0776E-03
             386     16.2277E-03     66.8555E-03    -4.40962E+06     125.261E+06     83.2439E+06     128.707E+03    -51.6298E-03     104.230E-03    -52.6006E-03     38.3278E-03    -52.5077E-03     105.296E-03    -52.3596E-03     37.6766E-03
             387     853.846E-06     66.7179E-03    -64.1542E+06    -174.240E+06    -62.5861E+06     240.816E+03    -52.7168E-03     105.370E-03    -52.6533E-03     9.92704E-03    -52.6956E-03     104.684E-03    -52.6206E-03     9.89747E-03
             388     1.70770E-03     66.7318E-03    -61.7950E+06    -171.406E+06    -55.5222E+06     131.371E+03    -52.7325E-03     105.431E-03    -52.6986E-03     18.1611E-03    -52.7172E-03     104.749E-03    -52.6380E-03     18.1011E-03
             389     2.56158E-03     66.7542E-03    -58.1851E+06    -165.714E+06    -45.5520E+06     53.3206E+03    -52.7980E-03     105.523E-03    -52.7246E-03     26.6766E-03    -52.7932E-03     104.855E-03    -52.6277E-03     26.5822E-03
             390     3.41548E-03     66.7851E-03    -53.7698E+06    -158.007E+06    -35.0139E+06     81.1244E+03    -52.8925E-03     105.639E-03    -52.7466E-03     35.0051E-03    -52.9011E-03     104.997E-03    -52.6146E-03     34.8730E-03
             391     4.26941E-03     66.8242E-03    -49.0807E+06    -147.689E+06    -25.9255E+06     59.9499E+03    -53.0122E-03     105.768E-03    -52.7554E-03     43.0432E-03    -53.0383E-03     105.170E-03    -52.5997E-03     42.8672E-03
             392     5.12338E-03     66.8712E-03    -44.5322E+06    -135.676E+06    -17.7366E+06     9.25929E+03    -53.1515E-03     105.908E-03    -52.7565E-03     50.7379E-03    -53.2017E-03     105.370E-03    -52.5839E-03     50.5114E-03
             393     5.97737E-03     66.9256E-03    -40.1975E+06    -125.793E+06    -10.3638E+06     46.2869E+03    -53.3147E-03     106.072E-03    -52.7570E-03     58.0205E-03    -53.3918E-03     105.590E-03    -52.5681E-03     57.7373E-03
             394     6.83139E-03     66.9871E-03    -36.1544E+06    -114.807E+06    -5.39653E+06     120.441E+03    -53.4860E-03     106.231E-03    -52.7449E-03     64.8482E-03    -53.5969E-03     105.822E-03    -52.5530E-03     64.5012E-03
             395     7.68542E-03     67.0552E-03    -32.5249E+06    -103.876E+06    -1.68009E+06     168.940E+03    -53.6558E-03     106.384E-03    -52.7280E-03     71.1663E-03    -53.8098E-03     106.058E-03    -52.5386E-03     70.7470E-03
             396     8.53947E-03     67.1292E-03    -29.3315E+06    -93.3426E+06     524.401E+03     202.963E+03    -53.8170E-03     106.523E-03    -52.7056E-03     76.9278E-03    -54.0247E-03     106.293E-03    -52.5251E-03     76.4271E-03
             397     9.39354E-03     67.2087E-03    -26.5509E+06    -79.6423E+06     2.08078E+06     229.757E+03    -53.9446E-03     106.621E-03    -52.6766E-03     82.1090E-03    -54.2258E-03     106.519E-03    -52.5122E-03     81.5179E-03
             398     10.2476E-03     67.2930E-03    -24.0980E+06    -64.9542E+06     3.72744E+06     247.195E+03    -54.0293E-03     106.677E-03    -52.6473E-03     86.5664E-03    -54.4047E-03     106.725E-03    -52.4995E-03     85.8763E-03
             399     11.1017E-03     67.3813E-03    -21.9510E+06    -47.1200E+06     3.86647E+06     263.479E+03    -54.0448E-03     106.651E-03    -52.6063E-03     90.0066E-03    -54.5404E-03     106.890E-03    -52.4868E-03     89.2095E-03
             400     11.9559E-03     67.4723E-03    -20.0732E+06    -20.7748E+06     5.09511E+06     275.068E+03    -53.9574E-03     106.516E-03    -52.5581E-03     92.5876E-03    -54.6195E-03     107.018E-03    -52.4734E-03     91.6771E-03
             401     12.8101E-03     67.5656E-03    -18.3523E+06     20.2573E+06     6.81970E+06     278.420E+03    -53.7829E-03     106.272E-03    -52.4891E-03     95.4007E-03    -54.6856E-03     107.162E-03    -52.4578E-03     94.3744E-03
             402     13.6643E-03     67.6620E-03    -16.3268E+06     79.6180E+06     22.3006E+06     274.884E+03    -53.5590E-03     106.016E-03    -52.4573E-03     99.5926E-03    -54.7714E-03     107.389E-03    -52.4376E-03     98.5053E-03
             403     14.5187E-03     67.7636E-03    -13.2313E+06     117.118E+06     51.7612E+06     264.297E+03    -52.9082E-03     105.428E-03    -52.5203E-03     90.9294E-03    -54.2335E-03     106.972E-03    -52.4121E-03     89.9142E-03
             404     15.3732E-03     67.8428E-03    -9.02014E+06     124.275E+06     74.7391E+06     240.200E+03    -52.1030E-03     104.695E-03    -52.5916E-03     72.9589E-03    -53.3623E-03     106.146E-03    -52.3850E-03     72.0769E-03
             405     16.2277E-03     67.9084E-03    -4.42112E+06     125.394E+06     83.2966E+06     159.075E+03    -51.6304E-03     104.231E-03    -52.6006E-03     38.3257E-03    -52.5086E-03     105.297E-03    -52.3595E-03     37.6749E-03
             406     853.843E-06     67.7708E-03    -64.2170E+06    -174.542E+06    -62.7288E+06     68.6365E+03    -52.7172E-03     105.371E-03    -52.6534E-03     9.92631E-03    -52.6958E-03     104.684E-03    -52.6208E-03     9.89450E-03
             407     1.70770E-03     67.7847E-03    -61.7634E+06    -171.389E+06    -55.5237E+06     112.917E+03    -52.7327E-03     105.431E-03    -52.6986E-03     18.1607E-03    -52.7172E-03     104.749E-03    -52.6382E-03     18.1005E-03
             408     2.56157E-03     67.8071E-03    -58.0895E+06    -165.707E+06    -45.5557E+06     95.3806E+03    -52.7979E-03     105.522E-03    -52.7245E-03     26.6760E-03    -52.7926E-03     104.855E-03    -52.6277E-03     26.5821E-03
             409     3.41548E-03     67.8380E-03    -53.6364E+06    -158.034E+06    -35.0375E+06     47.4136E+03    -52.8922E-03     105.638E-03    -52.7461E-03     35.0052E-03    -52.8999E-03     104.996E-03    -52.6144E-03     34.8726E-03
             410     4.26941E-03     67.8771E-03    -48.9885E+06    -147.680E+06    -25.8917E+06     50.6034E+03    -53.0121E-03     105.767E-03    -52.7551E-03     43.0440E-03    -53.0377E-03     105.170E-03    -52.5994E-03     42.8678E-03
             411     5.12338E-03     67.9241E-03    -44.4886E+06    -135.675E+06    -17.6860E+06     76.5274E+03    -53.1515E-03     105.908E-03    -52.7564E-03     50.7386E-03    -53.2016E-03     105.370E-03    -52.5836E-03     50.5129E-03
             412     5.97737E-03     67.9785E-03    -40.1833E+06    -125.870E+06    -10.3575E+06     93.2006E+03    -53.3145E-03     106.071E-03    -52.7568E-03     58.0213E-03    -53.3915E-03     105.589E-03    -52.5678E-03     57.7387E-03
             413     6.83139E-03     68.0400E-03    -36.1675E+06    -114.899E+06    -5.40285E+06     134.686E+03    -53.4856E-03     106.230E-03    -52.7447E-03     64.8496E-03    -53.5965E-03     105.821E-03    -52.5526E-03     64.5028E-03
             414     7.68542E-03     68.1081E-03    -32.5472E+06    -103.944E+06    -1.68361E+06     181.960E+03    -53.6555E-03     106.383E-03    -52.7277E-03     71.1681E-03    -53.8095E-03     106.058E-03    -52.5383E-03     70.7489E-03
             415     8.53948E-03     68.1821E-03    -29.3494E+06    -93.4051E+06     521.290E+03     216.309E+03    -53.8167E-03     106.522E-03    -52.7053E-03     76.9298E-03    -54.0243E-03     106.292E-03    -52.5247E-03     76.4293E-03
             416     9.39354E-03     68.2616E-03    -26.5599E+06    -79.6906E+06     2.08162E+06     239.193E+03    -53.9444E-03     106.621E-03    -52.6763E-03     82.1114E-03    -54.2256E-03     106.519E-03    -52.5118E-03     81.5204E-03
             417     10.2476E-03     68.3459E-03    -24.1058E+06    -64.9977E+06     3.72770E+06     255.992E+03    -54.0293E-03     106.676E-03    -52.6470E-03     86.5692E-03    -54.4047E-03     106.725E-03    -52.4991E-03     85.8793E-03
             418     11.1017E-03     68.4342E-03    -21.9629E+06    -47.1654E+06     3.86378E+06     272.547E+03    -54.0450E-03     106.651E-03    -52.6060E-03     90.0097E-03    -54.5406E-03     106.890E-03    -52.4865E-03     89.2128E-03
             419     11.9559E-03     68.5252E-03    -20.0764E+06    -20.8116E+06     5.09662E+06     289.732E+03    -53.9579E-03     106.516E-03    -52.5579E-03     92.5909E-03    -54.6200E-03     107.018E-03    -52.4731E-03     91.6806E-03
             420     12.8101E-03     68.6185E-03    -18.3502E+06     20.2333E+06     6.82600E+06     300.212E+03    -53.7836E-03     106.273E-03    -52.4889E-03     95.4042E-03    -54.6863E-03     107.162E-03    -52.4575E-03     94.3782E-03
             421     13.6643E-03     68.7150E-03    -16.3223E+06     79.6026E+06     22.3091E+06     303.918E+03    -53.5599E-03     106.017E-03    -52.4571E-03     99.5957E-03    -54.7722E-03     107.389E-03    -52.4374E-03     98.5088E-03
             422     14.5187E-03     68.8166E-03    -13.2280E+06     117.118E+06     51.7726E+06     298.804E+03    -52.9092E-03     105.429E-03    -52.5202E-03     90.9319E-03    -54.2345E-03     106.973E-03    -52.4120E-03     89.9172E-03
             423     15.3732E-03     68.8957E-03    -9.01742E+06     124.297E+06     74.7556E+06     279.278E+03    -52.1040E-03     104.696E-03    -52.5915E-03     72.9608E-03    -53.3634E-03     106.147E-03    -52.3849E-03     72.0792E-03
             424     16.2277E-03     68.9614E-03    -4.40224E+06     125.547E+06     83.3592E+06     196.621E+03    -51.6308E-03     104.231E-03    -52.6006E-03     38.3276E-03    -52.5092E-03     105.298E-03    -52.3595E-03     37.6773E-03
             425     853.840E-06     68.8237E-03    -64.0920E+06    -174.610E+06    -62.5556E+06    -20.9775E+03    -52.7180E-03     105.374E-03    -52.6561E-03     9.92748E-03    -52.6960E-03     104.686E-03    -52.6228E-03     9.89450E-03
             426     1.70770E-03     68.8375E-03    -61.7597E+06    -171.447E+06    -55.5552E+06         792.112    -52.7323E-03     105.432E-03    -52.6994E-03     18.1612E-03    -52.7167E-03     104.749E-03    -52.6390E-03     18.0995E-03
             427     2.56158E-03     68.8600E-03    -57.9803E+06    -165.713E+06    -45.5230E+06    -1.67989E+03    -52.7970E-03     105.522E-03    -52.7247E-03     26.6763E-03    -52.7912E-03     104.854E-03    -52.6279E-03     26.5811E-03
             428     3.41548E-03     68.8909E-03    -53.5688E+06    -158.082E+06    -35.0452E+06      65.535E+03    -52.8915E-03     105.637E-03    -52.7459E-03     35.0058E-03    -52.8989E-03     104.995E-03    -52.6142E-03     34.8734E-03
             429     4.26942E-03     68.9300E-03    -49.0290E+06    -147.730E+06    -25.9186E+06     120.608E+03    -53.0117E-03     105.767E-03    -52.7548E-03     43.0445E-03    -53.0375E-03     105.169E-03    -52.5991E-03     42.8692E-03
             430     5.12338E-03     68.9770E-03    -44.5409E+06    -135.708E+06    -17.6861E+06     131.551E+03    -53.1512E-03     105.907E-03    -52.7562E-03     50.7391E-03    -53.2015E-03     105.369E-03    -52.5833E-03     50.5141E-03
             431     5.97738E-03     69.0314E-03    -40.2048E+06    -125.913E+06    -10.3586E+06     148.388E+03    -53.3140E-03     106.071E-03    -52.7566E-03     58.0220E-03    -53.3910E-03     105.588E-03    -52.5675E-03     57.7402E-03
             432     6.83139E-03     69.0929E-03    -36.1844E+06    -114.967E+06    -5.41312E+06     167.741E+03    -53.4852E-03     106.230E-03    -52.7444E-03     64.8508E-03    -53.5960E-03     105.820E-03    -52.5523E-03     64.5045E-03
             433     7.68543E-03     69.1610E-03    -32.5684E+06    -104.014E+06    -1.69678E+06     196.256E+03    -53.6551E-03     106.383E-03    -52.7275E-03     71.1698E-03    -53.8091E-03     106.057E-03    -52.5379E-03     70.7508E-03
             434     8.53948E-03     69.2350E-03    -29.3668E+06    -93.4608E+06     511.467E+03     222.014E+03    -53.8163E-03     106.521E-03    -52.7050E-03     76.9319E-03    -54.0240E-03     106.292E-03    -52.5244E-03     76.4314E-03
             435     9.39355E-03     69.3145E-03    -26.5751E+06    -79.7425E+06     2.07270E+06     244.047E+03    -53.9441E-03     106.620E-03    -52.6760E-03     82.1138E-03    -54.2253E-03     106.518E-03    -52.5115E-03     81.5229E-03
             436     10.2476E-03     69.3988E-03    -24.1184E+06    -65.0441E+06     3.72091E+06     265.254E+03    -54.0292E-03     106.676E-03    -52.6467E-03     86.5720E-03    -54.4046E-03     106.724E-03    -52.4988E-03     85.8821E-03
             437     11.1017E-03     69.4871E-03    -21.9695E+06    -47.2081E+06     3.85812E+06     280.138E+03    -54.0452E-03     106.651E-03    -52.6058E-03     90.0128E-03    -54.5408E-03     106.890E-03    -52.4862E-03     89.2160E-03
             438     11.9559E-03     69.5782E-03    -20.0823E+06    -20.8584E+06     5.08811E+06     295.333E+03    -53.9584E-03     106.516E-03    -52.5576E-03     92.5944E-03    -54.6204E-03     107.018E-03    -52.4728E-03     91.6842E-03
             439     12.8101E-03     69.6714E-03    -18.3492E+06     20.1945E+06     6.82106E+06     315.642E+03    -53.7843E-03     106.273E-03    -52.4887E-03     95.4079E-03    -54.6869E-03     107.162E-03    -52.4573E-03     94.3820E-03
             440     13.6643E-03     69.7679E-03    -16.3157E+06     79.5759E+06     22.3095E+06     329.282E+03    -53.5607E-03     106.018E-03    -52.4570E-03     99.5991E-03    -54.7730E-03     107.390E-03    -52.4372E-03     98.5124E-03
             441     14.5187E-03     69.8695E-03    -13.2183E+06     117.104E+06     51.7777E+06     334.954E+03    -52.9100E-03     105.430E-03    -52.5201E-03     90.9345E-03    -54.2353E-03     106.974E-03    -52.4119E-03     89.9202E-03
             442     15.3732E-03     69.9486E-03    -9.01786E+06     124.305E+06     74.7622E+06     330.886E+03    -52.1048E-03     104.696E-03    -52.5915E-03     72.9618E-03    -53.3642E-03     106.148E-03    -52.3848E-03     72.0809E-03
             443     16.2277E-03     70.0143E-03    -4.42884E+06     125.725E+06     83.4165E+06     237.707E+03    -51.6307E-03     104.231E-03    -52.6006E-03     38.3281E-03    -52.5096E-03     105.299E-03    -52.3594E-03     37.6783E-03
             444     853.843E-06     69.8766E-03    -63.9013E+06    -174.619E+06    -62.2486E+06     36.6746E+03    -52.7183E-03     105.375E-03    -52.6570E-03     9.92957E-03    -52.6959E-03     104.687E-03    -52.6224E-03     9.89733E-03
             445     1.70769E-03     69.8905E-03    -61.5061E+06    -171.381E+06    -55.2794E+06    -53.7812E+03    -52.7325E-03     105.432E-03    -52.6999E-03     18.1638E-03    -52.7161E-03     104.750E-03    -52.6386E-03     18.1014E-03
             446     2.56157E-03     69.9129E-03    -58.0269E+06    -165.847E+06    -45.6060E+06     42.1408E+03    -52.7962E-03     105.520E-03    -52.7240E-03     26.6786E-03    -52.7903E-03     104.852E-03    -52.6275E-03     26.5840E-03
             447     3.41549E-03     69.9438E-03    -53.7699E+06    -158.215E+06    -35.0725E+06     163.827E+03    -52.8911E-03     105.637E-03    -52.7458E-03     35.0075E-03    -52.8993E-03     104.994E-03    -52.6138E-03     34.8764E-03
             448     4.26942E-03     69.9829E-03    -49.1506E+06    -147.756E+06    -25.8916E+06     176.573E+03    -53.0114E-03     105.766E-03    -52.7548E-03     43.0460E-03    -53.0377E-03     105.169E-03    -52.5988E-03     42.8715E-03
             449     5.12339E-03     70.0299E-03    -44.6051E+06    -135.748E+06    -17.6993E+06     170.335E+03    -53.1507E-03     105.907E-03    -52.7560E-03     50.7405E-03    -53.2012E-03     105.368E-03    -52.5830E-03     50.5160E-03
             450     5.97738E-03     70.0843E-03    -40.2562E+06    -125.959E+06    -10.3730E+06     179.721E+03    -53.3136E-03     106.070E-03    -52.7564E-03     58.0233E-03    -53.3908E-03     105.587E-03    -52.5672E-03     57.7419E-03
             451     6.83139E-03     70.1458E-03    -36.2151E+06    -115.017E+06    -5.42773E+06     196.373E+03    -53.4848E-03     106.229E-03    -52.7442E-03     64.8523E-03    -53.5958E-03     105.819E-03    -52.5521E-03     64.5063E-03
             452     7.68543E-03     70.2139E-03    -32.5898E+06    -104.068E+06    -1.71479E+06     210.156E+03    -53.6547E-03     106.382E-03    -52.7272E-03     71.1715E-03    -53.8087E-03     106.056E-03    -52.5376E-03     70.7527E-03
             453     8.53948E-03     70.2879E-03    -29.3918E+06    -93.5138E+06     491.583E+03     228.665E+03    -53.8160E-03     106.521E-03    -52.7048E-03     76.9338E-03    -54.0237E-03     106.291E-03    -52.5241E-03     76.4334E-03
             454     9.39355E-03     70.3674E-03    -26.6024E+06    -79.7939E+06     2.05170E+06     247.832E+03    -53.9440E-03     106.620E-03    -52.6757E-03     82.1161E-03    -54.2252E-03     106.517E-03    -52.5112E-03     81.5253E-03
             455     10.2476E-03     70.4518E-03    -24.1394E+06    -65.0924E+06     3.70016E+06     263.957E+03    -54.0292E-03     106.676E-03    -52.6464E-03     86.5749E-03    -54.4046E-03     106.724E-03    -52.4985E-03     85.8850E-03
             456     11.1017E-03     70.5400E-03    -21.9847E+06    -47.2532E+06     3.84124E+06     281.967E+03    -54.0454E-03     106.651E-03    -52.6055E-03     90.0161E-03    -54.5410E-03     106.890E-03    -52.4859E-03     89.2192E-03
             457     11.9559E-03     70.6311E-03    -20.0934E+06    -20.9039E+06     5.07199E+06     298.861E+03    -53.9588E-03     106.516E-03    -52.5574E-03     92.5979E-03    -54.6209E-03     107.018E-03    -52.4726E-03     91.6876E-03
             458     12.8101E-03     70.7243E-03    -18.3560E+06     20.1421E+06     6.80250E+06     317.077E+03    -53.7850E-03     106.274E-03    -52.4885E-03     95.4116E-03    -54.6876E-03     107.163E-03    -52.4571E-03     94.3857E-03
             459     13.6643E-03     70.8208E-03    -16.3130E+06     79.5259E+06     22.2949E+06     347.080E+03    -53.5614E-03     106.018E-03    -52.4568E-03     99.6023E-03    -54.7737E-03     107.390E-03    -52.4370E-03     98.5158E-03
             460     14.5187E-03     70.9224E-03    -13.2169E+06     117.070E+06     51.7673E+06     373.698E+03    -52.9108E-03     105.431E-03    -52.5200E-03     90.9370E-03    -54.2360E-03     106.975E-03    -52.4117E-03     89.9232E-03
             461     15.3732E-03     71.0016E-03    -9.01027E+06     124.291E+06     74.7593E+06     384.005E+03    -52.1057E-03     104.697E-03    -52.5914E-03     72.9632E-03    -53.3651E-03     106.149E-03    -52.3847E-03     72.0830E-03
             462     16.2277E-03     71.0672E-03    -4.39876E+06     125.935E+06     83.4947E+06     288.148E+03    -51.6307E-03     104.231E-03    -52.6006E-03     38.3287E-03    -52.5099E-03     105.300E-03    -52.3593E-03     37.6795E-03
             463     853.843E-06     70.9295E-03    -64.4902E+06    -174.557E+06    -63.1941E+06    -48.9463E+03    -52.7132E-03     105.364E-03    -52.6510E-03     9.93057E-03    -52.6924E-03     104.678E-03    -52.6204E-03     9.89723E-03
             464     1.70770E-03     70.9433E-03    -62.3114E+06    -171.374E+06    -56.0863E+06    -10.6929E+03    -52.7279E-03     105.422E-03    -52.6945E-03     18.1654E-03    -52.7144E-03     104.742E-03    -52.6361E-03     18.1036E-03
             465     2.56158E-03     70.9658E-03    -58.6017E+06    -166.111E+06    -45.6588E+06     142.957E+03    -52.7962E-03     105.520E-03    -52.7233E-03     26.6802E-03    -52.7927E-03     104.851E-03    -52.6258E-03     26.5870E-03
             466     3.41548E-03     70.9967E-03    -54.0276E+06    -158.261E+06    -35.0231E+06     180.638E+03    -52.8912E-03     105.637E-03    -52.7457E-03     35.0091E-03    -52.9006E-03     104.994E-03    -52.6130E-03     34.8782E-03
             467     4.26942E-03     71.0358E-03    -49.2846E+06    -147.812E+06    -25.9002E+06     166.745E+03    -53.0109E-03     105.765E-03    -52.7546E-03     43.0478E-03    -53.0378E-03     105.168E-03    -52.5983E-03     42.8732E-03
             468     5.12338E-03     71.0828E-03    -44.6936E+06     -135.79E+06    -17.7101E+06     189.351E+03    -53.1502E-03     105.906E-03    -52.7558E-03     50.7424E-03    -53.2011E-03     105.368E-03    -52.5827E-03     50.5181E-03
             469     5.97738E-03     71.1372E-03    -40.3173E+06    -126.006E+06    -10.4047E+06     197.725E+03    -53.3134E-03     106.069E-03    -52.7560E-03     58.0254E-03    -53.3908E-03     105.587E-03    -52.5669E-03     57.7442E-03
             470     6.83139E-03     71.1987E-03    -36.2674E+06    -115.065E+06    -5.46230E+06     208.330E+03    -53.4848E-03     106.229E-03    -52.7439E-03     64.8544E-03    -53.5958E-03     105.818E-03    -52.5518E-03     64.5086E-03
             471     7.68543E-03     71.2668E-03    -32.6372E+06    -104.113E+06    -1.74851E+06     222.465E+03    -53.6546E-03     106.382E-03    -52.7269E-03     71.1735E-03    -53.8088E-03     106.055E-03    -52.5374E-03     70.7548E-03
             472     8.53948E-03     71.3408E-03    -29.4347E+06    -93.5617E+06     456.380E+03     233.953E+03    -53.8159E-03     106.520E-03    -52.7045E-03     76.9357E-03    -54.0237E-03     106.290E-03    -52.5238E-03     76.4354E-03
             473     9.39355E-03     71.4203E-03    -26.6376E+06    -79.8389E+06     2.01776E+06     245.454E+03    -53.9439E-03     106.619E-03    -52.6754E-03     82.1183E-03    -54.2252E-03     106.517E-03    -52.5110E-03     81.5274E-03
             474     10.2476E-03     71.5047E-03    -24.1747E+06    -65.1386E+06     3.66489E+06     259.286E+03    -54.0292E-03     106.675E-03    -52.6461E-03     86.5775E-03    -54.4047E-03     106.723E-03    -52.4983E-03     85.8876E-03
             475     11.1018E-03     71.5930E-03    -22.0181E+06    -47.3015E+06     3.80537E+06     274.546E+03    -54.0456E-03     106.651E-03    -52.6052E-03     90.0193E-03    -54.5412E-03     106.889E-03    -52.4857E-03     89.2223E-03
             476     11.9559E-03     71.6840E-03    -20.1181E+06    -20.9506E+06     5.03918E+06     291.621E+03    -53.9592E-03     106.516E-03    -52.5571E-03     92.6014E-03    -54.6213E-03     107.018E-03    -52.4724E-03     91.6910E-03
             477     12.8101E-03     71.7773E-03    -18.3753E+06     20.0882E+06     6.76907E+06     312.781E+03    -53.7855E-03     106.274E-03    -52.4883E-03     95.4153E-03    -54.6881E-03     107.163E-03    -52.4569E-03     94.3893E-03
             478     13.6643E-03     71.8737E-03    -16.3270E+06     79.4497E+06     22.2579E+06     346.529E+03    -53.5621E-03     106.019E-03    -52.4567E-03     99.6055E-03    -54.7743E-03     107.390E-03    -52.4369E-03     98.5191E-03
             479     14.5188E-03     71.9754E-03    -13.2092E+06     116.995E+06     51.7381E+06     400.659E+03    -52.9115E-03     105.431E-03    -52.5199E-03     90.9394E-03    -54.2365E-03     106.975E-03    -52.4116E-03     89.9259E-03
             480     15.3732E-03     72.0545E-03    -9.00902E+06     124.249E+06     74.7383E+06     445.905E+03    -52.1064E-03     104.698E-03    -52.5913E-03     72.9645E-03    -53.3657E-03     106.149E-03    -52.3847E-03     72.0851E-03
             481     16.2277E-03     72.1202E-03    -4.43044E+06     126.176E+06     83.5660E+06     343.820E+03    -51.6304E-03     104.231E-03    -52.6006E-03     38.3290E-03    -52.5102E-03     105.301E-03    -52.3593E-03     37.6805E-03
             482     853.845E-06     71.9823E-03    -65.2460E+06    -174.383E+06    -63.6156E+06    -164.916E+03    -52.7081E-03     105.354E-03    -52.6455E-03     9.93052E-03    -52.6907E-03     104.670E-03    -52.6161E-03     9.89567E-03
             483     1.70771E-03     71.9962E-03    -62.7183E+06    -171.576E+06    -56.0555E+06     28.5382E+03    -52.7271E-03     105.420E-03    -52.6934E-03     18.1646E-03    -52.7154E-03     104.740E-03    -52.6339E-03     18.1033E-03
             484     2.56158E-03     72.0187E-03    -58.8238E+06    -166.208E+06    -45.6664E+06     61.7418E+03    -52.7960E-03     105.519E-03    -52.7227E-03     26.6802E-03    -52.7935E-03     104.850E-03    -52.6247E-03     26.5859E-03
             485     3.41549E-03     72.0496E-03    -54.1544E+06    -158.335E+06    -35.0620E+06     90.0320E+03    -52.8910E-03     105.636E-03    -52.7452E-03     35.0101E-03    -52.9009E-03     104.993E-03    -52.6124E-03     34.8781E-03
             486     4.26942E-03     72.0887E-03    -49.3810E+06    -147.884E+06    -25.9457E+06     151.889E+03    -53.0108E-03     105.765E-03    -52.7542E-03     43.0487E-03    -53.0380E-03     105.167E-03    -52.5979E-03     42.8738E-03
             487     5.12339E-03     72.1357E-03    -44.7749E+06    -135.855E+06    -17.7615E+06     178.470E+03    -53.1500E-03     105.905E-03    -52.7554E-03     50.7430E-03    -53.2011E-03     105.367E-03    -52.5823E-03     50.5186E-03
             488     5.97738E-03     72.1901E-03    -40.3810E+06    -126.057E+06    -10.4516E+06     204.678E+03    -53.3133E-03     106.069E-03    -52.7557E-03     58.0260E-03    -53.3908E-03     105.586E-03    -52.5666E-03     57.7449E-03
             489     6.83140E-03     72.2516E-03    -36.3276E+06    -115.113E+06    -5.50930E+06     221.214E+03    -53.4847E-03     106.228E-03    -52.7435E-03     64.8551E-03    -53.5960E-03     105.818E-03    -52.5515E-03     64.5094E-03
             490     7.68543E-03     72.3197E-03    -32.6943E+06    -104.151E+06    -1.79496E+06      227.18E+03    -53.6547E-03     106.381E-03    -52.7266E-03     71.1746E-03    -53.8090E-03     106.055E-03    -52.5372E-03     70.7560E-03
             491     8.53949E-03     72.3938E-03    -29.4827E+06    -93.6006E+06     409.841E+03     230.929E+03    -53.8161E-03     106.520E-03    -52.7042E-03     76.9374E-03    -54.0240E-03     106.290E-03    -52.5237E-03     76.4370E-03
             492     9.39355E-03     72.4733E-03    -26.6860E+06    -79.8821E+06     1.96820E+06     240.883E+03    -53.9441E-03     106.619E-03    -52.6752E-03     82.1203E-03    -54.2255E-03     106.517E-03    -52.5108E-03     81.5294E-03
             493     10.2476E-03     72.5576E-03    -24.2213E+06    -65.1801E+06     3.61611E+06     252.052E+03    -54.0293E-03     106.675E-03    -52.6459E-03     86.5800E-03    -54.4049E-03     106.723E-03    -52.4982E-03     85.8899E-03
             494     11.1018E-03     72.6459E-03    -22.0638E+06    -47.3455E+06     3.75474E+06     263.382E+03    -54.0457E-03     106.651E-03    -52.6050E-03     90.0224E-03    -54.5415E-03     106.889E-03    -52.4856E-03     89.2253E-03
             495     11.9559E-03     72.7369E-03    -20.1674E+06    -20.9969E+06     4.98701E+06     277.160E+03    -53.9595E-03     106.516E-03    -52.5569E-03     92.6048E-03    -54.6217E-03     107.018E-03    -52.4723E-03     91.6942E-03
             496     12.8101E-03     72.8302E-03    -18.4225E+06     20.0291E+06     6.71456E+06     299.248E+03    -53.7859E-03     106.274E-03    -52.4881E-03     95.4185E-03    -54.6886E-03     107.163E-03    -52.4569E-03     94.3923E-03
             497     13.6643E-03     72.9267E-03    -16.3684E+06     79.3726E+06     22.1985E+06     333.075E+03    -53.5626E-03     106.019E-03    -52.4565E-03     99.6084E-03    -54.7748E-03     107.391E-03    -52.4369E-03     98.5217E-03
             498     14.5187E-03     73.0283E-03    -13.2397E+06     116.880E+06     51.6711E+06     389.255E+03    -52.9121E-03     105.432E-03    -52.5197E-03     90.9415E-03    -54.2371E-03     106.975E-03    -52.4116E-03     89.9278E-03
             499     15.3732E-03     73.1075E-03    -8.99370E+06     124.128E+06     74.6863E+06     488.793E+03    -52.1072E-03     104.698E-03    -52.5912E-03     72.9656E-03    -53.3662E-03     106.149E-03    -52.3847E-03     72.0867E-03
             500     16.2277E-03     73.1731E-03    -4.38028E+06     126.449E+06     83.6611E+06     422.044E+03    -51.6299E-03     104.231E-03    -52.6006E-03     38.3294E-03    -52.5100E-03     105.301E-03    -52.3593E-03     37.6819E-03
             501     853.859E-06     73.0352E-03    -64.9344E+06    -174.331E+06    -62.8997E+06     11.4517E+03    -52.7100E-03     105.358E-03    -52.6481E-03     9.92694E-03    -52.6922E-03     104.673E-03    -52.6157E-03     9.89439E-03
             502     1.70770E-03     73.0491E-03    -62.3774E+06    -171.766E+06    -55.5620E+06     71.9594E+03    -52.7295E-03     105.426E-03    -52.6963E-03     18.1628E-03    -52.7165E-03     104.743E-03    -52.6346E-03     18.1021E-03
             503     2.56158E-03     73.0716E-03    -58.5906E+06    -166.132E+06    -45.7405E+06     55.0152E+03    -52.7951E-03     105.517E-03    -52.7222E-03     26.6796E-03    -52.7915E-03     104.849E-03    -52.6251E-03     26.5852E-03
             504     3.41549E-03     73.1025E-03    -54.1298E+06    -158.459E+06    -35.2230E+06     50.6865E+03    -52.8906E-03     105.635E-03    -52.7444E-03     35.0098E-03    -52.8999E-03     104.992E-03    -52.6122E-03     34.8773E-03
             505     4.26943E-03     73.1416E-03    -49.4131E+06    -147.981E+06    -26.0390E+06     119.838E+03    -53.0109E-03     105.765E-03    -52.7537E-03     43.0484E-03    -53.0380E-03     105.167E-03    -52.5977E-03     42.8732E-03
             506     5.12339E-03     73.1886E-03    -44.8183E+06    -135.938E+06    -17.8384E+06     181.014E+03    -53.1502E-03     105.905E-03    -52.7551E-03     50.7430E-03    -53.2013E-03     105.366E-03    -52.5821E-03     50.5186E-03
             507     5.97739E-03     73.2430E-03    -40.4551E+06    -126.124E+06    -10.5222E+06     217.259E+03    -53.3132E-03     106.069E-03    -52.7554E-03     58.0263E-03    -53.3909E-03     105.585E-03    -52.5665E-03     57.7453E-03
             508     6.83140E-03     73.3045E-03    -36.3980E+06    -115.144E+06    -5.57230E+06     222.287E+03    -53.4846E-03     106.228E-03    -52.7433E-03     64.8557E-03    -53.5960E-03     105.817E-03    -52.5514E-03     64.5100E-03
             509     7.68544E-03     73.3726E-03    -32.7444E+06    -104.185E+06    -1.85487E+06     216.549E+03    -53.6546E-03     106.381E-03    -52.7263E-03     71.1757E-03    -53.8090E-03     106.055E-03    -52.5371E-03     70.7569E-03
             510     8.53948E-03     73.4466E-03    -29.5282E+06    -93.6418E+06     351.192E+03     226.061E+03    -53.8162E-03     106.520E-03    -52.7040E-03     76.9388E-03    -54.0242E-03     106.290E-03    -52.5236E-03     76.4384E-03
             511     9.39356E-03     73.5262E-03    -26.7304E+06    -79.9211E+06     1.91032E+06     236.433E+03    -53.9443E-03     106.619E-03    -52.6750E-03     82.1222E-03    -54.2258E-03     106.517E-03    -52.5108E-03     81.5311E-03
             512     10.2476E-03     73.6105E-03    -24.2696E+06    -65.2188E+06     3.55653E+06     245.764E+03    -54.0296E-03     106.675E-03    -52.6457E-03     86.5824E-03    -54.4053E-03     106.723E-03    -52.4982E-03     85.8923E-03
             513     11.1018E-03     73.6988E-03    -22.1199E+06    -47.3854E+06     3.69330E+06     257.106E+03    -54.0461E-03     106.651E-03    -52.6048E-03     90.0254E-03    -54.5420E-03     106.889E-03    -52.4856E-03     89.2282E-03
             514     11.9559E-03     73.7898E-03    -20.2345E+06    -21.0414E+06     4.92029E+06     272.088E+03    -53.9599E-03     106.517E-03    -52.5568E-03     92.6080E-03    -54.6223E-03     107.018E-03    -52.4723E-03     91.6974E-03
             515     12.8101E-03     73.8831E-03    -18.5014E+06     19.9833E+06     6.64184E+06     282.961E+03    -53.7864E-03     106.274E-03    -52.4880E-03     95.4214E-03    -54.6893E-03     107.163E-03    -52.4570E-03     94.3949E-03
             516     13.6643E-03     73.9796E-03    -16.4488E+06     79.2936E+06     22.1131E+06     307.911E+03    -53.5631E-03     106.019E-03    -52.4564E-03     99.6106E-03    -54.7754E-03     107.391E-03    -52.4370E-03     98.5236E-03
             517     14.5187E-03     74.0812E-03    -13.3231E+06     116.761E+06     51.5731E+06     367.549E+03    -52.9125E-03     105.432E-03    -52.5196E-03     90.9431E-03    -54.2376E-03     106.975E-03    -52.4118E-03     89.9291E-03
             518     15.3732E-03     74.1604E-03    -9.09435E+06     123.916E+06     74.5582E+06     486.820E+03    -52.1076E-03     104.699E-03    -52.5911E-03     72.9666E-03    -53.3666E-03     106.149E-03    -52.3848E-03     72.0876E-03
             519     16.2277E-03     74.2260E-03    -4.46214E+06     126.700E+06     83.7259E+06     465.660E+03    -51.6272E-03     104.228E-03    -52.6008E-03     38.3295E-03    -52.5082E-03     105.300E-03    -52.3594E-03     37.6825E-03
             520     853.834E-06     74.0881E-03    -64.4560E+06    -174.526E+06    -63.0173E+06     197.460E+03    -52.7137E-03     105.367E-03    -52.6530E-03     9.92623E-03    -52.6930E-03     104.680E-03    -52.6216E-03     9.89609E-03
             521     1.70771E-03     74.1020E-03    -62.2011E+06    -171.805E+06    -55.9690E+06     138.254E+03    -52.7290E-03     105.425E-03    -52.6963E-03     18.1626E-03    -52.7145E-03     104.742E-03    -52.6368E-03     18.1027E-03
             522     2.56158E-03     74.1245E-03    -58.5558E+06    -166.143E+06    -45.8836E+06     110.396E+03    -52.7948E-03     105.517E-03    -52.7224E-03     26.6795E-03    -52.7908E-03     104.849E-03    -52.6260E-03     26.5858E-03
             523     3.41549E-03     74.1554E-03    -54.1101E+06    -158.463E+06    -35.3334E+06     76.0388E+03    -52.8903E-03     105.635E-03    -52.7443E-03     35.0095E-03    -52.8994E-03     104.992E-03    -52.6127E-03     34.8773E-03
             524     4.26942E-03     74.1945E-03    -49.4555E+06    -148.119E+06    -26.2341E+06     93.4907E+03    -53.0106E-03     105.764E-03    -52.7533E-03     43.0477E-03    -53.0374E-03     105.165E-03    -52.5980E-03     42.8720E-03
             525     5.12339E-03     74.2415E-03    -44.9011E+06    -136.062E+06    -17.9993E+06     196.784E+03    -53.1500E-03     105.905E-03    -52.7547E-03     50.7424E-03    -53.2012E-03     105.366E-03    -52.5823E-03     50.5182E-03
             526     5.97738E-03     74.2959E-03    -40.5223E+06    -126.156E+06    -10.6125E+06     221.361E+03    -53.3131E-03     106.068E-03    -52.7552E-03     58.0264E-03    -53.3910E-03     105.585E-03    -52.5666E-03     57.7454E-03
             527     6.83140E-03     74.3574E-03    -36.4406E+06    -115.161E+06    -5.64657E+06      196.88E+03    -53.4844E-03     106.228E-03    -52.7431E-03     64.8561E-03    -53.5960E-03     105.817E-03    -52.5515E-03     64.5102E-03
             528     7.68543E-03     74.4255E-03    -32.7832E+06    -104.227E+06    -1.93008E+06     199.757E+03    -53.6546E-03     106.381E-03    -52.7262E-03     71.1764E-03    -53.8090E-03     106.054E-03    -52.5372E-03     70.7574E-03
             529     8.53949E-03     74.4996E-03    -29.5654E+06    -93.6880E+06     277.844E+03     215.346E+03    -53.8162E-03     106.520E-03    -52.7038E-03     76.9400E-03    -54.0242E-03     106.290E-03    -52.5237E-03     76.4394E-03
             530     9.39355E-03     74.5791E-03    -26.7679E+06    -79.9626E+06     1.84102E+06     232.330E+03    -53.9444E-03     106.619E-03    -52.6748E-03     82.1238E-03    -54.2259E-03     106.517E-03    -52.5109E-03     81.5327E-03
             531     10.2476E-03     74.6634E-03    -24.3137E+06    -65.2601E+06     3.48824E+06     248.787E+03    -54.0299E-03     106.675E-03    -52.6456E-03     86.5848E-03    -54.4057E-03     106.723E-03    -52.4983E-03     85.8947E-03
             532     11.1017E-03     74.7517E-03    -22.1791E+06    -47.4285E+06     3.62188E+06     266.953E+03    -54.0465E-03     106.651E-03    -52.6047E-03     90.0286E-03    -54.5426E-03     106.890E-03    -52.4857E-03     89.2315E-03
             533     11.9559E-03     74.8428E-03    -20.3073E+06    -21.0789E+06     4.84600E+06     279.425E+03    -53.9604E-03     106.517E-03    -52.5567E-03     92.6116E-03    -54.6231E-03     107.019E-03    -52.4725E-03     91.7010E-03
             534     12.8101E-03     74.9360E-03    -18.5906E+06     19.9514E+06     6.56430E+06     287.682E+03    -53.7870E-03     106.275E-03    -52.4880E-03     95.4248E-03    -54.6902E-03     107.164E-03    -52.4571E-03     94.3984E-03
             535     13.6643E-03     75.0325E-03    -16.5636E+06     79.2424E+06     22.0239E+06     291.775E+03    -53.5636E-03     106.020E-03    -52.4564E-03     99.6133E-03    -54.7764E-03     107.391E-03    -52.4372E-03     98.5260E-03
             536     14.5187E-03     75.1341E-03    -13.4410E+06     116.631E+06     51.4571E+06     336.876E+03    -52.9127E-03     105.432E-03    -52.5197E-03     90.9451E-03    -54.2381E-03     106.975E-03    -52.4120E-03     89.9307E-03
             537     15.3732E-03     75.2133E-03    -9.19418E+06     123.656E+06     74.4065E+06     486.797E+03    -52.1075E-03     104.699E-03    -52.5911E-03     72.9684E-03    -53.3664E-03     106.148E-03    -52.3851E-03     72.0894E-03
             538     16.2277E-03     75.2790E-03    -4.53525E+06     126.952E+06     83.7815E+06     457.752E+03    -51.6241E-03     104.225E-03    -52.6010E-03     38.3311E-03    -52.5059E-03     105.299E-03    -52.3596E-03     37.6841E-03
             539     853.847E-06     75.1410E-03    -64.4327E+06    -174.677E+06    -63.1177E+06    -93.8588E+03    -52.7154E-03     105.370E-03    -52.6542E-03     9.92910E-03    -52.6943E-03     104.683E-03    -52.6231E-03     9.89517E-03
             540     1.70769E-03     75.1549E-03    -62.0612E+06    -171.959E+06    -56.0026E+06     130.880E+03    -52.7305E-03     105.428E-03    -52.6974E-03     18.1641E-03    -52.7151E-03     104.744E-03    -52.6380E-03     18.1042E-03
             541     2.56158E-03     75.1773E-03    -58.4730E+06    -166.156E+06    -45.9828E+06     154.573E+03    -52.7957E-03     105.518E-03    -52.7227E-03     26.6805E-03    -52.7910E-03     104.850E-03    -52.6269E-03     26.5874E-03
             542     3.41548E-03     75.2083E-03    -54.0765E+06    -158.404E+06    -35.3821E+06     83.6317E+03    -52.8905E-03     105.635E-03    -52.7447E-03     35.0105E-03    -52.8994E-03     104.992E-03    -52.6135E-03     34.8784E-03
             543     4.26942E-03     75.2474E-03    -49.4248E+06    -148.276E+06    -26.0885E+06     119.867E+03    -53.0109E-03     105.766E-03    -52.7548E-03     43.0481E-03    -53.0376E-03     105.166E-03    -52.5986E-03     42.8728E-03
             544     5.12338E-03     75.2943E-03    -44.8668E+06    -136.216E+06    -17.8781E+06     217.883E+03    -53.1504E-03     105.906E-03    -52.7560E-03     50.7423E-03    -53.2013E-03     105.366E-03    -52.5828E-03     50.5184E-03
             545     5.97738E-03     75.3488E-03    -40.4911E+06    -126.113E+06    -10.6863E+06     209.773E+03    -53.3131E-03     106.068E-03    -52.7552E-03     58.0262E-03    -53.3908E-03     105.586E-03    -52.5671E-03     57.7452E-03
             546     6.83139E-03     75.4103E-03    -36.4327E+06    -115.194E+06    -5.73190E+06     173.953E+03    -53.4845E-03     106.228E-03    -52.7431E-03     64.8563E-03    -53.5959E-03     105.817E-03    -52.5519E-03     64.5100E-03
             547     7.68543E-03     75.4784E-03    -32.7952E+06    -104.272E+06    -2.01539E+06     189.035E+03    -53.6546E-03     106.381E-03    -52.7262E-03     71.1770E-03    -53.8090E-03     106.054E-03    -52.5375E-03     70.7578E-03
             548     8.53948E-03     75.5524E-03    -29.5936E+06    -93.7360E+06     192.358E+03     206.025E+03    -53.8162E-03     106.520E-03    -52.7038E-03     76.9409E-03    -54.0242E-03     106.290E-03    -52.5240E-03     76.4402E-03
             549     9.39355E-03     75.6320E-03    -26.8040E+06    -80.0146E+06     1.75748E+06     227.785E+03    -53.9445E-03     106.619E-03    -52.6748E-03     82.1250E-03    -54.2260E-03     106.516E-03    -52.5111E-03     81.5338E-03
             550     10.2476E-03     75.7163E-03    -24.3536E+06    -65.3157E+06     3.40859E+06     257.841E+03    -54.0301E-03     106.676E-03    -52.6456E-03     86.5864E-03    -54.4059E-03     106.723E-03    -52.4985E-03     85.8964E-03
             551     11.1018E-03     75.8046E-03    -22.2188E+06    -47.4790E+06     3.54699E+06     286.216E+03    -54.0469E-03     106.652E-03    -52.6047E-03     90.0310E-03    -54.5430E-03     106.890E-03    -52.4859E-03     89.2341E-03
             552     11.9559E-03     75.8957E-03    -20.3552E+06    -21.1143E+06     4.77413E+06     305.463E+03    -53.9609E-03     106.518E-03    -52.5567E-03     92.6147E-03    -54.6236E-03     107.019E-03    -52.4727E-03     91.7044E-03
             553     12.8101E-03     75.9889E-03    -18.6585E+06     19.9119E+06     6.48671E+06     322.564E+03    -53.7874E-03     106.275E-03    -52.4880E-03     95.4281E-03    -54.6908E-03     107.164E-03    -52.4574E-03     94.4022E-03
             554     13.6643E-03     76.0854E-03    -16.6750E+06     79.2219E+06     21.9397E+06     334.661E+03    -53.5639E-03     106.020E-03    -52.4564E-03     99.6162E-03    -54.7771E-03     107.392E-03    -52.4374E-03     98.5295E-03
             555     14.5187E-03     76.1871E-03    -13.6100E+06     116.568E+06     51.3422E+06     321.854E+03    -52.9128E-03     105.432E-03    -52.5197E-03     90.9473E-03    -54.2387E-03     106.975E-03    -52.4123E-03     89.9326E-03
             556     15.3732E-03     76.2662E-03    -9.31040E+06     123.407E+06     74.2495E+06     376.435E+03    -52.1074E-03     104.699E-03    -52.5912E-03     72.9701E-03    -53.3663E-03     106.147E-03    -52.3854E-03     72.0897E-03
             557     16.2277E-03     76.3319E-03    -4.52514E+06     127.159E+06     83.8473E+06     376.511E+03    -51.6211E-03     104.222E-03    -52.6012E-03     38.3324E-03    -52.5032E-03     105.297E-03    -52.3598E-03     37.6843E-03
             558     853.839E-06     76.1939E-03    -64.6747E+06    -174.561E+06    -62.7382E+06    -203.480E+03    -52.7151E-03     105.368E-03    -52.6527E-03     9.92956E-03    -52.6959E-03     104.681E-03    -52.6195E-03     9.89420E-03
             559     1.70770E-03     76.2078E-03    -62.1469E+06    -172.326E+06    -55.6466E+06     63.4036E+03    -52.7334E-03     105.433E-03    -52.6997E-03     18.1650E-03    -52.7183E-03     104.747E-03    -52.6379E-03     18.1042E-03
             560     2.56157E-03     76.2302E-03    -58.4149E+06    -166.141E+06    -45.9907E+06     175.072E+03    -52.7967E-03     105.520E-03    -52.7233E-03     26.6812E-03    -52.7918E-03     104.851E-03    -52.6277E-03     26.5883E-03
             561     3.41548E-03     76.2612E-03    -54.0744E+06    -158.393E+06    -35.4491E+06     153.554E+03    -52.8908E-03     105.636E-03    -52.7450E-03     35.0110E-03    -52.8996E-03     104.993E-03    -52.6142E-03     34.8798E-03
             562     4.26941E-03     76.3003E-03    -49.4682E+06    -148.419E+06    -25.9207E+06     174.922E+03    -53.0117E-03     105.768E-03    -52.7566E-03     43.0490E-03    -53.0386E-03     105.168E-03    -52.5992E-03     42.8744E-03
             563     5.12338E-03     76.3472E-03    -44.8718E+06    -136.328E+06    -17.7510E+06     217.884E+03    -53.1511E-03     105.909E-03    -52.7575E-03     50.7433E-03    -53.2021E-03     105.368E-03    -52.5835E-03     50.5195E-03
             564     5.97737E-03     76.4017E-03    -40.4767E+06    -126.057E+06    -10.7842E+06     197.647E+03    -53.3133E-03     106.069E-03    -52.7553E-03     58.0271E-03    -53.3908E-03     105.586E-03    -52.5677E-03     57.7459E-03
             565     6.83139E-03     76.4632E-03    -36.4415E+06    -115.231E+06    -5.84618E+06     171.155E+03    -53.4848E-03     106.228E-03    -52.7432E-03     64.8572E-03    -53.5959E-03     105.818E-03    -52.5525E-03     64.5108E-03
             566     7.68543E-03     76.5313E-03    -32.8247E+06    -104.317E+06    -2.12280E+06     180.539E+03    -53.6549E-03     106.381E-03    -52.7263E-03     71.1778E-03    -53.8092E-03     106.055E-03    -52.5380E-03     70.7586E-03
             567     8.53948E-03     76.6054E-03    -29.6251E+06    -93.7836E+06     92.6018E+03     197.413E+03    -53.8165E-03     106.520E-03    -52.7039E-03     76.9418E-03    -54.0244E-03     106.290E-03    -52.5245E-03     76.4410E-03
             568     9.39354E-03     76.6849E-03    -26.8386E+06    -80.0744E+06     1.65987E+06     222.031E+03    -53.9447E-03     106.620E-03    -52.6749E-03     82.1263E-03    -54.2262E-03     106.517E-03    -52.5116E-03     81.5350E-03
             569     10.2476E-03     76.7692E-03    -24.3845E+06    -65.3884E+06     3.31352E+06     258.010E+03    -54.0304E-03     106.676E-03    -52.6457E-03     86.5883E-03    -54.4061E-03     106.723E-03    -52.4989E-03     85.8983E-03
             570     11.1017E-03     76.8575E-03    -22.2403E+06    -47.5399E+06     3.46205E+06     295.346E+03    -54.0471E-03     106.652E-03    -52.6048E-03     90.0336E-03    -54.5431E-03     106.890E-03    -52.4863E-03     89.2368E-03
             571     11.9559E-03     76.9486E-03    -20.3665E+06    -21.1784E+06     4.69815E+06     336.162E+03    -53.9610E-03     106.518E-03    -52.5568E-03     92.6176E-03    -54.6236E-03     107.019E-03    -52.4731E-03     91.7078E-03
             572     12.8101E-03     77.0419E-03    -18.6645E+06     19.8600E+06     6.42213E+06     374.820E+03    -53.7875E-03     106.276E-03    -52.4881E-03     95.4311E-03    -54.6908E-03     107.165E-03    -52.4577E-03     94.4058E-03
             573     13.6643E-03     77.1384E-03    -16.6729E+06     79.1617E+06     21.8825E+06     420.023E+03    -53.5640E-03     106.021E-03    -52.4565E-03     99.6189E-03    -54.7771E-03     107.392E-03    -52.4377E-03     98.5332E-03
             574     14.5187E-03     77.2400E-03    -13.6558E+06     116.608E+06     51.3022E+06     420.803E+03    -52.9131E-03     105.433E-03    -52.5198E-03     90.9490E-03    -54.2393E-03     106.976E-03    -52.4126E-03     89.9356E-03
             575     15.3732E-03     77.3192E-03    -9.52973E+06     123.389E+06     74.1367E+06     312.745E+03    -52.1075E-03     104.699E-03    -52.5912E-03     72.9708E-03    -53.3673E-03     106.148E-03    -52.3857E-03     72.0896E-03
             576     16.2277E-03     77.3848E-03    -4.80900E+06     127.300E+06     83.8152E+06     165.795E+03    -51.6171E-03     104.219E-03    -52.6015E-03     38.3331E-03    -52.5008E-03     105.294E-03    -52.3600E-03     37.6823E-03
             577     853.855E-06     77.2468E-03    -65.3110E+06    -174.428E+06    -63.3352E+06     22.7466E+03    -52.7121E-03     105.362E-03    -52.6500E-03     9.92894E-03    -52.6954E-03     104.678E-03    -52.6191E-03     9.89653E-03
             578     1.70769E-03     77.2607E-03     -62.644E+06    -172.539E+06    -55.8877E+06    -17.7421E+03    -52.7328E-03     105.432E-03    -52.6994E-03     18.1657E-03    -52.7196E-03     104.746E-03    -52.6378E-03     18.1038E-03
             579     2.56158E-03     77.2831E-03    -58.7673E+06    -166.301E+06    -46.0811E+06     112.080E+03    -52.7970E-03     105.521E-03    -52.7240E-03     26.6818E-03    -52.7934E-03     104.852E-03    -52.6281E-03     26.5881E-03
             580     3.41548E-03     77.3140E-03    -54.2804E+06    -158.464E+06    -35.5184E+06     224.128E+03    -52.8912E-03     105.637E-03    -52.7457E-03     35.0111E-03    -52.9009E-03     104.994E-03    -52.6148E-03     34.8807E-03
             581     4.26942E-03     77.3532E-03    -49.6118E+06    -148.478E+06    -26.0806E+06     224.323E+03    -53.0121E-03     105.769E-03    -52.7568E-03     43.0494E-03    -53.0394E-03     105.169E-03    -52.6000E-03     42.8755E-03
             582     5.12338E-03     77.4001E-03    -44.9955E+06    -136.351E+06    -17.9389E+06     173.039E+03    -53.1514E-03     105.909E-03    -52.7575E-03     50.7443E-03    -53.2027E-03     105.368E-03    -52.5843E-03     50.5198E-03
             583     5.97737E-03     77.4546E-03    -40.5801E+06    -126.068E+06    -10.9379E+06     158.098E+03    -53.3137E-03     106.069E-03    -52.7554E-03     58.0278E-03    -53.3915E-03     105.587E-03    -52.5684E-03     57.7461E-03
             584     6.83138E-03     77.5161E-03    -36.5260E+06    -115.249E+06    -5.98675E+06     159.730E+03    -53.4853E-03     106.229E-03    -52.7433E-03     64.8576E-03    -53.5966E-03     105.818E-03    -52.5532E-03     64.5111E-03
             585     7.68542E-03     77.5842E-03    -32.8901E+06    -104.353E+06    -2.25415E+06     152.535E+03    -53.6554E-03     106.382E-03    -52.7265E-03     71.1782E-03    -53.8097E-03     106.055E-03    -52.5387E-03     70.7586E-03
             586     8.53947E-03     77.6583E-03    -29.6722E+06    -93.8341E+06    -29.5257E+03     165.410E+03    -53.8169E-03     106.521E-03    -52.7041E-03     76.9425E-03    -54.0248E-03     106.291E-03    -52.5251E-03     76.4412E-03
             587     9.39354E-03     77.7378E-03    -26.8638E+06    -80.1452E+06     1.54775E+06     198.798E+03    -53.9452E-03     106.620E-03    -52.6751E-03     82.1272E-03    -54.2265E-03     106.517E-03    -52.5122E-03     81.5357E-03
             588     10.2476E-03     77.8221E-03    -24.3943E+06    -65.4636E+06     3.21224E+06     238.694E+03    -54.0308E-03     106.677E-03    -52.6459E-03     86.5900E-03    -54.4063E-03     106.724E-03    -52.4995E-03     85.8997E-03
             589     11.1017E-03     77.9104E-03    -22.2390E+06    -47.6263E+06     3.36838E+06     287.705E+03    -54.0474E-03     106.652E-03    -52.6051E-03     90.0359E-03    -54.5431E-03     106.890E-03    -52.4869E-03     89.2390E-03
             590     11.9559E-03     78.0015E-03    -20.3502E+06    -21.2676E+06     4.61754E+06     343.315E+03    -53.9611E-03     106.518E-03    -52.5570E-03     92.6203E-03    -54.6234E-03     107.019E-03    -52.4736E-03     91.7104E-03
             591     12.8101E-03     78.0948E-03    -18.6170E+06     19.7728E+06     6.35974E+06     400.747E+03    -53.7873E-03     106.276E-03    -52.4883E-03     95.4337E-03    -54.6902E-03     107.164E-03    -52.4581E-03     94.4087E-03
             592     13.6643E-03     78.1913E-03    -16.5618E+06     79.0762E+06     21.8519E+06     447.921E+03    -53.5637E-03     106.020E-03    -52.4567E-03     99.6212E-03    -54.7760E-03     107.391E-03    -52.4381E-03     98.5359E-03
             593     14.5187E-03     78.2929E-03    -13.4341E+06     116.543E+06     51.3230E+06     524.945E+03    -52.9128E-03     105.433E-03    -52.5199E-03     90.9519E-03    -54.2379E-03     106.975E-03    -52.4128E-03     89.9399E-03
             594     15.3732E-03     78.3721E-03    -9.20660E+06     123.702E+06     74.3085E+06     394.537E+03    -52.1072E-03     104.699E-03    -52.5913E-03     72.9749E-03    -53.3662E-03     106.148E-03    -52.3858E-03     72.0947E-03
             595     16.2277E-03     78.4378E-03    -4.53610E+06     127.603E+06     83.8952E+06     21.1663E+03    -51.6207E-03     104.222E-03    -52.6012E-03     38.3369E-03    -52.5036E-03     105.298E-03    -52.3602E-03     37.6842E-03
             596     853.836E-06     78.2997E-03    -65.5204E+06    -174.411E+06    -63.8329E+06     57.1415E+03    -52.7116E-03     105.362E-03    -52.6501E-03     9.93009E-03    -52.6952E-03     104.679E-03    -52.6214E-03     9.89812E-03
             597     1.70770E-03     78.3136E-03    -63.0111E+06    -172.490E+06    -56.3921E+06    -53.3551E+03    -52.7311E-03     105.429E-03    -52.6981E-03     18.1666E-03    -52.7190E-03     104.745E-03    -52.6386E-03     18.1042E-03
             598     2.56157E-03     78.3360E-03    -59.1840E+06    -166.538E+06    -46.2578E+06     7.73275E+03    -52.7972E-03     105.522E-03    -52.7247E-03     26.6826E-03    -52.7952E-03     104.853E-03    -52.6287E-03     26.5875E-03
             599     3.41548E-03     78.3669E-03    -54.5807E+06    -158.653E+06    -35.6732E+06     161.382E+03    -52.8919E-03     105.639E-03    -52.7466E-03     35.0115E-03    -52.9026E-03     104.996E-03    -52.6157E-03     34.8804E-03
             600     4.26941E-03     78.4060E-03    -49.7918E+06    -148.458E+06    -26.4226E+06     194.474E+03    -53.0123E-03     105.769E-03    -52.7563E-03     43.0499E-03    -53.0401E-03     105.169E-03    -52.6010E-03     42.8756E-03
             601     5.12338E-03     78.4530E-03    -45.1601E+06    -136.291E+06    -18.2967E+06     110.271E+03    -53.1517E-03     105.908E-03    -52.7568E-03     50.7447E-03    -53.2033E-03     105.369E-03    -52.5852E-03     50.5195E-03
             602     5.97736E-03     78.5075E-03    -40.7542E+06    -126.128E+06    -11.1378E+06     83.5406E+03    -53.3144E-03     106.070E-03    -52.7557E-03     58.0280E-03    -53.3927E-03     105.588E-03    -52.5694E-03     57.7453E-03
             603     6.83138E-03     78.5690E-03    -36.6591E+06    -115.251E+06    -6.15432E+06     88.9862E+03    -53.4860E-03     106.230E-03    -52.7437E-03     64.8577E-03    -53.5978E-03     105.820E-03    -52.5542E-03     64.5103E-03
             604     7.68541E-03     78.6371E-03    -32.9762E+06    -104.375E+06    -2.40958E+06     79.7888E+03    -53.6561E-03     106.383E-03    -52.7268E-03     71.1784E-03    -53.8106E-03     106.057E-03    -52.5397E-03     70.7578E-03
             605     8.53947E-03     78.7112E-03    -29.7265E+06    -93.8881E+06    -174.623E+03     94.5391E+03    -53.8176E-03     106.522E-03    -52.7045E-03     76.9426E-03    -54.0255E-03     106.292E-03    -52.5261E-03     76.4404E-03
             606     9.39353E-03     78.7907E-03    -26.8906E+06    -80.2240E+06     1.41467E+06     131.705E+03    -53.9457E-03     106.621E-03    -52.6755E-03     82.1277E-03    -54.2269E-03     106.518E-03    -52.5131E-03     81.5352E-03
             607     10.2476E-03     78.8750E-03    -24.3921E+06    -65.5543E+06     3.09482E+06     187.920E+03    -54.0312E-03     106.678E-03    -52.6463E-03     86.5908E-03    -54.4064E-03     106.724E-03    -52.5004E-03     85.8999E-03
             608     11.1017E-03     78.9633E-03    -22.2144E+06    -47.7308E+06     3.26533E+06     252.316E+03    -54.0476E-03     106.653E-03    -52.6055E-03     90.0372E-03    -54.5429E-03     106.891E-03    -52.4877E-03     89.2399E-03
             609     11.9559E-03     79.0544E-03    -20.3057E+06    -21.3760E+06     4.52910E+06     320.248E+03    -53.9610E-03     106.518E-03    -52.5574E-03     92.6222E-03    -54.6228E-03     107.019E-03    -52.4743E-03     91.7121E-03
             610     12.8100E-03     79.1477E-03    -18.5485E+06     19.6773E+06     6.29145E+06     374.091E+03    -53.7869E-03     106.275E-03    -52.4886E-03     95.4355E-03    -54.6892E-03     107.164E-03    -52.4587E-03     94.4102E-03
             611     13.6643E-03     79.2442E-03    -16.4621E+06     79.0167E+06     21.8103E+06     392.002E+03    -53.5630E-03     106.020E-03    -52.4569E-03     99.6229E-03    -54.7747E-03     107.390E-03    -52.4386E-03     98.5369E-03
             612     14.5187E-03     79.3459E-03    -13.1931E+06     116.440E+06     51.3255E+06     377.257E+03    -52.9117E-03     105.432E-03    -52.5201E-03     90.9532E-03    -54.2355E-03     106.973E-03    -52.4132E-03     89.9392E-03
             613     15.3732E-03     79.4250E-03    -8.74118E+06     123.971E+06     74.5014E+06     306.353E+03    -52.1064E-03     104.698E-03    -52.5914E-03     72.9744E-03    -53.3637E-03     106.148E-03    -52.3860E-03     72.0931E-03
             614     16.2277E-03     79.4907E-03    -4.13212E+06     127.923E+06     84.0022E+06     175.236E+03    -51.6253E-03     104.226E-03    -52.6009E-03     38.3351E-03    -52.5068E-03     105.304E-03    -52.3604E-03     37.6844E-03
             615     853.849E-06     79.3526E-03    -65.4895E+06    -174.388E+06    -63.8001E+06    -29.7509E+03    -52.7136E-03     105.365E-03    -52.6517E-03     9.93060E-03    -52.6971E-03     104.682E-03    -52.6228E-03     9.89748E-03
             616     1.70769E-03     79.3665E-03    -63.0048E+06    -172.434E+06    -56.4577E+06    -1.37392E+03    -52.7322E-03     105.431E-03    -52.6992E-03     18.1665E-03    -52.7201E-03     104.747E-03    -52.6401E-03     18.1047E-03
             617     2.56157E-03     79.3889E-03    -59.2953E+06    -166.665E+06    -46.4276E+06     15.0769E+03    -52.7981E-03     105.524E-03    -52.7256E-03     26.6823E-03    -52.7962E-03     104.854E-03    -52.6301E-03     26.5874E-03
             618     3.41547E-03     79.4198E-03    -54.7858E+06    -158.798E+06    -35.8699E+06     46.6378E+03    -52.8929E-03     105.640E-03    -52.7474E-03     35.0115E-03    -52.9041E-03     104.997E-03    -52.6171E-03     34.8788E-03
             619     4.26941E-03     79.4589E-03    -49.9967E+06    -148.446E+06    -26.7442E+06     59.1112E+03    -53.0130E-03     105.769E-03    -52.7563E-03     43.0500E-03    -53.0413E-03     105.171E-03    -52.6023E-03     42.8739E-03
             620     5.12336E-03     79.5059E-03    -45.3378E+06    -136.214E+06    -18.6271E+06     21.6141E+03    -53.1523E-03     105.909E-03    -52.7566E-03     50.7445E-03    -53.2045E-03     105.371E-03    -52.5865E-03     50.5181E-03
             621     5.97736E-03     79.5604E-03    -40.9071E+06    -126.139E+06    -11.3614E+06    -26.4074E+03    -53.3153E-03     106.071E-03    -52.7561E-03     58.0277E-03    -53.3941E-03     105.590E-03    -52.5707E-03     57.7435E-03
             622     6.83137E-03     79.6219E-03    -36.7834E+06    -115.249E+06    -6.35596E+06    -46.2118E+03    -53.4869E-03     106.231E-03    -52.7442E-03     64.8575E-03    -53.5990E-03     105.822E-03    -52.5555E-03     64.5083E-03
             623     7.68541E-03     79.6900E-03    -33.0683E+06    -104.391E+06    -2.59639E+06    -46.1970E+03    -53.6570E-03     106.384E-03    -52.7273E-03     71.1782E-03    -53.8117E-03     106.059E-03    -52.5410E-03     70.7560E-03
             624     8.53945E-03     79.7641E-03    -29.7857E+06    -93.9389E+06    -349.709E+03    -27.9338E+03    -53.8184E-03     106.523E-03    -52.7050E-03     76.9425E-03    -54.0263E-03     106.293E-03    -52.5274E-03     76.4387E-03
             625     9.39352E-03     79.8436E-03    -26.9187E+06    -80.3077E+06     1.25124E+06     17.2419E+03    -53.9464E-03     106.622E-03    -52.6761E-03     82.1279E-03    -54.2273E-03     106.519E-03    -52.5144E-03     81.5340E-03
             626     10.2476E-03     79.9279E-03    -24.3928E+06     -65.668E+06     2.94308E+06     86.8445E+03    -54.0315E-03     106.678E-03    -52.6469E-03     86.5917E-03    -54.4064E-03     106.725E-03    -52.5016E-03     85.8994E-03
             627     11.1017E-03     80.0163E-03    -22.1858E+06    -47.8582E+06     3.13250E+06     176.077E+03    -54.0476E-03     106.654E-03    -52.6060E-03     90.0387E-03    -54.5424E-03     106.891E-03    -52.4887E-03     89.2403E-03
             628     11.9558E-03     80.1073E-03    -20.2573E+06    -21.4993E+06     4.41672E+06     262.909E+03    -53.9608E-03     106.519E-03    -52.5579E-03     92.6241E-03    -54.6220E-03     107.019E-03    -52.4752E-03     91.7133E-03
             629     12.8100E-03     80.2006E-03    -18.5012E+06     19.5885E+06     6.19983E+06     327.148E+03    -53.7863E-03     106.275E-03    -52.4890E-03     95.4375E-03    -54.6882E-03     107.163E-03    -52.4595E-03     94.4116E-03
             630     13.6643E-03     80.2971E-03    -16.4521E+06     79.0084E+06     21.7358E+06     330.246E+03    -53.5619E-03     106.019E-03    -52.4572E-03     99.6247E-03    -54.7734E-03     107.390E-03    -52.4392E-03     98.5379E-03
             631     14.5187E-03     80.3988E-03    -13.3193E+06     116.589E+06     51.2552E+06     167.600E+03    -52.9104E-03     105.431E-03    -52.5203E-03     90.9552E-03    -54.2350E-03     106.973E-03    -52.4137E-03     89.9385E-03
             632     15.3732E-03     80.4780E-03    -9.09163E+06     123.846E+06     74.2838E+06     165.129E+03    -52.1054E-03     104.697E-03    -52.5916E-03     72.9756E-03    -53.3640E-03     106.148E-03    -52.3865E-03     72.0924E-03
             633     16.2277E-03     80.5436E-03    -4.47681E+06     127.955E+06     83.9271E+06     334.554E+03    -51.6186E-03     104.220E-03    -52.6014E-03     38.3353E-03    -52.5018E-03     105.298E-03    -52.3608E-03     37.6867E-03
             634     853.836E-06     80.4055E-03    -65.9170E+06    -174.283E+06    -64.1471E+06    -90.1772E+03    -52.7146E-03     105.367E-03    -52.6522E-03     9.92942E-03    -52.7000E-03     104.686E-03    -52.6246E-03     9.89552E-03
             635     1.70770E-03     80.4194E-03    -63.3136E+06    -172.505E+06    -56.7265E+06    -36.4286E+03    -52.7338E-03     105.435E-03    -52.7008E-03     18.1653E-03    -52.7227E-03     104.751E-03    -52.6425E-03     18.1031E-03
             636     2.56156E-03     80.4418E-03    -59.4414E+06    -166.688E+06    -46.6903E+06     20.8874E+03    -52.7992E-03     105.526E-03    -52.7268E-03     26.6810E-03    -52.7976E-03     104.857E-03    -52.6324E-03     26.5861E-03
             637     3.41547E-03     80.4727E-03    -54.8939E+06    -158.749E+06    -36.0854E+06    -44.0010E+03    -52.8938E-03     105.642E-03    -52.7485E-03     35.0103E-03    -52.9053E-03     105.000E-03    -52.6191E-03     34.8765E-03
             638     4.26939E-03     80.5118E-03    -50.1210E+06    -148.446E+06    -26.8085E+06    -96.4407E+03    -53.0144E-03     105.773E-03    -52.7582E-03     43.0492E-03    -53.0432E-03     105.174E-03    -52.6043E-03     42.8711E-03
             639     5.12336E-03     80.5588E-03    -45.4539E+06    -136.159E+06    -18.7601E+06    -109.541E+03    -53.1536E-03     105.912E-03    -52.7580E-03     50.7436E-03    -53.2062E-03     105.374E-03    -52.5885E-03     50.5155E-03
             640     5.97734E-03     80.6133E-03    -41.0175E+06    -126.062E+06    -11.6063E+06    -161.957E+03    -53.3163E-03     106.073E-03    -52.7568E-03     58.0266E-03    -53.3954E-03     105.593E-03    -52.5726E-03     57.7407E-03
             641     6.83136E-03     80.6748E-03    -36.8979E+06    -115.218E+06    -6.59751E+06    -215.926E+03    -53.4880E-03     106.233E-03    -52.7449E-03     64.8564E-03    -53.6003E-03     105.824E-03    -52.5573E-03     64.5050E-03
             642     7.68539E-03     80.7429E-03    -33.1632E+06    -104.391E+06    -2.82502E+06    -231.406E+03    -53.6580E-03     106.386E-03    -52.7281E-03     71.1771E-03    -53.8128E-03     106.061E-03    -52.5428E-03     70.7525E-03
             643     8.53944E-03     80.8170E-03    -29.8439E+06    -93.9848E+06    -564.843E+03    -209.368E+03    -53.8192E-03     106.525E-03    -52.7058E-03     76.9415E-03    -54.0270E-03     106.295E-03    -52.5291E-03     76.4353E-03
             644     9.39350E-03     80.8965E-03    -26.9438E+06    -80.3974E+06     1.05001E+06    -151.586E+03    -53.9469E-03     106.624E-03    -52.6769E-03     82.1274E-03    -54.2276E-03     106.520E-03    -52.5160E-03     81.5312E-03
             645     10.2476E-03     80.9808E-03    -24.3910E+06    -65.7987E+06     2.75536E+06    -61.3524E+03    -54.0317E-03     106.679E-03    -52.6476E-03     86.5918E-03    -54.4061E-03     106.725E-03    -52.5030E-03     85.8976E-03
             646     11.1017E-03     81.0692E-03    -22.1634E+06    -48.0145E+06     2.95935E+06     50.4581E+03    -54.0474E-03     106.654E-03    -52.6066E-03     90.0396E-03    -54.5416E-03     106.891E-03    -52.4901E-03     89.2396E-03
             647     11.9558E-03     81.1602E-03    -20.2174E+06    -21.6557E+06     4.26532E+06     174.795E+03    -53.9602E-03     106.519E-03    -52.5584E-03     92.6257E-03    -54.6208E-03     107.018E-03    -52.4764E-03     91.7137E-03
             648     12.8100E-03     81.2536E-03    -18.4697E+06     19.4635E+06     6.06843E+06     291.001E+03    -53.7854E-03     106.275E-03    -52.4894E-03     95.4390E-03    -54.6867E-03     107.162E-03    -52.4605E-03     94.4127E-03
             649     13.6643E-03     81.3501E-03    -16.4686E+06     79.0144E+06     21.6304E+06     337.863E+03    -53.5604E-03     106.018E-03    -52.4575E-03     99.6260E-03    -54.7719E-03     107.389E-03    -52.4401E-03     98.5393E-03
             650     14.5187E-03     81.4517E-03    -13.5487E+06     116.795E+06     51.1501E+06     302.140E+03    -52.9086E-03     105.429E-03    -52.5205E-03     90.9574E-03    -54.2344E-03     106.973E-03    -52.4145E-03     89.9426E-03
             651     15.3732E-03     81.5309E-03    -9.56019E+06     123.701E+06     74.0074E+06     250.550E+03    -52.1033E-03     104.695E-03    -52.5917E-03     72.9788E-03    -53.3636E-03     106.146E-03    -52.3872E-03     72.0968E-03
             652     16.2277E-03     81.5966E-03    -4.86077E+06     127.957E+06     83.8207E+06     173.237E+03    -51.6112E-03     104.213E-03    -52.6019E-03     38.3372E-03    -52.4962E-03     105.292E-03    -52.3612E-03     37.6865E-03
             653     853.842E-06     81.4584E-03    -66.0596E+06    -174.054E+06    -64.3194E+06    -136.168E+03    -52.7168E-03     105.372E-03    -52.6550E-03     9.92899E-03    -52.7030E-03     104.692E-03    -52.6284E-03     9.89450E-03
             654     1.70768E-03     81.4722E-03    -63.5098E+06    -172.580E+06    -56.8873E+06    -106.841E+03    -52.7361E-03     105.440E-03    -52.7037E-03     18.1647E-03    -52.7257E-03     104.756E-03    -52.6458E-03     18.1016E-03
             655     2.56156E-03     81.4947E-03    -59.7059E+06    -166.688E+06    -46.9509E+06    -56.4815E+03    -52.8008E-03     105.530E-03    -52.7290E-03     26.6806E-03    -52.8001E-03     104.862E-03    -52.6355E-03     26.5847E-03
             656     3.41545E-03     81.5256E-03    -55.1783E+06    -158.536E+06    -36.4784E+06    -156.606E+03    -52.8947E-03     105.644E-03    -52.7496E-03     35.0098E-03    -52.9074E-03     105.004E-03    -52.6221E-03     34.8745E-03
             657     4.26939E-03     81.5647E-03    -50.3771E+06    -148.373E+06    -27.1366E+06    -282.259E+03    -53.0155E-03     105.775E-03    -52.7596E-03     43.0483E-03    -53.0453E-03     105.178E-03    -52.6070E-03     42.8677E-03
             658     5.12334E-03     81.6117E-03    -45.6705E+06    -136.141E+06    -19.0178E+06    -284.290E+03    -53.1549E-03     105.915E-03    -52.7597E-03     50.7426E-03    -53.2082E-03     105.378E-03    -52.5911E-03     50.5122E-03
             659     5.97734E-03     81.6662E-03    -41.2069E+06    -125.899E+06    -11.9127E+06    -334.329E+03    -53.3175E-03     106.075E-03    -52.7579E-03     58.0253E-03    -53.3973E-03     105.597E-03    -52.5752E-03     57.7372E-03
             660     6.83134E-03     81.7277E-03    -37.0472E+06    -115.112E+06    -6.89025E+06    -443.021E+03    -53.4891E-03     106.235E-03    -52.7460E-03     64.8549E-03    -53.6019E-03     105.828E-03    -52.5598E-03     64.5005E-03
             661     7.68538E-03     81.7958E-03    -33.2671E+06    -104.362E+06    -3.10491E+06    -483.921E+03    -53.6589E-03     106.388E-03    -52.7292E-03     71.1754E-03    -53.8139E-03     106.064E-03    -52.5452E-03     70.7475E-03
             662     8.53942E-03     81.8699E-03    -29.9113E+06    -94.0222E+06    -831.234E+03    -458.740E+03    -53.8198E-03     106.527E-03    -52.7069E-03     76.9399E-03    -54.0275E-03     106.297E-03    -52.5314E-03     76.4305E-03
             663     9.39349E-03     81.9494E-03    -26.9760E+06    -80.4968E+06     798.968E+03    -382.129E+03    -53.9470E-03     106.625E-03    -52.6779E-03     82.1261E-03    -54.2273E-03     106.521E-03    -52.5181E-03     81.5270E-03
             664     10.2476E-03     82.0337E-03    -24.3910E+06    -65.9484E+06     2.52059E+06    -265.627E+03    -54.0314E-03     106.680E-03    -52.6485E-03     86.5914E-03    -54.4052E-03     106.726E-03    -52.5049E-03     85.8945E-03
             665     11.1017E-03     82.1221E-03    -22.1386E+06    -48.2021E+06     2.74081E+06    -117.705E+03    -54.0466E-03     106.654E-03    -52.6074E-03     90.0404E-03    -54.5401E-03     106.890E-03    -52.4917E-03     89.2382E-03
             666     11.9558E-03     82.2132E-03    -20.1831E+06    -21.8714E+06     4.06019E+06     55.2194E+03    -53.9590E-03     106.518E-03    -52.5591E-03     92.6276E-03    -54.6188E-03     107.017E-03    -52.4778E-03     91.7141E-03
             667     12.8100E-03     82.3065E-03    -18.4191E+06     19.2542E+06     5.88752E+06     242.763E+03    -53.7839E-03     106.274E-03    -52.4899E-03     95.4413E-03    -54.6844E-03     107.160E-03    -52.4617E-03     94.4143E-03
             668     13.6643E-03     82.4030E-03    -16.4126E+06     78.9295E+06     21.4840E+06     392.256E+03    -53.5584E-03     106.016E-03    -52.4578E-03     99.6282E-03    -54.7694E-03     107.387E-03    -52.4410E-03     98.5423E-03
             669     14.5187E-03     82.5046E-03    -13.3661E+06     116.727E+06     51.0631E+06     527.124E+03    -52.9061E-03     105.427E-03    -52.5206E-03     90.9606E-03    -54.2308E-03     106.970E-03    -52.4151E-03     89.9488E-03
             670     15.3732E-03     82.5838E-03    -9.18444E+06     123.964E+06     74.1288E+06     405.171E+03    -52.1008E-03     104.693E-03    -52.5918E-03     72.9831E-03    -53.3598E-03     106.144E-03    -52.3876E-03     72.1032E-03
             671     16.2277E-03     82.6495E-03    -4.53647E+06     128.258E+06     83.8735E+06     11.1833E+03    -51.6142E-03     104.216E-03    -52.6016E-03     38.3411E-03    -52.4981E-03     105.296E-03    -52.3616E-03     37.6884E-03
             672     853.831E-06     82.5113E-03    -66.3926E+06    -173.862E+06    -64.5636E+06    -46.1612E+03    -52.7182E-03     105.375E-03    -52.6568E-03     9.92970E-03    -52.7060E-03     104.697E-03    -52.6313E-03     9.89638E-03
             673     1.70768E-03     82.5252E-03    -63.9353E+06    -172.576E+06    -57.0897E+06    -53.1525E+03    -52.7384E-03     105.445E-03    -52.7065E-03     18.1651E-03    -52.7299E-03     104.762E-03    -52.6490E-03     18.1027E-03
             674     2.56154E-03     82.5476E-03    -60.0828E+06    -166.584E+06    -47.1356E+06    -126.419E+03    -52.8034E-03     105.535E-03    -52.7321E-03     26.6811E-03    -52.8045E-03     104.869E-03    -52.6391E-03     26.5843E-03
             675     3.41544E-03     82.5785E-03    -55.4421E+06    -158.159E+06    -36.7919E+06    -358.441E+03    -52.8965E-03     105.648E-03    -52.7515E-03     35.0103E-03    -52.9106E-03     105.010E-03    -52.6257E-03     34.8723E-03
             676     4.26936E-03     82.6176E-03    -50.6292E+06    -148.272E+06    -27.4723E+06    -480.173E+03    -53.0172E-03     105.779E-03    -52.7616E-03     43.0483E-03    -53.0480E-03     105.183E-03    -52.6106E-03     42.8652E-03
             677     5.12333E-03     82.6646E-03    -45.9583E+06    -136.081E+06    -19.3371E+06    -482.244E+03    -53.1567E-03     105.919E-03    -52.7618E-03     50.7422E-03    -53.2112E-03     105.383E-03    -52.5945E-03     50.5092E-03
             678     5.97731E-03     82.7191E-03    -41.4444E+06    -125.622E+06    -12.2710E+06    -609.846E+03    -53.3189E-03     106.078E-03    -52.7594E-03     58.0245E-03    -53.3998E-03     105.602E-03    -52.5785E-03     57.7327E-03
             679     6.83132E-03     82.7806E-03    -37.2099E+06    -114.934E+06    -7.23461E+06    -759.060E+03    -53.4903E-03     106.238E-03    -52.7475E-03     64.8535E-03    -53.6037E-03     105.832E-03    -52.5630E-03     64.4950E-03
             680     7.68535E-03     82.8487E-03    -33.3883E+06    -104.293E+06    -3.44310E+06    -810.184E+03    -53.6597E-03     106.390E-03    -52.7306E-03     71.1737E-03    -53.8149E-03     106.067E-03    -52.5482E-03     70.7415E-03
             681     8.53940E-03     82.9228E-03    -29.9950E+06    -94.0450E+06    -1.15882E+06    -782.229E+03    -53.8200E-03     106.528E-03    -52.7082E-03     76.9383E-03    -54.0276E-03     106.299E-03    -52.5342E-03     76.4247E-03
             682     9.39346E-03     83.0023E-03    -27.0213E+06    -80.6050E+06     483.984E+03    -686.940E+03    -53.9465E-03     106.626E-03    -52.6791E-03     82.1252E-03    -54.2265E-03     106.522E-03    -52.5206E-03     81.5221E-03
             683     10.2476E-03     83.0867E-03    -24.3998E+06    -66.1224E+06     2.22285E+06    -536.656E+03    -54.0302E-03     106.680E-03    -52.6495E-03     86.5916E-03    -54.4034E-03     106.725E-03    -52.5071E-03     85.8913E-03
             684     11.1017E-03     83.1750E-03    -22.1206E+06    -48.4413E+06     2.45949E+06    -337.706E+03    -54.0450E-03     106.653E-03    -52.6082E-03     90.0420E-03    -54.5377E-03     106.888E-03    -52.4936E-03     89.2370E-03
             685     11.9558E-03     83.2661E-03    -20.1407E+06    -22.1491E+06     3.79723E+06    -103.686E+03    -53.9572E-03     106.517E-03    -52.5597E-03     92.6307E-03    -54.6160E-03     107.015E-03    -52.4794E-03     91.7151E-03
             686     12.8100E-03     83.3594E-03    -18.3622E+06     18.9455E+06     5.64050E+06     151.141E+03    -53.7821E-03     106.272E-03    -52.4903E-03     95.4451E-03    -54.6815E-03     107.158E-03    -52.4630E-03     94.4170E-03
             687     13.6643E-03     83.4559E-03    -16.2883E+06     78.7262E+06     21.2805E+06     367.199E+03    -53.5564E-03     106.014E-03    -52.4579E-03     99.6317E-03    -54.7661E-03     107.384E-03    -52.4420E-03     98.5456E-03
             688     14.5187E-03     83.5575E-03    -13.0581E+06     116.610E+06     50.9635E+06     429.034E+03    -52.9037E-03     105.424E-03    -52.5205E-03     90.9635E-03    -54.2265E-03     106.967E-03    -52.4158E-03     89.9505E-03
             689     15.3732E-03     83.6367E-03    -8.65036E+06     124.255E+06     74.2875E+06     345.199E+03    -52.0986E-03     104.690E-03    -52.5918E-03     72.9856E-03    -53.3556E-03     106.142E-03    -52.3880E-03     72.1050E-03
             690     16.2277E-03     83.7024E-03    -4.08074E+06     128.600E+06     83.9666E+06     200.504E+03    -51.6184E-03     104.220E-03    -52.6012E-03     38.3439E-03    -52.5007E-03     105.300E-03    -52.3619E-03     37.6936E-03
             691     853.838E-06     83.5642E-03    -67.1215E+06    -173.879E+06    -65.2038E+06     66.0147E+03    -52.7191E-03     105.376E-03    -52.6573E-03     9.92869E-03    -52.7096E-03     104.700E-03    -52.6339E-03     9.89682E-03
             692     1.70767E-03     83.5781E-03    -64.3553E+06    -172.481E+06    -57.2623E+06    -3.77772E+03    -52.7416E-03     105.451E-03    -52.7096E-03     18.1640E-03    -52.7350E-03     104.770E-03    -52.6525E-03     18.1022E-03
             693     2.56154E-03     83.6005E-03    -60.3579E+06    -166.250E+06    -47.3285E+06    -231.925E+03    -52.8063E-03     105.541E-03    -52.7350E-03     26.6806E-03    -52.8090E-03     104.877E-03    -52.6431E-03     26.5824E-03
             694     3.41543E-03     83.6314E-03    -55.8118E+06    -157.678E+06    -37.1829E+06    -518.744E+03    -52.8983E-03     105.652E-03    -52.7534E-03     35.0102E-03    -52.9144E-03     105.018E-03    -52.6298E-03     34.8701E-03
             695     4.26936E-03     83.6706E-03    -51.0448E+06    -148.120E+06    -27.6328E+06    -676.333E+03    -53.0200E-03     105.785E-03    -52.7653E-03     43.0479E-03    -53.0528E-03     105.191E-03    -52.6147E-03     42.8622E-03
             696     5.12330E-03     83.7175E-03    -46.2339E+06    -135.856E+06    -19.5157E+06    -782.194E+03    -53.1594E-03     105.925E-03    -52.7652E-03     50.7414E-03    -53.2153E-03     105.391E-03    -52.5988E-03     50.5045E-03
             697     5.97729E-03     83.7720E-03    -41.6268E+06    -125.231E+06    -12.6719E+06    -978.680E+03    -53.3207E-03     106.082E-03    -52.7612E-03     58.0231E-03    -53.4025E-03     105.608E-03    -52.5826E-03     57.7265E-03
             698     6.83129E-03     83.8335E-03    -37.3773E+06    -114.687E+06    -7.64105E+06    -1.15304E+06    -53.4915E-03     106.241E-03    -52.7492E-03     64.8516E-03    -53.6055E-03     105.837E-03    -52.5669E-03     64.4879E-03
             699     7.68533E-03     83.9016E-03    -33.5204E+06    -104.167E+06    -3.84341E+06    -1.21952E+06    -53.6601E-03     106.392E-03    -52.7323E-03     71.1716E-03    -53.8156E-03     106.070E-03    -52.5519E-03     70.7340E-03
             700     8.53936E-03     83.9757E-03    -30.0856E+06    -94.0484E+06    -1.55318E+06    -1.18872E+06    -53.8195E-03     106.529E-03    -52.7097E-03     76.9366E-03    -54.0270E-03     106.300E-03    -52.5375E-03     76.4177E-03
             701     9.39344E-03     84.0552E-03    -27.0740E+06    -80.7135E+06     102.070E+03    -1.07141E+06    -53.9452E-03     106.626E-03    -52.6803E-03     82.1245E-03    -54.2247E-03     106.522E-03    -52.5235E-03     81.5165E-03
             702     10.2475E-03     84.1396E-03    -24.4248E+06    -66.3365E+06     1.85206E+06    -876.285E+03    -54.0281E-03     106.679E-03    -52.6505E-03     86.5923E-03    -54.4006E-03     106.724E-03    -52.5097E-03     85.8876E-03
             703     11.1016E-03     84.2279E-03    -22.1201E+06    -48.7311E+06     2.10615E+06    -620.677E+03    -54.0424E-03     106.651E-03    -52.6090E-03     90.0446E-03    -54.5342E-03     106.885E-03    -52.4957E-03     89.2360E-03
             704     11.9558E-03     84.3190E-03    -20.1183E+06    -22.5042E+06     3.46044E+06    -321.505E+03    -53.9547E-03     106.515E-03    -52.5602E-03     92.6348E-03    -54.6124E-03     107.011E-03    -52.4810E-03     91.7165E-03
             705     12.8100E-03     84.4123E-03     -18.313E+06     18.5539E+06     5.32887E+06     7.99673E+03    -53.7802E-03     106.271E-03    -52.4906E-03     95.4498E-03    -54.6783E-03     107.154E-03    -52.4643E-03     94.4200E-03
             706     13.6642E-03     84.5088E-03    -16.2351E+06     78.4955E+06     21.0113E+06     244.364E+03    -53.5547E-03     106.013E-03    -52.4578E-03     99.6360E-03    -54.7634E-03     107.381E-03    -52.4431E-03     98.5483E-03
             707     14.5187E-03     84.6105E-03    -13.0978E+06     116.695E+06     50.7662E+06     228.737E+03    -52.9019E-03     105.422E-03    -52.5203E-03     90.9667E-03    -54.2248E-03     106.966E-03    -52.4167E-03     89.9510E-03
             708     15.3731E-03     84.6897E-03    -8.94799E+06     124.131E+06     74.0143E+06     287.674E+03    -52.0973E-03     104.689E-03    -52.5918E-03     72.9863E-03    -53.3553E-03     106.141E-03    -52.3888E-03     72.1049E-03
             709     16.2277E-03     84.7554E-03    -4.43652E+06     128.683E+06     83.8779E+06     428.367E+03    -51.6107E-03     104.212E-03    -52.6017E-03     38.3455E-03    -52.4948E-03     105.294E-03    -52.3625E-03     37.6982E-03
             710     853.827E-06     84.6171E-03    -67.5005E+06    -174.043E+06    -65.6873E+06     62.9292E+03    -52.7245E-03     105.387E-03    -52.6620E-03     9.92695E-03    -52.7159E-03     104.711E-03    -52.6402E-03     9.89503E-03
             711     1.70767E-03     84.6310E-03    -64.8922E+06    -172.201E+06    -58.2614E+06    -89.6402E+03    -52.7434E-03     105.454E-03    -52.7107E-03     18.1626E-03    -52.7385E-03     104.777E-03    -52.6583E-03     18.0997E-03
             712     2.56152E-03     84.6534E-03    -60.9945E+06    -165.781E+06    -48.2968E+06    -384.421E+03    -52.8073E-03     105.543E-03    -52.7354E-03     26.6792E-03    -52.8124E-03     104.883E-03    -52.6480E-03     26.5790E-03
             713     3.41542E-03     84.6844E-03    -56.3988E+06    -157.175E+06    -37.5816E+06    -628.068E+03    -52.9011E-03     105.657E-03    -52.7564E-03     35.0082E-03    -52.9202E-03     105.027E-03    -52.6346E-03     34.8668E-03
             714     4.26933E-03     84.7235E-03    -51.4612E+06    -147.642E+06    -27.6999E+06    -979.417E+03    -53.0234E-03     105.793E-03    -52.7700E-03     43.0462E-03    -53.0589E-03     105.202E-03    -52.6198E-03     42.8566E-03
             715     5.12328E-03     84.7705E-03    -46.5265E+06    -135.542E+06    -19.7176E+06    -1.20691E+06    -53.1623E-03     105.932E-03    -52.7693E-03     50.7398E-03    -53.2199E-03     105.400E-03    -52.6039E-03     50.4973E-03
             716     5.97725E-03     84.8249E-03    -41.8843E+06    -124.703E+06    -13.1514E+06    -1.41176E+06    -53.3222E-03     106.086E-03    -52.7634E-03     58.0208E-03    -53.4054E-03     105.616E-03    -52.5876E-03     57.7185E-03
             717     6.83126E-03     84.8864E-03    -37.5839E+06    -114.343E+06    -8.12331E+06    -1.64787E+06    -53.4922E-03     106.244E-03    -52.7513E-03     64.8487E-03    -53.6071E-03     105.843E-03    -52.5716E-03     64.4786E-03
             718     7.68528E-03     84.9545E-03    -33.6676E+06    -103.985E+06    -4.31693E+06    -1.72941E+06    -53.6597E-03     106.394E-03    -52.7342E-03     71.1686E-03    -53.8155E-03     106.073E-03    -52.5561E-03     70.7245E-03
             719     8.53934E-03     85.0286E-03    -30.1831E+06    -94.0188E+06    -2.01558E+06    -1.69078E+06    -53.8179E-03     106.529E-03    -52.7113E-03     76.9344E-03    -54.0252E-03     106.301E-03    -52.5413E-03     76.4090E-03
             720     9.39340E-03     85.1081E-03    -27.1345E+06    -80.8390E+06    -354.877E+03    -1.53654E+06    -53.9426E-03     106.624E-03    -52.6816E-03     82.1237E-03    -54.2215E-03     106.521E-03    -52.5268E-03     81.5096E-03
             721     10.2475E-03     85.1925E-03    -24.4557E+06    -66.5843E+06     1.40800E+06    -1.28686E+06    -54.0248E-03     106.676E-03    -52.6514E-03     86.5934E-03    -54.3964E-03     106.721E-03    -52.5124E-03     85.8835E-03
             722     11.1016E-03     85.2808E-03    -22.1351E+06    -49.0865E+06     1.67154E+06    -962.267E+03    -54.0390E-03     106.649E-03    -52.6095E-03     90.0483E-03    -54.5296E-03     106.881E-03    -52.4979E-03     89.2354E-03
             723     11.9558E-03     85.3719E-03    -20.1383E+06    -22.9371E+06     3.03623E+06    -578.516E+03    -53.9519E-03     106.512E-03    -52.5604E-03     92.6406E-03    -54.6084E-03     107.007E-03    -52.4828E-03     91.7191E-03
             724     12.8100E-03     85.4652E-03    -18.3793E+06     18.0581E+06     4.90513E+06    -153.697E+03    -53.7785E-03     106.269E-03    -52.4907E-03     95.4561E-03    -54.6756E-03     107.151E-03    -52.4657E-03     94.4242E-03
             725     13.6642E-03     85.5617E-03    -16.3777E+06     78.2906E+06     20.6006E+06     141.414E+03    -53.5529E-03     106.010E-03    -52.4574E-03     99.6420E-03    -54.7615E-03     107.379E-03    -52.4442E-03     98.5530E-03
             726     14.5187E-03     85.6634E-03    -13.3978E+06     116.755E+06     50.3898E+06     233.598E+03    -52.8997E-03     105.419E-03    -52.5197E-03     90.9726E-03    -54.2236E-03     106.964E-03    -52.4176E-03     89.9570E-03
             727     15.3731E-03     85.7426E-03    -9.31834E+06     123.778E+06     73.6139E+06     390.994E+03    -52.0951E-03     104.687E-03    -52.5917E-03     72.9947E-03    -53.3539E-03     106.138E-03    -52.3896E-03     72.1147E-03
             728     16.2276E-03     85.8083E-03    -4.68024E+06     128.786E+06     83.8176E+06     417.412E+03    -51.6041E-03     104.206E-03    -52.6022E-03     38.3536E-03    -52.4894E-03     105.289E-03    -52.3631E-03     37.7062E-03
             729     853.819E-06     85.6700E-03    -68.0059E+06    -174.186E+06    -66.3089E+06     69.7237E+03    -52.7309E-03     105.399E-03    -52.6681E-03     9.92682E-03    -52.7237E-03     104.724E-03    -52.6485E-03     9.89498E-03
             730     1.70765E-03     85.6839E-03    -65.5008E+06    -171.621E+06    -59.2475E+06    -239.868E+03    -52.7460E-03     105.459E-03    -52.7133E-03     18.1619E-03    -52.7435E-03     104.787E-03    -52.6657E-03     18.0971E-03
             731     2.56151E-03     85.7064E-03    -61.6834E+06    -165.302E+06    -48.9962E+06    -581.585E+03    -52.8105E-03     105.550E-03    -52.7390E-03     26.6769E-03    -52.8188E-03     104.894E-03    -52.6548E-03     26.5741E-03
             732     3.41539E-03     85.7373E-03    -56.9886E+06    -156.503E+06    -38.3712E+06    -925.246E+03    -52.9043E-03     105.663E-03    -52.7590E-03     35.0055E-03    -52.9263E-03     105.039E-03    -52.6413E-03     34.8601E-03
             733     4.26931E-03     85.7764E-03    -51.9929E+06    -146.835E+06    -28.5889E+06    -1.38740E+06    -53.0255E-03     105.797E-03    -52.7716E-03     43.0442E-03    -53.0635E-03     105.212E-03    -52.6262E-03     42.8491E-03
             734     5.12324E-03     85.8234E-03    -47.0359E+06    -135.082E+06    -20.2581E+06    -1.72775E+06    -53.1647E-03     105.938E-03    -52.7729E-03     50.7379E-03    -53.2246E-03     105.410E-03    -52.6101E-03     50.4886E-03
             735     5.97723E-03     85.8779E-03    -42.2432E+06    -124.030E+06    -13.7184E+06    -2.02230E+06    -53.3232E-03     106.089E-03    -52.7660E-03     58.0183E-03    -53.4083E-03     105.624E-03    -52.5935E-03     57.7081E-03
             736     6.83122E-03     85.9394E-03    -37.8192E+06    -113.887E+06    -8.67937E+06    -2.27538E+06    -53.4920E-03     106.246E-03    -52.7536E-03     64.8456E-03    -53.6079E-03     105.848E-03    -52.5771E-03     64.4674E-03
             737     7.68526E-03     86.0074E-03    -33.8318E+06    -103.738E+06    -4.86727E+06    -2.36595E+06    -53.6582E-03     106.394E-03    -52.7362E-03     71.1656E-03    -53.8143E-03     106.076E-03    -52.5610E-03     70.7132E-03
             738     8.53929E-03     86.0815E-03    -30.2912E+06    -93.9713E+06    -2.55715E+06    -2.29786E+06    -53.8150E-03     106.528E-03    -52.7129E-03     76.9321E-03    -54.0222E-03     106.301E-03    -52.5455E-03     76.3988E-03
             739     9.39338E-03     86.1610E-03    -27.1964E+06    -80.9757E+06    -888.176E+03    -2.09824E+06    -53.9385E-03     106.621E-03    -52.6827E-03     82.1230E-03    -54.2168E-03     106.518E-03    -52.5303E-03     81.5017E-03
             740     10.2475E-03     86.2454E-03    -24.4827E+06    -66.8889E+06     882.249E+03    -1.77638E+06    -54.0203E-03     106.672E-03    -52.6521E-03     86.5955E-03    -54.3907E-03     106.716E-03    -52.5152E-03     85.8792E-03
             741     11.1016E-03     86.3337E-03    -22.1514E+06    -49.5280E+06     1.15859E+06    -1.34852E+06    -54.0350E-03     106.645E-03    -52.6098E-03     90.0533E-03    -54.5243E-03     106.876E-03    -52.5001E-03     89.2354E-03
             742     11.9557E-03     86.4248E-03    -20.1753E+06    -23.4843E+06     2.52951E+06    -844.055E+03    -53.9491E-03     106.509E-03    -52.5604E-03     92.6479E-03    -54.6043E-03     107.002E-03    -52.4844E-03     91.7230E-03
             743     12.8099E-03     86.5181E-03    -18.4561E+06     17.4203E+06     4.40044E+06    -274.767E+03    -53.7773E-03     106.268E-03    -52.4905E-03     95.4641E-03    -54.6731E-03     107.147E-03    -52.4670E-03     94.4307E-03
             744     13.6642E-03     86.6146E-03    -16.5668E+06     78.0085E+06     20.0908E+06     165.944E+03    -53.5513E-03     106.008E-03    -52.4566E-03     99.6491E-03    -54.7596E-03     107.376E-03    -52.4453E-03     98.5605E-03
             745     14.5187E-03     86.7163E-03    -13.6177E+06     116.718E+06     49.9383E+06     310.681E+03    -52.8960E-03     105.415E-03    -52.5187E-03     90.9788E-03    -54.2204E-03     106.960E-03    -52.4185E-03     89.9644E-03
             746     15.3731E-03     86.7955E-03    -9.37878E+06     123.570E+06     73.3301E+06     324.382E+03    -52.0916E-03     104.683E-03    -52.5913E-03     73.0011E-03    -53.3500E-03     106.134E-03    -52.3902E-03     72.1203E-03
             747     16.2277E-03     86.8612E-03    -4.56808E+06     128.972E+06     83.8372E+06     259.262E+03    -51.5972E-03     104.199E-03    -52.6021E-03     38.3644E-03    -52.4823E-03     105.283E-03    -52.3633E-03     37.7150E-03
             748     853.814E-06     86.7230E-03    -68.4810E+06    -174.068E+06    -66.7398E+06    -22.7358E+03    -52.7368E-03     105.412E-03    -52.6754E-03     9.92509E-03    -52.7315E-03     104.739E-03    -52.6574E-03     9.89204E-03
             749     1.70764E-03     86.7369E-03    -65.8551E+06    -170.985E+06    -59.1306E+06    -344.553E+03    -52.7532E-03     105.475E-03    -52.7222E-03     18.1593E-03    -52.7536E-03     104.807E-03    -52.6744E-03     18.0931E-03
             750     2.56148E-03     86.7593E-03    -61.9450E+06    -164.583E+06    -49.0265E+06    -748.248E+03    -52.8171E-03     105.564E-03    -52.7472E-03     26.6748E-03    -52.8277E-03     104.913E-03    -52.6639E-03     26.5698E-03
             751     3.41536E-03     86.7902E-03    -57.3160E+06    -155.537E+06    -39.1143E+06    -1.31680E+06    -52.9080E-03     105.671E-03    -52.7630E-03     35.0038E-03    -52.9319E-03     105.053E-03    -52.6500E-03     34.8533E-03
             752     4.26927E-03     86.8293E-03    -52.4031E+06    -145.868E+06    -29.4797E+06    -1.85377E+06    -53.0281E-03     105.802E-03    -52.7743E-03     43.0416E-03    -53.0683E-03     105.224E-03    -52.6342E-03     42.8405E-03
             753     5.12321E-03     86.8763E-03    -47.3915E+06    -134.193E+06    -20.9561E+06    -2.39901E+06    -53.1663E-03     105.942E-03    -52.7760E-03     50.7351E-03    -53.2284E-03     105.421E-03    -52.6175E-03     50.4770E-03
             754     5.97718E-03     86.9308E-03    -42.5312E+06    -123.269E+06    -14.3682E+06    -2.82500E+06    -53.3233E-03     106.092E-03    -52.7689E-03     58.0153E-03    -53.4101E-03     105.632E-03    -52.6003E-03     57.6947E-03
             755     6.83118E-03     86.9923E-03    -38.0385E+06    -113.325E+06      -9.315E+06    -3.05085E+06    -53.4906E-03     106.247E-03    -52.7561E-03     64.8424E-03    -53.6075E-03     105.853E-03    -52.5832E-03     64.4541E-03
             756     7.68520E-03     87.0604E-03    -33.9942E+06    -103.422E+06    -5.49613E+06    -3.12720E+06    -53.6552E-03     106.393E-03    -52.7381E-03     71.1626E-03    -53.8117E-03     106.078E-03    -52.5663E-03     70.7003E-03
             757     8.53927E-03     87.1344E-03    -30.3994E+06    -93.9032E+06    -3.18924E+06    -3.03320E+06    -53.8104E-03     106.525E-03    -52.7142E-03     76.9309E-03    -54.0172E-03     106.299E-03    -52.5500E-03     76.3882E-03
             758     9.39333E-03     87.2139E-03    -27.2499E+06    -81.1321E+06    -1.51438E+06    -2.77325E+06    -53.9327E-03     106.616E-03    -52.6835E-03     82.1249E-03    -54.2100E-03     106.513E-03    -52.5339E-03     81.4950E-03
             759     10.2474E-03     87.2983E-03    -24.4990E+06    -67.2744E+06     253.833E+03    -2.35560E+06    -54.0144E-03     106.667E-03    -52.6522E-03     86.6020E-03    -54.3834E-03     106.709E-03    -52.5179E-03     85.8784E-03
             760     11.1016E-03     87.3866E-03    -22.1390E+06    -50.0921E+06     531.816E+03    -1.80086E+06    -54.0302E-03     106.640E-03    -52.6094E-03     90.0652E-03    -54.5176E-03     106.869E-03    -52.5020E-03     89.2416E-03
             761     11.9557E-03     87.4777E-03    -20.1505E+06    -24.2093E+06     1.90397E+06    -1.12731E+06    -53.9463E-03     106.506E-03    -52.5596E-03     92.6641E-03    -54.5994E-03     106.996E-03    -52.4858E-03     91.7357E-03
             762     12.8099E-03     87.5710E-03    -18.4599E+06     16.5893E+06     3.77056E+06    -373.355E+03    -53.7767E-03     106.266E-03    -52.4895E-03     95.4822E-03    -54.6704E-03     107.142E-03    -52.4679E-03     94.4477E-03
             763     13.6642E-03     87.6676E-03    -16.5496E+06     77.5467E+06     19.5288E+06     235.392E+03    -53.5507E-03     106.006E-03    -52.4551E-03     99.6663E-03    -54.7574E-03     107.372E-03    -52.4459E-03     98.5788E-03
             764     14.5186E-03     87.7692E-03    -13.6135E+06     116.779E+06     49.5646E+06     388.101E+03    -52.8942E-03     105.411E-03    -52.5172E-03     90.9923E-03    -54.2181E-03     106.958E-03    -52.4189E-03     89.9789E-03
             765     15.3731E-03     87.8484E-03    -9.49723E+06     123.666E+06     73.1199E+06     207.986E+03    -52.0859E-03     104.676E-03    -52.5904E-03     73.0151E-03    -53.3448E-03     106.128E-03    -52.3904E-03     72.1329E-03
             766     16.2276E-03     87.9141E-03    -4.79306E+06     129.105E+06     83.7083E+06     40.2548E+03    -51.5744E-03     104.175E-03    -52.6011E-03     38.3739E-03    -52.4607E-03     105.260E-03    -52.3628E-03     37.7217E-03
             767     853.805E-06     87.7759E-03    -68.9164E+06    -173.780E+06    -67.1349E+06    -94.5767E+03    -52.7456E-03     105.431E-03    -52.6855E-03     9.92283E-03    -52.7424E-03     104.761E-03    -52.6692E-03     9.88884E-03
             768     1.70762E-03     87.7898E-03    -66.3426E+06    -170.335E+06    -59.6049E+06    -406.293E+03    -52.7608E-03     105.491E-03    -52.7307E-03     18.1572E-03    -52.7638E-03     104.827E-03    -52.6855E-03     18.0901E-03
             769     2.56146E-03     87.8123E-03    -62.3194E+06    -163.425E+06    -49.5741E+06    -1.03554E+06    -52.8226E-03     105.577E-03    -52.7539E-03     26.6738E-03    -52.8360E-03     104.932E-03    -52.6744E-03     26.5651E-03
             770     3.41533E-03     87.8432E-03    -57.5102E+06    -154.307E+06    -39.1985E+06    -1.76895E+06    -52.9134E-03     105.684E-03    -52.7711E-03     35.0023E-03    -52.9400E-03     105.073E-03    -52.6599E-03     34.8459E-03
             771     4.26923E-03     87.8823E-03    -52.4471E+06    -144.667E+06    -29.5708E+06    -2.42442E+06    -53.0322E-03     105.814E-03    -52.7816E-03     43.0389E-03    -53.0742E-03     105.242E-03    -52.6436E-03     42.8303E-03
             772     5.12316E-03     87.9293E-03    -47.4573E+06    -132.836E+06    -21.6292E+06    -3.13800E+06    -53.1670E-03     105.946E-03    -52.7794E-03     50.7320E-03    -53.2304E-03     105.432E-03    -52.6261E-03     50.4643E-03
             773     5.97714E-03     87.9838E-03    -42.6916E+06    -122.368E+06    -15.0940E+06    -3.68117E+06    -53.3222E-03     106.094E-03    -52.7717E-03     58.0123E-03    -53.4100E-03     105.640E-03    -52.6079E-03     57.6805E-03
             774     6.83113E-03     88.0452E-03    -38.2421E+06    -112.628E+06    -10.0367E+06    -3.94606E+06    -53.4871E-03     106.245E-03    -52.7583E-03     64.8401E-03    -53.6050E-03     105.857E-03    -52.5897E-03     64.4402E-03
             775     7.68517E-03     88.1133E-03    -34.1496E+06    -103.015E+06    -6.21565E+06    -4.03729E+06    -53.6494E-03     106.389E-03    -52.7395E-03     71.1617E-03    -53.8062E-03     106.077E-03    -52.5717E-03     70.6878E-03
             776     8.53921E-03     88.1873E-03    -30.4791E+06    -93.7977E+06    -3.90592E+06    -3.91862E+06    -53.8028E-03     106.518E-03    -52.7148E-03     76.9338E-03    -54.0091E-03     106.294E-03    -52.5542E-03     76.3797E-03
             777     9.39331E-03     88.2668E-03    -27.2513E+06    -81.3171E+06    -2.22433E+06    -3.59750E+06    -53.9241E-03     106.607E-03    -52.6832E-03     82.1336E-03    -54.2001E-03     106.504E-03    -52.5369E-03     81.4932E-03
             778     10.2474E-03     88.3511E-03    -24.4083E+06    -67.7571E+06    -441.972E+03    -3.07262E+06    -54.0061E-03     106.657E-03    -52.6512E-03     86.6183E-03    -54.3729E-03     106.698E-03    -52.5198E-03     85.8857E-03
             779     11.1016E-03     88.4395E-03    -21.9793E+06    -50.8275E+06    -143.694E+03    -2.35177E+06    -54.0236E-03     106.631E-03    -52.6078E-03     90.0904E-03    -54.5082E-03     106.858E-03    -52.5030E-03     89.2600E-03
             780     11.9557E-03     88.5305E-03    -19.9365E+06    -25.1386E+06     1.25428E+06    -1.49520E+06    -53.9422E-03     106.500E-03    -52.5576E-03     92.6964E-03    -54.5918E-03     106.986E-03    -52.4860E-03     91.7635E-03
             781     12.8099E-03     88.6239E-03    -18.1675E+06     15.4953E+06     3.12484E+06    -524.811E+03    -53.7752E-03     106.262E-03    -52.4871E-03     95.5203E-03    -54.6649E-03     107.133E-03    -52.4676E-03     94.4841E-03
             782     13.6642E-03     88.7204E-03    -16.2499E+06     76.9134E+06     18.8584E+06     264.969E+03    -53.5478E-03     105.999E-03    -52.4514E-03     99.7079E-03    -54.7511E-03     107.363E-03    -52.4451E-03     98.6211E-03
             783     14.5187E-03     88.8221E-03    -13.3490E+06     116.859E+06     49.0800E+06     525.578E+03    -52.8902E-03     105.403E-03    -52.5130E-03     91.0444E-03    -54.2121E-03     106.950E-03    -52.4176E-03     90.0332E-03
             784     15.3731E-03     88.9013E-03    -9.27141E+06     124.142E+06     73.0530E+06     220.423E+03    -52.0796E-03     104.667E-03    -52.5873E-03     73.0626E-03    -53.3379E-03     106.121E-03    -52.3886E-03     72.1810E-03
             785     16.2277E-03     88.9670E-03    -4.58033E+06     129.287E+06     83.6293E+06    -155.361E+03    -51.5727E-03     104.171E-03    -52.5981E-03     38.3802E-03    -52.4581E-03     105.256E-03    -52.3608E-03     37.7254E-03
             786     853.789E-06     88.8289E-03    -68.9459E+06    -173.529E+06    -67.3410E+06    -122.763E+03    -52.7588E-03     105.456E-03    -52.6972E-03     9.92364E-03    -52.7558E-03     104.787E-03    -52.6823E-03     9.88926E-03
             787     1.70760E-03     88.8428E-03    -66.4089E+06    -169.365E+06    -60.1178E+06    -571.252E+03    -52.7700E-03     105.509E-03    -52.7395E-03     18.1576E-03    -52.7741E-03     104.851E-03    -52.6982E-03     18.0883E-03
             788     2.56143E-03     88.8653E-03    -62.4817E+06    -161.849E+06    -49.9722E+06    -1.43757E+06    -52.8298E-03     105.591E-03    -52.7616E-03     26.6733E-03    -52.8457E-03     104.956E-03    -52.6861E-03     26.5593E-03
             789     3.41529E-03     88.8962E-03    -57.7451E+06    -152.797E+06    -39.4983E+06    -2.31260E+06    -52.9186E-03     105.697E-03    -52.7788E-03     35.0009E-03    -52.9481E-03     105.094E-03    -52.6710E-03     34.8374E-03
             790     4.26918E-03     88.9353E-03    -52.6739E+06    -143.084E+06    -30.1476E+06    -3.15045E+06    -53.0340E-03     105.821E-03    -52.7869E-03     43.0373E-03    -53.0786E-03     105.258E-03    -52.6538E-03     42.8193E-03
             791     5.12312E-03     88.9823E-03    -47.6439E+06    -131.245E+06    -22.3784E+06    -3.93485E+06    -53.1658E-03     105.948E-03    -52.7825E-03     50.7304E-03    -53.2313E-03     105.444E-03    -52.6351E-03     50.4523E-03
             792     5.97708E-03     89.0367E-03    -42.8996E+06    -121.145E+06    -15.8506E+06    -4.56761E+06    -53.3185E-03     106.093E-03    -52.7741E-03     58.0112E-03    -53.4080E-03     105.646E-03    -52.6155E-03     57.6679E-03
             793     6.83110E-03     89.0982E-03    -38.4297E+06    -111.748E+06    -10.7980E+06    -4.96114E+06    -53.4805E-03     106.240E-03    -52.7597E-03     64.8405E-03    -53.5995E-03     105.857E-03    -52.5960E-03     64.4275E-03
             794     7.68512E-03     89.1662E-03    -34.3030E+06    -102.462E+06    -6.97023E+06    -5.09150E+06    -53.6400E-03     106.380E-03    -52.7400E-03     71.1650E-03    -53.7973E-03     106.072E-03    -52.5766E-03     70.6776E-03
             795     8.53920E-03     89.2402E-03    -30.5764E+06    -93.6269E+06    -4.66589E+06    -4.98272E+06    -53.7914E-03     106.506E-03    -52.7143E-03     76.9415E-03    -53.9973E-03     106.284E-03    -52.5575E-03     76.3739E-03
             796     9.39328E-03     89.3197E-03    -27.2623E+06    -81.5144E+06    -2.97512E+06     -4.6098E+06    -53.9121E-03     106.594E-03    -52.6817E-03     82.1481E-03    -54.1867E-03     106.491E-03    -52.5388E-03     81.4948E-03
             797     10.2474E-03     89.4040E-03    -24.3559E+06    -68.3576E+06    -1.19264E+06    -3.96222E+06    -53.9952E-03     106.644E-03    -52.6489E-03     86.6390E-03    -54.3597E-03     106.683E-03    -52.5204E-03     85.8952E-03
             798     11.1016E-03     89.4923E-03    -21.8578E+06    -51.7498E+06    -874.729E+03    -3.07070E+06    -54.0150E-03     106.620E-03    -52.6049E-03     90.1183E-03    -54.4965E-03     106.843E-03    -52.5025E-03     89.2789E-03
             799     11.9557E-03     89.5834E-03    -19.7760E+06    -26.3276E+06     559.315E+03    -1.97760E+06    -53.9368E-03     106.491E-03    -52.5544E-03     92.7256E-03    -54.5829E-03     106.972E-03    -52.4847E-03     91.7868E-03
             800     12.8099E-03     89.6768E-03    -18.0586E+06     14.1362E+06     2.45852E+06    -771.455E+03    -53.7726E-03     106.256E-03    -52.4838E-03     95.5455E-03    -54.6588E-03     107.122E-03    -52.4658E-03     94.5063E-03
             801     13.6643E-03     89.7733E-03    -16.1002E+06     76.1516E+06     18.3117E+06     153.124E+03    -53.5475E-03     105.995E-03    -52.4476E-03     99.7175E-03    -54.7482E-03     107.356E-03    -52.4431E-03     98.6293E-03
             802     14.5187E-03     89.8750E-03    -13.0009E+06     116.818E+06     48.7615E+06     474.026E+03    -52.8892E-03     105.398E-03    -52.5089E-03     91.0301E-03    -54.2090E-03     106.945E-03    -52.4156E-03     90.0181E-03
             803     15.3732E-03     89.9543E-03    -8.78502E+06     124.748E+06     73.1604E+06     266.639E+03    -52.0703E-03     104.654E-03    -52.5841E-03     73.0162E-03    -53.3273E-03     106.111E-03    -52.3864E-03     72.1347E-03
             804     16.2277E-03     90.0199E-03    -4.30987E+06     129.578E+06     83.5938E+06    -72.8840E+03    -51.5634E-03     104.158E-03    -52.5946E-03     38.3564E-03    -52.4479E-03     105.245E-03    -52.3583E-03     37.7024E-03
             805     853.780E-06     89.8819E-03    -68.8909E+06    -173.059E+06    -67.2515E+06    -284.262E+03    -52.7724E-03     105.482E-03    -52.7094E-03     9.92385E-03    -52.7699E-03     104.815E-03    -52.6948E-03     9.88735E-03
             806     1.70757E-03     89.8958E-03    -66.3344E+06    -168.109E+06    -60.0558E+06    -810.324E+03    -52.7811E-03     105.532E-03    -52.7510E-03     18.1572E-03    -52.7867E-03     104.880E-03    -52.7114E-03     18.0848E-03
             807     2.56139E-03     89.9183E-03    -62.5280E+06    -159.918E+06    -50.3099E+06    -1.75829E+06    -52.8365E-03     105.606E-03    -52.7696E-03     26.6725E-03    -52.8549E-03     104.981E-03    -52.6986E-03     26.5543E-03
             808     3.41525E-03     89.9492E-03    -57.9078E+06    -150.835E+06    -40.1892E+06    -2.88884E+06    -52.9212E-03     105.705E-03    -52.7840E-03     35.0008E-03    -52.9534E-03     105.113E-03    -52.6822E-03     34.8297E-03
             809     4.26914E-03     89.9883E-03    -52.9349E+06    -141.116E+06    -30.9582E+06    -3.93197E+06    -53.0330E-03     105.823E-03    -52.7901E-03     43.0376E-03    -53.0806E-03     105.272E-03    -52.6635E-03     42.8094E-03
             810     5.12307E-03     90.0352E-03    -47.9986E+06    -129.447E+06    -23.1449E+06    -4.83178E+06    -53.1618E-03     105.947E-03    -52.7849E-03     50.7310E-03    -53.2306E-03     105.453E-03    -52.6433E-03     50.4414E-03
             811     5.97705E-03     90.0897E-03    -43.2343E+06    -119.591E+06    -16.5936E+06    -5.55337E+06    -53.3112E-03     106.087E-03    -52.7754E-03     58.0126E-03    -53.4035E-03     105.649E-03    -52.6223E-03     57.6566E-03
             812     6.83104E-03     90.1511E-03    -38.7629E+06    -110.554E+06    -11.5704E+06    -6.08777E+06    -53.4701E-03     106.230E-03    -52.7598E-03     64.8432E-03    -53.5913E-03     105.855E-03    -52.6012E-03     64.4157E-03
             813     7.68511E-03     90.2191E-03    -34.5604E+06    -101.720E+06    -7.77604E+06    -6.34223E+06    -53.6271E-03     106.366E-03    -52.7389E-03     71.1702E-03    -53.7855E-03     106.063E-03    -52.5801E-03     70.6666E-03
             814     8.53917E-03     90.2931E-03    -30.7305E+06    -93.3735E+06    -5.50267E+06    -6.22319E+06    -53.7775E-03     106.489E-03    -52.7119E-03     76.9499E-03    -53.9832E-03     106.271E-03    -52.5595E-03     76.3664E-03
             815     9.39329E-03     90.3726E-03    -27.3848E+06    -81.7143E+06    -3.86445E+06    -5.77517E+06    -53.8985E-03     106.577E-03    -52.6782E-03     82.1618E-03    -54.1721E-03     106.474E-03    -52.5393E-03     81.4937E-03
             816     10.2474E-03     90.4569E-03    -24.3988E+06    -68.9948E+06    -2.10954E+06    -5.06395E+06    -53.9839E-03     106.628E-03    -52.6445E-03     86.6592E-03    -54.3463E-03     106.665E-03    -52.5197E-03     85.9014E-03
             817     11.1016E-03     90.5452E-03    -21.7698E+06    -52.9035E+06    -1.83437E+06    -4.01199E+06    -54.0073E-03     106.607E-03    -52.5999E-03     90.1451E-03    -54.4853E-03     106.825E-03    -52.5008E-03     89.2937E-03
             818     11.9558E-03     90.6363E-03    -19.5594E+06    -27.8513E+06    -387.089E+03    -2.62042E+06    -53.9333E-03     106.483E-03    -52.5493E-03     92.7568E-03    -54.5747E-03     106.957E-03    -52.4824E-03     91.8098E-03
             819     12.8100E-03     90.7296E-03    -17.7133E+06     12.4693E+06     1.58428E+06    -1.08897E+06    -53.7743E-03     106.253E-03    -52.4787E-03     95.5781E-03    -54.6551E-03     107.111E-03    -52.4632E-03     94.5350E-03
             820     13.6643E-03     90.8262E-03    -15.8009E+06     75.3165E+06     17.5766E+06     24.0669E+03    -53.5499E-03     105.992E-03    -52.4420E-03     99.7600E-03    -54.7468E-03     107.349E-03    -52.4404E-03     98.6703E-03
             821     14.5187E-03     90.9279E-03    -12.8494E+06     116.868E+06     48.2028E+06     270.280E+03    -52.8874E-03     105.390E-03    -52.5029E-03     91.0902E-03    -54.2056E-03     106.938E-03    -52.4128E-03     90.0759E-03
             822     15.3731E-03     91.0071E-03    -8.66880E+06     124.984E+06     72.9204E+06     187.708E+03    -52.0648E-03     104.644E-03    -52.5793E-03     73.0715E-03    -53.3213E-03     106.102E-03    -52.3833E-03     72.1893E-03
             823     16.2278E-03     91.0727E-03    -4.13736E+06     129.754E+06     83.5773E+06     187.213E+03    -51.5530E-03     104.144E-03    -52.5905E-03     38.3715E-03    -52.4370E-03     105.231E-03    -52.3548E-03     37.7208E-03
             824     853.770E-06     90.9350E-03    -69.3865E+06    -172.198E+06    -67.6231E+06    -465.201E+03    -52.7826E-03     105.505E-03    -52.7220E-03     9.92305E-03    -52.7833E-03     104.844E-03    -52.7098E-03     9.88420E-03
             825     1.70755E-03     90.9489E-03    -66.7249E+06    -166.620E+06    -60.5226E+06    -1.09057E+06    -52.7881E-03     105.549E-03    -52.7606E-03     18.1572E-03    -52.7971E-03     104.905E-03    -52.7249E-03     18.0812E-03
             826     2.56136E-03     90.9713E-03    -62.8280E+06    -157.624E+06    -51.0412E+06    -2.20077E+06    -52.8383E-03     105.613E-03    -52.7748E-03     26.6730E-03    -52.8605E-03     105.001E-03    -52.7104E-03     26.5490E-03
             827     3.41521E-03     91.0022E-03    -58.2133E+06    -148.373E+06    -40.9773E+06    -3.51625E+06    -52.9199E-03     105.707E-03    -52.7867E-03     35.0018E-03    -52.9560E-03     105.128E-03    -52.6921E-03     34.8226E-03
             828     4.26910E-03     91.0413E-03    -53.3052E+06    -138.782E+06    -31.6792E+06    -4.74199E+06    -53.0291E-03     105.821E-03    -52.7919E-03     43.0390E-03    -53.0809E-03     105.283E-03    -52.6717E-03     42.8003E-03
             829     5.12304E-03     91.0882E-03    -48.3581E+06    -127.310E+06     -23.832E+06    -5.78694E+06    -53.1546E-03     105.940E-03    -52.7855E-03     50.7326E-03    -53.2273E-03     105.458E-03    -52.6500E-03     50.4306E-03
             830     5.97701E-03     91.1426E-03    -43.6226E+06    -117.767E+06    -17.3106E+06    -6.61577E+06    -53.3006E-03     106.075E-03    -52.7748E-03     58.0144E-03    -53.3964E-03     105.648E-03    -52.6273E-03     57.6447E-03
             831     6.83104E-03     91.2041E-03    -39.1661E+06    -108.980E+06    -12.3201E+06    -7.25546E+06    -53.4564E-03     106.214E-03    -52.7577E-03     64.8466E-03    -53.5808E-03     105.848E-03    -52.6045E-03     64.4042E-03
             832     7.68507E-03     91.2720E-03    -35.0241E+06    -100.607E+06    -8.62860E+06    -7.71715E+06    -53.6114E-03     106.347E-03    -52.7353E-03     71.1769E-03    -53.7724E-03     106.051E-03    -52.5818E-03     70.6558E-03
             833     8.53918E-03     91.3460E-03    -31.0974E+06    -92.9835E+06    -6.48120E+06    -7.75888E+06    -53.7610E-03     106.468E-03    -52.7071E-03     76.9637E-03    -53.9676E-03     106.253E-03    -52.5596E-03     76.3606E-03
             834     9.39328E-03     91.4254E-03    -27.4663E+06    -81.9807E+06    -4.87839E+06    -7.22266E+06    -53.8825E-03     106.555E-03    -52.6722E-03     82.1869E-03    -54.1546E-03     106.452E-03    -52.5379E-03     81.5005E-03
             835     10.2475E-03     91.5097E-03    -24.4260E+06    -69.7472E+06    -3.14166E+06    -6.23888E+06    -53.9699E-03     106.608E-03    -52.6377E-03     86.7003E-03    -54.3297E-03     106.642E-03    -52.5169E-03     85.9277E-03
             836     11.1016E-03     91.5980E-03    -21.9287E+06    -54.0647E+06    -2.92862E+06    -5.09392E+06    -53.9965E-03     106.589E-03    -52.5925E-03     90.2029E-03    -54.4719E-03     106.803E-03    -52.4970E-03     89.3381E-03
             837     11.9558E-03     91.6891E-03    -19.6412E+06    -29.7137E+06    -1.57113E+06    -3.62282E+06    -53.9263E-03     106.468E-03    -52.5415E-03     92.8310E-03    -54.5637E-03     106.935E-03    -52.4778E-03     91.8716E-03
             838     12.8100E-03     91.7825E-03    -17.6709E+06     10.2236E+06     433.332E+03    -1.62639E+06    -53.7717E-03     106.243E-03    -52.4710E-03     95.6636E-03    -54.6473E-03     107.091E-03    -52.4580E-03     94.6141E-03
             839     13.6644E-03     91.8791E-03    -15.7597E+06     74.3204E+06     16.5274E+06    -88.1705E+03    -53.5447E-03     105.977E-03    -52.4324E-03     99.8420E-03    -54.7384E-03     107.331E-03    -52.4347E-03     98.7514E-03
             840     14.5188E-03     91.9808E-03    -12.9680E+06     117.128E+06     47.3732E+06     222.999E+03    -52.8763E-03     105.369E-03    -52.4925E-03     91.1494E-03    -54.1943E-03     106.919E-03    -52.4066E-03     90.1349E-03
             841     15.3734E-03     92.0600E-03    -9.05398E+06     124.832E+06     72.3434E+06     204.098E+03    -52.0622E-03     104.633E-03    -52.5709E-03     73.1074E-03    -53.3197E-03     106.092E-03    -52.3771E-03     72.2255E-03
             842     16.2279E-03     92.1256E-03    -4.58773E+06     129.738E+06     83.4265E+06     320.152E+03    -51.5653E-03     104.150E-03    -52.5848E-03     38.3912E-03    -52.4515E-03     105.239E-03    -52.3491E-03     37.7417E-03
             843     853.749E-06     91.9881E-03    -69.6994E+06    -170.918E+06    -68.0592E+06    -674.143E+03    -52.7910E-03     105.524E-03    -52.7329E-03     9.92560E-03    -52.7945E-03     104.871E-03    -52.7243E-03     9.88402E-03
             844     1.70753E-03     92.0019E-03    -67.0275E+06    -164.651E+06    -61.1921E+06    -1.57091E+06    -52.7912E-03     105.558E-03    -52.7664E-03     18.1599E-03    -52.8037E-03     104.925E-03    -52.7364E-03     18.0776E-03
             845     2.56133E-03     92.0244E-03    -63.1344E+06    -154.920E+06    -51.8051E+06    -2.86095E+06    -52.8365E-03     105.613E-03    -52.7768E-03     26.6753E-03    -52.8631E-03     105.016E-03    -52.7196E-03     26.5427E-03
             846     3.41519E-03     92.0553E-03    -58.5469E+06    -145.620E+06    -41.6110E+06    -4.20504E+06    -52.9154E-03     105.703E-03    -52.7873E-03     35.0035E-03    -52.9562E-03     105.139E-03    -52.6993E-03     34.8154E-03
             847     4.26908E-03     92.0943E-03    -53.6852E+06    -135.984E+06    -32.2545E+06    -5.54756E+06    -53.0214E-03     105.812E-03    -52.7911E-03     43.0405E-03    -53.0783E-03     105.290E-03    -52.6773E-03     42.7914E-03
             848     5.12301E-03     92.1412E-03    -48.7855E+06    -124.773E+06    -24.4414E+06    -6.82256E+06    -53.1435E-03     105.927E-03    -52.7834E-03     50.7343E-03    -53.2211E-03     105.459E-03    -52.6539E-03     50.4190E-03
             849     5.97700E-03     92.1956E-03    -43.9446E+06    -115.638E+06    -17.9522E+06    -7.79548E+06    -53.2858E-03     106.057E-03    -52.7712E-03     58.0181E-03    -53.3854E-03     105.642E-03    -52.6295E-03     57.6333E-03
             850     6.83101E-03     92.2570E-03    -39.4435E+06    -107.192E+06    -13.0014E+06    -8.44674E+06    -53.4378E-03     106.190E-03    -52.7524E-03     64.8560E-03    -53.5651E-03     105.835E-03    -52.6048E-03     64.3984E-03
             851     7.68510E-03     92.3249E-03    -35.3699E+06    -98.9781E+06    -9.31512E+06    -8.99944E+06    -53.5897E-03     106.318E-03    -52.7284E-03     71.1962E-03    -53.7537E-03     106.032E-03    -52.5802E-03     70.6589E-03
             852     8.53918E-03     92.3988E-03    -31.6417E+06    -92.1268E+06    -7.39234E+06    -9.37504E+06    -53.7372E-03     106.436E-03    -52.6986E-03     76.9984E-03    -53.9464E-03     106.227E-03    -52.5561E-03     76.3749E-03
             853     9.39334E-03     92.4783E-03    -28.2841E+06    -82.4604E+06    -6.21320E+06    -8.83616E+06    -53.8587E-03     106.521E-03    -52.6622E-03     82.2403E-03    -54.1321E-03     106.419E-03    -52.5326E-03     81.5336E-03
             854     10.2475E-03     92.5625E-03    -25.1786E+06    -70.5477E+06    -4.48519E+06    -7.70132E+06    -53.9481E-03     106.575E-03    -52.6265E-03     86.7728E-03    -54.3085E-03     106.608E-03    -52.5101E-03     85.9820E-03
             855     11.1017E-03     92.6508E-03    -22.2658E+06    -55.1896E+06    -4.07905E+06    -6.48848E+06    -53.9780E-03     106.559E-03    -52.5808E-03     90.2872E-03    -54.4518E-03     106.769E-03    -52.4889E-03     89.4050E-03
             856     11.9559E-03     92.7419E-03    -19.8346E+06    -31.8035E+06    -2.87923E+06    -4.80002E+06    -53.9132E-03     106.442E-03    -52.5291E-03     92.9285E-03    -54.5465E-03     106.901E-03    -52.4687E-03     91.9545E-03
             857     12.8102E-03     92.8353E-03    -17.8202E+06     7.29419E+06    -1.10228E+06    -2.43547E+06    -53.7670E-03     106.225E-03    -52.4580E-03     95.7708E-03    -54.6369E-03     107.061E-03    -52.4483E-03     94.7116E-03
             858     13.6645E-03     92.9319E-03    -15.7898E+06     72.8002E+06     14.8673E+06    -311.430E+03    -53.5430E-03     105.959E-03    -52.4164E-03     99.9354E-03    -54.7322E-03     107.308E-03    -52.4247E-03     98.8425E-03
             859     14.5189E-03     93.0337E-03    -13.0650E+06     117.373E+06     46.0172E+06     383.233E+03    -52.8766E-03     105.352E-03    -52.4756E-03     91.2253E-03    -54.1935E-03     106.906E-03    -52.3968E-03     90.2133E-03
             860     15.3734E-03     93.1129E-03    -9.20257E+06     124.680E+06     71.7115E+06     325.132E+03    -52.0716E-03     104.631E-03    -52.5589E-03     73.1771E-03    -53.3289E-03     106.090E-03    -52.3678E-03     72.2967E-03
             861     16.2280E-03     93.1785E-03    -4.57093E+06     129.799E+06     83.5169E+06     249.518E+03    -51.5820E-03     104.159E-03    -52.5769E-03     38.4412E-03    -52.4686E-03     105.248E-03    -52.3409E-03     37.7901E-03
             862     853.752E-06     93.0412E-03    -69.8059E+06    -168.923E+06    -68.2543E+06    -1.11419E+06    -52.7956E-03     105.533E-03    -52.7372E-03     9.92750E-03    -52.8022E-03     104.890E-03    -52.7324E-03     9.88020E-03
             863     1.70751E-03     93.0550E-03    -67.1058E+06    -162.043E+06    -61.5396E+06    -2.21643E+06    -52.7915E-03     105.560E-03    -52.7681E-03     18.1620E-03    -52.8076E-03     104.941E-03    -52.7436E-03     18.0713E-03
             864     2.56132E-03     93.0774E-03    -63.2923E+06    -151.832E+06    -52.3460E+06    -3.61827E+06    -52.8321E-03     105.607E-03    -52.7753E-03     26.6769E-03    -52.8632E-03     105.027E-03    -52.7251E-03     26.5345E-03
             865     3.41517E-03     93.1083E-03    -58.7204E+06    -142.643E+06    -42.1053E+06    -4.99843E+06    -52.9071E-03     105.692E-03    -52.7845E-03     35.0055E-03    -52.9524E-03     105.144E-03    -52.7030E-03     34.8071E-03
             866     4.26907E-03     93.1473E-03    -53.8515E+06    -132.847E+06    -32.6624E+06    -6.33951E+06    -53.0083E-03     105.795E-03    -52.7865E-03     43.0442E-03    -53.0700E-03     105.288E-03    -52.6791E-03     42.7850E-03
             867     5.12301E-03     93.1942E-03    -48.9866E+06    -121.630E+06    -24.7805E+06    -7.83194E+06    -53.1256E-03     105.903E-03    -52.7772E-03     50.7417E-03    -53.2083E-03     105.452E-03    -52.6537E-03     50.4135E-03
             868     5.97700E-03     93.2485E-03    -44.2649E+06    -113.208E+06    -18.4598E+06    -9.04631E+06    -53.2629E-03     106.026E-03    -52.7631E-03     58.0321E-03    -53.3668E-03     105.624E-03    -52.6271E-03     57.6314E-03
             869     6.83106E-03     93.3099E-03    -39.8289E+06    -105.343E+06    -13.6672E+06    -9.64983E+06    -53.4096E-03     106.152E-03    -52.7421E-03     64.8810E-03    -53.5405E-03     105.807E-03    -52.6000E-03     64.4083E-03
             870     7.68513E-03     93.3778E-03    -35.7793E+06    -96.8812E+06    -9.87712E+06    -10.2595E+06    -53.5573E-03     106.273E-03    -52.7158E-03     71.2360E-03    -53.7255E-03     105.999E-03    -52.5729E-03     70.6830E-03
             871     8.53929E-03     93.4517E-03    -32.3027E+06    -91.0391E+06    -8.02865E+06    -10.5449E+06    -53.7050E-03     106.390E-03    -52.6853E-03     77.0389E-03    -53.9180E-03     106.189E-03    -52.5466E-03     76.4009E-03
             872     9.39343E-03     93.5310E-03    -29.2528E+06    -82.4777E+06    -7.30887E+06    -10.2518E+06    -53.8268E-03     106.474E-03    -52.6467E-03     82.3039E-03    -54.1032E-03     106.374E-03    -52.5212E-03     81.5796E-03
             873     10.2476E-03     93.6153E-03    -25.9904E+06    -70.9408E+06    -5.91877E+06    -9.72552E+06    -53.9170E-03     106.525E-03    -52.6079E-03     86.8807E-03    -54.2786E-03     106.560E-03    -52.4969E-03     86.0647E-03
             874     11.1018E-03     93.7036E-03    -22.7354E+06    -56.6563E+06    -5.59024E+06    -8.43029E+06    -53.9530E-03     106.514E-03    -52.5614E-03     90.4153E-03    -54.4247E-03     106.720E-03    -52.4742E-03     89.5090E-03
             875     11.9561E-03     93.7947E-03    -19.8913E+06    -34.1503E+06    -4.41161E+06    -6.32199E+06    -53.8988E-03     106.408E-03    -52.5093E-03     93.0714E-03    -54.5268E-03     106.857E-03    -52.4530E-03     92.0788E-03
             876     12.8103E-03     93.8881E-03    -17.6702E+06     3.64676E+06    -2.84564E+06    -3.40935E+06    -53.7683E-03     106.207E-03    -52.4383E-03     95.9257E-03    -54.6295E-03     107.026E-03    -52.4322E-03     94.8548E-03
             877     13.6647E-03     93.9848E-03    -15.7861E+06     70.4982E+06     12.7391E+06    -586.987E+03    -53.5506E-03     105.944E-03    -52.3934E-03     100.077E-03    -54.7335E-03     107.284E-03    -52.4090E-03     98.9814E-03
             878     14.5192E-03     94.0865E-03    -13.0794E+06     117.491E+06     44.1883E+06     455.013E+03    -52.8860E-03     105.337E-03    -52.4514E-03     91.3439E-03    -54.2007E-03     106.895E-03    -52.3818E-03     90.3330E-03
             879     15.3738E-03     94.1658E-03    -9.08489E+06     124.763E+06     71.0678E+06     318.624E+03    -52.0899E-03     104.632E-03    -52.5416E-03     73.2887E-03    -53.3461E-03     106.092E-03    -52.3540E-03     72.4078E-03
             880     16.2282E-03     94.2314E-03    -4.51804E+06     129.918E+06     83.8176E+06     190.667E+03    -51.5970E-03     104.163E-03    -52.5659E-03     38.5338E-03    -52.4843E-03     105.252E-03    -52.3286E-03     37.8811E-03
             881     853.737E-06     94.0943E-03    -70.0218E+06    -165.738E+06    -68.5537E+06    -1.82465E+06    -52.7927E-03     105.527E-03    -52.7345E-03     9.92742E-03    -52.8046E-03     104.901E-03    -52.7354E-03     9.87090E-03
             882     1.70751E-03     94.1081E-03    -67.1705E+06    -158.847E+06    -61.8330E+06    -3.08299E+06    -52.7858E-03     105.550E-03    -52.7641E-03     18.1628E-03    -52.8064E-03     104.947E-03    -52.7455E-03     18.0609E-03
             883     2.56131E-03     94.1306E-03    -63.3371E+06    -148.482E+06    -52.6872E+06    -4.39269E+06    -52.8221E-03     105.591E-03    -52.7691E-03     26.6792E-03    -52.8577E-03     105.028E-03    -52.7253E-03     26.5268E-03
             884     3.41518E-03     94.1614E-03    -58.8896E+06    -139.271E+06     -42.463E+06    -5.82144E+06    -52.8914E-03     105.668E-03    -52.7763E-03     35.0117E-03    -52.9419E-03     105.138E-03    -52.7013E-03     34.8028E-03
             885     4.26908E-03     94.2004E-03    -53.9412E+06    -129.445E+06    -33.0032E+06    -7.32860E+06    -52.9857E-03     105.761E-03    -52.7758E-03     43.0568E-03    -53.0522E-03     105.273E-03    -52.6749E-03     42.7850E-03
             886     5.12304E-03     94.2472E-03    -48.8863E+06    -117.954E+06    -24.8806E+06    -8.91498E+06    -53.0963E-03     105.860E-03    -52.7642E-03     50.7614E-03    -53.1836E-03     105.428E-03    -52.6466E-03     50.4195E-03
             887     5.97707E-03     94.3015E-03    -44.1893E+06    -110.639E+06    -18.4627E+06    -10.0739E+06    -53.2310E-03     105.980E-03    -52.7494E-03     58.0501E-03    -53.3382E-03     105.591E-03    -52.6172E-03     57.6365E-03
             888     6.83112E-03     94.3628E-03    -39.9517E+06    -103.193E+06    -13.9162E+06    -10.7571E+06    -53.3715E-03     106.097E-03    -52.7253E-03     64.9142E-03    -53.5056E-03     105.763E-03    -52.5873E-03     64.4278E-03
             889     7.68527E-03     94.4306E-03    -36.1072E+06    -94.6642E+06    -10.3726E+06    -11.3582E+06    -53.5133E-03     106.208E-03    -52.6951E-03     71.2897E-03    -53.6854E-03     105.946E-03    -52.5573E-03     70.7234E-03
             890     8.53940E-03     94.5045E-03    -32.6639E+06    -89.9933E+06    -8.64967E+06    -11.5221E+06    -53.6603E-03     106.323E-03    -52.6629E-03     77.1051E-03    -53.8756E-03     106.128E-03    -52.5283E-03     76.4554E-03
             891     9.39362E-03     94.5838E-03    -29.3272E+06     -81.228E+06    -8.02229E+06    -11.7647E+06    -53.7802E-03     106.401E-03    -52.6205E-03     82.4178E-03    -54.0575E-03     106.309E-03    -52.5003E-03     81.6752E-03
             892     10.2478E-03     94.6680E-03    -26.0971E+06    -70.7897E+06    -7.14876E+06    -11.7916E+06    -53.8737E-03     106.452E-03    -52.5783E-03     87.0481E-03    -54.2340E-03     106.489E-03    -52.4735E-03     86.2069E-03
             893     11.1021E-03     94.7563E-03    -23.0597E+06    -58.2382E+06    -7.31639E+06    -10.5987E+06    -53.9216E-03     106.452E-03    -52.5303E-03     90.6176E-03    -54.3898E-03     106.653E-03    -52.4490E-03     89.6848E-03
             894     11.9564E-03     94.8474E-03    -20.2612E+06    -36.8122E+06    -6.32994E+06    -8.33328E+06    -53.8845E-03     106.363E-03    -52.4780E-03     93.2955E-03    -54.5076E-03     106.801E-03    -52.4269E-03     92.2783E-03
             895     12.8107E-03     94.9409E-03    -17.8753E+06    -1.03268E+06    -5.07414E+06    -4.72457E+06    -53.7764E-03     106.185E-03    -52.4085E-03     96.1567E-03    -54.6287E-03     106.985E-03    -52.4065E-03     95.0701E-03
             896     13.6650E-03     95.0376E-03    -15.7191E+06     67.4068E+06     9.97979E+06    -1.05635E+06    -53.5726E-03     105.932E-03    -52.3595E-03     100.293E-03    -54.7468E-03     107.261E-03    -52.3846E-03     99.1915E-03
             897     14.5195E-03     95.1394E-03    -12.9325E+06     117.539E+06     41.7853E+06     321.997E+03    -52.9106E-03     105.327E-03    -52.4165E-03     91.5325E-03    -54.2216E-03     106.888E-03    -52.3592E-03     90.5199E-03
             898     15.3739E-03     95.2186E-03    -9.04391E+06     124.872E+06     70.2407E+06     277.752E+03    -52.1141E-03     104.631E-03    -52.5167E-03     73.4629E-03    -53.3697E-03     106.094E-03    -52.3335E-03     72.5809E-03
             899     16.2285E-03     95.2843E-03    -4.50484E+06     130.009E+06     84.1488E+06     214.173E+03    -51.6091E-03     104.158E-03    -52.5486E-03     38.6531E-03    -52.4975E-03     105.248E-03    -52.3098E-03     37.9995E-03
             900     853.752E-06     95.1474E-03    -70.1742E+06    -161.093E+06    -68.5131E+06    -2.39875E+06    -52.7791E-03     105.502E-03    -52.7228E-03     9.93099E-03    -52.7986E-03     104.899E-03    -52.7300E-03     9.86705E-03
             901     1.70751E-03     95.1613E-03    -67.4709E+06    -155.038E+06    -62.0857E+06    -4.00295E+06    -52.7699E-03     105.521E-03    -52.7514E-03     18.1689E-03    -52.7972E-03     104.939E-03    -52.7392E-03     18.0551E-03
             902     2.56134E-03     95.1836E-03    -63.6843E+06    -144.995E+06    -53.0088E+06    -5.21307E+06    -52.8014E-03     105.556E-03    -52.7548E-03     26.6878E-03    -52.8433E-03     105.011E-03    -52.7172E-03     26.5249E-03
             903     3.41520E-03     95.2144E-03    -59.0311E+06    -135.264E+06    -42.6509E+06    -6.78288E+06    -52.8632E-03     105.622E-03    -52.7591E-03     35.0269E-03    -52.9200E-03     105.113E-03    -52.6907E-03     34.8058E-03
             904     4.26913E-03     95.2534E-03    -53.9077E+06    -125.587E+06    -33.1593E+06    -8.56873E+06    -52.9492E-03     105.705E-03    -52.7556E-03     43.0811E-03    -53.0209E-03     105.235E-03    -52.6611E-03     42.7936E-03
             905     5.12313E-03     95.3002E-03    -48.9796E+06    -114.370E+06    -25.1245E+06    -9.93785E+06    -53.0509E-03     105.791E-03    -52.7404E-03     50.7979E-03    -53.1434E-03     105.377E-03    -52.6291E-03     50.4434E-03
             906     5.97717E-03     95.3544E-03    -44.5100E+06    -107.861E+06    -18.6637E+06    -10.9287E+06    -53.1810E-03     105.905E-03    -52.7236E-03     58.0919E-03    -53.2933E-03     105.530E-03    -52.5960E-03     57.6680E-03
             907     6.83129E-03     95.4156E-03    -40.2934E+06    -100.587E+06    -14.3050E+06    -11.8072E+06    -53.3131E-03     106.008E-03    -52.6952E-03     64.9838E-03    -53.4519E-03     105.688E-03    -52.5624E-03     64.4848E-03
             908     7.68544E-03     95.4834E-03    -36.4195E+06    -92.6072E+06    -11.2731E+06    -12.3756E+06    -53.4448E-03     106.104E-03    -52.6590E-03     71.4037E-03    -53.6198E-03     105.854E-03    -52.5283E-03     70.8257E-03
             909     8.53968E-03     95.5572E-03    -32.7571E+06    -88.2723E+06    -9.48674E+06    -12.8844E+06    -53.5892E-03     106.212E-03    -52.6229E-03     77.2640E-03    -53.8058E-03     106.027E-03    -52.4949E-03     76.5986E-03
             910     9.39393E-03     95.6364E-03    -29.2672E+06    -79.2147E+06    -8.64344E+06    -13.5440E+06    -53.7115E-03     106.289E-03    -52.5771E-03     82.6249E-03    -53.9901E-03     106.207E-03    -52.4631E-03     81.8615E-03
             911     10.2483E-03     95.7206E-03    -26.1532E+06    -70.3019E+06    -8.07577E+06    -13.5794E+06    -53.8156E-03     106.348E-03    -52.5328E-03     87.2989E-03    -54.1751E-03     106.389E-03    -52.4333E-03     86.4369E-03
             912     11.1025E-03     95.8089E-03    -23.5327E+06    -59.4501E+06    -8.86435E+06    -12.4952E+06    -53.8818E-03     106.365E-03    -52.4830E-03     90.9187E-03    -54.3481E-03     106.562E-03    -52.4070E-03     89.9637E-03
             913     11.9569E-03     95.9001E-03    -21.1762E+06    -39.5102E+06    -8.29441E+06    -10.3151E+06    -53.8695E-03     106.301E-03    -52.4313E-03     93.6260E-03    -54.4902E-03     106.730E-03    -52.3847E-03     92.5853E-03
             914     12.8112E-03     95.9936E-03    -18.8367E+06    -6.38694E+06    -7.60246E+06    -6.60540E+06    -53.7941E-03     106.159E-03    -52.3644E-03     96.5041E-03    -54.6400E-03     106.937E-03    -52.3658E-03     95.3947E-03
             915     13.6655E-03     96.0904E-03    -16.2509E+06     63.2963E+06     6.20091E+06    -2.35012E+06    -53.6068E-03     105.916E-03    -52.3093E-03     100.630E-03    -54.7727E-03     107.231E-03    -52.3465E-03     99.5137E-03
             916     14.5200E-03     96.1922E-03    -13.0717E+06     117.130E+06     38.2033E+06    -126.430E+03    -52.9480E-03     105.312E-03    -52.3643E-03     91.8423E-03    -54.2546E-03     106.878E-03    -52.3242E-03     90.8242E-03
             917     15.3745E-03     96.2716E-03    -9.09571E+06     124.823E+06     68.9387E+06     225.331E+03    -52.1618E-03     104.641E-03    -52.4787E-03     73.7355E-03    -53.4166E-03     106.106E-03    -52.3018E-03     72.8522E-03
             918     16.2289E-03     96.3372E-03    -4.58716E+06     130.089E+06     84.4391E+06     236.533E+03    -51.6669E-03     104.189E-03    -52.5225E-03     38.8103E-03    -52.5570E-03     105.280E-03    -52.2822E-03     38.1551E-03
             919     853.753E-06     96.2006E-03    -69.1775E+06    -155.437E+06    -67.3920E+06    -2.62077E+06    -52.7521E-03     105.449E-03    -52.6967E-03     9.93946E-03    -52.7764E-03     104.871E-03    -52.7080E-03     9.87272E-03
             920     1.70756E-03     96.2143E-03    -66.6615E+06    -150.617E+06    -60.5708E+06    -4.46256E+06    -52.7458E-03     105.475E-03    -52.7297E-03     18.1770E-03    -52.7776E-03     104.912E-03    -52.7175E-03     18.0574E-03
             921     2.56138E-03     96.2367E-03    -62.9906E+06    -141.139E+06    -52.0852E+06    -5.90197E+06    -52.7702E-03     105.501E-03    -52.7307E-03     26.7024E-03    -52.8155E-03     104.973E-03    -52.6952E-03     26.5309E-03
             922     3.41528E-03     96.2674E-03    -58.6090E+06    -130.563E+06    -42.5835E+06    -7.73577E+06    -52.8161E-03     105.543E-03    -52.7268E-03     35.0585E-03    -52.8776E-03     105.056E-03    -52.6655E-03     34.8256E-03
             923     4.26924E-03     96.3063E-03    -53.9283E+06    -121.377E+06    -33.3296E+06    -9.58798E+06    -52.8905E-03     105.609E-03    -52.7189E-03     43.1289E-03    -52.9681E-03     105.161E-03    -52.6313E-03     42.8290E-03
             924     5.12328E-03     96.3530E-03    -49.3149E+06    -111.154E+06    -25.6828E+06    -10.7365E+06    -52.9799E-03     105.678E-03    -52.6985E-03     50.8684E-03    -53.0777E-03     105.281E-03    -52.5943E-03     50.5046E-03
             925     5.97740E-03     96.4072E-03    -44.9875E+06    -104.738E+06    -19.3708E+06    -11.6143E+06    -53.0963E-03     105.772E-03    -52.6757E-03     58.1981E-03    -53.2143E-03     105.415E-03    -52.5555E-03     57.7668E-03
             926     6.83156E-03     96.4683E-03    -40.9529E+06    -97.3831E+06    -14.9380E+06    -12.8227E+06    -53.2181E-03     105.860E-03    -52.6419E-03     65.1311E-03    -53.3635E-03     105.558E-03    -52.5160E-03     64.6209E-03
             927     7.68585E-03     96.5361E-03    -36.7656E+06    -90.2249E+06    -11.9526E+06    -13.9256E+06    -53.3430E-03     105.943E-03    -52.6004E-03     71.6044E-03    -53.5217E-03     105.706E-03    -52.4760E-03     71.0089E-03
             928     8.54014E-03     96.6098E-03    -32.6942E+06    -85.9453E+06    -9.94392E+06    -14.6184E+06    -53.4865E-03     106.046E-03    -52.5593E-03     77.5223E-03    -53.7049E-03     105.872E-03    -52.4370E-03     76.8374E-03
             929     9.39452E-03     96.6890E-03    -29.3833E+06    -77.1620E+06    -8.87739E+06    -15.0618E+06    -53.6182E-03     106.129E-03    -52.5108E-03     82.9291E-03    -53.8994E-03     106.058E-03    -52.4007E-03     82.1492E-03
             930     10.2489E-03     96.7731E-03    -26.8073E+06    -69.5626E+06    -8.59609E+06    -14.9922E+06    -53.7393E-03     106.204E-03    -52.4649E-03     87.6532E-03    -54.1020E-03     106.250E-03    -52.3681E-03     86.7760E-03
             931     11.1033E-03     96.8615E-03    -24.4995E+06    -60.1764E+06    -10.0074E+06    -14.0738E+06    -53.8322E-03     106.246E-03    -52.4135E-03     91.3360E-03    -54.3002E-03     106.442E-03    -52.3407E-03     90.3637E-03
             932     11.9576E-03     96.9527E-03    -22.2228E+06    -41.8653E+06    -9.87409E+06    -12.1604E+06    -53.8554E-03     106.218E-03    -52.3630E-03     94.0838E-03    -54.4756E-03     106.640E-03    -52.3195E-03     93.0218E-03
             933     12.8120E-03     97.0463E-03    -19.9180E+06    -11.5372E+06    -9.70220E+06    -8.71697E+06    -53.8244E-03     106.125E-03    -52.3008E-03     96.9809E-03    -54.6654E-03     106.883E-03    -52.3037E-03     95.8461E-03
             934     13.6662E-03     97.1432E-03    -17.2478E+06     58.4666E+06     2.92550E+06    -4.43610E+06    -53.6704E-03     105.915E-03    -52.2443E-03     101.074E-03    -54.8305E-03     107.213E-03    -52.2894E-03     99.9309E-03
             935     14.5207E-03     97.2451E-03    -13.6767E+06     115.353E+06     34.4669E+06    -1.31982E+06    -53.0257E-03     105.324E-03    -52.2980E-03     92.1993E-03    -54.3285E-03     106.888E-03    -52.2731E-03     91.1650E-03
             936     15.3750E-03     97.3245E-03    -9.36252E+06     124.422E+06     67.1202E+06     2.10225E+03    -52.2476E-03     104.674E-03    -52.4260E-03     74.0111E-03    -53.5019E-03     106.142E-03    -52.2572E-03     73.1228E-03
             937     16.2295E-03     97.3902E-03    -4.67630E+06     130.208E+06     84.5393E+06     185.812E+03    -51.7587E-03     104.244E-03    -52.4850E-03     39.0015E-03    -52.6507E-03     105.336E-03    -52.2443E-03     38.3426E-03
             938     853.815E-06     97.2536E-03    -68.0660E+06    -149.676E+06    -65.9544E+06    -2.47708E+06    -52.7047E-03     105.354E-03    -52.6491E-03     9.94927E-03    -52.7338E-03     104.801E-03    -52.6631E-03     9.88455E-03
             939     1.70761E-03     97.2674E-03    -65.4434E+06    -145.566E+06    -58.9368E+06    -4.56896E+06    -52.6972E-03     105.382E-03    -52.6848E-03     18.1944E-03    -52.7326E-03     104.839E-03    -52.6735E-03     18.0737E-03
             940     2.56149E-03     97.2897E-03    -61.6320E+06    -136.607E+06    -50.6895E+06    -6.49956E+06    -52.7131E-03     105.396E-03    -52.6832E-03     26.7350E-03    -52.7602E-03     104.887E-03    -52.6492E-03     26.5561E-03
             941     3.41543E-03     97.3204E-03    -57.4604E+06    -125.753E+06    -41.9475E+06    -8.24373E+06    -52.7412E-03     105.412E-03    -52.6709E-03     35.1155E-03    -52.8047E-03     104.947E-03    -52.6150E-03     34.8768E-03
             942     4.26947E-03     97.3592E-03    -53.3614E+06    -116.940E+06    -33.0964E+06    -9.94208E+06    -52.7983E-03     105.454E-03    -52.6560E-03     43.2150E-03    -52.8796E-03     105.027E-03    -52.5746E-03     42.9117E-03
             943     5.12359E-03     97.4058E-03    -49.1041E+06    -107.709E+06    -25.7425E+06    -11.3913E+06    -52.8716E-03     105.501E-03    -52.6292E-03     50.9903E-03    -52.9731E-03     105.120E-03    -52.5305E-03     50.6197E-03
             944     5.97780E-03     97.4599E-03    -44.7029E+06    -101.559E+06    -19.5602E+06    -12.3807E+06    -52.9709E-03     105.569E-03    -52.5983E-03     58.3711E-03    -53.0914E-03     105.227E-03    -52.4840E-03     57.9322E-03
             945     6.83211E-03     97.5209E-03    -40.3767E+06    -93.2928E+06    -14.4952E+06    -13.8143E+06    -53.0824E-03     105.640E-03    -52.5580E-03     65.3540E-03    -53.2310E-03     105.357E-03    -52.4367E-03     64.8339E-03
             946     7.68646E-03     97.5885E-03    -36.4241E+06    -87.0368E+06    -11.3802E+06    -15.4605E+06    -53.2052E-03     105.717E-03    -52.5118E-03     71.8819E-03    -53.3871E-03     105.494E-03    -52.3897E-03     71.2698E-03
             947     8.54092E-03     97.6622E-03    -32.8794E+06    -83.6443E+06    -9.97837E+06    -16.2296E+06    -53.3493E-03     105.813E-03    -52.4638E-03     77.8857E-03    -53.5711E-03     105.650E-03    -52.3447E-03     77.1839E-03
             948     9.39539E-03     97.7413E-03    -29.7200E+06    -75.3287E+06    -8.87538E+06    -16.3531E+06    -53.4954E-03     105.907E-03    -52.4117E-03     83.3554E-03    -53.7801E-03     105.845E-03    -52.3038E-03     82.5630E-03
             949     10.2499E-03     97.8255E-03    -26.9166E+06    -68.5449E+06    -8.43574E+06    -16.1709E+06    -53.6437E-03     106.009E-03    -52.3648E-03     88.1414E-03    -54.0079E-03     106.058E-03    -52.2686E-03     87.2532E-03
             950     11.1043E-03     97.9138E-03    -24.3919E+06    -60.2457E+06    -10.3378E+06    -15.6009E+06    -53.7738E-03     106.086E-03    -52.3121E-03     91.9150E-03    -54.2402E-03     106.282E-03    -52.2410E-03     90.9272E-03
             951     11.9588E-03     98.0052E-03    -22.0338E+06    -43.9275E+06    -10.7544E+06    -13.9117E+06    -53.8468E-03     106.111E-03    -52.2639E-03     94.7265E-03    -54.4617E-03     106.523E-03    -52.2221E-03     93.6455E-03
             952     12.8131E-03     98.0989E-03    -19.6576E+06    -15.8203E+06    -10.8920E+06    -10.8549E+06    -53.8783E-03     106.087E-03    -52.2086E-03     97.6590E-03    -54.7107E-03     106.825E-03    -52.2116E-03     96.4990E-03
             953     13.6674E-03     98.1959E-03    -16.9644E+06     53.1494E+06     1.37062E+06    -6.57204E+06    -53.7821E-03     105.942E-03    -52.1599E-03     101.727E-03    -54.9321E-03     107.216E-03    -52.2055E-03     100.557E-03
             954     14.5217E-03     98.2979E-03    -13.8540E+06     112.148E+06     31.5633E+06    -2.53799E+06    -53.1699E-03     105.384E-03    -52.2146E-03     92.7820E-03    -54.4666E-03     106.939E-03    -52.1993E-03     91.7313E-03
             955     15.3761E-03     98.3775E-03    -9.75203E+06     123.642E+06     64.7378E+06    -667.276E+03    -52.4055E-03     104.758E-03    -52.3529E-03     74.5201E-03    -53.6591E-03     106.229E-03    -52.1943E-03     73.6209E-03
             956     16.2303E-03     98.4433E-03    -4.80871E+06     130.033E+06     84.2368E+06    -128.566E+03    -51.9174E-03     104.349E-03    -52.4319E-03     39.3146E-03    -52.8110E-03     105.443E-03    -52.1923E-03     38.6474E-03
             957     853.839E-06     98.3066E-03    -66.8747E+06    -144.367E+06    -65.2729E+06    -2.26006E+06    -52.6234E-03     105.194E-03    -52.5703E-03     9.96606E-03    -52.6553E-03     104.665E-03    -52.5903E-03     9.90444E-03
             958     1.70775E-03     98.3203E-03    -64.5480E+06    -139.728E+06    -58.4519E+06    -4.64857E+06    -52.6026E-03     105.201E-03    -52.5988E-03     18.2349E-03    -52.6428E-03     104.686E-03    -52.5949E-03     18.1136E-03
             959     2.56168E-03     98.3426E-03    -60.8466E+06    -131.338E+06    -49.7309E+06    -7.12786E+06    -52.6089E-03     105.204E-03    -52.5951E-03     26.7982E-03    -52.6611E-03     104.718E-03    -52.5651E-03     26.6120E-03
             960     3.41573E-03     98.3731E-03    -56.4332E+06    -121.357E+06    -40.6866E+06    -8.78201E+06    -52.6246E-03     105.204E-03    -52.5794E-03     35.2047E-03    -52.6911E-03     104.757E-03    -52.5250E-03     34.9602E-03
             961     4.26987E-03     98.4119E-03    -51.7142E+06    -112.210E+06    -31.7818E+06    -10.3744E+06    -52.6616E-03     105.218E-03    -52.5561E-03     43.3444E-03    -52.7432E-03     104.810E-03    -52.4773E-03     43.0373E-03
             962     5.12411E-03     98.4583E-03    -47.1993E+06    -103.933E+06    -24.2118E+06    -11.8509E+06    -52.7200E-03     105.243E-03    -52.5227E-03     51.1586E-03    -52.8192E-03     104.876E-03    -52.4247E-03     50.7845E-03
             963     5.97847E-03     98.5123E-03    -42.8671E+06     -97.794E+06    -18.1770E+06    -13.2739E+06    -52.8005E-03     105.283E-03    -52.4822E-03     58.6068E-03    -52.9188E-03     104.954E-03    -52.3692E-03     58.1595E-03
             964     6.83290E-03     98.5732E-03    -38.5834E+06    -88.9472E+06    -13.2718E+06    -14.9227E+06    -52.8944E-03     105.325E-03    -52.4311E-03     65.6765E-03    -53.0414E-03     105.058E-03    -52.3125E-03     65.1461E-03
             965     7.68748E-03     98.6408E-03    -35.0065E+06    -83.6968E+06    -9.89271E+06    -16.0221E+06    -53.0182E-03     105.398E-03    -52.3796E-03     72.2691E-03    -53.1990E-03     105.186E-03    -52.2569E-03     71.6543E-03
             966     8.54206E-03     98.7143E-03    -32.1992E+06    -80.6863E+06    -8.96454E+06    -17.0372E+06    -53.1681E-03     105.492E-03    -52.3239E-03     78.3836E-03    -53.3911E-03     105.340E-03    -52.2050E-03     77.6769E-03
             967     9.39673E-03     98.7935E-03    -29.2589E+06    -73.4317E+06    -8.51939E+06    -17.7576E+06    -53.3304E-03     105.596E-03    -52.2652E-03     83.9818E-03    -53.6149E-03     105.540E-03    -52.1589E-03     83.1774E-03
             968     10.2513E-03     98.8776E-03    -26.1376E+06    -67.2980E+06    -7.87554E+06    -17.7210E+06    -53.5152E-03     105.732E-03    -52.2170E-03     88.8792E-03    -53.8770E-03     105.785E-03    -52.1209E-03     87.9772E-03
             969     11.1060E-03     98.9661E-03    -23.4124E+06    -59.8733E+06    -9.89595E+06    -17.1464E+06    -53.6995E-03     105.865E-03    -52.1650E-03     92.7640E-03    -54.1615E-03     106.059E-03    -52.0937E-03     91.7621E-03
             970     11.9604E-03     99.0575E-03    -21.0223E+06    -45.4971E+06    -10.7209E+06    -15.7416E+06    -53.8420E-03     105.964E-03    -52.1217E-03     95.6586E-03    -54.4496E-03     106.366E-03    -52.0788E-03     94.5590E-03
             971     12.8148E-03     99.1515E-03    -18.6146E+06    -19.3178E+06    -10.9979E+06    -13.0565E+06    -53.9571E-03     106.034E-03    -52.0766E-03     98.6426E-03    -54.7799E-03     106.754E-03    -52.0765E-03     97.4578E-03
             972     13.6690E-03     99.2487E-03    -16.2709E+06     46.9950E+06     1.00410E+06    -8.34623E+06    -53.9445E-03     105.988E-03    -52.0431E-03     102.651E-03    -55.0836E-03     107.233E-03    -52.0826E-03     101.459E-03
             973     14.5233E-03     99.3509E-03    -13.4341E+06     107.943E+06     29.2910E+06    -3.42268E+06    -53.3898E-03     105.491E-03    -52.1010E-03     93.5630E-03    -54.6776E-03     107.029E-03    -52.0916E-03     92.4995E-03
             974     15.3774E-03     99.4306E-03    -9.69093E+06     122.938E+06     61.9803E+06    -1.20952E+06    -52.6684E-03     104.918E-03    -52.2496E-03     75.1852E-03    -53.9196E-03     106.391E-03    -52.1039E-03     74.2750E-03
             975     16.2315E-03     99.4965E-03    -5.06009E+06     129.391E+06     83.4108E+06    -638.175E+03    -52.2108E-03     104.568E-03    -52.3570E-03     39.7479E-03    -53.1060E-03     105.662E-03    -52.1202E-03     39.0676E-03
             976     853.973E-06     99.3594E-03    -65.1570E+06    -139.027E+06    -63.7650E+06    -2.56181E+06    -52.4917E-03     104.935E-03    -52.4434E-03     9.99763E-03    -52.5249E-03     104.428E-03    -52.4662E-03     9.93251E-03
             977     1.70795E-03     99.3731E-03    -62.4333E+06    -133.335E+06    -56.8756E+06    -5.02009E+06    -52.4559E-03     104.919E-03    -52.4632E-03     18.2976E-03    -52.4970E-03     104.430E-03    -52.4637E-03     18.1724E-03
             978     2.56204E-03     99.3952E-03    -58.8051E+06    -125.667E+06    -47.4657E+06    -7.47042E+06    -52.4507E-03     104.908E-03    -52.4569E-03     26.8907E-03    -52.5041E-03     104.444E-03    -52.4268E-03     26.7013E-03
             979     3.41620E-03     99.4257E-03    -54.5100E+06    -116.653E+06    -38.2401E+06    -9.44857E+06    -52.4512E-03     104.888E-03    -52.4367E-03     35.3374E-03    -52.5183E-03     104.458E-03    -52.3797E-03     35.0861E-03
             980     4.27050E-03     99.4642E-03    -49.9078E+06    -107.460E+06    -29.9667E+06    -11.1608E+06    -52.4631E-03     104.865E-03    -52.4017E-03     43.5377E-03    -52.5449E-03     104.475E-03    -52.3234E-03     43.2230E-03
             981     5.12492E-03     99.5106E-03    -45.2730E+06    -100.037E+06    -22.5618E+06    -12.5235E+06    -52.4987E-03     104.857E-03    -52.3583E-03     51.4233E-03    -52.5959E-03     104.504E-03    -52.2604E-03     51.0439E-03
             982     5.97946E-03     99.5644E-03    -40.7973E+06    -93.1199E+06    -16.3888E+06    -14.1669E+06    -52.5557E-03     104.862E-03    -52.3058E-03     58.9680E-03    -52.6722E-03     104.550E-03    -52.1936E-03     58.5137E-03
             983     6.83416E-03     99.6252E-03    -36.9364E+06    -85.1080E+06    -11.9059E+06    -15.6124E+06    -52.6331E-03     104.876E-03    -52.2428E-03     66.1481E-03    -52.7783E-03     104.622E-03    -52.1254E-03     65.6145E-03
             984     7.68892E-03     99.6926E-03    -33.5223E+06    -80.6623E+06    -8.56918E+06    -16.3973E+06    -52.7543E-03     104.936E-03    -52.1817E-03     72.8616E-03    -52.9327E-03     104.734E-03    -52.0590E-03     72.2489E-03
             985     8.54378E-03     99.7661E-03    -30.2936E+06    -76.8447E+06    -7.13499E+06    -17.5079E+06    -52.9146E-03     105.032E-03    -52.1178E-03     79.1233E-03    -53.1348E-03     104.893E-03    -51.9981E-03     78.4184E-03
             986     9.39864E-03     99.8452E-03    -27.5775E+06    -70.7516E+06    -7.18864E+06    -18.7570E+06    -53.1052E-03     105.157E-03    -52.0521E-03     84.8915E-03    -53.3854E-03     105.109E-03    -51.9455E-03     84.0828E-03
             987     10.2536E-03     99.9295E-03    -25.1066E+06    -65.7524E+06    -6.82877E+06    -19.1594E+06    -53.3414E-03     105.344E-03    -52.0022E-03     89.9437E-03    -53.7003E-03     105.400E-03    -51.9046E-03     89.0320E-03
             988     11.1083E-03     100.018E-03    -22.5914E+06    -59.2195E+06    -8.83366E+06    -18.8032E+06    -53.6042E-03     105.558E-03    -51.9537E-03     93.9552E-03    -54.0635E-03     105.752E-03    -51.8793E-03     92.9401E-03
             989     11.9629E-03     100.110E-03    -20.0659E+06    -46.2691E+06    -9.94055E+06    -17.7514E+06    -53.8440E-03     105.762E-03    -51.9182E-03     96.9486E-03    -54.4466E-03     106.158E-03    -51.8717E-03     95.8299E-03
             990     12.8172E-03     100.204E-03    -17.7273E+06    -22.6253E+06    -10.5252E+06    -15.1835E+06    -54.0766E-03     105.965E-03    -51.8882E-03     99.9818E-03    -54.8921E-03     106.668E-03    -51.8823E-03     98.7740E-03
             991     13.6714E-03     100.302E-03    -15.4014E+06     39.8361E+06     1.04551E+06    -9.86061E+06    -54.1869E-03     106.064E-03    -51.8766E-03     103.896E-03    -55.3143E-03     107.275E-03    -51.9068E-03     102.685E-03
             992     14.5254E-03     100.404E-03    -12.8151E+06     103.014E+06     26.5369E+06    -4.14926E+06    -53.7252E-03     105.666E-03    -51.9408E-03     94.6285E-03    -55.0026E-03     107.187E-03    -51.9389E-03     93.5530E-03
             993     15.3794E-03     100.484E-03    -9.20852E+06     122.384E+06     58.3737E+06    -1.70352E+06    -53.0716E-03     105.177E-03    -52.1050E-03     76.1174E-03    -54.3186E-03     106.656E-03    -51.9772E-03     75.1944E-03
             994     16.2330E-03     100.550E-03    -4.61001E+06     128.485E+06     82.5189E+06    -1.00365E+06    -52.6598E-03     104.914E-03    -52.2540E-03     40.3696E-03    -53.5536E-03     106.008E-03    -52.0210E-03     39.6750E-03
             995     854.096E-06     100.412E-03    -62.3401E+06    -132.739E+06    -60.9605E+06    -3.07522E+06    -52.2888E-03     104.532E-03    -52.2429E-03     10.0452E-03    -52.3211E-03     104.048E-03    -52.2648E-03     9.97400E-03
             996     1.70831E-03     100.425E-03    -59.9632E+06    -126.947E+06    -54.4364E+06    -5.51734E+06    -52.2391E-03     104.496E-03    -52.2569E-03     18.3888E-03    -52.2806E-03     104.032E-03    -52.2581E-03     18.2583E-03
             997     2.56255E-03     100.448E-03    -56.3329E+06    -119.793E+06    -45.3394E+06    -7.80306E+06    -52.2132E-03     104.456E-03    -52.2424E-03     27.0354E-03    -52.2657E-03     104.014E-03    -52.2137E-03     26.8436E-03
             998     3.41694E-03     100.478E-03    -52.0143E+06    -111.311E+06    -35.8342E+06    -9.93425E+06    -52.1910E-03     104.405E-03    -52.2145E-03     35.5464E-03    -52.2565E-03     103.995E-03    -52.1568E-03     35.2915E-03
             999     4.27145E-03     100.516E-03    -47.5439E+06    -102.691E+06    -27.7187E+06    -11.7208E+06    -52.1750E-03     104.343E-03    -52.1682E-03     43.8306E-03    -52.2546E-03     103.970E-03    -52.0890E-03     43.5124E-03
            1000     5.12614E-03     100.562E-03    -43.0817E+06    -95.6523E+06    -20.7808E+06    -13.3778E+06    -52.1778E-03     104.288E-03    -52.1099E-03     51.8307E-03    -52.2722E-03     103.950E-03    -52.0126E-03     51.4453E-03
            1001     5.98100E-03     100.616E-03    -38.8259E+06    -88.4706E+06    -14.6224E+06    -14.9062E+06    -52.2076E-03     104.250E-03    -52.0427E-03     59.5057E-03    -52.3225E-03     103.956E-03    -51.9312E-03     59.0484E-03
            1002     6.83597E-03     100.677E-03    -34.9799E+06    -81.6817E+06    -10.0629E+06    -15.9706E+06    -52.2707E-03     104.238E-03    -51.9675E-03     66.8290E-03    -52.4123E-03     103.995E-03    -51.8487E-03     66.2989E-03
            1003     7.69111E-03     100.744E-03    -31.4825E+06    -77.2068E+06    -6.86927E+06    -16.9847E+06    -52.3846E-03     104.277E-03    -51.8921E-03     73.7360E-03    -52.5584E-03     104.085E-03    -51.7688E-03     73.1255E-03
            1004     8.54629E-03     100.817E-03    -28.2472E+06    -72.9579E+06    -4.95163E+06    -18.2758E+06    -52.5640E-03     104.383E-03    -51.8187E-03     80.1887E-03    -52.7805E-03     104.254E-03    -51.6967E-03     79.4848E-03
            1005     9.40152E-03     100.897E-03    -25.5313E+06    -67.7341E+06    -4.77291E+06    -19.1512E+06    -52.8062E-03     104.555E-03    -51.7484E-03     86.1393E-03    -53.0818E-03     104.513E-03    -51.6370E-03     85.3372E-03
            1006     10.2566E-03     100.981E-03    -23.3632E+06    -63.2771E+06    -4.69022E+06    -19.9038E+06    -53.1162E-03     104.813E-03    -51.6966E-03     91.4026E-03    -53.4709E-03     104.874E-03    -51.5944E-03     90.4931E-03
            1007     11.1116E-03     101.070E-03    -21.2488E+06    -58.0322E+06    -6.99995E+06    -20.2096E+06    -53.4877E-03     105.141E-03    -51.6537E-03     95.5955E-03    -53.9433E-03     105.336E-03    -51.5737E-03     94.5733E-03
            1008     11.9663E-03     101.162E-03    -19.2904E+06    -46.4425E+06    -8.54747E+06    -19.4045E+06    -53.8658E-03     105.497E-03    -51.6308E-03     98.7113E-03    -54.4663E-03     105.889E-03    -51.5783E-03     97.5802E-03
            1009     12.8208E-03     101.256E-03    -17.3987E+06    -25.6483E+06    -9.63832E+06    -17.0826E+06    -54.2636E-03     105.887E-03    -51.6232E-03     101.810E-03    -55.0760E-03     106.574E-03    -51.6089E-03     100.583E-03
            1010     13.6746E-03     101.355E-03    -15.1275E+06     31.9265E+06     1.18636E+06    -11.6669E+06    -54.5411E-03     106.184E-03    -51.6426E-03     105.598E-03    -55.6600E-03     107.359E-03    -51.6611E-03     104.365E-03
            1011     14.5285E-03     101.457E-03    -12.1394E+06     97.1347E+06     22.8879E+06    -5.14727E+06    -54.2088E-03     105.927E-03    -51.7178E-03     96.0796E-03    -55.4747E-03     107.428E-03    -51.7266E-03     94.9868E-03
            1012     15.3819E-03     101.538E-03    -8.79212E+06     121.813E+06     53.5323E+06    -2.04630E+06    -53.6555E-03     105.562E-03    -51.9062E-03     77.3848E-03    -54.8990E-03     107.051E-03    -51.8024E-03     76.4476E-03
            1013     16.2353E-03     101.604E-03    -4.76213E+06     127.384E+06     81.3473E+06    -1.23614E+06    -53.3278E-03     105.443E-03    -52.1153E-03     41.2183E-03    -54.2241E-03     106.539E-03    -51.8863E-03     40.5069E-03
            1014     854.403E-06     101.464E-03    -59.3122E+06    -125.665E+06    -57.8363E+06    -3.32013E+06    -51.9832E-03     103.922E-03    -51.9383E-03     10.1133E-03    -52.0151E-03     103.465E-03    -51.9593E-03     10.0397E-03
            1015     1.70878E-03     101.477E-03    -57.0533E+06    -120.486E+06    -51.7704E+06    -5.77654E+06    -51.9184E-03     103.866E-03    -51.9473E-03     18.5191E-03    -51.9585E-03     103.426E-03    -51.9487E-03     18.3869E-03
            1016     2.56335E-03     101.499E-03    -53.6868E+06    -113.559E+06    -43.4081E+06    -8.27457E+06    -51.8638E-03     103.784E-03    -51.9205E-03     27.2505E-03    -51.9146E-03     103.367E-03    -51.8950E-03     27.0553E-03
            1017     3.41802E-03     101.529E-03    -49.4722E+06    -105.697E+06    -34.0262E+06    -10.5211E+06    -51.8069E-03     103.687E-03    -51.8796E-03     35.8614E-03    -51.8701E-03     103.298E-03    -51.8248E-03     35.6028E-03
            1018     4.27289E-03     101.568E-03    -44.8051E+06    -97.6463E+06    -25.3043E+06    -12.4126E+06    -51.7578E-03     103.579E-03    -51.8213E-03     44.2620E-03    -51.8339E-03     103.223E-03    -51.7413E-03     43.9403E-03
            1019     5.12796E-03     101.614E-03    -40.2283E+06    -90.8332E+06    -18.2418E+06    -14.1115E+06    -51.7272E-03     103.474E-03    -51.7467E-03     52.4064E-03    -51.8169E-03     103.151E-03    -51.6479E-03     52.0186E-03
            1020     5.98320E-03     101.667E-03    -35.9532E+06    -84.1599E+06    -12.4145E+06    -15.5620E+06    -51.7252E-03     103.386E-03    -51.6607E-03     60.2633E-03    -51.8336E-03     103.104E-03    -51.5487E-03     59.8067E-03
            1021     6.83866E-03     101.727E-03    -32.0439E+06    -78.4089E+06    -7.67362E+06    -16.4563E+06    -51.7709E-03     103.341E-03    -51.5700E-03     67.7862E-03    -51.9040E-03     103.104E-03    -51.4482E-03     67.2609E-03
            1022     7.69422E-03     101.794E-03    -28.5967E+06    -73.2252E+06    -4.20071E+06    -17.4467E+06    -51.8857E-03     103.365E-03    -51.4789E-03     74.9341E-03    -52.0520E-03     103.182E-03    -51.3522E-03     74.3308E-03
            1023     8.54989E-03     101.868E-03    -25.7175E+06    -69.2809E+06    -2.24188E+06    -18.6461E+06    -52.0947E-03     103.489E-03    -51.3940E-03     81.6483E-03    -52.3048E-03     103.368E-03    -51.2674E-03     80.9545E-03
            1024     9.40549E-03     101.947E-03    -23.3623E+06    -64.9668E+06    -2.20288E+06    -19.3766E+06    -52.4076E-03     103.725E-03    -51.3177E-03     87.8675E-03    -52.6769E-03     103.687E-03    -51.2006E-03     87.0784E-03
            1025     10.2611E-03     102.032E-03    -21.2338E+06    -59.8306E+06    -1.90407E+06    -20.2635E+06    -52.8241E-03     104.090E-03    -51.2660E-03     93.4073E-03    -53.1744E-03     104.158E-03    -51.1580E-03     92.5093E-03
            1026     11.1163E-03     102.121E-03    -19.6153E+06    -56.4969E+06    -4.54180E+06    -20.7383E+06    -53.3510E-03     104.585E-03    -51.2338E-03     97.8302E-03    -53.8023E-03     104.779E-03    -51.1461E-03     96.8160E-03
            1027     11.9712E-03     102.213E-03    -18.4402E+06    -46.0387E+06    -6.53279E+06    -20.0934E+06    -53.9217E-03     105.152E-03    -51.2305E-03     101.100E-03    -54.5213E-03     105.542E-03    -51.1697E-03     99.9714E-03
            1028     12.8255E-03     102.309E-03    -17.3528E+06    -27.8875E+06    -8.08495E+06    -18.2698E+06    -54.5448E-03     105.800E-03    -51.2554E-03     104.276E-03    -55.3586E-03     106.477E-03    -51.2302E-03     103.042E-03
            1029     13.6793E-03     102.408E-03    -15.6241E+06     24.3165E+06     1.56661E+06    -13.4394E+06    -55.0506E-03     106.368E-03    -51.3177E-03     107.899E-03    -56.1673E-03     107.511E-03    -51.3225E-03     106.643E-03
            1030     14.5326E-03     102.511E-03    -12.6809E+06     90.4938E+06     19.1847E+06    -7.06448E+06    -54.9051E-03     106.325E-03    -51.4195E-03     98.0450E-03    -56.1668E-03     107.807E-03    -51.4364E-03     96.9200E-03
            1031     15.3856E-03     102.592E-03    -8.51750E+06     120.075E+06     48.3365E+06    -2.96090E+06    -54.5130E-03     106.159E-03    -51.6464E-03     79.0702E-03    -55.7540E-03     107.656E-03    -51.5665E-03     78.1066E-03
            1032     16.2381E-03     102.659E-03    -4.10208E+06     126.083E+06     79.7249E+06    -1.13962E+06    -54.3361E-03     106.267E-03    -51.9307E-03     42.3229E-03    -55.2317E-03     107.364E-03    -51.7090E-03     41.5928E-03
            1033     854.700E-06     102.515E-03    -55.8179E+06    -118.282E+06    -54.5714E+06    -3.43707E+06    -51.5353E-03     103.030E-03    -51.4945E-03     10.2095E-03    -51.5652E-03     102.600E-03    -51.5149E-03     10.1357E-03
            1034     1.70957E-03     102.529E-03    -53.6375E+06    -113.593E+06    -48.7961E+06    -6.12407E+06    -51.4494E-03     102.944E-03    -51.4946E-03     18.7080E-03    -51.4865E-03     102.529E-03    -51.4961E-03     18.5737E-03
            1035     2.56448E-03     102.550E-03    -50.2907E+06    -106.967E+06    -40.6858E+06    -8.76541E+06    -51.3613E-03     102.816E-03    -51.4543E-03     27.5526E-03    -51.4084E-03     102.422E-03    -51.4297E-03     27.3549E-03
            1036     3.41963E-03     102.580E-03    -46.3059E+06    -99.7294E+06    -31.7266E+06    -11.1626E+06    -51.2612E-03     102.657E-03    -51.3957E-03     36.3039E-03    -51.3200E-03     102.289E-03    -51.3426E-03     36.0426E-03
            1037     4.27498E-03     102.618E-03    -42.0115E+06    -92.3361E+06    -23.1487E+06    -13.1664E+06    -51.1672E-03     102.485E-03    -51.3182E-03     44.8720E-03    -51.2392E-03     102.148E-03    -51.2392E-03     44.5480E-03
            1038     5.13056E-03     102.664E-03    -37.6641E+06    -85.9279E+06    -15.9071E+06    -14.8310E+06    -51.0956E-03     102.320E-03    -51.2240E-03     53.2156E-03    -51.1816E-03     102.013E-03    -51.1243E-03     52.8283E-03
            1039     5.98639E-03     102.717E-03    -33.5513E+06    -79.8080E+06    -10.2836E+06    -16.2496E+06    -51.0598E-03     102.176E-03    -51.1161E-03     61.3107E-03    -51.1635E-03     101.907E-03    -51.0031E-03     60.8575E-03
            1040     6.84243E-03     102.777E-03    -29.7480E+06    -75.2770E+06    -5.64122E+06    -17.0747E+06    -51.0905E-03     102.096E-03    -51.0055E-03     69.1044E-03    -51.2167E-03     101.866E-03    -50.8815E-03     68.5861E-03
            1041     7.69864E-03     102.844E-03    -26.3184E+06    -69.2269E+06    -1.95925E+06    -17.8638E+06    -51.2128E-03     102.108E-03    -50.8956E-03     76.5766E-03    -51.3732E-03     101.935E-03    -50.7669E-03     75.9854E-03
            1042     8.55490E-03     102.917E-03    -23.3468E+06    -65.9125E+06     251.756E+03    -18.8162E+06    -51.4700E-03     102.269E-03    -50.7987E-03     83.6344E-03    -51.6725E-03     102.154E-03    -50.6680E-03     82.9581E-03
            1043     9.41115E-03     102.997E-03    -20.8138E+06    -62.0418E+06     498.579E+03    -19.5033E+06    -51.8842E-03     102.601E-03    -50.7170E-03     90.2122E-03    -52.1444E-03     102.566E-03    -50.5944E-03     89.4425E-03
            1044     10.2671E-03     103.082E-03    -18.9578E+06    -56.4996E+06     1.20843E+06    -20.1920E+06    -52.4549E-03     103.125E-03    -50.6704E-03     96.0865E-03    -52.7990E-03     103.198E-03    -50.5549E-03     95.2104E-03
            1045     11.1228E-03     103.171E-03    -17.7438E+06    -54.8216E+06    -1.48767E+06    -20.3914E+06    -53.1992E-03     103.855E-03    -50.6561E-03     100.804E-03    -53.6453E-03     104.048E-03    -50.5583E-03     99.8137E-03
            1046     11.9777E-03     103.265E-03    -16.9540E+06    -45.1079E+06    -3.74059E+06    -19.9317E+06    -54.0355E-03     104.718E-03    -50.6822E-03     104.269E-03    -54.6329E-03     105.106E-03    -50.6109E-03     103.158E-03
            1047     12.8321E-03     103.361E-03    -16.5053E+06    -29.6455E+06    -5.44957E+06    -18.1342E+06    -54.9666E-03     105.721E-03    -50.7547E-03     107.517E-03    -55.7810E-03     106.388E-03    -50.7150E-03     106.293E-03
            1048     13.6854E-03     103.461E-03    -15.5409E+06     18.9482E+06     3.38274E+06    -14.5283E+06    -55.7802E-03     106.657E-03    -50.8765E-03     110.909E-03    -56.8999E-03     107.779E-03    -50.8645E-03     109.638E-03
            1049     14.5384E-03     103.565E-03    -12.5526E+06     84.0730E+06     19.2587E+06    -9.54247E+06    -55.9244E-03     106.965E-03    -51.0404E-03     100.611E-03    -57.1879E-03     108.426E-03    -51.0478E-03     99.4418E-03
            1050     15.3903E-03     103.647E-03    -8.59792E+06     115.913E+06     45.4173E+06    -4.43460E+06    -55.8019E-03     107.131E-03    -51.3287E-03     81.2024E-03    -57.0459E-03     108.624E-03    -51.2572E-03     80.1967E-03
            1051     16.2419E-03     103.715E-03    -4.44831E+06     124.128E+06     77.5452E+06    -1.14201E+06    -55.8295E-03     107.529E-03    -51.7000E-03     43.6737E-03    -56.7307E-03     108.631E-03    -51.4858E-03     42.9139E-03
            1052     855.310E-06     103.565E-03    -52.3624E+06    -110.505E+06    -51.1708E+06    -3.65814E+06    -50.8913E-03     101.750E-03    -50.8583E-03     10.3488E-03    -50.9201E-03     101.349E-03    -50.8780E-03     10.2739E-03
            1053     1.71059E-03     103.579E-03    -50.2754E+06    -106.200E+06    -45.7522E+06    -6.54643E+06    -50.7780E-03     101.624E-03    -50.8460E-03     18.9757E-03    -50.8133E-03     101.236E-03    -50.8479E-03     18.8392E-03
            1054     2.56617E-03     103.600E-03    -47.2093E+06    -100.100E+06    -38.1218E+06    -9.30536E+06    -50.6490E-03     101.437E-03    -50.7885E-03     27.9750E-03    -50.6939E-03     101.070E-03    -50.7655E-03     27.7756E-03
            1055     3.42189E-03     103.630E-03    -43.4213E+06    -93.4263E+06    -29.5273E+06    -11.7363E+06    -50.5000E-03     101.209E-03    -50.7088E-03     36.9114E-03    -50.5559E-03     100.864E-03    -50.6580E-03     36.6502E-03
            1056     4.27793E-03     103.667E-03    -39.2914E+06    -86.8394E+06    -21.2476E+06    -13.7679E+06    -50.3517E-03     100.959E-03    -50.6074E-03     45.7027E-03    -50.4195E-03     100.641E-03    -50.5307E-03     45.3811E-03
            1057     5.13425E-03     103.713E-03    -35.0912E+06    -80.8499E+06    -13.9059E+06    -15.4983E+06    -50.2303E-03     100.719E-03    -50.4883E-03     54.3082E-03    -50.3116E-03     100.429E-03    -50.3897E-03     53.9253E-03
            1058     5.99085E-03     103.765E-03    -31.1858E+06    -75.7030E+06    -8.16931E+06    -16.6652E+06    -50.1627E-03     100.519E-03    -50.3564E-03     62.7051E-03    -50.2607E-03     100.261E-03    -50.2422E-03     62.2627E-03
            1059     6.84771E-03     103.825E-03    -27.5938E+06    -71.5938E+06    -3.76089E+06    -17.6685E+06    -50.1806E-03     100.402E-03    -50.2211E-03     70.8638E-03    -50.3003E-03     100.180E-03    -50.0961E-03     70.3573E-03
            1060     7.70473E-03     103.892E-03    -24.1231E+06    -65.8703E+06    -175.048E+03    -18.4247E+06    -50.3248E-03     100.415E-03    -50.0902E-03     78.7494E-03    -50.4768E-03     100.248E-03    -49.9606E-03     78.1737E-03
            1061     8.56185E-03     103.965E-03    -21.1642E+06    -62.6114E+06     2.61843E+06    -18.9756E+06    -50.6598E-03     100.642E-03    -49.9821E-03     86.2431E-03    -50.8539E-03     100.531E-03    -49.8476E-03     85.5901E-03
            1062     9.41877E-03     104.045E-03    -18.8683E+06    -59.1749E+06     3.13108E+06    -19.5875E+06    -51.2184E-03     101.117E-03    -49.8987E-03     93.2754E-03    -51.4708E-03     101.083E-03    -49.7699E-03     92.5315E-03
            1063     10.2755E-03     104.131E-03    -17.2447E+06    -54.1445E+06     3.91709E+06    -19.5359E+06    -52.0096E-03     101.872E-03    -49.8628E-03     99.5665E-03    -52.3471E-03     101.945E-03    -49.7397E-03     98.7253E-03
            1064     11.1314E-03     104.221E-03    -16.3363E+06    -52.6481E+06     1.74036E+06    -19.6441E+06    -53.0559E-03     102.934E-03    -49.8777E-03     104.631E-03    -53.4993E-03     103.127E-03    -49.7690E-03     103.673E-03
            1065     11.9867E-03     104.316E-03    -15.8726E+06    -44.4487E+06    -626.390E+03    -19.1216E+06    -54.2635E-03     104.214E-03    -49.9506E-03     108.282E-03    -54.8611E-03     104.599E-03    -49.8663E-03     107.199E-03
            1066     12.8408E-03     104.413E-03    -15.3934E+06    -30.6847E+06    -1.97136E+06    -17.6028E+06    -55.6091E-03     105.700E-03    -50.0913E-03     111.545E-03    -56.4270E-03     106.361E-03    -50.0344E-03     110.335E-03
            1067     13.6938E-03     104.515E-03    -13.7163E+06     16.3595E+06     7.30679E+06    -15.3953E+06    -56.8335E-03     107.132E-03    -50.2984E-03     114.575E-03    -57.9585E-03     108.245E-03    -50.2657E-03     113.286E-03
            1068     14.5456E-03     104.620E-03    -11.3203E+06     77.9705E+06     23.0062E+06    -11.0069E+06    -57.3985E-03     107.964E-03    -50.5657E-03     103.702E-03    -58.6691E-03     109.405E-03    -50.5474E-03     102.492E-03
            1069     15.3965E-03     104.703E-03    -8.48284E+06     109.743E+06     45.2181E+06    -5.12491E+06    -57.6724E-03     108.621E-03    -50.9489E-03     83.6872E-03    -58.9251E-03     110.102E-03    -50.8696E-03     82.6360E-03
            1070     16.2461E-03     104.772E-03    -4.79034E+06     121.851E+06     75.5009E+06    -1.24805E+06    -58.0213E-03     109.450E-03    -51.4290E-03     45.2090E-03    -58.9320E-03     110.558E-03    -51.2212E-03     44.4033E-03
            1071     855.961E-06     104.614E-03    -49.0643E+06    -102.208E+06    -48.0351E+06    -3.92365E+06    -49.9868E-03     99.9481E-03    -49.9613E-03     10.5362E-03    -50.0156E-03     99.5791E-03    -49.9821E-03     10.4601E-03
            1072     1.71218E-03     104.627E-03    -47.1860E+06    -98.4283E+06    -42.9816E+06    -6.90969E+06    -49.8431E-03     99.7791E-03    -49.9360E-03     19.3310E-03    -49.8779E-03     99.4216E-03    -49.9398E-03     19.1943E-03
            1073     2.56845E-03     104.648E-03    -44.3459E+06    -92.9724E+06    -35.8596E+06     -9.7213E+06    -49.6681E-03     99.5274E-03    -49.8593E-03     28.5321E-03    -49.7118E-03     99.1875E-03    -49.8395E-03     28.3341E-03
            1074     3.42510E-03     104.677E-03    -40.9713E+06    -86.9972E+06    -27.7935E+06    -12.1552E+06    -49.4613E-03     99.2167E-03    -49.7554E-03     37.7070E-03    -49.5157E-03     98.8973E-03    -49.7088E-03     37.4500E-03
            1075     4.28202E-03     104.715E-03    -37.2667E+06    -81.0864E+06    -19.8866E+06    -14.2486E+06    -49.2511E-03     98.8774E-03    -49.6263E-03     46.7808E-03    -49.3173E-03     98.5810E-03    -49.5541E-03     46.4659E-03
            1076     5.13933E-03     104.759E-03    -33.5721E+06    -75.8126E+06    -12.8779E+06    -15.8818E+06    -49.0733E-03     98.5508E-03    -49.4775E-03     55.7231E-03    -49.1530E-03     98.2794E-03    -49.3833E-03     55.3520E-03
            1077     5.99696E-03     104.812E-03    -29.9239E+06    -71.6426E+06    -7.20052E+06    -17.0763E+06    -48.9717E-03     98.2888E-03    -49.3171E-03     64.5103E-03    -49.0668E-03     98.0441E-03    -49.2058E-03     64.0832E-03
            1078     6.85489E-03     104.871E-03    -26.3712E+06    -67.3815E+06    -2.60250E+06    -18.1817E+06    -48.9914E-03     98.1471E-03    -49.1557E-03     73.1163E-03    -49.1076E-03     97.9379E-03    -49.0327E-03     72.6276E-03
            1079     7.71300E-03     104.938E-03    -23.3039E+06    -62.9872E+06     872.995E+03    -18.8528E+06    -49.1896E-03     98.1957E-03    -49.0061E-03     81.4968E-03    -49.3368E-03     98.0339E-03    -48.8766E-03     80.9437E-03
            1080     8.57112E-03     105.012E-03    -20.5834E+06    -59.4943E+06     3.83181E+06    -19.1815E+06    -49.6460E-03     98.5340E-03    -48.8880E-03     89.5354E-03    -49.8361E-03     98.4286E-03    -48.7528E-03     88.9108E-03
            1081     9.42906E-03     105.092E-03    -18.5405E+06    -56.8771E+06     4.84284E+06    -19.1917E+06    -50.4268E-03     99.2390E-03    -48.8123E-03     97.0769E-03    -50.6758E-03     99.2062E-03    -48.6787E-03     96.3701E-03
            1082     10.2864E-03     105.178E-03    -17.0951E+06    -52.3987E+06     5.66197E+06    -18.9344E+06    -51.5433E-03     100.344E-03    -48.8005E-03     103.823E-03    -51.8786E-03     100.416E-03    -48.6714E-03     103.020E-03
            1083     11.1430E-03     105.270E-03    -16.0734E+06    -50.6680E+06     4.37875E+06    -18.5698E+06    -53.0063E-03     101.871E-03    -48.8646E-03     109.211E-03    -53.4514E-03     102.066E-03    -48.7459E-03     108.293E-03
            1084     11.9982E-03     105.366E-03    -15.5390E+06    -43.6515E+06     2.34464E+06    -18.1364E+06    -54.7133E-03     103.724E-03    -49.0105E-03     112.995E-03    -55.3162E-03     104.110E-03    -48.9130E-03     111.941E-03
            1085     12.8521E-03     105.466E-03    -14.3615E+06    -30.1934E+06     1.75984E+06    -17.8079E+06    -56.5859E-03     105.834E-03    -49.2482E-03     116.190E-03    -57.4137E-03     106.499E-03    -49.1748E-03     114.980E-03
            1086     13.7040E-03     105.569E-03    -12.8123E+06     14.6499E+06     11.4430E+06    -15.9979E+06    -58.3303E-03     107.906E-03    -49.5758E-03     118.718E-03    -59.4728E-03     109.022E-03    -49.5213E-03     117.403E-03
            1087     14.5548E-03     105.677E-03    -10.9112E+06     71.6642E+06     26.7638E+06    -11.1769E+06    -59.4269E-03     109.410E-03    -49.9832E-03     107.177E-03    -60.7156E-03     110.837E-03    -49.9374E-03     105.929E-03
            1088     15.4035E-03     105.761E-03    -8.26242E+06     103.251E+06     45.9454E+06    -5.34684E+06    -60.2202E-03     110.724E-03    -50.5035E-03     86.4528E-03    -61.4896E-03     112.197E-03    -50.4115E-03     85.3425E-03
            1089     16.2512E-03     105.832E-03    -4.37322E+06     119.453E+06     74.0809E+06    -1.58169E+06    -61.0503E-03     112.182E-03    -51.1319E-03     47.0196E-03    -61.9728E-03     113.299E-03    -50.9284E-03     46.1456E-03
            1090     857.105E-06     105.661E-03    -45.9521E+06    -93.5302E+06    -44.9731E+06    -4.07010E+06    -48.7544E-03     97.4878E-03    -48.7334E-03     10.7685E-03    -48.7846E-03     97.1531E-03    -48.7560E-03     10.6934E-03
            1091     1.71419E-03     105.673E-03    -44.3946E+06    -90.3881E+06    -40.6773E+06    -7.13024E+06    -48.5776E-03     97.2727E-03    -48.6951E-03     19.7729E-03    -48.6132E-03     96.9477E-03    -48.7031E-03     19.6388E-03
            1092     2.57167E-03     105.694E-03    -42.0765E+06    -85.7868E+06    -34.3846E+06    -9.92236E+06    -48.3519E-03     96.9493E-03    -48.5974E-03     29.2228E-03    -48.3961E-03     96.6391E-03    -48.5839E-03     29.0308E-03
            1093     3.42939E-03     105.723E-03    -39.2166E+06    -80.5572E+06    -26.9555E+06    -12.2464E+06    -48.0807E-03     96.5476E-03    -48.4669E-03     38.6888E-03    -48.1355E-03     96.2552E-03    -48.4280E-03     38.4428E-03
            1094     4.28757E-03     105.760E-03    -36.1877E+06    -75.2844E+06    -19.5292E+06    -14.2182E+06    -47.8025E-03     96.1097E-03    -48.3073E-03     48.1077E-03    -47.8699E-03     95.8379E-03    -48.2433E-03     47.8092E-03
            1095     5.14614E-03     105.804E-03    -33.1089E+06    -70.8896E+06    -12.9417E+06    -15.7941E+06    -47.5687E-03     95.6949E-03    -48.1262E-03     57.4586E-03    -47.6497E-03     95.4440E-03    -48.0402E-03     57.1089E-03
            1096     6.00513E-03     105.856E-03    -30.1950E+06    -67.2778E+06    -7.50805E+06    -17.0536E+06    -47.4419E-03     95.3772E-03    -47.9353E-03     66.7212E-03    -47.5393E-03     95.1501E-03    -47.8315E-03     66.3193E-03
            1097     6.86441E-03     105.915E-03    -27.8007E+06    -63.4190E+06    -3.16492E+06    -17.9673E+06    -47.4919E-03     95.2410E-03    -47.7491E-03     75.8589E-03    -47.6137E-03     95.0479E-03    -47.6326E-03     75.4023E-03
            1098     7.72387E-03     105.982E-03    -25.8489E+06    -60.0347E+06     191.514E+03    -18.4619E+06    -47.8035E-03     95.3906E-03    -47.5871E-03     84.8042E-03    -47.9587E-03     95.2401E-03    -47.4616E-03     84.2890E-03
            1099     8.58326E-03     106.055E-03    -24.3979E+06    -56.6522E+06     2.78464E+06    -18.7330E+06    -48.4733E-03     95.9436E-03    -47.4703E-03     93.4332E-03    -48.6760E-03     95.8503E-03    -47.3389E-03     92.8496E-03
            1100     9.44221E-03     106.136E-03    -23.0137E+06    -55.0551E+06     4.05642E+06    -18.7249E+06    -49.5950E-03     97.0160E-03    -47.4210E-03     101.503E-03    -49.8590E-03     96.9910E-03    -47.2875E-03     100.838E-03
            1101     10.3004E-03     106.224E-03    -21.4869E+06    -50.2974E+06     5.21890E+06    -18.6714E+06    -51.1698E-03     98.6289E-03    -47.4591E-03     108.681E-03    -51.5224E-03     98.7116E-03    -47.3289E-03     107.913E-03
            1102     11.1572E-03     106.317E-03    -19.6779E+06    -49.5187E+06     4.58517E+06    -18.5918E+06    -53.1788E-03     100.782E-03    -47.6036E-03     114.351E-03    -53.6410E-03     100.986E-03    -47.4804E-03     113.457E-03
            1103     12.0124E-03     106.416E-03    -17.4705E+06    -42.0502E+06     3.86403E+06    -18.3152E+06    -55.4985E-03     103.356E-03    -47.8580E-03     118.231E-03    -56.1198E-03     103.755E-03    -47.7524E-03     117.185E-03
            1104     12.8654E-03     106.518E-03    -15.8438E+06    -28.7394E+06     4.46386E+06    -18.3310E+06    -57.9969E-03     106.229E-03    -48.2324E-03     121.239E-03    -58.8527E-03     106.914E-03    -48.1454E-03     120.014E-03
            1105     13.7164E-03     106.625E-03    -14.0995E+06     12.4658E+06     14.1878E+06    -16.3658E+06    -60.3512E-03     109.070E-03    -48.7192E-03     123.198E-03    -61.5278E-03     110.200E-03    -48.6458E-03     121.846E-03
            1106     14.5650E-03     106.735E-03    -11.6658E+06     65.4012E+06     29.2501E+06    -11.4955E+06    -62.0619E-03     111.366E-03    -49.3041E-03     110.993E-03    -63.3823E-03     112.793E-03    -49.2357E-03     109.686E-03
            1107     15.4118E-03     106.822E-03    -8.47844E+06     96.8859E+06     46.5148E+06    -5.72647E+06    -63.4682E-03     113.474E-03    -50.0056E-03     89.5750E-03    -64.7657E-03     114.951E-03    -49.9012E-03     88.3799E-03
            1108     16.2561E-03     106.895E-03    -4.77843E+06     116.943E+06     72.9084E+06    -1.81862E+06    -64.8380E-03     115.663E-03    -50.8250E-03     49.2876E-03    -65.7826E-03     116.795E-03    -50.6230E-03     48.3255E-03
            1109     858.350E-06     106.704E-03    -43.3850E+06    -84.8778E+06    -42.4652E+06    -3.81135E+06    -47.1244E-03     94.2323E-03    -47.1078E-03     11.0397E-03    -47.1579E-03     93.9333E-03    -47.1342E-03     10.9715E-03
            1110     1.71704E-03     106.717E-03    -42.4416E+06    -82.3687E+06    -39.1586E+06     -6.9404E+06    -46.9137E-03     93.9695E-03    -47.0558E-03     20.2902E-03    -46.9530E-03     93.6790E-03    -47.0706E-03     20.1652E-03
            1111     2.57582E-03     106.737E-03    -40.8745E+06    -78.6937E+06    -33.9877E+06    -9.66035E+06    -46.6358E-03     93.5717E-03    -46.9359E-03     30.0285E-03    -46.6838E-03     93.2936E-03    -46.9325E-03     29.8501E-03
            1112     3.43512E-03     106.765E-03    -38.7596E+06    -74.2504E+06    -27.6102E+06    -11.9740E+06    -46.2980E-03     93.0748E-03    -46.7768E-03     39.8311E-03    -46.3569E-03     92.8123E-03    -46.7510E-03     39.6027E-03
            1113     4.29482E-03     106.801E-03    -36.3949E+06    -69.9947E+06    -20.8757E+06    -13.5934E+06    -45.9550E-03     92.5409E-03    -46.5858E-03     49.6458E-03    -46.0263E-03     92.2947E-03    -46.5360E-03     49.3741E-03
            1114     5.15505E-03     106.845E-03    -34.4293E+06    -66.2186E+06    -14.6753E+06    -14.7243E+06    -45.6808E-03     92.0552E-03    -46.3743E-03     59.4612E-03    -45.7683E-03     91.8276E-03    -46.3017E-03     59.1487E-03
            1115     6.01568E-03     106.896E-03    -33.0281E+06    -63.1183E+06    -9.51532E+06    -15.6370E+06    -45.5667E-03     91.7251E-03    -46.1584E-03     69.2539E-03    -45.6753E-03     91.5197E-03    -46.0666E-03     68.8984E-03
            1116     6.87666E-03     106.955E-03    -32.0296E+06    -59.9918E+06    -5.32951E+06    -16.1795E+06    -45.7209E-03     91.6801E-03    -45.9592E-03     78.9632E-03    -45.8577E-03     91.5054E-03    -45.8525E-03     78.5620E-03
            1117     7.73768E-03     107.022E-03    -31.4188E+06    -56.9563E+06    -1.87793E+06    -16.5813E+06    -46.2617E-03     92.0653E-03    -45.8035E-03     88.4844E-03    -46.4370E-03     91.9319E-03    -45.6848E-03     88.0287E-03
            1118     8.59841E-03     107.096E-03    -30.6065E+06    -53.6895E+06     915.343E+03    -17.1557E+06    -47.2899E-03     93.0072E-03    -45.7173E-03     97.6718E-03    -47.5154E-03     92.9306E-03    -45.5905E-03     97.1447E-03
            1119     9.45843E-03     107.178E-03    -29.3626E+06    -52.5386E+06     2.48912E+06    -17.9294E+06    -48.8875E-03     94.6149E-03    -45.7275E-03     106.259E-03    -49.1755E-03     94.6049E-03    -45.5963E-03     105.637E-03
            1120     10.3171E-03     107.268E-03    -27.3278E+06    -47.4705E+06     4.06104E+06    -18.8983E+06    -51.0388E-03     96.8928E-03    -45.8540E-03     113.846E-03    -51.4170E-03     96.9936E-03    -45.7252E-03     113.103E-03
            1121     11.1741E-03     107.364E-03    -24.3676E+06    -47.5482E+06     4.13044E+06    -19.9522E+06    -53.6938E-03     99.8128E-03    -46.1190E-03     119.781E-03    -54.1812E-03     100.033E-03    -45.9941E-03     118.887E-03
            1122     12.0287E-03     107.465E-03    -21.0869E+06    -40.6657E+06     4.12127E+06    -20.1595E+06    -56.6940E-03     103.216E-03    -46.5215E-03     123.781E-03    -57.3441E-03     103.635E-03    -46.4114E-03     122.714E-03
            1123     12.8808E-03     107.571E-03    -18.0875E+06    -28.0168E+06     6.15090E+06    -19.0528E+06    -59.8815E-03     106.954E-03    -47.0721E-03     126.596E-03    -60.7733E-03     107.664E-03    -46.9745E-03     125.339E-03
            1124     13.7298E-03     107.682E-03    -15.7076E+06     10.8529E+06     16.0008E+06    -17.0953E+06    -62.9128E-03     110.667E-03    -47.7538E-03     128.020E-03    -64.1344E-03     111.825E-03    -47.6667E-03     126.607E-03
            1125     14.5767E-03     107.795E-03    -12.4888E+06     59.0192E+06     30.3260E+06    -12.6738E+06    -65.2971E-03     113.848E-03    -48.5513E-03     115.234E-03    -66.6586E-03     115.288E-03    -48.4672E-03     113.832E-03
            1126     15.4201E-03     107.886E-03    -8.59410E+06     90.2274E+06     46.0756E+06    -6.61259E+06    -67.3495E-03     116.821E-03    -49.4712E-03     93.2191E-03    -68.6836E-03     118.311E-03    -49.3592E-03     91.9067E-03
            1127     16.2614E-03     107.963E-03    -4.13865E+06     113.996E+06     71.7705E+06    -2.32111E+06    -69.1969E-03     119.713E-03    -50.5165E-03     52.1182E-03    -70.1646E-03     120.863E-03    -50.3169E-03     51.0436E-03
            1128     860.265E-06     107.744E-03    -42.3676E+06    -77.0451E+06    -41.7610E+06    -3.32746E+06    -45.0365E-03     90.0635E-03    -45.0270E-03     11.3354E-03    -45.0771E-03     89.8009E-03    -45.0626E-03     11.2774E-03
            1129     1.72050E-03     107.756E-03    -42.0098E+06    -74.6849E+06    -38.9819E+06    -6.18548E+06    -44.7956E-03     89.7570E-03    -44.9614E-03     20.8497E-03    -44.8436E-03     89.5034E-03    -44.9871E-03     20.7418E-03
            1130     2.58127E-03     107.776E-03    -40.9723E+06    -71.7969E+06    -35.0405E+06    -9.00447E+06    -44.4693E-03     89.2890E-03    -44.8197E-03     30.8991E-03    -44.5253E-03     89.0458E-03    -44.8314E-03     30.7404E-03
            1131     3.44235E-03     107.804E-03    -39.8289E+06    -68.5922E+06    -30.2492E+06    -10.9301E+06    -44.0765E-03     88.7091E-03    -44.6326E-03     41.0625E-03    -44.1431E-03     88.4781E-03    -44.6267E-03     40.8633E-03
            1132     4.30406E-03     107.839E-03    -39.0715E+06    -65.6953E+06    -24.6165E+06    -11.8953E+06    -43.6959E-03     88.1116E-03    -44.4157E-03     51.2980E-03    -43.7779E-03     87.8927E-03    -44.3869E-03     51.0685E-03
            1133     5.16624E-03     107.882E-03    -38.5481E+06    -62.5512E+06    -18.6054E+06    -12.2577E+06    -43.4344E-03     87.6203E-03    -44.1859E-03     61.5966E-03    -43.5370E-03     87.4175E-03    -44.1323E-03     61.3410E-03
            1134     6.02889E-03     107.933E-03    -38.4884E+06    -59.9289E+06    -13.0100E+06    -12.3499E+06    -43.4314E-03     87.3981E-03    -43.9667E-03     71.9176E-03    -43.5599E-03     87.2145E-03    -43.8890E-03     71.6339E-03
            1135     6.89169E-03     107.992E-03    -38.7249E+06    -56.7280E+06    -8.29853E+06    -12.8166E+06    -43.8273E-03     87.6120E-03    -43.7847E-03     82.1776E-03    -43.9894E-03     87.4589E-03    -43.6878E-03     81.8525E-03
            1136     7.75435E-03     108.059E-03    -38.1573E+06    -53.5261E+06    -4.17748E+06    -13.9281E+06    -44.7467E-03     88.4197E-03    -43.6730E-03     92.2452E-03    -44.9476E-03     88.3069E-03    -43.5609E-03     91.8578E-03
            1137     8.61634E-03     108.134E-03    -36.6113E+06    -49.9529E+06    -569.095E+03    -15.4992E+06    -46.2713E-03     89.9325E-03    -43.6612E-03     101.958E-03    -46.5204E-03     89.8758E-03    -43.5385E-03     101.485E-03
            1138     9.47713E-03     108.218E-03    -33.9319E+06    -48.5982E+06     1.86114E+06    -17.6095E+06    -48.4501E-03     92.2261E-03    -43.7761E-03     111.049E-03    -48.7576E-03     92.2353E-03    -43.6471E-03     110.462E-03
            1139     10.3362E-03     108.310E-03    -30.3949E+06    -43.4822E+06     4.05579E+06    -19.7863E+06    -51.2416E-03     95.2767E-03    -44.0350E-03     119.086E-03    -51.6366E-03     95.3977E-03    -43.9076E-03     118.355E-03
            1140     11.1929E-03     108.409E-03    -26.5532E+06    -44.0564E+06     4.56577E+06    -21.8955E+06    -54.5776E-03     99.0370E-03    -44.4594E-03     125.359E-03    -55.0842E-03     99.2800E-03    -44.3342E-03     124.450E-03
            1141     12.0468E-03     108.515E-03    -22.3299E+06    -39.2300E+06     4.50771E+06    -22.7831E+06    -58.2828E-03     103.327E-03    -45.0444E-03     129.606E-03    -58.9547E-03     103.768E-03    -44.9326E-03     128.497E-03
            1142     12.8973E-03     108.625E-03    -17.8918E+06    -28.9789E+06     6.85305E+06    -21.4513E+06    -62.2021E-03     108.002E-03    -45.8003E-03     132.387E-03    -63.1210E-03     108.736E-03    -45.6981E-03     131.065E-03
            1143     13.7447E-03     108.740E-03    -13.7851E+06     9.01302E+06     17.5029E+06    -17.9856E+06    -65.9695E-03     112.677E-03    -46.7071E-03     133.358E-03    -67.2288E-03     113.869E-03    -46.6126E-03     131.862E-03
            1144     14.5884E-03     108.858E-03    -11.1119E+06     52.9306E+06     30.9724E+06    -13.0853E+06    -69.0598E-03     116.807E-03    -47.7476E-03     120.107E-03    -70.4646E-03     118.271E-03    -47.6534E-03     118.597E-03
            1145     15.4291E-03     108.954E-03    -8.43736E+06     83.4004E+06     44.3409E+06    -7.34118E+06    -71.7314E-03     120.643E-03    -48.9119E-03     97.6083E-03    -73.1106E-03     122.161E-03    -48.7989E-03     96.1548E-03
            1146     16.2660E-03     109.034E-03    -5.00752E+06     110.597E+06     69.7500E+06    -2.86537E+06    -73.9620E-03     124.172E-03    -50.2100E-03     55.5893E-03    -74.9653E-03     125.348E-03    -50.0144E-03     54.3807E-03
            1147     862.302E-06     108.779E-03    -42.2752E+06    -70.3832E+06    -41.9060E+06    -2.97077E+06    -42.4689E-03     84.9339E-03    -42.4650E-03     11.6203E-03    -42.5184E-03     84.7044E-03    -42.5112E-03     11.5710E-03
            1148     1.72502E-03     108.791E-03    -42.2962E+06    -68.0765E+06    -40.7655E+06    -5.06304E+06    -42.1969E-03     84.5775E-03    -42.3807E-03     21.3921E-03    -42.2528E-03     84.3593E-03    -42.4245E-03     21.3065E-03
            1149     2.58786E-03     108.810E-03    -42.9748E+06    -65.5770E+06    -38.7861E+06    -7.30712E+06    -41.8352E-03     84.0522E-03    -42.2170E-03     31.7468E-03    -41.9035E-03     83.8469E-03    -42.2535E-03     31.6218E-03
            1150     3.45136E-03     108.837E-03    -43.8614E+06    -64.4783E+06    -35.4706E+06    -8.51453E+06    -41.4303E-03     83.4451E-03    -42.0148E-03     42.2621E-03    -41.5131E-03     83.2455E-03    -42.0350E-03     42.1101E-03
            1151     4.31529E-03     108.872E-03    -44.8164E+06    -62.8996E+06    -30.4830E+06    -8.46414E+06    -41.0895E-03     82.8821E-03    -41.7926E-03     52.9003E-03    -41.1921E-03     82.6900E-03    -41.7888E-03     52.7354E-03
            1152     5.17979E-03     108.914E-03    -46.0696E+06    -60.4222E+06    -24.1910E+06    -7.99460E+06    -40.9632E-03     82.5395E-03    -41.5764E-03     63.6457E-03    -41.0929E-03     82.3608E-03    -41.5429E-03     63.4695E-03
            1153     6.04452E-03     108.965E-03    -46.6351E+06    -57.2818E+06    -17.4474E+06    -8.18132E+06    -41.2224E-03     82.6177E-03    -41.3952E-03     74.4526E-03    -41.3819E-03     82.4583E-03    -41.3318E-03     74.2503E-03
            1154     6.90921E-03     109.024E-03    -45.5209E+06    -53.0526E+06    -11.0521E+06    -9.56863E+06    -42.0101E-03     83.2896E-03    -41.2795E-03     85.2312E-03    -42.1990E-03     83.1602E-03    -41.1918E-03     84.9774E-03
            1155     7.77330E-03     109.092E-03    -43.2856E+06    -49.0961E+06    -5.68796E+06    -11.9022E+06    -43.4243E-03     84.6865E-03    -41.2622E-03     95.8424E-03    -43.6457E-03     84.5962E-03    -41.1567E-03     95.5111E-03
            1156     8.63634E-03     109.169E-03    -40.2485E+06    -45.2839E+06    -1.34689E+06    -14.6001E+06    -45.5144E-03     86.8869E-03    -41.3725E-03     106.119E-03    -45.7784E-03     86.8511E-03    -41.2553E-03     105.687E-03
            1157     9.49769E-03     109.255E-03    -36.7125E+06    -42.5612E+06     1.76056E+06    -18.1551E+06    -48.2971E-03     89.9312E-03    -41.6340E-03     115.811E-03    -48.6203E-03     89.9679E-03    -41.5103E-03     115.242E-03
            1158     10.3568E-03     109.350E-03    -32.5220E+06    -38.7003E+06     3.94121E+06    -21.5901E+06    -51.7216E-03     93.7831E-03    -42.0615E-03     124.444E-03    -52.1312E-03     93.9287E-03    -41.9386E-03     123.707E-03
            1159     11.2131E-03     109.454E-03    -28.0344E+06    -39.2976E+06     4.71788E+06    -24.1960E+06    -55.7194E-03     98.3920E-03    -42.6726E-03     131.268E-03    -56.2451E-03     98.6654E-03    -42.5514E-03     130.336E-03
            1160     12.0659E-03     109.564E-03    -23.2873E+06    -36.2917E+06     4.51551E+06    -26.5127E+06    -60.1444E-03     103.607E-03    -43.4629E-03     135.964E-03    -60.8416E-03     104.081E-03    -43.3540E-03     134.794E-03
            1161     12.9151E-03     109.680E-03    -17.8191E+06    -31.0497E+06     5.97144E+06    -25.6984E+06    -64.8474E-03     109.291E-03    -44.4435E-03     138.958E-03    -65.7959E-03     110.049E-03    -44.3427E-03     137.537E-03
            1162     13.7599E-03     109.801E-03    -12.5365E+06     4.56832E+06     16.6769E+06    -20.8743E+06    -69.3996E-03     114.995E-03    -45.5950E-03     139.641E-03    -70.7031E-03     116.222E-03    -45.5001E-03     138.020E-03
            1163     14.6012E-03     109.924E-03    -8.21243E+06     44.9002E+06     30.5221E+06    -13.0478E+06    -73.2194E-03     120.120E-03    -46.9001E-03     126.010E-03    -74.6692E-03     121.612E-03    -46.8007E-03     124.375E-03
            1164     15.4377E-03     110.025E-03    -6.04231E+06     77.7365E+06     42.8068E+06    -6.29966E+06    -76.5121E-03     124.840E-03    -48.3282E-03     103.063E-03    -77.9400E-03     126.400E-03    -48.2181E-03     101.467E-03
            1165     16.2713E-03     110.111E-03    -3.41451E+06     107.416E+06     68.7161E+06    -2.90364E+06    -79.1161E-03     129.017E-03    -49.9012E-03     59.8895E-03    -80.1524E-03     130.224E-03    -49.7084E-03     58.5322E-03
            1166     865.090E-06     109.808E-03    -43.9097E+06    -65.2651E+06    -44.2040E+06    -2.18891E+06    -39.4253E-03     78.8494E-03    -39.4241E-03     11.8484E-03    -39.4870E-03     78.6509E-03    -39.4868E-03     11.8132E-03
            1167     1.73016E-03     109.820E-03    -46.2617E+06    -63.7906E+06    -46.3059E+06    -2.93484E+06    -39.1340E-03     78.4553E-03    -39.3213E-03     21.8328E-03    -39.2075E-03     78.2715E-03    -39.3933E-03     21.7821E-03
            1168     2.59588E-03     109.839E-03    -49.2397E+06    -61.5202E+06    -46.4568E+06    -3.70614E+06    -38.7827E-03     77.9307E-03    -39.1480E-03     32.4447E-03    -38.8758E-03     77.7644E-03    -39.2197E-03     32.3774E-03
            1169     3.46186E-03     109.865E-03    -52.4041E+06    -62.2232E+06    -43.3369E+06    -3.96331E+06    -38.4616E-03     77.4233E-03    -38.9618E-03     43.2632E-03    -38.5765E-03     77.2562E-03    -39.0122E-03     43.1849E-03
            1170     4.32845E-03     109.899E-03    -54.6900E+06    -61.6505E+06    -37.8170E+06    -3.70299E+06    -38.3065E-03     77.0852E-03    -38.7787E-03     54.2479E-03    -38.4458E-03     76.9204E-03    -38.7991E-03     54.1629E-03
            1171     5.19523E-03     109.941E-03    -54.8279E+06    -59.0159E+06    -29.7460E+06    -3.69140E+06    -38.4882E-03     77.1187E-03    -38.6304E-03     65.3855E-03    -38.6505E-03     76.9624E-03    -38.6141E-03     65.2861E-03
            1172     6.06203E-03     109.992E-03    -52.7558E+06    -53.7460E+06    -20.7761E+06    -5.28546E+06    -39.1499E-03     77.6936E-03    -38.5437E-03     76.6464E-03    -39.3336E-03     77.5590E-03    -38.4932E-03     76.5048E-03
            1173     6.92833E-03     110.052E-03    -49.3099E+06    -48.6065E+06    -13.0155E+06    -8.14120E+06    -40.4086E-03     78.9559E-03    -38.5473E-03     87.9498E-03    -40.6123E-03     78.8493E-03    -38.4704E-03     87.7393E-03
            1174     7.79373E-03     110.121E-03    -45.0743E+06    -43.8400E+06    -6.59713E+06    -11.2524E+06    -42.3425E-03     81.0141E-03    -38.6715E-03     99.1623E-03    -42.5708E-03     80.9457E-03    -38.5756E-03     98.8647E-03
            1175     8.65754E-03     110.201E-03    -40.5450E+06    -39.4663E+06    -1.49683E+06    -14.8842E+06    -44.9792E-03     83.9210E-03    -38.9419E-03     110.115E-03    -45.2448E-03     83.9069E-03    -38.8333E-03     109.703E-03
            1176     9.51930E-03     110.290E-03    -35.8364E+06    -35.3479E+06     2.45241E+06    -19.0031E+06    -48.3174E-03     87.6948E-03    -39.3774E-03     120.569E-03    -48.6412E-03     87.7590E-03    -39.2620E-03     120.010E-03
            1177     10.3784E-03     110.389E-03    -31.6045E+06    -32.6835E+06     4.72043E+06    -23.0294E+06    -52.3284E-03     92.3207E-03    -39.9923E-03     129.998E-03    -52.7409E-03     92.4916E-03    -39.8755E-03     129.259E-03
            1178     11.2341E-03     110.498E-03    -27.6610E+06    -34.0050E+06     5.29710E+06    -26.2803E+06    -56.9612E-03     97.7624E-03    -40.8012E-03     137.637E-03    -57.4983E-03     98.0658E-03    -40.6853E-03     136.683E-03
            1179     12.0861E-03     110.614E-03    -24.0578E+06    -30.6620E+06     5.43229E+06    -29.2941E+06    -62.1106E-03     103.916E-03    -41.8057E-03     143.071E-03    -62.8384E-03     104.435E-03    -41.6992E-03     141.851E-03
            1180     12.9335E-03     110.736E-03    -20.4553E+06    -32.6322E+06     4.38429E+06    -30.1964E+06    -67.6414E-03     110.658E-03    -43.0170E-03     146.570E-03    -68.6360E-03     111.453E-03    -42.9181E-03     145.043E-03
            1181     13.7764E-03     110.864E-03    -15.9915E+06    -2.11445E+06     13.2917E+06    -25.0880E+06    -73.0443E-03     117.463E-03    -44.4192E-03     147.242E-03    -74.4160E-03     118.734E-03    -44.3265E-03     145.469E-03
            1182     14.6141E-03     110.994E-03    -11.3694E+06     33.3427E+06     26.6154E+06    -15.9254E+06    -77.6844E-03     123.684E-03    -46.0000E-03     133.288E-03    -79.2129E-03     125.215E-03    -45.8988E-03     131.471E-03
            1183     15.4476E-03     111.102E-03    -6.74916E+06     70.3881E+06     36.9894E+06    -6.57228E+06    -81.6543E-03     129.350E-03    -47.6958E-03     109.745E-03    -83.1519E-03     130.968E-03    -47.6032E-03     107.964E-03
            1184     16.2761E-03     111.194E-03    -3.88471E+06     105.700E+06     65.4638E+06    -1.95758E+06    -84.7119E-03     134.278E-03    -49.5661E-03     65.0937E-03    -85.7988E-03     135.537E-03    -49.3864E-03     63.5766E-03
            1185     867.922E-06     110.831E-03    -56.5034E+06    -64.2262E+06    -54.8016E+06     772.550E+03    -35.9443E-03     71.8822E-03    -35.9379E-03     11.9673E-03    -36.0550E-03     71.7222E-03    -36.0369E-03     11.9739E-03
            1186     1.73632E-03     110.842E-03    -59.8494E+06    -62.9851E+06    -57.2961E+06     1.61089E+06    -35.7062E-03     71.5639E-03    -35.8577E-03     22.0743E-03    -35.8323E-03     71.4191E-03    -35.9661E-03     22.0887E-03
            1187     2.60475E-03     110.860E-03    -63.3076E+06    -59.7064E+06    -57.6777E+06     1.00589E+06    -35.4739E-03     71.1928E-03    -35.7189E-03     32.8504E-03    -35.6223E-03     71.0708E-03    -35.8289E-03     32.8534E-03
            1188     3.47375E-03     110.886E-03    -64.3785E+06    -61.3123E+06    -52.5896E+06     267.020E+03    -35.3874E-03     70.9886E-03    -35.6012E-03     43.8904E-03    -35.5478E-03     70.8545E-03    -35.6819E-03     43.8789E-03
            1189     4.34276E-03     110.919E-03    -62.8089E+06    -60.5410E+06    -43.5919E+06    -494.976E+03    -35.5916E-03     71.1128E-03    -35.5212E-03     55.1668E-03    -35.7613E-03     70.9703E-03    -35.5603E-03     55.1378E-03
            1190     5.21181E-03     110.962E-03    -59.0681E+06    -56.5233E+06    -33.1793E+06    -2.38629E+06    -36.2016E-03     71.7005E-03    -35.4989E-03     66.6673E-03    -36.3791E-03     71.5633E-03    -35.4972E-03     66.6014E-03
            1191     6.08037E-03     111.013E-03    -54.0582E+06    -49.5889E+06    -23.1242E+06    -4.96098E+06    -37.3137E-03     72.8696E-03    -35.5559E-03     78.3769E-03    -37.5008E-03     72.7554E-03    -35.5213E-03     78.2579E-03
            1192     6.94818E-03     111.075E-03    -49.0691E+06    -43.4171E+06    -14.4127E+06    -8.05788E+06    -39.0382E-03     74.7593E-03    -35.7211E-03     90.2478E-03    -39.2393E-03     74.6736E-03    -35.6590E-03     90.0585E-03
            1193     7.81457E-03     111.146E-03    -44.1046E+06    -37.7420E+06     -7.3616E+06    -12.0562E+06    -41.4321E-03     77.4488E-03    -36.0167E-03     102.151E-03    -41.6556E-03     77.4029E-03    -35.9348E-03     101.865E-03
            1194     8.67919E-03     111.229E-03    -38.7117E+06    -32.8470E+06    -1.50519E+06    -16.2621E+06    -44.5261E-03     80.9905E-03    -36.4645E-03     113.915E-03    -44.7842E-03     80.9990E-03    -36.3682E-03     113.508E-03
            1195     9.54129E-03     111.322E-03    -33.8434E+06    -28.3407E+06     3.15804E+06    -20.2497E+06    -48.3382E-03     85.4196E-03    -37.0814E-03     125.292E-03    -48.6561E-03     85.5078E-03    -36.9754E-03     124.738E-03
            1196     10.4004E-03     111.427E-03    -29.7647E+06    -26.0603E+06     6.16117E+06    -23.8570E+06    -52.8880E-03     90.7717E-03    -37.8837E-03     135.715E-03    -53.2989E-03     90.9670E-03    -37.7719E-03     134.982E-03
            1197     11.2559E-03     111.541E-03    -26.0103E+06    -27.2798E+06     7.19978E+06    -27.8543E+06    -58.1476E-03     97.0339E-03    -38.8863E-03     144.380E-03    -58.6914E-03     97.3683E-03    -38.7730E-03     143.414E-03
            1198     12.1069E-03     111.664E-03    -21.9043E+06    -24.7349E+06     7.87882E+06    -31.1524E+06    -64.0301E-03     104.128E-03    -40.0983E-03     150.814E-03    -64.7737E-03     104.685E-03    -39.9913E-03     149.559E-03
            1199     12.9531E-03     111.794E-03    -18.7545E+06    -32.2332E+06     5.38764E+06    -31.5785E+06    -70.4309E-03     111.965E-03    -41.5344E-03     155.030E-03    -71.4550E-03     112.794E-03    -41.4335E-03     153.439E-03
            1200     13.7934E-03     111.929E-03    -16.0446E+06    -8.22219E+06     11.9279E+06    -28.0774E+06    -76.7767E-03     119.961E-03    -43.1845E-03     155.953E-03    -78.2065E-03     121.272E-03    -43.0897E-03     154.038E-03
            1201     14.6287E-03     112.067E-03    -12.3452E+06     19.4282E+06     23.0047E+06    -18.4460E+06    -82.4152E-03     127.458E-03    -45.0426E-03     141.880E-03    -84.0209E-03     129.024E-03    -44.9379E-03     139.865E-03
            1202     15.4574E-03     112.183E-03    -9.63777E+06     61.0042E+06     31.2144E+06    -8.21957E+06    -87.2620E-03     134.288E-03    -47.0259E-03     117.560E-03    -88.8532E-03     135.973E-03    -46.9443E-03     115.544E-03
            1203     16.2823E-03     112.282E-03    -4.96914E+06     103.600E+06     62.6185E+06    -3.17688E+06    -90.8497E-03     140.063E-03    -49.2137E-03     71.0956E-03    -92.0015E-03     141.385E-03    -49.0436E-03     69.3570E-03
            1204     871.446E-06     111.846E-03    -82.8066E+06    -67.6716E+06    -80.7531E+06     2.79685E+06    -32.2097E-03     64.3794E-03    -32.1697E-03     11.9295E-03    -32.4092E-03     64.2778E-03    -32.3552E-03     11.9649E-03
            1205     1.74268E-03     111.857E-03    -79.5675E+06    -65.0720E+06    -75.1252E+06     3.51591E+06    -32.1528E-03     64.3258E-03    -32.1730E-03     22.0409E-03    -32.3480E-03     64.2244E-03    -32.3389E-03     22.0846E-03
            1206     2.61437E-03     111.875E-03    -76.1660E+06    -58.7946E+06    -68.4674E+06     3.10673E+06    -32.1960E-03     64.3392E-03    -32.1432E-03     32.8706E-03    -32.3934E-03     64.2551E-03    -32.2898E-03     32.9075E-03
            1207     3.48586E-03     111.900E-03    -72.4043E+06    -59.5821E+06    -59.1302E+06     758.790E+03    -32.4898E-03     64.6489E-03    -32.1590E-03     44.0548E-03    -32.6816E-03     64.5428E-03    -32.2633E-03     44.0582E-03
            1208     4.35739E-03     111.934E-03    -66.5989E+06    -58.1634E+06    -48.3554E+06    -1.88123E+06    -33.1166E-03     65.3455E-03    -32.2289E-03     55.5520E-03    -33.2992E-03     65.2248E-03    -32.2898E-03     55.5153E-03
            1209     5.22832E-03     111.977E-03    -59.6407E+06    -52.6528E+06    -37.1523E+06    -4.59441E+06    -34.1535E-03     66.5221E-03    -32.3686E-03     67.3786E-03    -34.3301E-03     66.4073E-03    -32.3916E-03     67.2963E-03
            1210     6.09859E-03     112.030E-03    -52.8400E+06    -45.8031E+06    -26.2393E+06    -7.08200E+06    -35.6971E-03     68.2988E-03    -32.6017E-03     79.5507E-03    -35.8743E-03     68.2016E-03    -32.5899E-03     79.4185E-03
            1211     6.96760E-03     112.094E-03    -46.1767E+06    -38.0636E+06    -16.0998E+06    -9.84269E+06    -37.8191E-03     70.7659E-03    -32.9467E-03     92.0176E-03    -38.0050E-03     70.6992E-03    -32.9051E-03     91.8217E-03
            1212     7.83508E-03     112.168E-03    -40.0186E+06    -30.9776E+06    -7.46155E+06    -13.6314E+06    -40.5778E-03     73.9987E-03    -33.4209E-03     104.669E-03    -40.7830E-03     73.9735E-03    -33.3553E-03     104.381E-03
            1213     8.70034E-03     112.254E-03    -34.9537E+06    -26.1420E+06    -703.679E+03    -17.7398E+06    -44.0303E-03     78.0730E-03    -34.0427E-03     117.324E-03    -44.2718E-03     78.0997E-03    -33.9576E-03     116.919E-03
            1214     9.56306E-03     112.352E-03    -30.5493E+06    -22.0127E+06     4.80786E+06    -21.1057E+06    -48.2497E-03     83.0799E-03    -34.8302E-03     129.725E-03    -48.5536E-03     83.1836E-03    -34.7300E-03     129.184E-03
            1215     10.4224E-03     112.462E-03    -26.4738E+06    -19.1469E+06     8.99641E+06    -24.6871E+06    -53.2877E-03     89.0912E-03    -35.8035E-03     141.295E-03    -53.6884E-03     89.3044E-03    -35.6924E-03     140.573E-03
            1216     11.2777E-03     112.583E-03    -23.0350E+06    -19.9392E+06     10.8340E+06    -28.4192E+06    -59.1466E-03     96.1290E-03    -36.9823E-03     151.181E-03    -59.6883E-03     96.4875E-03    -36.8658E-03     150.222E-03
            1217     12.1281E-03     112.713E-03    -21.5787E+06    -18.9956E+06     10.5585E+06    -31.3474E+06    -65.7651E-03     104.147E-03    -38.3815E-03     158.849E-03    -66.5264E-03     104.734E-03    -38.2699E-03     157.589E-03
            1218     12.9729E-03     112.852E-03    -19.6860E+06    -30.3106E+06     6.71943E+06    -33.1726E+06    -73.1002E-03     113.126E-03    -40.0258E-03     164.081E-03    -74.1607E-03     113.991E-03    -39.9197E-03     162.432E-03
            1219     13.8116E-03     112.997E-03    -16.8726E+06    -13.8391E+06     9.44167E+06    -29.5582E+06    -80.5228E-03     122.429E-03    -41.9060E-03     165.309E-03    -82.0092E-03     123.781E-03    -41.8143E-03     163.270E-03
            1220     14.6434E-03     113.144E-03    -14.3252E+06     5.53897E+06     18.0579E+06    -20.6040E+06    -87.2824E-03     131.322E-03    -44.0396E-03     151.317E-03    -88.9770E-03     132.935E-03    -43.9366E-03     149.088E-03
            1221     15.4691E-03     113.269E-03    -9.17160E+06     51.6584E+06     28.6429E+06    -11.1492E+06    -93.2350E-03     139.569E-03    -46.3344E-03     126.326E-03    -94.9223E-03     141.327E-03    -46.2528E-03     124.025E-03
            1222     16.2875E-03     113.376E-03    -4.71413E+06     99.1245E+06     60.4182E+06    -4.90027E+06    -97.3461E-03     146.193E-03    -48.8471E-03     77.8078E-03    -98.5668E-03     147.575E-03    -48.6819E-03     75.7975E-03
            1223     874.453E-06     112.853E-03    -108.652E+06    -69.4342E+06    -109.116E+06    -383.040E+03    -28.6256E-03     57.1650E-03    -28.5394E-03     11.6768E-03    -28.9104E-03     57.1331E-03    -28.8267E-03     11.6726E-03
            1224     1.74915E-03     112.864E-03    -102.392E+06    -64.9569E+06    -101.730E+06    -1.98606E+06    -28.7977E-03     57.4044E-03    -28.6067E-03     21.6196E-03    -29.0683E-03     57.3751E-03    -28.8727E-03     21.5950E-03
            1225     2.62339E-03     112.882E-03    -93.1496E+06    -57.8979E+06    -88.8310E+06    -2.89422E+06    -29.1899E-03     57.9026E-03    -28.7127E-03     32.3696E-03    -29.4432E-03     57.8765E-03    -28.9378E-03     32.3328E-03
            1226     3.49757E-03     112.909E-03    -82.8943E+06    -55.8595E+06    -72.8281E+06    -4.58673E+06    -29.8883E-03     58.7835E-03    -28.8952E-03     43.5960E-03    -30.1168E-03     58.7301E-03    -29.0582E-03     43.5355E-03
            1227     4.37091E-03     112.943E-03    -72.8727E+06    -53.2849E+06    -58.4119E+06    -8.31082E+06    -30.9157E-03     60.0560E-03    -29.1403E-03     55.2595E-03    -31.1203E-03     59.9817E-03    -29.2494E-03     55.1462E-03
            1228     5.24377E-03     112.988E-03    -62.1862E+06    -48.5074E+06    -44.9167E+06    -11.4348E+06    -32.3356E-03     61.7937E-03    -29.4581E-03     67.3717E-03    -32.5169E-03     61.7120E-03    -29.5222E-03     67.2093E-03
            1229     6.11538E-03     113.043E-03    -51.5213E+06    -42.6264E+06    -31.3445E+06    -12.9068E+06    -34.2354E-03     64.1055E-03    -29.8701E-03     79.9662E-03    -34.3993E-03     64.0258E-03    -29.8903E-03     79.7693E-03
            1230     6.98567E-03     113.109E-03    -42.4781E+06    -33.5570E+06    -18.6084E+06    -14.2216E+06    -36.6594E-03     67.0452E-03    -30.3858E-03     93.0047E-03    -36.8241E-03     66.9938E-03    -30.3685E-03     92.7658E-03
            1231     7.85405E-03     113.186E-03    -35.1871E+06     -24.927E+06    -7.61180E+06    -16.5772E+06    -39.6881E-03     70.7091E-03    -31.0210E-03     106.382E-03    -39.8701E-03     70.6998E-03    -30.9719E-03     106.074E-03
            1232     8.72027E-03     113.276E-03    -29.0178E+06    -20.0985E+06     1.45360E+06    -19.3957E+06    -43.4397E-03     75.2365E-03    -31.7968E-03     119.922E-03    -43.6535E-03     75.2719E-03    -31.7183E-03     119.517E-03
            1233     9.58348E-03     113.379E-03    -24.0446E+06    -16.7462E+06     8.40117E+06    -21.8235E+06    -48.0009E-03     80.7312E-03    -32.7304E-03     133.392E-03    -48.2729E-03     80.8344E-03    -32.6292E-03     132.865E-03
            1234     10.4432E-03     113.495E-03    -21.0703E+06    -12.6545E+06     13.2084E+06    -23.9155E+06    -53.4440E-03     87.2874E-03    -33.8434E-03     146.216E-03    -53.8193E-03     87.5054E-03    -33.7285E-03     145.531E-03
            1235     11.2986E-03     113.623E-03    -20.3667E+06    -13.2451E+06     14.9062E+06    -26.6093E+06    -59.8437E-03     95.0106E-03    -35.1668E-03     157.516E-03    -60.3744E-03     95.3797E-03    -35.0436E-03     156.605E-03
            1236     12.1488E-03     113.762E-03    -19.7164E+06    -13.0626E+06     14.8712E+06    -29.0746E+06    -67.2082E-03     103.933E-03    -36.7250E-03     166.683E-03    -67.9675E-03     104.534E-03    -36.6031E-03     165.466E-03
            1237     12.9928E-03     113.910E-03    -19.2213E+06    -23.8635E+06     11.5115E+06    -32.7930E+06    -75.5261E-03     114.079E-03    -38.5532E-03     173.396E-03    -76.6078E-03     114.977E-03    -38.4332E-03     171.734E-03
            1238     13.8292E-03     114.066E-03    -16.4913E+06    -20.2915E+06     9.31510E+06    -32.2430E+06    -84.1330E-03     124.776E-03    -40.6434E-03     175.435E-03    -85.6544E-03     126.143E-03    -40.5435E-03     173.270E-03
            1239     14.6588E-03     114.224E-03    -10.4615E+06    -7.11680E+06     16.7546E+06    -23.4061E+06    -92.0210E-03     135.051E-03    -43.0296E-03     162.167E-03    -93.7837E-03     136.705E-03    -42.9203E-03     159.710E-03
            1240     15.4795E-03     114.361E-03    -6.26530E+06     41.9775E+06     26.2732E+06    -13.7831E+06    -98.9321E-03     144.535E-03    -45.6030E-03     137.295E-03    -100.714E-03     146.370E-03    -45.5234E-03     134.711E-03
            1241     16.2945E-03     114.478E-03    -785.578E+03     90.1340E+06     58.9788E+06    -5.69675E+06    -104.330E-03     152.773E-03    -48.4426E-03     86.8969E-03    -105.604E-03     154.196E-03    -48.2773E-03     84.6172E-03
            1242     877.336E-06     113.854E-03    -110.325E+06    -63.9825E+06    -110.722E+06    -4.51399E+06    -25.7365E-03     51.3687E-03    -25.6322E-03     11.0921E-03    -26.0350E-03     51.3691E-03    -25.9330E-03     11.0347E-03
            1243     1.75422E-03     113.865E-03    -107.134E+06    -58.7263E+06    -106.404E+06    -8.52164E+06    -26.1004E-03     51.8410E-03    -25.7406E-03     20.6165E-03    -26.3967E-03     51.8566E-03    -26.0321E-03     20.5078E-03
            1244     2.63104E-03     113.884E-03    -101.337E+06    -53.5700E+06    -97.5271E+06    -11.7074E+06    -26.7398E-03     52.6727E-03    -25.9329E-03     31.0735E-03    -27.0273E-03     52.6928E-03    -26.1959E-03     30.9238E-03
            1245     3.50700E-03     113.911E-03    -92.4003E+06    -50.3886E+06    -85.7877E+06    -14.3172E+06    -27.6839E-03     53.8923E-03    -26.2084E-03     42.1731E-03    -27.9487E-03     53.8986E-03    -26.4303E-03     41.9886E-03
            1246     4.38247E-03     113.948E-03    -81.8789E+06    -45.6228E+06    -71.8612E+06    -17.7853E+06    -28.9881E-03     55.5558E-03    -26.5677E-03     53.9207E-03    -29.2283E-03     55.5516E-03    -26.7422E-03     53.6881E-03
            1247     5.25659E-03     113.994E-03    -70.9434E+06    -42.4472E+06    -56.4023E+06    -21.9622E+06    -30.7172E-03     57.7427E-03    -27.0255E-03     66.2970E-03    -30.9328E-03     57.7192E-03    -27.1431E-03     66.0034E-03
            1248     6.12961E-03     114.051E-03    -58.2868E+06    -39.3560E+06    -40.9909E+06    -24.1684E+06    -32.8808E-03     60.4589E-03    -27.5781E-03     79.2294E-03    -33.0663E-03     60.4166E-03    -27.6415E-03     78.8945E-03
            1249     7.00094E-03     114.120E-03    -44.5061E+06    -31.1144E+06    -25.2146E+06    -23.8906E+06    -35.5143E-03     63.7406E-03    -28.2264E-03     92.7030E-03    -35.6782E-03     63.7092E-03    -28.2428E-03     92.3503E-03
            1250     7.87042E-03     114.201E-03    -32.7078E+06    -21.7149E+06    -9.81324E+06    -22.7911E+06    -38.7417E-03     67.7301E-03    -28.9884E-03     106.696E-03    -38.9049E-03     67.7287E-03    -28.9585E-03     106.323E-03
            1251     8.73735E-03     114.295E-03    -25.3360E+06    -16.7879E+06     2.19163E+06    -21.8997E+06    -42.7041E-03     72.5850E-03    -29.8809E-03     121.069E-03    -42.8935E-03     72.6187E-03    -29.8088E-03     120.653E-03
            1252     9.60139E-03     114.403E-03    -21.9458E+06    -12.6207E+06     10.6110E+06    -21.8263E+06    -47.5160E-03     78.4377E-03    -30.9216E-03     135.600E-03    -47.7699E-03     78.5384E-03    -30.8185E-03     135.102E-03
            1253     10.4617E-03     114.525E-03    -19.5066E+06    -7.86089E+06     16.5979E+06    -23.0373E+06    -53.2856E-03     85.4232E-03    -32.1376E-03     149.719E-03    -53.6424E-03     85.6353E-03    -32.0149E-03     149.079E-03
            1254     11.3175E-03     114.661E-03    -16.1080E+06    -7.51982E+06     20.5271E+06    -24.7601E+06    -60.1401E-03     93.7070E-03    -33.5668E-03     162.586E-03    -60.6379E-03     94.0624E-03    -33.4299E-03     161.737E-03
            1255     12.1677E-03     114.809E-03    -13.4733E+06    -7.66129E+06     22.3769E+06    -26.8117E+06    -68.1597E-03     103.402E-03    -35.2420E-03     173.630E-03    -68.8751E-03     103.979E-03    -35.0995E-03     172.478E-03
            1256     13.0110E-03     114.968E-03    -12.2867E+06    -16.0822E+06     20.5583E+06    -29.0780E+06    -77.2797E-03     114.481E-03    -37.2009E-03     182.418E-03    -78.3217E-03     115.364E-03    -37.0570E-03     180.826E-03
            1257     13.8468E-03     115.136E-03    -12.4821E+06    -19.0045E+06     16.3968E+06    -31.9913E+06    -87.0053E-03     126.457E-03    -39.4514E-03     186.404E-03    -88.5208E-03     127.816E-03    -39.3237E-03     184.206E-03
            1258     14.6736E-03     115.308E-03    -11.1083E+06    -21.8138E+06     16.2522E+06    -27.7912E+06    -96.0767E-03     138.105E-03    -42.0281E-03     174.488E-03    -97.9141E-03     139.781E-03    -41.8991E-03     171.807E-03
            1259     15.4928E-03     115.458E-03    -8.25861E+06     29.3268E+06     30.8377E+06    -15.5017E+06    -104.244E-03     149.117E-03    -44.8735E-03     149.646E-03    -106.170E-03     151.032E-03    -44.7498E-03     146.768E-03
            1260     16.3032E-03     115.586E-03    -7.44030E+06     82.8182E+06     64.4300E+06    -6.70616E+06    -112.086E-03     160.130E-03    -48.0442E-03     98.1925E-03    -113.492E-03     161.621E-03    -47.8314E-03     95.6182E-03
            1261     878.820E-06     114.850E-03    -87.0703E+06    -52.9904E+06    -85.3402E+06    -6.20438E+06    -24.0368E-03     47.9755E-03    -23.9387E-03     10.0948E-03    -24.2716E-03     47.9606E-03    -24.1623E-03     10.0148E-03
            1262     1.75764E-03     114.862E-03    -84.3894E+06    -48.4844E+06    -79.6513E+06    -10.6456E+06    -24.5017E-03     48.5865E-03    -24.0848E-03     18.8657E-03    -24.7380E-03     48.5819E-03    -24.2904E-03     18.7282E-03
            1263     2.63565E-03     114.881E-03    -81.3510E+06    -44.6345E+06    -73.8972E+06    -15.0225E+06    -25.2263E-03     49.5423E-03    -24.3160E-03     28.6332E-03    -25.4614E-03     49.5444E-03    -24.5028E-03     28.4388E-03
            1264     3.51333E-03     114.910E-03    -77.8778E+06    -41.4895E+06    -68.5457E+06    -19.6169E+06    -26.2387E-03     50.8565E-03    -24.6179E-03     39.1927E-03    -26.4691E-03     50.8619E-03    -24.7875E-03     38.9377E-03
            1265     4.38988E-03     114.947E-03    -73.3953E+06    -36.5930E+06    -61.2761E+06    -23.8726E+06    -27.5944E-03     52.5964E-03    -25.0020E-03     50.6292E-03    -27.8210E-03     52.6102E-03    -25.1489E-03     50.3167E-03
            1266     5.26558E-03     114.996E-03    -67.9841E+06    -32.5343E+06    -51.1158E+06    -28.4777E+06    -29.3827E-03     54.8708E-03    -25.4881E-03     62.9821E-03    -29.6052E-03     54.8847E-03    -25.5979E-03     62.6049E-03
            1267     6.13947E-03     115.056E-03    -61.8453E+06    -32.6854E+06    -41.6295E+06    -33.2112E+06    -31.6442E-03     57.7189E-03    -26.0747E-03     76.1456E-03    -31.8547E-03     57.7146E-03    -26.1458E-03     75.6973E-03
            1268     7.01180E-03     115.127E-03    -53.6319E+06    -28.1565E+06    -32.1173E+06    -35.2693E+06    -34.3763E-03     61.1328E-03    -26.7565E-03     90.0407E-03    -34.5761E-03     61.1355E-03    -26.7985E-03     89.5487E-03
            1269     7.88204E-03     115.212E-03    -42.7768E+06    -21.7811E+06    -19.0103E+06    -33.6498E+06    -37.7024E-03     65.2653E-03    -27.5629E-03     104.603E-03    -37.8946E-03     65.2836E-03    -27.5643E-03     104.104E-03
            1270     8.74995E-03     115.311E-03    -30.8588E+06    -18.2258E+06    -3.37809E+06    -29.1268E+06    -41.7970E-03     70.3130E-03    -28.5160E-03     119.701E-03    -41.9898E-03     70.3417E-03    -28.4617E-03     119.214E-03
            1271     9.61469E-03     115.424E-03    -20.4945E+06    -12.3165E+06     11.3044E+06    -24.5733E+06    -46.7746E-03     76.3946E-03    -29.6200E-03     135.178E-03    -47.0003E-03     76.4715E-03    -29.5159E-03     134.676E-03
            1272     10.4757E-03     115.553E-03    -14.5861E+06    -4.91841E+06     21.9266E+06    -22.2193E+06    -52.7442E-03     83.6372E-03    -30.8931E-03     150.579E-03    -53.0547E-03     83.8157E-03    -30.7551E-03     149.993E-03
            1273     11.3320E-03     115.696E-03    -12.8468E+06    -2.18312E+06     27.6047E+06    -23.3892E+06    -59.8726E-03     92.2454E-03    -32.3728E-03     165.188E-03    -60.3244E-03     92.5649E-03    -32.2130E-03     164.414E-03
            1274     12.1827E-03     115.854E-03    -11.5254E+06    -3.32989E+06     29.8727E+06    -25.1721E+06    -68.2455E-03     102.343E-03    -34.0977E-03     178.371E-03    -68.9037E-03     102.864E-03    -33.9268E-03     177.311E-03
            1275     13.0266E-03     116.025E-03    -9.90449E+06    -10.6090E+06     29.4387E+06    -26.8392E+06    -77.8023E-03     113.910E-03    -36.1076E-03     189.615E-03    -78.7701E-03     114.722E-03    -35.9307E-03     188.134E-03
            1276     13.8624E-03     116.207E-03    -9.19665E+06    -13.0491E+06     26.2926E+06    -28.6046E+06    -88.3031E-03     126.722E-03    -38.4186E-03     196.496E-03    -89.7457E-03     128.012E-03    -38.2549E-03     194.405E-03
            1277     14.6893E-03     116.393E-03    -10.8441E+06    -30.3194E+06     18.0031E+06    -27.0207E+06    -99.2280E-03     140.319E-03    -41.0913E-03     186.992E-03    -101.090E-03     141.987E-03    -40.9416E-03     184.219E-03
            1278     15.5048E-03     116.557E-03    -10.1546E+06     14.7546E+06     33.9906E+06    -18.3154E+06    -110.304E-03     154.488E-03    -44.1843E-03     162.138E-03    -112.398E-03     156.505E-03    -44.0210E-03     158.877E-03
            1279     16.3106E-03     116.702E-03    -3.88146E+06     73.7582E+06     69.6909E+06    -6.78819E+06    -119.577E-03     167.257E-03    -47.6796E-03     109.457E-03    -121.092E-03     168.822E-03    -47.4325E-03     106.562E-03
            1280     879.273E-06     115.844E-03    -56.9298E+06    -40.6892E+06    -54.9736E+06    -5.95698E+06    -23.8919E-03     47.6962E-03    -23.8043E-03     8.71087E-03    -24.0380E-03     47.6552E-03    -23.9376E-03     8.63245E-03
            1281     1.75801E-03     115.856E-03    -55.2395E+06    -37.4985E+06    -50.0084E+06    -10.4944E+06    -24.3514E-03     48.3032E-03    -23.9518E-03     16.3301E-03    -24.5011E-03     48.2686E-03    -24.0673E-03     16.1917E-03
            1282     2.63664E-03     115.877E-03    -52.2333E+06    -34.0319E+06    -42.6586E+06    -14.8301E+06    -25.0693E-03     49.2678E-03    -24.1985E-03     24.8567E-03    -25.2202E-03     49.2361E-03    -24.2867E-03     24.6603E-03
            1283     3.51433E-03     115.906E-03    -49.1537E+06    -31.0518E+06    -35.2842E+06    -18.9921E+06    -26.0402E-03     50.5592E-03    -24.5189E-03     34.1988E-03    -26.1916E-03     50.5281E-03    -24.5791E-03     33.9462E-03
            1284     4.39146E-03     115.946E-03    -46.9138E+06    -26.5473E+06    -29.7869E+06    -23.2120E+06    -27.2566E-03     52.1527E-03    -24.8961E-03     44.5680E-03    -27.4127E-03     52.1343E-03    -24.9385E-03     44.2577E-03
            1285     5.26734E-03     115.996E-03    -45.4795E+06    -21.8613E+06    -25.6633E+06    -27.4398E+06    -28.7844E-03     54.1183E-03    -25.3339E-03     56.1217E-03    -28.9484E-03     54.1176E-03    -25.3646E-03     55.7524E-03
            1286     6.14228E-03     116.058E-03    -44.8672E+06    -21.6836E+06    -21.8986E+06    -32.2142E+06    -30.7857E-03     56.6420E-03    -25.8563E-03     68.8737E-03    -30.9564E-03     56.6401E-03    -25.8693E-03     68.4352E-03
            1287     7.01530E-03     116.132E-03    -44.7407E+06    -21.0393E+06    -18.9604E+06    -36.6530E+06    -33.3584E-03     59.8315E-03    -26.4730E-03     82.8031E-03    -33.5413E-03     59.8359E-03    -26.4724E-03     82.2948E-03
            1288     7.88636E-03     116.221E-03    -43.3381E+06    -19.0339E+06    -14.4853E+06    -38.7553E+06    -36.5811E-03     63.7911E-03    -27.2100E-03     97.8283E-03    -36.7800E-03     63.8108E-03    -27.1920E-03     97.2718E-03
            1289     8.75479E-03     116.324E-03    -37.5828E+06    -19.5852E+06    -6.11128E+06    -38.5072E+06    -40.6243E-03     68.7244E-03    -28.1000E-03     113.768E-03    -40.8300E-03     68.7452E-03    -28.0477E-03     113.179E-03
            1290     9.62024E-03     116.443E-03    -27.0462E+06    -16.3702E+06     7.27868E+06    -34.5362E+06    -45.6025E-03     74.7657E-03    -29.1632E-03     130.296E-03    -45.8218E-03     74.8103E-03    -29.0638E-03     129.700E-03
            1291     10.4820E-03     116.577E-03    -15.5147E+06    -9.16581E+06     22.3186E+06    -26.9824E+06    -51.6233E-03     82.0380E-03    -30.4147E-03     146.926E-03    -51.8880E-03     82.1511E-03    -30.2673E-03     146.333E-03
            1292     11.3393E-03     116.729E-03    -8.48163E+06     381.433E+03     34.2123E+06    -21.0688E+06    -58.7999E-03     90.6715E-03    -31.8716E-03     163.147E-03    -59.1744E-03     90.9191E-03    -31.6888E-03     162.481E-03
            1293     12.1909E-03     116.896E-03    -7.85337E+06     856.821E+03     39.3636E+06    -20.6280E+06    -67.2024E-03     100.771E-03    -33.5683E-03     178.353E-03    -67.7614E-03     101.192E-03    -33.3613E-03     177.460E-03
            1294     13.0359E-03     117.078E-03    -10.1671E+06    -5.31924E+06     39.1851E+06    -22.2793E+06    -76.7897E-03     112.323E-03    -35.5336E-03     192.005E-03    -77.6355E-03     113.002E-03    -35.3152E-03     190.733E-03
            1295     13.8734E-03     117.273E-03    -11.0347E+06    -5.30024E+06     36.1636E+06    -26.7562E+06    -87.5694E-03     125.358E-03    -37.7883E-03     202.123E-03    -88.8589E-03     126.487E-03    -37.5838E-03     200.241E-03
            1296     14.7015E-03     117.476E-03    -7.45014E+06    -34.8191E+06     24.6352E+06    -26.0737E+06    -100.503E-03     140.945E-03    -40.4416E-03     198.193E-03    -102.247E-03     142.472E-03    -40.2571E-03     195.509E-03
            1297     15.5152E-03     117.663E-03    -4.70586E+06     -17.186E+03     27.3544E+06    -16.2314E+06    -115.474E-03     159.078E-03    -43.6040E-03     177.911E-03    -117.686E-03     161.201E-03    -43.4604E-03     174.334E-03
            1298     16.3128E-03     117.827E-03    -4.99896E+06     61.3427E+06     60.9678E+06    -8.18512E+06    -125.922E-03     173.270E-03    -47.3480E-03     121.557E-03    -127.619E-03     174.994E-03    -47.1249E-03     118.228E-03
            1299     877.683E-06     116.838E-03    -28.7127E+06    -29.3029E+06    -27.3162E+06    -5.24082E+06    -25.6213E-03     51.1351E-03    -25.5138E-03     6.96441E-03    -25.6832E-03     51.0698E-03    -25.5663E-03     6.89296E-03
            1300     1.75543E-03     116.852E-03    -27.2596E+06    -26.4823E+06    -22.4190E+06    -9.74179E+06    -26.0572E-03     51.7375E-03    -25.6803E-03     13.0380E-03    -26.1237E-03     51.6775E-03    -25.7145E-03     12.9049E-03
            1301     2.63235E-03     116.873E-03    -25.3182E+06    -24.3636E+06    -15.5703E+06    -13.6755E+06    -26.7439E-03     52.6805E-03    -25.9366E-03     19.8379E-03    -26.8146E-03     52.6193E-03    -25.9425E-03     19.6499E-03
            1302     3.50890E-03     116.904E-03    -23.3288E+06    -21.8657E+06    -9.29802E+06    -16.7843E+06    -27.6123E-03     53.8707E-03    -26.2584E-03     27.3269E-03    -27.6872E-03     53.8115E-03    -26.2394E-03     27.0940E-03
            1303     4.38448E-03     116.944E-03    -21.3822E+06    -17.0303E+06    -4.33755E+06    -20.1607E+06    -28.5994E-03     55.2208E-03    -26.6214E-03     35.7712E-03    -28.6809E-03     55.1778E-03    -26.5874E-03     35.4893E-03
            1304     5.25955E-03     116.996E-03    -19.8168E+06    -12.7807E+06    -37.8353E+03    -23.4561E+06    -29.7373E-03     56.7589E-03    -27.0216E-03     45.4280E-03    -29.8261E-03     56.7315E-03    -26.9745E-03     45.0978E-03
            1305     6.13352E-03     117.059E-03    -19.3134E+06    -11.8729E+06     4.38222E+06    -26.3221E+06    -31.1656E-03     58.6368E-03    -27.4712E-03     56.4821E-03    -31.2635E-03     58.6109E-03    -27.4041E-03     56.1081E-03
            1306     7.00658E-03     117.137E-03    -20.4366E+06    -11.6377E+06     7.55236E+06    -29.3477E+06    -33.0876E-03     61.0675E-03    -27.9798E-03     69.1120E-03    -33.2020E-03     61.0457E-03    -27.8956E-03     68.6895E-03
            1307     7.87783E-03     117.228E-03    -23.0412E+06    -12.0330E+06     8.78759E+06    -32.1561E+06    -35.6905E-03     64.2623E-03    -28.5718E-03     83.4916E-03    -35.8283E-03     64.2501E-03    -28.4770E-03     83.0187E-03
            1308     8.74699E-03     117.335E-03    -27.1679E+06    -13.2964E+06     8.87596E+06    -35.2999E+06    -39.1441E-03     68.4256E-03    -29.2815E-03     99.6144E-03    -39.3163E-03     68.4287E-03    -29.1784E-03     99.0783E-03
            1309     9.61321E-03     117.458E-03    -30.0636E+06    -16.3578E+06     10.4307E+06    -37.6066E+06    -43.6651E-03     73.8173E-03    -30.1522E-03     117.100E-03    -43.8766E-03     73.8342E-03    -30.0327E-03     116.496E-03
            1310     10.4757E-03     117.599E-03    -27.2492E+06    -15.8194E+06     17.3146E+06    -35.1658E+06    -49.4081E-03     80.6325E-03    -31.2244E-03     135.281E-03    -49.6634E-03     80.6855E-03    -31.0754E-03     134.641E-03
            1311     11.3338E-03     117.757E-03    -18.7216E+06    -6.83885E+06     31.6963E+06    -27.4135E+06    -56.4277E-03     88.9643E-03    -32.5366E-03     153.306E-03    -56.7546E-03     89.1096E-03    -32.3411E-03     152.654E-03
            1312     12.1869E-03     117.934E-03    -10.3194E+06     706.103E+03     46.2254E+06    -19.7452E+06    -64.7576E-03     98.8660E-03    -34.1084E-03     170.281E-03    -65.2087E-03     99.1504E-03    -33.8633E-03     169.542E-03
            1313     13.0335E-03     118.127E-03    -5.21501E+06    -1.59341E+06     50.3586E+06    -17.5776E+06    -74.1461E-03     110.074E-03    -35.9283E-03     185.564E-03    -74.7924E-03     110.552E-03    -35.6666E-03     184.558E-03
            1314     13.8732E-03     118.335E-03    -6.30586E+06     4.22790E+06     49.7020E+06    -17.4972E+06    -84.6932E-03     122.718E-03    -38.0245E-03     198.467E-03    -85.7059E-03     123.581E-03    -37.7730E-03     196.996E-03
            1315     14.7039E-03     118.554E-03    -11.9372E+06    -29.1259E+06     35.3117E+06    -24.0662E+06    -97.3474E-03     137.837E-03    -40.4892E-03     202.488E-03    -98.8140E-03     139.059E-03    -40.2531E-03     200.207E-03
            1316     15.5208E-03     118.769E-03    -7.85113E+06    -17.7642E+06     24.3397E+06    -24.2118E+06    -114.321E-03     157.755E-03    -43.4342E-03     194.390E-03    -116.464E-03     159.745E-03    -43.2753E-03     190.829E-03
            1317     16.3201E-03     118.961E-03     344.096E+03     44.8661E+06     56.6751E+06    -7.89033E+06    -129.189E-03     176.326E-03    -47.1372E-03     136.660E-03    -130.975E-03     178.115E-03    -46.9194E-03     133.081E-03
            1318     874.651E-06     117.839E-03    -3.32355E+06    -18.9344E+06    -1.76348E+06    -4.84480E+06    -29.5229E-03     58.9241E-03    -29.4012E-03     4.78962E-03    -29.5109E-03     58.8361E-03    -29.3777E-03     4.72028E-03
            1319     1.74868E-03     117.852E-03    -2.52067E+06    -16.6044E+06     1.94255E+06    -8.33694E+06    -29.9712E-03     59.5670E-03    -29.5958E-03     9.00956E-03    -29.9646E-03     59.4845E-03    -29.5583E-03     8.88907E-03
            1320     2.62252E-03     117.875E-03    -1.66926E+06    -16.0449E+06     6.55302E+06    -11.4425E+06    -30.6446E-03     60.5188E-03    -29.8741E-03     13.6487E-03    -30.6424E-03     60.4323E-03    -29.8157E-03     13.4810E-03
            1321     3.49542E-03     117.906E-03    -308.658E+03    -13.9098E+06     11.0931E+06    -14.3424E+06    -31.4153E-03     61.6286E-03    -30.2133E-03     18.7784E-03    -31.4176E-03     61.5459E-03    -30.1372E-03     18.5653E-03
            1322     4.36781E-03     117.948E-03     1.13386E+06    -9.05016E+06     16.2739E+06    -17.2202E+06    -32.2177E-03     62.8091E-03    -30.5914E-03     24.6684E-03    -32.2297E-03     62.7434E-03    -30.4985E-03     24.4098E-03
            1323     5.23926E-03     118.000E-03     1.55641E+06    -6.43996E+06     21.4108E+06    -18.8379E+06    -33.0375E-03     64.0352E-03    -30.9977E-03     31.5756E-03    -33.0618E-03     63.9777E-03    -30.8836E-03     31.2874E-03
            1324     6.11023E-03     118.065E-03     538.446E+03    -5.31121E+06     25.1654E+06    -19.8679E+06    -33.9069E-03     65.3241E-03    -31.4172E-03     39.7646E-03    -33.9474E-03     65.2723E-03    -31.2845E-03     39.4542E-03
            1325     6.98037E-03     118.142E-03    -1.38249E+06    -4.92749E+06     27.9693E+06    -20.9915E+06    -34.9645E-03     66.8182E-03    -31.8536E-03     49.4986E-03    -35.0245E-03     66.7724E-03    -31.7047E-03     49.1645E-03
            1326     7.84983E-03     118.236E-03    -4.04234E+06    -5.33337E+06     30.4098E+06    -22.1064E+06    -36.4365E-03     68.7639E-03    -32.3275E-03     61.0838E-03    -36.5195E-03     68.7236E-03    -32.1618E-03     60.7245E-03
            1327     8.71799E-03     118.344E-03    -7.73262E+06    -5.96857E+06     31.8286E+06    -22.8420E+06    -38.5678E-03     71.4313E-03    -32.8635E-03     74.8270E-03    -38.6801E-03     71.4011E-03    -32.6845E-03     74.4439E-03
            1328     9.58437E-03     118.471E-03    -14.0571E+06    -8.16742E+06     30.0714E+06    -25.1029E+06    -41.6380E-03     75.1287E-03    -33.4907E-03     90.8567E-03    -41.7909E-03     75.1147E-03    -33.3081E-03     90.4230E-03
            1329     10.4480E-03     118.617E-03    -21.8215E+06    -12.7733E+06     27.2877E+06    -28.7978E+06    -45.9657E-03     80.2269E-03    -34.2612E-03     108.936E-03    -46.1712E-03     80.2305E-03    -34.0746E-03     108.419E-03
            1330     11.3078E-03     118.782E-03    -25.3367E+06    -11.4213E+06     31.7086E+06    -29.9946E+06    -51.8767E-03     87.1216E-03    -35.2449E-03     128.378E-03    -52.1511E-03     87.1746E-03    -35.0331E-03     127.781E-03
            1331     12.1622E-03     118.966E-03    -19.8634E+06    -5.52284E+06     42.3636E+06    -27.0167E+06    -59.4609E-03     95.9423E-03    -36.4813E-03     147.902E-03    -59.8081E-03     96.0784E-03    -36.2327E-03     147.229E-03
            1332     13.0103E-03     119.170E-03    -11.1536E+06    -3.16702E+06     50.5858E+06    -21.5506E+06    -68.6508E-03     106.641E-03    -37.9906E-03     165.980E-03    -69.1041E-03     106.900E-03    -37.7169E-03     165.176E-03
            1333     13.8518E-03     119.388E-03    -5.87199E+06    -2.98043E+06     57.5062E+06    -11.9290E+06    -78.7555E-03     118.563E-03    -39.8074E-03     181.759E-03    -79.4233E-03     119.035E-03    -39.5070E-03     180.744E-03
            1334     14.6858E-03     119.623E-03    -5.82091E+06    -7.72708E+06     55.9683E+06    -13.0039E+06    -88.4422E-03     130.323E-03    -41.8805E-03     191.505E-03    -89.4422E-03     131.116E-03    -41.5810E-03     189.985E-03
            1335     15.5138E-03     119.856E-03    -13.3551E+06    -16.0366E+06     35.7470E+06    -26.0971E+06    -102.429E-03     146.660E-03    -44.2310E-03     200.205E-03    -104.135E-03     148.165E-03    -44.0097E-03     197.456E-03
            1336     16.3216E-03     120.093E-03    -11.4112E+06     12.7665E+06     42.9830E+06    -16.4087E+06    -122.470E-03     169.778E-03    -47.3082E-03     155.944E-03    -124.137E-03     171.337E-03    -47.0952E-03     152.602E-03
            1337     868.956E-06     118.849E-03     18.4269E+06    -10.2029E+06     20.0436E+06    -3.55317E+06    -36.0996E-03     71.7660E-03    -35.6664E-03     2.44347E-03    -36.0243E-03     71.6570E-03    -35.5781E-03     2.38807E-03
            1338     1.73790E-03     118.864E-03     18.2032E+06    -8.79674E+06     20.8525E+06    -6.33068E+06    -36.4744E-03     72.5255E-03    -36.0511E-03     4.10429E-03    -36.4042E-03     72.4229E-03    -35.9605E-03     4.00402E-03
            1339     2.60582E-03     118.887E-03     18.1482E+06    -8.80644E+06     23.9507E+06    -8.91336E+06    -37.0703E-03     73.4435E-03    -36.3733E-03     6.09327E-03    -37.0056E-03     73.3372E-03    -36.2670E-03     5.94957E-03
            1340     3.47325E-03     118.919E-03     18.2971E+06    -6.79522E+06     28.2640E+06    -11.5996E+06    -37.7349E-03     74.4807E-03    -36.7458E-03     8.51984E-03    -37.6799E-03     74.3792E-03    -36.6211E-03     8.33069E-03
            1341     4.33971E-03     118.961E-03     17.7534E+06    -3.63941E+06     32.8879E+06    -12.9572E+06    -38.4390E-03     75.6000E-03    -37.1611E-03     11.5100E-03    -38.3997E-03     75.5100E-03    -37.0171E-03     11.2920E-03
            1342     5.20551E-03     119.014E-03     16.4253E+06    -2.69049E+06     37.3198E+06    -12.9767E+06    -39.1310E-03     76.7444E-03    -37.6134E-03     15.1989E-03    -39.1087E-03     76.6568E-03    -37.4467E-03     14.9690E-03
            1343     6.07037E-03     119.079E-03     14.9021E+06    -1.47763E+06     41.2650E+06    -12.7634E+06    -39.7522E-03     77.8377E-03    -38.0855E-03     19.7694E-03    -39.7482E-03     77.7556E-03    -37.8987E-03     19.5303E-03
            1344     6.93461E-03     119.157E-03     12.9884E+06    -1.18868E+06     45.3545E+06    -12.7246E+06    -40.3030E-03     78.8766E-03    -38.5735E-03     25.4143E-03    -40.3191E-03     78.7965E-03    -38.3639E-03     25.1636E-03
            1345     7.79806E-03     119.249E-03     10.3872E+06    -1.80621E+06     48.7792E+06    -12.4039E+06    -40.8564E-03     79.9285E-03    -39.0721E-03     32.3798E-03    -40.8949E-03     79.8492E-03    -38.8407E-03     32.1207E-03
            1346     8.66086E-03     119.359E-03     7.50223E+06    -2.47839E+06     50.8411E+06    -12.0740E+06    -41.5484E-03     81.1315E-03    -39.5831E-03     40.9989E-03    -41.6101E-03     81.0567E-03    -39.3361E-03     40.7307E-03
            1347     9.52282E-03     119.486E-03     5.33268E+06    -2.45270E+06     52.0000E+06    -11.5976E+06    -42.5508E-03     82.6709E-03    -40.1201E-03     51.6111E-03    -42.6338E-03     82.6067E-03    -39.8643E-03     51.3339E-03
            1348     10.3838E-03     119.633E-03     2.84047E+06    -3.85135E+06     51.3709E+06    -13.0111E+06    -44.1406E-03     84.8448E-03    -40.7041E-03     64.5534E-03    -44.2451E-03     84.7909E-03    -40.4458E-03     64.2389E-03
            1349     11.2432E-03     119.801E-03    -1.44427E+06    -5.20011E+06     50.3539E+06    -16.7084E+06    -46.6807E-03     88.0509E-03    -41.3702E-03     80.2741E-03    -46.8209E-03     88.0175E-03    -41.1088E-03     79.8853E-03
            1350     12.1000E-03     119.992E-03    -8.10239E+06    -3.26787E+06     50.3062E+06    -20.1287E+06    -50.7907E-03     92.9545E-03    -42.1638E-03     98.4278E-03    -50.9959E-03     92.9720E-03    -41.8958E-03     97.9494E-03
            1351     12.9527E-03     120.202E-03    -13.5564E+06    -6.87544E+06     50.1164E+06    -18.8978E+06    -57.0903E-03     100.238E-03    -43.1475E-03     118.180E-03    -57.3716E-03     100.304E-03    -42.8673E-03     117.628E-03
            1352     13.7977E-03     120.433E-03    -11.4077E+06    -13.5447E+06     52.3967E+06    -15.1290E+06    -64.3978E-03     108.739E-03    -44.3415E-03     138.161E-03    -64.7597E-03     108.867E-03    -44.0433E-03     137.503E-03
            1353     14.6372E-03     120.675E-03    -2.89210E+06    -731.822E+03     60.7058E+06    -11.4736E+06    -71.3749E-03     117.063E-03    -45.6879E-03     154.013E-03    -71.8796E-03     117.386E-03    -45.3791E-03     153.172E-03
            1354     15.4740E-03     120.922E-03     609.162E+03    -2.34719E+06     58.1212E+06    -8.54512E+06    -78.3520E-03     125.459E-03    -47.1074E-03     173.726E-03    -79.2291E-03     126.170E-03    -46.8143E-03     172.427E-03
            1355     16.3104E-03     121.186E-03    -2.65199E+06     1.03171E+06     43.3246E+06    -12.1128E+06    -93.3171E-03     142.091E-03    -48.7741E-03     164.799E-03    -94.3900E-03     143.048E-03    -48.5551E-03     162.769E-03
            1356     861.434E-06     119.877E-03     35.2819E+06    -4.11605E+06     35.2297E+06    -2.25403E+06    -45.2869E-03     90.8025E-03    -45.5155E-03    -1.29871E-03    -45.1607E-03     90.6746E-03    -45.3846E-03    -1.33778E-03
            1357     1.72160E-03     119.891E-03     33.8297E+06    -3.19730E+06     35.7585E+06    -3.80007E+06    -45.7757E-03     91.3436E-03    -45.5679E-03    -2.18310E-03    -45.6589E-03     91.2217E-03    -45.4336E-03    -2.25085E-03
            1358     2.58167E-03     119.915E-03     32.1362E+06     -3.1669E+06     37.9075E+06    -5.47125E+06    -46.2284E-03     92.0838E-03    -45.8554E-03    -2.94018E-03    -46.1234E-03     91.9615E-03    -45.7078E-03    -3.03888E-03
            1359     3.44086E-03     119.948E-03     29.9467E+06    -1.95450E+06     41.2677E+06    -6.59822E+06    -46.8657E-03     93.0976E-03    -46.2319E-03    -3.50652E-03    -46.7786E-03     92.9798E-03    -46.0662E-03    -3.62960E-03
            1360     4.29931E-03     119.991E-03     27.5388E+06    -960.220E+03     45.0975E+06    -6.68891E+06    -47.6308E-03     94.3338E-03    -46.7029E-03    -3.90904E-03    -47.5634E-03     94.2190E-03    -46.5160E-03    -4.04370E-03
            1361     5.15649E-03     120.044E-03     25.5601E+06    -729.648E+03     49.8380E+06    -6.19625E+06    -48.4440E-03     95.7078E-03    -47.2637E-03    -4.11913E-03    -48.3947E-03     95.5903E-03    -47.0506E-03    -4.25864E-03
            1362     6.01252E-03     120.110E-03     24.1061E+06     131.607E+03     55.6956E+06    -5.60910E+06    -49.1893E-03     97.0898E-03    -47.9005E-03    -4.06963E-03    -49.1583E-03     96.9705E-03    -47.6571E-03    -4.21355E-03
            1363     6.86716E-03     120.187E-03     22.8264E+06     294.211E+03     61.0064E+06    -4.66253E+06    -49.7576E-03     98.3489E-03    -48.5913E-03    -3.67283E-03    -49.7427E-03     98.2250E-03    -48.3198E-03    -3.81737E-03
            1364     7.72056E-03     120.280E-03     21.9233E+06    -397.148E+03     64.7036E+06    -3.89407E+06    -50.0498E-03     99.3649E-03    -49.3151E-03    -2.78332E-03    -50.0461E-03     99.2341E-03    -49.0228E-03    -2.93158E-03
            1365     8.57270E-03     120.387E-03     21.6252E+06    -789.092E+03     67.5904E+06    -3.42985E+06    -49.9598E-03     100.018E-03    -50.0582E-03    -1.19079E-03    -49.9643E-03     99.8828E-03    -49.7504E-03    -1.34734E-03
            1366     9.42370E-03     120.513E-03     21.7056E+06    -751.715E+03     69.9386E+06    -3.41160E+06    -49.3977E-03     100.203E-03    -50.8055E-03     1.40627E-03    -49.4091E-03     100.067E-03    -50.4861E-03     1.23564E-03
            1367     10.2737E-03     120.656E-03     21.5265E+06    -877.148E+03     71.0258E+06    -2.75181E+06    -48.2650E-03     99.8001E-03    -51.5351E-03     5.46375E-03    -48.2835E-03     99.6659E-03    -51.2099E-03     5.28824E-03
            1368     11.1232E-03     120.822E-03     19.8686E+06     1.24945E+06     71.6272E+06    -3.15713E+06    -46.5834E-03     98.8102E-03    -52.2267E-03     11.6111E-03    -46.6204E-03     98.6940E-03    -51.8992E-03     11.4195E-03
            1369     11.9733E-03     121.009E-03     15.9451E+06     856.436E+03     69.5790E+06    -2.07323E+06    -44.7405E-03     97.6030E-03    -52.8625E-03     20.7743E-03    -44.8017E-03     97.5039E-03    -52.5390E-03     20.5863E-03
            1370     12.8228E-03     121.221E-03     11.6029E+06    -2.27407E+06     66.8539E+06    -2.92952E+06    -42.9128E-03     96.3389E-03    -53.4261E-03     34.2521E-03    -42.9990E-03     96.2525E-03    -53.1053E-03     34.0401E-03
            1371     13.6743E-03     121.453E-03     7.83468E+06    -8.61914E+06     62.6642E+06    -6.06014E+06    -41.4237E-03     95.2949E-03    -53.8712E-03     51.0779E-03    -41.5306E-03     95.2131E-03    -53.5567E-03     50.8091E-03
            1372     14.5279E-03     121.703E-03     6.56254E+06    -2.23576E+06     62.2182E+06    -9.12828E+06    -42.2237E-03     96.4387E-03    -54.2150E-03     68.2647E-03    -42.3743E-03     96.4289E-03    -53.9102E-03     67.9171E-03
            1373     15.3764E-03     121.959E-03     10.2452E+06    -4.80930E+06     64.2042E+06    -3.74486E+06    -43.4225E-03     97.9409E-03    -54.5184E-03     81.7783E-03    -43.6347E-03     97.9893E-03    -54.2053E-03     81.4260E-03
            1374     16.2344E-03     122.213E-03     14.7727E+06    -1.09153E+06     53.0990E+06    -1.41814E+06    -34.8151E-03     89.1839E-03    -54.3689E-03     86.5929E-03    -35.1091E-03     89.3937E-03    -54.1232E-03     86.0719E-03
            1375     16.2277E-03     60.5379E-03    -4.41060E+06     124.824E+06     83.0207E+06     24.4311E+03    -51.6279E-03     104.228E-03    -52.6005E-03     38.3318E-03    -52.5049E-03     105.292E-03    -52.3600E-03     37.6794E-03
            1376     15.3732E-03     60.4723E-03    -9.02433E+06     124.043E+06     74.5573E+06     55.5437E+03    -52.1000E-03     104.692E-03    -52.5917E-03     72.9562E-03    -53.3587E-03     106.143E-03    -52.3857E-03     72.0720E-03
            1377     14.5187E-03     60.3931E-03    -13.2364E+06     116.994E+06     51.5995E+06     85.1073E+03    -52.9056E-03     105.426E-03    -52.5206E-03     90.9117E-03    -54.2304E-03     106.970E-03    -52.4130E-03     89.8945E-03
            1378     13.6643E-03     60.2916E-03    -16.3345E+06     79.5748E+06     22.1513E+06     99.7607E+03    -53.5575E-03     106.015E-03    -52.4577E-03     99.5708E-03    -54.7693E-03     107.387E-03    -52.4386E-03     98.4815E-03
            1379     12.8100E-03     60.1951E-03    -18.3602E+06     20.2890E+06     6.67985E+06     108.146E+03    -53.7831E-03     106.273E-03    -52.4895E-03     95.3785E-03    -54.6854E-03     107.162E-03    -52.4589E-03     94.3501E-03
            1380     11.9559E-03     60.1019E-03    -20.0750E+06    -20.6803E+06     4.96184E+06     115.332E+03    -53.9593E-03     106.518E-03    -52.5583E-03     92.5641E-03    -54.6211E-03     107.020E-03    -52.4744E-03     91.6516E-03
            1381     11.1017E-03     60.0109E-03    -21.9436E+06    -46.9714E+06     3.73943E+06     120.123E+03    -54.0480E-03     106.654E-03    -52.6063E-03     89.9820E-03    -54.5434E-03     106.894E-03    -52.4876E-03     89.1831E-03
            1382     10.2476E-03     59.9226E-03    -24.0685E+06    -64.7413E+06     3.61135E+06     120.158E+03    -54.0333E-03     106.680E-03    -52.6468E-03     86.5401E-03    -54.4086E-03     106.730E-03    -52.5000E-03     85.8484E-03
            1383     9.39354E-03     59.8383E-03    -26.5007E+06    -79.3684E+06     1.96991E+06     114.196E+03    -53.9486E-03     106.624E-03    -52.6756E-03     82.0806E-03    -54.2297E-03     106.524E-03    -52.5123E-03     81.4881E-03
            1384     8.53948E-03     59.7589E-03    -29.2666E+06    -93.0128E+06     409.091E+03     100.300E+03    -53.8202E-03     106.524E-03    -52.7040E-03     76.8988E-03    -54.0277E-03     106.296E-03    -52.5247E-03     76.3968E-03
            1385     7.68543E-03     59.6848E-03    -32.4412E+06    -103.481E+06    -1.79897E+06     84.4511E+03    -53.6578E-03     106.384E-03    -52.7258E-03     71.1378E-03    -53.8117E-03     106.060E-03    -52.5378E-03     70.7175E-03
            1386     6.83139E-03     59.6168E-03    -36.0417E+06    -114.341E+06    -5.51954E+06     68.8169E+03    -53.4866E-03     106.229E-03    -52.7422E-03     64.8201E-03    -53.5974E-03     105.822E-03    -52.5517E-03     64.4725E-03
            1387     5.97738E-03     59.5553E-03    -40.0529E+06    -125.175E+06    -10.4766E+06     45.2717E+03    -53.3140E-03     106.068E-03    -52.7538E-03     57.9944E-03    -53.3911E-03     105.589E-03    -52.5666E-03     57.7113E-03
            1388     5.12339E-03     59.5009E-03    -44.4142E+06    -135.713E+06    -17.3864E+06     19.2986E+03    -53.1513E-03     105.908E-03    -52.7563E-03     50.7155E-03    -53.2014E-03     105.369E-03    -52.5821E-03     50.4891E-03
            1389     4.26942E-03     59.4539E-03    -49.0538E+06    -147.931E+06    -25.4400E+06    -11.8536E+03    -53.0116E-03     105.768E-03    -52.7559E-03     43.0237E-03    -53.0379E-03     105.168E-03    -52.5975E-03     42.8468E-03
            1390     3.41549E-03     59.4149E-03    -53.8287E+06    -157.774E+06    -34.8792E+06    -70.8011E+03    -52.8900E-03     105.634E-03    -52.7444E-03     34.9887E-03    -52.8993E-03     104.994E-03    -52.6120E-03     34.8546E-03
            1391     2.56158E-03     59.3840E-03    -58.3333E+06    -165.689E+06    -45.5545E+06    -168.928E+03    -52.7948E-03     105.517E-03    -52.7219E-03     26.6640E-03    -52.7907E-03     104.849E-03    -52.6248E-03     26.5667E-03
            1392     1.70771E-03     59.3615E-03    -62.0323E+06    -171.541E+06    -55.7568E+06    -170.835E+03    -52.7287E-03     105.424E-03    -52.6950E-03     18.1528E-03    -52.7140E-03     104.741E-03    -52.6351E-03     18.0889E-03
            1393     853.845E-06     59.3476E-03    -64.4474E+06    -174.398E+06    -63.0209E+06     4.53509E+03    -52.7125E-03     105.362E-03    -52.6496E-03     9.92206E-03    -52.6919E-03     104.676E-03    -52.6183E-03     9.88944E-03
            1394     16.2277E-03     59.4850E-03    -4.41556E+06     124.795E+06     82.9992E+06     15.2879E+03    -51.6289E-03     104.229E-03    -52.6004E-03     38.3320E-03    -52.5058E-03     105.293E-03    -52.3600E-03     37.6795E-03
            1395     15.3732E-03     59.4194E-03    -9.02960E+06     124.006E+06     74.5279E+06     37.9466E+03    -52.1010E-03     104.693E-03    -52.5916E-03     72.9553E-03    -53.3597E-03     106.143E-03    -52.3857E-03     72.0708E-03
            1396     14.5187E-03     59.3402E-03    -13.2469E+06     116.968E+06     51.5736E+06     63.4304E+03    -52.9064E-03     105.427E-03    -52.5204E-03     90.9084E-03    -54.2311E-03     106.970E-03    -52.4129E-03     89.8909E-03
            1397     13.6643E-03     59.2387E-03    -16.3398E+06     79.5674E+06     22.1336E+06     82.7894E+03    -53.5583E-03     106.016E-03    -52.4574E-03     99.5664E-03    -54.7702E-03     107.388E-03    -52.4384E-03     98.4768E-03
            1398     12.8100E-03     59.1422E-03    -18.3627E+06     20.2862E+06     6.65949E+06     91.6628E+03    -53.7841E-03     106.273E-03    -52.4891E-03     95.3735E-03    -54.6864E-03     107.163E-03    -52.4586E-03     94.3449E-03
            1399     11.9559E-03     59.0490E-03    -20.0788E+06    -20.6814E+06     4.93958E+06     98.7577E+03    -53.9604E-03     106.518E-03    -52.5578E-03     92.5588E-03    -54.6222E-03     107.021E-03    -52.4740E-03     91.6461E-03
            1400     11.1017E-03     58.9580E-03    -21.9452E+06    -46.9634E+06     3.71796E+06     101.283E+03    -54.0491E-03     106.655E-03    -52.6056E-03     89.9762E-03    -54.5445E-03     106.895E-03    -52.4871E-03     89.1770E-03
            1401     10.2476E-03     58.8697E-03    -24.0694E+06    -64.7295E+06     3.58828E+06     99.1654E+03    -54.0344E-03     106.680E-03    -52.6460E-03     86.5337E-03    -54.4096E-03     106.730E-03    -52.4993E-03     85.8418E-03
            1402     9.39355E-03     58.7854E-03    -26.4975E+06    -79.3484E+06     1.94775E+06     94.4842E+03    -53.9495E-03     106.624E-03    -52.6746E-03     82.0733E-03    -54.2305E-03     106.524E-03    -52.5114E-03     81.4805E-03
            1403     8.53948E-03     58.7060E-03    -29.2560E+06    -92.9848E+06     389.084E+03     85.1425E+03    -53.8208E-03     106.524E-03    -52.7028E-03     76.8907E-03    -54.0283E-03     106.296E-03    -52.5236E-03     76.3885E-03
            1404     7.68544E-03     58.6319E-03    -32.4281E+06    -103.456E+06    -1.82291E+06     73.8233E+03    -53.6580E-03     106.382E-03    -52.7244E-03     71.1298E-03    -53.8118E-03     106.059E-03    -52.5365E-03     70.7093E-03
            1405     6.83140E-03     58.5639E-03    -36.0230E+06    -114.307E+06    -5.54621E+06     56.5537E+03    -53.4865E-03     106.227E-03    -52.7406E-03     64.8125E-03    -53.5972E-03     105.820E-03    -52.5503E-03     64.4648E-03
            1406     5.97739E-03     58.5024E-03    -40.0213E+06    -125.135E+06    -10.5068E+06     30.7384E+03    -53.3135E-03     106.065E-03    -52.7519E-03     57.9874E-03    -53.3904E-03     105.586E-03    -52.5650E-03     57.7042E-03
            1407     5.12340E-03     58.4480E-03    -44.3570E+06    -135.694E+06    -17.4351E+06     14.3481E+03    -53.1502E-03     105.904E-03    -52.7542E-03     50.7092E-03    -53.1999E-03     105.366E-03    -52.5803E-03     50.4828E-03
            1408     4.26943E-03     58.4010E-03    -48.9289E+06    -147.910E+06    -25.4977E+06     16.6198E+03    -53.0100E-03     105.764E-03    -52.7537E-03     43.0184E-03    -53.0356E-03     105.164E-03    -52.5957E-03     42.8419E-03
            1409     3.41549E-03     58.3620E-03    -53.6222E+06    -157.689E+06    -34.8892E+06    -11.9992E+03    -52.8883E-03     105.631E-03    -52.7423E-03     34.9852E-03    -52.8967E-03     104.990E-03    -52.6104E-03     34.8519E-03
            1410     2.56159E-03     58.3311E-03    -58.1139E+06    -165.534E+06    -45.4274E+06    -168.772E+03    -52.7937E-03     105.514E-03    -52.7206E-03     26.6629E-03    -52.7889E-03     104.847E-03    -52.6234E-03     26.5656E-03
            1411     1.70771E-03     58.3086E-03    -61.8541E+06    -171.966E+06    -55.3310E+06    -165.577E+03    -52.7293E-03     105.425E-03    -52.6957E-03     18.1529E-03    -52.7138E-03     104.740E-03    -52.6333E-03     18.0891E-03
            1412     853.850E-06     58.2948E-03    -64.3344E+06    -174.371E+06    -62.5935E+06     190.165E+03    -52.7113E-03     105.360E-03    -52.6483E-03     9.92261E-03    -52.6909E-03     104.673E-03    -52.6152E-03     9.89239E-03
            1413     16.2277E-03     58.4321E-03    -4.41419E+06     124.773E+06     82.9824E+06     8.01461E+03    -51.6301E-03     104.230E-03    -52.6003E-03     38.3317E-03    -52.5070E-03     105.294E-03    -52.3599E-03     37.6790E-03
            1414     15.3732E-03     58.3664E-03    -9.03205E+06     123.976E+06     74.5050E+06     27.4035E+03    -52.1030E-03     104.694E-03    -52.5914E-03     72.9531E-03    -53.3616E-03     106.145E-03    -52.3855E-03     72.0684E-03
            1415     14.5187E-03     58.2873E-03    -13.2512E+06     116.945E+06     51.5492E+06     46.3693E+03    -52.9082E-03     105.428E-03    -52.5201E-03     90.9050E-03    -54.2328E-03     106.971E-03    -52.4127E-03     89.8871E-03
            1416     13.6643E-03     58.1857E-03    -16.3472E+06     79.5528E+06     22.1102E+06     61.0093E+03    -53.5600E-03     106.017E-03    -52.4569E-03     99.5620E-03    -54.7718E-03     107.389E-03    -52.4380E-03     98.4722E-03
            1417     12.8101E-03     58.0893E-03    -18.3671E+06     20.2808E+06     6.64145E+06     75.0316E+03    -53.7856E-03     106.274E-03    -52.4885E-03     95.3681E-03    -54.6879E-03     107.164E-03    -52.4581E-03     94.3392E-03
            1418     11.9559E-03     57.9961E-03    -20.0780E+06    -20.6806E+06     4.92274E+06     80.6911E+03    -53.9618E-03     106.519E-03    -52.5571E-03     92.5528E-03    -54.6236E-03     107.022E-03    -52.4733E-03     91.6398E-03
            1419     11.1017E-03     57.9051E-03    -21.9416E+06    -46.9568E+06     3.70112E+06      82.354E+03    -54.0505E-03     106.655E-03    -52.6047E-03     89.9694E-03    -54.5458E-03     106.895E-03    -52.4862E-03     89.1701E-03
            1420     10.2476E-03     57.8168E-03    -24.0643E+06    -64.7178E+06     3.57159E+06     80.8990E+03    -54.0356E-03     106.680E-03    -52.6448E-03     86.5261E-03    -54.4108E-03     106.730E-03    -52.4982E-03     85.8339E-03
            1421     9.39356E-03     57.7325E-03    -26.4932E+06    -79.3310E+06     1.92874E+06     73.7584E+03    -53.9505E-03     106.624E-03    -52.6732E-03     82.0646E-03    -54.2315E-03     106.523E-03    -52.5101E-03     81.4715E-03
            1422     8.53950E-03     57.6531E-03    -29.2527E+06    -92.9696E+06     368.149E+03     68.8072E+03    -53.8214E-03     106.523E-03    -52.7012E-03     76.8810E-03    -54.0288E-03     106.295E-03    -52.5221E-03     76.3787E-03
            1423     7.68545E-03     57.5790E-03    -32.4196E+06    -103.433E+06    -1.84273E+06     61.5344E+03    -53.6581E-03     106.381E-03    -52.7225E-03     71.1202E-03    -53.8119E-03     106.057E-03    -52.5347E-03     70.6996E-03
            1424     6.83142E-03     57.5110E-03    -36.0081E+06    -114.269E+06    -5.56652E+06     41.1127E+03    -53.4860E-03     106.224E-03    -52.7383E-03     64.8035E-03    -53.5967E-03     105.818E-03    -52.5483E-03     64.4556E-03
            1425     5.97740E-03     57.4495E-03    -40.0049E+06    -125.101E+06    -10.5324E+06     15.9211E+03    -53.3125E-03     106.062E-03    -52.7494E-03     57.9788E-03    -53.3894E-03     105.583E-03    -52.5627E-03     57.6954E-03
            1426     5.12341E-03     57.3951E-03    -44.3349E+06    -135.678E+06    -17.4625E+06    -7.78885E+03    -53.1488E-03     105.900E-03    -52.7516E-03     50.7014E-03    -53.1984E-03     105.362E-03    -52.5779E-03     50.4747E-03
            1427     4.26944E-03     57.3482E-03    -48.8686E+06    -147.920E+06    -25.5603E+06    -22.2225E+03    -53.0079E-03     105.759E-03    -52.7507E-03     43.0114E-03    -53.0330E-03     105.159E-03    -52.5932E-03     42.8344E-03
            1428     3.41550E-03     57.3091E-03    -53.4448E+06    -157.638E+06    -34.9847E+06    -29.6794E+03    -52.8852E-03     105.624E-03    -52.7391E-03     34.9793E-03    -52.8927E-03     104.984E-03    -52.6080E-03     34.8458E-03
            1429     2.56159E-03     57.2782E-03    -57.8110E+06    -165.353E+06    -45.3726E+06    -99.1407E+03    -52.7904E-03     105.509E-03    -52.7184E-03     26.6582E-03    -52.7845E-03     104.842E-03    -52.6216E-03     26.5619E-03
            1430     1.70771E-03     57.2558E-03    -61.6495E+06    -172.356E+06    -54.8653E+06    -139.761E+03    -52.7290E-03     105.426E-03    -52.6970E-03     18.1499E-03    -52.7125E-03     104.738E-03    -52.6320E-03     18.0864E-03
            1431     853.850E-06     57.2419E-03    -64.3865E+06    -174.332E+06    -62.2196E+06     21.1058E+03    -52.7092E-03     105.358E-03    -52.6487E-03     9.92123E-03    -52.6896E-03     104.671E-03    -52.6137E-03     9.88881E-03
            1432     16.2277E-03     57.3792E-03    -4.41774E+06     124.758E+06     82.9669E+06     4.16268E+03    -51.6321E-03     104.232E-03    -52.6002E-03     38.3330E-03    -52.5090E-03     105.296E-03    -52.3598E-03     37.6803E-03
            1433     15.3732E-03     57.3135E-03    -9.03338E+06     123.951E+06     74.4864E+06     17.8642E+03    -52.1055E-03     104.697E-03    -52.5911E-03     72.9507E-03    -53.3641E-03     106.147E-03    -52.3853E-03     72.0659E-03
            1434     14.5187E-03     57.2344E-03    -13.2513E+06     116.930E+06     51.5336E+06     32.6654E+03    -52.9109E-03     105.430E-03    -52.5196E-03     90.9004E-03    -54.2354E-03     106.974E-03    -52.4123E-03     89.8823E-03
            1435     13.6643E-03     57.1328E-03    -16.3482E+06     79.5383E+06     22.0935E+06     44.7200E+03    -53.5624E-03     106.019E-03    -52.4563E-03     99.5564E-03    -54.7741E-03     107.391E-03    -52.4374E-03     98.4663E-03
            1436     12.8101E-03     57.0364E-03    -18.3697E+06     20.2724E+06     6.62486E+06     54.2121E+03    -53.7876E-03     106.275E-03    -52.4876E-03     95.3618E-03    -54.6899E-03     107.165E-03    -52.4573E-03     94.3327E-03
            1437     11.9559E-03     56.9431E-03    -20.0785E+06    -20.6794E+06     4.90798E+06     60.3896E+03    -53.9636E-03     106.520E-03    -52.5559E-03     92.5459E-03    -54.6254E-03     107.022E-03    -52.4723E-03     91.6327E-03
            1438     11.1018E-03     56.8521E-03    -21.9401E+06    -46.9540E+06     3.68648E+06     62.6494E+03    -54.0521E-03     106.655E-03    -52.6033E-03     89.9617E-03    -54.5474E-03     106.895E-03    -52.4850E-03     89.1621E-03
            1439     10.2477E-03     56.7639E-03    -24.0599E+06    -64.7073E+06     3.55822E+06     61.5075E+03    -54.0370E-03     106.680E-03    -52.6432E-03     86.5173E-03    -54.4121E-03     106.730E-03    -52.4967E-03     85.8249E-03
            1440     9.39358E-03     56.6796E-03    -26.4883E+06    -79.3188E+06     1.91445E+06     59.2655E+03    -53.9515E-03     106.623E-03    -52.6713E-03     82.0544E-03    -54.2324E-03     106.523E-03    -52.5083E-03     81.4612E-03
            1441     8.53952E-03     56.6001E-03    -29.2505E+06    -92.9589E+06     350.283E+03     55.7007E+03    -53.8219E-03     106.521E-03    -52.6989E-03     76.8700E-03    -54.0293E-03     106.293E-03    -52.5200E-03     76.3675E-03
            1442     7.68547E-03     56.5261E-03    -32.4170E+06    -103.408E+06    -1.86062E+06     44.3561E+03    -53.6581E-03     106.378E-03    -52.7199E-03     71.1093E-03    -53.8118E-03     106.055E-03    -52.5323E-03     70.6885E-03
            1443     6.83144E-03     56.4581E-03    -36.0056E+06    -114.240E+06    -5.58568E+06     29.5197E+03    -53.4854E-03     106.221E-03    -52.7355E-03     64.7929E-03    -53.5960E-03     105.814E-03    -52.5455E-03     64.4449E-03
            1444     5.97742E-03     56.3966E-03    -40.0055E+06    -125.064E+06    -10.5519E+06     6.84507E+03    -53.3112E-03     106.057E-03    -52.7463E-03     57.9686E-03    -53.3880E-03     105.579E-03    -52.5597E-03     57.6851E-03
            1445     5.12343E-03     56.3422E-03    -44.3433E+06    -135.648E+06    -17.4636E+06    -25.9112E+03    -53.1469E-03     105.895E-03    -52.7482E-03     50.6919E-03    -53.1965E-03     105.356E-03    -52.5746E-03     50.4651E-03
            1446     4.26946E-03     56.2953E-03    -48.9168E+06    -147.914E+06    -25.5326E+06    -56.6958E+03    -53.0055E-03     105.753E-03    -52.7473E-03     43.0028E-03    -53.0309E-03     105.153E-03    -52.5895E-03     42.8254E-03
            1447     3.41552E-03     56.2562E-03    -53.5554E+06    -157.604E+06    -35.0540E+06    -100.417E+03    -52.8819E-03     105.617E-03    -52.7349E-03     34.9711E-03    -52.8898E-03     104.977E-03    -52.6040E-03     34.8368E-03
            1448     2.56160E-03     56.2253E-03    -57.8872E+06    -165.383E+06    -45.5718E+06    -88.0307E+03    -52.7860E-03     105.499E-03    -52.7134E-03     26.6500E-03    -52.7801E-03     104.833E-03    -52.6176E-03     26.5538E-03
            1449     1.70771E-03     56.2029E-03    -61.5563E+06    -172.377E+06    -54.9820E+06    -100.443E+03    -52.7246E-03     105.417E-03    -52.6925E-03     18.1430E-03    -52.7075E-03     104.729E-03    -52.6282E-03     18.0801E-03
            1450     853.854E-06     56.1890E-03    -64.1209E+06    -174.602E+06    -62.0511E+06    -329.995E+03    -52.7068E-03     105.353E-03    -52.6464E-03     9.91740E-03    -52.6858E-03     104.665E-03    -52.6106E-03     9.88044E-03
            1451     16.2277E-03     56.3262E-03    -4.41569E+06     124.749E+06     82.9567E+06         829.848    -51.6358E-03     104.236E-03    -52.5999E-03     38.3311E-03    -52.5126E-03     105.299E-03    -52.3596E-03     37.6781E-03
            1452     15.3732E-03     56.2606E-03    -9.03252E+06     123.933E+06     74.4707E+06     9.14769E+03    -52.1088E-03     104.699E-03    -52.5906E-03     72.9460E-03    -53.3672E-03     106.150E-03    -52.3849E-03     72.0609E-03
            1453     14.5187E-03     56.1814E-03    -13.2516E+06     116.916E+06     51.5189E+06     20.5711E+03    -52.9140E-03     105.433E-03    -52.5189E-03     90.8934E-03    -54.2384E-03     106.976E-03    -52.4116E-03     89.8751E-03
            1454     13.6643E-03     56.0799E-03    -16.3484E+06     79.5288E+06     22.0792E+06     29.8511E+03    -53.5652E-03     106.021E-03    -52.4553E-03     99.5490E-03    -54.7768E-03     107.392E-03    -52.4366E-03     98.4587E-03
            1455     12.8101E-03     55.9834E-03    -18.3697E+06     20.2664E+06     6.60887E+06     36.2387E+03    -53.7903E-03     106.277E-03    -52.4864E-03     95.3542E-03    -54.6924E-03     107.166E-03    -52.4561E-03     94.3248E-03
            1456     11.9559E-03     55.8902E-03    -20.0813E+06    -20.6815E+06     4.89230E+06      40.554E+03    -53.9660E-03     106.520E-03    -52.5545E-03     92.5375E-03    -54.6277E-03     107.023E-03    -52.4709E-03     91.6240E-03
            1457     11.1018E-03     55.7992E-03    -21.9436E+06    -46.9516E+06     3.67118E+06     42.6985E+03    -54.0541E-03     106.656E-03    -52.6015E-03     89.9525E-03    -54.5494E-03     106.896E-03    -52.4833E-03     89.1526E-03
            1458     10.2477E-03     55.7110E-03    -24.0663E+06    -64.7027E+06     3.54139E+06     43.5520E+03    -54.0386E-03     106.680E-03    -52.6411E-03     86.5069E-03    -54.4137E-03     106.729E-03    -52.4947E-03     85.8142E-03
            1459     9.39360E-03     55.6267E-03    -26.4962E+06    -79.3147E+06     1.89708E+06     45.2533E+03    -53.9524E-03     106.621E-03    -52.6688E-03     82.0424E-03    -54.2333E-03     106.521E-03    -52.5059E-03     81.4491E-03
            1460     8.53954E-03     55.5472E-03    -29.2539E+06    -92.9445E+06     335.218E+03     41.7538E+03    -53.8222E-03     106.518E-03    -52.6961E-03     76.8573E-03    -54.0295E-03     106.291E-03    -52.5172E-03     76.3548E-03
            1461     7.68549E-03     55.4732E-03    -32.4211E+06    -103.387E+06    -1.87490E+06     31.5758E+03    -53.6578E-03     106.375E-03    -52.7167E-03     71.0968E-03    -53.8115E-03     106.052E-03    -52.5292E-03     70.6759E-03
            1462     6.83146E-03     55.4052E-03    -36.0126E+06    -114.222E+06    -5.60002E+06     20.2949E+03    -53.4845E-03     106.216E-03    -52.7319E-03     64.7806E-03    -53.5951E-03     105.810E-03    -52.5420E-03     64.4326E-03
            1463     5.97745E-03     55.3438E-03    -40.0133E+06    -125.029E+06    -10.5643E+06     3.54105E+03    -53.3095E-03     106.052E-03    -52.7423E-03     57.9569E-03    -53.3864E-03     105.573E-03    -52.5558E-03     57.6734E-03
            1464     5.12345E-03     55.2893E-03    -44.3705E+06    -135.618E+06    -17.4471E+06    -20.1674E+03    -53.1444E-03     105.889E-03    -52.7441E-03     50.6812E-03    -53.1943E-03     105.350E-03    -52.5703E-03     50.4544E-03
            1465     4.26948E-03     55.2424E-03    -48.9974E+06    -147.903E+06    -25.4854E+06    -34.1895E+03    -53.0025E-03     105.745E-03    -52.7429E-03     42.9932E-03    -53.0284E-03     105.146E-03    -52.5849E-03     42.8161E-03
            1466     3.41553E-03     55.2033E-03    -53.7620E+06    -157.560E+06    -34.9923E+06    -66.8994E+03    -52.8785E-03     105.609E-03    -52.7301E-03     34.9631E-03    -52.8876E-03     104.969E-03    -52.5987E-03     34.8292E-03
            1467     2.56162E-03     55.1724E-03    -58.3019E+06    -165.506E+06    -45.6533E+06    -80.2530E+03    -52.7818E-03     105.489E-03    -52.7074E-03     26.6437E-03    -52.7777E-03     104.823E-03    -52.6111E-03     26.5476E-03
            1468     1.70773E-03     55.1500E-03    -62.0165E+06    -172.200E+06    -55.7141E+06    -134.048E+03    -52.7160E-03     105.398E-03    -52.6821E-03     18.1385E-03    -52.7003E-03     104.713E-03    -52.6211E-03     18.0752E-03
            1469     853.856E-06     55.1361E-03    -64.3933E+06    -175.062E+06    -62.9652E+06    -324.876E+03    -52.6993E-03     105.336E-03    -52.6368E-03     9.91477E-03    -52.6776E-03     104.647E-03    -52.6044E-03     9.87788E-03
            1470     16.2277E-03     55.2733E-03    -4.41533E+06     124.744E+06     82.9490E+06    -2.64934E+03    -51.6413E-03     104.241E-03    -52.5995E-03     38.3275E-03    -52.5180E-03     105.304E-03    -52.3593E-03     37.6745E-03
            1471     15.3732E-03     55.2076E-03    -9.03117E+06     123.920E+06     74.4599E+06     2.57256E+03    -52.1128E-03     104.703E-03    -52.5899E-03     72.9407E-03    -53.3711E-03     106.153E-03    -52.3842E-03     72.0555E-03
            1472     14.5188E-03     55.1285E-03    -13.2504E+06     116.905E+06     51.5083E+06     10.2406E+03    -52.9174E-03     105.435E-03    -52.5180E-03     90.8855E-03    -54.2417E-03     106.978E-03    -52.4107E-03     89.8670E-03
            1473     13.6643E-03     55.0269E-03    -16.3476E+06     79.5221E+06     22.0688E+06     15.7631E+03    -53.5685E-03     106.023E-03    -52.4541E-03     99.5402E-03    -54.7800E-03     107.394E-03    -52.4353E-03     98.4497E-03
            1474     12.8101E-03     54.9305E-03    -18.3699E+06     20.2614E+06     6.59773E+06     20.9100E+03    -53.7934E-03     106.278E-03    -52.4848E-03     95.3447E-03    -54.6955E-03     107.168E-03    -52.4546E-03     94.3151E-03
            1475     11.9559E-03     54.8373E-03    -20.0823E+06    -20.6836E+06     4.88088E+06     24.8206E+03    -53.9688E-03     106.521E-03    -52.5525E-03     92.5270E-03    -54.6304E-03     107.024E-03    -52.4690E-03     91.6133E-03
            1476     11.1018E-03     54.7463E-03    -21.9490E+06    -46.9512E+06     3.65930E+06     26.9367E+03    -54.0565E-03     106.656E-03    -52.5992E-03     89.9411E-03    -54.5517E-03     106.896E-03    -52.4810E-03     89.1410E-03
            1477     10.2477E-03     54.6581E-03    -24.0744E+06    -64.7032E+06     3.52819E+06     29.5551E+03    -54.0403E-03     106.679E-03    -52.6383E-03     86.4941E-03    -54.4153E-03     106.728E-03    -52.4920E-03     85.8013E-03
            1478     9.39363E-03     54.5738E-03    -26.5040E+06    -79.3115E+06     1.88454E+06     30.0301E+03    -53.9532E-03     106.619E-03    -52.6656E-03     82.0280E-03    -54.2341E-03     106.519E-03    -52.5028E-03     81.4346E-03
            1479     8.53957E-03     54.4943E-03    -29.2637E+06    -92.9335E+06     324.111E+03     27.0732E+03    -53.8221E-03     106.515E-03    -52.6925E-03     76.8424E-03    -54.0295E-03     106.287E-03    -52.5137E-03     76.3397E-03
            1480     7.68552E-03     54.4203E-03    -32.4332E+06    -103.375E+06    -1.88596E+06     23.8445E+03    -53.6571E-03     106.370E-03    -52.7127E-03     71.0821E-03    -53.8108E-03     106.047E-03    -52.5252E-03     70.6611E-03
            1481     6.83149E-03     54.3523E-03    -36.0304E+06    -114.204E+06    -5.60942E+06     15.7602E+03    -53.4830E-03     106.210E-03    -52.7275E-03     64.7665E-03    -53.5937E-03     105.804E-03    -52.5377E-03     64.4185E-03
            1482     5.97748E-03     54.2909E-03    -40.0375E+06    -125.006E+06    -10.5711E+06         936.450    -53.3072E-03     106.045E-03    -52.7375E-03     57.9437E-03    -53.3843E-03     105.566E-03    -52.5510E-03     57.6602E-03
            1483     5.12348E-03     54.2365E-03    -44.3964E+06    -135.615E+06    -17.4439E+06     2.15627E+03    -53.1414E-03     105.880E-03    -52.7389E-03     50.6689E-03    -53.1913E-03     105.342E-03    -52.5651E-03     50.4425E-03
            1484     4.26950E-03     54.1895E-03    -49.0327E+06    -147.907E+06    -25.4521E+06     18.9306E+03    -52.9985E-03     105.736E-03    -52.7375E-03     42.9825E-03    -53.0246E-03     105.137E-03    -52.5792E-03     42.8062E-03
            1485     3.41555E-03     54.1505E-03    -53.8103E+06    -157.536E+06    -34.9224E+06     34.6122E+03    -52.8737E-03     105.598E-03    -52.7244E-03     34.9550E-03    -52.8832E-03     104.959E-03    -52.5926E-03     34.8224E-03
            1486     2.56164E-03     54.1196E-03    -58.3474E+06    -165.463E+06    -45.5717E+06    -27.1265E+03    -52.7761E-03     105.477E-03    -52.7012E-03     26.6391E-03    -52.7724E-03     104.811E-03    -52.6046E-03     26.5438E-03
            1487     1.70774E-03     54.0972E-03    -62.1406E+06    -172.197E+06    -55.7009E+06    -82.4593E+03    -52.7093E-03     105.385E-03    -52.6753E-03     18.1371E-03    -52.6943E-03     104.699E-03    -52.6140E-03     18.0744E-03
            1488     853.866E-06     54.0833E-03    -64.7445E+06    -175.306E+06    -63.1755E+06     87.6306E+03    -52.6913E-03     105.320E-03    -52.6289E-03     9.91415E-03    -52.6707E-03     104.631E-03    -52.5967E-03     9.88263E-03
            1489     16.2277E-03     54.2203E-03    -4.41626E+06     124.743E+06     82.9431E+06    -5.78235E+03    -51.6485E-03     104.248E-03    -52.5991E-03     38.3248E-03    -52.5252E-03     105.311E-03    -52.3588E-03     37.6715E-03
            1490     15.3732E-03     54.1547E-03    -9.03319E+06     123.911E+06     74.4512E+06    -4.36730E+03    -52.1187E-03     104.708E-03    -52.5891E-03     72.9356E-03    -53.3769E-03     106.158E-03    -52.3834E-03     72.0501E-03
            1491     14.5188E-03     54.0756E-03    -13.2510E+06     116.899E+06     51.5015E+06        -235.283    -52.9222E-03     105.439E-03    -52.5167E-03     90.8772E-03    -54.2464E-03     106.982E-03    -52.4095E-03     89.8585E-03
            1492     13.6644E-03     53.9740E-03    -16.3475E+06     79.5171E+06     22.0617E+06     3.33450E+03    -53.5728E-03     106.025E-03    -52.4524E-03     99.5302E-03    -54.7842E-03     107.397E-03    -52.4337E-03     98.4394E-03
            1493     12.8101E-03     53.8776E-03    -18.3708E+06     20.2561E+06     6.58948E+06     7.76210E+03    -53.7973E-03     106.280E-03    -52.4828E-03     95.3336E-03    -54.6993E-03     107.170E-03    -52.4526E-03     94.3038E-03
            1494     11.9560E-03     53.7844E-03    -20.0864E+06    -20.6877E+06     4.87155E+06     13.1536E+03    -53.9722E-03     106.522E-03    -52.5500E-03     92.5144E-03    -54.6337E-03     107.025E-03    -52.4665E-03     91.6006E-03
            1495     11.1018E-03     53.6934E-03    -21.9566E+06    -46.9521E+06     3.64998E+06     17.3812E+03    -54.0592E-03     106.655E-03    -52.5962E-03     89.9276E-03    -54.5543E-03     106.895E-03    -52.4780E-03     89.1274E-03
            1496     10.2477E-03     53.6051E-03    -24.0853E+06    -64.7021E+06     3.51790E+06     16.8969E+03    -54.0421E-03     106.677E-03    -52.6349E-03     86.4789E-03    -54.4171E-03     106.727E-03    -52.4886E-03     85.7860E-03
            1497     9.39366E-03     53.5209E-03    -26.5184E+06    -79.3101E+06     1.87257E+06     16.8114E+03    -53.9539E-03     106.616E-03    -52.6617E-03     82.0112E-03    -54.2347E-03     106.515E-03    -52.4989E-03     81.4176E-03
            1498     8.53961E-03     53.4414E-03    -29.2830E+06    -92.9280E+06     312.623E+03     17.3218E+03    -53.8217E-03     106.510E-03    -52.6881E-03     76.8253E-03    -54.0291E-03     106.282E-03    -52.5093E-03     76.3226E-03
            1499     7.68556E-03     53.3674E-03    -32.4572E+06    -103.372E+06    -1.89824E+06     16.5403E+03    -53.6556E-03     106.363E-03    -52.7078E-03     71.0652E-03    -53.8094E-03     106.041E-03    -52.5204E-03     70.6442E-03
            1500     6.83153E-03     53.2994E-03    -36.0584E+06    -114.194E+06    -5.61934E+06     18.3141E+03    -53.4805E-03     106.203E-03    -52.7221E-03     64.7503E-03    -53.5914E-03     105.796E-03    -52.5324E-03     64.4024E-03
            1501     5.97751E-03     53.2380E-03    -40.0852E+06    -124.987E+06    -10.5777E+06     14.6138E+03    -53.3040E-03     106.036E-03    -52.7317E-03     57.9287E-03    -53.3812E-03     105.558E-03    -52.5452E-03     57.6454E-03
            1502     5.12351E-03     53.1836E-03    -44.4594E+06    -135.628E+06    -17.4612E+06     10.5880E+03    -53.1374E-03     105.870E-03    -52.7327E-03     50.6551E-03    -53.1876E-03     105.332E-03    -52.5588E-03     50.4288E-03
            1503     4.26953E-03     53.1367E-03    -49.0757E+06    -147.957E+06    -25.4758E+06     51.9283E+03    -52.9935E-03     105.724E-03    -52.7308E-03     42.9701E-03    -53.0196E-03     105.125E-03    -52.5725E-03     42.7943E-03
            1504     3.41558E-03     53.0976E-03    -53.7753E+06    -157.471E+06    -35.0381E+06     60.1631E+03    -52.8669E-03     105.584E-03    -52.7168E-03     34.9448E-03    -52.8761E-03     104.945E-03    -52.5857E-03     34.8127E-03
            1505     2.56165E-03     53.0667E-03    -58.1302E+06    -165.276E+06    -45.6300E+06    -79.7022E+03    -52.7684E-03     105.462E-03    -52.6938E-03     26.6312E-03    -52.7638E-03     104.797E-03    -52.5980E-03     26.5352E-03
            1506     1.70775E-03     53.0443E-03    -61.7140E+06    -172.452E+06    -55.1190E+06    -113.462E+03    -52.7048E-03     105.377E-03    -52.6717E-03     18.1315E-03    -52.6881E-03     104.688E-03    -52.6078E-03     18.0684E-03
            1507     853.870E-06     53.0305E-03    -64.1215E+06    -175.277E+06    -62.1507E+06     114.269E+03    -52.6870E-03     105.313E-03    -52.6264E-03     9.91137E-03    -52.6648E-03     104.622E-03    -52.5900E-03     9.88021E-03
            1508     16.2277E-03     53.1674E-03    -4.41835E+06     124.748E+06     82.9418E+06    -6.44082E+03    -51.6570E-03     104.256E-03    -52.5985E-03     38.3197E-03    -52.5338E-03     105.319E-03    -52.3583E-03     37.6662E-03
            1509     15.3732E-03     53.1017E-03    -9.03521E+06     123.909E+06     74.4450E+06    -12.0907E+03    -52.1269E-03     104.715E-03    -52.5880E-03     72.9277E-03    -53.3851E-03     106.165E-03    -52.3824E-03     72.0419E-03
            1510     14.5188E-03     53.0226E-03    -13.2517E+06     116.893E+06     51.4941E+06    -12.7402E+03    -52.9289E-03     105.444E-03    -52.5152E-03     90.8669E-03    -54.2530E-03     106.987E-03    -52.4080E-03     89.8478E-03
            1511     13.6644E-03     52.9211E-03    -16.3483E+06     79.5108E+06     22.0556E+06    -6.96853E+03    -53.5783E-03     106.029E-03    -52.4504E-03     99.5190E-03    -54.7896E-03     107.400E-03    -52.4317E-03     98.4280E-03
            1512     12.8102E-03     52.8246E-03    -18.3754E+06     20.2513E+06     6.58251E+06    -1.16636E+03    -53.8021E-03     106.282E-03    -52.4802E-03     95.3213E-03    -54.7040E-03     107.172E-03    -52.4500E-03     94.2913E-03
            1513     11.9560E-03     52.7314E-03    -20.0933E+06    -20.6944E+06     4.86282E+06     4.03655E+03    -53.9762E-03     106.523E-03    -52.5469E-03     92.5005E-03    -54.6376E-03     107.026E-03    -52.4634E-03     91.5865E-03
            1514     11.1019E-03     52.6405E-03    -21.9622E+06    -46.9540E+06     3.64230E+06     8.24581E+03    -54.0623E-03     106.655E-03    -52.5925E-03     89.9124E-03    -54.5574E-03     106.895E-03    -52.4744E-03     89.1122E-03
            1515     10.2478E-03     52.5522E-03    -24.0928E+06    -64.7012E+06     3.51218E+06     11.1603E+03    -54.0441E-03     106.675E-03    -52.6306E-03     86.4614E-03    -54.4190E-03     106.724E-03    -52.4843E-03     85.7685E-03
            1516     9.39371E-03     52.4680E-03    -26.5340E+06    -79.3075E+06     1.86461E+06     10.6487E+03    -53.9545E-03     106.611E-03    -52.6569E-03     81.9919E-03    -54.2353E-03     106.511E-03    -52.4941E-03     81.3983E-03
            1517     8.53965E-03     52.3885E-03    -29.3037E+06    -92.9284E+06     303.243E+03     10.7588E+03    -53.8211E-03     106.504E-03    -52.6827E-03     76.8058E-03    -54.0285E-03     106.276E-03    -52.5039E-03     76.3030E-03
            1518     7.68561E-03     52.3146E-03    -32.4824E+06    -103.370E+06    -1.90426E+06     13.8612E+03    -53.6538E-03     106.356E-03    -52.7019E-03     71.0454E-03    -53.8077E-03     106.033E-03    -52.5145E-03     70.6244E-03
            1519     6.83157E-03     52.2466E-03    -36.0873E+06    -114.200E+06    -5.62669E+06     20.1272E+03    -53.4775E-03     106.193E-03    -52.7157E-03     64.7307E-03    -53.5884E-03     105.787E-03    -52.5259E-03     64.3829E-03
            1520     5.97755E-03     52.1851E-03    -40.1078E+06    -124.990E+06    -10.5808E+06     39.4186E+03    -53.2998E-03     106.025E-03    -52.7248E-03     57.9100E-03    -53.3771E-03     105.546E-03    -52.5383E-03     57.6272E-03
            1521     5.12354E-03     52.1307E-03    -44.5117E+06    -135.616E+06    -17.4312E+06     48.6977E+03    -53.1322E-03     105.858E-03    -52.7254E-03     50.6375E-03    -53.1827E-03     105.319E-03    -52.5514E-03     50.4118E-03
            1522     4.26956E-03     52.0838E-03    -49.1645E+06    -147.999E+06    -25.4950E+06     45.4239E+03    -52.9873E-03     105.710E-03    -52.7229E-03     42.9541E-03    -53.0138E-03     105.111E-03    -52.5645E-03     42.7782E-03
            1523     3.41561E-03     52.0448E-03    -53.7994E+06    -157.330E+06    -35.2071E+06    -19.3880E+03    -52.8591E-03     105.567E-03    -52.7074E-03     34.9308E-03    -52.8684E-03     104.928E-03    -52.5773E-03     34.7976E-03
            1524     2.56167E-03     52.0139E-03    -58.1326E+06    -165.145E+06    -45.8010E+06    -141.727E+03    -52.7601E-03     105.444E-03    -52.6842E-03     26.6190E-03    -52.7554E-03     104.780E-03    -52.5895E-03     26.5223E-03
            1525     1.70776E-03     51.9915E-03    -61.8967E+06    -172.726E+06    -55.3934E+06    -128.378E+03    -52.6962E-03     105.359E-03    -52.6623E-03     18.1222E-03    -52.6796E-03     104.670E-03    -52.5991E-03     18.0590E-03
            1526     853.878E-06     51.9776E-03    -64.5483E+06    -175.308E+06    -62.7098E+06    -61.1911E+03    -52.6768E-03     105.292E-03    -52.6156E-03     9.90566E-03    -52.6560E-03     104.602E-03    -52.5813E-03     9.87224E-03
            1527     16.2277E-03     52.1144E-03     -4.4143E+06     124.759E+06     82.9443E+06    -9.93817E+03    -51.6672E-03     104.265E-03    -52.5979E-03     38.3122E-03    -52.5439E-03     105.328E-03    -52.3577E-03     37.6584E-03
            1528     15.3733E-03     52.0488E-03    -9.02629E+06     123.913E+06     74.4482E+06    -20.0992E+03    -52.1363E-03     104.723E-03    -52.5868E-03     72.9161E-03    -53.3944E-03     106.173E-03    -52.3812E-03     72.0299E-03
            1529     14.5188E-03     51.9697E-03    -13.2469E+06     116.884E+06     51.4911E+06    -19.3120E+03    -52.9370E-03     105.450E-03    -52.5133E-03     90.8535E-03    -54.2609E-03     106.993E-03    -52.4061E-03     89.8342E-03
            1530     13.6644E-03     51.8681E-03    -16.3515E+06     79.5032E+06     22.0502E+06    -12.7056E+03    -53.5851E-03     106.033E-03    -52.4479E-03     99.5058E-03    -54.7963E-03     107.404E-03    -52.4293E-03     98.4146E-03
            1531     12.8102E-03     51.7717E-03    -18.3814E+06     20.2462E+06     6.57713E+06    -6.45657E+03    -53.8078E-03     106.285E-03    -52.4771E-03     95.3068E-03    -54.7096E-03     107.174E-03    -52.4470E-03     94.2767E-03
            1532     11.9560E-03     51.6785E-03    -20.1014E+06    -20.6974E+06     4.85703E+06    -3.64221E+03    -53.9809E-03     106.524E-03    -52.5432E-03     92.4845E-03    -54.6423E-03     107.027E-03    -52.4597E-03     91.5704E-03
            1533     11.1019E-03     51.5875E-03    -21.9745E+06    -46.9605E+06     3.63415E+06         476.377    -54.0660E-03     106.654E-03    -52.5881E-03     89.8950E-03    -54.5611E-03     106.894E-03    -52.4700E-03     89.0947E-03
            1534     10.2478E-03     51.4993E-03    -24.1070E+06    -64.7043E+06     3.50672E+06     6.64858E+03    -54.0464E-03     106.672E-03    -52.6256E-03     86.4413E-03    -54.4213E-03     106.721E-03    -52.4793E-03     85.7484E-03
            1535     9.39376E-03     51.4151E-03    -26.5457E+06    -79.3028E+06     1.86486E+06     8.11753E+03    -53.9554E-03     106.606E-03    -52.6511E-03     81.9697E-03    -54.2362E-03     106.506E-03    -52.4883E-03     81.3762E-03
            1536     8.53971E-03     51.3357E-03    -29.3181E+06    -92.9310E+06     302.422E+03     8.50275E+03    -53.8207E-03     106.497E-03    -52.6763E-03     76.7830E-03    -54.0281E-03     106.269E-03    -52.4975E-03     76.2803E-03
            1537     7.68566E-03     51.2617E-03    -32.5018E+06    -103.377E+06    -1.90660E+06     15.8815E+03    -53.6520E-03     106.347E-03    -52.6948E-03     71.0219E-03    -53.8059E-03     106.024E-03    -52.5073E-03     70.6011E-03
            1538     6.83162E-03     51.1937E-03    -36.1153E+06    -114.208E+06    -5.62785E+06     27.0970E+03    -53.4741E-03     106.182E-03    -52.7079E-03     64.7073E-03    -53.5851E-03     105.776E-03    -52.5181E-03     64.3597E-03
            1539     5.97760E-03     51.1323E-03    -40.1448E+06    -125.025E+06    -10.5873E+06     52.5516E+03    -53.2947E-03     106.011E-03    -52.7164E-03     57.8878E-03    -53.3721E-03     105.533E-03    -52.5298E-03     57.6053E-03
            1540     5.12359E-03     51.0779E-03    -44.5236E+06    -135.613E+06    -17.4435E+06     93.7013E+03    -53.1256E-03     105.842E-03    -52.7163E-03     50.6168E-03    -53.1760E-03     105.303E-03    -52.5423E-03     50.3918E-03
            1541     4.26960E-03     51.0310E-03    -49.1585E+06    -147.898E+06    -25.4457E+06     41.7380E+03    -52.9796E-03     105.693E-03    -52.7135E-03     42.9360E-03    -53.0063E-03     105.094E-03    -52.5550E-03     42.7602E-03
            1542     3.41564E-03     50.9920E-03    -53.8594E+06    -157.201E+06    -35.2286E+06    -84.5198E+03    -52.8507E-03     105.548E-03    -52.6972E-03     34.9162E-03    -52.8605E-03     104.911E-03    -52.5673E-03     34.7823E-03
            1543     2.56170E-03     50.9611E-03    -58.2609E+06    -165.197E+06    -46.0044E+06    -95.8489E+03    -52.7508E-03     105.424E-03    -52.6728E-03     26.6077E-03    -52.7464E-03     104.759E-03    -52.5788E-03     26.5116E-03
            1544     1.70778E-03     50.9387E-03    -61.9472E+06    -172.868E+06    -55.5375E+06    -36.2303E+03    -52.6860E-03     105.337E-03    -52.6507E-03     18.1143E-03    -52.6693E-03     104.647E-03    -52.5879E-03     18.0524E-03
            1545     853.888E-06     50.9248E-03    -64.4878E+06    -175.363E+06    -62.6795E+06     4.68680E+03    -52.6664E-03     105.270E-03    -52.6036E-03     9.90112E-03    -52.6452E-03     104.579E-03    -52.5693E-03     9.86858E-03
            1546     16.2277E-03     51.0615E-03    -4.40281E+06     124.771E+06     82.9550E+06    -18.5222E+03    -51.6792E-03     104.276E-03    -52.5972E-03     38.3077E-03    -52.5558E-03     105.340E-03    -52.3570E-03     37.6535E-03
            1547     15.3733E-03     50.9958E-03    -9.02332E+06     123.911E+06     74.4483E+06    -19.2985E+03    -52.1477E-03     104.733E-03    -52.5854E-03     72.9044E-03    -53.4056E-03     106.183E-03    -52.3797E-03     72.0180E-03
            1548     14.5189E-03     50.9167E-03    -13.2544E+06     116.880E+06     51.4892E+06    -17.4015E+03    -52.9468E-03     105.458E-03    -52.5112E-03     90.8375E-03    -54.2706E-03     107.000E-03    -52.4040E-03     89.8180E-03
            1549     13.6645E-03     50.8152E-03    -16.3607E+06     79.4978E+06     22.0469E+06    -16.2270E+03    -53.5933E-03     106.038E-03    -52.4451E-03     99.4894E-03    -54.8044E-03     107.410E-03    -52.4264E-03     98.3980E-03
            1550     12.8102E-03     50.7188E-03    -18.3906E+06     20.2414E+06     6.57395E+06    -12.1705E+03    -53.8146E-03     106.288E-03    -52.4735E-03     95.2894E-03    -54.7163E-03     107.177E-03    -52.4433E-03     94.2592E-03
            1551     11.9561E-03     50.6256E-03    -20.1125E+06    -20.7004E+06     4.85528E+06    -7.19706E+03    -53.9864E-03     106.525E-03    -52.5388E-03     92.4654E-03    -54.6478E-03     107.028E-03    -52.4553E-03     91.5512E-03
            1552     11.1020E-03     50.5346E-03    -21.9896E+06    -46.9666E+06     3.63055E+06    -3.02047E+03    -54.0702E-03     106.653E-03    -52.5830E-03     89.8742E-03    -54.5652E-03     106.893E-03    -52.4648E-03     89.0738E-03
            1553     10.2479E-03     50.4464E-03    -24.1226E+06    -64.7067E+06     3.50370E+06    -1.56898E+03    -54.0489E-03     106.668E-03    -52.6196E-03     86.4179E-03    -54.4238E-03     106.718E-03    -52.4733E-03     85.7250E-03
            1554     9.39383E-03     50.3622E-03    -26.5595E+06    -79.3044E+06     1.86473E+06     1.04650E+03    -53.9566E-03     106.601E-03    -52.6443E-03     81.9449E-03    -54.2374E-03     106.500E-03    -52.4815E-03     81.3514E-03
            1555     8.53977E-03     50.2828E-03    -29.3307E+06    -92.9384E+06     303.370E+03     9.63499E+03    -53.8207E-03     106.489E-03    -52.6686E-03     76.7574E-03    -54.0281E-03     106.262E-03    -52.4898E-03     76.2548E-03
            1556     7.68573E-03     50.2088E-03    -32.5186E+06    -103.389E+06    -1.90626E+06     22.0199E+03    -53.6504E-03     106.337E-03    -52.6863E-03     70.9949E-03    -53.8043E-03     106.014E-03    -52.4988E-03     70.5743E-03
            1557     6.83169E-03     50.1409E-03    -36.1407E+06    -114.228E+06    -5.62472E+06     45.5453E+03    -53.4705E-03     106.169E-03    -52.6986E-03     64.6799E-03    -53.5815E-03     105.763E-03    -52.5087E-03     64.3327E-03
            1558     5.97766E-03     50.0795E-03    -40.1868E+06    -125.052E+06    -10.5844E+06     74.8601E+03    -53.2889E-03     105.995E-03    -52.7063E-03     57.8615E-03    -53.3664E-03     105.517E-03    -52.5196E-03     57.5794E-03
            1559     5.12365E-03     50.0251E-03    -44.5873E+06    -135.649E+06    -17.5120E+06     113.748E+03    -53.1174E-03     105.823E-03    -52.7052E-03     50.5924E-03    -53.1681E-03     105.284E-03    -52.5315E-03     50.3678E-03
            1560     4.26965E-03     49.9782E-03    -49.2042E+06    -147.659E+06    -25.7473E+06     42.3954E+03    -52.9692E-03     105.670E-03    -52.7004E-03     42.9147E-03    -52.9960E-03     105.072E-03    -52.5437E-03     42.7390E-03
            1561     3.41568E-03     49.9392E-03    -53.8600E+06    -157.151E+06    -35.3727E+06    -93.6829E+03    -52.8400E-03     105.525E-03    -52.6847E-03     34.8991E-03    -52.8496E-03     104.888E-03    -52.5556E-03     34.7651E-03
            1562     2.56173E-03     49.9083E-03    -58.2427E+06    -165.366E+06    -45.8374E+06    -38.1048E+03    -52.7402E-03     105.402E-03    -52.6618E-03     26.5945E-03    -52.7357E-03     104.737E-03    -52.5668E-03     26.4992E-03
            1563     1.70780E-03     49.8859E-03    -61.9955E+06    -172.852E+06    -55.4327E+06       7.953E+03    -52.6741E-03     105.313E-03    -52.6387E-03     18.1052E-03    -52.6578E-03     104.624E-03    -52.5753E-03     18.0438E-03
            1564     853.900E-06     49.8721E-03    -64.5583E+06    -175.399E+06    -62.6620E+06    -44.1532E+03    -52.6532E-03     105.244E-03    -52.5909E-03     9.89649E-03    -52.6323E-03     104.553E-03    -52.5563E-03     9.86333E-03
            1565     16.2278E-03     50.0085E-03    -4.42690E+06     124.774E+06     82.9482E+06    -21.4060E+03    -51.6931E-03     104.290E-03    -52.5964E-03     38.2991E-03    -52.5698E-03     105.353E-03    -52.3562E-03     37.6445E-03
            1566     15.3733E-03     49.9429E-03    -9.04655E+06     123.901E+06     74.4361E+06    -18.6925E+03    -52.1614E-03     104.745E-03    -52.5837E-03     72.8874E-03    -53.4192E-03     106.195E-03    -52.3781E-03     72.0006E-03
            1567     14.5189E-03     49.8638E-03    -13.2677E+06     116.884E+06     51.4890E+06    -18.4396E+03    -52.9584E-03     105.467E-03    -52.5086E-03     90.8166E-03    -54.2821E-03     107.009E-03    -52.4014E-03     89.7968E-03
            1568     13.6645E-03     49.7622E-03    -16.3714E+06     79.4953E+06     22.0497E+06    -20.4674E+03    -53.6029E-03     106.045E-03    -52.4417E-03     99.4694E-03    -54.8139E-03     107.416E-03    -52.4229E-03     98.3779E-03
            1569     12.8103E-03     49.6658E-03    -18.4032E+06     20.2373E+06     6.57256E+06    -16.9305E+03    -53.8228E-03     106.292E-03    -52.4692E-03     95.2683E-03    -54.7244E-03     107.181E-03    -52.4390E-03     94.2380E-03
            1570     11.9561E-03     49.5727E-03    -20.1255E+06    -20.7077E+06     4.85278E+06    -11.0643E+03    -53.9931E-03     106.527E-03    -52.5336E-03     92.4421E-03    -54.6543E-03     107.029E-03    -52.4501E-03     91.5279E-03
            1571     11.1020E-03     49.4817E-03    -21.9980E+06    -46.9667E+06     3.63095E+06    -8.27800E+03    -54.0750E-03     106.652E-03    -52.5768E-03     89.8482E-03    -54.5699E-03     106.891E-03    -52.4587E-03     89.0478E-03
            1572     10.2480E-03     49.3935E-03    -24.1300E+06    -64.7075E+06     3.50369E+06    -8.95846E+03    -54.0518E-03     106.664E-03    -52.6125E-03     86.3887E-03    -54.4266E-03     106.714E-03    -52.4662E-03     85.6958E-03
            1573     9.39390E-03     49.3093E-03    -26.5734E+06    -79.3149E+06     1.86126E+06    -2.24857E+03    -53.9581E-03     106.594E-03    -52.6363E-03     81.9142E-03    -54.2388E-03     106.494E-03    -52.4735E-03     81.3208E-03
            1574     8.53985E-03     49.2299E-03    -29.3525E+06    -92.9527E+06     300.298E+03     11.3579E+03    -53.8209E-03     106.481E-03    -52.6596E-03     76.7253E-03    -54.0283E-03     106.253E-03    -52.4807E-03     76.2229E-03
            1575     7.68580E-03     49.1560E-03    -32.5434E+06    -103.407E+06    -1.90736E+06     30.6212E+03    -53.6488E-03     106.325E-03    -52.6762E-03     70.9614E-03    -53.8026E-03     106.002E-03    -52.4886E-03     70.5411E-03
            1576     6.83176E-03     49.0880E-03    -36.1613E+06    -114.260E+06    -5.62674E+06     59.5117E+03    -53.4665E-03     106.154E-03    -52.6874E-03     64.6463E-03    -53.5775E-03     105.747E-03    -52.4974E-03     64.2994E-03
            1577     5.97773E-03     49.0267E-03    -40.1996E+06    -125.084E+06    -10.5815E+06      106.02E+03    -53.2824E-03     105.976E-03    -52.6941E-03     57.8289E-03    -53.3599E-03     105.498E-03    -52.5073E-03     57.5473E-03
            1578     5.12371E-03     48.9723E-03    -44.5846E+06    -135.654E+06    -17.5341E+06     136.243E+03    -53.1085E-03     105.800E-03    -52.6920E-03     50.5617E-03    -53.1590E-03     105.262E-03    -52.5183E-03     50.3376E-03
            1579     4.26971E-03     48.9254E-03    -49.1631E+06    -147.392E+06    -25.9515E+06     41.0584E+03    -52.9574E-03     105.642E-03    -52.6851E-03     42.8874E-03    -52.9840E-03     105.047E-03    -52.5298E-03     42.7118E-03
            1580     3.41573E-03     48.8864E-03    -53.7880E+06    -157.139E+06    -35.4195E+06    -77.9207E+03    -52.8270E-03     105.497E-03    -52.6701E-03     34.8750E-03    -52.8362E-03     104.860E-03    -52.5414E-03     34.7413E-03
            1581     2.56177E-03     48.8556E-03    -58.1979E+06    -165.562E+06    -45.6151E+06    -23.5674E+03    -52.7266E-03     105.375E-03    -52.6486E-03     26.5748E-03    -52.7220E-03     104.708E-03    -52.5522E-03     26.4798E-03
            1582     1.70783E-03     48.8332E-03    -61.9445E+06    -172.752E+06    -55.3060E+06     34.8521E+03    -52.6594E-03     105.284E-03    -52.6242E-03     18.0914E-03    -52.6431E-03     104.595E-03    -52.5605E-03     18.0304E-03
            1583     853.913E-06     48.8193E-03    -64.5730E+06    -175.448E+06    -62.7031E+06    -58.2584E+03    -52.6375E-03     105.214E-03    -52.5766E-03     9.88877E-03    -52.6166E-03     104.523E-03    -52.5421E-03     9.85546E-03
            1584     16.2278E-03     48.9555E-03    -4.42735E+06     124.783E+06     82.9481E+06    -14.3884E+03    -51.7095E-03     104.305E-03    -52.5953E-03     38.2887E-03    -52.5861E-03     105.368E-03    -52.3551E-03     37.6338E-03
            1585     15.3733E-03     48.8899E-03    -9.04978E+06     123.895E+06     74.4355E+06    -23.2727E+03    -52.1765E-03     104.758E-03    -52.5817E-03     72.8672E-03    -53.4341E-03     106.208E-03    -52.3761E-03     71.9799E-03
            1586     14.5189E-03     48.8108E-03    -13.2729E+06     116.885E+06     51.4915E+06    -23.0882E+03    -52.9714E-03     105.477E-03    -52.5057E-03     90.7917E-03    -54.2949E-03     107.019E-03    -52.3985E-03     89.7717E-03
            1587     13.6646E-03     48.7093E-03    -16.3790E+06     79.4956E+06     22.0500E+06    -21.8808E+03    -53.6144E-03     106.052E-03    -52.4377E-03     99.4457E-03    -54.8252E-03     107.423E-03    -52.4189E-03     98.3540E-03
            1588     12.8104E-03     48.6129E-03    -18.4131E+06     20.2345E+06     6.56975E+06    -20.1751E+03    -53.8329E-03     106.297E-03    -52.4641E-03     95.2428E-03    -54.7344E-03     107.186E-03    -52.4339E-03     94.2123E-03
            1589     11.9562E-03     48.5197E-03    -20.1337E+06    -20.7121E+06     4.84898E+06    -18.7244E+03    -54.0016E-03     106.529E-03    -52.5274E-03     92.4133E-03    -54.6628E-03     107.031E-03    -52.4439E-03     91.4990E-03
            1590     11.1021E-03     48.4288E-03    -22.0057E+06    -46.9684E+06     3.62817E+06    -16.6285E+03    -54.0815E-03     106.651E-03    -52.5695E-03     89.8151E-03    -54.5763E-03     106.890E-03    -52.4513E-03     89.0147E-03
            1591     10.2481E-03     48.3406E-03    -24.1427E+06    -64.7130E+06     3.50156E+06    -10.0925E+03    -54.0562E-03     106.660E-03    -52.6040E-03     86.3515E-03    -54.4309E-03     106.709E-03    -52.4576E-03     85.6587E-03
            1592     9.39399E-03     48.2564E-03    -26.5929E+06    -79.3303E+06     1.85709E+06     1.43333E+03    -53.9606E-03     106.587E-03    -52.6265E-03     81.8745E-03    -54.2413E-03     106.486E-03    -52.4637E-03     81.2813E-03
            1593     8.53994E-03     48.1771E-03    -29.3747E+06    -92.9662E+06     297.388E+03     15.0213E+03    -53.8212E-03     106.470E-03    -52.6485E-03     76.6830E-03    -54.0286E-03     106.242E-03    -52.4696E-03     76.1808E-03
            1594     7.68590E-03     48.1031E-03    -32.5616E+06    -103.430E+06    -1.90891E+06     31.5580E+03    -53.6464E-03     106.310E-03    -52.6638E-03     70.9174E-03    -53.8002E-03     105.987E-03    -52.4762E-03     70.4973E-03
            1595     6.83186E-03     48.0352E-03    -36.1698E+06    -114.293E+06    -5.62862E+06     60.6940E+03    -53.4615E-03     106.135E-03    -52.6738E-03     64.6028E-03    -53.5724E-03     105.728E-03    -52.4837E-03     64.2561E-03
            1596     5.97782E-03     47.9739E-03    -40.1876E+06    -125.146E+06    -10.5875E+06     115.681E+03    -53.2749E-03     105.954E-03    -52.6792E-03     57.7871E-03    -53.3522E-03     105.475E-03    -52.4924E-03     57.5058E-03
            1597     5.12380E-03     47.9195E-03    -44.5237E+06    -135.578E+06    -17.5888E+06     118.866E+03    -53.0982E-03     105.774E-03    -52.6754E-03     50.5229E-03    -53.1484E-03     105.235E-03    -52.5022E-03     50.2987E-03
            1598     4.26978E-03     47.8727E-03    -49.0574E+06    -147.197E+06    -25.8896E+06     34.6030E+03    -52.9446E-03     105.612E-03    -52.6678E-03     42.8526E-03    -52.9710E-03     105.017E-03    -52.5127E-03     42.6771E-03
            1599     3.41579E-03     47.8337E-03    -53.7062E+06    -157.146E+06    -35.2130E+06    -17.1728E+03    -52.8122E-03     105.465E-03    -52.6529E-03     34.8445E-03    -52.8212E-03     104.828E-03    -52.5232E-03     34.7117E-03
            1600     2.56182E-03     47.8029E-03    -58.1581E+06    -165.662E+06    -45.5717E+06    -11.5249E+03    -52.7093E-03     105.339E-03    -52.6300E-03     26.5501E-03    -52.7043E-03     104.672E-03    -52.5333E-03     26.4553E-03
            1601     1.70786E-03     47.7805E-03    -61.8393E+06    -172.668E+06    -55.3858E+06    -34.8124E+03    -52.6402E-03     105.245E-03    -52.6045E-03     18.0738E-03    -52.6235E-03     104.556E-03    -52.5414E-03     18.0120E-03
            1602     853.926E-06     47.7666E-03    -64.2421E+06    -175.533E+06    -62.4582E+06    -71.1892E+03    -52.6195E-03     105.178E-03    -52.5588E-03     9.87826E-03    -52.5971E-03     104.486E-03    -52.5235E-03     9.84481E-03
            1603     16.2278E-03     47.9025E-03    -4.41602E+06     124.798E+06     82.9621E+06    -8.81652E+03    -51.7289E-03     104.323E-03    -52.5942E-03     38.2812E-03    -52.6054E-03     105.386E-03    -52.3540E-03     37.6258E-03
            1604     15.3734E-03     47.8369E-03    -9.04089E+06     123.901E+06     74.4414E+06    -19.2000E+03    -52.1945E-03     104.774E-03    -52.5795E-03     72.8459E-03    -53.4518E-03     106.223E-03    -52.3738E-03     71.9582E-03
            1605     14.5190E-03     47.7578E-03    -13.2710E+06     116.882E+06     51.4943E+06    -23.2174E+03    -52.9874E-03     105.490E-03    -52.5022E-03     90.7627E-03    -54.3106E-03     107.031E-03    -52.3950E-03     89.7423E-03
            1606     13.6646E-03     47.6563E-03    -16.3794E+06     79.4964E+06     22.0530E+06    -20.4077E+03    -53.6287E-03     106.062E-03    -52.4330E-03     99.4163E-03    -54.8393E-03     107.432E-03    -52.4142E-03     98.3243E-03
            1607     12.8104E-03     47.5599E-03    -18.4146E+06     20.2381E+06     6.57163E+06    -20.9564E+03    -53.8459E-03     106.304E-03    -52.4581E-03     95.2106E-03    -54.7472E-03     107.193E-03    -52.4279E-03     94.1799E-03
            1608     11.9563E-03     47.4668E-03    -20.1407E+06    -20.7116E+06     4.84820E+06    -23.6402E+03    -54.0128E-03     106.533E-03    -52.5200E-03     92.3765E-03    -54.6738E-03     107.035E-03    -52.4365E-03     91.4621E-03
            1609     11.1022E-03     47.3759E-03    -22.0211E+06    -46.9758E+06     3.62391E+06    -19.7781E+03    -54.0903E-03     106.651E-03    -52.5606E-03     89.7733E-03    -54.5849E-03     106.890E-03    -52.4424E-03     88.9729E-03
            1610     10.2482E-03     47.2877E-03    -24.1628E+06    -64.7269E+06     3.49709E+06    -8.24112E+03    -54.0629E-03     106.656E-03    -52.5935E-03     86.3056E-03    -54.4375E-03     106.705E-03    -52.4472E-03     85.6129E-03
            1611     9.39410E-03     47.2036E-03    -26.6099E+06    -79.3420E+06     1.85513E+06     3.14801E+03    -53.9651E-03     106.580E-03    -52.6144E-03     81.8253E-03    -54.2457E-03     106.479E-03    -52.4515E-03     81.2323E-03
            1612     8.54006E-03     47.1242E-03    -29.3852E+06    -92.9796E+06     296.707E+03     13.6206E+03    -53.8223E-03     106.457E-03    -52.6347E-03     76.6295E-03    -54.0295E-03     106.229E-03    -52.4558E-03     76.1275E-03
            1613     7.68602E-03     47.0503E-03    -32.5722E+06    -103.450E+06    -1.90826E+06     30.8177E+03    -53.6436E-03     106.292E-03    -52.6484E-03     70.8613E-03    -53.7973E-03     105.968E-03    -52.4607E-03     70.4414E-03
            1614     6.83197E-03     46.9824E-03    -36.1863E+06    -114.325E+06    -5.62881E+06     55.5668E+03    -53.4553E-03     106.112E-03    -52.6567E-03     64.5469E-03    -53.5661E-03     105.705E-03    -52.4666E-03     64.2004E-03
            1615     5.97793E-03     46.9211E-03    -40.1872E+06    -125.190E+06    -10.5855E+06     82.5987E+03    -53.2655E-03     105.926E-03    -52.6605E-03     57.7332E-03    -53.3426E-03     105.447E-03    -52.4737E-03     57.4518E-03
            1616     5.12390E-03     46.8668E-03    -44.5040E+06    -135.488E+06    -17.6112E+06     76.3607E+03    -53.0855E-03     105.740E-03    -52.6549E-03     50.4729E-03    -53.1356E-03     105.203E-03    -52.4820E-03     50.2484E-03
            1617     4.26988E-03     46.8200E-03    -49.0540E+06    -147.115E+06    -25.9343E+06     42.1640E+03    -52.9287E-03     105.574E-03    -52.6458E-03     42.8083E-03    -52.9551E-03     104.980E-03    -52.4910E-03     42.6330E-03
            1618     3.41587E-03     46.7810E-03    -53.7043E+06    -157.151E+06    -35.2552E+06     41.9169E+03    -52.7934E-03     105.423E-03    -52.6298E-03     34.8068E-03    -52.8023E-03     104.786E-03    -52.5003E-03     34.6750E-03
            1619     2.56188E-03     46.7502E-03    -58.1239E+06    -165.604E+06    -45.5695E+06     4.97096E+03    -52.6880E-03     105.294E-03    -52.6058E-03     26.5208E-03    -52.6829E-03     104.627E-03    -52.5093E-03     26.4264E-03
            1620     1.70790E-03     46.7278E-03    -61.8466E+06    -172.637E+06    -55.3865E+06    -66.3702E+03    -52.6167E-03     105.196E-03    -52.5795E-03     18.0534E-03    -52.6000E-03     104.508E-03    -52.5164E-03     17.9912E-03
            1621     853.950E-06     46.7140E-03    -64.4117E+06    -175.689E+06    -62.6577E+06    -82.5908E+03    -52.5939E-03     105.127E-03    -52.5328E-03     9.86662E-03    -52.5719E-03     104.434E-03    -52.4979E-03     9.83308E-03
            1622     16.2278E-03     46.8494E-03    -4.42215E+06     124.808E+06     82.9657E+06    -7.73973E+03    -51.7518E-03     104.345E-03    -52.5929E-03     38.2670E-03    -52.6282E-03     105.408E-03    -52.3527E-03     37.6111E-03
            1623     15.3734E-03     46.7838E-03    -9.04271E+06     123.910E+06     74.4436E+06    -14.1449E+03    -52.2163E-03     104.793E-03    -52.5768E-03     72.8163E-03    -53.4734E-03     106.242E-03    -52.3712E-03     71.9280E-03
            1624     14.5190E-03     46.7048E-03    -13.2716E+06     116.882E+06     51.4965E+06    -18.6847E+03    -53.0073E-03     105.505E-03    -52.4981E-03     90.7255E-03    -54.3301E-03     107.047E-03    -52.3909E-03     89.7047E-03
            1625     13.6647E-03     46.6033E-03    -16.3818E+06     79.4984E+06     22.0575E+06    -20.0467E+03    -53.6468E-03     106.074E-03    -52.4273E-03     99.3790E-03    -54.8571E-03     107.445E-03    -52.4086E-03     98.2867E-03
            1626     12.8105E-03     46.5070E-03    -18.4175E+06     20.2442E+06     6.57542E+06    -19.5162E+03    -53.8623E-03     106.313E-03    -52.4508E-03     95.1694E-03    -54.7634E-03     107.202E-03    -52.4206E-03     94.1386E-03
            1627     11.9564E-03     46.4139E-03    -20.1483E+06    -20.7090E+06     4.85130E+06    -19.2540E+03    -54.0269E-03     106.538E-03    -52.5109E-03     92.3292E-03    -54.6877E-03     107.040E-03    -52.4274E-03     91.4148E-03
            1628     11.1023E-03     46.3230E-03    -22.0349E+06    -46.9834E+06     3.62229E+06    -16.1054E+03    -54.1020E-03     106.652E-03    -52.5497E-03     89.7202E-03    -54.5965E-03     106.891E-03    -52.4315E-03     88.9200E-03
            1629     10.2483E-03     46.2348E-03    -24.1765E+06    -64.7397E+06     3.49377E+06    -9.11714E+03    -54.0724E-03     106.653E-03    -52.5806E-03     86.2480E-03    -54.4468E-03     106.702E-03    -52.4342E-03     85.5555E-03
            1630     9.39424E-03     46.1507E-03    -26.6205E+06    -79.3506E+06     1.85344E+06    -1.20026E+03    -53.9717E-03     106.571E-03    -52.5994E-03     81.7629E-03    -54.2521E-03     106.470E-03    -52.4364E-03     81.1700E-03
            1631     8.54020E-03     46.0714E-03    -29.3979E+06    -92.9941E+06     294.719E+03     10.8699E+03    -53.8247E-03     106.442E-03    -52.6174E-03     76.5613E-03    -54.0317E-03     106.214E-03    -52.4385E-03     76.0596E-03
            1632     7.68617E-03     45.9975E-03    -32.5893E+06    -103.476E+06    -1.91131E+06     33.3444E+03    -53.6413E-03     106.270E-03    -52.6289E-03     70.7902E-03    -53.7949E-03     105.946E-03    -52.4411E-03     70.3706E-03
            1633     6.83212E-03     45.9297E-03    -36.2074E+06    -114.338E+06    -5.62551E+06     53.8327E+03    -53.4483E-03     106.083E-03    -52.6350E-03     64.4756E-03    -53.5590E-03     105.676E-03    -52.4449E-03     64.1293E-03
            1634     5.97807E-03     45.8684E-03    -40.2496E+06    -125.199E+06    -10.5857E+06     64.2989E+03    -53.2537E-03     105.891E-03    -52.6368E-03     57.6635E-03    -53.3310E-03     105.411E-03    -52.4498E-03     57.3821E-03
            1635     5.12403E-03     45.8141E-03    -44.6248E+06    -135.430E+06    -17.7498E+06     56.5992E+03    -53.0688E-03     105.697E-03    -52.6285E-03     50.4077E-03    -53.1193E-03     105.160E-03    -52.4561E-03     50.1831E-03
            1636     4.26999E-03     45.7673E-03    -49.1752E+06    -147.117E+06    -26.1275E+06     58.8347E+03    -52.9078E-03     105.525E-03    -52.6174E-03     42.7500E-03    -52.9345E-03     104.931E-03    -52.4634E-03     42.5752E-03
            1637     3.41597E-03     45.7283E-03    -53.7842E+06    -157.115E+06    -35.4335E+06     62.4540E+03    -52.7687E-03     105.368E-03    -52.5998E-03     34.7575E-03    -52.7778E-03     104.732E-03    -52.4711E-03     34.6261E-03
            1638     2.56195E-03     45.6976E-03    -58.1512E+06    -165.481E+06    -45.7036E+06    -3.61304E+03    -52.6603E-03     105.235E-03    -52.5746E-03     26.4824E-03    -52.6553E-03     104.568E-03    -52.4788E-03     26.3880E-03
            1639     1.70796E-03     45.6752E-03    -61.8211E+06    -172.639E+06    -55.3501E+06    -66.8297E+03    -52.5870E-03     105.135E-03    -52.5481E-03     18.0267E-03    -52.5702E-03     104.447E-03    -52.4849E-03     17.9647E-03
            1640     853.977E-06     45.6614E-03    -64.2776E+06    -175.841E+06    -62.4894E+06    -41.5907E+03    -52.5627E-03     105.064E-03    -52.5015E-03     9.85204E-03    -52.5400E-03     104.370E-03    -52.4657E-03     9.81909E-03
            1641     16.2278E-03     45.7964E-03    -4.41753E+06     124.815E+06     82.9705E+06    -6.66185E+03    -51.7788E-03     104.370E-03    -52.5914E-03     38.2519E-03    -52.6550E-03     105.433E-03    -52.3511E-03     37.5954E-03
            1642     15.3735E-03     45.7308E-03    -9.04185E+06     123.913E+06     74.4485E+06    -9.81823E+03    -52.2427E-03     104.816E-03    -52.5737E-03     72.7829E-03    -53.4994E-03     106.265E-03    -52.3680E-03     71.8940E-03
            1643     14.5191E-03     45.6518E-03    -13.2735E+06     116.886E+06     51.5040E+06    -11.9379E+03    -53.0322E-03     105.525E-03    -52.4932E-03     90.6815E-03    -54.3546E-03     107.066E-03    -52.3859E-03     89.6603E-03
            1644     13.6648E-03     45.5504E-03    -16.3873E+06     79.5073E+06     22.0638E+06    -16.4284E+03    -53.6700E-03     106.090E-03    -52.4205E-03     99.3327E-03    -54.8800E-03     107.461E-03    -52.4017E-03     98.2401E-03
            1645     12.8106E-03     45.4540E-03    -18.4258E+06     20.2492E+06     6.57753E+06    -19.2947E+03    -53.8832E-03     106.325E-03    -52.4419E-03     95.1176E-03    -54.7839E-03     107.213E-03    -52.4116E-03     94.0866E-03
            1646     11.9565E-03     45.3609E-03    -20.1520E+06    -20.7108E+06     4.85419E+06    -15.2815E+03    -54.0452E-03     106.545E-03    -52.4997E-03     92.2695E-03    -54.7057E-03     107.046E-03    -52.4162E-03     91.3550E-03
            1647     11.1025E-03     45.2700E-03    -22.0340E+06    -46.9863E+06     3.62620E+06    -9.31694E+03    -54.1179E-03     106.654E-03    -52.5361E-03     89.6533E-03    -54.6120E-03     106.893E-03    -52.4179E-03     88.8531E-03
            1648     10.2485E-03     45.1819E-03    -24.1791E+06    -64.7439E+06     3.49523E+06    -7.02841E+03    -54.0854E-03     106.650E-03    -52.5644E-03     86.1751E-03    -54.4595E-03     106.698E-03    -52.4180E-03     85.4827E-03
            1649     9.39442E-03     45.0978E-03    -26.6324E+06    -79.3594E+06     1.85106E+06    -1.25750E+03    -53.9805E-03     106.561E-03    -52.5804E-03     81.6831E-03    -54.2606E-03     106.459E-03    -52.4175E-03     81.0904E-03
            1650     8.54039E-03     45.0186E-03    -29.4185E+06    -93.0123E+06     289.499E+03     14.1211E+03    -53.8284E-03     106.424E-03    -52.5957E-03     76.4753E-03    -54.0352E-03     106.195E-03    -52.4167E-03     75.9738E-03
            1651     7.68635E-03     44.9447E-03    -32.6098E+06    -103.495E+06    -1.91420E+06     30.1060E+03    -53.6398E-03     106.244E-03    -52.6042E-03     70.7014E-03    -53.7931E-03     105.920E-03    -52.4164E-03     70.2822E-03
            1652     6.83231E-03     44.8769E-03    -36.2232E+06    -114.355E+06    -5.62487E+06     52.3034E+03    -53.4408E-03     106.048E-03    -52.6075E-03     64.3864E-03    -53.5514E-03     105.641E-03    -52.4172E-03     64.0405E-03
            1653     5.97826E-03     44.8157E-03    -40.2551E+06    -125.201E+06    -10.5731E+06     79.4431E+03    -53.2397E-03     105.846E-03    -52.6064E-03     57.5766E-03    -53.3169E-03     105.367E-03    -52.4194E-03     57.2958E-03
            1654     5.12420E-03     44.7614E-03    -44.6278E+06    -135.372E+06    -17.6886E+06     70.4462E+03    -53.0486E-03     105.644E-03    -52.5956E-03     50.3259E-03    -53.0992E-03     105.107E-03    -52.4231E-03     50.1019E-03
            1655     4.27014E-03     44.7147E-03    -49.2062E+06    -147.143E+06    -25.9975E+06      66.843E+03    -52.8820E-03     105.465E-03    -52.5826E-03     42.6761E-03    -52.9089E-03     104.870E-03    -52.4279E-03     42.5017E-03
            1656     3.41609E-03     44.6758E-03    -53.8250E+06    -157.033E+06    -35.3952E+06     61.5289E+03    -52.7373E-03     105.300E-03    -52.5623E-03     34.6942E-03    -52.7467E-03     104.663E-03    -52.4335E-03     34.5631E-03
            1657     2.56205E-03     44.6450E-03    -58.1760E+06    -165.361E+06    -45.8213E+06    -27.4882E+03    -52.6241E-03     105.159E-03    -52.5345E-03     26.4322E-03    -52.6192E-03     104.493E-03    -52.4395E-03     26.3377E-03
            1658     1.70802E-03     44.6227E-03    -61.8210E+06    -172.711E+06    -55.5001E+06    -76.3631E+03    -52.5478E-03     105.055E-03    -52.5072E-03     17.9913E-03    -52.5307E-03     104.366E-03    -52.4447E-03     17.9293E-03
            1659     854.010E-06     44.6088E-03    -64.3022E+06    -175.929E+06    -62.5745E+06    -54.6962E+03    -52.5218E-03     104.983E-03    -52.4610E-03     9.83230E-03    -52.4989E-03     104.289E-03    -52.4255E-03     9.79925E-03
            1660     16.2279E-03     44.7433E-03    -4.42250E+06     124.819E+06     82.9716E+06    -5.09740E+03    -51.8118E-03     104.401E-03    -52.5895E-03     38.2338E-03    -52.6879E-03     105.464E-03    -52.3492E-03     37.5765E-03
            1661     15.3735E-03     44.6777E-03    -9.04388E+06     123.912E+06     74.4506E+06    -5.07914E+03    -52.2753E-03     104.845E-03    -52.5698E-03     72.7430E-03    -53.5316E-03     106.293E-03    -52.3641E-03     71.8532E-03
            1662     14.5192E-03     44.5988E-03    -13.2719E+06     116.891E+06     51.5192E+06    -6.85171E+03    -53.0638E-03     105.551E-03    -52.4872E-03     90.6279E-03    -54.3857E-03     107.091E-03    -52.3799E-03     89.6060E-03
            1663     13.6649E-03     44.4973E-03    -16.3803E+06     79.5233E+06     22.0827E+06    -12.9620E+03    -53.6995E-03     106.112E-03    -52.4120E-03     99.2745E-03    -54.9090E-03     107.481E-03    -52.3932E-03     98.1814E-03
            1664     12.8108E-03     44.4010E-03    -18.4172E+06     20.2549E+06     6.58424E+06    -15.4408E+03    -53.9099E-03     106.341E-03    -52.4308E-03     95.0522E-03    -54.8102E-03     107.228E-03    -52.4005E-03     94.0209E-03
            1665     11.9567E-03     44.3080E-03    -20.1511E+06    -20.7169E+06     4.85240E+06    -8.95189E+03    -54.0690E-03     106.555E-03    -52.4858E-03     92.1948E-03    -54.7291E-03     107.056E-03    -52.4023E-03     91.2803E-03
            1666     11.1027E-03     44.2171E-03    -22.0399E+06    -46.9855E+06     3.62458E+06    -2.41815E+03    -54.1388E-03     106.658E-03    -52.5191E-03     89.5701E-03    -54.6325E-03     106.896E-03    -52.4008E-03     88.7701E-03
            1667     10.2487E-03     44.1291E-03    -24.1883E+06    -64.7445E+06     3.49461E+06     1.24466E+03    -54.1023E-03     106.646E-03    -52.5441E-03     86.0834E-03    -54.4761E-03     106.694E-03    -52.3977E-03     85.3913E-03
            1668     9.39464E-03     44.0450E-03    -26.6475E+06    -79.3668E+06     1.84777E+06     8.68874E+03    -53.9917E-03     106.548E-03    -52.5566E-03     81.5821E-03    -54.2715E-03     106.446E-03    -52.3937E-03     80.9899E-03
            1669     8.54062E-03     43.9658E-03    -29.4349E+06    -93.0232E+06     286.661E+03     16.7541E+03    -53.8334E-03     106.402E-03    -52.5682E-03     76.3675E-03    -54.0400E-03     106.173E-03    -52.3892E-03     75.8665E-03
            1670     7.68659E-03     43.8920E-03    -32.6269E+06    -103.503E+06    -1.91528E+06     25.5193E+03    -53.6383E-03     106.211E-03    -52.5730E-03     70.5903E-03    -53.7915E-03     105.887E-03    -52.3852E-03     70.1714E-03
            1671     6.83254E-03     43.8242E-03    -36.2381E+06    -114.376E+06    -5.62601E+06     39.1830E+03    -53.4319E-03     106.004E-03    -52.5725E-03     64.2744E-03    -53.5423E-03     105.596E-03    -52.3823E-03     63.9288E-03
            1672     5.97848E-03     43.7630E-03    -40.2490E+06    -125.219E+06    -10.5636E+06     62.9771E+03    -53.2228E-03     105.791E-03    -52.5679E-03     57.4676E-03    -53.2998E-03     105.311E-03    -52.3808E-03     57.1870E-03
            1673     5.12441E-03     43.7088E-03    -44.5974E+06    -135.323E+06    -17.6204E+06     75.5219E+03    -53.0237E-03     105.577E-03    -52.5538E-03     50.2236E-03    -53.0742E-03     105.040E-03    -52.3810E-03     50.0001E-03
            1674     4.27033E-03     43.6621E-03    -49.1836E+06    -147.154E+06    -25.8145E+06     80.8543E+03    -52.8497E-03     105.388E-03    -52.5382E-03     42.5840E-03    -52.8766E-03     104.793E-03    -52.3826E-03     42.4102E-03
            1675     3.41626E-03     43.6232E-03    -53.8543E+06    -156.942E+06    -35.3481E+06     65.2177E+03    -52.6975E-03     105.212E-03    -52.5144E-03     34.6161E-03    -52.7071E-03     104.576E-03    -52.3855E-03     34.4854E-03
            1676     2.56218E-03     43.5925E-03    -58.2530E+06    -165.239E+06    -45.9208E+06    -8.43802E+03    -52.5781E-03     105.062E-03    -52.4838E-03     26.3706E-03    -52.5735E-03     104.397E-03    -52.3893E-03     26.2766E-03
            1677     1.70811E-03     43.5702E-03    -61.9445E+06    -172.796E+06    -55.5896E+06    -37.0848E+03    -52.4979E-03     104.953E-03    -52.4553E-03     17.9479E-03    -52.4811E-03     104.264E-03    -52.3929E-03     17.8866E-03
            1678     854.055E-06     43.5564E-03    -64.4323E+06    -175.987E+06    -62.7323E+06     3.06863E+03    -52.4685E-03     104.877E-03    -52.4084E-03     9.80821E-03    -52.4460E-03     104.183E-03    -52.3735E-03     9.77601E-03
            1679     16.2279E-03     43.6901E-03    -4.42274E+06     124.821E+06     82.9729E+06    -2.39798E+03    -51.8529E-03     104.440E-03    -52.5873E-03     38.2111E-03    -52.7287E-03     105.503E-03    -52.3470E-03     37.5528E-03
            1680     15.3736E-03     43.6246E-03    -9.04564E+06     123.911E+06     74.4525E+06    -4.02376E+03    -52.3166E-03     104.882E-03    -52.5651E-03     72.6959E-03    -53.5724E-03     106.329E-03    -52.3594E-03     71.8051E-03
            1681     14.5193E-03     43.5457E-03    -13.2671E+06     116.901E+06     51.5300E+06    -10.8044E+03    -53.1039E-03     105.584E-03    -52.4797E-03     90.5626E-03    -54.4252E-03     107.123E-03    -52.3724E-03     89.5398E-03
            1682     13.6651E-03     43.4443E-03    -16.3704E+06     79.5320E+06     22.0893E+06    -13.0023E+03    -53.7369E-03     106.138E-03    -52.4014E-03     99.2004E-03    -54.9458E-03     107.507E-03    -52.3826E-03     98.1066E-03
            1683     12.8110E-03     43.3480E-03    -18.4155E+06     20.2542E+06     6.58121E+06         513.935    -53.9436E-03     106.360E-03    -52.4168E-03     94.9689E-03    -54.8434E-03     107.248E-03    -52.3866E-03     93.9374E-03
            1684     11.9569E-03     43.2550E-03    -20.1596E+06    -20.7099E+06     4.85016E+06     5.79557E+03    -54.0996E-03     106.568E-03    -52.4683E-03     92.1014E-03    -54.7591E-03     107.068E-03    -52.3848E-03     91.1870E-03
            1685     11.1029E-03     43.1642E-03    -22.0507E+06    -46.9849E+06     3.62046E+06     5.08212E+03    -54.1658E-03     106.663E-03    -52.4977E-03     89.4659E-03    -54.6591E-03     106.901E-03    -52.3794E-03     88.6661E-03
            1686     10.2489E-03     43.0762E-03    -24.2000E+06    -64.7471E+06     3.49206E+06     12.5467E+03    -54.1239E-03     106.642E-03    -52.5185E-03     85.9673E-03    -54.4972E-03     106.690E-03    -52.3721E-03     85.2756E-03
            1687     9.39492E-03     42.9922E-03    -26.6566E+06    -79.3670E+06     1.84536E+06     18.0172E+03    -54.0064E-03     106.533E-03    -52.5265E-03     81.4549E-03    -54.2858E-03     106.431E-03    -52.3636E-03     80.8631E-03
            1688     8.54091E-03     42.9130E-03    -29.4444E+06    -93.0234E+06     283.105E+03     21.6407E+03    -53.8405E-03     106.374E-03    -52.5335E-03     76.2321E-03    -54.0467E-03     106.145E-03    -52.3545E-03     75.7316E-03
            1689     7.68689E-03     42.8393E-03    -32.6443E+06    -103.508E+06    -1.91956E+06     27.4855E+03    -53.6367E-03     106.170E-03    -52.5336E-03     70.4499E-03    -53.7896E-03     105.845E-03    -52.3458E-03     70.0316E-03
            1690     6.83284E-03     42.7716E-03    -36.2742E+06    -114.379E+06    -5.62871E+06     33.3918E+03    -53.4208E-03     105.949E-03    -52.5284E-03     64.1327E-03    -53.5310E-03     105.541E-03    -52.3381E-03     63.7876E-03
            1691     5.97877E-03     42.7105E-03    -40.3292E+06    -125.247E+06    -10.5769E+06     51.4036E+03    -53.2017E-03     105.721E-03    -52.5191E-03     57.3299E-03    -53.2787E-03     105.241E-03    -52.3319E-03     57.0497E-03
            1692     5.12468E-03     42.6563E-03    -44.7233E+06    -135.312E+06    -17.7873E+06     81.3171E+03    -52.9920E-03     105.492E-03    -52.4997E-03     50.0946E-03    -53.0426E-03     104.955E-03    -52.3276E-03     49.8717E-03
            1693     4.27058E-03     42.6097E-03    -49.3060E+06    -147.131E+06    -26.1089E+06     85.3742E+03    -52.8078E-03     105.287E-03    -52.4796E-03     42.4681E-03    -52.8348E-03     104.693E-03    -52.3253E-03     42.2948E-03
            1694     3.41646E-03     42.5709E-03    -53.9136E+06    -156.879E+06    -35.5411E+06     65.6901E+03    -52.6469E-03     105.100E-03    -52.4528E-03     34.5177E-03    -52.6566E-03     104.464E-03    -52.3248E-03     34.3873E-03
            1695     2.56234E-03     42.5402E-03    -58.2829E+06    -165.160E+06    -45.9557E+06     51.4932E+03    -52.5205E-03     104.941E-03    -52.4202E-03     26.2927E-03    -52.5162E-03     104.276E-03    -52.3260E-03     26.1998E-03
            1696     1.70822E-03     42.5179E-03    -62.0144E+06    -172.795E+06    -55.5321E+06     31.6531E+03    -52.4353E-03     104.825E-03    -52.3902E-03     17.8934E-03    -52.4189E-03     104.137E-03    -52.3274E-03     17.8332E-03
            1697     854.113E-06     42.5041E-03    -64.5922E+06    -175.985E+06    -62.7462E+06     5.96308E+03    -52.4012E-03     104.743E-03    -52.3419E-03     9.77813E-03    -52.3795E-03     104.049E-03    -52.3068E-03     9.74608E-03
            1698     16.2279E-03     42.6370E-03    -4.42108E+06     124.824E+06     82.9750E+06         54.8220    -51.9044E-03     104.489E-03    -52.5844E-03     38.1848E-03    -52.7799E-03     105.551E-03    -52.3442E-03     37.5251E-03
            1699     15.3737E-03     42.5714E-03    -9.03767E+06     123.917E+06     74.4610E+06    -7.57403E+03    -52.3701E-03     104.929E-03    -52.5592E-03     72.6383E-03    -53.6253E-03     106.376E-03    -52.3535E-03     71.7459E-03
            1700     14.5194E-03     42.4926E-03    -13.2649E+06     116.903E+06     51.5221E+06    -9.22029E+03    -53.1550E-03     105.625E-03    -52.4702E-03     90.4780E-03    -54.4755E-03     107.164E-03    -52.3628E-03     89.4540E-03
            1701     13.6652E-03     42.3912E-03    -16.3950E+06     79.5309E+06     22.0663E+06     6.30122E+03    -53.7826E-03     106.171E-03    -52.3880E-03     99.1042E-03    -54.9907E-03     107.539E-03    -52.3692E-03     98.0099E-03
            1702     12.8112E-03     42.2950E-03    -18.4506E+06     20.2663E+06     6.56820E+06     10.4678E+03    -53.9856E-03     106.385E-03    -52.3993E-03     94.8653E-03    -54.8848E-03     107.272E-03    -52.3691E-03     93.8334E-03
            1703     11.9572E-03     42.2020E-03    -20.1746E+06    -20.7011E+06     4.84483E+06     7.52893E+03    -54.1388E-03     106.585E-03    -52.4462E-03     91.9850E-03    -54.7978E-03     107.085E-03    -52.3627E-03     91.0704E-03
            1704     11.1032E-03     42.1113E-03    -22.0563E+06    -46.9860E+06     3.61513E+06     16.8823E+03    -54.2001E-03     106.671E-03    -52.4706E-03     89.3342E-03    -54.6928E-03     106.908E-03    -52.3524E-03     88.5345E-03
            1705     10.2492E-03     42.0233E-03    -24.2063E+06    -64.7436E+06     3.48727E+06     21.6342E+03    -54.1515E-03     106.638E-03    -52.4861E-03     85.8204E-03    -54.5242E-03     106.684E-03    -52.3397E-03     85.1291E-03
            1706     9.39527E-03     41.9394E-03    -26.6613E+06    -79.3650E+06     1.84008E+06     25.0593E+03    -54.0259E-03     106.514E-03    -52.4885E-03     81.2934E-03    -54.3046E-03     106.411E-03    -52.3255E-03     80.7023E-03
            1707     8.54129E-03     41.8603E-03    -29.4526E+06    -93.0231E+06     274.965E+03     34.6328E+03    -53.8500E-03     106.340E-03    -52.4895E-03     76.0599E-03    -54.0557E-03     106.110E-03    -52.3106E-03     75.5602E-03
            1708     7.68727E-03     41.7866E-03    -32.6613E+06    -103.503E+06    -1.92517E+06     40.8136E+03    -53.6348E-03     106.118E-03    -52.4836E-03     70.2711E-03    -53.7873E-03     105.793E-03    -52.2958E-03     69.8537E-03
            1709     6.83322E-03     41.7190E-03    -36.3053E+06    -114.381E+06    -5.63380E+06     52.2399E+03    -53.4064E-03     105.879E-03    -52.4723E-03     63.9527E-03    -53.5164E-03     105.470E-03    -52.2820E-03     63.6086E-03
            1710     5.97914E-03     41.6580E-03    -40.3702E+06    -125.261E+06    -10.5831E+06     71.9333E+03    -53.1746E-03     105.632E-03    -52.4572E-03     57.1551E-03    -53.2514E-03     105.151E-03    -52.2700E-03     56.8760E-03
            1711     5.12502E-03     41.6039E-03    -44.7487E+06    -135.321E+06    -17.8061E+06     93.6886E+03    -52.9520E-03     105.384E-03    -52.4323E-03     49.9309E-03    -53.0026E-03     104.847E-03    -52.2602E-03     49.7088E-03
            1712     4.27088E-03     41.5573E-03    -49.2938E+06    -147.058E+06    -26.2027E+06     80.4374E+03    -52.7554E-03     105.162E-03    -52.4066E-03     42.3210E-03    -52.7821E-03     104.568E-03    -52.2529E-03     42.1483E-03
            1713     3.41672E-03     41.5186E-03    -53.8766E+06    -156.847E+06    -35.6480E+06     55.7030E+03    -52.5835E-03     104.959E-03    -52.3754E-03     34.3923E-03    -52.5928E-03     104.324E-03    -52.2481E-03     34.2624E-03
            1714     2.56254E-03     41.4880E-03    -58.1920E+06    -165.165E+06    -45.9714E+06     91.3002E+03    -52.4482E-03     104.788E-03    -52.3399E-03     26.1940E-03    -52.4433E-03     104.124E-03    -52.2459E-03     26.1020E-03
            1715     1.70836E-03     41.4657E-03    -61.8629E+06    -172.716E+06    -55.4881E+06     122.007E+03    -52.3564E-03     104.664E-03    -52.3077E-03     17.8254E-03    -52.3394E-03     103.975E-03    -52.2450E-03     17.7666E-03
            1716     854.184E-06     41.4520E-03    -64.3910E+06    -175.874E+06    -62.6636E+06     32.1232E+03    -52.3182E-03     104.577E-03    -52.2589E-03     9.74082E-03    -52.2957E-03     103.883E-03    -52.2238E-03     9.70927E-03
            1717     16.2280E-03     41.5837E-03    -4.41850E+06     124.828E+06     82.9807E+06    -4.78153E+03    -51.9731E-03     104.554E-03    -52.5808E-03     38.1546E-03    -52.8484E-03     105.616E-03    -52.3405E-03     37.4932E-03
            1718     15.3738E-03     41.5182E-03    -9.03784E+06     123.915E+06     74.4502E+06    -4.36527E+03    -52.4392E-03     104.991E-03    -52.5514E-03     72.5606E-03    -53.6936E-03     106.437E-03    -52.3457E-03     71.6662E-03
            1719     14.5196E-03     41.4394E-03    -13.2833E+06     116.885E+06     51.5179E+06     16.8903E+03    -53.2157E-03     105.674E-03    -52.4580E-03     90.3698E-03    -54.5352E-03     107.212E-03    -52.3506E-03     89.3448E-03
            1720     13.6655E-03     41.3381E-03    -16.4086E+06     79.5532E+06     22.0834E+06     21.9654E+03    -53.8383E-03     106.209E-03    -52.3711E-03     98.9902E-03    -55.0455E-03     107.577E-03    -52.3523E-03     97.8950E-03
            1721     12.8115E-03     41.2420E-03    -18.4389E+06     20.2921E+06     6.57527E+06     8.92639E+03    -54.0401E-03     106.417E-03    -52.3772E-03     94.7396E-03    -54.9384E-03     107.303E-03    -52.3470E-03     93.7069E-03
            1722     11.9575E-03     41.1490E-03    -20.1726E+06    -20.7043E+06     4.83602E+06     17.1794E+03    -54.1891E-03     106.607E-03    -52.4183E-03     91.8390E-03    -54.8472E-03     107.106E-03    -52.3349E-03     90.9242E-03
            1723     11.1036E-03     41.0583E-03    -22.0668E+06    -46.9782E+06     3.60167E+06     25.5347E+03    -54.2441E-03     106.681E-03    -52.4364E-03     89.1684E-03    -54.7359E-03     106.917E-03    -52.3183E-03     88.3689E-03
            1724     10.2497E-03     40.9704E-03    -24.2111E+06    -64.7397E+06     3.47647E+06     28.3893E+03    -54.1873E-03     106.632E-03    -52.4451E-03     85.6340E-03    -54.5591E-03     106.678E-03    -52.2987E-03     84.9432E-03
            1725     9.39572E-03     40.8866E-03    -26.6697E+06    -79.3641E+06     1.82835E+06     39.0965E+03    -54.0508E-03     106.491E-03    -52.4402E-03     81.0886E-03    -54.3288E-03     106.387E-03    -52.2773E-03     80.4983E-03
            1726     8.54176E-03     40.8076E-03    -29.4638E+06    -93.0223E+06     260.827E+03     48.8051E+03    -53.8618E-03     106.296E-03    -52.4338E-03     75.8425E-03    -54.0667E-03     106.065E-03    -52.2549E-03     75.3438E-03
            1727     7.68775E-03     40.7340E-03    -32.6708E+06    -103.503E+06    -1.94080E+06     63.2915E+03    -53.6313E-03     106.052E-03    -52.4202E-03     70.0471E-03    -53.7832E-03     105.726E-03    -52.2325E-03     69.6310E-03
            1728     6.83370E-03     40.6665E-03    -36.3109E+06    -114.377E+06    -5.64614E+06     75.2309E+03    -53.3868E-03     105.788E-03    -52.4016E-03     63.7298E-03    -53.4963E-03     105.379E-03    -52.2113E-03     63.3871E-03
            1729     5.97960E-03     40.6056E-03    -40.3583E+06    -125.259E+06    -10.5906E+06     81.4116E+03    -53.1386E-03     105.518E-03    -52.3793E-03     56.9410E-03    -53.2150E-03     105.037E-03    -52.1921E-03     56.6630E-03
            1730     5.12546E-03     40.5516E-03    -44.7155E+06    -135.303E+06    -17.8004E+06     79.1045E+03    -52.9002E-03     105.248E-03    -52.3478E-03     49.7329E-03    -52.9503E-03     104.711E-03    -52.1758E-03     49.5116E-03
            1731     4.27127E-03     40.5052E-03    -49.2581E+06    -147.005E+06    -26.1582E+06     74.1202E+03    -52.6889E-03     105.005E-03    -52.3163E-03     42.1461E-03    -52.7154E-03     104.411E-03    -52.1625E-03     41.9741E-03
            1732     3.41705E-03     40.4665E-03    -53.8601E+06    -156.807E+06    -35.5742E+06     66.9349E+03    -52.5040E-03     104.784E-03    -52.2802E-03     34.2458E-03    -52.5132E-03     104.149E-03    -52.1527E-03     34.1166E-03
            1733     2.56280E-03     40.4359E-03    -58.1685E+06    -165.185E+06    -45.9600E+06     61.6827E+03    -52.3577E-03     104.598E-03    -52.2404E-03     26.0801E-03    -52.3526E-03     103.933E-03    -52.1463E-03     25.9882E-03
            1734     1.70854E-03     40.4137E-03    -61.6802E+06    -172.681E+06    -55.4893E+06     118.129E+03    -52.2578E-03     104.463E-03    -52.2051E-03     17.7472E-03    -52.2400E-03     103.774E-03    -52.1427E-03     17.6887E-03
            1735     854.271E-06     40.4000E-03    -64.0035E+06    -175.641E+06    -62.4539E+06     194.862E+03    -52.2158E-03     104.372E-03    -52.1559E-03     9.69746E-03    -52.1921E-03     103.678E-03    -52.1207E-03     9.66820E-03
            1736     16.2281E-03     40.5304E-03    -4.41792E+06     124.826E+06     82.9809E+06    -1.84827E+03    -52.0632E-03     104.639E-03    -52.5758E-03     38.1021E-03    -52.9381E-03     105.701E-03    -52.3355E-03     37.4385E-03
            1737     15.3740E-03     40.4649E-03    -9.05251E+06     123.897E+06     74.4401E+06     18.7161E+03    -52.5177E-03     105.059E-03    -52.5413E-03     72.4621E-03    -53.7712E-03     106.504E-03    -52.3356E-03     71.5658E-03
            1738     14.5198E-03     40.3862E-03    -13.2855E+06     116.885E+06     51.5373E+06     19.8838E+03    -53.2885E-03     105.731E-03    -52.4427E-03     90.2460E-03    -54.6068E-03     107.268E-03    -52.3352E-03     89.2193E-03
            1739     13.6658E-03     40.2850E-03    -16.3733E+06     79.5783E+06     22.1119E+06     15.4437E+03    -53.9101E-03     106.260E-03    -52.3500E-03     98.8546E-03    -55.1160E-03     107.626E-03    -52.3311E-03     97.7580E-03
            1740     12.8118E-03     40.1889E-03    -18.4225E+06     20.3077E+06     6.56911E+06     34.1113E+03    -54.1092E-03     106.459E-03    -52.3493E-03     94.5857E-03    -55.0063E-03     107.343E-03    -52.3192E-03     93.5525E-03
            1741     11.9579E-03     40.0960E-03    -20.1758E+06    -20.6878E+06     4.82719E+06     35.7098E+03    -54.2536E-03     106.637E-03    -52.3832E-03     91.6610E-03    -54.9105E-03     107.135E-03    -52.2999E-03     90.7460E-03
            1742     11.1041E-03     40.0054E-03    -22.0615E+06    -46.9701E+06     3.58994E+06     33.7363E+03    -54.3011E-03     106.694E-03    -52.3933E-03     88.9639E-03    -54.7917E-03     106.930E-03    -52.2752E-03     88.1646E-03
            1743     10.2502E-03     39.9176E-03    -24.2153E+06    -64.7386E+06     3.45967E+06     46.2181E+03    -54.2326E-03     106.626E-03    -52.3934E-03     85.4038E-03    -54.6033E-03     106.671E-03    -52.2471E-03     84.7137E-03
            1744     9.39629E-03     39.8338E-03    -26.6790E+06    -79.3592E+06     1.80752E+06     55.0885E+03    -54.0809E-03     106.460E-03    -52.3794E-03     80.8380E-03    -54.3579E-03     106.356E-03    -52.2166E-03     80.2487E-03
            1745     8.54235E-03     39.7549E-03    -29.4708E+06    -93.0187E+06     235.206E+03     65.5021E+03    -53.8738E-03     106.238E-03    -52.3637E-03     75.5788E-03    -54.0778E-03     106.006E-03    -52.1850E-03     75.0814E-03
            1746     7.68836E-03     39.6815E-03    -32.6717E+06    -103.506E+06    -1.97179E+06     78.5169E+03    -53.6235E-03     105.965E-03    -52.3411E-03     69.7794E-03    -53.7745E-03     105.638E-03    -52.1535E-03     69.3646E-03
            1747     6.83430E-03     39.6141E-03    -36.2990E+06    -114.365E+06    -5.67315E+06      93.617E+03    -53.3584E-03     105.672E-03    -52.3137E-03     63.4671E-03    -53.4672E-03     105.262E-03    -52.1236E-03     63.1257E-03
            1748     5.98018E-03     39.5533E-03    -40.3469E+06    -125.218E+06    -10.6059E+06     83.3292E+03    -53.0900E-03     105.373E-03    -52.2833E-03     56.6920E-03    -53.1659E-03     104.892E-03    -52.0962E-03     56.4152E-03
            1749     5.12599E-03     39.4995E-03    -44.7194E+06    -135.281E+06    -17.8104E+06     70.7792E+03    -52.8329E-03     105.077E-03    -52.2444E-03     49.5050E-03    -52.8827E-03     104.540E-03    -52.0724E-03     49.2846E-03
            1750     4.27174E-03     39.4532E-03    -49.2867E+06    -146.980E+06    -26.1384E+06     81.0106E+03    -52.6048E-03     104.811E-03    -52.2065E-03     41.9452E-03    -52.6313E-03     104.217E-03    -52.0526E-03     41.7742E-03
            1751     3.41744E-03     39.4146E-03    -53.8997E+06    -156.747E+06    -35.4947E+06     61.3320E+03    -52.4055E-03     104.571E-03    -52.1650E-03     34.0781E-03    -52.4150E-03     103.935E-03    -52.0371E-03     33.9496E-03
            1752     2.56311E-03     39.3841E-03    -58.2517E+06    -165.147E+06    -45.8331E+06     22.4100E+03    -52.2478E-03     104.369E-03    -52.1208E-03     25.9497E-03    -52.2433E-03     103.704E-03    -52.0260E-03     25.8579E-03
            1753     1.70875E-03     39.3620E-03    -61.9508E+06    -172.781E+06    -55.4103E+06     56.0841E+03    -52.1390E-03     104.220E-03    -52.0815E-03     17.6567E-03    -52.1224E-03     103.531E-03    -52.0182E-03     17.5978E-03
            1754     854.380E-06     39.3483E-03    -64.5135E+06    -175.330E+06    -62.6243E+06     231.924E+03    -52.0883E-03     104.115E-03    -52.0269E-03     9.64686E-03    -52.0673E-03     103.424E-03    -51.9923E-03     9.61830E-03
            1755     16.2282E-03     39.4770E-03    -4.43330E+06     124.802E+06     82.9540E+06     8.33764E+03    -52.1745E-03     104.744E-03    -52.5691E-03     38.0248E-03    -53.0487E-03     105.805E-03    -52.3289E-03     37.3586E-03
            1756     15.3741E-03     39.4116E-03    -9.04511E+06     123.897E+06     74.4674E+06     21.0719E+03    -52.6069E-03     105.136E-03    -52.5287E-03     72.3459E-03    -53.8590E-03     106.580E-03    -52.3229E-03     71.4470E-03
            1757     14.5201E-03     39.3329E-03    -13.2618E+06     116.899E+06     51.5611E+06     20.9997E+03    -53.3762E-03     105.800E-03    -52.4239E-03     90.1101E-03    -54.6929E-03     107.335E-03    -52.3163E-03     89.0812E-03
            1758     13.6661E-03     39.2318E-03    -16.4143E+06     79.5838E+06     22.0727E+06     36.7646E+03    -54.0019E-03     106.326E-03    -52.3238E-03     98.7047E-03    -55.2064E-03     107.690E-03    -52.3050E-03     97.6065E-03
            1759     12.8122E-03     39.1357E-03    -18.4650E+06     20.3408E+06     6.54914E+06     34.6248E+03    -54.1997E-03     106.515E-03    -52.3149E-03     94.4073E-03    -55.0956E-03     107.398E-03    -52.2849E-03     93.3729E-03
            1760     11.9584E-03     39.0429E-03    -20.1650E+06    -20.6784E+06     4.81398E+06     37.4610E+03    -54.3378E-03     106.677E-03    -52.3394E-03     91.4436E-03    -54.9933E-03     107.174E-03    -52.2562E-03     90.5281E-03
            1761     11.1046E-03     38.9524E-03    -22.0544E+06    -46.9667E+06     3.56654E+06     62.7810E+03    -54.3722E-03     106.711E-03    -52.3393E-03     88.7099E-03    -54.8614E-03     106.945E-03    -52.2214E-03     87.9110E-03
            1762     10.2508E-03     38.8647E-03    -24.2164E+06    -64.7254E+06     3.43171E+06     70.9282E+03    -54.2856E-03     106.614E-03    -52.3288E-03     85.1232E-03    -54.6550E-03     106.658E-03    -52.1826E-03     84.4340E-03
            1763     9.39699E-03     38.7811E-03    -26.6779E+06    -79.3486E+06     1.77654E+06     75.1902E+03    -54.1127E-03     106.417E-03    -52.3040E-03     80.5375E-03    -54.3885E-03     106.311E-03    -52.1414E-03     79.9495E-03
            1764     8.54309E-03     38.7024E-03    -29.4697E+06    -93.0076E+06     205.082E+03     82.5190E+03    -53.8819E-03     106.159E-03    -52.2776E-03     75.2693E-03    -54.0849E-03     105.927E-03    -52.0990E-03     74.7734E-03
            1765     7.68910E-03     38.6291E-03    -32.6632E+06    -103.495E+06    -1.99284E+06     85.3788E+03    -53.6071E-03     105.852E-03    -52.2446E-03     69.4705E-03    -53.7572E-03     105.524E-03    -52.0572E-03     69.0573E-03
            1766     6.83503E-03     38.5619E-03    -36.2702E+06    -114.355E+06    -5.68455E+06     90.9393E+03    -53.3177E-03     105.525E-03    -52.2075E-03     63.1682E-03    -53.4257E-03     105.115E-03    -52.0175E-03     62.8282E-03
            1767     5.98087E-03     38.5013E-03    -40.2847E+06    -125.154E+06    -10.5923E+06     83.5256E+03    -53.0266E-03     105.195E-03    -52.1681E-03     56.4113E-03    -53.1018E-03     104.713E-03    -51.9811E-03     56.1358E-03
            1768     5.12662E-03     38.4476E-03    -44.6460E+06    -135.275E+06    -17.6448E+06     75.2855E+03    -52.7494E-03     104.871E-03    -52.1219E-03     49.2485E-03    -52.7987E-03     104.333E-03    -51.9492E-03     49.0294E-03
            1769     4.27230E-03     38.4014E-03    -49.2156E+06    -146.955E+06    -25.9349E+06     88.4976E+03    -52.5031E-03     104.580E-03    -52.0769E-03     41.7185E-03    -52.5294E-03     103.985E-03    -51.9221E-03     41.5487E-03
            1770     3.41792E-03     38.3629E-03    -53.8691E+06    -156.666E+06    -35.4066E+06     68.7758E+03    -52.2878E-03     104.316E-03    -52.0286E-03     33.8877E-03    -52.2972E-03     103.681E-03    -51.9003E-03     33.7601E-03
            1771     2.56348E-03     38.3326E-03    -58.3277E+06    -165.132E+06    -45.7462E+06     62.6233E+03    -52.1174E-03     104.097E-03    -51.9793E-03     25.8012E-03    -52.1133E-03     103.432E-03    -51.8840E-03     25.7106E-03
            1772     1.70900E-03     38.3105E-03    -62.2358E+06    -172.826E+06    -55.2895E+06     99.2783E+03    -51.9989E-03     103.935E-03    -51.9360E-03     17.5544E-03    -51.9838E-03     103.246E-03    -51.8716E-03     17.4965E-03
            1773     854.517E-06     38.2969E-03    -65.0577E+06    -175.084E+06    -62.8862E+06     71.2936E+03    -51.9385E-03     103.814E-03    -51.8751E-03     9.59149E-03    -51.9202E-03     103.125E-03    -51.8413E-03     9.56107E-03
            1774     16.2283E-03     38.4235E-03    -4.42262E+06     124.798E+06     82.9573E+06     4.33350E+03    -52.2828E-03     104.845E-03    -52.5619E-03     37.9703E-03    -53.1564E-03     105.905E-03    -52.3217E-03     37.3010E-03
            1775     15.3744E-03     38.3581E-03    -9.04896E+06     123.876E+06     74.4252E+06    -3.86734E+03    -52.7314E-03     105.246E-03    -52.5144E-03     72.2570E-03    -53.9822E-03     106.688E-03    -52.3088E-03     71.3541E-03
            1776     14.5204E-03     38.2796E-03    -13.2836E+06     116.870E+06     51.5404E+06     41.4778E+03    -53.5011E-03     105.902E-03    -52.4013E-03     89.9678E-03    -54.8161E-03     107.436E-03    -52.2938E-03     88.9361E-03
            1777     13.6665E-03     38.1785E-03    -16.3710E+06     79.6247E+06     22.0750E+06     55.3936E+03    -54.1256E-03     106.417E-03    -52.2915E-03     98.5083E-03    -55.3281E-03     107.780E-03    -52.2728E-03     97.4079E-03
            1778     12.8128E-03     38.0825E-03    -18.3999E+06     20.3787E+06     6.51012E+06     52.7417E+03    -54.3159E-03     106.587E-03    -52.2716E-03     94.1623E-03    -55.2098E-03     107.470E-03    -52.2419E-03     93.1264E-03
            1779     11.9591E-03     37.9898E-03    -20.1778E+06    -20.6777E+06     4.75882E+06     73.3123E+03    -54.4367E-03     106.721E-03    -52.2846E-03     91.1623E-03    -55.0906E-03     107.216E-03    -52.2016E-03     90.2465E-03
            1780     11.1054E-03     37.8994E-03    -22.0863E+06    -46.9492E+06     3.51545E+06     83.1119E+03    -54.4502E-03     106.723E-03    -52.2725E-03     88.4024E-03    -54.9380E-03     106.955E-03    -52.1549E-03     87.6040E-03
            1781     10.2517E-03     37.8119E-03    -24.2264E+06    -64.7087E+06     3.40919E+06     86.2273E+03    -54.3398E-03     106.590E-03    -52.2499E-03     84.7963E-03    -54.7078E-03     106.632E-03    -52.1039E-03     84.1081E-03
            1782     9.39785E-03     37.7284E-03    -26.6780E+06    -79.3267E+06     1.76954E+06     91.9565E+03    -54.1402E-03     106.353E-03    -52.2131E-03     80.1980E-03    -54.4147E-03     106.246E-03    -52.0505E-03     79.6114E-03
            1783     8.54397E-03     37.6499E-03    -29.4562E+06    -92.9863E+06     213.586E+03     90.3337E+03    -53.8821E-03     106.057E-03    -52.1749E-03     74.9246E-03    -54.0840E-03     105.824E-03    -51.9963E-03     74.4304E-03
            1784     7.68999E-03     37.5768E-03    -32.6416E+06    -103.470E+06    -1.97993E+06     88.9603E+03    -53.5798E-03     105.710E-03    -52.1306E-03     69.1291E-03    -53.7289E-03     105.382E-03    -51.9431E-03     68.7176E-03
            1785     6.83589E-03     37.5098E-03    -36.2489E+06    -114.319E+06    -5.67459E+06     73.4974E+03    -53.2642E-03     105.347E-03    -52.0828E-03     62.8377E-03    -53.3714E-03     104.936E-03    -51.8928E-03     62.4993E-03
            1786     5.98168E-03     37.4494E-03    -40.2624E+06    -125.123E+06    -10.5980E+06     64.3572E+03    -52.9487E-03     104.982E-03    -52.0335E-03     56.1001E-03    -53.0232E-03     104.500E-03    -51.8466E-03     55.8260E-03
            1787     5.12736E-03     37.3959E-03    -44.6163E+06    -135.263E+06    -17.6739E+06     76.5825E+03    -52.6493E-03     104.628E-03    -51.9782E-03     48.9638E-03    -52.6980E-03     104.089E-03    -51.8058E-03     48.7462E-03
            1788     4.27295E-03     37.3499E-03    -49.1941E+06    -146.948E+06    -25.9902E+06     96.6356E+03    -52.3832E-03     104.308E-03    -51.9252E-03     41.4674E-03    -52.4090E-03     103.713E-03    -51.7708E-03     41.2989E-03
            1789     3.41846E-03     37.3116E-03    -53.8607E+06    -156.616E+06    -35.4341E+06     137.608E+03    -52.1507E-03     104.021E-03    -51.8702E-03     33.6769E-03    -52.1600E-03     103.386E-03    -51.7422E-03     33.5512E-03
            1790     2.56390E-03     37.2813E-03    -58.3216E+06    -165.077E+06    -45.7542E+06     136.268E+03    -51.9659E-03     103.781E-03    -51.8155E-03     25.6371E-03    -51.9617E-03     103.117E-03    -51.7204E-03     25.5481E-03
            1791     1.70929E-03     37.2594E-03    -62.0575E+06    -172.709E+06    -55.3734E+06     62.1964E+03    -51.8362E-03     103.604E-03    -51.7678E-03     17.4418E-03    -51.8202E-03     102.915E-03    -51.7043E-03     17.3839E-03
            1792     854.655E-06     37.2458E-03    -64.5286E+06    -175.026E+06    -62.6519E+06    -85.1893E+03    -51.7715E-03     103.479E-03    -51.7071E-03     9.52982E-03    -51.7510E-03     102.789E-03    -51.6730E-03     9.49761E-03
            1793     16.2284E-03     37.3698E-03    -4.40745E+06     124.794E+06     82.9729E+06     21.8128E+03    -52.4205E-03     104.974E-03    -52.5532E-03     37.8683E-03    -53.2933E-03     106.033E-03    -52.3129E-03     37.1949E-03
            1794     15.3746E-03     37.3046E-03    -9.05202E+06     123.860E+06     74.4119E+06     54.5516E+03    -52.8885E-03     105.385E-03    -52.4966E-03     72.0537E-03    -54.1378E-03     106.826E-03    -52.2910E-03     71.1461E-03
            1795     14.5208E-03     37.2261E-03    -13.3128E+06     116.853E+06     51.6051E+06     35.2592E+03    -53.6637E-03     106.037E-03    -52.3729E-03     89.7242E-03    -54.9769E-03     107.568E-03    -52.2650E-03     88.6881E-03
            1796     13.6671E-03     37.1251E-03    -16.4371E+06     79.6561E+06     22.1750E+06     46.1983E+03    -54.2711E-03     106.522E-03    -52.2511E-03     98.2407E-03    -55.4720E-03     107.883E-03    -52.2319E-03     97.1370E-03
            1797     12.8135E-03     37.0292E-03    -18.5141E+06     20.3991E+06     6.52830E+06     90.2660E+03    -54.4399E-03     106.658E-03    -52.2183E-03     93.8804E-03    -55.3324E-03     107.538E-03    -52.1884E-03     92.8432E-03
            1798     11.9599E-03     36.9367E-03    -20.2434E+06    -20.6304E+06     4.80465E+06     85.0489E+03    -54.5403E-03     106.759E-03    -52.2185E-03     90.8574E-03    -55.1927E-03     107.252E-03    -52.1352E-03     89.9412E-03
            1799     11.1063E-03     36.8464E-03    -22.0936E+06    -46.9253E+06     3.55234E+06     69.3983E+03    -54.5298E-03     106.723E-03    -52.1931E-03     88.0752E-03    -55.0158E-03     106.954E-03    -52.0753E-03     87.2770E-03
            1800     10.2526E-03     36.7591E-03    -24.2113E+06    -64.7016E+06     3.43977E+06     83.6679E+03    -54.3928E-03     106.550E-03    -52.1571E-03     84.4444E-03    -54.7591E-03     106.591E-03    -52.0109E-03     83.7574E-03
            1801     9.39886E-03     36.6758E-03    -26.6392E+06    -79.2977E+06     1.79526E+06     91.2710E+03    -54.1647E-03     106.272E-03    -52.1068E-03     79.8271E-03    -54.4376E-03     106.163E-03    -51.9443E-03     79.2422E-03
            1802     8.54499E-03     36.5975E-03    -29.4068E+06    -92.9657E+06     216.049E+03     98.4875E+03    -53.8772E-03     105.933E-03    -52.0555E-03     74.5396E-03    -54.0775E-03     105.698E-03    -51.8770E-03     74.0474E-03
            1803     7.69100E-03     36.5247E-03    -32.5970E+06    -103.441E+06    -1.99747E+06     102.593E+03    -53.5457E-03     105.544E-03    -51.9984E-03     68.7400E-03    -53.6935E-03     105.215E-03    -51.8112E-03     68.3307E-03
            1804     6.83687E-03     36.4579E-03    -36.2333E+06    -114.265E+06    -5.71354E+06     97.6210E+03    -53.2011E-03     105.140E-03    -51.9385E-03     62.4540E-03    -53.3074E-03     104.728E-03    -51.7488E-03     62.1178E-03
            1805     5.98260E-03     36.3977E-03    -40.3110E+06    -125.099E+06    -10.6664E+06     88.2011E+03    -52.8574E-03     104.735E-03    -51.8779E-03     55.7344E-03    -52.9315E-03     104.253E-03    -51.6914E-03     55.4624E-03
            1806     5.12821E-03     36.3445E-03    -44.7057E+06    -135.247E+06    -17.9164E+06     90.1670E+03    -52.5318E-03     104.344E-03    -51.8118E-03     48.6274E-03    -52.5801E-03     103.805E-03    -51.6404E-03     48.4116E-03
            1807     4.27369E-03     36.2987E-03    -49.2729E+06    -146.963E+06    -26.2469E+06     127.751E+03    -52.2430E-03     103.993E-03    -51.7500E-03     41.1698E-03    -52.2685E-03     103.398E-03    -51.5966E-03     41.0030E-03
            1808     3.41908E-03     36.2606E-03    -53.8749E+06    -156.593E+06    -35.5530E+06     165.849E+03    -51.9915E-03     103.680E-03    -51.6880E-03     33.4269E-03    -52.0005E-03     103.044E-03    -51.5606E-03     33.3027E-03
            1809     2.56438E-03     36.2305E-03    -58.1733E+06    -164.925E+06    -45.8350E+06     129.062E+03    -51.7910E-03     103.418E-03    -51.6273E-03     25.4423E-03    -51.7860E-03     102.754E-03    -51.5330E-03     25.3540E-03
            1810     1.70962E-03     36.2086E-03    -61.7938E+06    -172.495E+06    -55.3728E+06    -31.7639E+03    -51.6501E-03     103.226E-03    -51.5760E-03     17.3070E-03    -51.6331E-03     102.538E-03    -51.5131E-03     17.2484E-03
            1811     854.820E-06     36.1951E-03    -64.2543E+06    -175.189E+06    -62.5338E+06    -121.950E+03    -51.5800E-03     103.095E-03    -51.5149E-03     9.45453E-03    -51.5580E-03     102.404E-03    -51.4804E-03     9.42215E-03
            1812     16.2287E-03     36.3160E-03    -4.44130E+06     124.735E+06     82.9087E+06     23.1467E+03    -52.6338E-03     105.175E-03    -52.5414E-03     37.7677E-03    -53.5057E-03     106.234E-03    -52.3013E-03     37.0891E-03
            1813     15.3750E-03     36.2508E-03    -9.02309E+06     123.855E+06     74.3919E+06     64.9151E+03    -53.0738E-03     105.547E-03    -52.4730E-03     71.8830E-03    -54.3208E-03     106.986E-03    -52.2675E-03     70.9701E-03
            1814     14.5214E-03     36.1724E-03    -13.2364E+06     116.874E+06     51.5244E+06     88.7588E+03    -53.8335E-03     106.170E-03    -52.3367E-03     89.5115E-03    -55.1437E-03     107.699E-03    -52.2294E-03     88.4718E-03
            1815     13.6678E-03     36.0716E-03    -16.4209E+06     79.6882E+06     22.0708E+06     102.384E+03    -54.4269E-03     106.629E-03    -52.2019E-03     98.0140E-03    -55.6249E-03     107.987E-03    -52.1833E-03     96.9082E-03
            1816     12.8143E-03     35.9759E-03    -18.4487E+06     20.4657E+06     6.52753E+06     69.0692E+03    -54.5805E-03     106.736E-03    -52.1558E-03     93.6185E-03    -55.4703E-03     107.614E-03    -52.1261E-03     92.5796E-03
            1817     11.9608E-03     35.8835E-03    -20.1140E+06    -20.5955E+06     4.83026E+06     63.1719E+03    -54.6584E-03     106.800E-03    -52.1415E-03     90.5369E-03    -55.3079E-03     107.291E-03    -52.0583E-03     89.6201E-03
            1818     11.1073E-03     35.7935E-03    -21.9859E+06    -46.8969E+06     3.55096E+06     83.9485E+03    -54.6201E-03     106.721E-03    -52.1010E-03     87.7052E-03    -55.1035E-03     106.950E-03    -51.9834E-03     86.9079E-03
            1819     10.2537E-03     35.7063E-03    -24.1327E+06    -64.6935E+06     3.39436E+06     91.6740E+03    -54.4526E-03     106.502E-03    -52.0496E-03     84.0334E-03    -54.8165E-03     106.541E-03    -51.9038E-03     83.3479E-03
            1820     9.40000E-03     35.6233E-03    -26.5868E+06    -79.2749E+06     1.72761E+06     108.700E+03    -54.1923E-03     106.176E-03    -51.9840E-03     79.3840E-03    -54.4631E-03     106.066E-03    -51.8219E-03     78.8012E-03
            1821     8.54616E-03     35.5453E-03    -29.3786E+06    -92.9493E+06     124.170E+03     125.106E+03    -53.8715E-03     105.789E-03    -51.9175E-03     74.0792E-03    -54.0701E-03     105.553E-03    -51.7395E-03     73.5894E-03
            1822     7.69217E-03     35.4728E-03    -32.5841E+06    -103.418E+06    -2.08153E+06     143.153E+03    -53.5065E-03     105.352E-03    -51.8458E-03     68.2753E-03    -53.6530E-03     105.022E-03    -51.6590E-03     67.8686E-03
            1823     6.83800E-03     35.4063E-03    -36.2295E+06    -114.226E+06    -5.78619E+06     160.488E+03    -53.1283E-03     104.900E-03    -51.7720E-03     61.9996E-03    -53.2335E-03     104.488E-03    -51.5827E-03     61.6665E-03
            1824     5.98368E-03     35.3464E-03    -40.2800E+06    -125.020E+06    -10.6982E+06     140.298E+03    -52.7518E-03     104.450E-03    -51.6986E-03     55.3044E-03    -52.8250E-03     103.968E-03    -51.5124E-03     55.0351E-03
            1825     5.12918E-03     35.2934E-03    -44.6509E+06    -135.234E+06    -17.7699E+06     122.731E+03    -52.3960E-03     104.018E-03    -51.6219E-03     48.2353E-03    -52.4437E-03     103.479E-03    -51.4499E-03     48.0218E-03
            1826     4.27455E-03     35.2478E-03    -49.2164E+06    -146.975E+06    -26.0824E+06     156.458E+03    -52.0811E-03     103.631E-03    -51.5501E-03     40.8255E-03    -52.1061E-03     103.035E-03    -51.3961E-03     40.6607E-03
            1827     3.41979E-03     35.2099E-03    -53.7915E+06    -156.495E+06    -35.5915E+06     137.395E+03    -51.8073E-03     103.286E-03    -51.4787E-03     33.1384E-03    -51.8157E-03     102.651E-03    -51.3517E-03     33.0151E-03
            1828     2.56493E-03     35.1800E-03    -58.0577E+06    -164.778E+06    -45.9339E+06     62.7953E+03    -51.5893E-03     103.000E-03    -51.4111E-03     25.2174E-03    -51.5837E-03     102.337E-03    -51.3176E-03     25.1292E-03
            1829     1.70999E-03     35.1583E-03    -61.6861E+06    -172.355E+06    -55.3738E+06     32.7240E+03    -51.4366E-03     102.792E-03    -51.3556E-03     17.1509E-03    -51.4192E-03     102.104E-03    -51.2931E-03     17.0938E-03
            1830     855.014E-06     35.1449E-03    -64.3051E+06    -175.298E+06    -62.5310E+06     2.80738E+03    -51.3590E-03     102.651E-03    -51.2917E-03     9.36820E-03    -51.3371E-03     101.959E-03    -51.2569E-03     9.33778E-03
            1831     16.2288E-03     35.2620E-03    -4.41474E+06     124.720E+06     82.8721E+06     13.0004E+03    -52.8460E-03     105.375E-03    -52.5291E-03     37.7045E-03    -53.7166E-03     106.432E-03    -52.2892E-03     37.0201E-03
            1832     15.3754E-03     35.1969E-03    -9.04105E+06     123.786E+06     74.3297E+06     15.1421E+03    -53.2974E-03     105.745E-03    -52.4479E-03     71.7882E-03    -54.5420E-03     107.182E-03    -52.2426E-03     70.8687E-03
            1833     14.5219E-03     35.1186E-03    -13.2425E+06     116.824E+06     51.4374E+06     97.1236E+03    -54.0425E-03     106.340E-03    -52.2970E-03     89.3114E-03    -55.3495E-03     107.865E-03    -52.1900E-03     88.2671E-03
            1834     13.6685E-03     35.0179E-03    -16.2604E+06     79.7703E+06     21.9557E+06     126.200E+03    -54.6197E-03     106.766E-03    -52.1461E-03     97.7227E-03    -55.8138E-03     108.122E-03    -52.1284E-03     96.6136E-03
            1835     12.8152E-03     34.9224E-03    -18.2892E+06     20.5781E+06     6.36240E+06     109.505E+03    -54.7492E-03     106.832E-03    -52.0830E-03     93.2508E-03    -55.6354E-03     107.708E-03    -52.0545E-03     92.2103E-03
            1836     11.9619E-03     34.8302E-03    -20.0939E+06    -20.5777E+06     4.64573E+06     103.308E+03    -54.7948E-03     106.847E-03    -52.0518E-03     90.1120E-03    -55.4414E-03     107.335E-03    -51.9696E-03     89.1952E-03
            1837     11.1085E-03     34.7405E-03    -22.0105E+06    -46.8654E+06     3.39535E+06     119.841E+03    -54.7229E-03     106.717E-03    -51.9940E-03     87.2353E-03    -55.2037E-03     106.943E-03    -51.8772E-03     86.4391E-03
            1838     10.2550E-03     34.6536E-03    -24.1702E+06    -64.6663E+06     3.27618E+06     127.570E+03    -54.5192E-03     106.444E-03    -51.9252E-03     83.5298E-03    -54.8808E-03     106.481E-03    -51.7800E-03     82.8463E-03
            1839     9.40133E-03     34.5710E-03    -26.6311E+06    -79.2579E+06     1.63040E+06     138.222E+03    -54.2206E-03     106.063E-03    -51.8423E-03     78.8564E-03    -54.4895E-03     105.951E-03    -51.6806E-03     78.2761E-03
            1840     8.54752E-03     34.4932E-03    -29.4066E+06    -92.9272E+06     57.4422E+03     155.499E+03    -53.8613E-03     105.620E-03    -51.7588E-03     73.5434E-03    -54.0582E-03     105.383E-03    -51.5811E-03     73.0565E-03
            1841     7.69352E-03     34.4211E-03    -32.5853E+06    -103.408E+06    -2.12463E+06     177.664E+03    -53.4577E-03     105.129E-03    -51.6708E-03     67.7442E-03    -53.6027E-03     104.797E-03    -51.4842E-03     67.3406E-03
            1842     6.83931E-03     34.3549E-03    -36.1752E+06    -114.185E+06    -5.79620E+06     193.843E+03    -53.0416E-03     104.623E-03    -51.5814E-03     61.4861E-03    -53.1454E-03     104.210E-03    -51.3923E-03     61.1559E-03
            1843     5.98491E-03     34.2953E-03    -40.1905E+06    -124.913E+06    -10.6780E+06     175.133E+03    -52.6286E-03     104.122E-03    -51.4937E-03     54.8223E-03    -52.7007E-03     103.639E-03    -51.3077E-03     54.5559E-03
            1844     5.13031E-03     34.2427E-03    -44.5752E+06    -135.216E+06    -17.6358E+06     163.321E+03    -52.2396E-03     103.644E-03    -51.4048E-03     47.7978E-03    -52.2865E-03     103.104E-03    -51.2323E-03     47.5869E-03
            1845     4.27553E-03     34.1974E-03    -49.1585E+06    -146.933E+06    -25.9672E+06     164.668E+03    -51.8951E-03     103.217E-03    -51.3218E-03     40.4435E-03    -51.9196E-03     102.621E-03    -51.1673E-03     40.2806E-03
            1846     3.42061E-03     34.1597E-03    -53.7376E+06    -156.333E+06    -35.5968E+06     103.947E+03    -51.5967E-03     102.837E-03    -51.2403E-03     32.8198E-03    -51.6048E-03     102.203E-03    -51.1137E-03     32.6975E-03
            1847     2.56556E-03     34.1300E-03    -58.0269E+06    -164.730E+06    -45.9378E+06     72.9409E+03    -51.3598E-03     102.525E-03    -51.1655E-03     24.9693E-03    -51.3540E-03     101.862E-03    -51.0722E-03     24.8824E-03
            1848     1.71043E-03     34.1084E-03    -61.6536E+06    -172.323E+06    -55.4106E+06     131.404E+03    -51.1929E-03     102.297E-03    -51.1045E-03     16.9791E-03    -51.1752E-03     101.610E-03    -51.0423E-03     16.9240E-03
            1849     855.228E-06     34.0951E-03    -64.0893E+06    -175.134E+06    -62.4084E+06     109.133E+03    -51.1072E-03     102.145E-03    -51.0377E-03     9.27278E-03    -51.0846E-03     101.454E-03    -51.0029E-03     9.24412E-03
            1850     16.2290E-03     34.2077E-03    -4.40715E+06     124.690E+06     82.8794E+06     41.1851E+03    -53.1036E-03     105.619E-03    -52.5156E-03     37.5680E-03    -53.9729E-03     106.675E-03    -52.2756E-03     36.8765E-03
            1851     15.3758E-03     34.1427E-03    -9.04161E+06     123.759E+06     74.3723E+06      91.165E+03    -53.5563E-03     105.975E-03    -52.4191E-03     71.4680E-03    -54.7983E-03     107.409E-03    -52.2135E-03     70.5406E-03
            1852     14.5226E-03     34.0646E-03    -13.3148E+06     116.790E+06     51.6290E+06     76.0783E+03    -54.2878E-03     106.540E-03    -52.2518E-03     88.9233E-03    -55.5920E-03     108.061E-03    -52.1436E-03     87.8718E-03
            1853     13.6694E-03     33.9642E-03    -16.4904E+06     79.8176E+06     22.1217E+06     97.0724E+03    -54.8388E-03     106.921E-03    -52.0823E-03     97.3066E-03    -56.0306E-03     108.274E-03    -52.0635E-03     96.1925E-03
            1854     12.8163E-03     33.8688E-03    -18.5553E+06     20.6618E+06     6.38919E+06     133.865E+03    -54.9326E-03     106.932E-03    -51.9994E-03     92.7971E-03    -55.8169E-03     107.805E-03    -51.9705E-03     91.7546E-03
            1855     11.9631E-03     33.7770E-03    -20.2555E+06    -20.5207E+06     4.65219E+06     135.354E+03    -54.9423E-03     106.891E-03    -51.9487E-03     89.6121E-03    -55.5867E-03     107.377E-03    -51.8663E-03     88.6952E-03
            1856     11.1098E-03     33.6875E-03    -22.1229E+06    -46.8309E+06     3.37817E+06     131.323E+03    -54.8316E-03     106.703E-03    -51.8712E-03     86.6980E-03    -55.3101E-03     106.927E-03    -51.7543E-03     85.9029E-03
            1857     10.2564E-03     33.6010E-03    -24.2377E+06    -64.6327E+06     3.26495E+06     139.436E+03    -54.5870E-03     106.370E-03    -51.7827E-03     82.9603E-03    -54.9464E-03     106.404E-03    -51.6375E-03     82.2787E-03
            1858     9.40286E-03     33.5187E-03    -26.6538E+06    -79.2309E+06     1.61862E+06     147.443E+03    -54.2458E-03     105.926E-03    -51.6804E-03     78.2657E-03    -54.5125E-03     105.812E-03    -51.5188E-03     77.6881E-03
            1859     8.54907E-03     33.4414E-03    -29.4042E+06    -92.9094E+06     30.2721E+03     166.251E+03    -53.8431E-03     105.421E-03    -51.5780E-03     72.9449E-03    -54.0381E-03     105.182E-03    -51.4005E-03     72.4610E-03
            1860     7.69505E-03     33.3696E-03    -32.5517E+06    -103.382E+06    -2.15618E+06     178.196E+03    -53.3966E-03     104.868E-03    -51.4719E-03     67.1515E-03    -53.5398E-03     104.535E-03    -51.2855E-03     66.7509E-03
            1861     6.84079E-03     33.3039E-03    -36.1243E+06    -114.154E+06    -5.82752E+06     194.087E+03    -52.9387E-03     104.304E-03    -51.3655E-03     60.9124E-03    -53.0410E-03     103.890E-03    -51.1767E-03     60.5850E-03
            1862     5.98630E-03     33.2447E-03    -40.1356E+06    -124.842E+06    -10.6933E+06     218.896E+03    -52.4867E-03     103.749E-03    -51.2621E-03     54.2833E-03    -52.5576E-03     103.265E-03    -51.0764E-03     54.0201E-03
            1863     5.13157E-03     33.1924E-03    -44.5140E+06    -135.152E+06    -17.6457E+06     215.043E+03    -52.0619E-03     103.221E-03    -51.1591E-03     47.3072E-03    -52.1079E-03     102.680E-03    -50.9868E-03     47.0993E-03
            1864     4.27664E-03     33.1474E-03    -49.0781E+06    -146.819E+06    -26.0296E+06     172.141E+03    -51.6848E-03     102.748E-03    -51.0633E-03     40.0133E-03    -51.7085E-03     102.152E-03    -50.9094E-03     39.8524E-03
            1865     3.42153E-03     33.1100E-03    -53.6727E+06    -156.216E+06    -35.6285E+06     135.841E+03    -51.3589E-03     102.331E-03    -50.9717E-03     32.4613E-03    -51.3664E-03     101.696E-03    -50.8455E-03     32.3409E-03
            1866     2.56627E-03     33.0805E-03    -58.0221E+06    -164.714E+06    -45.8646E+06     131.486E+03    -51.1013E-03     101.991E-03    -50.8895E-03     24.6911E-03    -51.0954E-03     101.327E-03    -50.7959E-03     24.6060E-03
            1867     1.71091E-03     33.0591E-03    -61.6742E+06    -172.325E+06    -55.3070E+06     182.169E+03    -50.9188E-03     101.741E-03    -50.8224E-03     16.7867E-03    -50.9013E-03     101.053E-03    -50.7596E-03     16.7330E-03
            1868     855.478E-06     33.0459E-03    -64.2269E+06    -174.752E+06    -62.5562E+06     287.696E+03    -50.8217E-03     101.572E-03    -50.7498E-03     9.16619E-03    -50.8000E-03     100.883E-03    -50.7161E-03     9.14026E-03
            1869     16.2293E-03     33.1531E-03    -4.43020E+06     124.620E+06     82.8554E+06     39.4791E+03    -53.4343E-03     105.933E-03    -52.4990E-03     37.4298E-03    -54.3020E-03     106.987E-03    -52.2589E-03     36.7300E-03
            1870     15.3764E-03     33.0883E-03    -9.02643E+06     123.724E+06     74.3068E+06     92.6834E+03    -53.8601E-03     106.243E-03    -52.3833E-03     71.2322E-03    -55.0986E-03     107.674E-03    -52.1781E-03     70.2958E-03
            1871     14.5234E-03     33.0104E-03    -13.2462E+06     116.799E+06     51.5190E+06     149.723E+03    -54.5642E-03     106.760E-03    -52.1960E-03     88.5856E-03    -55.8636E-03     108.278E-03    -52.0886E-03     87.5284E-03
            1872     13.6704E-03     32.9102E-03    -16.3798E+06     79.8885E+06     22.0360E+06     166.610E+03    -55.0800E-03     107.086E-03    -52.0060E-03     96.8867E-03    -56.2669E-03     108.434E-03    -51.9879E-03     95.7691E-03
            1873     12.8175E-03     32.8152E-03    -18.4209E+06     20.7481E+06     6.37576E+06     153.039E+03    -55.1371E-03     107.039E-03    -51.9024E-03     92.3111E-03    -56.0168E-03     107.909E-03    -51.8739E-03     91.2667E-03
            1874     11.9645E-03     32.7236E-03    -20.1544E+06    -20.4534E+06     4.66117E+06     152.280E+03    -55.1044E-03     106.935E-03    -51.8303E-03     89.0637E-03    -55.7448E-03     107.417E-03    -51.7481E-03     88.1469E-03
            1875     11.1114E-03     32.6345E-03    -22.0293E+06    -46.7756E+06     3.36578E+06     155.829E+03    -54.9495E-03     106.681E-03    -51.7311E-03     86.1022E-03    -55.4243E-03     106.901E-03    -51.6145E-03     85.3086E-03
            1876     10.2581E-03     32.5484E-03    -24.1693E+06    -64.5952E+06     3.22563E+06     153.671E+03    -54.6587E-03     106.280E-03    -51.6209E-03     82.3235E-03    -55.0148E-03     106.311E-03    -51.4761E-03     81.6444E-03
            1877     9.40458E-03     32.4666E-03    -26.6180E+06    -79.2008E+06     1.55873E+06     168.365E+03    -54.2697E-03     105.767E-03    -51.4972E-03     77.6005E-03    -54.5336E-03     105.651E-03    -51.3360E-03     77.0260E-03
            1878     8.55081E-03     32.3897E-03    -29.3871E+06    -92.8751E+06    -46.2285E+03     178.807E+03    -53.8189E-03     105.193E-03    -51.3739E-03     72.2683E-03    -54.0115E-03     104.952E-03    -51.1969E-03     71.7879E-03
            1879     7.69677E-03     32.3184E-03    -32.5621E+06    -103.350E+06    -2.24200E+06     189.416E+03    -53.3245E-03     104.572E-03    -51.2478E-03     66.4787E-03    -53.4659E-03     104.238E-03    -51.0620E-03     66.0816E-03
            1880     6.84245E-03     32.2531E-03    -36.1638E+06    -114.124E+06    -5.91196E+06     209.288E+03    -52.8207E-03     103.943E-03    -51.1227E-03     60.2593E-03    -52.9217E-03     103.528E-03    -50.9343E-03     59.9354E-03
            1881     5.98785E-03     32.1944E-03    -40.1791E+06    -124.836E+06    -10.7591E+06     253.384E+03    -52.3261E-03     103.328E-03    -51.0020E-03     53.6677E-03    -52.3961E-03     102.843E-03    -50.8165E-03     53.4079E-03
            1882     5.13298E-03     32.1425E-03    -44.5393E+06    -135.024E+06    -17.8082E+06     266.350E+03    -51.8618E-03     102.744E-03    -50.8824E-03     46.7446E-03    -51.9071E-03     102.204E-03    -50.7111E-03     46.5400E-03
            1883     4.27787E-03     32.0979E-03    -49.1020E+06    -146.671E+06    -26.2053E+06     203.004E+03    -51.4490E-03     102.222E-03    -50.7726E-03     39.5185E-03    -51.4723E-03     101.626E-03    -50.6197E-03     39.3602E-03
            1884     3.42256E-03     32.0609E-03    -53.6732E+06    -156.185E+06    -35.7082E+06     198.089E+03    -51.0923E-03     101.762E-03    -50.6698E-03     32.0478E-03    -51.0995E-03     101.128E-03    -50.5441E-03     31.9301E-03
            1885     2.56707E-03     32.0316E-03    -58.0044E+06    -164.637E+06    -45.9360E+06     242.538E+03    -50.8101E-03     101.388E-03    -50.5783E-03     24.3697E-03    -50.8040E-03     100.725E-03    -50.4851E-03     24.2874E-03
            1886     1.71145E-03     32.0104E-03    -61.7848E+06    -172.293E+06    -55.3243E+06     298.266E+03    -50.6107E-03     101.115E-03    -50.5046E-03     16.5640E-03    -50.5937E-03     100.428E-03    -50.4418E-03     16.5127E-03
            1887     855.749E-06     31.9974E-03    -64.3927E+06    -174.206E+06    -62.4623E+06     336.630E+03    -50.5009E-03     100.927E-03    -50.4262E-03     9.04323E-03    -50.4810E-03     100.241E-03    -50.3925E-03     9.01841E-03
            1888     16.2296E-03     32.0982E-03    -4.41893E+06     124.570E+06     82.7994E+06     54.4960E+03    -53.7833E-03     106.263E-03    -52.4800E-03     37.2672E-03    -54.6488E-03     107.315E-03    -52.2402E-03     36.5580E-03
            1889     15.3769E-03     32.0335E-03    -9.04346E+06     123.652E+06     74.2875E+06     99.6791E+03    -54.2047E-03     106.549E-03    -52.3440E-03     70.9198E-03    -55.4391E-03     107.975E-03    -52.1388E-03     69.9730E-03
            1890     14.5243E-03     31.9559E-03    -13.2647E+06     116.744E+06     51.5494E+06     165.429E+03    -54.8795E-03     107.014E-03    -52.1345E-03     88.1521E-03    -56.1739E-03     108.526E-03    -52.0268E-03     87.0873E-03
            1891     13.6716E-03     31.8560E-03    -16.3787E+06     80.0010E+06     22.0235E+06     208.172E+03    -55.3536E-03     107.274E-03    -51.9206E-03     96.3795E-03    -56.5354E-03     108.618E-03    -51.9028E-03     95.2574E-03
            1892     12.8189E-03     31.7614E-03    -18.4423E+06     20.8905E+06      6.2614E+06     188.534E+03    -55.3644E-03     107.157E-03    -51.7926E-03     91.7367E-03    -56.2397E-03     108.023E-03    -51.7648E-03     90.6905E-03
            1893     11.9661E-03     31.6702E-03    -20.1677E+06    -20.3983E+06     4.55372E+06     172.020E+03    -55.2835E-03     106.980E-03    -51.6966E-03     88.4255E-03    -55.9197E-03     107.459E-03    -51.6150E-03     87.5088E-03
            1894     11.1131E-03     31.5816E-03    -22.0422E+06    -46.7086E+06     3.26954E+06     182.109E+03    -55.0787E-03     106.652E-03    -51.5732E-03     85.4128E-03    -55.5498E-03     106.869E-03    -51.4571E-03     84.6211E-03
            1895     10.2600E-03     31.4960E-03    -24.1779E+06    -64.5577E+06     3.14066E+06     193.778E+03    -54.7365E-03     106.175E-03    -51.4390E-03     81.5896E-03    -55.0892E-03     106.204E-03    -51.2946E-03     80.9137E-03
            1896     9.40651E-03     31.4146E-03    -26.6217E+06    -79.1588E+06     1.47803E+06     206.672E+03    -54.2944E-03     105.586E-03    -51.2914E-03     76.8362E-03    -54.5553E-03     105.467E-03    -51.1306E-03     76.2656E-03
            1897     8.55276E-03     31.3383E-03    -29.3960E+06    -92.8277E+06    -129.469E+03     219.573E+03    -53.7898E-03     104.935E-03    -51.1449E-03     71.4925E-03    -53.9799E-03     104.691E-03    -50.9683E-03     71.0163E-03
            1898     7.69870E-03     31.2675E-03    -32.5813E+06    -103.320E+06    -2.32073E+06     237.325E+03    -53.2427E-03     104.239E-03    -50.9966E-03     65.7089E-03    -53.3821E-03     103.903E-03    -50.8112E-03     65.3162E-03
            1899     6.84431E-03     31.2028E-03    -36.2018E+06    -114.085E+06    -5.98684E+06     263.213E+03    -52.6888E-03     103.539E-03    -50.8504E-03     59.5139E-03    -52.7884E-03     103.123E-03    -50.6624E-03     59.1943E-03
            1900     5.98960E-03     31.1446E-03    -40.2492E+06    -124.834E+06    -10.8209E+06     299.993E+03    -52.1463E-03     102.857E-03    -50.7102E-03     52.9652E-03    -52.2154E-03     102.371E-03    -50.5249E-03     52.7093E-03
            1901     5.13458E-03     31.0932E-03    -44.6139E+06    -134.890E+06    -18.0004E+06     312.140E+03    -51.6370E-03     102.209E-03    -50.5719E-03     46.1040E-03    -51.6817E-03     101.669E-03    -50.4016E-03     45.9028E-03
            1902     4.27927E-03     31.0490E-03    -49.1775E+06    -146.524E+06    -26.3638E+06     291.275E+03    -51.1846E-03     101.631E-03    -50.4465E-03     38.9561E-03    -51.2077E-03     101.036E-03    -50.2945E-03     38.8014E-03
            1903     3.42372E-03     31.0124E-03    -53.8181E+06    -156.126E+06    -35.7395E+06     270.078E+03    -50.7940E-03     101.125E-03    -50.3311E-03     31.5789E-03    -50.8016E-03     100.491E-03    -50.2054E-03     31.4640E-03
            1904     2.56797E-03     30.9834E-03    -58.1452E+06    -164.598E+06    -46.0843E+06     318.299E+03    -50.4835E-03     100.712E-03    -50.2281E-03     24.0048E-03    -50.4777E-03     100.049E-03    -50.1355E-03     23.9250E-03
            1905     1.71206E-03     30.9625E-03    -61.7244E+06    -172.052E+06    -55.2760E+06     335.718E+03    -50.2631E-03     100.410E-03    -50.1469E-03     16.3140E-03    -50.2461E-03     99.7234E-03    -50.0843E-03     16.2642E-03
            1906     856.069E-06     30.9495E-03    -64.2111E+06    -173.698E+06    -62.2167E+06     105.634E+03    -50.1414E-03     100.205E-03    -50.0638E-03     8.90731E-03    -50.1216E-03     99.5213E-03    -50.0299E-03     8.88004E-03
            1907     16.2299E-03     31.0429E-03    -4.41519E+06     124.492E+06     82.7683E+06     76.0348E+03    -54.1977E-03     106.657E-03    -52.4591E-03     37.0805E-03    -55.0607E-03     107.706E-03    -52.2194E-03     36.3607E-03
            1908     15.3777E-03     30.9785E-03    -9.02624E+06     123.605E+06     74.2623E+06     139.055E+03    -54.5971E-03     106.896E-03    -52.2993E-03     70.5422E-03    -55.8265E-03     108.317E-03    -52.0941E-03     69.5840E-03
            1909     14.5254E-03     30.9012E-03    -13.2780E+06     116.685E+06     51.5452E+06     189.114E+03    -55.2308E-03     107.295E-03    -52.0646E-03     87.6353E-03    -56.5192E-03     108.801E-03    -51.9568E-03     86.5622E-03
            1910     13.6729E-03     30.8017E-03    -16.4089E+06     80.0938E+06     22.0046E+06     238.172E+03    -55.6573E-03     107.482E-03    -51.8243E-03     95.7745E-03    -56.8331E-03     108.820E-03    -51.8066E-03     94.6474E-03
            1911     12.8205E-03     30.7074E-03    -18.4444E+06     21.0704E+06     6.21013E+06     233.387E+03    -55.6160E-03     107.285E-03    -51.6692E-03     91.0583E-03    -56.4860E-03     108.147E-03    -51.6420E-03     90.0102E-03
            1912     11.9679E-03     30.6167E-03    -20.1830E+06    -20.3217E+06     4.48213E+06     206.381E+03    -55.4803E-03     107.027E-03    -51.5464E-03     87.6801E-03    -56.1118E-03     107.501E-03    -51.4653E-03     86.7639E-03
            1913     11.1151E-03     30.5286E-03    -22.0647E+06    -46.6504E+06     3.18097E+06     216.120E+03    -55.2194E-03     106.615E-03    -51.3960E-03     84.6163E-03    -55.6863E-03     106.829E-03    -51.2804E-03     83.8269E-03
            1914     10.2621E-03     30.4436E-03    -24.1992E+06    -64.5170E+06     3.04699E+06     233.310E+03    -54.8199E-03     106.055E-03    -51.2350E-03     80.7501E-03    -55.1688E-03     106.080E-03    -51.0911E-03     80.0777E-03
            1915     9.40868E-03     30.3628E-03    -26.6434E+06    -79.1106E+06     1.38575E+06     254.743E+03    -54.3191E-03     105.380E-03    -51.0610E-03     75.9670E-03    -54.5768E-03     105.258E-03    -50.9007E-03     75.4007E-03
            1916     8.55496E-03     30.2871E-03    -29.4208E+06    -92.7806E+06    -228.370E+03     277.022E+03    -53.7547E-03     104.643E-03    -50.8887E-03     70.6146E-03    -53.9420E-03     104.398E-03    -50.7127E-03     70.1433E-03
            1917     7.70087E-03     30.2170E-03    -32.6083E+06    -103.283E+06    -2.41743E+06     301.900E+03    -53.1494E-03     103.865E-03    -50.7158E-03     64.8445E-03    -53.2866E-03     103.527E-03    -50.5308E-03     64.4569E-03
            1918     6.84640E-03     30.1529E-03    -36.2279E+06    -114.049E+06    -6.07461E+06     341.135E+03    -52.5402E-03     103.086E-03    -50.5462E-03     58.6822E-03    -52.6380E-03     102.668E-03    -50.3587E-03     58.3677E-03
            1919     5.99156E-03     30.0953E-03    -40.2660E+06    -124.772E+06    -10.8773E+06     365.239E+03    -51.9446E-03     102.329E-03    -50.3844E-03     52.1851E-03    -52.0124E-03     101.843E-03    -50.1995E-03     51.9338E-03
            1920     5.13636E-03     30.0445E-03    -44.6372E+06    -134.786E+06    -18.0051E+06     371.431E+03    -51.3857E-03     101.612E-03    -50.2266E-03     45.3955E-03    -51.4298E-03     101.072E-03    -50.0565E-03     45.1983E-03
            1921     4.28083E-03     30.0008E-03    -49.2069E+06    -146.417E+06    -26.4043E+06     399.186E+03    -50.8896E-03     100.973E-03    -50.0837E-03     38.3362E-03    -50.9122E-03     100.378E-03    -49.9320E-03     38.1856E-03
            1922     3.42502E-03     29.9646E-03    -53.8765E+06    -156.001E+06    -35.7444E+06     434.793E+03    -50.4615E-03     100.415E-03    -49.9536E-03     31.0625E-03    -50.4691E-03     99.7813E-03    -49.8280E-03     30.9520E-03
            1923     2.56898E-03     29.9360E-03    -58.3883E+06    -164.490E+06    -46.0420E+06     443.284E+03    -50.1200E-03     99.9588E-03    -49.8388E-03     23.6046E-03    -50.1154E-03     99.2965E-03    -49.7459E-03     23.5280E-03
            1924     1.71276E-03     29.9153E-03    -62.2325E+06    -171.616E+06    -55.8057E+06     342.841E+03    -49.8735E-03     99.6192E-03    -49.7457E-03     16.0404E-03    -49.8588E-03     98.9362E-03    -49.6856E-03     15.9917E-03
            1925     856.403E-06     29.9025E-03    -64.8426E+06    -173.325E+06    -63.1724E+06     122.972E+03    -49.7375E-03     99.3932E-03    -49.6557E-03     8.75629E-03    -49.7200E-03     98.7135E-03    -49.6262E-03     8.72985E-03
            1926     16.2303E-03     29.9872E-03    -4.40421E+06     124.397E+06     82.7222E+06     84.3547E+03    -54.6763E-03     107.112E-03    -52.4358E-03     36.8423E-03    -55.5361E-03     108.158E-03    -52.1962E-03     36.1103E-03
            1927     15.3783E-03     29.9230E-03    -9.01364E+06     123.531E+06     74.2466E+06     171.905E+03    -55.0408E-03     107.290E-03    -52.2487E-03     70.0912E-03    -56.2643E-03     108.704E-03    -52.0436E-03     69.1201E-03
            1928     14.5264E-03     29.8461E-03    -13.2521E+06     116.641E+06     51.5649E+06     256.243E+03    -55.6245E-03     107.610E-03    -51.9857E-03     87.0275E-03    -56.9056E-03     109.109E-03    -51.8778E-03     85.9458E-03
            1929     13.6744E-03     29.7470E-03    -16.4088E+06     80.2124E+06     21.9712E+06     289.879E+03    -55.9940E-03     107.710E-03    -51.7156E-03     95.0692E-03    -57.1627E-03     109.041E-03    -51.6982E-03     93.9369E-03
            1930     12.8223E-03     29.6533E-03    -18.4739E+06     21.2592E+06     6.11913E+06     268.908E+03    -55.8929E-03     107.423E-03    -51.5305E-03     90.2761E-03    -56.7569E-03     108.280E-03    -51.5040E-03     89.2260E-03
            1931     11.9699E-03     29.5632E-03    -20.1932E+06    -20.2266E+06     4.39002E+06     252.373E+03    -55.6947E-03     107.073E-03    -51.3780E-03     86.8312E-03    -56.3208E-03     107.543E-03    -51.2975E-03     85.9158E-03
            1932     11.1173E-03     29.4757E-03    -22.0745E+06    -46.5895E+06     3.07011E+06     265.034E+03    -55.3704E-03     106.568E-03    -51.1979E-03     83.7176E-03    -55.8324E-03     106.778E-03    -51.0830E-03     82.9310E-03
            1933     10.2644E-03     29.3913E-03    -24.2166E+06    -64.4700E+06     2.93086E+06     286.875E+03    -54.9066E-03     105.914E-03    -51.0075E-03     79.8103E-03    -55.2512E-03     105.935E-03    -50.8642E-03     79.1421E-03
            1934     9.41109E-03     29.3113E-03    -26.6655E+06    -79.0661E+06     1.26514E+06     315.977E+03    -54.3409E-03     105.146E-03    -50.8046E-03     75.0010E-03    -54.5949E-03     105.020E-03    -50.6449E-03     74.4398E-03
            1935     8.55740E-03     29.2363E-03    -29.4413E+06    -92.7244E+06    -348.514E+03     344.056E+03    -53.7114E-03     104.316E-03    -50.6043E-03     69.6437E-03    -53.8957E-03     104.067E-03    -50.4289E-03     69.1780E-03
            1936     7.70327E-03     29.1669E-03    -32.6223E+06    -103.250E+06    -2.54074E+06     376.988E+03    -53.0419E-03     103.446E-03    -50.4045E-03     63.8934E-03    -53.1766E-03     103.106E-03    -50.2202E-03     63.5115E-03
            1937     6.84871E-03     29.1035E-03    -36.2287E+06    -114.000E+06    -6.19169E+06     420.620E+03    -52.3715E-03     102.581E-03    -50.2097E-03     57.7708E-03    -52.4673E-03     102.162E-03    -50.0228E-03     57.4618E-03
            1938     5.99372E-03     29.0466E-03    -40.2658E+06    -124.675E+06    -10.9576E+06     444.561E+03    -51.7188E-03     101.743E-03    -50.0246E-03     51.3310E-03    -51.7852E-03     101.256E-03    -49.8402E-03     51.0847E-03
            1939     5.13832E-03     28.9964E-03    -44.6516E+06    -134.690E+06    -18.0769E+06     460.763E+03    -51.1072E-03     100.953E-03    -49.8456E-03     44.6194E-03    -51.1503E-03     100.412E-03    -49.6759E-03     44.4269E-03
            1940     4.28255E-03     28.9533E-03    -49.2245E+06    -146.335E+06    -26.4481E+06     497.550E+03    -50.5632E-03     100.247E-03    -49.6839E-03     37.6578E-03    -50.5853E-03     99.6516E-03    -49.5326E-03     37.5115E-03
            1941     3.42645E-03     28.9175E-03    -53.8374E+06    -155.908E+06    -35.7423E+06     582.716E+03    -50.0940E-03     99.6321E-03    -49.5381E-03     30.4984E-03    -50.1011E-03     98.9983E-03    -49.4127E-03     30.3921E-03
            1942     2.57008E-03     28.8894E-03    -58.2244E+06    -164.202E+06    -45.9399E+06     630.041E+03    -49.7199E-03     99.1305E-03    -49.4106E-03     23.1670E-03    -49.7148E-03     98.4691E-03    -49.3178E-03     23.0946E-03
            1943     1.71351E-03     28.8689E-03    -62.0366E+06    -171.075E+06    -55.3825E+06     498.898E+03    -49.4493E-03     98.7582E-03    -49.3089E-03     15.7385E-03    -49.4349E-03     98.0769E-03    -49.2478E-03     15.6931E-03
            1944     856.801E-06     28.8563E-03    -64.7980E+06    -172.839E+06    -62.8394E+06     321.533E+03    -49.2972E-03     98.5081E-03    -49.2109E-03     8.59032E-03    -49.2807E-03     97.8302E-03    -49.1805E-03     8.56707E-03
            1945     16.2307E-03     28.9309E-03    -4.40142E+06     124.280E+06     82.6548E+06     98.1714E+03    -55.2151E-03     107.625E-03    -52.4096E-03     36.5487E-03    -56.0711E-03     108.667E-03    -52.1701E-03     35.8029E-03
            1946     15.3794E-03     28.8670E-03    -9.00174E+06     123.424E+06     74.2243E+06     204.765E+03    -55.5392E-03     107.731E-03    -52.1921E-03     69.5533E-03    -56.7555E-03     109.138E-03    -51.9868E-03     68.5679E-03
            1947     14.5278E-03     28.7906E-03    -13.2431E+06     116.568E+06     51.6120E+06     312.227E+03    -56.0627E-03     107.960E-03    -51.8974E-03     86.3205E-03    -57.3353E-03     109.450E-03    -51.7891E-03     85.2291E-03
            1948     13.6761E-03     28.6922E-03    -16.3824E+06     80.3759E+06     21.9751E+06     369.981E+03    -56.3649E-03     107.959E-03    -51.5941E-03     94.2561E-03    -57.5252E-03     109.283E-03    -51.5770E-03     93.1187E-03
            1949     12.8242E-03     28.5990E-03    -18.4464E+06     21.4867E+06     6.03015E+06     331.368E+03    -56.1938E-03     107.570E-03    -51.3758E-03     89.3840E-03    -57.0506E-03     108.420E-03    -51.3500E-03     88.3323E-03
            1950     11.9722E-03     28.5096E-03    -20.1909E+06    -20.1376E+06     4.28133E+06     304.837E+03    -55.9238E-03     107.115E-03    -51.1909E-03     85.8748E-03    -56.5436E-03     107.579E-03    -51.1110E-03     84.9605E-03
            1951     11.1198E-03     28.4229E-03    -22.0724E+06    -46.5148E+06     2.94436E+06     331.144E+03    -55.5278E-03     106.506E-03    -50.9785E-03     82.7183E-03    -55.9842E-03     106.711E-03    -50.8644E-03     81.9351E-03
            1952     10.2670E-03     28.3392E-03    -24.2121E+06    -64.4212E+06     2.79603E+06     356.756E+03    -54.9929E-03     105.749E-03    -50.7564E-03     78.7753E-03    -55.3327E-03     105.766E-03    -50.6139E-03     78.1120E-03
            1953     9.41375E-03     28.2600E-03    -26.6574E+06    -79.0163E+06     1.12526E+06     393.652E+03    -54.3564E-03     104.879E-03    -50.5225E-03     73.9446E-03    -54.6062E-03     104.750E-03    -50.3637E-03     73.3892E-03
            1954     8.56007E-03     28.1858E-03    -29.4344E+06    -92.6612E+06    -486.588E+03     429.895E+03    -53.6575E-03     103.950E-03    -50.2922E-03     68.5869E-03    -53.8384E-03     103.699E-03    -50.1176E-03     68.1273E-03
            1955     7.70591E-03     28.1173E-03    -32.6114E+06    -103.201E+06    -2.67808E+06     457.446E+03    -52.9192E-03     102.983E-03    -50.0638E-03     62.8594E-03    -53.0511E-03     102.641E-03    -49.8803E-03     62.4835E-03
            1956     6.85123E-03     28.0547E-03    -36.2007E+06    -113.947E+06    -6.34990E+06     503.590E+03    -52.1820E-03     102.024E-03    -49.8420E-03     56.7837E-03    -52.2755E-03     101.603E-03    -49.6560E-03     56.4806E-03
            1957     5.99608E-03     27.9985E-03    -40.2240E+06    -124.578E+06    -11.0886E+06     555.515E+03    -51.4683E-03     101.101E-03    -49.6322E-03     50.4095E-03    -51.5329E-03     100.612E-03    -49.4487E-03     50.1691E-03
            1958     5.14046E-03     27.9490E-03    -44.6053E+06    -134.569E+06    -18.1879E+06     580.915E+03    -50.8012E-03     100.232E-03    -49.4307E-03     43.7835E-03    -50.8430E-03     99.6904E-03    -49.2618E-03     43.5964E-03
            1959     4.28442E-03     27.9066E-03    -49.1804E+06    -146.230E+06    -26.5012E+06     617.038E+03    -50.2068E-03     99.4563E-03    -49.2495E-03     36.9284E-03    -50.2280E-03     98.8606E-03    -49.0986E-03     36.7867E-03
            1960     3.42801E-03     27.8714E-03    -53.7826E+06    -155.769E+06    -35.7108E+06     643.821E+03    -49.6940E-03     98.7812E-03    -49.0872E-03     29.8933E-03    -49.7006E-03     98.1475E-03    -48.9619E-03     29.7902E-03
            1961     2.57128E-03     27.8436E-03    -58.0589E+06    -163.900E+06    -45.8523E+06     644.746E+03    -49.2846E-03     98.2308E-03    -48.9462E-03     22.6982E-03    -49.2790E-03     97.5702E-03    -48.8536E-03     22.6278E-03
            1962     1.71433E-03     27.8235E-03    -61.7010E+06    -170.477E+06    -55.1288E+06     588.032E+03    -48.9886E-03     97.8236E-03    -48.8349E-03     15.4153E-03    -48.9737E-03     97.1443E-03    -48.7739E-03     15.3722E-03
            1963     857.205E-06     27.8111E-03    -64.3035E+06    -172.122E+06    -62.2853E+06     265.382E+03    -48.8227E-03     97.5531E-03    -48.7304E-03     8.41280E-03    -48.8055E-03     96.8773E-03    -48.6990E-03     8.38947E-03
            1964     16.2312E-03     27.8741E-03    -4.40262E+06     124.142E+06     82.5885E+06     112.787E+03    -55.8209E-03     108.201E-03    -52.3805E-03     36.1886E-03    -56.6723E-03     109.238E-03    -52.1412E-03     35.4275E-03
            1965     15.3802E-03     27.8106E-03    -9.00660E+06     123.294E+06     74.1834E+06     240.850E+03    -56.0916E-03     108.220E-03    -52.1289E-03     68.9196E-03    -57.2995E-03     109.619E-03    -51.9237E-03     67.9184E-03
            1966     14.5292E-03     27.7348E-03    -13.2441E+06     116.469E+06     51.6299E+06     370.930E+03    -56.5439E-03     108.343E-03    -51.7991E-03     85.5071E-03    -57.8068E-03     109.823E-03    -51.6906E-03     84.4053E-03
            1967     13.6779E-03     27.6370E-03    -16.3931E+06     80.5475E+06     21.9395E+06     436.842E+03    -56.7672E-03     108.227E-03    -51.4595E-03     93.3342E-03    -57.9180E-03     109.542E-03    -51.4428E-03     92.1912E-03
            1968     12.8264E-03     27.5446E-03    -18.4515E+06     21.7554E+06     5.91340E+06     407.199E+03    -56.5145E-03     107.720E-03    -51.2051E-03     88.3869E-03    -57.3633E-03     108.563E-03    -51.1803E-03     87.3338E-03
            1969     11.9746E-03     27.4560E-03    -20.1828E+06    -20.0362E+06     4.14936E+06     377.788E+03    -56.1627E-03     107.148E-03    -50.9854E-03     84.8215E-03    -56.7755E-03     107.606E-03    -50.9064E-03     83.9090E-03
            1970     11.1224E-03     27.3700E-03    -22.0638E+06    -46.4387E+06     2.78785E+06     403.126E+03    -55.6877E-03     106.426E-03    -50.7387E-03     81.6297E-03    -56.1381E-03     106.626E-03    -50.6254E-03     80.8505E-03
            1971     10.2698E-03     27.2873E-03    -24.1937E+06    -64.3660E+06     2.63117E+06     440.159E+03    -55.0756E-03     105.559E-03    -50.4830E-03     77.6547E-03    -55.4101E-03     105.571E-03    -50.3415E-03     76.9969E-03
            1972     9.41664E-03     27.2089E-03    -26.6362E+06    -78.9709E+06     953.501E+03     490.508E+03    -54.3628E-03     104.579E-03    -50.2165E-03     72.8062E-03    -54.6080E-03     104.447E-03    -50.0586E-03     72.2572E-03
            1973     8.56297E-03     27.1357E-03    -29.4080E+06    -92.5825E+06    -652.161E+03     536.524E+03    -53.5895E-03     103.544E-03    -49.9548E-03     67.4551E-03    -53.7666E-03     103.290E-03    -49.7811E-03     67.0024E-03
            1974     7.70875E-03     27.0681E-03    -32.5860E+06    -103.121E+06    -2.81957E+06     560.035E+03    -52.7793E-03     102.476E-03    -49.6966E-03     61.7557E-03    -52.9081E-03     102.131E-03    -49.5139E-03     61.3866E-03
            1975     6.85396E-03     27.0064E-03    -36.1784E+06    -113.889E+06    -6.54767E+06     599.707E+03    -51.9721E-03     101.419E-03    -49.4465E-03     55.7344E-03    -52.0632E-03     100.996E-03    -49.2617E-03     55.4376E-03
            1976     5.99862E-03     26.9511E-03    -40.1705E+06    -124.505E+06    -11.3345E+06     671.055E+03    -51.1936E-03     100.404E-03    -49.2108E-03     49.4353E-03    -51.2560E-03     99.9151E-03    -49.0287E-03     49.2009E-03
            1977     5.14276E-03     26.9024E-03    -44.5244E+06    -134.438E+06    -18.3657E+06     746.265E+03    -50.4692E-03     99.4556E-03    -48.9864E-03     42.9000E-03    -50.5094E-03     98.9138E-03    -48.8188E-03     42.7190E-03
            1978     4.28642E-03     26.8607E-03    -49.1136E+06    -146.068E+06    -26.6001E+06     793.054E+03    -49.8237E-03     98.6088E-03    -48.7851E-03     36.1560E-03    -49.8439E-03     98.0133E-03    -48.6351E-03     36.0198E-03
            1979     3.42967E-03     26.8261E-03    -53.7831E+06    -155.470E+06    -35.7458E+06     761.346E+03    -49.2654E-03     97.8710E-03    -48.6056E-03     29.2522E-03    -49.2720E-03     97.2383E-03    -48.4809E-03     29.1532E-03
            1980     2.57257E-03     26.7989E-03    -58.2803E+06    -163.618E+06    -45.9499E+06     721.351E+03    -48.8191E-03     97.2696E-03    -48.4505E-03     22.2023E-03    -48.8147E-03     96.6107E-03    -48.3585E-03     22.1348E-03
            1981     1.71520E-03     26.7792E-03    -62.0556E+06    -169.786E+06    -55.7051E+06     607.688E+03    -48.4946E-03     96.8208E-03    -48.3261E-03     15.0728E-03    -48.4815E-03     96.1462E-03    -48.2685E-03     15.0313E-03
            1982     857.652E-06     26.7670E-03    -64.5170E+06    -171.400E+06    -62.9555E+06     274.010E+03    -48.3132E-03     96.5278E-03    -48.2146E-03     8.22296E-03    -48.2972E-03     95.8568E-03    -48.1873E-03     8.20041E-03
            1983     16.2317E-03     26.8166E-03    -4.40202E+06     123.981E+06     82.5145E+06     141.202E+03    -56.4919E-03     108.841E-03    -52.3487E-03     35.7581E-03    -57.3378E-03     109.872E-03    -52.1095E-03     34.9804E-03
            1984     15.3814E-03     26.7536E-03    -9.00619E+06     123.145E+06     74.1512E+06     282.826E+03    -56.6984E-03     108.758E-03    -52.0595E-03     68.1872E-03    -57.8967E-03     110.146E-03    -51.8542E-03     67.1688E-03
            1985     14.5308E-03     26.6785E-03    -13.2466E+06     116.351E+06     51.6548E+06     429.016E+03    -57.0654E-03     108.757E-03    -51.6914E-03     84.5843E-03    -58.3172E-03     110.225E-03    -51.5826E-03     83.4715E-03
            1986     13.6799E-03     26.5815E-03    -16.3868E+06     80.7283E+06     21.9007E+06     514.593E+03    -57.1954E-03     108.508E-03    -51.3125E-03     92.2961E-03    -58.3354E-03     109.813E-03    -51.2963E-03     91.1475E-03
            1987     12.8288E-03     26.4900E-03    -18.4460E+06     22.0455E+06     5.77004E+06     483.684E+03    -56.8483E-03     107.868E-03    -51.0195E-03     87.2794E-03    -57.6882E-03     108.704E-03    -50.9959E-03     86.2254E-03
            1988     11.9773E-03     26.4023E-03    -20.1740E+06    -19.9196E+06     3.98947E+06     455.945E+03    -56.4063E-03     107.169E-03    -50.7632E-03     83.6689E-03    -57.0115E-03     107.621E-03    -50.6851E-03     82.7587E-03
            1989     11.1253E-03     26.3173E-03    -22.0407E+06    -46.3553E+06     2.60166E+06     486.783E+03    -55.8454E-03     106.326E-03    -50.4805E-03     80.4513E-03    -56.2892E-03     106.519E-03    -50.3683E-03     79.6767E-03
            1990     10.2728E-03     26.2355E-03    -24.1659E+06    -64.3205E+06     2.42680E+06     537.429E+03    -55.1497E-03     105.340E-03    -50.1900E-03     76.4542E-03    -55.4785E-03     105.347E-03    -50.0496E-03     75.8025E-03
            1991     9.41973E-03     26.1582E-03    -26.5975E+06    -78.9220E+06     753.645E+03     605.336E+03    -54.3555E-03     104.245E-03    -49.8900E-03     71.5976E-03    -54.5959E-03     104.109E-03    -49.7332E-03     71.0558E-03
            1992     8.56606E-03     26.0860E-03    -29.3604E+06    -92.4976E+06    -842.313E+03     661.977E+03    -53.5034E-03     103.100E-03    -49.5962E-03     66.2629E-03    -53.6765E-03     102.843E-03    -49.4238E-03     65.8177E-03
            1993     7.71176E-03     26.0194E-03    -32.5319E+06    -103.011E+06    -2.97294E+06     694.037E+03    -52.6190E-03     101.927E-03    -49.3080E-03     60.6001E-03    -52.7447E-03     101.580E-03    -49.1263E-03     60.2384E-03
            1994     6.85683E-03     25.9588E-03    -36.1265E+06    -113.813E+06    -6.70356E+06     734.487E+03    -51.7423E-03     100.772E-03    -49.0298E-03     54.6372E-03    -51.8307E-03     100.348E-03    -48.8459E-03     54.3475E-03
            1995     6.00129E-03     25.9044E-03    -40.1381E+06    -124.449E+06    -11.6272E+06     821.404E+03    -50.8975E-03     99.6652E-03    -48.7677E-03     48.4208E-03    -50.9578E-03     99.1749E-03    -48.5872E-03     48.1933E-03
            1996     5.14517E-03     25.8566E-03    -44.4863E+06    -134.354E+06    -18.7155E+06     954.702E+03    -50.1147E-03     98.6346E-03    -48.5199E-03     41.9855E-03    -50.1531E-03     98.0924E-03    -48.3542E-03     41.8113E-03
            1997     4.28852E-03     25.8157E-03    -49.0673E+06    -145.825E+06    -26.8542E+06     1.04845E+06    -49.4188E-03     97.7172E-03    -48.2985E-03     35.3567E-03    -49.4379E-03     97.1224E-03    -48.1501E-03     35.2272E-03
            1998     3.43141E-03     25.7818E-03    -53.7734E+06    -155.046E+06    -35.8739E+06     1.01326E+06    -48.8162E-03     96.9180E-03    -48.1018E-03     28.5876E-03    -48.8227E-03     96.2872E-03    -47.9784E-03     28.4946E-03
            1999     2.57391E-03     25.7552E-03    -58.1815E+06    -163.118E+06    -45.8455E+06      825.49E+03    -48.3335E-03     96.2669E-03    -47.9334E-03     21.6883E-03    -48.3292E-03     95.6099E-03    -47.8417E-03     21.6241E-03
            2000     1.71612E-03     25.7359E-03    -61.8147E+06    -169.138E+06    -55.3243E+06     598.829E+03    -47.9816E-03     95.7808E-03    -47.7992E-03     14.7200E-03    -47.9686E-03     95.1084E-03    -47.7410E-03     14.6796E-03
            2001     858.112E-06     25.7239E-03    -64.3203E+06    -170.612E+06    -62.5559E+06     446.104E+03    -47.7842E-03     95.4627E-03    -47.6785E-03     8.02850E-03    -47.7688E-03     94.7948E-03    -47.6507E-03     8.00889E-03
            2002     16.2322E-03     25.7583E-03    -4.38538E+06     123.795E+06     82.4241E+06     168.900E+03    -57.2268E-03     109.541E-03    -52.3145E-03     35.2457E-03    -58.0663E-03     110.566E-03    -52.0755E-03     34.4500E-03
            2003     15.3824E-03     25.6960E-03    -8.97983E+06     122.979E+06     74.1264E+06     334.694E+03    -57.3576E-03     109.342E-03    -51.9844E-03     67.3356E-03    -58.5446E-03     110.719E-03    -51.7791E-03     66.2989E-03
            2004     14.5324E-03     25.6217E-03    -13.2258E+06     116.211E+06     51.6924E+06     504.153E+03    -57.6218E-03     109.197E-03    -51.5750E-03     83.5348E-03    -58.8609E-03     110.652E-03    -51.4658E-03     82.4106E-03
            2005     13.6821E-03     25.5257E-03    -16.3850E+06     80.9240E+06     21.8417E+06     598.546E+03    -57.6402E-03     108.794E-03    -51.1542E-03     91.1346E-03    -58.7681E-03     110.088E-03    -51.1386E-03     89.9809E-03
            2006     12.8314E-03     25.4351E-03    -18.4368E+06     22.3625E+06     5.59959E+06     567.005E+03    -57.1869E-03     108.008E-03    -50.8210E-03     86.0657E-03    -58.0169E-03     108.836E-03    -50.7987E-03     85.0113E-03
            2007     11.9801E-03     25.3485E-03    -20.1508E+06    -19.8001E+06     3.80396E+06      540.84E+03    -56.6466E-03     107.173E-03    -50.5268E-03     82.4308E-03    -57.2435E-03     107.617E-03    -50.4498E-03     81.5236E-03
            2008     11.1284E-03     25.2646E-03    -22.0156E+06    -46.2680E+06     2.38617E+06     584.630E+03    -55.9933E-03     106.201E-03    -50.2074E-03     79.2033E-03    -56.4301E-03     106.388E-03    -50.0965E-03     78.4340E-03
            2009     10.2760E-03     25.1840E-03    -24.1308E+06    -64.2867E+06     2.18691E+06     651.252E+03    -55.2082E-03     105.090E-03    -49.8819E-03     75.1959E-03    -55.5309E-03     105.093E-03    -49.7427E-03     74.5512E-03
            2010     9.42297E-03     25.1078E-03    -26.5564E+06    -78.8745E+06     514.283E+03     740.532E+03    -54.3280E-03     103.877E-03    -49.5485E-03     70.3431E-03    -54.5633E-03     103.736E-03    -49.3931E-03     69.8092E-03
            2011     8.56927E-03     25.0368E-03    -29.3119E+06    -92.3966E+06    -1.05073E+06     806.537E+03    -53.3957E-03     102.619E-03    -49.2235E-03     65.0357E-03    -53.5646E-03     102.359E-03    -49.0523E-03     64.5986E-03
            2012     7.71488E-03     24.9713E-03    -32.4626E+06    -102.888E+06    -3.15035E+06     838.167E+03    -52.4370E-03     101.343E-03    -48.9061E-03     59.4197E-03    -52.5593E-03     100.994E-03    -48.7256E-03     59.0660E-03
            2013     6.85980E-03     24.9118E-03    -36.0494E+06    -113.752E+06    -6.85428E+06     921.969E+03    -51.4924E-03     100.093E-03    -48.6009E-03     53.5214E-03    -51.5781E-03     99.6671E-03    -48.4180E-03     53.2397E-03
            2014     6.00404E-03     24.8585E-03    -40.0740E+06    -124.374E+06    -11.8192E+06     1.04645E+06    -50.5844E-03     98.8981E-03    -48.3138E-03     47.3921E-03    -50.6425E-03     98.4068E-03    -48.1344E-03     47.1723E-03
            2015     5.14764E-03     24.8117E-03    -44.4184E+06    -134.304E+06    -18.9723E+06     1.20024E+06    -49.7441E-03     97.7877E-03    -48.0436E-03     41.0652E-03    -49.7807E-03     97.2449E-03    -47.8794E-03     40.8984E-03
            2016     4.29067E-03     24.7717E-03    -48.9479E+06    -145.539E+06    -27.0840E+06     1.34680E+06    -49.0002E-03     96.8029E-03    -47.8026E-03     34.5549E-03    -49.0181E-03     96.2088E-03    -47.6560E-03     34.4328E-03
            2017     3.43319E-03     24.7386E-03    -53.4608E+06    -154.367E+06    -35.8126E+06     1.17674E+06    -48.3566E-03     95.9466E-03    -47.5900E-03     27.9216E-03    -48.3621E-03     95.3182E-03    -47.4677E-03     27.8334E-03
            2018     2.57528E-03     24.7125E-03    -57.7219E+06    -162.451E+06    -45.5178E+06     846.365E+03    -47.8393E-03     95.2485E-03    -47.4093E-03     21.1756E-03    -47.8338E-03     94.5935E-03    -47.3176E-03     21.1137E-03
            2019     1.71704E-03     24.6937E-03    -61.4749E+06    -168.531E+06    -54.9704E+06     649.397E+03    -47.4618E-03     94.7272E-03    -47.2655E-03     14.3672E-03    -47.4484E-03     94.0567E-03    -47.2068E-03     14.3288E-03
            2020     858.587E-06     24.6820E-03    -64.0549E+06    -169.745E+06    -62.1803E+06     388.905E+03    -47.2493E-03     94.3848E-03    -47.1355E-03     7.83586E-03    -47.2344E-03     93.7202E-03    -47.1074E-03     7.81621E-03
            2021     16.2329E-03     24.6993E-03    -4.36629E+06     123.575E+06     82.3236E+06     192.420E+03    -58.0206E-03     110.299E-03    -52.2782E-03     34.6396E-03    -58.8524E-03     111.315E-03    -52.0394E-03     33.8247E-03
            2022     15.3838E-03     24.6377E-03    -8.95106E+06     122.780E+06     74.0965E+06     388.847E+03    -58.0606E-03     109.965E-03    -51.9042E-03     66.3579E-03    -59.2346E-03     111.328E-03    -51.6988E-03     65.3022E-03
            2023     14.5344E-03     24.5644E-03    -13.1939E+06     116.045E+06     51.7358E+06     590.592E+03    -58.2014E-03     109.653E-03    -51.4511E-03     82.3551E-03    -59.4260E-03     111.092E-03    -51.3416E-03     81.2197E-03
            2024     13.6844E-03     24.4695E-03    -16.3512E+06     81.1366E+06     21.7824E+06     706.177E+03    -58.0896E-03     109.076E-03    -50.9868E-03     89.8529E-03    -59.2038E-03     110.357E-03    -50.9719E-03     88.6950E-03
            2025     12.8340E-03     24.3801E-03    -18.4193E+06     22.7134E+06     5.39422E+06     665.734E+03    -57.5181E-03     108.131E-03    -50.6125E-03     84.7566E-03    -58.3372E-03     108.949E-03    -50.5918E-03     83.7028E-03
            2026     11.9831E-03     24.2947E-03    -20.1388E+06    -19.6795E+06     3.57581E+06     635.759E+03    -56.8717E-03     107.152E-03    -50.2806E-03     81.1222E-03    -57.4597E-03     107.589E-03    -50.2050E-03     80.2189E-03
            2027     11.1315E-03     24.2120E-03    -21.9873E+06    -46.1902E+06     2.12649E+06     695.458E+03    -56.1201E-03     106.045E-03    -49.9252E-03     77.9039E-03    -56.5494E-03     106.226E-03    -49.8157E-03     77.1408E-03
            2028     10.2793E-03     24.1326E-03    -24.0920E+06    -64.2593E+06     1.90344E+06     784.115E+03    -55.2412E-03     104.807E-03    -49.5657E-03     73.9039E-03    -55.5576E-03     104.804E-03    -49.4281E-03     73.2669E-03
            2029     9.42627E-03     24.0578E-03    -26.5097E+06    -78.8492E+06     214.250E+03     904.705E+03    -54.2736E-03     103.474E-03    -49.2007E-03     69.0733E-03    -54.5035E-03     103.330E-03    -49.0468E-03     68.5480E-03
            2030     8.57253E-03     23.9880E-03    -29.2705E+06    -92.2617E+06    -1.31569E+06     989.646E+03    -53.2627E-03     102.109E-03    -48.8465E-03     63.8083E-03    -53.4275E-03     101.846E-03    -48.6768E-03     63.3802E-03
            2031     7.71803E-03     23.9239E-03    -32.4534E+06    -102.752E+06    -3.39504E+06     1.02084E+06    -52.2332E-03     100.735E-03    -48.5022E-03     58.2474E-03    -52.3523E-03     100.384E-03    -48.3231E-03     57.9023E-03
            2032     6.86277E-03     23.8655E-03    -36.0684E+06    -113.766E+06    -7.15183E+06     1.15835E+06    -51.2243E-03     99.3966E-03    -48.1723E-03     52.4199E-03    -51.3073E-03     98.9685E-03    -47.9908E-03     52.1470E-03
            2033     6.00678E-03     23.8134E-03    -40.1111E+06    -124.232E+06    -12.0361E+06     1.32559E+06    -50.2587E-03     98.1217E-03    -47.8630E-03     46.3805E-03    -50.3153E-03     97.6298E-03    -47.6849E-03     46.1694E-03
            2034     5.15009E-03     23.7677E-03    -44.4900E+06    -134.279E+06    -19.1931E+06     1.50174E+06    -49.3672E-03     96.9403E-03    -47.5732E-03     40.1609E-03    -49.4027E-03     96.3969E-03    -47.4099E-03     40.0023E-03
            2035     4.29278E-03     23.7286E-03    -48.9573E+06    -145.030E+06    -27.1503E+06     1.53692E+06    -48.5761E-03     95.8913E-03    -47.3152E-03     33.7790E-03    -48.5939E-03     95.2991E-03    -47.1696E-03     33.6629E-03
            2036     3.43493E-03     23.6963E-03    -53.3914E+06    -153.441E+06    -35.6421E+06     1.16693E+06    -47.8965E-03     94.9855E-03    -47.0890E-03     27.2814E-03    -47.9028E-03     94.3608E-03    -46.9673E-03     27.1958E-03
            2037     2.57661E-03     23.6709E-03    -57.7023E+06    -162.015E+06    -45.4913E+06     967.661E+03    -47.3528E-03     94.2494E-03    -46.8966E-03     20.6739E-03    -47.3476E-03     93.5962E-03    -46.8055E-03     20.6155E-03
            2038     1.71795E-03     23.6525E-03    -61.4915E+06    -167.636E+06    -55.1905E+06     864.113E+03    -46.9512E-03     93.6933E-03    -46.7421E-03     14.0210E-03    -46.9387E-03     93.0275E-03    -46.6859E-03     13.9867E-03
            2039     859.042E-06     23.6412E-03    -64.0733E+06    -168.869E+06    -62.3980E+06     342.029E+03    -46.7272E-03     93.3316E-03    -46.6044E-03     7.64690E-03    -46.7133E-03     92.6717E-03    -46.5786E-03     7.62734E-03
            2040     16.2334E-03     23.6394E-03    -4.35941E+06     123.317E+06     82.2096E+06     211.719E+03    -58.8642E-03     111.105E-03    -52.2404E-03     33.9316E-03    -59.6873E-03     112.112E-03    -52.0018E-03     33.0969E-03
            2041     15.3850E-03     23.5788E-03    -8.93108E+06     122.542E+06     74.0600E+06     442.965E+03    -58.7919E-03     110.612E-03    -51.8203E-03     65.2399E-03    -59.9511E-03     111.960E-03    -51.6147E-03     64.1651E-03
            2042     14.5362E-03     23.5066E-03    -13.1777E+06     115.838E+06     51.7651E+06     689.093E+03    -58.7865E-03     110.109E-03    -51.3221E-03     81.0365E-03    -59.9949E-03     111.531E-03    -51.2121E-03     79.8909E-03
            2043     13.6868E-03     23.4130E-03    -16.3524E+06     81.3635E+06     21.6834E+06     827.137E+03    -58.5268E-03     109.341E-03    -50.8139E-03     88.4587E-03    -59.6259E-03     110.608E-03    -50.7997E-03     87.2980E-03
            2044     12.8368E-03     23.3250E-03    -18.4038E+06     23.1055E+06     5.15794E+06     776.652E+03    -57.8268E-03     108.226E-03    -50.3991E-03     83.3709E-03    -58.6342E-03     109.035E-03    -50.3801E-03     82.3191E-03
            2045     11.9861E-03     23.2409E-03    -20.0998E+06    -19.5670E+06     3.31091E+06     745.729E+03    -57.0664E-03     107.097E-03    -50.0309E-03     79.7696E-03    -57.6449E-03     107.525E-03    -49.9568E-03     78.8713E-03
            2046     11.1347E-03     23.1596E-03    -21.9453E+06    -46.1212E+06     1.81740E+06     826.481E+03    -56.2108E-03     105.853E-03    -49.6417E-03     76.5891E-03    -56.6325E-03     106.027E-03    -49.5339E-03     75.8333E-03
            2047     10.2825E-03     23.0816E-03    -24.0433E+06    -64.2481E+06     1.57015E+06     940.876E+03    -55.2398E-03     104.491E-03    -49.2513E-03     72.6186E-03    -55.5496E-03     104.483E-03    -49.1155E-03     71.9901E-03
            2048     9.42953E-03     23.0081E-03    -26.4461E+06    -78.8525E+06    -143.566E+03     1.09615E+06    -54.1903E-03     103.048E-03    -48.8579E-03     67.8209E-03    -54.4147E-03     102.899E-03    -48.7059E-03     67.3050E-03
            2049     8.57572E-03     22.9398E-03    -29.1912E+06    -92.1271E+06    -1.66104E+06     1.22519E+06    -53.1058E-03     101.584E-03    -48.4777E-03     62.6052E-03    -53.2662E-03     101.318E-03    -48.3101E-03     62.1869E-03
            2050     7.72108E-03     22.8770E-03    -32.4018E+06    -102.622E+06    -3.66778E+06     1.31783E+06    -52.0112E-03     100.122E-03    -48.1104E-03     57.0998E-03    -52.1269E-03     99.7686E-03    -47.9329E-03     56.7648E-03
            2051     6.86563E-03     22.8200E-03    -36.0887E+06    -113.796E+06    -7.50515E+06     1.49036E+06    -50.9449E-03     98.7043E-03    -47.7594E-03     51.3440E-03    -51.0253E-03     98.2744E-03    -47.5795E-03     51.0811E-03
            2052     6.00939E-03     22.7691E-03    -40.1874E+06    -124.058E+06    -12.4403E+06     1.68902E+06    -49.9291E-03     97.3599E-03    -47.4308E-03     45.3971E-03    -49.9841E-03     96.8679E-03    -47.2549E-03     45.1957E-03
            2053     5.15242E-03     22.7245E-03    -44.5764E+06    -134.163E+06    -19.4696E+06     1.84745E+06    -48.9949E-03     96.1201E-03    -47.1253E-03     39.2805E-03    -49.0295E-03     95.5767E-03    -46.9634E-03     39.1305E-03
            2054     4.29478E-03     22.6864E-03    -49.0875E+06    -144.182E+06    -27.6636E+06     1.73325E+06    -48.1632E-03     95.0145E-03    -46.8512E-03     33.0231E-03    -48.1814E-03     94.4268E-03    -46.7093E-03     32.9130E-03
            2055     3.43655E-03     22.6550E-03    -53.6166E+06    -152.455E+06    -36.3115E+06     1.27932E+06    -47.4535E-03     94.0667E-03    -46.6132E-03     26.6563E-03    -47.4609E-03     93.4478E-03    -46.4960E-03     26.5749E-03
            2056     2.57787E-03     22.6303E-03    -57.9556E+06    -161.728E+06    -45.6540E+06     1.06340E+06    -46.8912E-03     93.3066E-03    -46.4154E-03     20.1843E-03    -46.8872E-03     92.6551E-03    -46.3251E-03     20.1290E-03
            2057     1.71880E-03     22.6125E-03    -61.5439E+06    -166.524E+06    -55.1831E+06     910.902E+03    -46.4711E-03     92.7241E-03    -46.2530E-03     13.6841E-03    -46.4604E-03     92.0638E-03    -46.1982E-03     13.6516E-03
            2058     859.469E-06     22.6015E-03    -63.7745E+06    -167.883E+06    -62.3019E+06     409.335E+03    -46.2393E-03     92.3480E-03    -46.1088E-03     7.46050E-03    -46.2254E-03     91.6924E-03    -46.0844E-03     7.44249E-03
            2059     16.2341E-03     22.5786E-03    -4.35272E+06     123.030E+06     82.0879E+06     237.135E+03    -59.7419E-03     111.944E-03    -52.2022E-03     33.1184E-03    -60.5550E-03     112.940E-03    -51.9638E-03     32.2636E-03
            2060     15.3865E-03     22.5191E-03    -8.92522E+06     122.254E+06     74.0058E+06     497.730E+03    -59.5296E-03     111.264E-03    -51.7348E-03     63.9865E-03    -60.6720E-03     112.594E-03    -51.5291E-03     62.8932E-03
            2061     14.5382E-03     22.4483E-03    -13.1616E+06     115.587E+06     51.7903E+06     788.639E+03    -59.3531E-03     110.545E-03    -51.1918E-03     79.6017E-03    -60.5434E-03     111.949E-03    -51.0814E-03     78.4474E-03
            2062     13.6892E-03     22.3561E-03    -16.3055E+06     81.5998E+06     21.5711E+06     945.458E+03    -58.9321E-03     109.573E-03    -50.6409E-03     86.9834E-03    -60.0148E-03     110.825E-03    -50.6277E-03     85.8215E-03
            2063     12.8395E-03     22.2697E-03    -18.3483E+06     23.5093E+06     4.86481E+06     902.397E+03    -58.0950E-03     108.283E-03    -50.1878E-03     81.9439E-03    -58.8898E-03     109.082E-03    -50.1710E-03     80.8958E-03
            2064     11.9891E-03     22.1871E-03    -20.0584E+06    -19.4535E+06     3.00098E+06     883.119E+03    -57.2155E-03     107.002E-03    -49.7868E-03     78.4117E-03    -57.7844E-03     107.422E-03    -49.7145E-03     77.5200E-03
            2065     11.1378E-03     22.1073E-03    -21.8954E+06    -46.0671E+06     1.46928E+06     974.474E+03    -56.2596E-03     105.627E-03    -49.3679E-03     75.2901E-03    -56.6733E-03     105.796E-03    -49.2620E-03     74.5424E-03
            2066     10.2856E-03     22.0308E-03    -23.9692E+06    -64.2672E+06     1.20240E+06     1.12306E+06    -55.2045E-03     104.155E-03    -48.9508E-03     71.3578E-03    -55.5076E-03     104.142E-03    -48.8168E-03     70.7387E-03
            2067     9.43261E-03     21.9589E-03    -26.3493E+06    -78.8726E+06    -510.163E+03     1.31362E+06    -54.0829E-03     102.616E-03    -48.5331E-03     66.5945E-03    -54.3015E-03     102.463E-03    -48.3831E-03     66.0885E-03
            2068     8.57871E-03     21.8920E-03    -29.0791E+06    -92.0642E+06    -2.08039E+06     1.50998E+06    -52.9331E-03     101.064E-03    -48.1307E-03     61.4265E-03    -53.0886E-03     100.795E-03    -47.9654E-03     61.0188E-03
            2069     7.72392E-03     21.8306E-03    -32.2823E+06    -102.543E+06    -4.02549E+06     1.71173E+06    -51.7807E-03     99.5250E-03    -47.7443E-03     55.9750E-03    -51.8925E-03     99.1699E-03    -47.5689E-03     55.6515E-03
            2070     6.86827E-03     21.7751E-03    -35.9781E+06    -113.778E+06    -7.80938E+06     1.95026E+06    -50.6667E-03     98.0432E-03    -47.3765E-03     50.2843E-03    -50.7439E-03     97.6115E-03    -47.1984E-03     50.0330E-03
            2071     6.01179E-03     21.7255E-03    -40.0893E+06    -123.841E+06    -12.8378E+06     2.15358E+06    -49.6091E-03     96.6414E-03    -47.0323E-03     44.4244E-03    -49.6618E-03     96.1494E-03    -46.8588E-03     44.2339E-03
            2072     5.15454E-03     21.6821E-03    -44.4677E+06    -133.808E+06    -19.6702E+06     2.23012E+06    -48.6418E-03     95.3563E-03    -46.7145E-03     38.4051E-03    -48.6750E-03     94.8137E-03    -46.5544E-03     38.2642E-03
            2073     4.29660E-03     21.6451E-03    -48.9305E+06    -143.196E+06    -27.8498E+06     2.05695E+06    -47.7816E-03     94.2099E-03    -46.4284E-03     32.2579E-03    -47.7993E-03     93.6264E-03    -46.2890E-03     32.1552E-03
            2074     3.43805E-03     21.6146E-03    -53.4031E+06    -151.392E+06    -36.8462E+06     1.61089E+06    -47.0461E-03     93.2256E-03    -46.1795E-03     26.0201E-03    -47.0527E-03     92.6120E-03    -46.0668E-03     25.9455E-03
            2075     2.57898E-03     21.5907E-03    -57.6690E+06    -161.059E+06    -45.8111E+06     1.14814E+06    -46.4678E-03     92.4452E-03    -45.9774E-03     19.6889E-03    -46.4628E-03     91.7966E-03    -45.8893E-03     19.6366E-03
            2076     1.71956E-03     21.5734E-03    -61.2337E+06    -165.499E+06    -54.7543E+06     712.475E+03    -46.0366E-03     91.8488E-03    -45.8122E-03     13.3402E-03    -46.0264E-03     91.1925E-03    -45.7572E-03     13.3064E-03
            2077     859.855E-06     21.5627E-03    -63.5236E+06    -166.973E+06    -61.8719E+06     366.597E+03    -45.7995E-03     91.4602E-03    -45.6607E-03     7.26899E-03    -45.7863E-03     90.8081E-03    -45.6358E-03     7.25107E-03
            2078     16.2347E-03     21.5168E-03    -4.33417E+06     122.714E+06     81.9603E+06     276.634E+03    -60.6278E-03     112.793E-03    -52.1655E-03     32.1775E-03    -61.4294E-03     113.777E-03    -51.9273E-03     31.3036E-03
            2079     15.3877E-03     21.4586E-03    -8.90372E+06     121.942E+06     73.9807E+06     560.262E+03    -60.2457E-03     111.897E-03    -51.6514E-03     62.5816E-03    -61.3691E-03     113.207E-03    -51.4454E-03     61.4716E-03
            2080     14.5400E-03     21.3894E-03    -13.1413E+06     115.280E+06     51.7817E+06     877.438E+03    -59.8786E-03     110.944E-03    -51.0652E-03     78.0421E-03    -61.0489E-03     112.327E-03    -50.9544E-03     76.8812E-03
            2081     13.6915E-03     21.2990E-03    -16.3114E+06     81.8113E+06     21.3648E+06     1.08858E+06    -59.2808E-03     109.755E-03    -50.4745E-03     85.4218E-03    -60.3459E-03     110.991E-03    -50.4627E-03     84.2614E-03
            2082     12.8421E-03     21.2143E-03    -18.3784E+06     23.9384E+06     4.52069E+06     1.05163E+06    -58.3014E-03     108.289E-03    -49.9877E-03     80.4809E-03    -59.0834E-03     109.078E-03    -49.9732E-03     79.4386E-03
            2083     11.9918E-03     21.1334E-03    -20.0554E+06    -19.3442E+06     2.65469E+06     1.01461E+06    -57.3119E-03     106.871E-03    -49.5590E-03     77.0576E-03    -57.8709E-03     107.282E-03    -49.4886E-03     76.1734E-03
            2084     11.1406E-03     21.0552E-03    -21.8513E+06    -46.0411E+06     1.08641E+06     1.13199E+06    -56.2710E-03     105.386E-03    -49.1151E-03     74.0131E-03    -56.6767E-03     105.548E-03    -49.0112E-03     73.2743E-03
            2085     10.2885E-03     20.9803E-03    -23.9001E+06    -64.3231E+06     789.452E+03     1.31753E+06    -55.1472E-03     103.823E-03    -48.6756E-03     70.1219E-03    -55.4434E-03     103.804E-03    -48.5438E-03     69.5124E-03
            2086     9.43541E-03     20.9100E-03    -26.2553E+06    -78.9273E+06    -902.624E+03     1.55984E+06    -53.9654E-03     102.203E-03    -48.2378E-03     65.3811E-03    -54.1782E-03     102.045E-03    -48.0898E-03     64.8854E-03
            2087     8.58140E-03     20.8447E-03    -28.9412E+06    -92.0667E+06    -2.51114E+06     1.81476E+06    -52.7614E-03     100.578E-03    -47.8168E-03     60.2430E-03    -52.9118E-03     100.306E-03    -47.6538E-03     59.8460E-03
            2088     7.72646E-03     20.7849E-03    -32.0721E+06    -102.606E+06    -4.48813E+06     2.14221E+06    -51.5606E-03     98.9745E-03    -47.4139E-03     54.8300E-03    -51.6676E-03     98.6165E-03    -47.2411E-03     54.5184E-03
            2089     6.87062E-03     20.7308E-03    -35.7701E+06    -113.771E+06    -8.17162E+06     2.55952E+06    -50.4055E-03     97.4379E-03    -47.0324E-03     49.1928E-03    -50.4789E-03     97.0042E-03    -46.8564E-03     48.9549E-03
            2090     6.01392E-03     20.6826E-03    -39.9823E+06    -123.432E+06    -13.1268E+06     2.76662E+06    -49.3150E-03     95.9906E-03    -46.6757E-03     43.4083E-03    -49.3655E-03     95.4992E-03    -46.5043E-03     43.2306E-03
            2091     5.15642E-03     20.6405E-03    -44.3877E+06    -133.061E+06    -19.5683E+06     2.58764E+06    -48.3192E-03     94.6676E-03    -46.3484E-03     37.4867E-03    -48.3520E-03     94.1272E-03    -46.1890E-03     37.3545E-03
            2092     4.29821E-03     20.6046E-03    -48.7742E+06    -142.258E+06    -27.2998E+06     2.27462E+06    -47.4367E-03     93.4913E-03    -46.0546E-03     31.4498E-03    -47.4550E-03     92.9106E-03    -45.9141E-03     31.3532E-03
            2093     3.43935E-03     20.5750E-03    -53.2426E+06    -150.389E+06    -36.5054E+06     2.05080E+06    -46.6838E-03     92.4800E-03    -45.7962E-03     25.3355E-03    -46.6910E-03     91.8702E-03    -45.6835E-03     25.2691E-03
            2094     2.58000E-03     20.5518E-03    -57.7203E+06    -159.711E+06    -46.3755E+06     1.58048E+06    -46.0871E-03     91.6700E-03    -45.5829E-03     19.1492E-03    -46.0833E-03     91.0288E-03    -45.4995E-03     19.1043E-03
            2095     1.72023E-03     20.5351E-03    -61.5395E+06    -164.353E+06    -55.5975E+06     744.551E+03    -45.6445E-03     91.0571E-03    -45.4126E-03     12.9619E-03    -45.6361E-03     90.4080E-03    -45.3630E-03     12.9296E-03
            2096     860.191E-06     20.5249E-03    -63.9232E+06    -166.367E+06    -62.2442E+06     182.093E+03    -45.4058E-03     90.6630E-03    -45.2572E-03     7.05624E-03    -45.3948E-03     90.0150E-03    -45.2345E-03     7.03653E-03
            2097     16.2353E-03     20.4542E-03    -4.32293E+06     122.357E+06     81.8237E+06     308.316E+03    -61.4915E-03     113.625E-03    -52.1331E-03     31.1155E-03    -62.2800E-03     114.595E-03    -51.8951E-03     30.2241E-03
            2098     15.3891E-03     20.3975E-03    -8.87536E+06     121.602E+06     73.9611E+06     623.620E+03    -60.9145E-03     112.489E-03    -51.5746E-03     61.0328E-03    -62.0169E-03     113.777E-03    -51.3682E-03     59.9088E-03
            2099     14.5419E-03     20.3301E-03    -13.1400E+06     114.897E+06     51.7516E+06     1.01862E+06    -60.3344E-03     111.283E-03    -50.9489E-03     76.3853E-03    -61.4831E-03     112.643E-03    -50.8377E-03     75.2215E-03
            2100     13.6936E-03     20.2417E-03    -16.3471E+06     82.0114E+06     21.0829E+06     1.26105E+06    -59.5563E-03     109.879E-03    -50.3232E-03     83.8152E-03    -60.6027E-03     111.098E-03    -50.3130E-03     82.6594E-03
            2101     12.8445E-03     20.1588E-03    -18.3784E+06     24.4081E+06     4.09889E+06     1.19091E+06    -58.4464E-03     108.254E-03    -49.8081E-03     79.0086E-03    -59.2149E-03     109.033E-03    -49.7963E-03     77.9736E-03
            2102     11.9943E-03     20.0797E-03    -20.0377E+06    -19.2616E+06     2.24670E+06     1.15865E+06    -57.3669E-03     106.724E-03    -49.3570E-03     75.7125E-03    -57.9157E-03     107.127E-03    -49.2887E-03     74.8368E-03
            2103     11.1431E-03     20.0033E-03    -21.8337E+06    -46.0394E+06     634.144E+03     1.29739E+06    -56.2659E-03     105.158E-03    -48.8925E-03     72.7371E-03    -56.6635E-03     105.313E-03    -48.7909E-03     72.0074E-03
            2104     10.2909E-03     19.9301E-03    -23.8475E+06    -64.4342E+06     300.310E+03     1.52241E+06    -55.0942E-03     103.528E-03    -48.4337E-03     68.8547E-03    -55.3833E-03     103.503E-03    -48.3042E-03     68.2550E-03
            2105     9.43783E-03     19.8615E-03    -26.1759E+06    -79.0454E+06    -1.36254E+06     1.84103E+06    -53.8666E-03     101.844E-03    -47.9777E-03     64.1015E-03    -54.0732E-03     101.681E-03    -47.8319E-03     63.6164E-03
            2106     8.58375E-03     19.7979E-03    -28.8451E+06    -92.0638E+06    -2.96808E+06     2.13316E+06    -52.6202E-03     100.159E-03    -47.5391E-03     58.9593E-03    -52.7654E-03     99.8838E-03    -47.3786E-03     58.5732E-03
            2107     7.72870E-03     19.7396E-03    -31.9269E+06    -102.878E+06    -5.01856E+06     2.56497E+06    -51.3793E-03     98.4991E-03    -47.1198E-03     53.5499E-03    -51.4811E-03     98.1370E-03    -46.9495E-03     53.2500E-03
            2108     6.87269E-03     19.6870E-03    -35.4810E+06    -113.891E+06    -8.64218E+06     3.19984E+06    -50.1856E-03     96.9087E-03    -46.7231E-03     47.9425E-03    -50.2541E-03     96.4721E-03    -46.5498E-03     47.7186E-03
            2109     6.01580E-03     19.6403E-03    -39.4448E+06    -122.682E+06    -13.3170E+06     3.40328E+06    -49.0604E-03     95.4131E-03    -46.3526E-03     42.2206E-03    -49.1072E-03     94.9230E-03    -46.1842E-03     42.0562E-03
            2110     5.15809E-03     19.5995E-03    -43.7900E+06    -131.973E+06    -19.4061E+06     3.07366E+06    -48.0343E-03     94.0490E-03    -46.0147E-03     36.3930E-03    -48.0646E-03     93.5116E-03    -45.8569E-03     36.2713E-03
            2111     4.29963E-03     19.5647E-03    -48.5079E+06    -141.299E+06    -27.2256E+06     2.72922E+06    -47.1274E-03     92.8380E-03    -45.7106E-03     30.4754E-03    -47.1450E-03     92.2608E-03    -45.5715E-03     30.3881E-03
            2112     3.44054E-03     19.5361E-03    -53.2553E+06    -149.507E+06    -36.5598E+06     2.55610E+06    -46.3547E-03     91.7976E-03    -45.4429E-03     24.5068E-03    -46.3627E-03     91.1918E-03    -45.3317E-03     24.4495E-03
            2113     2.58089E-03     19.5138E-03    -57.5864E+06    -157.947E+06    -46.5473E+06     2.16703E+06    -45.7386E-03     90.9586E-03    -45.2200E-03     18.5000E-03    -45.7361E-03     90.3260E-03    -45.1402E-03     18.4645E-03
            2114     1.72085E-03     19.4976E-03    -61.2101E+06    -162.717E+06    -56.0934E+06     1.31224E+06    -45.2828E-03     90.3264E-03    -45.0436E-03     12.5100E-03    -45.2743E-03     89.6856E-03    -44.9994E-03     12.4863E-03
            2115     860.504E-06     19.4877E-03    -63.7852E+06    -165.510E+06    -62.8173E+06     647.949E+03    -45.0375E-03     89.9280E-03    -44.8905E-03     6.80590E-03    -45.0262E-03     89.2849E-03    -44.8721E-03     6.79283E-03
            2116     16.2357E-03     19.3906E-03    -4.29032E+06     121.978E+06     81.6994E+06     344.769E+03    -62.2950E-03     114.403E-03    -52.1084E-03     29.9046E-03    -63.0685E-03     115.358E-03    -51.8705E-03     28.9987E-03
            2117     15.3900E-03     19.3358E-03    -8.86939E+06     121.184E+06     73.9102E+06     713.563E+03    -61.5050E-03     113.015E-03    -51.5095E-03     59.3220E-03    -62.5839E-03     114.278E-03    -51.3028E-03     58.1881E-03
            2118     14.5433E-03     19.2704E-03    -13.1583E+06     114.418E+06     51.6684E+06     1.18638E+06    -60.7065E-03     111.556E-03    -50.8497E-03     74.6158E-03    -61.8319E-03     112.891E-03    -50.7382E-03     73.4530E-03
            2119     13.6954E-03     19.1841E-03    -16.3444E+06     82.2386E+06     20.7428E+06     1.46012E+06    -59.7599E-03     109.954E-03    -50.1945E-03     82.1254E-03    -60.7863E-03     111.155E-03    -50.1863E-03     80.9768E-03
            2120     12.8464E-03     19.1033E-03    -18.4144E+06     24.9118E+06     3.55272E+06     1.36946E+06    -58.5517E-03     108.208E-03    -49.6560E-03     77.4835E-03    -59.3060E-03     108.975E-03    -49.6476E-03     76.4574E-03
            2121     11.9963E-03     19.0262E-03    -20.0850E+06    -19.1952E+06     1.73804E+06     1.31050E+06    -57.4272E-03     106.613E-03    -49.1858E-03     74.3060E-03    -57.9654E-03     107.007E-03    -49.1202E-03     73.4388E-03
            2122     11.1452E-03     18.9515E-03    -21.8226E+06    -46.0673E+06     121.156E+03     1.46043E+06    -56.3037E-03     105.005E-03    -48.7013E-03     71.3321E-03    -56.6923E-03     105.152E-03    -48.6022E-03     70.6110E-03
            2123     10.2930E-03     18.8801E-03    -23.7939E+06    -64.6162E+06    -254.353E+03     1.74077E+06    -55.1078E-03     103.329E-03    -48.2209E-03     67.3630E-03    -55.3884E-03     103.296E-03    -48.0939E-03     66.7730E-03
            2124     9.43994E-03     18.8132E-03    -26.0769E+06    -79.2565E+06    -1.89487E+06     2.14965E+06    -53.8485E-03     101.590E-03    -47.7418E-03     62.5010E-03    -54.0473E-03     101.421E-03    -47.5985E-03     62.0271E-03
            2125     8.58584E-03     18.7513E-03    -28.7251E+06    -92.0506E+06    -3.48601E+06     2.53175E+06    -52.5625E-03     99.8412E-03    -47.2787E-03     57.2650E-03    -52.7010E-03     99.5612E-03    -47.1210E-03     56.8914E-03
            2126     7.73073E-03     18.6948E-03    -31.8592E+06    -103.331E+06    -5.61622E+06     3.08563E+06    -51.2763E-03     98.1115E-03    -46.8352E-03     51.7878E-03    -51.3719E-03     97.7435E-03    -46.6672E-03     51.5017E-03
            2127     6.87465E-03     18.6438E-03    -35.3105E+06    -113.862E+06    -9.37812E+06     3.65038E+06    -50.0281E-03     96.4409E-03    -46.4127E-03     46.1782E-03    -50.0913E-03     96.0017E-03    -46.2433E-03     45.9669E-03
            2128     6.01763E-03     18.5985E-03    -38.9415E+06    -121.886E+06    -13.9698E+06     3.81091E+06    -48.8470E-03     94.8656E-03    -46.0186E-03     40.5122E-03    -48.8889E-03     94.3771E-03    -45.8552E-03     40.3591E-03
            2129     5.15974E-03     18.5590E-03    -43.1270E+06    -131.023E+06    -19.9366E+06     3.88988E+06    -47.7723E-03     93.4329E-03    -45.6606E-03     34.7852E-03    -47.7979E-03     92.8981E-03    -45.5077E-03     34.6792E-03
            2130     4.30108E-03     18.5255E-03    -47.9196E+06    -139.977E+06    -27.6812E+06     3.68856E+06    -46.8208E-03     92.1596E-03    -45.3388E-03     29.0293E-03    -46.8354E-03     91.5875E-03    -45.2048E-03     28.9586E-03
            2131     3.44172E-03     18.4979E-03    -52.6765E+06    -148.286E+06    -36.8827E+06     3.19229E+06    -46.0115E-03     91.0687E-03    -45.0573E-03     23.2741E-03    -46.0170E-03     90.4679E-03    -44.9503E-03     23.2283E-03
            2132     2.58182E-03     18.4764E-03    -56.8797E+06    -156.181E+06    -46.8564E+06     2.73072E+06    -45.3646E-03     90.1871E-03    -44.8225E-03     17.5275E-03    -45.3602E-03     89.5623E-03    -44.7479E-03     17.5017E-03
            2133     1.72146E-03     18.4609E-03    -60.3509E+06    -160.729E+06    -55.8052E+06     2.22497E+06    -44.8895E-03     89.5313E-03    -44.6418E-03     11.8306E-03    -44.8798E-03     88.8986E-03    -44.6002E-03     11.8202E-03
            2134     860.798E-06     18.4514E-03    -62.7243E+06    -163.285E+06    -61.5952E+06     1.48388E+06    -44.6297E-03     89.1251E-03    -44.4953E-03     6.42464E-03    -44.6181E-03     88.4897E-03    -44.4756E-03     6.42328E-03
            2135     16.2360E-03     18.3261E-03    -4.28801E+06     121.516E+06     81.5156E+06     391.467E+03    -63.0373E-03     115.131E-03    -52.0937E-03     28.4997E-03    -63.7937E-03     116.067E-03    -51.8561E-03     27.5827E-03
            2136     15.3910E-03     18.2735E-03    -8.85647E+06     120.701E+06     73.9346E+06     858.476E+03    -61.9869E-03     113.447E-03    -51.4602E-03     57.3792E-03    -63.0400E-03     114.683E-03    -51.2527E-03     56.2404E-03
            2137     14.5445E-03     18.2104E-03    -13.1919E+06     113.873E+06     51.6437E+06     1.40283E+06    -60.9800E-03     111.753E-03    -50.7731E-03     72.7199E-03    -62.0806E-03     113.061E-03    -50.6608E-03     71.5615E-03
            2138     13.6968E-03     18.1264E-03    -16.4946E+06     82.4813E+06     20.3483E+06     1.70090E+06    -59.9261E-03     110.019E-03    -50.0933E-03     80.3663E-03    -60.9319E-03     111.201E-03    -50.0872E-03     79.2264E-03
            2139     12.8479E-03     18.0478E-03    -18.5412E+06     25.4968E+06     2.99066E+06     1.52938E+06    -58.6991E-03     108.232E-03    -49.5328E-03     75.8542E-03    -59.4385E-03     108.987E-03    -49.5279E-03     74.8357E-03
            2140     11.9979E-03     17.9726E-03    -20.0949E+06    -19.1519E+06     1.21390E+06     1.42535E+06    -57.5971E-03     106.637E-03    -49.0400E-03     72.6896E-03    -58.1228E-03     107.020E-03    -48.9770E-03     71.8287E-03
            2141     11.1470E-03     17.8998E-03    -21.7589E+06    -46.1282E+06    -408.289E+03     1.60276E+06    -56.4963E-03     105.023E-03    -48.5264E-03     69.5663E-03    -56.8737E-03     105.160E-03    -48.4300E-03     68.8521E-03
            2142     10.2950E-03     17.8301E-03    -23.6363E+06    -64.9055E+06    -858.496E+03     1.95390E+06    -55.3019E-03     103.312E-03    -48.0105E-03     65.3450E-03    -55.5712E-03     103.270E-03    -47.8864E-03     64.7639E-03
            2143     9.44212E-03     17.7651E-03    -25.8215E+06    -79.5620E+06    -2.48724E+06     2.47463E+06    -54.0142E-03     101.505E-03    -47.4904E-03     60.2218E-03    -54.2021E-03     101.326E-03    -47.3501E-03     59.7595E-03
            2144     8.58817E-03     17.7050E-03    -28.3940E+06    -92.1653E+06    -4.11218E+06     3.02066E+06    -52.6683E-03     99.6502E-03    -46.9818E-03     54.7662E-03    -52.7969E-03     99.3627E-03    -46.8276E-03     54.4070E-03
            2145     7.73318E-03     17.6502E-03    -31.3718E+06    -103.761E+06    -6.19436E+06     3.66281E+06    -51.2981E-03     97.7900E-03    -46.4918E-03     49.1417E-03    -51.3837E-03     97.4138E-03    -46.3269E-03     48.8716E-03
            2146     6.87712E-03     17.6010E-03    -34.7158E+06    -113.477E+06    -9.95922E+06     4.12698E+06    -49.9488E-03     95.9702E-03    -46.0215E-03     43.4974E-03    -50.0037E-03     95.5280E-03    -45.8564E-03     43.3007E-03
            2147     6.02004E-03     17.5573E-03    -38.4498E+06    -121.295E+06    -14.6900E+06     4.31764E+06    -48.6629E-03     94.2450E-03    -45.5822E-03     37.8939E-03    -48.6983E-03     93.7560E-03    -45.4240E-03     37.7553E-03
            2148     5.16201E-03     17.5192E-03    -42.4535E+06    -130.434E+06    -20.7140E+06     4.66547E+06    -47.4862E-03     92.6696E-03    -45.1834E-03     32.3214E-03    -47.5054E-03     92.1352E-03    -45.0363E-03     32.2326E-03
            2149     4.30309E-03     17.4870E-03    -46.6886E+06    -138.316E+06    -28.0238E+06     4.71711E+06    -46.4436E-03     91.2702E-03    -44.8267E-03     26.8156E-03    -46.4521E-03     90.7032E-03    -44.6985E-03     26.7644E-03
            2150     3.44345E-03     17.4605E-03    -51.1235E+06    -146.349E+06    -36.6820E+06     4.09338E+06    -45.5614E-03     90.0794E-03    -44.5180E-03     21.3847E-03    -45.5611E-03     89.4845E-03    -44.4151E-03     21.3555E-03
            2151     2.58315E-03     17.4399E-03    -55.2481E+06    -154.378E+06    -45.7220E+06     3.45551E+06    -44.8572E-03     89.1219E-03    -44.2647E-03     16.0336E-03    -44.8483E-03     88.5014E-03    -44.1894E-03     16.0209E-03
            2152     1.72237E-03     17.4251E-03    -58.5265E+06    -158.273E+06    -53.6450E+06     2.88316E+06    -44.3397E-03     88.4094E-03    -44.0697E-03     10.7860E-03    -44.3272E-03     87.7829E-03    -44.0236E-03     10.7867E-03
            2153     861.289E-06     17.4159E-03    -60.6034E+06    -159.774E+06    -59.2740E+06     1.73567E+06    -44.0462E-03     87.9594E-03    -43.9133E-03     5.83978E-03    -44.0323E-03     87.3351E-03    -43.8901E-03     5.84308E-03
            2154     16.2361E-03     17.2609E-03    -4.29924E+06     120.994E+06     81.3175E+06     440.554E+03    -63.6639E-03     115.757E-03    -52.0928E-03     26.9157E-03    -64.4011E-03     116.673E-03    -51.8554E-03     25.9925E-03
            2155     15.3914E-03     17.2108E-03    -8.89847E+06     120.085E+06     73.8847E+06     965.451E+03    -62.3692E-03     113.801E-03    -51.4314E-03     55.3302E-03    -63.3939E-03     115.006E-03    -51.2232E-03     54.1908E-03
            2156     14.5452E-03     17.1502E-03    -13.2317E+06     113.235E+06     51.5335E+06     1.65898E+06    -61.2251E-03     111.947E-03    -50.7216E-03     70.7762E-03    -62.2992E-03     113.226E-03    -50.6090E-03     69.6239E-03
            2157     13.6977E-03     17.0686E-03    -16.4338E+06     82.7862E+06     19.8576E+06     1.96820E+06    -60.1863E-03     110.202E-03    -50.0162E-03     78.4574E-03    -61.1689E-03     111.363E-03    -50.0131E-03     77.3238E-03
            2158     12.8491E-03     16.9921E-03    -18.4190E+06     26.2164E+06     2.31736E+06     1.69694E+06    -59.0473E-03     108.472E-03    -49.4249E-03     73.9072E-03    -59.7688E-03     109.215E-03    -49.4246E-03     72.8918E-03
            2159     11.9994E-03     16.9188E-03    -19.9635E+06    -19.1160E+06     587.143E+03     1.52425E+06    -58.0380E-03     106.931E-03    -48.8933E-03     70.5654E-03    -58.5478E-03     107.301E-03    -48.8336E-03     69.7064E-03
            2160     11.1489E-03     16.8478E-03    -21.5486E+06    -46.2467E+06    -993.633E+03     1.73371E+06    -57.0008E-03     105.328E-03    -48.3271E-03     67.0677E-03    -57.3627E-03     105.452E-03    -48.2338E-03     66.3574E-03
            2161     10.2975E-03     16.7800E-03    -23.3337E+06    -65.2782E+06    -1.45025E+06     2.14813E+06    -55.8107E-03     103.557E-03    -47.7460E-03     62.3762E-03    -56.0645E-03     103.500E-03    -47.6248E-03     61.8023E-03
            2162     9.44504E-03     16.7169E-03    -25.3892E+06    -79.9928E+06    -3.05661E+06     2.77789E+06    -54.4601E-03     101.611E-03    -47.1506E-03     56.8327E-03    -54.6329E-03     101.418E-03    -47.0130E-03     56.3816E-03
            2163     8.59151E-03     16.6588E-03    -27.7307E+06    -92.4005E+06    -4.63984E+06     3.44457E+06    -52.9949E-03     99.5546E-03    -46.5597E-03     51.0575E-03    -53.1089E-03     99.2558E-03    -46.4088E-03     50.7133E-03
            2164     7.73681E-03     16.6060E-03    -30.4489E+06    -104.089E+06    -6.49667E+06     4.14265E+06    -51.4642E-03     97.4507E-03    -45.9864E-03     45.2469E-03    -51.5359E-03     97.0636E-03    -45.8238E-03     44.9938E-03
            2165     6.88092E-03     16.5586E-03    -33.6537E+06    -113.144E+06    -10.0917E+06     4.81542E+06    -49.9297E-03     95.3626E-03    -45.4329E-03     39.5804E-03    -49.9729E-03     94.9140E-03    -45.2705E-03     39.4039E-03
            2166     6.02384E-03     16.5167E-03    -37.3353E+06    -120.565E+06    -14.6749E+06     5.12427E+06    -48.4517E-03     93.3672E-03    -44.9155E-03     34.1092E-03    -48.4775E-03     92.8751E-03    -44.7599E-03     33.9920E-03
            2167     5.16562E-03     16.4804E-03    -41.1977E+06    -129.740E+06    -20.6070E+06     5.24118E+06    -47.0899E-03     91.5364E-03    -44.4466E-03     28.8141E-03    -47.1003E-03     90.9998E-03    -44.3017E-03     28.7428E-03
            2168     4.30638E-03     16.4496E-03    -44.8687E+06    -136.735E+06    -28.0205E+06     5.29153E+06    -45.8797E-03     89.9069E-03    -44.0272E-03     23.7190E-03    -45.8789E-03     89.3427E-03    -43.9040E-03     23.6838E-03
            2169     3.44623E-03     16.4244E-03    -48.4868E+06    -144.023E+06    -35.3432E+06     4.96194E+06    -44.8660E-03     88.5406E-03    -43.6745E-03     18.7925E-03    -44.8563E-03     87.9499E-03    -43.5721E-03     18.7814E-03
            2170     2.58536E-03     16.4047E-03    -52.3598E+06    -152.074E+06    -42.3302E+06     4.24925E+06    -44.0660E-03     87.4585E-03    -43.3925E-03     14.0206E-03    -44.0501E-03     86.8396E-03    -43.3077E-03     14.0234E-03
            2171     1.72392E-03     16.3906E-03    -55.9144E+06    -155.054E+06    -50.4403E+06     3.25204E+06    -43.4714E-03     86.6379E-03    -43.1665E-03     9.40787E-03    -43.4549E-03     86.0186E-03    -43.1128E-03     9.41683E-03
            2172     862.057E-06     16.3820E-03    -58.1933E+06    -155.814E+06    -56.9693E+06     1.82688E+06    -43.1255E-03     86.1160E-03    -42.9905E-03     5.09060E-03    -43.1086E-03     85.5045E-03    -42.9650E-03     5.09694E-03
            2173     16.2358E-03     16.1949E-03    -4.30988E+06     120.412E+06     81.1059E+06     536.250E+03    -64.1850E-03     116.291E-03    -52.1061E-03     25.0363E-03    -64.9007E-03     117.184E-03    -51.8689E-03     24.1109E-03
            2174     15.3915E-03     16.1477E-03    -8.94871E+06     119.385E+06     73.9433E+06     1.14999E+06    -62.7239E-03     114.145E-03    -51.4215E-03     52.8728E-03    -63.7180E-03     115.317E-03    -51.2120E-03     51.7340E-03
            2175     14.5456E-03     16.0897E-03    -13.3348E+06     112.499E+06     51.7322E+06     1.88043E+06    -61.5923E-03     112.280E-03    -50.6879E-03     68.5130E-03    -62.6394E-03     113.529E-03    -50.5730E-03     67.3611E-03
            2176     13.6985E-03     16.0103E-03    -16.5596E+06     83.2105E+06     19.7382E+06     2.14836E+06    -60.7311E-03     110.675E-03    -49.9444E-03     76.1120E-03    -61.6902E-03     111.814E-03    -49.9423E-03     74.9748E-03
            2177     12.8504E-03     15.9359E-03    -18.4466E+06     27.0574E+06     1.93430E+06     1.78212E+06    -59.7990E-03     109.097E-03    -49.2979E-03     71.2879E-03    -60.5003E-03     109.823E-03    -49.3007E-03     70.2655E-03
            2178     12.0015E-03     15.8644E-03    -19.8259E+06    -19.0750E+06     188.651E+03     1.58975E+06    -58.9561E-03     107.648E-03    -48.6924E-03     67.4803E-03    -59.4459E-03     108.000E-03    -48.6350E-03     66.6157E-03
            2179     11.1518E-03     15.7952E-03    -21.2990E+06    -46.3983E+06    -1.36500E+06     1.81528E+06    -57.9925E-03     106.022E-03    -48.0298E-03     63.3043E-03    -58.3343E-03     106.128E-03    -47.9384E-03     62.5930E-03
            2180     10.3013E-03     15.7295E-03    -22.9319E+06    -65.6994E+06    -1.72019E+06     2.27832E+06    -56.7570E-03     104.091E-03    -47.3339E-03     57.8744E-03    -56.9903E-03     104.015E-03    -47.2140E-03     57.3061E-03
            2181     9.44977E-03     15.6684E-03    -24.7869E+06    -80.5124E+06    -3.28045E+06     2.97013E+06    -55.2479E-03     101.858E-03    -46.6103E-03     51.7327E-03    -55.4005E-03     101.647E-03    -46.4740E-03     51.2936E-03
            2182     8.59694E-03     15.6126E-03    -26.9323E+06    -92.7186E+06    -4.93885E+06     3.75006E+06    -53.5406E-03     99.4249E-03    -45.8842E-03     45.5601E-03    -53.6358E-03     99.1098E-03    -45.7354E-03     45.2334E-03
            2183     7.74274E-03     15.5621E-03    -29.5829E+06    -104.500E+06    -6.57342E+06     4.66784E+06    -51.7168E-03     96.8949E-03    -45.1781E-03     39.5875E-03    -51.7719E-03     96.4933E-03    -45.0166E-03     39.3568E-03
            2184     6.88708E-03     15.5171E-03    -32.7072E+06    -112.944E+06    -9.94294E+06     5.49097E+06    -49.8611E-03     94.3582E-03    -44.4971E-03     34.0211E-03    -49.8911E-03     93.9002E-03    -44.3356E-03     33.8695E-03
            2185     6.02994E-03     15.4773E-03    -36.1079E+06    -119.601E+06    -14.1434E+06     5.84255E+06    -48.0654E-03     91.9296E-03    -43.8642E-03     28.8775E-03    -48.0807E-03     91.4332E-03    -43.7091E-03     28.7851E-03
            2186     5.17141E-03     15.4430E-03    -39.7985E+06    -128.559E+06    -19.7571E+06     5.86208E+06    -46.4153E-03     89.7109E-03    -43.2956E-03     24.0948E-03    -46.4172E-03     89.1724E-03    -43.1503E-03     24.0452E-03
            2187     4.31157E-03     15.4140E-03    -43.6331E+06    -135.181E+06    -27.3323E+06     5.73760E+06    -44.9595E-03     87.7514E-03    -42.7919E-03     19.6601E-03    -44.9529E-03     87.1892E-03    -42.6693E-03     19.6421E-03
            2188     3.45062E-03     15.3902E-03    -47.2604E+06    -141.757E+06    -34.9582E+06     5.48836E+06    -43.7521E-03     86.1238E-03    -42.3717E-03     15.4808E-03    -43.7383E-03     85.5403E-03    -42.2724E-03     15.4856E-03
            2189     2.58877E-03     15.3717E-03    -50.6362E+06    -149.067E+06    -41.4564E+06     4.79237E+06    -42.8151E-03     84.8582E-03    -42.0431E-03     11.4987E-03    -42.7952E-03     84.2494E-03    -41.9608E-03     11.5151E-03
            2190     1.72623E-03     15.3585E-03    -53.6752E+06    -151.304E+06    -48.3480E+06     3.47118E+06    -42.1340E-03     83.9236E-03    -41.7896E-03     7.69597E-03    -42.1143E-03     83.3163E-03    -41.7342E-03     7.71215E-03
            2191     863.248E-06     15.3503E-03    -55.7229E+06    -151.674E+06    -54.4104E+06     1.94032E+06    -41.7271E-03     83.3364E-03    -41.6093E-03     4.16607E-03    -41.7074E-03     82.7380E-03    -41.5806E-03     4.17623E-03
            2192     16.2355E-03     15.1283E-03    -4.32468E+06     119.739E+06     80.8728E+06     624.200E+03    -64.7412E-03     116.868E-03    -52.1270E-03     22.8271E-03    -65.4335E-03     117.736E-03    -51.8900E-03     21.8994E-03
            2193     15.3916E-03     15.0844E-03    -8.95164E+06     118.613E+06     74.0773E+06     1.32847E+06    -63.2487E-03     114.663E-03    -51.4141E-03     50.0421E-03    -64.2101E-03     115.799E-03    -51.2027E-03     48.8988E-03
            2194     14.5461E-03     15.0287E-03    -13.3152E+06     111.794E+06     52.1665E+06     2.07714E+06    -62.3513E-03     112.992E-03    -50.6403E-03     65.8445E-03    -63.3692E-03     114.208E-03    -50.5223E-03     64.6810E-03
            2195     13.6997E-03     14.9513E-03    -16.4192E+06     83.7968E+06     19.9712E+06     2.23350E+06    -61.8669E-03     111.693E-03    -49.8262E-03     72.9374E-03    -62.7968E-03     112.804E-03    -49.8240E-03     71.7807E-03
            2196     12.8527E-03     14.8787E-03    -18.1888E+06     28.0046E+06     1.85932E+06     1.80732E+06    -61.2476E-03     110.324E-03    -49.0764E-03     67.3467E-03    -61.9204E-03     111.026E-03    -49.0813E-03     66.3045E-03
            2197     12.0052E-03     14.8090E-03    -19.5072E+06    -19.0096E+06      56.407E+03     1.61809E+06    -60.5704E-03     108.908E-03    -48.3375E-03     62.6276E-03    -61.0309E-03     109.232E-03    -48.2813E-03     61.7504E-03
            2198     11.1571E-03     14.7417E-03    -20.8905E+06    -46.5480E+06    -1.51204E+06     1.89617E+06    -59.5779E-03     107.091E-03    -47.5129E-03     57.4578E-03    -59.8902E-03     107.168E-03    -47.4226E-03     56.7451E-03
            2199     10.3081E-03     14.6782E-03    -22.5070E+06    -66.1090E+06    -1.82255E+06     2.41040E+06    -58.1322E-03     104.769E-03    -46.6366E-03     51.1718E-03    -58.3375E-03     104.665E-03    -46.5172E-03     50.6131E-03
            2200     9.45782E-03     14.6197E-03    -24.3443E+06    -80.9293E+06    -3.21660E+06     3.05998E+06    -56.2770E-03     102.001E-03    -45.7243E-03     44.5049E-03    -56.4051E-03     101.765E-03    -45.5877E-03     44.0827E-03
            2201     8.60602E-03     14.5666E-03    -26.3688E+06    -93.2582E+06    -5.02461E+06     3.93069E+06    -54.1410E-03     98.9503E-03    -44.8093E-03     38.1585E-03    -54.2148E-03     98.6143E-03    -44.6609E-03     37.8542E-03
            2202     7.75241E-03     14.5190E-03    -28.7643E+06    -105.043E+06    -6.33083E+06     5.09011E+06    -51.8578E-03     95.7832E-03    -43.9254E-03     32.3247E-03    -51.8948E-03     95.3638E-03    -43.7630E-03     32.1210E-03
            2203     6.89690E-03     14.4768E-03    -31.5099E+06    -112.515E+06    -9.06154E+06      5.8524E+06    -49.5457E-03     92.6274E-03    -43.0817E-03     27.1603E-03    -49.5617E-03     92.1586E-03    -42.9182E-03     27.0343E-03
            2204     6.03946E-03     14.4398E-03    -34.4652E+06    -118.687E+06    -13.0352E+06     6.16048E+06    -47.3272E-03     89.6317E-03    -42.3045E-03     22.6184E-03    -47.3303E-03     89.1289E-03    -42.1476E-03     22.5488E-03
            2205     5.18020E-03     14.4079E-03    -37.8958E+06    -127.395E+06    -18.3003E+06     6.57148E+06    -45.3160E-03     86.9306E-03    -41.6146E-03     18.5606E-03    -45.3075E-03     86.3883E-03    -41.4664E-03     18.5362E-03
            2206     4.31933E-03     14.3810E-03    -41.8753E+06    -133.259E+06    -25.3848E+06     6.63066E+06    -43.5650E-03     84.5766E-03    -41.0116E-03     14.9431E-03    -43.5522E-03     84.0155E-03    -40.8846E-03     14.9499E-03
            2207     3.45710E-03     14.3590E-03    -45.8417E+06    -139.289E+06    -33.4142E+06     6.10077E+06    -42.1222E-03     82.6317E-03    -40.5094E-03     11.6466E-03    -42.1055E-03     82.0543E-03    -40.4081E-03     11.6697E-03
            2208     2.59375E-03     14.3419E-03    -49.1483E+06    -145.368E+06    -40.8019E+06     4.96104E+06    -41.0117E-03     81.1277E-03    -40.1160E-03     8.58073E-03    -40.9899E-03     80.5333E-03    -40.0380E-03     8.60700E-03
            2209     1.72962E-03     14.3296E-03    -51.4754E+06    -147.340E+06    -46.9893E+06     3.21305E+06    -40.2237E-03     80.0493E-03    -39.8256E-03     5.70675E-03    -40.2004E-03     79.4561E-03    -39.7723E-03     5.72460E-03
            2210     864.940E-06     14.3221E-03    -52.8231E+06    -147.785E+06    -51.6147E+06     1.76806E+06    -39.7541E-03     79.3871E-03    -39.6329E-03     3.07156E-03    -39.7296E-03     78.7997E-03    -39.6001E-03     3.08217E-03
            2211     16.2351E-03     14.0610E-03    -4.34739E+06     118.998E+06     80.5889E+06     709.873E+03    -65.5255E-03     117.667E-03    -52.1413E-03     20.2536E-03    -66.1926E-03     118.507E-03    -51.9046E-03     19.3182E-03
            2212     15.3918E-03     14.0205E-03    -8.94973E+06     117.810E+06     74.3708E+06     1.43248E+06    -64.2676E-03     115.648E-03    -51.3805E-03     46.7340E-03    -65.1945E-03     116.746E-03    -51.1665E-03     45.5710E-03
            2213     14.5473E-03     13.9666E-03    -13.1959E+06     111.130E+06     52.9849E+06     2.13112E+06    -63.9027E-03     114.430E-03    -50.5274E-03     62.5451E-03    -64.8886E-03     115.610E-03    -50.4045E-03     61.3458E-03
            2214     13.7026E-03     13.8908E-03    -16.2265E+06     84.5417E+06     20.5355E+06     2.23725E+06    -63.9618E-03     113.544E-03    -49.5822E-03     68.5750E-03    -64.8558E-03     114.621E-03    -49.5786E-03     67.3757E-03
            2215     12.8577E-03     13.8198E-03    -17.8890E+06     29.1405E+06     1.98230E+06     1.75879E+06    -63.6234E-03     112.278E-03    -48.6550E-03     61.7662E-03    -64.2586E-03     112.948E-03    -48.6614E-03     60.6891E-03
            2216     12.0125E-03     13.7520E-03    -19.0508E+06    -18.9506E+06     47.2012E+03     1.63872E+06    -62.9262E-03     110.632E-03    -47.7059E-03     55.8984E-03    -63.3475E-03     110.919E-03    -47.6506E-03     55.0041E-03
            2217     11.1666E-03     13.6869E-03    -20.4185E+06    -46.6772E+06    -1.54373E+06     2.04623E+06    -61.6193E-03     108.268E-03    -46.6492E-03     49.7487E-03    -61.8948E-03     108.311E-03    -46.5596E-03     49.0384E-03
            2218     10.3195E-03     13.6262E-03    -22.0737E+06    -66.4354E+06    -1.75588E+06     2.64023E+06    -59.6624E-03     105.198E-03    -45.5360E-03     42.8846E-03    -59.8359E-03     105.063E-03    -45.4164E-03     42.3428E-03
            2219     9.47068E-03     13.5710E-03    -24.0726E+06    -81.1027E+06    -2.90834E+06     3.26761E+06    -57.2154E-03     101.610E-03    -44.3942E-03     36.1023E-03    -57.3191E-03     101.349E-03    -44.2563E-03     35.7044E-03
            2220     8.61966E-03     13.5215E-03    -26.3240E+06    -93.8617E+06    -4.89153E+06     4.06930E+06    -54.4828E-03     97.7464E-03    -43.2636E-03     30.0021E-03    -54.5382E-03     97.3898E-03    -43.1138E-03     29.7243E-03
            2221     7.76627E-03     13.4775E-03    -28.5834E+06    -105.369E+06    -6.09280E+06     4.99507E+06    -51.6390E-03     93.8220E-03    -42.1830E-03     24.6667E-03    -51.6624E-03     93.3879E-03    -42.0192E-03     24.4862E-03
            2222     6.91047E-03     13.4389E-03    -30.8257E+06     -111.98E+06    -8.10944E+06     5.57676E+06    -48.8232E-03     89.9884E-03    -41.1652E-03     20.1404E-03    -48.8293E-03     89.5112E-03    -40.9987E-03     20.0327E-03
            2223     6.05228E-03     13.4052E-03    -33.5710E+06    -118.271E+06    -12.1017E+06     6.27595E+06    -46.1645E-03     86.3975E-03    -40.2331E-03     16.3251E-03    -46.1592E-03     85.8883E-03    -40.0734E-03     16.2758E-03
            2224     5.19191E-03     13.3763E-03    -36.7796E+06    -126.296E+06    -17.3390E+06     6.91452E+06    -43.7733E-03     83.1818E-03    -39.4085E-03     13.0788E-03    -43.7584E-03     82.6382E-03    -39.2588E-03     13.0744E-03
            2225     4.32961E-03     13.3520E-03    -39.8600E+06    -131.213E+06    -22.9764E+06     6.93232E+06    -41.7056E-03     80.4032E-03    -38.6976E-03     10.3209E-03    -41.6870E-03     79.8435E-03    -38.5644E-03     10.3440E-03
            2226     3.46565E-03     13.3321E-03    -42.8848E+06    -136.363E+06    -29.4460E+06     6.41135E+06    -40.0067E-03     78.1151E-03    -38.1084E-03     7.91841E-03    -39.9839E-03     77.5409E-03    -37.9957E-03     7.95498E-03
            2227     2.60042E-03     13.3166E-03    -45.8821E+06    -141.099E+06    -36.9848E+06     4.95144E+06    -38.6943E-03     76.3348E-03    -37.6405E-03     5.77866E-03    -38.6673E-03     75.7507E-03    -37.5543E-03     5.81162E-03
            2228     1.73414E-03     13.3054E-03    -48.4152E+06    -143.395E+06    -44.2357E+06     3.02163E+06    -37.7652E-03     75.0602E-03    -37.2950E-03     3.82309E-03    -37.7361E-03     74.4779E-03    -37.2380E-03     3.84292E-03
            2229     867.256E-06     13.2985E-03    -50.1004E+06    -144.398E+06    -49.0246E+06     1.52176E+06    -37.2262E-03     74.2842E-03    -37.0580E-03     2.04734E-03    -37.1967E-03     73.7059E-03    -37.0211E-03     2.05712E-03
            2230     16.2351E-03     12.9926E-03    -4.35794E+06     118.251E+06     80.3446E+06     739.521E+03    -66.8185E-03     118.948E-03    -52.1300E-03     17.5608E-03    -67.4612E-03     119.763E-03    -51.8934E-03     16.6041E-03
            2231     15.3931E-03     12.9553E-03    -8.87028E+06     117.019E+06     74.7643E+06     1.42329E+06    -66.1691E-03     117.451E-03    -51.2817E-03     43.2501E-03    -67.0634E-03     118.512E-03    -51.0647E-03     42.0401E-03
            2232     14.5505E-03     12.9024E-03    -13.0167E+06     110.516E+06     54.1830E+06     2.02006E+06    -66.5878E-03     116.876E-03    -50.2879E-03     58.8333E-03    -67.5423E-03     118.019E-03    -50.1584E-03     57.5647E-03
            2233     13.7085E-03     12.8277E-03    -15.7227E+06     85.4416E+06     21.6682E+06     1.99628E+06    -67.1482E-03     116.283E-03    -49.1344E-03     63.2671E-03    -68.0014E-03     117.321E-03    -49.1272E-03     61.9981E-03
            2234     12.8667E-03     12.7585E-03    -17.1123E+06     30.3366E+06     2.53008E+06     1.66960E+06    -66.7964E-03     114.749E-03    -47.9522E-03     55.0552E-03    -67.3869E-03     115.379E-03    -47.9587E-03     53.9323E-03
            2235     12.0244E-03     12.6929E-03    -18.3342E+06    -18.8487E+06     380.595E+03     1.78015E+06    -65.6725E-03     112.403E-03    -46.7305E-03     48.2095E-03    -66.0510E-03     112.649E-03    -46.6747E-03     47.2998E-03
            2236     11.1810E-03     12.6309E-03    -19.8081E+06    -46.7343E+06    -1.25442E+06     2.27887E+06    -63.6704E-03     109.071E-03    -45.4009E-03     41.4868E-03    -63.9093E-03     109.078E-03    -45.3106E-03     40.7845E-03
            2237     10.3356E-03     12.5740E-03    -21.5643E+06    -66.6997E+06    -1.43963E+06     2.95317E+06    -60.9282E-03     104.960E-03    -44.0314E-03     34.5395E-03    -61.0725E-03     104.795E-03    -43.9106E-03     34.0205E-03
            2238     9.48767E-03     12.5231E-03    -23.6833E+06    -81.1440E+06    -2.24731E+06     3.67037E+06    -57.7358E-03     100.395E-03    -42.6588E-03     28.0515E-03    -57.8187E-03     100.112E-03    -42.5180E-03     27.6834E-03
            2239     8.63696E-03     12.4780E-03    -25.9295E+06    -93.9426E+06    -4.02143E+06     4.19299E+06    -54.3512E-03     95.6737E-03    -41.3225E-03     22.4754E-03    -54.3919E-03     95.3009E-03    -41.1687E-03     22.2245E-03
            2240     7.78334E-03     12.4385E-03    -28.0699E+06    -105.169E+06    -5.21936E+06     4.53579E+06    -50.9487E-03     91.0076E-03    -40.0588E-03     17.8274E-03    -50.9616E-03     90.5629E-03    -39.8917E-03     17.6644E-03
            2241     6.92682E-03     12.4041E-03    -30.5018E+06    -111.899E+06    -6.93415E+06     5.15628E+06    -47.6656E-03     86.5476E-03    -38.8821E-03     14.0542E-03    -47.6656E-03     86.0624E-03    -38.7102E-03     13.9610E-03
            2242     6.06755E-03     12.3744E-03    -33.3251E+06    -118.209E+06    -10.5065E+06     6.10265E+06    -44.6131E-03     82.4228E-03    -37.8097E-03     11.0222E-03    -44.6050E-03     81.9072E-03    -37.6425E-03     10.9866E-03
            2243     5.20573E-03     12.3490E-03    -36.1352E+06    -124.845E+06    -15.4354E+06     6.48139E+06    -41.8726E-03     78.7317E-03    -36.8591E-03     8.60858E-03    -41.8570E-03     78.1892E-03    -36.7029E-03     8.61104E-03
            2244     4.34161E-03     12.3277E-03    -38.8493E+06    -129.203E+06    -20.7945E+06     6.13500E+06    -39.5043E-03     75.5456E-03    -36.0412E-03     6.67183E-03    -39.4853E-03     74.9899E-03    -35.9015E-03     6.69395E-03
            2245     3.47561E-03     12.3102E-03    -41.2022E+06    -133.415E+06    -27.2824E+06     5.43054E+06    -37.5546E-03     72.9160E-03    -35.3614E-03     5.06348E-03    -37.5300E-03     72.3502E-03    -35.2446E-03     5.09414E-03
            2246     2.60802E-03     12.2966E-03    -43.1166E+06    -137.176E+06    -34.0212E+06     4.25279E+06    -36.0445E-03     70.8704E-03    -34.8260E-03     3.69063E-03    -36.0132E-03     70.2972E-03    -34.7346E-03     3.71924E-03
            2247     1.73934E-03     12.2868E-03    -44.8912E+06    -139.829E+06    -40.2814E+06     2.83001E+06    -34.9778E-03     69.4138E-03    -34.4360E-03     2.45206E-03    -34.9419E-03     68.8383E-03    -34.3696E-03     2.47239E-03
            2248     869.856E-06     12.2808E-03    -46.3239E+06    -141.130E+06    -45.2049E+06     1.52325E+06    -34.3711E-03     68.5243E-03    -34.1532E-03     1.32419E-03    -34.3330E-03     67.9512E-03    -34.1074E-03     1.33555E-03
            2249     16.2357E-03     11.9226E-03    -4.28106E+06     117.526E+06     80.2201E+06     721.827E+03    -68.9485E-03     121.020E-03    -52.0716E-03     14.9907E-03    -69.5700E-03     121.811E-03    -51.8347E-03     13.9911E-03
            2250     15.3958E-03     11.8878E-03    -8.68576E+06     116.286E+06     75.2598E+06     1.34146E+06    -69.1993E-03     120.279E-03    -51.0793E-03     39.8254E-03    -70.0659E-03     121.309E-03    -50.8590E-03     38.5333E-03
            2251     14.5563E-03     11.8350E-03    -12.5300E+06     110.196E+06     55.6683E+06     1.58213E+06    -70.4255E-03     120.299E-03    -49.8732E-03     54.9159E-03    -71.3497E-03     121.408E-03    -49.7364E-03     53.5427E-03
            2252     13.7181E-03     11.7612E-03    -15.0594E+06     86.2027E+06     23.1811E+06     1.53017E+06    -71.1181E-03     119.561E-03    -48.4428E-03     57.3809E-03    -71.9282E-03     120.557E-03    -48.4301E-03     56.0246E-03
            2253     12.8798E-03     11.6943E-03    -16.6165E+06     31.3629E+06     3.35699E+06     1.67801E+06    -70.2177E-03     117.175E-03    -46.9569E-03     47.9125E-03    -70.7646E-03     117.765E-03    -46.9615E-03     46.7462E-03
            2254     12.0405E-03     11.6320E-03    -17.9814E+06    -18.4871E+06     1.06106E+06     1.97038E+06    -68.2050E-03     113.648E-03    -45.4433E-03     40.5321E-03    -68.5458E-03     113.857E-03    -45.3851E-03     39.6162E-03
            2255     11.1990E-03     11.5743E-03    -19.4195E+06    -46.6983E+06    -478.962E+03     2.40435E+06    -65.2246E-03     109.074E-03    -43.8490E-03     33.7358E-03    -65.4331E-03     109.050E-03    -43.7555E-03     33.0486E-03
            2256     10.3547E-03     11.5225E-03    -21.0293E+06    -67.0528E+06    -563.985E+03     3.20619E+06    -61.5835E-03     103.834E-03    -42.2501E-03     27.1563E-03    -61.7042E-03     103.644E-03    -42.1252E-03     26.6646E-03
            2257     9.50719E-03     11.4768E-03    -22.8849E+06    -80.9847E+06    -913.353E+03     3.87167E+06    -57.6318E-03     98.3158E-03    -40.6840E-03     21.3388E-03    -57.6980E-03     98.0165E-03    -40.5379E-03     20.9997E-03
            2258     8.65623E-03     11.4371E-03    -24.8373E+06    -93.3828E+06    -2.11548E+06     4.06294E+06    -53.6351E-03     92.8222E-03    -39.1871E-03     16.5773E-03    -53.6641E-03     92.4382E-03    -39.0263E-03     16.3489E-03
            2259     7.80183E-03     11.4027E-03    -27.2167E+06    -104.839E+06    -3.07594E+06     4.33942E+06    -49.7476E-03     87.5380E-03    -37.7904E-03     12.8148E-03    -49.7538E-03     87.0846E-03    -37.6143E-03     12.6694E-03
            2260     6.94413E-03     11.3731E-03    -30.0116E+06    -111.916E+06    -4.72657E+06     4.84081E+06    -46.0846E-03     82.5871E-03    -36.5026E-03     9.94154E-03    -46.0818E-03     82.0944E-03    -36.3204E-03     9.86011E-03
            2261     6.08333E-03     11.3479E-03    -32.8132E+06    -117.980E+06    -7.93059E+06     5.38054E+06    -42.7407E-03     78.0774E-03    -35.3368E-03     7.74894E-03    -42.7322E-03     77.5567E-03    -35.1578E-03     7.71576E-03
            2262     5.21974E-03     11.3264E-03    -35.6535E+06    -123.267E+06    -12.6455E+06     5.50903E+06    -39.7643E-03     74.0681E-03    -34.3038E-03     6.09705E-03    -39.7516E-03     73.5278E-03    -34.1366E-03     6.09529E-03
            2263     4.35368E-03     11.3085E-03    -38.3635E+06    -126.909E+06    -19.1013E+06     4.78373E+06    -37.1967E-03     70.6060E-03    -33.4093E-03     4.81294E-03    -37.1805E-03     70.0582E-03    -33.2651E-03     4.82341E-03
            2264     3.48547E-03     11.2939E-03    -40.6388E+06    -130.889E+06    -26.5765E+06     3.70935E+06    -35.0803E-03     67.7452E-03    -32.6649E-03     3.73795E-03    -35.0574E-03     67.1901E-03    -32.5491E-03     3.75026E-03
            2265     2.61561E-03     11.2824E-03    -42.3909E+06    -134.348E+06    -33.2953E+06     2.67763E+06    -33.4320E-03     65.5128E-03    -32.0808E-03     2.79360E-03    -33.4021E-03     64.9516E-03    -31.9910E-03     2.80437E-03
            2266     1.74442E-03     11.2741E-03    -43.4911E+06    -137.167E+06    -38.9475E+06     1.69717E+06    -32.2626E-03     63.9193E-03    -31.6568E-03     1.89547E-03    -32.2254E-03     63.3532E-03    -31.5895E-03     1.90268E-03
            2267     872.444E-06     11.2690E-03    -43.9240E+06    -138.564E+06    -42.4332E+06     884.287E+03    -31.5980E-03     62.9456E-03    -31.3477E-03     1.03885E-03    -31.5556E-03     62.3779E-03    -31.2952E-03     1.04272E-03
            2268     16.2375E-03     10.8499E-03    -4.23746E+06     116.853E+06     80.2043E+06     560.916E+03    -72.1597E-03     124.108E-03    -51.9480E-03     12.9339E-03    -72.7652E-03     124.881E-03    -51.7103E-03     11.8639E-03
            2269     15.4008E-03     10.8168E-03    -8.26199E+06     115.742E+06     76.0150E+06     920.599E+03    -73.3579E-03     124.107E-03    -50.7487E-03     36.9137E-03    -74.2018E-03     125.112E-03    -50.5245E-03     35.5042E-03
            2270     14.5653E-03     10.7631E-03    -11.9283E+06     110.017E+06     56.9233E+06     1.05121E+06    -75.0110E-03     124.279E-03    -49.2680E-03     51.0958E-03    -75.9062E-03     125.358E-03    -49.1257E-03     49.5998E-03
            2271     13.7312E-03     10.6910E-03    -14.7331E+06     86.6708E+06     24.1680E+06     1.26026E+06    -75.1817E-03     122.708E-03    -47.5259E-03     51.4383E-03    -75.9499E-03     123.662E-03    -47.5093E-03     50.0029E-03
            2272     12.8963E-03     10.6277E-03    -16.4838E+06     32.2407E+06     4.18261E+06     1.69585E+06    -73.1970E-03     118.937E-03    -45.7396E-03     41.1233E-03    -73.7047E-03     119.489E-03    -45.7415E-03     39.9302E-03
            2273     12.0591E-03     10.5701E-03    -17.8843E+06    -17.8866E+06     2.00904E+06     2.12161E+06    -69.9898E-03     113.956E-03    -43.9664E-03     33.7377E-03    -70.2996E-03     114.134E-03    -43.9045E-03     32.8311E-03
            2274     11.2188E-03     10.5182E-03    -19.5422E+06    -46.5708E+06     590.978E+03     2.55556E+06    -65.9154E-03     108.077E-03    -42.1618E-03     27.3758E-03    -66.1023E-03     108.029E-03    -42.0630E-03     26.7152E-03
            2275     10.3748E-03     10.4725E-03    -21.2154E+06    -67.1615E+06     595.239E+03     3.05523E+06    -61.3774E-03     101.778E-03    -40.4011E-03     21.6328E-03    -61.4847E-03     101.571E-03    -40.2699E-03     21.1684E-03
            2276     9.52685E-03     10.4331E-03    -22.6455E+06    -80.5951E+06     809.100E+03     3.33476E+06    -56.7296E-03     95.4483E-03    -38.7188E-03     16.8631E-03    -56.7880E-03     95.1386E-03    -38.5650E-03     16.5443E-03
            2277     8.67485E-03     10.3993E-03    -24.5183E+06    -93.1495E+06     193.787E+03     3.85956E+06    -52.2257E-03     89.3717E-03    -37.1460E-03     13.2006E-03    -52.2515E-03     88.9797E-03    -36.9744E-03     12.9919E-03
            2278     7.81905E-03     10.3707E-03    -27.0936E+06    -104.228E+06    -85.7021E+03     4.20368E+06    -47.9962E-03     83.7007E-03    -35.7046E-03     10.4924E-03    -48.0044E-03     83.2434E-03    -35.5146E-03     10.3619E-03
            2279     6.95966E-03     10.3464E-03    -29.8498E+06    -111.536E+06    -1.56112E+06     4.14752E+06    -44.1202E-03     78.5138E-03    -34.3935E-03     8.57583E-03    -44.1208E-03     78.0171E-03    -34.1963E-03     8.49739E-03
            2280     6.09702E-03     10.3258E-03    -32.7837E+06    -117.650E+06    -5.81465E+06     4.45105E+06    -40.6669E-03     73.8816E-03    -33.2147E-03     7.16794E-03    -40.6616E-03     73.3592E-03    -33.0256E-03     7.13087E-03
            2281     5.23152E-03     10.3085E-03    -35.7372E+06    -121.473E+06    -11.3679E+06     4.17954E+06    -37.6519E-03     69.8282E-03    -32.1763E-03     6.11507E-03    -37.6442E-03     69.2954E-03    -32.0052E-03     6.10142E-03
            2282     4.36350E-03     10.2942E-03    -38.4037E+06    -124.650E+06    -17.9306E+06     3.07814E+06    -35.0861E-03     66.3696E-03    -31.2835E-03     5.23056E-03    -35.0753E-03     65.8318E-03    -31.1367E-03     5.22229E-03
            2283     3.49340E-03     10.2825E-03    -40.7514E+06    -128.800E+06    -25.7270E+06     1.92895E+06    -32.9823E-03     63.5202E-03    -30.5380E-03     4.35154E-03    -32.9643E-03     62.9748E-03    -30.4207E-03     4.34285E-03
            2284     2.62156E-03     10.2733E-03    -42.6806E+06    -132.585E+06    -32.9586E+06     894.024E+03    -31.3365E-03     61.2829E-03    -29.9464E-03     3.42304E-03    -31.3111E-03     60.7307E-03    -29.8571E-03     3.41193E-03
            2285     1.74847E-03     10.2667E-03    -44.1022E+06    -135.772E+06    -39.3316E+06     178.095E+03    -30.1477E-03     59.6564E-03    -29.5087E-03     2.39573E-03    -30.1149E-03     59.0989E-03    -29.4445E-03     2.38394E-03
            2286     874.467E-06     10.2626E-03    -44.9876E+06    -137.760E+06    -43.5023E+06    -153.542E+03    -29.4434E-03     58.6353E-03    -29.1919E-03     1.33508E-03    -29.4058E-03     58.0749E-03    -29.1444E-03     1.32582E-03
            2287     16.2404E-03     9.77356E-03    -3.94535E+06     116.409E+06     80.5496E+06     190.863E+03    -76.3122E-03     128.067E-03    -51.7552E-03     11.7889E-03    -76.9086E-03     128.830E-03    -51.5156E-03     10.6193E-03
            2288     15.4077E-03     9.74077E-03    -7.98207E+06     115.205E+06     76.6700E+06     355.952E+03    -78.2680E-03     128.567E-03    -50.2993E-03     34.9040E-03    -79.0982E-03     129.556E-03    -50.0715E-03     33.3530E-03
            2289     14.5768E-03     9.68662E-03    -11.8433E+06     109.605E+06     57.9863E+06     657.125E+03    -79.6564E-03     128.174E-03    -48.5174E-03     47.6998E-03    -80.5282E-03     129.225E-03    -48.3692E-03     46.0863E-03
            2290     13.7464E-03     9.61748E-03    -14.7083E+06     87.0345E+06     25.2826E+06     1.04139E+06    -78.5949E-03     125.073E-03    -46.4780E-03     45.9464E-03    -79.3255E-03     125.988E-03    -46.4565E-03     44.4572E-03
            2291     12.9139E-03     9.55954E-03    -16.3939E+06     33.0201E+06     5.08783E+06     1.59863E+06    -75.1357E-03     119.579E-03    -44.4430E-03     35.2971E-03    -75.6093E-03     120.098E-03    -44.4417E-03     34.1029E-03
            2292     12.0780E-03     9.50840E-03    -17.9501E+06    -17.6302E+06     2.99378E+06     2.41183E+06    -70.5972E-03     113.087E-03    -42.4896E-03     28.5230E-03    -70.8828E-03     113.239E-03    -42.4230E-03     27.6479E-03
            2293     11.2378E-03     9.46352E-03    -19.9777E+06    -46.1833E+06     2.07669E+06     3.00100E+06    -65.4408E-03     106.013E-03    -40.5719E-03     23.1689E-03    -65.6155E-03     105.948E-03    -40.4656E-03     22.5506E-03
            2294     10.3930E-03     9.42496E-03    -22.0340E+06    -66.2336E+06     2.33503E+06     2.73694E+06    -60.0972E-03     98.8541E-03    -38.7569E-03     18.7395E-03    -60.2028E-03     98.6404E-03    -38.6172E-03     18.3060E-03
            2295     9.54357E-03     9.39250E-03    -24.0111E+06    -80.3657E+06     2.69450E+06     2.52643E+06    -54.9072E-03     91.9812E-03    -37.0740E-03     15.3431E-03    -54.9710E-03     91.6673E-03    -36.9092E-03     15.0423E-03
            2296     8.68977E-03     9.36530E-03    -25.8148E+06    -93.3263E+06     2.55505E+06     2.97323E+06    -50.0943E-03     85.6379E-03    -35.5436E-03     12.9746E-03    -50.1284E-03     85.2420E-03    -35.3580E-03     12.7757E-03
            2297     7.83192E-03     9.34258E-03    -27.6615E+06    -103.468E+06     3.23537E+06     3.22912E+06    -45.7528E-03     79.9291E-03    -34.1763E-03     11.3707E-03    -45.7699E-03     79.4716E-03    -33.9699E-03     11.2426E-03
            2298     6.97047E-03     9.32361E-03    -30.4327E+06    -111.109E+06     1.53446E+06     3.31479E+06    -41.9213E-03     74.8791E-03    -32.9578E-03     10.3094E-03    -41.9305E-03     74.3817E-03    -32.7449E-03     10.2301E-03
            2299     6.10584E-03     9.30771E-03    -33.5297E+06    -116.867E+06    -4.11457E+06     3.09903E+06    -38.6165E-03     70.4930E-03    -31.8765E-03     9.51222E-03    -38.6194E-03     69.9740E-03    -31.6790E-03     9.46403E-03
            2300     5.23848E-03     9.29448E-03    -36.0553E+06    -119.613E+06    -10.0933E+06     2.23310E+06    -35.8214E-03     66.7621E-03    -30.9407E-03     8.77956E-03    -35.8205E-03     66.2380E-03    -30.7654E-03     8.74474E-03
            2301     4.36887E-03     9.28347E-03    -38.4488E+06    -122.859E+06    -16.6637E+06     1.10038E+06    -33.5092E-03     63.6564E-03    -30.1472E-03     7.93317E-03    -33.5035E-03     63.1265E-03    -29.9967E-03     7.90178E-03
            2302     3.49736E-03     9.27457E-03    -40.8721E+06    -127.381E+06    -24.7814E+06     70.5677E+03    -31.6458E-03     61.1313E-03    -29.4856E-03     6.85275E-03    -31.6321E-03     60.5923E-03    -29.3655E-03     6.82157E-03
            2303     2.62441E-03     9.26761E-03    -43.2113E+06    -131.794E+06    -32.7379E+06    -619.303E+03    -30.1923E-03     59.1496E-03    -28.9574E-03     5.51786E-03    -30.1712E-03     58.6022E-03    -28.8673E-03     5.48821E-03
            2304     1.75028E-03     9.26257E-03    -45.3092E+06    -135.782E+06    -40.0854E+06    -841.247E+03    -29.1340E-03     57.6966E-03    -28.5627E-03     3.92171E-03    -29.1061E-03     57.1422E-03    -28.5005E-03     3.89741E-03
            2305     875.382E-06     9.25947E-03    -46.8040E+06    -138.500E+06    -45.1754E+06    -610.067E+03    -28.4892E-03     56.7759E-03    -28.2867E-03     2.20411E-03    -28.4571E-03     56.2170E-03    -28.2439E-03     2.18932E-03
            2306     16.2444E-03     8.69238E-03    -3.76480E+06     116.191E+06     81.1538E+06    -233.927E+03    -80.9619E-03     132.467E-03    -51.5049E-03     11.6369E-03    -81.5585E-03     133.227E-03    -51.2622E-03     10.3486E-03
            2307     15.4162E-03     8.65939E-03    -7.77421E+06     114.509E+06     77.3983E+06         448.823    -83.1391E-03     132.918E-03    -49.7786E-03     33.7330E-03    -83.9638E-03     133.897E-03    -49.5463E-03     32.0414E-03
            2308     14.5893E-03     8.60586E-03    -11.6283E+06     109.241E+06     59.7408E+06     158.416E+03    -83.5414E-03     131.262E-03    -47.7203E-03     44.6857E-03    -84.3924E-03     132.287E-03    -47.5631E-03     42.9799E-03
            2309     13.7618E-03     8.54187E-03    -14.4038E+06     87.0407E+06     27.7077E+06     663.463E+03    -80.6482E-03     126.102E-03    -45.4536E-03     41.2572E-03    -81.3439E-03     126.976E-03    -45.4204E-03     39.7539E-03
            2310     12.9304E-03     8.49127E-03    -16.7248E+06     32.9855E+06      6.7189E+06     2.05722E+06    -75.4871E-03     118.758E-03    -43.2713E-03     31.1671E-03    -75.9342E-03     119.245E-03    -43.2613E-03     30.0157E-03
            2311     12.0941E-03     8.44808E-03    -19.3614E+06    -17.5371E+06     4.37815E+06     3.23183E+06    -69.6412E-03     110.902E-03    -41.2606E-03     25.7589E-03    -69.9167E-03     111.035E-03    -41.1852E-03     24.9466E-03
            2312     11.2526E-03     8.41140E-03    -21.6417E+06    -44.9933E+06     4.28070E+06     3.05730E+06    -63.5502E-03     102.916E-03    -39.3660E-03     21.9933E-03    -63.7277E-03     102.846E-03    -39.2480E-03     21.4260E-03
            2313     10.4058E-03     8.38077E-03    -23.4510E+06    -64.7650E+06     5.09754E+06     2.25434E+06    -57.6364E-03     95.2757E-03    -37.6393E-03     19.2456E-03    -57.7509E-03     95.0631E-03    -37.4859E-03     18.8472E-03
            2314     9.55399E-03     8.35567E-03    -25.3600E+06    -79.9161E+06     5.78764E+06     1.66228E+06    -52.1996E-03     88.2979E-03    -36.0983E-03     17.4022E-03    -52.2745E-03     87.9830E-03    -35.9167E-03     17.1210E-03
            2315     8.69766E-03     8.33506E-03    -27.2559E+06    -92.9985E+06     5.93383E+06     1.20530E+06    -47.4006E-03     82.1477E-03    -34.7471E-03     16.3314E-03    -47.4482E-03     81.7517E-03    -34.5431E-03     16.1312E-03
            2316     7.83738E-03     8.31811E-03    -29.2358E+06    -103.563E+06     6.59551E+06     1.30280E+06    -43.2773E-03     76.8604E-03    -33.5831E-03     15.6596E-03    -43.3085E-03     76.4014E-03    -33.3575E-03     15.5211E-03
            2317     6.97373E-03     8.30409E-03    -31.4625E+06    -110.855E+06     3.95306E+06     1.68705E+06    -39.8184E-03     72.3916E-03    -32.5732E-03     15.1347E-03    -39.8382E-03     71.8950E-03    -32.3470E-03     15.0437E-03
            2318     6.10729E-03     8.29243E-03    -33.7836E+06    -115.295E+06    -2.35637E+06     955.340E+03    -36.9738E-03     68.6740E-03    -31.7002E-03     14.5419E-03    -36.9839E-03     68.1619E-03    -31.4958E-03     14.4722E-03
            2319     5.23859E-03     8.28263E-03    -35.9838E+06    -118.198E+06    -8.61858E+06    -397.728E+03    -34.6717E-03     65.6396E-03    -30.9679E-03     13.6909E-03    -34.6755E-03     65.1212E-03    -30.7874E-03     13.6263E-03
            2320     4.36805E-03     8.27449E-03    -38.1280E+06    -122.001E+06    -15.7688E+06    -1.22929E+06    -32.8452E-03     63.2050E-03    -30.3598E-03     12.4286E-03    -32.8409E-03     62.6781E-03    -30.2064E-03     12.3700E-03
            2321     3.49611E-03     8.26786E-03    -40.5994E+06    -127.016E+06    -24.1662E+06    -1.63402E+06    -31.4189E-03     61.2813E-03    -29.8624E-03     10.7164E-03    -31.4056E-03     60.7430E-03    -29.7402E-03     10.6654E-03
            2322     2.62304E-03     8.26270E-03    -43.2790E+06    -132.141E+06    -32.5935E+06    -1.70002E+06    -30.3354E-03     59.8074E-03    -29.4720E-03     8.58249E-03    -30.3145E-03     59.2582E-03    -29.3806E-03     8.54055E-03
            2323     1.74915E-03     8.25898E-03    -45.6798E+06    -136.881E+06    -40.4704E+06    -1.37497E+06    -29.5714E-03     58.7567E-03    -29.1853E-03     6.06811E-03    -29.5434E-03     58.1978E-03    -29.1230E-03     6.03808E-03
            2324     874.704E-06     8.25670E-03    -47.4087E+06    -140.048E+06    -45.7592E+06    -819.485E+03    -29.1169E-03     58.1151E-03    -28.9982E-03     3.39567E-03    -29.0849E-03     57.5501E-03    -28.9551E-03     3.37884E-03
            2325     16.2493E-03     7.60653E-03    -4.01113E+06     116.273E+06     81.8506E+06    -651.421E+03    -85.5311E-03     136.773E-03    -51.2417E-03     12.6959E-03    -86.1376E-03     137.541E-03    -50.9952E-03     11.2907E-03
            2326     15.4246E-03     7.57302E-03    -7.69524E+06     113.960E+06     78.2034E+06    -787.419E+03    -87.0230E-03     136.299E-03    -49.2755E-03     33.7648E-03    -87.8476E-03     137.274E-03    -49.0386E-03     31.9609E-03
            2327     14.6010E-03     7.52200E-03    -11.1366E+06     108.710E+06     60.5838E+06    -472.413E+03    -85.6995E-03     132.718E-03    -47.0184E-03     42.5896E-03    -86.5251E-03     133.715E-03    -46.8570E-03     40.8511E-03
            2328     13.7744E-03     7.46597E-03    -15.0528E+06     85.3881E+06     28.5944E+06     1.39069E+06    -80.6104E-03     125.262E-03    -44.6520E-03     38.3542E-03    -81.2725E-03     126.093E-03    -44.6110E-03     36.9152E-03
            2329     12.9420E-03     7.42457E-03    -19.1783E+06     31.9879E+06     8.43363E+06     3.84725E+06    -73.7667E-03     116.252E-03    -42.4853E-03     29.9043E-03    -74.2020E-03     116.710E-03    -42.4618E-03     28.8603E-03
            2330     12.1038E-03     7.39060E-03    -22.4866E+06    -16.0738E+06     6.93343E+06     4.05221E+06    -66.8321E-03     107.417E-03    -40.5849E-03     26.5965E-03    -67.1159E-03     107.545E-03    -40.4944E-03     25.8756E-03
            2331     11.2595E-03     7.36288E-03    -24.7526E+06    -42.7814E+06     7.48163E+06     2.34643E+06    -60.1649E-03     99.0453E-03    -38.8804E-03     24.8833E-03    -60.3607E-03     98.9808E-03    -38.7451E-03     24.3722E-03
            2332     10.4095E-03     7.34042E-03    -26.2334E+06    -63.1954E+06     8.67091E+06     652.876E+03    -54.1194E-03     91.5226E-03    -37.4033E-03     23.9749E-03    -54.2545E-03     91.3161E-03    -37.2302E-03     23.6039E-03
            2333     9.55454E-03     7.32252E-03    -27.2092E+06     -79.081E+06     10.0725E+06    -501.946E+03    -48.9116E-03     85.0636E-03    -36.1520E-03     23.5791E-03    -49.0045E-03     84.7507E-03    -35.9475E-03     23.3033E-03
            2334     8.69534E-03     7.30801E-03    -28.5103E+06    -92.6315E+06     10.8920E+06    -1.07065E+06    -44.6004E-03     79.7107E-03    -35.1103E-03     23.4235E-03    -44.6638E-03     79.3130E-03    -34.8802E-03     23.2162E-03
            2335     7.83268E-03     7.29614E-03    -30.4697E+06    -104.032E+06     10.3796E+06    -1.24818E+06    -41.1288E-03     75.3800E-03    -34.2512E-03     23.1473E-03    -41.1726E-03     74.9166E-03    -34.0043E-03     22.9906E-03
            2336     6.96729E-03     7.28624E-03    -32.2451E+06    -110.596E+06     6.06243E+06    -1.58970E+06    -38.4059E-03     71.9365E-03    -33.5306E-03     22.5467E-03    -38.4342E-03     71.4404E-03    -33.2932E-03     22.4234E-03
            2337     6.09980E-03     7.27785E-03    -33.4356E+06    -114.001E+06    -589.109E+03    -2.43040E+06    -36.3075E-03     69.2391E-03    -32.9316E-03     21.4818E-03    -36.3210E-03     68.7310E-03    -32.7208E-03     21.3753E-03
            2338     5.23068E-03     7.27068E-03    -34.9159E+06    -117.673E+06    -7.57484E+06    -3.29178E+06    -34.7035E-03     67.1516E-03    -32.4481E-03     19.8733E-03    -34.7046E-03     66.6329E-03    -32.2647E-03     19.7764E-03
            2339     4.36039E-03     7.26456E-03    -37.1211E+06    -122.526E+06    -15.6331E+06    -3.50278E+06    -33.4936E-03     65.5537E-03    -32.0601E-03     17.6753E-03    -33.4840E-03     65.0224E-03    -31.9068E-03     17.5913E-03
            2340     3.48919E-03     7.25952E-03    -39.6455E+06    -128.049E+06    -24.2478E+06    -3.03808E+06    -32.6000E-03     64.3548E-03    -31.7547E-03     14.9253E-03    -32.5805E-03     63.8098E-03    -31.6328E-03     14.8591E-03
            2341     2.61736E-03     7.25554E-03    -42.3607E+06    -133.608E+06    -32.7127E+06    -2.29014E+06    -31.9638E-03     63.4873E-03    -31.5234E-03     11.7128E-03    -31.9362E-03     62.9293E-03    -31.4318E-03     11.6653E-03
            2342     1.74511E-03     7.25264E-03    -44.8726E+06    -138.535E+06    -40.2275E+06    -1.51796E+06    -31.5448E-03     62.9044E-03    -31.3596E-03     8.14443E-03    -31.5110E-03     62.3354E-03    -31.2948E-03     8.11390E-03
            2343     872.618E-06     7.25084E-03    -46.6303E+06    -141.835E+06    -45.3053E+06    -808.258E+03    -31.3057E-03     62.5671E-03    -31.2614E-03     4.50705E-03    -31.2681E-03     61.9911E-03    -31.2147E-03     4.49106E-03
            2344     16.2530E-03     6.51625E-03    -4.16171E+06     116.482E+06     82.5807E+06    -570.177E+03    -89.1902E-03     140.253E-03    -51.0630E-03     14.9957E-03    -89.8084E-03     141.031E-03    -50.8129E-03     13.5144E-03
            2345     15.4312E-03     6.48321E-03    -8.94463E+06     114.306E+06     75.5029E+06    -1.09403E+06    -88.9017E-03     137.828E-03    -48.9262E-03     35.3550E-03    -89.7246E-03     138.807E-03    -48.7015E-03     33.5282E-03
            2346     14.6082E-03     6.43739E-03    -14.3267E+06     106.192E+06     54.9700E+06     185.642E+03    -85.1217E-03     131.733E-03    -46.6108E-03     42.2048E-03    -85.9203E-03     132.699E-03    -46.4692E-03     40.5510E-03
            2347     13.7801E-03     6.39204E-03    -20.2061E+06     81.3392E+06     26.4307E+06     4.23261E+06    -77.7611E-03     122.114E-03    -44.3525E-03     38.3647E-03    -78.4028E-03     122.898E-03    -44.3090E-03     37.0998E-03
            2348     12.9448E-03     6.36124E-03    -25.2459E+06     32.7275E+06      10.989E+06     5.76672E+06    -69.5751E-03     111.992E-03    -42.4166E-03     32.8876E-03    -70.0240E-03     112.437E-03    -42.3725E-03     32.0049E-03
            2349     12.1025E-03     6.33735E-03    -27.8338E+06    -12.5112E+06     11.0244E+06     3.05884E+06    -62.1361E-03     102.961E-03    -40.8245E-03     32.3222E-03    -62.4484E-03     103.099E-03    -40.7109E-03     31.6960E-03
            2350     11.2540E-03     6.31849E-03    -28.5313E+06    -40.0802E+06     12.1425E+06    -73.3801E+03    -55.5906E-03     95.0775E-03    -39.4869E-03     32.7439E-03    -55.8127E-03     95.0221E-03    -39.3267E-03     32.2791E-03
            2351     10.4001E-03     6.30380E-03    -29.0256E+06    -61.4372E+06     13.6478E+06    -2.34504E+06    -50.1387E-03     88.5443E-03    -38.4056E-03     33.3000E-03    -50.2972E-03     88.3431E-03    -38.2062E-03     32.9430E-03
            2352     9.54177E-03     6.29207E-03    -29.8963E+06    -78.2737E+06     15.2299E+06    -4.04464E+06    -45.8384E-03     83.3914E-03    -37.5531E-03     33.6410E-03    -45.9538E-03     83.0794E-03    -37.3201E-03     33.3545E-03
            2353     8.68013E-03     6.28253E-03    -30.6578E+06    -93.0670E+06     15.4430E+06    -4.84741E+06    -42.5927E-03     79.4791E-03    -36.8864E-03     33.4409E-03    -42.6733E-03     79.0761E-03    -36.6298E-03     33.2079E-03
            2354     7.81601E-03     6.27444E-03    -31.1987E+06    -104.297E+06     13.0022E+06    -5.23506E+06    -40.2058E-03     76.5639E-03    -36.3581E-03     32.5425E-03    -40.2569E-03     76.0962E-03    -36.0966E-03     32.3497E-03
            2355     6.95014E-03     6.26741E-03    -31.7256E+06    -110.316E+06     7.32261E+06    -6.12158E+06    -38.4826E-03     74.4116E-03    -35.9290E-03     30.9207E-03    -38.5105E-03     73.9138E-03    -35.6865E-03     30.7495E-03
            2356     6.08304E-03     6.26114E-03    -32.3530E+06    -114.296E+06    -92.6564E+03    -6.74625E+06    -37.2448E-03     72.8286E-03    -35.5838E-03     28.6169E-03    -37.2531E-03     72.3161E-03    -35.3717E-03     28.4623E-03
            2357     5.21512E-03     6.25556E-03    -33.4268E+06    -118.992E+06    -7.86861E+06    -6.31673E+06    -36.3555E-03     71.6688E-03    -35.3133E-03     25.6956E-03    -36.3467E-03     71.1410E-03    -35.1316E-03     25.5651E-03
            2358     4.34655E-03     6.25065E-03    -35.3421E+06    -124.578E+06    -16.3611E+06    -5.22332E+06    -35.7208E-03     70.8224E-03    -35.1016E-03     22.2264E-03    -35.6983E-03     70.2786E-03    -34.9515E-03     22.1242E-03
            2359     3.47760E-03     6.24647E-03    -37.9456E+06    -130.505E+06    -25.0590E+06    -3.83792E+06    -35.2817E-03     70.2201E-03    -34.9384E-03     18.3084E-03    -35.2490E-03     69.6610E-03    -34.8195E-03     18.2347E-03
            2360     2.60837E-03     6.24309E-03    -40.6126E+06    -135.894E+06    -32.9328E+06    -2.35433E+06    -34.9884E-03     69.8054E-03    -34.8170E-03     14.0663E-03    -34.9486E-03     69.2333E-03    -34.7257E-03     14.0198E-03
            2361     1.73900E-03     6.24058E-03    -43.0077E+06    -140.316E+06    -39.3790E+06    -1.18493E+06    -34.8024E-03     69.5339E-03    -34.7315E-03     9.62679E-03    -34.7581E-03     68.9517E-03    -34.6626E-03     9.60163E-03
            2362     869.519E-06     6.23899E-03    -44.8019E+06    -143.283E+06    -43.6985E+06    -515.653E+03    -34.6914E-03     69.3751E-03    -34.6837E-03     5.27230E-03    -34.6451E-03     68.7866E-03    -34.6294E-03     5.26062E-03
            2363     16.2535E-03     5.42248E-03    -4.28922E+06     116.298E+06     82.6850E+06     181.048E+03    -90.6465E-03     141.776E-03    -51.1298E-03     19.0440E-03    -91.2714E-03     142.560E-03    -50.8788E-03     17.5739E-03
            2364     15.4321E-03     5.39274E-03    -10.6083E+06     113.578E+06     74.0330E+06     1.27972E+06    -87.6570E-03     136.647E-03    -48.9905E-03     39.1814E-03    -88.4690E-03     137.612E-03    -48.7696E-03     37.4953E-03
            2365     14.6070E-03     5.35508E-03    -19.2570E+06     101.130E+06     51.3923E+06     4.92348E+06    -80.8808E-03     127.721E-03    -46.8403E-03     44.9055E-03    -81.6486E-03     128.633E-03    -46.7021E-03     43.5142E-03
            2366     13.7744E-03     5.32290E-03    -27.7499E+06     78.8068E+06     26.0040E+06     8.07848E+06    -71.5899E-03     116.518E-03    -44.9284E-03     43.2652E-03    -72.2238E-03     117.260E-03    -44.8724E-03     42.2705E-03
            2367     12.9332E-03     5.30327E-03    -31.8312E+06     38.1211E+06     15.9247E+06     4.79620E+06    -63.0632E-03     106.513E-03    -43.4498E-03     41.7457E-03    -63.5375E-03     106.965E-03    -43.3793E-03     41.0276E-03
            2368     12.0853E-03     5.28894E-03    -31.6266E+06    -7.78999E+06     17.0549E+06    -1.40697E+06    -56.3053E-03     98.6562E-03    -42.3509E-03     43.5887E-03    -56.6405E-03     98.8037E-03    -42.2085E-03     43.0271E-03
            2369     11.2319E-03     5.27789E-03    -30.4266E+06    -38.2891E+06     17.7129E+06    -4.95059E+06    -51.0139E-03     92.5174E-03    -41.5035E-03     45.1330E-03    -51.2494E-03     92.4587E-03    -41.3153E-03     44.6862E-03
            2370     10.3743E-03     5.26926E-03    -29.9124E+06    -60.4891E+06     19.0218E+06    -6.65102E+06    -47.1159E-03     87.9939E-03    -40.8780E-03     45.6839E-03    -47.2836E-03     87.7861E-03    -40.6518E-03     45.3234E-03
            2371     9.51383E-03     5.26196E-03    -30.2073E+06    -77.5938E+06     20.3681E+06    -8.32909E+06    -44.4054E-03     84.8291E-03    -40.4237E-03     45.1550E-03    -44.5275E-03     84.5095E-03    -40.1655E-03     44.8469E-03
            2372     8.65149E-03     5.25554E-03    -30.6645E+06    -93.6071E+06     19.3344E+06    -10.0552E+06    -42.6086E-03     82.6931E-03    -40.0845E-03     43.5014E-03    -42.6914E-03     82.2782E-03    -39.8077E-03     43.2232E-03
            2373     7.78800E-03     5.24964E-03    -30.3222E+06    -104.889E+06     14.5055E+06    -11.2452E+06    -41.4288E-03     81.2365E-03    -39.8077E-03     40.9203E-03    -41.4747E-03     80.7594E-03    -39.5391E-03     40.6646E-03
            2374     6.92376E-03     5.24411E-03    -29.5340E+06    -111.385E+06     6.50939E+06    -11.5712E+06    -40.6373E-03     80.2068E-03    -39.5695E-03     37.5977E-03    -40.6500E-03     79.6992E-03    -39.3326E-03     37.3661E-03
            2375     6.05904E-03     5.23896E-03    -29.6209E+06    -116.927E+06    -2.13528E+06    -10.6629E+06    -40.0839E-03     79.4566E-03    -39.3727E-03     33.7284E-03    -40.0707E-03     78.9280E-03    -39.1709E-03     33.5301E-03
            2376     5.19393E-03     5.23418E-03    -30.9744E+06    -122.666E+06    -10.4589E+06    -8.66083E+06    -39.6820E-03     78.8953E-03    -39.2133E-03     29.4590E-03    -39.6512E-03     78.3479E-03    -39.0428E-03     29.3030E-03
            2377     4.32861E-03     5.22986E-03    -33.1509E+06    -128.385E+06    -18.4586E+06    -6.11454E+06    -39.3861E-03     78.4691E-03    -39.0830E-03     24.8926E-03    -39.3437E-03     77.9052E-03    -38.9410E-03     24.7820E-03
            2378     3.46309E-03     5.22611E-03    -35.7445E+06    -133.859E+06    -26.1146E+06    -3.73518E+06    -39.1653E-03     78.1412E-03    -38.9759E-03     20.1216E-03    -39.1151E-03     77.5630E-03    -38.8605E-03     20.0513E-03
            2379     2.59745E-03     5.22303E-03    -38.3192E+06    -138.493E+06    -32.7153E+06    -1.91952E+06    -38.9992E-03     77.8900E-03    -38.8908E-03     15.2405E-03    -38.9445E-03     77.3009E-03    -38.7980E-03     15.2010E-03
            2380     1.73170E-03     5.22073E-03    -40.3045E+06    -141.879E+06    -37.7341E+06    -695.282E+03    -38.8787E-03     77.7061E-03    -38.8274E-03     10.3263E-03    -38.8211E-03     77.1095E-03    -38.7519E-03     10.3082E-03
            2381     865.877E-06     5.21927E-03    -41.5550E+06    -144.017E+06    -40.9676E+06    -104.381E+03    -38.7929E-03     77.5872E-03    -38.7943E-03     5.62067E-03    -38.7334E-03     76.9862E-03    -38.7300E-03     5.61469E-03
            2382     16.2463E-03     4.32851E-03    -4.91747E+06     114.859E+06     81.6147E+06     1.96626E+06    -88.0046E-03     139.712E-03    -51.7077E-03     26.6207E-03    -88.6335E-03     140.496E-03    -51.4590E-03     25.2889E-03
            2383     15.4222E-03     4.30443E-03    -12.1014E+06     109.170E+06     74.7032E+06     5.46594E+06    -81.8987E-03     131.737E-03    -49.8383E-03     47.6055E-03    -82.6905E-03     132.659E-03    -49.6056E-03     46.2191E-03
            2384     14.5911E-03     4.27932E-03    -19.9901E+06     96.2089E+06     56.6882E+06     10.1763E+06    -72.6993E-03     120.850E-03    -48.1511E-03     53.6398E-03    -73.4207E-03     121.681E-03    -47.9782E-03     52.6143E-03
            2385     13.7502E-03     4.26109E-03    -25.3102E+06     82.6211E+06     35.4660E+06     9.40098E+06    -63.1443E-03     109.957E-03    -46.8129E-03     55.0137E-03    -63.7387E-03     110.655E-03    -46.7187E-03     54.2935E-03
            2386     12.9017E-03     4.25118E-03    -27.3581E+06     47.2414E+06     23.8903E+06     1.25453E+06    -56.1751E-03     102.090E-03    -45.9153E-03     56.0767E-03    -56.6216E-03     102.540E-03    -45.8246E-03     55.4923E-03
            2387     12.0482E-03     4.24420E-03    -28.2636E+06    -4.05833E+06     20.9294E+06    -6.40775E+06    -51.6895E-03     97.0443E-03    -45.3548E-03     57.8758E-03    -51.9977E-03     97.1780E-03    -45.2033E-03     57.3647E-03
            2388     11.1914E-03     4.23832E-03    -28.7947E+06    -37.6446E+06     19.3523E+06    -9.97136E+06    -48.7869E-03     93.7497E-03    -44.9628E-03     57.9425E-03    -49.0019E-03     93.6727E-03    -44.7697E-03     57.5035E-03
            2389     10.3328E-03     4.23310E-03    -28.3129E+06    -60.5554E+06     18.6161E+06    -12.1742E+06    -47.0292E-03     91.7122E-03    -44.6829E-03     56.2664E-03    -47.1767E-03     91.4894E-03    -44.4610E-03     55.8802E-03
            2390     9.47313E-03     4.22792E-03    -27.0833E+06    -77.7654E+06     18.1474E+06    -13.7609E+06    -45.9998E-03     90.4721E-03    -44.4722E-03     53.2712E-03    -46.0945E-03     90.1405E-03    -44.2295E-03     52.9222E-03
            2391     8.61304E-03     4.22286E-03    -26.1094E+06    -93.5540E+06     15.6049E+06    -15.6809E+06    -45.3977E-03     89.6919E-03    -44.2942E-03     49.3767E-03    -45.4463E-03     89.2688E-03    -44.0427E-03     49.0452E-03
            2392     7.75265E-03     4.21784E-03    -25.5945E+06    -106.554E+06     9.84563E+06    -17.1573E+06    -45.0188E-03     89.1397E-03    -44.1209E-03     44.9212E-03    -45.0277E-03     88.6491E-03    -43.8800E-03     44.6021E-03
            2393     6.89205E-03     4.21303E-03    -25.6543E+06    -115.491E+06     1.08827E+06    -16.0886E+06    -44.7168E-03     88.6581E-03    -43.9413E-03     40.1142E-03    -44.6935E-03     88.1287E-03    -43.7312E-03     39.8330E-03
            2394     6.03123E-03     4.20841E-03    -26.6523E+06    -122.366E+06    -7.60767E+06    -12.9631E+06    -44.4382E-03     88.2092E-03    -43.7711E-03     35.1440E-03    -44.3925E-03     87.6547E-03    -43.5930E-03     34.9218E-03
            2395     5.17023E-03     4.20413E-03    -28.6110E+06    -128.278E+06    -15.0793E+06    -9.26696E+06    -44.1666E-03     87.7840E-03    -43.6175E-03     30.1092E-03    -44.1080E-03     87.2104E-03    -43.4654E-03     29.9493E-03
            2396     4.30897E-03     4.20021E-03    -31.0860E+06    -133.398E+06    -21.6963E+06    -5.83047E+06    -43.9017E-03     87.3815E-03    -43.4798E-03     25.0695E-03    -43.8363E-03     86.7933E-03    -43.3498E-03     24.9652E-03
            2397     3.44751E-03     4.19682E-03    -33.4783E+06    -137.577E+06    -27.3581E+06    -3.02587E+06    -43.6572E-03     87.0169E-03    -43.3597E-03     20.0431E-03    -43.5881E-03     86.4182E-03    -43.2485E-03     19.9837E-03
            2398     2.58584E-03     4.19405E-03    -35.4940E+06    -140.740E+06    -31.9981E+06    -1.16851E+06    -43.4421E-03     86.7017E-03    -43.2596E-03     15.0613E-03    -43.3708E-03     86.0959E-03    -43.1640E-03     15.0326E-03
            2399     1.72401E-03     4.19198E-03    -37.0432E+06    -143.000E+06    -35.4993E+06    -225.189E+03    -43.2706E-03     86.4539E-03    -43.1833E-03     10.1510E-03    -43.1982E-03     85.8437E-03    -43.0998E-03     10.1397E-03
            2400     862.033E-06     4.19070E-03    -37.9514E+06    -144.025E+06    -37.6503E+06     257.610E+03    -43.1479E-03     86.2919E-03    -43.1441E-03     5.50761E-03    -43.0751E-03     85.6808E-03    -43.0684E-03     5.50669E-03
            2401     16.2252E-03     3.23874E-03    -6.62826E+06     112.394E+06     78.0842E+06     5.55433E+06    -79.3025E-03     132.518E-03    -53.2153E-03     41.4109E-03    -79.9357E-03     133.303E-03    -52.9783E-03     40.3677E-03
            2402     15.3925E-03     3.22380E-03    -14.3138E+06     104.680E+06     71.4241E+06     7.90571E+06    -71.8309E-03     123.750E-03    -51.9189E-03     63.1843E-03    -72.5943E-03     124.631E-03    -51.6928E-03     62.1501E-03
            2403     14.5513E-03     3.21286E-03    -17.1717E+06     95.7599E+06     60.5677E+06     8.22023E+06    -63.2286E-03     114.134E-03    -50.9055E-03     68.5051E-03    -63.8798E-03     114.892E-03    -50.7166E-03     67.7499E-03
            2404     13.7024E-03     3.20558E-03    -15.9406E+06     88.8153E+06     41.2838E+06     5.08972E+06    -56.4711E-03     106.656E-03    -50.1850E-03     70.1442E-03    -56.9763E-03     107.302E-03    -50.0843E-03     69.5874E-03
            2405     12.8487E-03     3.20194E-03    -16.4851E+06     53.8995E+06     22.4074E+06    -305.313E+03    -53.0381E-03     102.796E-03    -49.7584E-03     69.3887E-03    -53.3919E-03     103.218E-03    -49.7006E-03     68.9290E-03
            2406     11.9936E-03     3.19822E-03    -20.0031E+06    -448.167E+03     12.9113E+06    -7.07886E+06    -51.6479E-03     101.182E-03    -49.5337E-03     67.3565E-03    -51.8740E-03     101.296E-03    -49.4395E-03     66.9292E-03
            2407     11.1381E-03     3.19431E-03    -22.3259E+06    -36.1691E+06     6.95294E+06    -12.9257E+06    -51.0682E-03     100.414E-03    -49.3458E-03     63.5475E-03    -51.2099E-03     100.326E-03    -49.2262E-03     63.1296E-03
            2408     10.2826E-03     3.18992E-03    -22.2223E+06    -60.3773E+06     2.37615E+06    -16.7947E+06    -50.8120E-03     99.9704E-03    -49.1584E-03     58.6954E-03    -50.8880E-03     99.7441E-03    -49.0268E-03     58.2889E-03
            2409     9.42726E-03     3.18545E-03    -21.0469E+06    -79.1178E+06    -1.04306E+06    -18.8312E+06    -50.6322E-03     99.5984E-03    -48.9663E-03     53.3505E-03    -50.6543E-03     99.2658E-03    -48.8262E-03     52.9628E-03
            2410     8.57173E-03     3.18089E-03    -20.0913E+06    -94.6428E+06    -4.49891E+06    -19.6111E+06    -50.4065E-03     99.1714E-03    -48.7649E-03     47.8881E-03    -50.3857E-03     98.7542E-03    -48.6210E-03     47.5247E-03
            2411     7.71604E-03     3.17638E-03    -20.7401E+06    -110.052E+06    -8.22393E+06    -19.3561E+06    -50.1222E-03     98.6831E-03    -48.5610E-03     42.4859E-03    -50.0696E-03     98.1882E-03    -48.4125E-03     42.1520E-03
            2412     6.86008E-03     3.17212E-03    -22.7458E+06    -122.145E+06    -12.1665E+06    -16.9786E+06    -49.7774E-03     98.1298E-03    -48.3524E-03     37.2114E-03    -49.7067E-03     97.5782E-03    -48.2032E-03     36.9284E-03
            2413     6.00379E-03     3.16811E-03    -25.0721E+06    -129.935E+06    -16.9800E+06    -12.7413E+06    -49.3734E-03     97.5111E-03    -48.1377E-03     32.1189E-03    -49.2927E-03     96.9276E-03    -47.9978E-03     31.9066E-03
            2414     5.14709E-03     3.16439E-03    -27.4201E+06    -134.928E+06    -21.4176E+06    -8.20871E+06    -48.9371E-03     96.8684E-03    -47.9312E-03     27.2139E-03    -48.8521E-03     96.2675E-03    -47.8029E-03     27.0727E-03
            2415     4.29003E-03     3.16108E-03    -29.6960E+06    -138.436E+06    -25.4078E+06    -4.54655E+06    -48.5024E-03     96.2438E-03    -47.7414E-03     22.4748E-03    -48.4162E-03     95.6330E-03    -47.6247E-03     22.3908E-03
            2416     3.43255E-03     3.15821E-03    -31.5802E+06    -140.929E+06    -28.8464E+06    -2.04835E+06    -48.0966E-03     95.6715E-03    -47.5749E-03     17.8648E-03    -48.0103E-03     95.0550E-03    -47.4690E-03     17.8205E-03
            2417     2.57476E-03     3.15589E-03    -32.8937E+06    -142.487E+06    -31.3140E+06    -484.910E+03    -47.7492E-03     95.1881E-03    -47.4389E-03     13.3676E-03    -47.6630E-03     94.5687E-03    -47.3411E-03     13.3494E-03
            2418     1.71667E-03     3.15419E-03    -33.8539E+06    -143.540E+06    -33.0706E+06     332.420E+03    -47.4832E-03     94.8199E-03    -47.3366E-03     8.98296E-03    -47.3973E-03     94.1988E-03    -47.2448E-03     8.97990E-03
            2419     858.393E-06     3.15310E-03    -34.5974E+06    -143.348E+06    -34.3751E+06     459.485E+03    -47.2943E-03     94.5775E-03    -47.2832E-03     4.86475E-03    -47.2103E-03     93.9602E-03    -47.1971E-03     4.86693E-03
            2420     16.1782E-03     2.15944E-03    -6.53175E+06     110.617E+06     77.3315E+06     8.30361E+06    -66.8735E-03     122.989E-03    -56.1151E-03     64.3928E-03    -67.4993E-03     123.763E-03    -55.8794E-03     63.6597E-03
            2421     15.3343E-03     2.15292E-03    -10.5879E+06     106.034E+06     73.0689E+06     5.99786E+06    -63.3788E-03     118.883E-03    -55.5045E-03     80.0375E-03    -64.0558E-03     119.689E-03    -55.2776E-03     79.2616E-03
            2422     14.4864E-03     2.15185E-03    -10.9449E+06     99.5114E+06     58.6557E+06     1.78016E+06    -59.2762E-03     114.269E-03    -54.9929E-03     79.0840E-03    -59.7982E-03     114.935E-03    -54.8280E-03     78.4811E-03
            2423     13.6351E-03     2.14968E-03    -10.5053E+06     89.0869E+06     28.2952E+06     335.179E+03    -57.2401E-03     111.788E-03    -54.5480E-03     75.4614E-03    -57.6162E-03     112.359E-03    -54.5205E-03     75.0117E-03
            2424     12.7843E-03     2.14713E-03    -10.2822E+06     54.9061E+06     941.923E+03     13.4373E+03    -57.0181E-03     111.222E-03    -54.2040E-03     68.9262E-03    -57.2493E-03     111.606E-03    -54.2640E-03     68.5883E-03
            2425     11.9343E-03     2.14375E-03    -10.8090E+06     5.38544E+06    -12.0322E+06    -5.26723E+06    -57.2144E-03     111.156E-03    -53.9416E-03     62.1547E-03    -57.3228E-03     111.277E-03    -53.9939E-03     61.8333E-03
            2426     11.0848E-03     2.13991E-03    -12.1099E+06    -32.6137E+06    -20.1753E+06    -12.4277E+06    -57.2501E-03     110.909E-03    -53.6588E-03     55.4590E-03    -57.2762E-03     110.832E-03    -53.6949E-03     55.1073E-03
            2427     10.2354E-03     2.13604E-03    -13.6251E+06    -59.6983E+06    -27.2382E+06    -16.8545E+06    -57.0187E-03     110.361E-03    -53.3423E-03     49.1736E-03    -56.9887E-03     110.148E-03    -53.3722E-03     48.8107E-03
            2428     9.38550E-03     2.13208E-03    -15.1643E+06    -80.8370E+06    -31.7927E+06    -18.7724E+06    -56.5662E-03     109.583E-03    -53.0170E-03     43.3949E-03    -56.4974E-03     109.264E-03    -53.0367E-03     43.0416E-03
            2429     8.53525E-03     2.12835E-03    -17.1136E+06    -98.4747E+06    -33.1770E+06    -18.3011E+06    -55.9661E-03     108.666E-03    -52.7003E-03     38.1198E-03    -55.8734E-03     108.258E-03    -52.6985E-03     37.7990E-03
            2430     7.68432E-03     2.12478E-03    -19.7439E+06    -115.002E+06    -32.8185E+06    -16.3020E+06    -55.2805E-03     107.678E-03    -52.3974E-03     33.2754E-03    -55.1734E-03     107.186E-03    -52.3661E-03     33.0006E-03
            2431     6.83272E-03     2.12141E-03    -22.7536E+06    -128.837E+06    -30.5649E+06    -13.8059E+06    -54.5582E-03     106.671E-03    -52.1128E-03     28.7965E-03    -54.4466E-03     106.109E-03    -52.0458E-03     28.5694E-03
            2432     5.98050E-03     2.11836E-03    -25.4315E+06    -137.671E+06    -28.6463E+06    -10.2135E+06    -53.8303E-03     105.667E-03    -51.8364E-03     24.6416E-03    -53.7202E-03     105.060E-03    -51.7431E-03     24.4731E-03
            2433     5.12763E-03     2.11560E-03    -27.5452E+06    -141.406E+06    -28.5133E+06    -6.07083E+06    -53.1159E-03     104.682E-03    -51.5664E-03     20.7436E-03    -53.0098E-03     104.058E-03    -51.4640E-03     20.6382E-03
            2434     4.27410E-03     2.11314E-03    -29.1653E+06    -142.600E+06    -29.2515E+06    -2.90228E+06    -52.4465E-03     103.764E-03    -51.3180E-03     17.0487E-03    -52.3448E-03     103.137E-03    -51.2152E-03     16.9917E-03
            2435     3.42005E-03     2.11106E-03    -30.2872E+06    -143.340E+06    -30.1133E+06    -1.04747E+06    -51.8555E-03     102.959E-03    -51.1038E-03     13.5135E-03    -51.7565E-03     102.330E-03    -51.0026E-03     13.4863E-03
            2436     2.56547E-03     2.10938E-03    -30.9331E+06    -143.668E+06    -30.6403E+06    -54.2414E+03    -51.3685E-03     102.299E-03    -50.9309E-03     10.0917E-03    -51.2712E-03     101.670E-03    -50.8309E-03     10.0817E-03
            2437     1.71055E-03     2.10814E-03    -31.1700E+06    -143.655E+06    -30.8712E+06     466.062E+03    -51.0057E-03     101.808E-03    -50.8025E-03     6.77226E-03    -50.9090E-03     101.180E-03    -50.7033E-03     6.77259E-03
            2438     855.347E-06     2.10738E-03    -31.2207E+06    -142.290E+06    -31.2451E+06     526.512E+03    -50.7521E-03     101.491E-03    -50.7384E-03     3.66534E-03    -50.6570E-03     100.869E-03    -50.6431E-03     3.66924E-03
            2439     16.1027E-03     1.08648E-03    -1.07062E+06     112.658E+06     84.2144E+06     5.42382E+06    -64.9341E-03     125.062E-03    -60.1284E-03     75.6442E-03    -65.4583E-03     125.735E-03    -59.8692E-03     75.0955E-03
            2440     15.2577E-03     1.08295E-03    -1.21994E+06     111.194E+06     77.2348E+06     2.62773E+06    -65.9183E-03     125.610E-03    -59.6913E-03     71.2018E-03    -66.3820E-03     126.237E-03    -59.4646E-03     70.7089E-03
            2441     14.4138E-03     1.08438E-03    -3.32868E+06     101.721E+06     47.8859E+06    -127.132E+03    -65.5792E-03     124.693E-03    -59.1140E-03     61.0561E-03    -65.9114E-03     125.233E-03    -59.0172E-03     60.6963E-03
            2442     13.5718E-03     1.08164E-03    -5.24431E+06     85.4817E+06     6.92852E+06    -203.068E+03    -65.5705E-03     124.035E-03    -58.4645E-03     52.5516E-03    -65.7906E-03     124.517E-03    -58.5462E-03     52.2855E-03
            2443     12.7306E-03     1.07925E-03    -4.90958E+06     54.4928E+06    -24.3938E+06    -224.396E+03    -65.2780E-03     123.129E-03    -57.8509E-03     44.3350E-03    -65.3827E-03     123.478E-03    -58.0448E-03     44.1373E-03
            2444     11.8887E-03     1.07650E-03    -3.98428E+06     10.8784E+06    -39.9271E+06    -3.36103E+06    -64.6339E-03     121.949E-03    -57.3148E-03     37.8854E-03    -64.6347E-03     122.088E-03    -57.5244E-03     37.6969E-03
            2445     11.0457E-03     1.07383E-03    -4.99063E+06    -28.7676E+06    -48.8189E+06    -7.53601E+06    -63.6947E-03     120.499E-03    -56.8048E-03     32.5608E-03    -63.6218E-03     120.447E-03    -56.9999E-03     32.3553E-03
            2446     10.2016E-03     1.07128E-03    -8.06625E+06    -58.7747E+06    -54.9920E+06    -10.5380E+06    -62.5919E-03     118.898E-03    -56.3057E-03     28.1535E-03    -62.4768E-03     118.704E-03    -56.4837E-03     27.9356E-03
            2447     9.35655E-03     1.06898E-03    -12.1317E+06    -82.6820E+06    -56.9696E+06    -11.5641E+06    -61.4110E-03     117.248E-03    -55.8371E-03     24.4225E-03    -61.2755E-03     116.941E-03    -55.9844E-03     24.2115E-03
            2448     8.51013E-03     1.06677E-03    -16.4649E+06    -102.730E+06    -55.1053E+06    -10.8019E+06    -60.2218E-03     115.627E-03    -55.4056E-03     21.1795E-03    -60.0795E-03     115.221E-03    -55.5083E-03     20.9932E-03
            2449     7.66275E-03     1.06474E-03    -20.2970E+06    -119.438E+06    -51.3699E+06    -9.30848E+06    -59.0627E-03     114.068E-03    -55.0056E-03     18.3159E-03    -58.9193E-03     113.577E-03    -55.0598E-03     18.1601E-03
            2450     6.81431E-03     1.06290E-03    -23.5597E+06    -133.488E+06    -45.8358E+06    -7.69370E+06    -57.9523E-03     112.594E-03    -54.6414E-03     15.7497E-03    -57.8120E-03     112.028E-03    -54.6429E-03     15.6235E-03
            2451     5.96487E-03     1.06121E-03    -26.4091E+06    -143.269E+06    -39.7993E+06    -5.74603E+06    -56.9173E-03     111.225E-03    -54.3080E-03     13.4072E-03    -56.7852E-03     110.606E-03    -54.2609E-03     13.3128E-03
            2452     5.11457E-03     1.05972E-03    -28.3445E+06    -146.312E+06    -35.4370E+06    -3.33366E+06    -55.9633E-03     109.957E-03    -53.9934E-03     11.2467E-03    -55.8423E-03     109.318E-03    -53.9173E-03     11.1888E-03
            2453     4.26348E-03     1.05843E-03    -29.2819E+06    -145.397E+06    -32.8005E+06    -1.35582E+06    -55.1061E-03     108.812E-03    -53.7061E-03     9.22475E-03    -54.9947E-03     108.176E-03    -53.6169E-03     9.19650E-03
            2454     3.41165E-03     1.05732E-03    -29.6183E+06    -144.680E+06    -31.0968E+06    -344.480E+03    -54.3777E-03     107.839E-03    -53.4611E-03     7.30167E-03    -54.2713E-03     107.204E-03    -53.3638E-03     7.28966E-03
            2455     2.55929E-03     1.05644E-03    -29.6337E+06    -144.147E+06    -30.0499E+06     46.1345E+03    -53.7913E-03     107.054E-03    -53.2632E-03     5.45123E-03    -53.6871E-03     106.420E-03    -53.1614E-03     5.44674E-03
            2456     1.70645E-03     1.05580E-03    -29.5921E+06    -143.699E+06    -29.3845E+06     189.173E+03    -53.3582E-03     106.475E-03    -53.1164E-03     3.65801E-03    -53.2553E-03     105.841E-03    -53.0120E-03     3.65732E-03
            2457     853.306E-06     1.05539E-03    -29.5333E+06    -141.484E+06    -29.4909E+06     329.184E+03    -53.0575E-03     106.102E-03    -53.0442E-03     1.97760E-03    -52.9574E-03     105.480E-03    -52.9436E-03     1.98029E-03


