********************************************************************************
Field Output Report, written Wed May 29 01:55:29 2024

Source 1
---------

   ODB: G:/Abaqus_calc_2019/1740/Vel_5/odb/zeides_2a_8_red_250_cal_75_vel_5_fric_050.odb
   Step: Step-1
   Frame: Increment  14067658: Step Time =    1.825

Loc 1 : Nodal values from source 1

Output sorted by column "Nodal Label".

Field Output reported at nodes for region: DIE_2A_8_D0_36-1.Region_1
   Computation algorithm: EXTRAPOLATE_COMPUTE_AVERAGE
   Averaged at nodes
   Averaging regions: ODB_REGIONS

      Node Label     COORD.COOR1     COORD.COOR2
                          @Loc 1          @Loc 1
-------------------------------------------------
               1     18.7742E-03     116.109E-03


Field Output reported at nodes for region: DIE_2A_8_D0_36-1.Region_2
   Computation algorithm: EXTRAPOLATE_COMPUTE_AVERAGE
   Averaged at nodes
   Averaging regions: ODB_REGIONS

      Node Label     COORD.COOR1     COORD.COOR2
                          @Loc 1          @Loc 1
-------------------------------------------------
               1     18.7742E-03     116.109E-03


Field Output reported at nodes for part: WIRE-1
   Computation algorithm: EXTRAPOLATE_COMPUTE_AVERAGE
   Averaged at nodes
   Averaging regions: ODB_REGIONS

      Node Label     COORD.COOR1     COORD.COOR2           S.S11           S.S22           S.S33           S.S12         PE.PE11         PE.PE22         PE.PE33         PE.PE12         LE.LE11         LE.LE22         LE.LE33         LE.LE12
                          @Loc 1          @Loc 1          @Loc 1          @Loc 1          @Loc 1          @Loc 1          @Loc 1          @Loc 1          @Loc 1          @Loc 1          @Loc 1          @Loc 1          @Loc 1          @Loc 1
-------------------------------------------------------------------------------------------------------------------------------------------------------------------------------------------------------------------------------------------------
               1     6.48289E-09     57.4914E-03    -46.7615E+06    -135.155E+06    -46.7734E+06    -9.97513E+03    -25.8664E-03     51.7128E-03    -25.8464E-03     3.39052E-03    -25.8365E-03     51.1727E-03    -25.8165E-03     3.38846E-03
               2     17.5452E-03     58.1888E-03    -1.82707E+06     112.430E+06     71.2511E+06     1.98091E+03    -24.9260E-03     50.7227E-03    -25.7967E-03     11.5315E-03    -25.2329E-03     51.2156E-03    -25.6008E-03     11.4820E-03
               3     17.5006E-03     116.407E-03    -28.2862E+06     20.4690E+06     23.0418E+06    -266.190E+03     11.2979E-03     16.2200E-03    -27.5178E-03     10.0291E-03     11.1112E-03     16.3478E-03    -27.3913E-03     10.0256E-03
               4    -1.07214E-06     115.175E-03     27.3447E+06    -2.58793E+06     25.3805E+06    -967.787E+03    -25.6082E-03     52.0898E-03    -26.4817E-03    -641.438E-06    -25.5059E-03     51.9990E-03    -26.3906E-03    -654.627E-06
               5     1.34258E-09    -201.228E-18    -19.7219E+06    -106.204E+06    -19.6994E+06     299.517E+03    -24.1870E-03     48.3985E-03    -24.2114E-03     206.938E-06    -24.1031E-03     47.9246E-03    -24.1273E-03     210.765E-06
               6     17.4507E-03    -201.228E-18     1.24956E+06     95.0182E+06     67.5931E+06     249.963E+03    -28.1624E-03     58.1310E-03    -29.9685E-03     41.4437E-03    -28.4154E-03     58.5283E-03    -29.7701E-03     41.3867E-03
               7     877.055E-06     57.4946E-03    -46.3018E+06    -131.537E+06    -45.4000E+06    -5.97605E+03    -25.8551E-03     51.7038E-03    -25.8487E-03     5.63871E-03    -25.8303E-03     51.1793E-03    -25.8178E-03     5.63538E-03
               8     1.75412E-03     57.5021E-03    -44.8212E+06    -125.889E+06    -40.7415E+06     7.59086E+03    -25.8455E-03     51.7045E-03    -25.8589E-03     10.3409E-03    -25.8285E-03     51.1996E-03    -25.8151E-03     10.3348E-03
               9     2.63121E-03     57.5142E-03    -42.3331E+06    -120.790E+06    -33.5517E+06     16.1082E+03    -25.8514E-03     51.7264E-03    -25.8751E-03     15.2494E-03    -25.8404E-03     51.2337E-03    -25.8063E-03     15.2400E-03
              10     3.50832E-03     57.5310E-03    -39.1968E+06    -113.614E+06    -25.8526E+06     15.2814E+03    -25.8637E-03     51.7519E-03    -25.8883E-03     20.1261E-03    -25.8596E-03     51.2804E-03    -25.7960E-03     20.1128E-03
              11     4.38545E-03     57.5524E-03    -35.8089E+06    -105.530E+06    -18.6067E+06     24.1700E+03    -25.8872E-03     51.7836E-03    -25.8964E-03     24.9203E-03    -25.8900E-03     51.3386E-03    -25.7845E-03     24.9025E-03
              12     5.26260E-03     57.5782E-03    -32.4123E+06    -97.0086E+06    -12.2581E+06     37.9443E+03    -25.9227E-03     51.8216E-03    -25.8989E-03     29.6032E-03    -25.9321E-03     51.4071E-03    -25.7725E-03     29.5801E-03
              13     6.13978E-03     57.6085E-03    -29.1485E+06    -90.1787E+06    -6.93514E+06     46.7887E+03    -25.9751E-03     51.8742E-03    -25.8992E-03     34.1284E-03    -25.9887E-03     51.4844E-03    -25.7608E-03     34.0990E-03
              14     7.01697E-03     57.6429E-03    -26.1000E+06    -82.5156E+06    -2.65481E+06     53.9765E+03    -26.0335E-03     51.9274E-03    -25.8939E-03     38.4911E-03    -26.0532E-03     51.5692E-03    -25.7497E-03     38.4543E-03
              15     7.89417E-03     57.6814E-03    -23.3132E+06    -74.5108E+06     534.607E+03     58.6330E+03    -26.0969E-03     51.9804E-03    -25.8835E-03     42.6341E-03    -26.1241E-03     51.6588E-03    -25.7390E-03     42.5886E-03
              16     8.77139E-03     57.7237E-03    -20.8212E+06    -68.2740E+06     2.53841E+06     58.8836E+03    -26.1690E-03     52.0399E-03    -25.8709E-03     46.4844E-03    -26.2027E-03     51.7500E-03    -25.7291E-03     46.4289E-03
              17     9.64862E-03     57.7695E-03    -18.6522E+06    -60.5037E+06     3.38108E+06     58.4057E+03    -26.2346E-03     52.0861E-03    -25.8515E-03     50.0041E-03    -26.2793E-03     51.8400E-03    -25.7198E-03     49.9370E-03
              18     10.5259E-03     57.8185E-03    -16.7896E+06    -52.3186E+06     3.92490E+06     58.9835E+03    -26.2894E-03     52.1203E-03    -25.8310E-03     53.0790E-03    -26.3496E-03     51.9239E-03    -25.7111E-03     52.9989E-03
              19     11.4031E-03     57.8701E-03    -15.2098E+06    -42.1241E+06     3.48988E+06     57.0488E+03    -26.3230E-03     52.1263E-03    -25.8033E-03     55.5671E-03    -26.4054E-03     51.9951E-03    -25.7027E-03     55.4729E-03
              20     12.2804E-03     57.9237E-03    -13.8677E+06    -27.3525E+06     3.61364E+06     52.3654E+03    -26.3182E-03     52.0901E-03    -25.7719E-03     57.4870E-03    -26.4368E-03     52.0519E-03    -25.6941E-03     57.3779E-03
              21     13.1577E-03     57.9790E-03    -12.7277E+06     -8.8053E+06     2.72789E+06     46.5417E+03    -26.2921E-03     52.0217E-03    -25.7296E-03     59.2856E-03    -26.4613E-03     52.1066E-03    -25.6848E-03     59.1614E-03
              22     14.0350E-03     58.0360E-03    -11.5348E+06     38.4532E+06     10.1563E+06     38.3402E+03    -26.1458E-03     51.8300E-03    -25.6842E-03     61.4563E-03    -26.4248E-03     52.1751E-03    -25.6724E-03     61.3252E-03
              23     14.9125E-03     58.0953E-03    -9.72121E+06     89.4976E+06     28.8860E+06     29.1100E+03    -25.7601E-03     51.4435E-03    -25.6833E-03     56.1033E-03    -26.1380E-03     52.0207E-03    -25.6546E-03     55.9853E-03
              24     15.7900E-03     58.1422E-03    -7.02615E+06     106.961E+06     49.0597E+06     18.6004E+03    -25.3421E-03     51.0757E-03    -25.7336E-03     43.6300E-03    -25.7453E-03     51.6913E-03    -25.6332E-03     43.5329E-03
              25     16.6676E-03     58.1779E-03    -3.64753E+06     111.563E+06     65.4989E+06     7.13902E+03    -25.0506E-03     50.8331E-03    -25.7825E-03     24.6280E-03    -25.4098E-03     51.3855E-03    -25.6115E-03     24.5590E-03
              26     17.5452E-03     59.1869E-03    -1.82794E+06     112.436E+06     71.2516E+06     2.48107E+03    -24.9259E-03     50.7226E-03    -25.7967E-03     11.5314E-03    -25.2328E-03     51.2156E-03    -25.6008E-03     11.4820E-03
              27     17.5452E-03     60.1850E-03    -1.82734E+06     112.441E+06     71.2514E+06     2.16128E+03    -24.9268E-03     50.7235E-03    -25.7967E-03     11.5295E-03    -25.2336E-03     51.2164E-03    -25.6008E-03     11.4800E-03
              28     17.5452E-03     61.1830E-03    -1.82790E+06     112.445E+06     71.2496E+06     1.66255E+03    -24.9276E-03     50.7243E-03    -25.7967E-03     11.5273E-03    -25.2345E-03     51.2173E-03    -25.6009E-03     11.4778E-03
              29     17.5452E-03     62.1811E-03    -1.82667E+06     112.449E+06     71.2487E+06     1.46746E+03    -24.9279E-03     50.7246E-03    -25.7967E-03     11.5274E-03    -25.2347E-03     51.2176E-03    -25.6009E-03     11.4780E-03
              30     17.5452E-03     63.1792E-03    -1.82858E+06     112.452E+06     71.2446E+06     1.03171E+03    -24.9280E-03     50.7247E-03    -25.7967E-03     11.5275E-03    -25.2349E-03     51.2177E-03    -25.6009E-03     11.4780E-03
              31     17.5452E-03     64.1773E-03    -1.82682E+06     112.452E+06     71.2374E+06        -100.118    -24.9286E-03     50.7252E-03    -25.7966E-03     11.5267E-03    -25.2355E-03     51.2182E-03    -25.6009E-03     11.4772E-03
              32     17.5452E-03     65.1753E-03    -1.82808E+06     112.452E+06     71.2260E+06        -961.342    -24.9297E-03     50.7263E-03    -25.7966E-03     11.5268E-03    -25.2365E-03     51.2193E-03    -25.6009E-03     11.4773E-03
              33     17.5452E-03     66.1734E-03    -1.82629E+06     112.448E+06     71.2120E+06    -2.46961E+03    -24.9310E-03     50.7276E-03    -25.7966E-03     11.5263E-03    -25.2378E-03     51.2206E-03    -25.6009E-03     11.4768E-03
              34     17.5452E-03     67.1715E-03    -1.82776E+06     112.441E+06     71.1926E+06    -4.47923E+03    -24.9321E-03     50.7286E-03    -25.7965E-03     11.5259E-03    -25.2389E-03     51.2216E-03    -25.6010E-03     11.4764E-03
              35     17.5452E-03     68.1696E-03    -1.82525E+06     112.429E+06     71.1705E+06    -6.69530E+03    -24.9327E-03     50.7292E-03    -25.7965E-03     11.5256E-03    -25.2395E-03     51.2222E-03    -25.6010E-03     11.4760E-03
              36     17.5452E-03     69.1676E-03    -1.82779E+06     112.410E+06     71.1356E+06    -9.72737E+03    -24.9339E-03     50.7303E-03    -25.7964E-03     11.5260E-03    -25.2405E-03     51.2232E-03    -25.6011E-03     11.4763E-03
              37     17.5452E-03     70.1657E-03    -1.82305E+06     112.386E+06     71.0963E+06    -13.3700E+03    -24.9354E-03     50.7318E-03    -25.7964E-03     11.5258E-03    -25.2419E-03     51.2246E-03    -25.6012E-03     11.4761E-03
              38     17.5452E-03     71.1638E-03    -1.83051E+06     112.346E+06     71.0195E+06    -22.4180E+03    -24.9374E-03     50.7336E-03    -25.7962E-03     11.5258E-03    -25.2438E-03     51.2263E-03    -25.6013E-03     11.4760E-03
              39     17.5452E-03     72.1619E-03    -1.73369E+06     112.396E+06     70.9841E+06     65.5924E+03    -24.9393E-03     50.7353E-03    -25.7960E-03     11.5263E-03    -25.2453E-03     51.2283E-03    -25.6015E-03     11.4776E-03
              40     17.5452E-03     73.1600E-03    -1.82062E+06     112.656E+06     71.0793E+06     162.864E+03    -24.9355E-03     50.7319E-03    -25.7964E-03     11.5266E-03    -25.2424E-03     51.2261E-03    -25.6017E-03     11.4792E-03
              41     17.5452E-03     74.1581E-03    -1.88452E+06     112.955E+06     71.1962E+06     100.834E+03    -24.9310E-03     50.7279E-03    -25.7969E-03     11.5272E-03    -25.2388E-03     51.2235E-03    -25.6020E-03     11.4790E-03
              42     17.5452E-03     75.1561E-03    -1.83821E+06     113.095E+06     71.1980E+06     22.4766E+03    -24.9307E-03     50.7276E-03    -25.7969E-03     11.5269E-03    -25.2385E-03     51.2239E-03    -25.6023E-03     11.4776E-03
              43     17.5452E-03     76.1542E-03    -1.85385E+06     113.092E+06     71.0990E+06    -24.9628E+03    -24.9318E-03     50.7286E-03    -25.7968E-03     11.5275E-03    -25.2395E-03     51.2250E-03    -25.6026E-03     11.4777E-03
              44     17.5452E-03     77.1523E-03    -1.75964E+06     113.079E+06     70.9967E+06     11.1941E+03    -24.9340E-03     50.7305E-03    -25.7965E-03     11.5282E-03    -25.2411E-03     51.2269E-03    -25.6030E-03     11.4788E-03
              45     17.5452E-03     78.1504E-03    -1.80995E+06     113.194E+06     70.9866E+06     88.7452E+03    -24.9310E-03     50.7278E-03    -25.7967E-03     11.5297E-03    -25.2385E-03     51.2248E-03    -25.6033E-03     11.4814E-03
              46     17.5452E-03     79.1485E-03    -1.88173E+06     113.334E+06     70.9983E+06     33.5536E+03    -24.9262E-03     50.7233E-03    -25.7971E-03     11.5310E-03    -25.2343E-03     51.2212E-03    -25.6037E-03     11.4819E-03
              47     17.5452E-03     80.1466E-03    -1.83701E+06     113.311E+06     70.8711E+06    -54.6790E+03    -24.9266E-03     50.7234E-03    -25.7968E-03     11.5327E-03    -25.2342E-03     51.2213E-03    -25.6041E-03     11.4825E-03
              48     17.5451E-03     81.1446E-03    -1.74030E+06     113.261E+06     70.7156E+06     7.43944E+03    -24.9285E-03     50.7248E-03    -25.7963E-03     11.5355E-03    -25.2353E-03     51.2225E-03    -25.6045E-03     11.4860E-03
              49     17.5451E-03     82.1427E-03    -1.79997E+06     113.385E+06     70.7142E+06     101.090E+03    -24.9234E-03     50.7198E-03    -25.7964E-03     11.5373E-03    -25.2307E-03     51.2182E-03    -25.6047E-03     11.4891E-03
              50     17.5452E-03     83.1408E-03    -1.86961E+06     113.563E+06     70.7419E+06     57.1470E+03    -24.9172E-03     50.7136E-03    -25.7964E-03     11.5412E-03    -25.2252E-03     51.2130E-03    -25.6047E-03     11.4924E-03
              51     17.5451E-03     84.1388E-03    -1.78811E+06     113.653E+06     70.7218E+06     24.0987E+03    -24.9150E-03     50.7108E-03    -25.7958E-03     11.5463E-03    -25.2226E-03     51.2105E-03    -25.6044E-03     11.4971E-03
              52     17.5452E-03     85.1369E-03    -1.85779E+06     113.682E+06     70.6603E+06     3.86681E+03    -24.9140E-03     50.7088E-03    -25.7948E-03     11.5531E-03    -25.2220E-03     51.2089E-03    -25.6037E-03     11.5035E-03
              53     17.5452E-03     86.1350E-03    -1.77700E+06     113.672E+06     70.6501E+06    -8.91307E+03    -24.9142E-03     50.7076E-03    -25.7934E-03     11.5613E-03    -25.2218E-03     51.2075E-03    -25.6024E-03     11.5116E-03
              54     17.5452E-03     87.1330E-03    -1.87030E+06     113.615E+06     70.6194E+06    -33.3821E+03    -24.9154E-03     50.7065E-03    -25.7911E-03     11.5741E-03    -25.2233E-03     51.2064E-03    -25.6001E-03     11.5240E-03
              55     17.5453E-03     88.1311E-03    -1.79581E+06     113.468E+06     70.6042E+06    -81.5778E+03    -24.9227E-03     50.7103E-03    -25.7876E-03     11.5930E-03    -25.2300E-03     51.2093E-03    -25.5965E-03     11.5421E-03
              56     17.5454E-03     89.1292E-03    -1.90413E+06     113.169E+06      70.523E+06    -165.819E+03    -24.9399E-03     50.7225E-03    -25.7826E-03     11.6162E-03    -25.2472E-03     51.2203E-03    -25.5913E-03     11.5641E-03
              57     17.5455E-03     90.1272E-03    -1.83581E+06     112.611E+06     70.4769E+06    -305.071E+03    -24.9676E-03     50.7431E-03    -25.7755E-03     11.6511E-03    -25.2739E-03     51.2382E-03    -25.5837E-03     11.5970E-03
              58     17.5457E-03     91.1253E-03    -1.89705E+06     111.740E+06     70.4701E+06    -423.605E+03    -25.0150E-03     50.7809E-03    -25.7658E-03     11.7017E-03    -25.3204E-03     51.2718E-03    -25.5727E-03     11.6457E-03
              59     17.5458E-03     92.1235E-03    -1.69738E+06     110.759E+06     70.5870E+06    -394.447E+03    -25.0861E-03     50.8381E-03    -25.7520E-03     11.7707E-03    -25.3893E-03     51.3238E-03    -25.5572E-03     11.7147E-03
              60     17.5462E-03     93.1217E-03    -2.01443E+06     109.694E+06     70.4640E+06    -459.461E+03    -25.2179E-03     50.9509E-03    -25.7330E-03     11.8624E-03    -25.5211E-03     51.4321E-03    -25.5368E-03     11.8049E-03
              61     17.5465E-03     94.1201E-03    -1.80316E+06     108.361E+06     70.5908E+06    -612.115E+03    -25.5077E-03     51.2204E-03    -25.7127E-03     11.9491E-03    -25.8084E-03     51.6946E-03    -25.5142E-03     11.8885E-03
              62     17.5466E-03     95.1189E-03    -1.97097E+06     106.735E+06     70.5679E+06    -813.132E+03    -25.8661E-03     51.5578E-03    -25.6918E-03     12.0890E-03    -26.1655E-03     52.0245E-03    -25.4908E-03     12.0244E-03
              63     17.5470E-03     96.1179E-03    -1.68458E+06     104.743E+06     69.9993E+06    -894.581E+03    -26.1760E-03     51.8353E-03    -25.6593E-03     12.3635E-03    -26.4707E-03     52.2928E-03    -25.4587E-03     12.2964E-03
              64     17.5478E-03     97.1172E-03    -2.04780E+06     102.418E+06     69.1634E+06    -960.238E+03    -26.6283E-03     52.2388E-03    -25.6105E-03     12.7137E-03    -26.9208E-03     52.6870E-03    -25.4102E-03     12.6436E-03
              65     17.5484E-03     98.1171E-03    -1.64657E+06     99.9091E+06     69.0988E+06    -1.03803E+06    -27.3818E-03     52.9318E-03    -25.5500E-03     13.1253E-03    -27.6693E-03     53.3677E-03    -25.3469E-03     13.0508E-03
              66     17.5494E-03     99.1179E-03    -1.78743E+06     97.4684E+06     68.5280E+06    -890.119E+03    -28.3391E-03     53.8140E-03    -25.4748E-03     13.6792E-03    -28.6240E-03     54.2398E-03    -25.2709E-03     13.6021E-03
              67     17.5503E-03     100.120E-03    -2.34771E+06     94.4209E+06     67.5727E+06    -1.46243E+06    -29.6231E-03     55.0124E-03    -25.3893E-03     14.3440E-03    -29.9064E-03     55.4266E-03    -25.1850E-03     14.2535E-03
              68     17.5511E-03     101.123E-03    -2.03155E+06     89.7673E+06     66.1514E+06    -2.33520E+06    -31.4736E-03     56.7768E-03    -25.3032E-03     15.0883E-03    -31.7483E-03     57.1712E-03    -25.0997E-03     14.9782E-03
              69     17.5513E-03     102.129E-03    -688.477E+03     85.0712E+06     65.0977E+06    -1.62057E+06    -33.6291E-03     58.8556E-03    -25.2265E-03     16.0490E-03    -33.8910E-03     59.2283E-03    -25.0233E-03     15.9379E-03
              70     17.5517E-03     103.137E-03    -2.35722E+06     81.5036E+06     64.5027E+06    -1.36576E+06    -35.7908E-03     60.9529E-03    -25.1621E-03     17.3060E-03    -36.0577E-03     61.3138E-03    -24.9543E-03     17.1864E-03
              71     17.5516E-03     104.146E-03    -1.17727E+06     77.9502E+06     65.2779E+06    -1.62191E+06    -38.0072E-03     63.1082E-03    -25.1010E-03     18.8635E-03    -38.2675E-03     63.4519E-03    -24.8860E-03     18.7271E-03
              72     17.5522E-03     105.159E-03    -2.44125E+06     73.7432E+06     65.4502E+06    -1.86441E+06    -40.4503E-03     65.4850E-03    -25.0347E-03     20.7263E-03    -40.7152E-03     65.8133E-03    -24.8108E-03     20.5706E-03
              73     17.5521E-03     106.174E-03    -973.630E+03     69.1568E+06     65.8671E+06    -1.86896E+06    -43.2308E-03     68.1861E-03    -24.9552E-03     22.9450E-03    -43.4876E-03     68.4940E-03    -24.7248E-03     22.7690E-03
              74     17.5529E-03     107.192E-03    -3.07720E+06     63.5436E+06     64.4675E+06    -2.72063E+06    -46.3075E-03     71.1691E-03    -24.8615E-03     25.5675E-03    -46.5719E-03     71.4615E-03    -24.6269E-03     25.3537E-03
              75     17.5528E-03     108.213E-03    -18.4165E+03     57.2372E+06     64.7908E+06    -2.24157E+06    -49.8749E-03     74.6281E-03    -24.7533E-03     28.9800E-03    -50.1247E-03     74.8936E-03    -24.5123E-03     28.7390E-03
              76     17.5540E-03     109.239E-03    -4.04975E+06     49.6563E+06     62.4502E+06    -3.37021E+06    -53.9703E-03     78.5975E-03    -24.6272E-03     33.5690E-03    -54.2368E-03     78.8455E-03    -24.3810E-03     33.2752E-03
              77     17.5539E-03     110.270E-03       6.905E+03     39.9349E+06     60.7483E+06    -4.57752E+06    -58.0537E-03     82.5440E-03    -24.4903E-03     38.8328E-03    -58.2943E-03     82.7510E-03    -24.2445E-03     38.4863E-03
              78     17.5556E-03     111.304E-03    -1.60459E+06     31.3935E+06     58.7954E+06    -2.85919E+06    -62.0669E-03     86.4289E-03    -24.3619E-03     43.4794E-03    -62.3121E-03     86.6100E-03    -24.1112E-03     43.1155E-03
              79     17.5547E-03     112.341E-03     3.95279E+06     32.5354E+06     62.3448E+06     4.09045E+06    -66.3712E-03     90.6070E-03    -24.2359E-03     48.7488E-03    -66.6134E-03     90.7992E-03    -23.9771E-03     48.4136E-03
              80     17.5569E-03     113.386E-03    -8.17619E+06     30.1577E+06     51.1177E+06    -879.617E+03    -68.5225E-03     92.6499E-03    -24.1274E-03     59.6923E-03    -68.8345E-03     92.8953E-03    -23.9037E-03     59.2368E-03
              81     17.5553E-03     114.440E-03     2.64965E+06     8.23825E+06     27.4067E+06    -12.0855E+06    -58.8035E-03     83.0733E-03    -24.2698E-03     78.1334E-03    -59.0098E-03     83.2444E-03    -24.1485E-03     77.6008E-03
              82     17.5573E-03     115.474E-03     13.2438E+06     6.85558E+06     24.0694E+06    -5.69816E+06    -18.9396E-03     44.9254E-03    -25.9858E-03     49.4812E-03    -18.9919E-03     45.0000E-03    -25.8946E-03     49.2620E-03
              83     16.5634E-03     116.341E-03     -16.239E+06    -7.79115E+06     26.0387E+06    -1.58747E+06    -4.64556E-03     32.6634E-03    -28.0178E-03     17.8012E-03    -4.74842E-03     32.6213E-03    -27.8528E-03     17.7712E-03
              84     15.6915E-03     116.199E-03    -2.97913E+06    -3.53755E+06     37.8785E+06    -4.44647E+06    -18.5350E-03     47.1143E-03    -28.5793E-03     24.7590E-03    -18.6062E-03     47.0508E-03    -28.3805E-03     24.6839E-03
              85     14.8125E-03     116.061E-03     969.180E+03     2.66111E+06     44.5612E+06    -3.85104E+06    -16.6090E-03     45.4134E-03    -28.8043E-03     18.4491E-03    -16.6773E-03     45.3643E-03    -28.5868E-03     18.3838E-03
              86     13.9352E-03     115.941E-03     5.91697E+06    -3.13532E+06     51.3554E+06    -2.02655E+06    -19.1431E-03     48.2115E-03    -29.0684E-03     10.2609E-03    -19.1886E-03     48.1131E-03    -28.8157E-03     10.2184E-03
              87     13.0646E-03     115.828E-03     9.92282E+06     1.33644E+06     56.9076E+06    -2.46794E+06    -23.1799E-03     52.3446E-03    -29.1647E-03     5.77372E-03    -23.2204E-03     52.2527E-03    -28.8965E-03     5.72342E-03
              88     12.1966E-03     115.729E-03     12.9734E+06    -2.65351E+06     57.6442E+06    -2.12847E+06    -25.7951E-03     54.8919E-03    -29.0968E-03     2.87448E-03    -25.8149E-03     54.7738E-03    -28.8236E-03     2.82856E-03
              89     11.3292E-03     115.640E-03     14.3589E+06     227.619E+03     58.4977E+06    -1.23480E+06    -27.5119E-03     56.4369E-03    -28.9250E-03     1.09204E-03    -27.5293E-03     56.3300E-03    -28.6537E-03     1.05892E-03
              90     10.4616E-03     115.562E-03     14.8583E+06    -662.936E+03     56.6033E+06    -1.38225E+06    -28.6468E-03     57.3210E-03    -28.6742E-03    -2.76833E-06    -28.6570E-03     57.2118E-03    -28.4118E-03    -36.2038E-06
              91     9.59402E-03     115.493E-03     15.8783E+06     358.183E+03     54.6440E+06    -1.98133E+06    -29.1597E-03     57.5290E-03    -28.3693E-03    -643.783E-06    -29.1630E-03     57.4262E-03    -28.1196E-03    -683.206E-06
              92     8.72567E-03     115.433E-03     17.0810E+06    -1.01117E+06     51.8193E+06    -1.86075E+06    -29.2256E-03     57.2643E-03    -28.0387E-03    -994.061E-06    -29.2163E-03     57.1573E-03    -27.8029E-03    -1.03009E-03
              93     7.85651E-03     115.380E-03     18.1117E+06     255.991E+03     49.2327E+06    -1.83059E+06    -29.0125E-03     56.7129E-03    -27.7004E-03    -1.16783E-03    -28.9958E-03     56.6146E-03    -27.4808E-03    -1.20173E-03
              94     6.98642E-03     115.336E-03     19.0932E+06    -602.696E+03     45.5668E+06    -1.89450E+06    -28.6092E-03     55.9782E-03    -27.3690E-03    -1.22197E-03    -28.5808E-03     55.8797E-03    -27.1680E-03    -1.25512E-03
              95     6.11534E-03     115.296E-03     20.0919E+06     32.8736E+03     42.4452E+06    -1.85168E+06    -28.1125E-03     55.1722E-03    -27.0597E-03    -1.20602E-03    -28.0753E-03     55.0802E-03    -26.8767E-03    -1.23720E-03
              96     5.24339E-03     115.264E-03     21.1475E+06    -338.791E+03     38.8766E+06    -1.92277E+06    -27.5895E-03     54.3701E-03    -26.7806E-03    -1.14206E-03    -27.5411E-03     54.2799E-03    -26.6164E-03    -1.17289E-03
              97     4.37059E-03     115.236E-03     22.4102E+06    -105.189E+03     35.7429E+06    -1.96891E+06    -27.0962E-03     53.6374E-03    -26.5412E-03    -1.05150E-03    -27.0372E-03     53.5512E-03    -26.3948E-03    -1.08180E-03
              98     3.49717E-03     115.215E-03     23.7318E+06    -512.126E+03     32.8404E+06    -1.82474E+06    -26.6760E-03     53.0237E-03    -26.3477E-03    -948.653E-06    -26.6055E-03     52.9378E-03    -26.2172E-03    -976.045E-06
              99     2.62317E-03     115.197E-03     24.9866E+06    -187.946E+03     30.5871E+06    -1.72531E+06    -26.3466E-03     52.5516E-03    -26.2049E-03    -842.366E-06    -26.2670E-03     52.4688E-03    -26.0880E-03    -867.511E-06
             100     1.74886E-03     115.185E-03     26.0694E+06    -705.680E+03     28.7981E+06    -1.54523E+06    -26.1455E-03     52.2605E-03    -26.1150E-03    -744.381E-06    -26.0572E-03     52.1762E-03    -26.0078E-03    -766.287E-06
             101     874.248E-06     115.178E-03     26.9312E+06    -1.00717E+06     26.9369E+06    -1.14962E+06    -25.8468E-03     52.1290E-03    -26.2822E-03    -670.246E-06    -25.7511E-03     52.0445E-03    -26.1851E-03    -686.189E-06
             102     304.622E-09     114.175E-03     23.5192E+06    -2.26667E+06     23.4314E+06    -532.362E+03    -23.4755E-03     47.1607E-03    -23.6852E-03     275.896E-06    -23.3896E-03     47.0804E-03    -23.5989E-03     268.245E-06
             103     108.107E-09     113.187E-03     15.4364E+06    -4.95576E+06     16.2952E+06    -1.07184E+06    -19.6332E-03     39.0377E-03    -19.4046E-03     1.38643E-03    -19.5729E-03     38.9666E-03    -19.3383E-03     1.37176E-03
             104    -104.869E-09     112.204E-03     3.40890E+06    -10.6518E+06     4.02552E+06    -2.18761E+06    -16.9376E-03     33.8576E-03    -16.9199E-03     1.93446E-03    -16.9112E-03     33.7934E-03    -16.8893E-03     1.90554E-03
             105     140.138E-09     111.225E-03    -13.2362E+06    -18.6899E+06    -13.0277E+06    -2.69812E+06    -15.4561E-03     30.9018E-03    -15.4457E-03     2.53395E-03    -15.4764E-03     30.8464E-03    -15.4645E-03     2.49865E-03
             106    -156.895E-09     110.248E-03    -31.5827E+06    -26.7557E+06    -31.7175E+06    -2.10842E+06    -14.8654E-03     29.7457E-03    -14.8803E-03     2.97011E-03    -14.9385E-03     29.7037E-03    -14.9543E-03     2.94260E-03
             107     141.700E-09     109.272E-03    -50.8246E+06    -33.7076E+06    -50.4354E+06    -2.11368E+06    -14.9312E-03     29.8808E-03    -14.9497E-03     3.29171E-03    -15.0633E-03     29.8591E-03    -15.0793E-03     3.26423E-03
             108    -159.628E-09     108.294E-03    -68.9787E+06    -40.1739E+06    -69.4047E+06    -1.77845E+06    -15.4274E-03     30.8740E-03    -15.4466E-03     3.50591E-03    -15.6135E-03     30.8738E-03    -15.6353E-03     3.48283E-03
             109     133.473E-09     107.316E-03    -82.1650E+06    -44.4368E+06    -82.1585E+06    -838.716E+03    -16.2603E-03     32.5345E-03    -16.2742E-03     3.64576E-03    -16.4876E-03     32.5506E-03    -16.5015E-03     3.63484E-03
             110    -137.574E-09     106.335E-03    -74.5107E+06    -46.1637E+06    -74.8346E+06    -136.386E+03    -17.3931E-03     34.7903E-03    -17.3972E-03     3.74473E-03    -17.5902E-03     34.7760E-03    -17.5964E-03     3.74285E-03
             111     124.794E-09     105.352E-03    -51.2794E+06    -44.9089E+06    -51.4324E+06     843.290E+03    -18.7110E-03     37.4182E-03    -18.7072E-03     3.80396E-03    -18.8278E-03     37.3425E-03    -18.8248E-03     3.81466E-03
             112    -112.946E-09     104.366E-03    -34.8828E+06    -42.9444E+06    -34.4573E+06     375.215E+03    -20.0304E-03     40.0505E-03    -20.0202E-03     3.80527E-03    -20.0926E-03     39.9363E-03    -20.0796E-03     3.80977E-03
             113     117.993E-09     103.378E-03    -29.2252E+06    -43.6770E+06    -28.9852E+06    -835.426E+03    -21.2274E-03     42.4409E-03    -21.2135E-03     3.76773E-03    -21.2682E-03     42.3068E-03    -21.2527E-03     3.75639E-03
             114    -101.844E-09     102.387E-03    -27.1631E+06    -47.0129E+06    -27.3372E+06    -1.10205E+06    -22.2709E-03     44.5257E-03    -22.2548E-03     3.71203E-03    -22.2989E-03     44.3697E-03    -22.2840E-03     3.69702E-03
             115     106.077E-09     101.395E-03    -27.3505E+06    -51.0694E+06    -27.1209E+06    -1.33171E+06    -23.1493E-03     46.2812E-03    -23.1319E-03     3.64962E-03    -23.1727E-03     46.1049E-03    -23.1538E-03     3.63142E-03
             116    -82.9781E-09     100.401E-03    -28.9635E+06    -56.5410E+06    -28.9941E+06    -1.86031E+06    -23.8570E-03     47.6955E-03    -23.8384E-03     3.58966E-03    -23.8779E-03     47.4968E-03    -23.8594E-03     3.56442E-03
             117     86.5629E-09     99.4063E-03    -31.3712E+06    -62.6756E+06    -31.4525E+06    -1.78095E+06    -24.4106E-03     48.8016E-03    -24.3911E-03     3.53775E-03    -24.4310E-03     48.5794E-03    -24.4120E-03     3.51336E-03
             118    -62.3590E-09     98.4103E-03    -34.4312E+06    -68.8255E+06    -34.4212E+06    -1.81230E+06    -24.8333E-03     49.6472E-03    -24.8139E-03     3.49649E-03    -24.8558E-03     49.4030E-03    -24.8363E-03     3.47154E-03
             119     66.9679E-09     97.4137E-03    -37.3986E+06    -74.8689E+06    -37.4833E+06    -1.75805E+06    -25.1496E-03     50.2799E-03    -25.1303E-03     3.46363E-03    -25.1737E-03     50.0141E-03    -25.1549E-03     3.43927E-03
             120    -44.0479E-09     96.4165E-03    -40.4279E+06    -80.7369E+06    -40.4597E+06    -1.66902E+06    -25.3814E-03     50.7427E-03    -25.3613E-03     3.43921E-03    -25.4078E-03     50.4563E-03    -25.3879E-03     3.41592E-03
             121     50.6543E-09     95.4189E-03    -42.9455E+06    -86.0737E+06    -43.0498E+06    -1.47550E+06    -25.5482E-03     51.0756E-03    -25.5274E-03     3.42171E-03    -25.5758E-03     50.7700E-03    -25.5555E-03     3.40085E-03
             122    -27.0945E-09     94.4211E-03    -45.5057E+06    -91.3071E+06    -45.3791E+06    -1.58717E+06    -25.6669E-03     51.3134E-03    -25.6465E-03     3.41045E-03    -25.6963E-03     50.9887E-03    -25.6750E-03     3.38809E-03
             123     35.6313E-09     93.4232E-03    -47.5531E+06    -96.7249E+06    -47.6924E+06    -1.58696E+06    -25.7496E-03     51.4796E-03    -25.7300E-03     3.40159E-03    -25.7780E-03     51.1342E-03    -25.7593E-03     3.37919E-03
             124    -16.5389E-09     92.4251E-03    -49.2241E+06    -101.774E+06    -49.2398E+06    -1.37022E+06    -25.8057E-03     51.5914E-03    -25.7857E-03     3.39508E-03    -25.8329E-03     51.2254E-03    -25.8130E-03     3.37546E-03
             125     27.0209E-09     91.4269E-03    -50.2573E+06    -106.151E+06    -50.3477E+06    -1.19588E+06    -25.8423E-03     51.6637E-03    -25.8214E-03     3.39154E-03    -25.8667E-03     51.2789E-03    -25.8463E-03     3.37416E-03
             126    -6.98365E-09     90.4287E-03    -51.2474E+06    -110.056E+06    -51.2375E+06    -1.08960E+06    -25.8649E-03     51.7088E-03    -25.8439E-03     3.39033E-03    -25.8873E-03     51.3071E-03    -25.8662E-03     3.37431E-03
             127     18.7159E-09     89.4305E-03    -51.6942E+06    -113.574E+06    -51.7735E+06    -971.538E+03    -25.8782E-03     51.7363E-03    -25.8580E-03     3.38944E-03    -25.8970E-03     51.3185E-03    -25.8773E-03     3.37494E-03
             128    -1.09534E-09     88.4323E-03    -52.0417E+06    -116.738E+06    -52.0269E+06    -880.594E+03    -25.8853E-03     51.7506E-03    -25.8653E-03     3.38845E-03    -25.9009E-03     51.3179E-03    -25.8807E-03     3.37512E-03
             129     13.7123E-09     87.4341E-03    -51.9990E+06    -119.589E+06    -52.0666E+06    -788.447E+03    -25.8883E-03     51.7558E-03    -25.8675E-03     3.38834E-03    -25.8994E-03     51.3088E-03    -25.8791E-03     3.37621E-03
             130     4.12181E-09     86.4359E-03    -51.9175E+06    -122.128E+06    -51.9098E+06    -697.888E+03    -25.8887E-03     51.7565E-03    -25.8678E-03     3.38902E-03    -25.8959E-03     51.2964E-03    -25.8750E-03     3.37805E-03
             131     9.50616E-09     85.4377E-03    -51.5976E+06    -124.380E+06    -51.6497E+06    -619.392E+03    -25.8875E-03     51.7547E-03    -25.8671E-03     3.38938E-03    -25.8903E-03     51.2825E-03    -25.8702E-03     3.37943E-03
             132     6.81567E-09     84.4396E-03    -51.2962E+06    -126.355E+06    -51.2959E+06    -537.493E+03    -25.8856E-03     51.7509E-03    -25.8653E-03     3.38952E-03    -25.8845E-03     51.2679E-03    -25.8642E-03     3.38063E-03
             133     7.28353E-09     83.4414E-03    -50.8572E+06    -128.060E+06    -50.9020E+06    -458.956E+03    -25.8833E-03     51.7460E-03    -25.8627E-03     3.38978E-03    -25.8782E-03     51.2533E-03    -25.8578E-03     3.38191E-03
             134     9.09857E-09     82.4433E-03    -50.4607E+06    -129.493E+06    -50.4641E+06    -381.031E+03    -25.8809E-03     51.7413E-03    -25.8603E-03     3.39009E-03    -25.8724E-03     51.2402E-03    -25.8517E-03     3.38323E-03
             135     5.48796E-09     81.4451E-03    -50.0078E+06    -130.662E+06    -50.0501E+06    -301.408E+03    -25.8786E-03     51.7368E-03    -25.8582E-03     3.39026E-03    -25.8667E-03     51.2286E-03    -25.8464E-03     3.38443E-03
             136     10.1833E-09     80.4470E-03    -49.5772E+06    -131.489E+06    -49.6059E+06    -182.707E+03    -25.8767E-03     51.7329E-03    -25.8562E-03     3.39053E-03    -25.8620E-03     51.2193E-03    -25.8417E-03     3.38623E-03
             137     4.44540E-09     79.4489E-03    -49.1676E+06    -131.846E+06    -49.2324E+06    -23.6334E+03    -25.8738E-03     51.7273E-03    -25.8535E-03     3.39053E-03    -25.8572E-03     51.2109E-03    -25.8372E-03     3.38828E-03
             138     10.6659E-09     78.4508E-03    -49.0516E+06    -131.823E+06    -49.0236E+06     35.2019E+03    -25.8689E-03     51.7172E-03    -25.8483E-03     3.39024E-03    -25.8519E-03     51.2004E-03    -25.8312E-03     3.38876E-03
             139     5.30765E-09     77.4527E-03    -49.1290E+06    -132.015E+06    -49.0489E+06    -150.281E+03    -25.8641E-03     51.7071E-03    -25.8430E-03     3.39065E-03    -25.8473E-03     51.1895E-03    -25.8256E-03     3.38677E-03
             140     11.4484E-09     76.4547E-03    -48.4203E+06    -132.862E+06    -48.3860E+06    -342.000E+03    -25.8669E-03     51.7127E-03    -25.8457E-03     3.39192E-03    -25.8463E-03     51.1888E-03    -25.8248E-03     3.38557E-03
             141     4.19314E-09     75.4566E-03    -47.7937E+06    -133.977E+06    -47.8519E+06    -304.084E+03    -25.8710E-03     51.7217E-03    -25.8507E-03     3.39212E-03    -25.8464E-03     51.1905E-03    -25.8264E-03     3.38626E-03
             142     9.98883E-09     74.4585E-03    -47.8153E+06    -134.739E+06    -47.8516E+06    -146.357E+03    -25.8703E-03     51.7206E-03    -25.8502E-03     3.39124E-03    -25.8447E-03     51.1856E-03    -25.8248E-03     3.38741E-03
             143     5.51150E-09     73.4604E-03    -47.5676E+06    -135.103E+06    -47.5796E+06    -65.3967E+03    -25.8698E-03     51.7186E-03    -25.8488E-03     3.39136E-03    -25.8428E-03     51.1811E-03    -25.8218E-03     3.38858E-03
             144     10.5314E-09     72.4624E-03    -47.4002E+06    -135.251E+06    -47.4147E+06    -21.7161E+03    -25.8694E-03     51.7177E-03    -25.8483E-03     3.39219E-03    -25.8416E-03     51.1790E-03    -25.8205E-03     3.38997E-03
             145     5.13447E-09     71.4643E-03    -47.2592E+06    -135.311E+06    -47.2519E+06    -11.6891E+03    -25.8693E-03     51.7184E-03    -25.8490E-03     3.39221E-03    -25.8410E-03     51.1789E-03    -25.8206E-03     3.39013E-03
             146     9.68830E-09     70.4662E-03    -47.2108E+06    -135.380E+06    -47.2103E+06    -28.0699E+03    -25.8689E-03     51.7175E-03    -25.8487E-03     3.39155E-03    -25.8402E-03     51.1776E-03    -25.8200E-03     3.38925E-03
             147     5.66208E-09     69.4682E-03    -47.1664E+06    -135.434E+06    -47.1826E+06    -3.44684E+03    -25.8684E-03     51.7161E-03    -25.8477E-03     3.39147E-03    -25.8395E-03     51.1757E-03    -25.8188E-03     3.38949E-03
             148     9.99953E-09     68.4701E-03    -46.9913E+06    -135.399E+06    -46.9932E+06     25.8305E+03    -25.8689E-03     51.7171E-03    -25.8482E-03     3.39205E-03    -25.8394E-03     51.1764E-03    -25.8187E-03     3.39045E-03
             149     5.35780E-09     67.4720E-03    -46.9174E+06    -135.341E+06    -46.9068E+06     7.68611E+03    -25.8688E-03     51.7179E-03    -25.8491E-03     3.39218E-03    -25.8392E-03     51.1773E-03    -25.8194E-03     3.39034E-03
             150     8.81446E-09     66.4740E-03    -46.8869E+06    -135.334E+06    -46.8927E+06    -1.84425E+03    -25.8689E-03     51.7180E-03    -25.8492E-03     3.39150E-03    -25.8391E-03     51.1774E-03    -25.8194E-03     3.38954E-03
             151     6.24494E-09     65.4759E-03    -46.8384E+06    -135.307E+06    -46.8464E+06     18.5107E+03    -25.8690E-03     51.7174E-03    -25.8484E-03     3.39148E-03    -25.8392E-03     51.1768E-03    -25.8185E-03     3.38979E-03
             152     9.61927E-09     64.4778E-03    -46.8587E+06    -135.236E+06    -46.8543E+06     22.1124E+03    -25.8687E-03     51.7166E-03    -25.8479E-03     3.39216E-03    -25.8391E-03     51.1764E-03    -25.8181E-03     3.39051E-03
             153     5.92908E-09     63.4798E-03    -46.8058E+06    -135.194E+06    -46.8015E+06     4.60845E+03    -25.8690E-03     51.7176E-03    -25.8486E-03     3.39186E-03    -25.8392E-03     51.1774E-03    -25.8187E-03     3.38998E-03
             154     9.23854E-09     62.4817E-03    -46.7860E+06    -135.199E+06    -46.7847E+06    -7.67007E+03    -25.8692E-03     51.7178E-03    -25.8486E-03     3.39133E-03    -25.8393E-03     51.1775E-03    -25.8186E-03     3.38930E-03
             155     6.62734E-09     61.4836E-03    -46.7898E+06    -135.204E+06    -46.8008E+06     5.69326E+03    -25.8691E-03     51.7176E-03    -25.8485E-03     3.39167E-03    -25.8392E-03     51.1774E-03    -25.8186E-03     3.38981E-03
             156     8.38552E-09     60.4856E-03    -46.7461E+06    -135.138E+06    -46.7528E+06     33.4077E+03    -25.8690E-03     51.7177E-03    -25.8487E-03     3.39132E-03    -25.8390E-03     51.1776E-03    -25.8188E-03     3.38982E-03
             157     6.78046E-09     59.4875E-03    -46.7080E+06    -135.063E+06    -46.6892E+06     9.38010E+03    -25.8684E-03     51.7162E-03    -25.8478E-03     3.39043E-03    -25.8384E-03     51.1764E-03    -25.8177E-03     3.38862E-03
             158     9.07759E-09     58.4894E-03    -46.7300E+06    -135.092E+06    -46.7296E+06    -26.0645E+03    -25.8675E-03     51.7142E-03    -25.8466E-03     3.39056E-03    -25.8376E-03     51.1743E-03    -25.8167E-03     3.38829E-03
             159     7.74275E-09     56.4933E-03    -46.7539E+06    -135.158E+06    -46.7538E+06     7.42354E+03    -25.8647E-03     51.7099E-03    -25.8452E-03     3.38918E-03    -25.8348E-03     51.1698E-03    -25.8152E-03     3.38734E-03
             160     7.03027E-09     55.4953E-03    -46.7470E+06    -135.136E+06    -46.7475E+06     5.19738E+03    -25.8625E-03     51.7047E-03    -25.8421E-03     3.38816E-03    -25.8326E-03     51.1646E-03    -25.8122E-03     3.38629E-03
             161     8.71306E-09     54.4972E-03    -46.7373E+06    -135.104E+06    -46.7431E+06     12.9692E+03    -25.8598E-03     51.6989E-03    -25.8391E-03     3.38805E-03    -25.8299E-03     51.1590E-03    -25.8092E-03     3.38628E-03
             162     6.52600E-09     53.4992E-03    -46.7207E+06    -135.071E+06    -46.7122E+06     5.12907E+03    -25.8565E-03     51.6932E-03    -25.8367E-03     3.38707E-03    -25.8265E-03     51.1534E-03    -25.8067E-03     3.38521E-03
             163     7.72400E-09     52.5011E-03    -46.7268E+06    -135.078E+06    -46.7290E+06    -9.05493E+03    -25.8523E-03     51.6853E-03    -25.8330E-03     3.38539E-03    -25.8223E-03     51.1454E-03    -25.8030E-03     3.38334E-03
             164     6.69092E-09     51.5031E-03    -46.7437E+06    -135.084E+06    -46.7518E+06     4.87053E+03    -25.8470E-03     51.6744E-03    -25.8274E-03     3.38433E-03    -25.8171E-03     51.1346E-03    -25.7975E-03     3.38246E-03
             165     8.11442E-09     50.5051E-03    -46.7356E+06    -135.076E+06    -46.7259E+06    -1.62208E+03    -25.8406E-03     51.6615E-03    -25.8209E-03     3.38299E-03    -25.8108E-03     51.1217E-03    -25.7909E-03     3.38104E-03
             166     6.69216E-09     49.5071E-03    -46.7422E+06    -135.102E+06    -46.7468E+06    -14.6505E+03    -25.8328E-03     51.6463E-03    -25.8135E-03     3.38093E-03    -25.8029E-03     51.1064E-03    -25.7835E-03     3.37882E-03
             167     7.19018E-09     48.5091E-03    -46.7440E+06    -135.116E+06    -46.7543E+06     6.63447E+03    -25.8233E-03     51.6278E-03    -25.8046E-03     3.37794E-03    -25.7933E-03     51.0879E-03    -25.7746E-03     3.37610E-03
             168     6.43667E-09     47.5111E-03    -46.7343E+06    -135.087E+06    -46.7281E+06       8.318E+03    -25.8112E-03     51.6038E-03    -25.7927E-03     3.37410E-03    -25.7813E-03     51.0640E-03    -25.7627E-03     3.37229E-03
             169     7.32192E-09     46.5132E-03    -46.7318E+06    -135.080E+06    -46.7336E+06    -4.60161E+03    -25.7960E-03     51.5736E-03    -25.7776E-03     3.37004E-03    -25.7661E-03     51.0338E-03    -25.7476E-03     3.36807E-03
             170     6.02441E-09     45.5153E-03    -46.7576E+06    -135.094E+06    -46.7598E+06    -4.21031E+03    -25.7772E-03     51.5367E-03    -25.7595E-03     3.36506E-03    -25.7474E-03     50.9969E-03    -25.7296E-03     3.36309E-03
             171     6.53679E-09     44.5174E-03    -46.7660E+06    -135.093E+06    -46.7729E+06     3.73510E+03    -25.7537E-03     51.4903E-03    -25.7365E-03     3.35834E-03    -25.7239E-03     50.9505E-03    -25.7067E-03     3.35648E-03
             172     5.87601E-09     43.5196E-03    -46.7477E+06    -135.071E+06    -46.7482E+06     8.65664E+03    -25.7249E-03     51.4328E-03    -25.7079E-03     3.35117E-03    -25.6950E-03     50.8931E-03    -25.6780E-03     3.34938E-03
             173     6.31562E-09     42.5219E-03    -46.7354E+06    -135.046E+06    -46.7383E+06     5.37892E+03    -25.6897E-03     51.3633E-03    -25.6737E-03     3.34269E-03    -25.6598E-03     50.8237E-03    -25.6438E-03     3.34086E-03
             174     4.48466E-09     41.5242E-03    -46.7472E+06    -135.038E+06    -46.7460E+06    -1.35914E+03    -25.6469E-03     51.2783E-03    -25.6314E-03     3.33111E-03    -25.6171E-03     50.7387E-03    -25.6016E-03     3.32920E-03
             175     6.84687E-09     40.5266E-03    -46.7436E+06    -135.039E+06    -46.7524E+06        -13.0486    -25.5953E-03     51.1754E-03    -25.5801E-03     3.31874E-03    -25.5655E-03     50.6359E-03    -25.5503E-03     3.31686E-03
             176     3.34914E-09     39.5292E-03    -46.7597E+06    -135.033E+06    -46.7593E+06     3.05130E+03    -25.5340E-03     51.0534E-03    -25.5194E-03     3.30349E-03    -25.5043E-03     50.5139E-03    -25.4896E-03     3.30166E-03
             177     7.13669E-09     38.5318E-03    -46.7666E+06    -135.003E+06    -46.7819E+06     13.9006E+03    -25.4619E-03     50.9089E-03    -25.4470E-03     3.28539E-03    -25.4322E-03     50.3695E-03    -25.4174E-03     3.28372E-03
             178     3.36518E-09     37.5346E-03    -46.7566E+06    -134.943E+06    -46.7530E+06     20.8560E+03    -25.3779E-03     50.7410E-03    -25.3631E-03     3.26627E-03    -25.3483E-03     50.2019E-03    -25.3334E-03     3.26470E-03
             179     7.28005E-09     36.5377E-03    -46.7480E+06    -134.906E+06    -46.7495E+06        -601.856    -25.2805E-03     50.5469E-03    -25.2664E-03     3.24261E-03    -25.2509E-03     50.0080E-03    -25.2367E-03     3.24078E-03
             180     2.14184E-09     35.5409E-03    -46.7021E+06    -134.868E+06    -46.7230E+06     22.5656E+03    -25.1689E-03     50.3236E-03    -25.1547E-03     3.21537E-03    -25.1391E-03     49.7847E-03    -25.1250E-03     3.21386E-03
             181     8.49880E-09     34.5443E-03    -46.5377E+06    -134.735E+06    -46.5488E+06     56.2285E+03    -25.0413E-03     50.0674E-03    -25.0261E-03     3.18458E-03    -25.0112E-03     49.5288E-03    -24.9960E-03     3.18353E-03
             182     2.90006E-09     33.5480E-03    -46.7193E+06    -134.262E+06    -46.8163E+06     219.278E+03    -24.8936E-03     49.7718E-03    -24.8782E-03     3.15121E-03    -24.8647E-03     49.2361E-03    -24.8498E-03     3.15229E-03
             183     7.15052E-09     32.5521E-03    -46.4138E+06    -133.289E+06    -46.4107E+06     355.918E+03    -24.7266E-03     49.4381E-03    -24.7115E-03     3.11206E-03    -24.6982E-03     48.9063E-03    -24.6830E-03     3.11493E-03
             184     5.07685E-09     31.5565E-03    -47.5690E+06    -132.169E+06    -47.5521E+06     289.636E+03    -24.5306E-03     49.0453E-03    -24.5148E-03     3.06720E-03    -24.5079E-03     48.5225E-03    -24.4919E-03     3.06926E-03
             185     6.40838E-09     30.5613E-03    -47.1293E+06    -131.400E+06    -47.0838E+06     167.640E+03    -24.3210E-03     48.6251E-03    -24.3041E-03     3.01826E-03    -24.2979E-03     48.1048E-03    -24.2807E-03     3.01877E-03
             186     8.10966E-09     29.5665E-03    -47.0259E+06    -131.142E+06    -46.9840E+06    -16.8401E+03    -24.0875E-03     48.1567E-03    -24.0692E-03     2.96258E-03    -24.0644E-03     47.6373E-03    -24.0458E-03     2.96075E-03
             187     6.08441E-09     28.5723E-03    -47.3175E+06    -131.345E+06    -47.3163E+06    -112.317E+03    -23.8285E-03     47.6369E-03    -23.8084E-03     2.90207E-03    -23.8060E-03     47.1174E-03    -23.7860E-03     2.89905E-03
             188     11.1415E-09     27.5785E-03    -46.0144E+06    -131.802E+06    -46.0106E+06    -148.024E+03    -23.5537E-03     47.0855E-03    -23.5318E-03     2.83543E-03    -23.5260E-03     46.5600E-03    -23.5040E-03     2.83199E-03
             189     6.49835E-09     26.5854E-03    -46.2975E+06    -132.058E+06    -46.4013E+06    -11.0008E+03    -23.2464E-03     46.4685E-03    -23.2221E-03     2.76340E-03    -23.2192E-03     45.9427E-03    -23.1955E-03     2.76178E-03
             190     13.9505E-09     25.5929E-03    -46.1766E+06    -131.683E+06    -46.2253E+06     227.350E+03    -22.9193E-03     45.8112E-03    -22.8919E-03     2.68720E-03    -22.8923E-03     45.2868E-03    -22.8652E-03     2.68872E-03
             191     9.97348E-09     24.6011E-03    -45.7322E+06    -130.518E+06    -45.8375E+06     465.217E+03    -22.5771E-03     45.1232E-03    -22.5461E-03     2.60750E-03    -22.5501E-03     44.6035E-03    -22.5197E-03     2.61214E-03
             192     16.4762E-09     23.6099E-03    -46.3509E+06    -128.676E+06    -46.3452E+06     615.357E+03    -22.2175E-03     44.4000E-03    -22.1825E-03     2.52524E-03    -22.1955E-03     43.8911E-03    -22.1604E-03     2.53188E-03
             193     15.9134E-09     22.6195E-03    -46.9285E+06    -126.841E+06    -46.8469E+06     463.307E+03    -21.8578E-03     43.6753E-03    -21.8175E-03     2.44269E-03    -21.8406E-03     43.1770E-03    -21.7998E-03     2.44743E-03
             194     20.8819E-09     21.6298E-03    -46.1418E+06    -125.502E+06    -46.1456E+06     335.996E+03    -21.5144E-03     42.9824E-03    -21.4680E-03     2.35722E-03    -21.4962E-03     42.4887E-03    -21.4498E-03     2.36036E-03
             195     21.5277E-09     20.6408E-03    -45.7598E+06    -124.425E+06    -45.7394E+06     300.559E+03    -21.1783E-03     42.3043E-03    -21.1259E-03     2.26486E-03    -21.1604E-03     41.8148E-03    -21.1079E-03     2.26760E-03
             196     26.3135E-09     19.6524E-03    -45.2249E+06    -123.164E+06    -45.3454E+06     447.690E+03    -20.8395E-03     41.6224E-03    -20.7829E-03     2.15937E-03    -20.8213E-03     41.1379E-03    -20.7654E-03     2.16407E-03
             197     22.2768E-09     18.6647E-03    -44.2736E+06    -121.439E+06    -44.2590E+06     577.207E+03    -20.4764E-03     40.8924E-03    -20.4160E-03     2.02546E-03    -20.4575E-03     40.4136E-03    -20.3970E-03     2.03191E-03
             198     34.0455E-09     17.6778E-03    -42.9518E+06    -119.531E+06    -42.9971E+06     544.553E+03    -20.0567E-03     40.0428E-03    -19.9861E-03     1.85783E-03    -20.0358E-03     39.5698E-03    -19.9655E-03     1.86392E-03
             199     32.0976E-09     16.6918E-03    -41.6934E+06    -117.281E+06    -41.8567E+06     799.288E+03    -19.5555E-03     39.0207E-03    -19.4652E-03     1.66197E-03    -19.5333E-03     38.5555E-03    -19.4439E-03     1.67143E-03
             200     58.2989E-09     15.7069E-03    -40.2959E+06    -114.422E+06    -40.2757E+06     891.568E+03    -18.9422E-03     37.7786E-03    -18.8364E-03     1.43816E-03    -18.9194E-03     37.3233E-03    -18.8134E-03     1.44889E-03
             201     37.7143E-09     14.7233E-03    -38.2574E+06    -111.054E+06    -38.5353E+06     1.11224E+06    -18.1619E-03     36.2439E-03    -18.0821E-03     1.16792E-03    -18.1363E-03     35.8000E-03    -18.0583E-03     1.18160E-03
             202     3.74241E-09     13.7414E-03    -35.4393E+06    -106.782E+06    -35.4904E+06     1.46604E+06    -17.1845E-03     34.3225E-03    -17.1380E-03     840.123E-06    -17.1555E-03     33.8914E-03    -17.1092E-03     858.505E-06
             203     36.6854E-09     12.7616E-03    -29.7400E+06    -102.555E+06    -29.5735E+06     1.09447E+06    -16.0273E-03     31.9854E-03    -15.9581E-03     554.318E-06    -15.9845E-03     31.5586E-03    -15.9141E-03     568.023E-06
             204     47.9855E-09     11.7842E-03    -27.6798E+06    -100.025E+06    -27.5062E+06     403.615E+03    -14.7057E-03     29.3041E-03    -14.5983E-03     333.715E-06    -14.6593E-03     28.8839E-03    -14.5507E-03     338.529E-06
             205     60.6448E-09     10.8097E-03    -32.9677E+06    -99.9430E+06    -32.5503E+06    -418.750E+03    -13.3959E-03     26.6812E-03    -13.2853E-03     242.316E-06    -13.3687E-03     26.2764E-03    -13.2553E-03     236.490E-06
             206     32.5169E-09     9.83755E-03    -38.3307E+06    -101.960E+06    -38.1101E+06    -795.840E+03    -12.5586E-03     25.0441E-03    -12.4855E-03     454.924E-06    -12.5472E-03     24.6451E-03    -12.4726E-03     444.231E-06
             207     6.95242E-09     8.86617E-03    -40.2748E+06    -104.436E+06    -39.9949E+06    -658.772E+03    -12.6287E-03     25.2336E-03    -12.6049E-03     876.426E-06    -12.6207E-03     24.8278E-03    -12.5951E-03     867.554E-06
             208    -1.03666E-09     7.89354E-03    -38.1438E+06    -106.875E+06    -37.9099E+06    -752.965E+03    -13.6396E-03     27.2837E-03    -13.6440E-03     1.26400E-03    -13.6205E-03     26.8595E-03    -13.6233E-03     1.25397E-03
             209    -9.77336E-09     6.91805E-03    -35.2860E+06    -109.391E+06    -35.3076E+06    -732.191E+03    -15.2578E-03     30.5300E-03    -15.2722E-03     1.48730E-03    -15.2246E-03     30.0853E-03    -15.2390E-03     1.47756E-03
             210    -4.79613E-09     5.93904E-03    -33.8749E+06    -111.315E+06    -33.9872E+06    -425.533E+03    -17.1151E-03     34.2474E-03    -17.1323E-03     1.55642E-03    -17.0740E-03     33.7891E-03    -17.0917E-03     1.55064E-03
             211    -11.8048E-09     4.95629E-03    -32.4426E+06    -112.258E+06    -32.5434E+06    -153.726E+03    -18.9742E-03     37.9665E-03    -18.9923E-03     1.50482E-03    -18.9266E-03     37.4993E-03    -18.9452E-03     1.50255E-03
             212    -4.25383E-09     3.97002E-03    -29.9899E+06    -112.126E+06    -30.2340E+06     218.370E+03    -20.6846E-03     41.3893E-03    -20.7047E-03     1.35228E-03    -20.6282E-03     40.9159E-03    -20.6498E-03     1.35484E-03
             213    -17.6589E-09     2.98056E-03    -26.6788E+06    -110.640E+06    -26.8523E+06     638.318E+03    -22.1393E-03     44.3003E-03    -22.1610E-03     1.10878E-03    -22.0734E-03     43.8246E-03    -22.0961E-03     1.11680E-03
             214    -326.542E-12     1.98858E-03    -23.2077E+06    -108.503E+06    -23.2360E+06     607.274E+03    -23.2516E-03     46.5263E-03    -23.2747E-03     788.000E-06    -23.1766E-03     46.0511E-03    -23.1999E-03     795.686E-06
             215    -22.6426E-09     994.746E-06    -20.6140E+06    -106.849E+06    -20.6898E+06     363.696E+03    -23.9491E-03     47.9228E-03    -23.9738E-03     410.397E-06    -23.8672E-03     47.4485E-03    -23.8924E-03     415.015E-06
             216     878.449E-06    -201.228E-18    -19.9455E+06    -106.540E+06    -19.9312E+06     300.878E+03    -24.2646E-03     48.4935E-03    -24.2289E-03     354.203E-06    -24.1809E-03     48.0186E-03    -24.1452E-03     358.024E-06
             217     1.75677E-03    -201.228E-18    -20.5071E+06    -107.180E+06    -20.3272E+06     433.089E+03    -24.4718E-03     48.7636E-03    -24.2918E-03     659.655E-06    -24.3894E-03     48.2869E-03    -24.2083E-03     665.118E-06
             218     2.63486E-03    -201.228E-18    -21.2835E+06    -108.030E+06    -20.9846E+06     589.476E+03    -24.7952E-03     49.1972E-03    -24.4020E-03     996.992E-06    -24.7145E-03     48.7183E-03    -24.3194E-03     1.00440E-03
             219     3.51257E-03    -201.228E-18    -21.9984E+06    -109.302E+06    -22.3296E+06     296.276E+03    -25.2443E-03     49.7947E-03    -24.5504E-03     1.36608E-03    -25.1634E-03     49.3125E-03    -24.4717E-03     1.36962E-03
             220     4.38986E-03    -201.228E-18    -22.2944E+06    -110.708E+06    -24.2519E+06    -146.778E+03    -25.8172E-03     50.5537E-03    -24.7365E-03     1.77023E-03    -25.7330E-03     50.0677E-03    -24.6649E-03     1.76793E-03
             221     5.26653E-03    -201.228E-18    -21.9636E+06    -109.363E+06    -26.9043E+06    -828.059E+03    -26.5008E-03     51.4545E-03    -24.9537E-03     2.22588E-03    -26.4130E-03     50.9785E-03    -24.8978E-03     2.21464E-03
             222     6.14257E-03    -201.228E-18    -21.0921E+06    -105.328E+06    -30.0280E+06    -1.29206E+06    -27.2896E-03     52.4916E-03    -25.2020E-03     2.72830E-03    -27.1988E-03     52.0391E-03    -25.1689E-03     2.71087E-03
             223     7.01783E-03    -201.228E-18    -19.7559E+06    -100.824E+06    -32.5822E+06    -1.77383E+06    -28.1801E-03     53.6687E-03    -25.4885E-03     3.30784E-03    -28.0855E-03     53.2405E-03    -25.4766E-03     3.28393E-03
             224     7.89220E-03    -201.228E-18    -17.5116E+06    -92.9928E+06    -36.1770E+06    -2.80371E+06    -29.1405E-03     54.9381E-03    -25.7976E-03     3.96503E-03    -29.0407E-03     54.5510E-03    -25.8183E-03     3.92742E-03
             225     8.76573E-03    -201.228E-18    -14.3741E+06    -81.9029E+06    -41.5058E+06    -3.44164E+06    -30.1596E-03     56.2816E-03    -26.1220E-03     4.70009E-03    -30.0526E-03     55.9532E-03    -26.1899E-03     4.65365E-03
             226     9.63824E-03    -201.228E-18    -10.8314E+06    -68.2354E+06    -46.8087E+06    -3.90690E+06    -31.2294E-03     57.6983E-03    -26.4689E-03     5.60237E-03    -31.1168E-03     57.4408E-03    -26.5883E-03     5.54923E-03
             227     10.5097E-03    -201.228E-18    -7.08856E+06    -50.5899E+06    -50.5735E+06    -4.29671E+06    -32.3002E-03     59.1402E-03    -26.8400E-03     6.62390E-03    -32.1891E-03     58.9710E-03    -27.0093E-03     6.56457E-03
             228     11.3803E-03    -201.228E-18    -3.71599E+06    -29.2441E+06    -51.0513E+06    -3.63323E+06    -33.3508E-03     60.5910E-03    -27.2402E-03     7.81311E-03    -33.2532E-03     60.5245E-03    -27.4477E-03     7.76074E-03
             229     12.2496E-03    -201.228E-18    -1.81227E+06    -2.33110E+06    -46.6538E+06    -2.22662E+06    -34.3415E-03     62.0125E-03    -27.6711E-03     9.40041E-03    -34.2800E-03     62.0716E-03    -27.8983E-03     9.36412E-03
             230     13.1178E-03    -201.228E-18    -1.68937E+06     33.1106E+06    -36.2606E+06    -891.486E+03    -35.1355E-03     63.2609E-03    -28.1254E-03     11.3762E-03    -35.1402E-03     63.4822E-03    -28.3522E-03     11.3538E-03
             231     13.9853E-03    -201.228E-18    -2.42888E+06     64.0011E+06    -16.0902E+06     530.964E+03    -35.7368E-03     64.3654E-03    -28.6286E-03     14.1986E-03    -35.8198E-03     64.7135E-03    -28.7984E-03     14.1898E-03
             232     14.8512E-03    -201.228E-18    -1.66512E+06     82.0126E+06     15.0586E+06     689.415E+03    -35.7965E-03     64.9734E-03    -29.1769E-03     19.4099E-03    -35.9484E-03     65.3661E-03    -29.2182E-03     19.3978E-03
             233     15.7144E-03    -201.228E-18     475.368E+03     92.0591E+06     49.0756E+06     950.177E+03    -34.1643E-03     63.8333E-03    -29.6690E-03     27.8900E-03    -34.3739E-03     64.2273E-03    -29.5578E-03     27.8685E-03
             234     16.5792E-03    -201.228E-18     1.33935E+06     94.9309E+06     66.4903E+06     1.01278E+06    -30.4549E-03     60.3816E-03    -29.9267E-03     37.1814E-03    -30.6994E-03     60.7732E-03    -29.7338E-03     37.1424E-03
             235     17.4941E-03     1.00340E-03    -1.66531E+06     94.0027E+06     65.5574E+06     3.20768E+06    -28.5783E-03     57.4804E-03    -28.9021E-03     34.8408E-03    -28.8424E-03     57.8821E-03    -28.7082E-03     34.8188E-03
             236     17.5225E-03     2.00661E-03    -2.80893E+06     95.6058E+06     65.0773E+06     5.20885E+06    -33.7751E-03     60.8746E-03    -27.0995E-03     21.1709E-03    -34.0459E-03     61.2873E-03    -26.9086E-03     21.1520E-03
             237     17.5364E-03     3.02013E-03    -1.62778E+06     99.9697E+06     67.5879E+06     2.99521E+06    -42.3248E-03     68.3111E-03    -25.9864E-03     10.1132E-03    -42.5974E-03     68.7377E-03    -25.7910E-03     10.0274E-03
             238     17.5421E-03     4.04188E-03    -1.86152E+06     102.651E+06     69.1954E+06     788.537E+03    -47.2337E-03     72.7092E-03    -25.4756E-03     5.05357E-03    -47.5129E-03     73.1460E-03    -25.2757E-03     4.91256E-03
             239     17.5437E-03     5.06458E-03    -1.40776E+06     103.671E+06     69.8275E+06    -183.870E+03    -47.9600E-03     73.2850E-03    -25.3250E-03     3.63539E-03    -48.2389E-03     73.7246E-03    -25.1241E-03     3.47651E-03
             240     17.5439E-03     6.08541E-03    -1.58043E+06     103.893E+06     69.6278E+06    -144.053E+03    -46.4121E-03     71.7498E-03    -25.3377E-03     2.96219E-03    -46.6907E-03     72.1898E-03    -25.1379E-03     2.81274E-03
             241     17.5436E-03     7.10330E-03    -1.75359E+06     104.108E+06     69.1747E+06    -66.1105E+03    -44.0092E-03     69.4181E-03    -25.4089E-03     2.21235E-03    -44.2870E-03     69.8586E-03    -25.2115E-03     2.07727E-03
             242     17.5431E-03     8.11848E-03    -1.61239E+06     104.397E+06     68.7467E+06     171.129E+03    -41.6070E-03     67.0970E-03    -25.4900E-03     1.51745E-03    -41.8828E-03     67.5383E-03    -25.2954E-03     1.39806E-03
             243     17.5428E-03     9.13154E-03    -1.78702E+06     105.016E+06     68.5905E+06     429.039E+03    -39.5601E-03     65.1194E-03    -25.5594E-03     1.23937E-03    -39.8370E-03     65.5639E-03    -25.3661E-03     1.13315E-03
             244     17.5427E-03     10.1431E-03    -1.90021E+06     105.749E+06     68.6656E+06     363.806E+03    -37.9644E-03     63.5721E-03    -25.6077E-03     1.48940E-03    -38.2433E-03     64.0205E-03    -25.4149E-03     1.38896E-03
             245     17.5427E-03     11.1536E-03    -1.80067E+06     106.293E+06     68.8231E+06     248.478E+03    -36.7723E-03     62.4069E-03    -25.6346E-03     2.15348E-03    -37.0524E-03     62.8584E-03    -25.4420E-03     2.05577E-03
             246     17.5430E-03     12.1631E-03    -1.80192E+06     106.706E+06     68.9901E+06     231.620E+03    -35.8917E-03     61.5363E-03    -25.6446E-03     3.01213E-03    -36.1737E-03     61.9907E-03    -25.4518E-03     2.91690E-03
             247     17.5433E-03     13.1721E-03    -1.69413E+06     107.207E+06     69.2204E+06     319.189E+03    -35.2482E-03     60.8915E-03    -25.6434E-03     3.93182E-03    -35.5320E-03     61.3492E-03    -25.4503E-03     3.83931E-03
             248     17.5436E-03     14.1805E-03    -1.77748E+06     107.914E+06     69.5505E+06     391.551E+03    -34.7235E-03     60.3615E-03    -25.6380E-03     4.82684E-03    -35.0105E-03     60.8236E-03    -25.4441E-03     4.73645E-03
             249     17.5439E-03     15.1884E-03    -1.85331E+06     108.596E+06     69.8612E+06     274.323E+03    -34.2098E-03     59.8435E-03    -25.6337E-03     5.67950E-03    -34.5000E-03     60.3100E-03    -25.4391E-03     5.58895E-03
             250     17.5442E-03     16.1958E-03    -1.77632E+06     109.046E+06     70.0223E+06     160.490E+03    -33.6551E-03     59.2876E-03    -25.6325E-03     6.48862E-03    -33.9470E-03     59.7573E-03    -25.4380E-03     6.39838E-03
             251     17.5444E-03     17.2025E-03    -1.79534E+06     109.347E+06     70.1049E+06     122.069E+03    -33.0382E-03     58.6741E-03    -25.6359E-03     7.22868E-03    -33.3320E-03     59.1464E-03    -25.4413E-03     7.14031E-03
             252     17.5446E-03     18.2086E-03    -1.78801E+06     109.595E+06     70.2039E+06     95.3111E+03    -32.3789E-03     58.0222E-03    -25.6433E-03     7.90688E-03    -32.6743E-03     58.4967E-03    -25.4486E-03     7.82094E-03
             253     17.5447E-03     19.2140E-03    -1.79542E+06     109.815E+06     70.2505E+06     83.2771E+03    -31.7063E-03     57.3591E-03    -25.6529E-03     8.49603E-03    -32.0030E-03     57.8356E-03    -25.4582E-03     8.41293E-03
             254     17.5448E-03     20.2186E-03    -1.79496E+06     110.018E+06     70.2737E+06     78.7690E+03    -31.0422E-03     56.7058E-03    -25.6637E-03     8.99115E-03    -31.3400E-03     57.1841E-03    -25.4692E-03     8.91112E-03
             255     17.5449E-03     21.2225E-03    -1.80178E+06     110.208E+06     70.3333E+06     81.8712E+03    -30.4108E-03     56.0858E-03    -25.6749E-03     9.41547E-03    -30.7098E-03     56.5656E-03    -25.4805E-03     9.33856E-03
             256     17.5449E-03     22.2258E-03    -1.80587E+06     110.388E+06     70.3903E+06     74.3216E+03    -29.8188E-03     55.5049E-03    -25.6861E-03     9.77782E-03    -30.1187E-03     55.9861E-03    -25.4916E-03     9.70376E-03
             257     17.5450E-03     23.2285E-03    -1.81001E+06     110.556E+06     70.4526E+06     67.3071E+03    -29.2649E-03     54.9622E-03    -25.6973E-03     10.0920E-03    -29.5657E-03     55.4447E-03    -25.5027E-03     10.0207E-03
             258     17.5450E-03     24.2307E-03    -1.81361E+06     110.709E+06     70.5706E+06     59.2947E+03    -28.7540E-03     54.4625E-03    -25.7085E-03     10.3638E-03    -29.0556E-03     54.9460E-03    -25.5136E-03     10.2950E-03
             259     17.5451E-03     25.2324E-03    -1.81175E+06     110.848E+06     70.6319E+06     45.5983E+03    -28.2716E-03     53.9907E-03    -25.7191E-03     10.5849E-03    -28.5738E-03     54.4751E-03    -25.5240E-03     10.5184E-03
             260     17.5451E-03     26.2335E-03    -1.81517E+06     110.966E+06     70.6170E+06     47.0361E+03    -27.8202E-03     53.5484E-03    -25.7282E-03     10.7608E-03    -28.1229E-03     54.0337E-03    -25.5334E-03     10.6967E-03
             261     17.5451E-03     27.2343E-03    -1.81902E+06     111.073E+06     70.6485E+06     52.6087E+03    -27.4301E-03     53.1662E-03    -25.7362E-03     10.9035E-03    -27.7332E-03     53.6523E-03    -25.5413E-03     10.8415E-03
             262     17.5452E-03     28.2347E-03    -1.81994E+06     111.175E+06     70.6942E+06     40.7555E+03    -27.0943E-03     52.8377E-03    -25.7434E-03     11.0213E-03    -27.3978E-03     53.3244E-03    -25.5485E-03     10.9610E-03
             263     17.5452E-03     29.2347E-03    -1.81854E+06     111.262E+06     70.7325E+06     30.0501E+03    -26.7882E-03     52.5385E-03    -25.7503E-03     11.1237E-03    -27.0920E-03     53.0257E-03    -25.5554E-03     11.0649E-03
             264     17.5452E-03     30.2345E-03    -1.81953E+06     111.332E+06     70.7661E+06     26.9033E+03    -26.5119E-03     52.2686E-03    -25.7567E-03     11.2063E-03    -26.8161E-03     52.7563E-03    -25.5616E-03     11.1489E-03
             265     17.5452E-03     31.2340E-03    -1.82118E+06     111.391E+06     70.7907E+06     23.5003E+03    -26.2703E-03     52.0326E-03    -25.7623E-03     11.2723E-03    -26.5747E-03     52.5206E-03    -25.5672E-03     11.2161E-03
             266     17.5452E-03     32.2333E-03    -1.82068E+06     111.443E+06     70.8095E+06     19.1702E+03    -26.0609E-03     51.8281E-03    -25.7673E-03     11.3250E-03    -26.3654E-03     52.3165E-03    -25.5722E-03     11.2699E-03
             267     17.5452E-03     33.2324E-03    -1.82041E+06     111.486E+06     70.8312E+06     15.6508E+03    -25.8787E-03     51.6504E-03    -25.7717E-03     11.3649E-03    -26.1833E-03     52.1390E-03    -25.5766E-03     11.3107E-03
             268     17.5452E-03     34.2313E-03    -1.82099E+06     111.519E+06     70.8486E+06     13.4686E+03    -25.7209E-03     51.4965E-03    -25.7756E-03     11.4004E-03    -26.0257E-03     51.9853E-03    -25.5805E-03     11.3470E-03
             269     17.5452E-03     35.2301E-03    -1.82115E+06     111.547E+06     70.8633E+06     10.8331E+03    -25.5859E-03     51.3648E-03    -25.7789E-03     11.4314E-03    -25.8908E-03     51.8537E-03    -25.5837E-03     11.3786E-03
             270     17.5452E-03     36.2287E-03    -1.82125E+06     111.570E+06     70.8755E+06     8.32561E+03    -25.4712E-03     51.2530E-03    -25.7818E-03     11.4556E-03    -25.7762E-03     51.7420E-03    -25.5866E-03     11.4035E-03
             271     17.5452E-03     37.2273E-03    -1.82083E+06     111.588E+06     70.8835E+06     6.33869E+03    -25.3745E-03     51.1588E-03    -25.7843E-03     11.4762E-03    -25.6796E-03     51.6480E-03    -25.5890E-03     11.4246E-03
             272     17.5452E-03     38.2258E-03    -1.82045E+06     111.603E+06     70.8924E+06     5.18021E+03    -25.2937E-03     51.0801E-03    -25.7863E-03     11.4923E-03    -25.5988E-03     51.5693E-03    -25.5911E-03     11.4410E-03
             273     17.5452E-03     39.2242E-03    -1.82085E+06     111.614E+06     70.8994E+06     3.77531E+03    -25.2264E-03     51.0145E-03    -25.7881E-03     11.5038E-03    -25.5315E-03     51.5038E-03    -25.5928E-03     11.4528E-03
             274     17.5452E-03     40.2225E-03    -1.82029E+06     111.622E+06     70.9050E+06     2.73527E+03    -25.1707E-03     50.9603E-03    -25.7895E-03     11.5130E-03    -25.4759E-03     51.4496E-03    -25.5942E-03     11.4624E-03
             275     17.5452E-03     41.2208E-03    -1.82035E+06     111.628E+06     70.9095E+06     1.98585E+03    -25.1254E-03     50.9161E-03    -25.7907E-03     11.5195E-03    -25.4306E-03     51.4054E-03    -25.5954E-03     11.4691E-03
             276     17.5452E-03     42.2190E-03    -1.82015E+06     111.632E+06     70.9104E+06     1.14049E+03    -25.0887E-03     50.8803E-03    -25.7916E-03     11.5242E-03    -25.3939E-03     51.3697E-03    -25.5963E-03     11.4739E-03
             277     17.5452E-03     43.2172E-03    -1.82011E+06     111.634E+06     70.9110E+06        -82.3406    -25.0590E-03     50.8514E-03    -25.7925E-03     11.5264E-03    -25.3642E-03     51.3408E-03    -25.5971E-03     11.4763E-03
             278     17.5452E-03     44.2154E-03    -1.81912E+06     111.635E+06     70.9116E+06        -390.591    -25.0346E-03     50.8278E-03    -25.7932E-03     11.5277E-03    -25.3398E-03     51.3172E-03    -25.5978E-03     11.4777E-03
             279     17.5452E-03     45.2136E-03    -1.81975E+06     111.633E+06     70.9116E+06        -671.425    -25.0146E-03     50.8083E-03    -25.7937E-03     11.5290E-03    -25.3198E-03     51.2977E-03    -25.5984E-03     11.4791E-03
             280     17.5452E-03     46.2117E-03    -1.82285E+06     111.626E+06     70.8884E+06    -5.40413E+03    -24.9990E-03     50.7931E-03    -25.7941E-03     11.5288E-03    -25.3041E-03     51.2825E-03    -25.5989E-03     11.4790E-03
             281     17.5452E-03     47.2099E-03    -1.74821E+06     111.700E+06     70.9093E+06     69.6683E+03    -24.9860E-03     50.7804E-03    -25.7944E-03     11.5303E-03    -25.2910E-03     51.2700E-03    -25.5993E-03     11.4815E-03
             282     17.5452E-03     48.2080E-03    -1.82332E+06     111.944E+06     71.0402E+06     145.680E+03    -24.9706E-03     50.7658E-03    -25.7951E-03     11.5307E-03    -25.2765E-03     51.2565E-03    -25.5996E-03     11.4829E-03
             283     17.5452E-03     49.2061E-03    -1.88009E+06     112.203E+06     71.1784E+06     84.7232E+03    -24.9574E-03     50.7532E-03    -25.7958E-03     11.5302E-03    -25.2641E-03     51.2451E-03    -25.5999E-03     11.4817E-03
             284     17.5452E-03     50.2042E-03    -1.82247E+06     112.331E+06     71.2284E+06     29.9820E+03    -24.9496E-03     50.7457E-03    -25.7961E-03     11.5318E-03    -25.2563E-03     51.2381E-03    -25.6002E-03     11.4826E-03
             285     17.5452E-03     51.2023E-03    -1.84275E+06     112.384E+06     71.2401E+06     16.7072E+03    -24.9424E-03     50.7387E-03    -25.7963E-03     11.5327E-03    -25.2493E-03     51.2314E-03    -25.6003E-03     11.4834E-03
             286     17.5452E-03     52.2004E-03    -1.82681E+06     112.403E+06     71.2484E+06     1.19365E+03    -24.9362E-03     50.7326E-03    -25.7964E-03     11.5338E-03    -25.2431E-03     51.2254E-03    -25.6005E-03     11.4843E-03
             287     17.5452E-03     53.1984E-03    -1.82810E+06     112.407E+06     71.2417E+06     1.87167E+03    -24.9327E-03     50.7291E-03    -25.7964E-03     11.5354E-03    -25.2395E-03     51.2219E-03    -25.6006E-03     11.4859E-03
             288     17.5452E-03     54.1965E-03    -1.82687E+06     112.412E+06     71.2440E+06     1.50574E+03    -24.9305E-03     50.7270E-03    -25.7965E-03     11.5346E-03    -25.2373E-03     51.2198E-03    -25.6007E-03     11.4851E-03
             289     17.5452E-03     55.1946E-03    -1.82754E+06     112.416E+06     71.2467E+06     1.88311E+03    -24.9284E-03     50.7251E-03    -25.7966E-03     11.5327E-03    -25.2353E-03     51.2179E-03    -25.6007E-03     11.4832E-03
             290     17.5452E-03     56.1927E-03    -1.82722E+06     112.420E+06     71.2485E+06     2.46277E+03    -24.9272E-03     50.7239E-03    -25.7967E-03     11.5325E-03    -25.2341E-03     51.2167E-03    -25.6008E-03     11.4831E-03
             291     17.5452E-03     57.1907E-03    -1.82788E+06     112.425E+06     71.2498E+06     2.13483E+03    -24.9267E-03     50.7234E-03    -25.7967E-03     11.5320E-03    -25.2336E-03     51.2162E-03    -25.6008E-03     11.4826E-03
             292     877.054E-06     58.4927E-03    -46.2694E+06    -131.526E+06    -45.3408E+06    -14.3202E+03    -25.8564E-03     51.7059E-03    -25.8495E-03     5.63890E-03    -25.8315E-03     51.1813E-03    -25.8184E-03     5.63545E-03
             293     1.75412E-03     58.5001E-03    -44.7846E+06    -125.916E+06    -40.6905E+06     6.40080E+03    -25.8470E-03     51.7071E-03    -25.8602E-03     10.3416E-03    -25.8298E-03     51.2020E-03    -25.8161E-03     10.3355E-03
             294     2.63121E-03     58.5123E-03    -42.3020E+06    -120.794E+06    -33.5468E+06     13.8157E+03    -25.8525E-03     51.7286E-03    -25.8761E-03     15.2508E-03    -25.8414E-03     51.2358E-03    -25.8073E-03     15.2414E-03
             295     3.50831E-03     58.5290E-03    -39.1825E+06    -113.624E+06    -25.8624E+06     18.1383E+03    -25.8644E-03     51.7536E-03    -25.8892E-03     20.1284E-03    -25.8603E-03     51.2820E-03    -25.7970E-03     20.1151E-03
             296     4.38545E-03     58.5504E-03    -35.8056E+06    -105.554E+06    -18.6084E+06     30.8670E+03    -25.8877E-03     51.7849E-03    -25.8973E-03     24.9230E-03    -25.8903E-03     51.3398E-03    -25.7854E-03     24.9053E-03
             297     5.26260E-03     58.5763E-03    -32.4126E+06    -97.0273E+06    -12.2600E+06     42.2111E+03    -25.9229E-03     51.8226E-03    -25.8997E-03     29.6063E-03    -25.9323E-03     51.4080E-03    -25.7733E-03     29.5833E-03
             298     6.13977E-03     58.6065E-03    -29.1512E+06    -90.1956E+06    -6.93748E+06     50.8326E+03    -25.9751E-03     51.8750E-03    -25.8999E-03     34.1317E-03    -25.9888E-03     51.4851E-03    -25.7615E-03     34.1023E-03
             299     7.01696E-03     58.6410E-03    -26.1022E+06    -82.5308E+06    -2.65594E+06     57.6937E+03    -26.0334E-03     51.9279E-03    -25.8945E-03     38.4944E-03    -26.0531E-03     51.5696E-03    -25.7503E-03     38.4577E-03
             300     7.89417E-03     58.6795E-03    -23.3132E+06    -74.5201E+06     535.330E+03     60.5557E+03    -26.0965E-03     51.9806E-03    -25.8840E-03     42.6373E-03    -26.1238E-03     51.6589E-03    -25.7395E-03     42.5918E-03
             301     8.77139E-03     58.7218E-03    -20.8226E+06    -68.2801E+06     2.53909E+06     60.8839E+03    -26.1684E-03     52.0398E-03    -25.8713E-03     46.4876E-03    -26.2022E-03     51.7498E-03    -25.7294E-03     46.4320E-03
             302     9.64862E-03     58.7676E-03    -18.6565E+06    -60.5103E+06     3.38057E+06     60.9743E+03    -26.2340E-03     52.0858E-03    -25.8518E-03     50.0072E-03    -26.2787E-03     51.8397E-03    -25.7201E-03     49.9401E-03
             303     10.5259E-03     58.8165E-03    -16.7933E+06    -52.3240E+06     3.92432E+06     60.3379E+03    -26.2887E-03     52.1199E-03    -25.8312E-03     53.0818E-03    -26.3489E-03     51.9234E-03    -25.7113E-03     53.0018E-03
             304     11.4031E-03     58.8682E-03    -15.2106E+06    -42.1252E+06     3.49119E+06     58.2338E+03    -26.3223E-03     52.1258E-03    -25.8034E-03     55.5695E-03    -26.4048E-03     51.9946E-03    -25.7028E-03     55.4753E-03
             305     12.2804E-03     58.9218E-03    -13.8671E+06    -27.3499E+06     3.61667E+06     53.1315E+03    -26.3177E-03     52.0897E-03    -25.7720E-03     57.4887E-03    -26.4363E-03     52.0515E-03    -25.6942E-03     57.3796E-03
             306     13.1577E-03     58.9770E-03    -12.7282E+06    -8.80144E+06     2.72938E+06     46.1833E+03    -26.2918E-03     52.0214E-03    -25.7297E-03     59.2866E-03    -26.4610E-03     52.1063E-03    -25.6848E-03     59.1624E-03
             307     14.0350E-03     59.0341E-03    -11.5353E+06     38.4599E+06     10.1595E+06     39.3104E+03    -26.1457E-03     51.8299E-03    -25.6842E-03     61.4568E-03    -26.4247E-03     52.1750E-03    -25.6725E-03     61.3257E-03
             308     14.9125E-03     59.0934E-03    -9.72203E+06     89.5075E+06     28.8917E+06     29.6374E+03    -25.7601E-03     51.4435E-03    -25.6834E-03     56.1038E-03    -26.1379E-03     52.0208E-03    -25.6546E-03     55.9858E-03
             309     15.7900E-03     59.1403E-03    -7.02736E+06     106.974E+06     49.0654E+06     17.6328E+03    -25.3422E-03     51.0758E-03    -25.7336E-03     43.6298E-03    -25.7454E-03     51.6915E-03    -25.6332E-03     43.5326E-03
             310     16.6676E-03     59.1760E-03    -3.64774E+06     111.573E+06     65.5024E+06     7.16888E+03    -25.0507E-03     50.8332E-03    -25.7825E-03     24.6274E-03    -25.4099E-03     51.3856E-03    -25.6115E-03     24.5584E-03
             311     877.054E-06     59.4907E-03    -46.2446E+06    -131.527E+06    -45.2922E+06     9.18283E+03    -25.8575E-03     51.7082E-03    -25.8507E-03     5.63906E-03    -25.8325E-03     51.1834E-03    -25.8194E-03     5.63592E-03
             312     1.75412E-03     59.4982E-03    -44.7609E+06    -125.938E+06    -40.6582E+06     12.6086E+03    -25.8479E-03     51.7092E-03    -25.8613E-03     10.3422E-03    -25.8307E-03     51.2039E-03    -25.8171E-03     10.3362E-03
             313     2.63121E-03     59.5103E-03    -42.2901E+06    -120.805E+06    -33.5517E+06     21.1427E+03    -25.8531E-03     51.7300E-03    -25.8769E-03     15.2518E-03    -25.8419E-03     51.2372E-03    -25.8082E-03     15.2425E-03
             314     3.50831E-03     59.5271E-03    -39.1820E+06    -113.641E+06    -25.8731E+06     29.6926E+03    -25.8647E-03     51.7546E-03    -25.8899E-03     20.1298E-03    -25.8605E-03     51.2829E-03    -25.7977E-03     20.1167E-03
             315     4.38544E-03     59.5485E-03    -35.8085E+06    -105.578E+06    -18.6113E+06     39.8205E+03    -25.8878E-03     51.7858E-03    -25.8979E-03     24.9249E-03    -25.8905E-03     51.3405E-03    -25.7860E-03     24.9073E-03
             316     5.26260E-03     59.5744E-03    -32.4169E+06    -97.0446E+06    -12.2620E+06     49.2438E+03    -25.9230E-03     51.8233E-03    -25.9003E-03     29.6085E-03    -25.9324E-03     51.4086E-03    -25.7738E-03     29.5855E-03
             317     6.13977E-03     59.6046E-03    -29.1555E+06    -90.2120E+06    -6.94022E+06     55.0472E+03    -25.9751E-03     51.8755E-03    -25.9003E-03     34.1341E-03    -25.9888E-03     51.4855E-03    -25.7620E-03     34.1048E-03
             318     7.01696E-03     59.6391E-03    -26.1054E+06    -82.5444E+06    -2.65858E+06     59.5220E+03    -26.0332E-03     51.9281E-03    -25.8949E-03     38.4969E-03    -26.0528E-03     51.5697E-03    -25.7506E-03     38.4602E-03
             319     7.89417E-03     59.6776E-03    -23.3164E+06    -74.5288E+06     534.313E+03     61.8876E+03    -26.0961E-03     51.9804E-03    -25.8843E-03     42.6396E-03    -26.1233E-03     51.6588E-03    -25.7398E-03     42.5941E-03
             320     8.77139E-03     59.7199E-03    -20.8245E+06    -68.2888E+06     2.53894E+06     63.7711E+03    -26.1679E-03     52.0395E-03    -25.8716E-03     46.4897E-03    -26.2016E-03     51.7495E-03    -25.7297E-03     46.4342E-03
             321     9.64862E-03     59.7657E-03    -18.6565E+06    -60.5163E+06     3.38151E+06     64.5703E+03    -26.2334E-03     52.0854E-03    -25.8520E-03     50.0093E-03    -26.2781E-03     51.8392E-03    -25.7203E-03     49.9423E-03
             322     10.5259E-03     59.8146E-03    -16.7941E+06    -52.3266E+06     3.92546E+06     61.8794E+03    -26.2881E-03     52.1194E-03    -25.8313E-03     53.0838E-03    -26.3484E-03     51.9229E-03    -25.7114E-03     53.0037E-03
             323     11.4031E-03     59.8662E-03    -15.2129E+06    -42.1269E+06     3.49140E+06     58.0932E+03    -26.3218E-03     52.1253E-03    -25.8035E-03     55.5712E-03    -26.4043E-03     51.9941E-03    -25.7029E-03     55.4770E-03
             324     12.2804E-03     59.9199E-03    -13.8696E+06    -27.3473E+06     3.61810E+06     53.9765E+03    -26.3174E-03     52.0894E-03    -25.7720E-03     57.4900E-03    -26.4360E-03     52.0512E-03    -25.6942E-03     57.3810E-03
             325     13.1577E-03     59.9751E-03    -12.7305E+06    -8.79624E+06     2.73118E+06     47.0433E+03    -26.2916E-03     52.0213E-03    -25.7297E-03     59.2875E-03    -26.4609E-03     52.1062E-03    -25.6848E-03     59.1632E-03
             326     14.0350E-03     60.0321E-03    -11.5372E+06     38.4651E+06     10.1602E+06     39.1232E+03    -26.1458E-03     51.8300E-03    -25.6842E-03     61.4576E-03    -26.4248E-03     52.1751E-03    -25.6724E-03     61.3266E-03
             327     14.9125E-03     60.0915E-03    -9.72254E+06     89.5183E+06     28.8973E+06     30.1121E+03    -25.7601E-03     51.4434E-03    -25.6834E-03     56.1045E-03    -26.1379E-03     52.0208E-03    -25.6546E-03     55.9865E-03
             328     15.7900E-03     60.1384E-03    -7.02816E+06     106.988E+06     49.0729E+06     17.8680E+03    -25.3421E-03     51.0757E-03    -25.7336E-03     43.6294E-03    -25.7453E-03     51.6914E-03    -25.6332E-03     43.5323E-03
             329     16.6676E-03     60.1741E-03    -3.64895E+06     111.582E+06     65.5046E+06     6.55627E+03    -25.0511E-03     50.8336E-03    -25.7825E-03     24.6259E-03    -25.4104E-03     51.3861E-03    -25.6115E-03     24.5570E-03
             330     877.052E-06     60.4888E-03    -46.2894E+06    -131.555E+06    -45.3742E+06     26.7155E+03    -25.8577E-03     51.7090E-03    -25.8512E-03     5.64031E-03    -25.8328E-03     51.1843E-03    -25.8202E-03     5.63740E-03
             331     1.75412E-03     60.4963E-03    -44.8088E+06    -125.943E+06    -40.7191E+06     17.5157E+03    -25.8480E-03     51.7096E-03    -25.8616E-03     10.3441E-03    -25.8310E-03     51.2044E-03    -25.8176E-03     10.3381E-03
             332     2.63120E-03     60.5084E-03    -42.3219E+06    -120.830E+06    -33.5575E+06     24.2335E+03    -25.8534E-03     51.7308E-03    -25.8774E-03     15.2539E-03    -25.8423E-03     51.2379E-03    -25.8086E-03     15.2446E-03
             333     3.50831E-03     60.5252E-03    -39.1971E+06    -113.663E+06    -25.8697E+06     40.8370E+03    -25.8650E-03     51.7554E-03    -25.8904E-03     20.1319E-03    -25.8609E-03     51.2836E-03    -25.7981E-03     20.1189E-03
             334     4.38544E-03     60.5466E-03    -35.8200E+06    -105.597E+06    -18.6147E+06     50.1113E+03    -25.8881E-03     51.7864E-03    -25.8984E-03     24.9270E-03    -25.8907E-03     51.3410E-03    -25.7864E-03     24.9095E-03
             335     5.26259E-03     60.5724E-03    -32.4249E+06    -97.0601E+06    -12.2652E+06     54.1599E+03    -25.9231E-03     51.8237E-03    -25.9006E-03     29.6106E-03    -25.9325E-03     51.4090E-03    -25.7742E-03     29.5878E-03
             336     6.13977E-03     60.6027E-03    -29.1598E+06    -90.2264E+06    -6.94272E+06     58.0356E+03    -25.9750E-03     51.8756E-03    -25.9006E-03     34.1363E-03    -25.9886E-03     51.4855E-03    -25.7622E-03     34.1071E-03
             337     7.01696E-03     60.6371E-03    -26.1092E+06    -82.5564E+06    -2.66104E+06     61.1125E+03    -26.0329E-03     51.9280E-03    -25.8951E-03     38.4992E-03    -26.0525E-03     51.5696E-03    -25.7509E-03     38.4625E-03
             338     7.89417E-03     60.6756E-03    -23.3200E+06    -74.5389E+06     531.939E+03     63.5596E+03    -26.0957E-03     51.9802E-03    -25.8845E-03     42.6417E-03    -26.1229E-03     51.6585E-03    -25.7399E-03     42.5963E-03
             339     8.77139E-03     60.7179E-03    -20.8279E+06    -68.2979E+06     2.53675E+06     64.9963E+03    -26.1675E-03     52.0391E-03    -25.8717E-03     46.4917E-03    -26.2012E-03     51.7491E-03    -25.7297E-03     46.4362E-03
             340     9.64861E-03     60.7637E-03    -18.6580E+06    -60.5230E+06     3.38012E+06     65.5805E+03    -26.2330E-03     52.0850E-03    -25.8520E-03     50.0113E-03    -26.2777E-03     51.8388E-03    -25.7203E-03     49.9442E-03
             341     10.5259E-03     60.8127E-03    -16.7936E+06    -52.3287E+06     3.92599E+06     64.7288E+03    -26.2876E-03     52.1189E-03    -25.8313E-03     53.0855E-03    -26.3479E-03     51.9224E-03    -25.7114E-03     53.0055E-03
             342     11.4031E-03     60.8643E-03    -15.2135E+06    -42.1263E+06     3.49240E+06     60.0492E+03    -26.3214E-03     52.1248E-03    -25.8034E-03     55.5728E-03    -26.4039E-03     51.9936E-03    -25.7028E-03     55.4786E-03
             343     12.2804E-03     60.9180E-03    -13.8706E+06    -27.3459E+06     3.61840E+06     54.0586E+03    -26.3171E-03     52.0891E-03    -25.7719E-03     57.4914E-03    -26.4357E-03     52.0509E-03    -25.6941E-03     57.3824E-03
             344     13.1577E-03     60.9732E-03    -12.7307E+06    -8.79099E+06     2.73294E+06     47.9997E+03    -26.2916E-03     52.0212E-03    -25.7296E-03     59.2884E-03    -26.4609E-03     52.1061E-03    -25.6847E-03     59.1641E-03
             345     14.0350E-03     61.0302E-03    -11.5377E+06     38.4723E+06     10.1601E+06     39.2390E+03    -26.1458E-03     51.8299E-03    -25.6841E-03     61.4584E-03    -26.4248E-03     52.1751E-03    -25.6724E-03     61.3274E-03
             346     14.9125E-03     61.0896E-03    -9.72363E+06     89.5276E+06     28.8957E+06     29.7110E+03    -25.7603E-03     51.4436E-03    -25.6833E-03     56.1049E-03    -26.1382E-03     52.0210E-03    -25.6545E-03     55.9869E-03
             347     15.7900E-03     61.1365E-03    -7.02779E+06     107.002E+06     49.0765E+06     18.0750E+03    -25.3427E-03     51.0762E-03    -25.7335E-03     43.6286E-03    -25.7459E-03     51.6921E-03    -25.6331E-03     43.5315E-03
             348     16.6676E-03     61.1721E-03    -3.64778E+06     111.593E+06     65.5072E+06     6.26194E+03    -25.0519E-03     50.8344E-03    -25.7825E-03     24.6240E-03    -25.4111E-03     51.3869E-03    -25.6115E-03     24.5550E-03
             349     877.054E-06     61.4869E-03    -46.3268E+06    -131.589E+06    -45.4184E+06     12.8523E+03    -25.8578E-03     51.7088E-03    -25.8510E-03     5.64074E-03    -25.8329E-03     51.1840E-03    -25.8201E-03     5.63765E-03
             350     1.75412E-03     61.4943E-03    -44.8443E+06    -125.946E+06    -40.7632E+06     16.6099E+03    -25.8479E-03     51.7093E-03    -25.8614E-03     10.3447E-03    -25.8309E-03     51.2042E-03    -25.8176E-03     10.3388E-03
             351     2.63121E-03     61.5065E-03    -42.3644E+06    -120.858E+06    -33.5885E+06     23.4594E+03    -25.8534E-03     51.7308E-03    -25.8774E-03     15.2550E-03    -25.8425E-03     51.2378E-03    -25.8086E-03     15.2457E-03
             352     3.50831E-03     61.5233E-03    -39.2335E+06    -113.697E+06    -25.8790E+06     43.4230E+03    -25.8653E-03     51.7558E-03    -25.8905E-03     20.1334E-03    -25.8613E-03     51.2840E-03    -25.7982E-03     20.1204E-03
             353     4.38544E-03     61.5446E-03    -35.8387E+06    -105.611E+06    -18.6198E+06     53.0676E+03    -25.8883E-03     51.7868E-03    -25.8985E-03     24.9288E-03    -25.8911E-03     51.3414E-03    -25.7865E-03     24.9113E-03
             354     5.26259E-03     61.5705E-03    -32.4351E+06    -97.0754E+06    -12.2716E+06     55.3234E+03    -25.9231E-03     51.8238E-03    -25.9008E-03     29.6125E-03    -25.9325E-03     51.4091E-03    -25.7743E-03     29.5896E-03
             355     6.13977E-03     61.6007E-03    -29.1684E+06    -90.2402E+06    -6.94842E+06     59.5165E+03    -25.9747E-03     51.8755E-03    -25.9007E-03     34.1383E-03    -25.9884E-03     51.4854E-03    -25.7623E-03     34.1090E-03
             356     7.01696E-03     61.6352E-03    -26.1161E+06    -82.5676E+06    -2.66628E+06     62.1898E+03    -26.0325E-03     51.9277E-03    -25.8952E-03     38.5011E-03    -26.0522E-03     51.5692E-03    -25.7509E-03     38.4644E-03
             357     7.89417E-03     61.6737E-03    -23.3256E+06    -74.5496E+06     526.062E+03     64.1738E+03    -26.0953E-03     51.9798E-03    -25.8845E-03     42.6436E-03    -26.1226E-03     51.6581E-03    -25.7399E-03     42.5982E-03
             358     8.77139E-03     61.7160E-03    -20.8321E+06    -68.3060E+06     2.53192E+06     65.4301E+03    -26.1671E-03     52.0387E-03    -25.8716E-03     46.4934E-03    -26.2009E-03     51.7487E-03    -25.7297E-03     46.4380E-03
             359     9.64862E-03     61.7618E-03    -18.6627E+06    -60.5302E+06     3.37543E+06     65.5283E+03    -26.2326E-03     52.0846E-03    -25.8519E-03     50.0130E-03    -26.2773E-03     51.8383E-03    -25.7202E-03     49.9460E-03
             360     10.5259E-03     61.8108E-03    -16.7973E+06    -52.3329E+06     3.92184E+06     64.7898E+03    -26.2873E-03     52.1184E-03    -25.8311E-03     53.0872E-03    -26.3476E-03     51.9219E-03    -25.7113E-03     53.0072E-03
             361     11.4031E-03     61.8624E-03    -15.2131E+06    -42.1244E+06     3.49160E+06     61.1534E+03    -26.3212E-03     52.1245E-03    -25.8033E-03     55.5744E-03    -26.4036E-03     51.9933E-03    -25.7027E-03     55.4803E-03
             362     12.2804E-03     61.9160E-03    -13.8701E+06    -27.3441E+06     3.61726E+06     55.4762E+03    -26.3170E-03     52.0889E-03    -25.7718E-03     57.4927E-03    -26.4356E-03     52.0507E-03    -25.6940E-03     57.3837E-03
             363     13.1577E-03     61.9713E-03    -12.7316E+06    -8.78575E+06     2.73207E+06      48.355E+03    -26.2917E-03     52.0212E-03    -25.7295E-03     59.2890E-03    -26.4610E-03     52.1061E-03    -25.6846E-03     59.1648E-03
             364     14.0350E-03     62.0283E-03    -11.5381E+06     38.4805E+06     10.1599E+06     39.5081E+03    -26.1461E-03     51.8301E-03    -25.6840E-03     61.4583E-03    -26.4251E-03     52.1753E-03    -25.6723E-03     61.3273E-03
             365     14.9125E-03     62.0876E-03    -9.72359E+06     89.5368E+06     28.8954E+06     29.7290E+03    -25.7609E-03     51.4441E-03    -25.6832E-03     56.1047E-03    -26.1388E-03     52.0215E-03    -25.6544E-03     55.9867E-03
             366     15.7900E-03     62.1345E-03    -7.02815E+06     107.017E+06     49.0787E+06     17.4342E+03    -25.3434E-03     51.0769E-03    -25.7335E-03     43.6276E-03    -25.7467E-03     51.6928E-03    -25.6331E-03     43.5304E-03
             367     16.6676E-03     62.1702E-03    -3.64816E+06     111.603E+06     65.5082E+06     5.92941E+03    -25.0523E-03     50.8348E-03    -25.7825E-03     24.6230E-03    -25.4116E-03     51.3874E-03    -25.6115E-03     24.5541E-03
             368     877.052E-06     62.4849E-03    -46.3251E+06    -131.608E+06    -45.4043E+06     1.56426E+03    -25.8579E-03     51.7091E-03    -25.8512E-03     5.64032E-03    -25.8330E-03     51.1842E-03    -25.8202E-03     5.63708E-03
             369     1.75412E-03     62.4924E-03    -44.8480E+06    -125.967E+06    -40.7641E+06     20.6615E+03    -25.8480E-03     51.7095E-03    -25.8615E-03     10.3442E-03    -25.8310E-03     51.2043E-03    -25.8176E-03     10.3383E-03
             370     2.63120E-03     62.5045E-03    -42.3738E+06    -120.882E+06    -33.5888E+06     33.8385E+03    -25.8534E-03     51.7309E-03    -25.8775E-03     15.2549E-03    -25.8425E-03     51.2378E-03    -25.8087E-03     15.2457E-03
             371     3.50831E-03     62.5213E-03    -39.2442E+06    -113.727E+06    -25.8759E+06     41.9468E+03    -25.8653E-03     51.7559E-03    -25.8906E-03     20.1338E-03    -25.8612E-03     51.2839E-03    -25.7982E-03     20.1208E-03
             372     4.38544E-03     62.5427E-03    -35.8508E+06    -105.627E+06    -18.6283E+06     50.3025E+03    -25.8882E-03     51.7868E-03    -25.8985E-03     24.9295E-03    -25.8910E-03     51.3413E-03    -25.7865E-03     24.9120E-03
             373     5.26259E-03     62.5686E-03    -32.4479E+06    -97.0908E+06    -12.2813E+06     55.6590E+03    -25.9230E-03     51.8237E-03    -25.9007E-03     29.6135E-03    -25.9324E-03     51.4089E-03    -25.7743E-03     29.5907E-03
             374     6.13977E-03     62.5988E-03    -29.1789E+06    -90.2529E+06    -6.95863E+06     58.2211E+03    -25.9745E-03     51.8752E-03    -25.9007E-03     34.1394E-03    -25.9882E-03     51.4851E-03    -25.7623E-03     34.1101E-03
             375     7.01696E-03     62.6333E-03    -26.1236E+06    -82.5795E+06    -2.67558E+06     60.8652E+03    -26.0322E-03     51.9273E-03    -25.8951E-03     38.5023E-03    -26.0519E-03     51.5688E-03    -25.7509E-03     38.4656E-03
             376     7.89417E-03     62.6718E-03    -23.3312E+06    -74.5598E+06     518.006E+03     63.2995E+03    -26.0950E-03     51.9794E-03    -25.8844E-03     42.6448E-03    -26.1222E-03     51.6576E-03    -25.7399E-03     42.5994E-03
             377     8.77139E-03     62.7141E-03    -20.8370E+06    -68.3143E+06     2.52429E+06     64.5180E+03    -26.1668E-03     52.0383E-03    -25.8715E-03     46.4947E-03    -26.2005E-03     51.7482E-03    -25.7296E-03     46.4392E-03
             378     9.64862E-03     62.7599E-03    -18.6652E+06    -60.5361E+06     3.36966E+06     64.3396E+03    -26.2323E-03     52.0841E-03    -25.8518E-03     50.0143E-03    -26.2770E-03     51.8379E-03    -25.7201E-03     49.9472E-03
             379     10.5259E-03     62.8088E-03    -16.7977E+06    -52.3370E+06     3.91675E+06     62.4548E+03    -26.2871E-03     52.1181E-03    -25.8310E-03     53.0885E-03    -26.3473E-03     51.9215E-03    -25.7112E-03     53.0084E-03
             380     11.4031E-03     62.8605E-03    -15.2144E+06    -42.1256E+06     3.48780E+06     60.6024E+03    -26.3211E-03     52.1242E-03    -25.8031E-03     55.5757E-03    -26.4036E-03     51.9930E-03    -25.7026E-03     55.4815E-03
             381     12.2804E-03     62.9141E-03    -13.8706E+06    -27.3424E+06     3.61512E+06     57.1099E+03    -26.3171E-03     52.0888E-03    -25.7717E-03     57.4937E-03    -26.4357E-03     52.0506E-03    -25.6938E-03     57.3848E-03
             382     13.1577E-03     62.9693E-03    -12.7313E+06    -8.77833E+06     2.73159E+06     49.0782E+03    -26.2920E-03     52.0213E-03    -25.7293E-03     59.2897E-03    -26.4613E-03     52.1064E-03    -25.6845E-03     59.1655E-03
             383     14.0350E-03     63.0264E-03    -11.5378E+06     38.4880E+06     10.1593E+06     39.0796E+03    -26.1467E-03     51.8306E-03    -25.6839E-03     61.4586E-03    -26.4257E-03     52.1758E-03    -25.6722E-03     61.3275E-03
             384     14.9125E-03     63.0857E-03    -9.72322E+06     89.5459E+06     28.8976E+06     29.9163E+03    -25.7614E-03     51.4446E-03    -25.6831E-03     56.1055E-03    -26.1393E-03     52.0220E-03    -25.6544E-03     55.9875E-03
             385     15.7900E-03     63.1326E-03    -7.02818E+06     107.033E+06     49.0820E+06     17.4137E+03    -25.3436E-03     51.0771E-03    -25.7335E-03     43.6275E-03    -25.7468E-03     51.6930E-03    -25.6331E-03     43.5304E-03
             386     16.6676E-03     63.1683E-03    -3.64849E+06     111.613E+06     65.5059E+06     5.22696E+03    -25.0524E-03     50.8348E-03    -25.7825E-03     24.6222E-03    -25.4117E-03     51.3875E-03    -25.6115E-03     24.5533E-03
             387     877.053E-06     63.4830E-03    -46.3482E+06    -131.626E+06    -45.4157E+06     11.4395E+03    -25.8579E-03     51.7091E-03    -25.8512E-03     5.64091E-03    -25.8331E-03     51.1842E-03    -25.8202E-03     5.63780E-03
             388     1.75412E-03     63.4905E-03    -44.8666E+06    -126.005E+06    -40.7594E+06     29.0828E+03    -25.8482E-03     51.7099E-03    -25.8617E-03     10.3450E-03    -25.8312E-03     51.2045E-03    -25.8177E-03     10.3392E-03
             389     2.63120E-03     63.5026E-03    -42.3799E+06    -120.906E+06    -33.5896E+06     43.4694E+03    -25.8535E-03     51.7311E-03    -25.8776E-03     15.2557E-03    -25.8425E-03     51.2379E-03    -25.8088E-03     15.2467E-03
             390     3.50831E-03     63.5194E-03    -39.2532E+06    -113.746E+06    -25.8940E+06     48.1208E+03    -25.8650E-03     51.7557E-03    -25.8907E-03     20.1345E-03    -25.8610E-03     51.2836E-03    -25.7983E-03     20.1216E-03
             391     4.38544E-03     63.5408E-03    -35.8673E+06    -105.645E+06    -18.6453E+06     51.1788E+03    -25.8879E-03     51.7864E-03    -25.8985E-03     24.9302E-03    -25.8907E-03     51.3409E-03    -25.7865E-03     24.9127E-03
             392     5.26259E-03     63.5666E-03    -32.4629E+06    -97.1026E+06    -12.2966E+06     52.6646E+03    -25.9227E-03     51.8234E-03    -25.9007E-03     29.6142E-03    -25.9322E-03     51.4085E-03    -25.7743E-03     29.5913E-03
             393     6.13977E-03     63.5969E-03    -29.1907E+06    -90.2650E+06    -6.97399E+06     53.9248E+03    -25.9743E-03     51.8749E-03    -25.9006E-03     34.1401E-03    -25.9880E-03     51.4848E-03    -25.7622E-03     34.1108E-03
             394     7.01696E-03     63.6313E-03    -26.1339E+06    -82.5911E+06    -2.69001E+06     56.4916E+03    -26.0320E-03     51.9269E-03    -25.8950E-03     38.5032E-03    -26.0516E-03     51.5684E-03    -25.7508E-03     38.4664E-03
             395     7.89417E-03     63.6699E-03    -23.3390E+06    -74.5706E+06     505.477E+03     59.3529E+03    -26.0946E-03     51.9789E-03    -25.8842E-03     42.6457E-03    -26.1219E-03     51.6571E-03    -25.7397E-03     42.6003E-03
             396     8.77139E-03     63.7121E-03    -20.8416E+06    -68.3224E+06     2.51370E+06     61.2719E+03    -26.1664E-03     52.0377E-03    -25.8713E-03     46.4957E-03    -26.2002E-03     51.7477E-03    -25.7294E-03     46.4402E-03
             397     9.64862E-03     63.7579E-03    -18.6685E+06    -60.5410E+06     3.36103E+06     60.4405E+03    -26.2320E-03     52.0836E-03    -25.8516E-03     50.0155E-03    -26.2767E-03     51.8374E-03    -25.7199E-03     49.9484E-03
             398     10.5259E-03     63.8069E-03    -16.8017E+06    -52.3422E+06     3.90886E+06     60.0502E+03    -26.2869E-03     52.1177E-03    -25.8308E-03     53.0898E-03    -26.3472E-03     51.9212E-03    -25.7110E-03     53.0097E-03
             399     11.4031E-03     63.8585E-03    -15.2173E+06    -42.1284E+06     3.48136E+06     58.9930E+03    -26.3211E-03     52.1241E-03    -25.8029E-03     55.5773E-03    -26.4036E-03     51.9928E-03    -25.7024E-03     55.4831E-03
             400     12.2804E-03     63.9122E-03    -13.8712E+06    -27.3417E+06     3.61047E+06     55.5989E+03    -26.3173E-03     52.0888E-03    -25.7715E-03     57.4953E-03    -26.4359E-03     52.0506E-03    -25.6937E-03     57.3863E-03
             401     13.1577E-03     63.9674E-03    -12.7298E+06    -8.77114E+06     2.73012E+06     49.3027E+03    -26.2924E-03     52.0215E-03    -25.7292E-03     59.2912E-03    -26.4617E-03     52.1066E-03    -25.6843E-03     59.1670E-03
             402     14.0350E-03     64.0244E-03    -11.5371E+06     38.4966E+06     10.1578E+06     39.8257E+03    -26.1471E-03     51.8309E-03    -25.6838E-03     61.4596E-03    -26.4261E-03     52.1762E-03    -25.6721E-03     61.3285E-03
             403     14.9125E-03     64.0838E-03    -9.72390E+06     89.5544E+06     28.8966E+06     29.9878E+03    -25.7618E-03     51.4449E-03    -25.6831E-03     56.1063E-03    -26.1398E-03     52.0224E-03    -25.6543E-03     55.9883E-03
             404     15.7900E-03     64.1307E-03    -7.02848E+06     107.049E+06     49.0833E+06     17.3668E+03    -25.3439E-03     51.0773E-03    -25.7334E-03     43.6266E-03    -25.7472E-03     51.6933E-03    -25.6330E-03     43.5295E-03
             405     16.6676E-03     64.1664E-03    -3.64843E+06     111.623E+06     65.5021E+06     4.63800E+03    -25.0528E-03     50.8352E-03    -25.7824E-03     24.6202E-03    -25.4121E-03     51.3879E-03    -25.6115E-03     24.5512E-03
             406     877.053E-06     64.4811E-03    -46.3896E+06    -131.661E+06    -45.4480E+06     24.5207E+03    -25.8577E-03     51.7085E-03    -25.8508E-03     5.64142E-03    -25.8330E-03     51.1835E-03    -25.8198E-03     5.63848E-03
             407     1.75412E-03     64.4885E-03    -44.8956E+06    -126.044E+06    -40.7840E+06     35.9623E+03    -25.8482E-03     51.7097E-03    -25.8615E-03     10.3459E-03    -25.8313E-03     51.2042E-03    -25.8176E-03     10.3402E-03
             408     2.63120E-03     64.5007E-03    -42.4133E+06    -120.937E+06    -33.6337E+06     51.5017E+03    -25.8536E-03     51.7310E-03    -25.8774E-03     15.2567E-03    -25.8427E-03     51.2378E-03    -25.8087E-03     15.2478E-03
             409     3.50831E-03     64.5175E-03    -39.2859E+06    -113.757E+06    -25.9332E+06     53.9339E+03    -25.8651E-03     51.7556E-03    -25.8905E-03     20.1353E-03    -25.8611E-03     51.2836E-03    -25.7983E-03     20.1225E-03
             410     4.38544E-03     64.5388E-03    -35.8905E+06    -105.655E+06    -18.6718E+06     47.1799E+03    -25.8877E-03     51.7861E-03    -25.8984E-03     24.9308E-03    -25.8906E-03     51.3406E-03    -25.7865E-03     24.9133E-03
             411     5.26260E-03     64.5647E-03    -32.4806E+06    -97.1124E+06    -12.3198E+06     45.3767E+03    -25.9223E-03     51.8229E-03    -25.9005E-03     29.6147E-03    -25.9319E-03     51.4081E-03    -25.7742E-03     29.5917E-03
             412     6.13977E-03     64.5950E-03    -29.2063E+06    -90.2756E+06    -6.99489E+06     46.4225E+03    -25.9740E-03     51.8744E-03    -25.9004E-03     34.1407E-03    -25.9877E-03     51.4842E-03    -25.7622E-03     34.1113E-03
             413     7.01696E-03     64.6294E-03    -26.1465E+06    -82.6018E+06    -2.70942E+06     48.4131E+03    -26.0316E-03     51.9264E-03    -25.8948E-03     38.5040E-03    -26.0513E-03     51.5679E-03    -25.7506E-03     38.4671E-03
             414     7.89417E-03     64.6679E-03    -23.3479E+06    -74.5806E+06     488.259E+03     50.4808E+03    -26.0943E-03     51.9783E-03    -25.8840E-03     42.6467E-03    -26.1215E-03     51.6565E-03    -25.7396E-03     42.6011E-03
             415     8.77139E-03     64.7102E-03    -20.8462E+06    -68.3313E+06     2.49922E+06     52.6116E+03    -26.1661E-03     52.0371E-03    -25.8711E-03     46.4968E-03    -26.1998E-03     51.7471E-03    -25.7293E-03     46.4411E-03
             416     9.64862E-03     64.7560E-03    -18.6706E+06    -60.5481E+06     3.34927E+06     55.9876E+03    -26.2317E-03     52.0831E-03    -25.8514E-03     50.0167E-03    -26.2764E-03     51.8368E-03    -25.7197E-03     49.9495E-03
             417     10.5259E-03     64.8050E-03    -16.8031E+06    -52.3477E+06     3.89847E+06     57.0133E+03    -26.2868E-03     52.1173E-03    -25.8305E-03     53.0912E-03    -26.3470E-03     51.9207E-03    -25.7108E-03     53.0111E-03
             418     11.4031E-03     64.8566E-03    -15.2184E+06    -42.1311E+06     3.47139E+06     55.5763E+03    -26.3211E-03     52.1238E-03    -25.8027E-03     55.5791E-03    -26.4035E-03     51.9926E-03    -25.7022E-03     55.4849E-03
             419     12.2804E-03     64.9102E-03    -13.8730E+06    -27.3418E+06     3.60144E+06     52.9497E+03    -26.3175E-03     52.0887E-03    -25.7713E-03     57.4971E-03    -26.4361E-03     52.0506E-03    -25.6935E-03     57.3881E-03
             420     13.1577E-03     64.9655E-03    -12.7320E+06    -8.76627E+06     2.72297E+06     47.7419E+03    -26.2927E-03     52.0216E-03    -25.7290E-03     59.2928E-03    -26.4620E-03     52.1067E-03    -25.6842E-03     59.1686E-03
             421     14.0350E-03     65.0225E-03    -11.5381E+06     38.5040E+06     10.1525E+06     40.8335E+03    -26.1475E-03     51.8312E-03    -25.6836E-03     61.4604E-03    -26.4266E-03     52.1765E-03    -25.6720E-03     61.3294E-03
             422     14.9125E-03     65.0819E-03    -9.72456E+06     89.5651E+06     28.8928E+06     30.6948E+03    -25.7624E-03     51.4453E-03    -25.6829E-03     56.1068E-03    -26.1403E-03     52.0229E-03    -25.6542E-03     55.9888E-03
             423     15.7900E-03     65.1288E-03    -7.02871E+06     107.067E+06     49.0815E+06     15.9707E+03    -25.3445E-03     51.0778E-03    -25.7333E-03     43.6259E-03    -25.7478E-03     51.6939E-03    -25.6330E-03     43.5287E-03
             424     16.6676E-03     65.1644E-03    -3.64785E+06     111.633E+06     65.4962E+06     3.53430E+03    -25.0536E-03     50.8360E-03    -25.7824E-03     24.6191E-03    -25.4130E-03     51.3887E-03    -25.6115E-03     24.5501E-03
             425     877.054E-06     65.4791E-03    -46.3878E+06    -131.711E+06    -45.4796E+06     28.1565E+03    -25.8577E-03     51.7086E-03    -25.8509E-03     5.64080E-03    -25.8329E-03     51.1834E-03    -25.8201E-03     5.63790E-03
             426     1.75412E-03     65.4866E-03    -44.9216E+06    -126.085E+06    -40.8326E+06     46.5365E+03    -25.8480E-03     51.7093E-03    -25.8613E-03     10.3454E-03    -25.8311E-03     51.2038E-03    -25.8175E-03     10.3398E-03
             427     2.63121E-03     65.4987E-03    -42.4385E+06    -120.968E+06    -33.6512E+06     55.4379E+03    -25.8535E-03     51.7309E-03    -25.8774E-03     15.2564E-03    -25.8427E-03     51.2376E-03    -25.8087E-03     15.2475E-03
             428     3.50831E-03     65.5155E-03    -39.2997E+06    -113.760E+06    -25.9529E+06     49.5546E+03    -25.8651E-03     51.7555E-03    -25.8904E-03     20.1352E-03    -25.8612E-03     51.2835E-03    -25.7982E-03     20.1224E-03
             429     4.38544E-03     65.5369E-03    -35.9062E+06    -105.659E+06    -18.7021E+06     40.8498E+03    -25.8876E-03     51.7859E-03    -25.8983E-03     24.9310E-03    -25.8905E-03     51.3405E-03    -25.7865E-03     24.9134E-03
             430     5.26259E-03     65.5628E-03    -32.5016E+06    -97.1196E+06    -12.3499E+06     36.5548E+03    -25.9220E-03     51.8224E-03    -25.9004E-03     29.6152E-03    -25.9316E-03     51.4076E-03    -25.7742E-03     29.5921E-03
             431     6.13977E-03     65.5930E-03    -29.2266E+06    -90.2823E+06    -7.02312E+06     34.6144E+03    -25.9735E-03     51.8737E-03    -25.9002E-03     34.1413E-03    -25.9872E-03     51.4836E-03    -25.7621E-03     34.1118E-03
             432     7.01696E-03     65.6275E-03    -26.1630E+06    -82.6104E+06    -2.73603E+06     34.3508E+03    -26.0311E-03     51.9257E-03    -25.8945E-03     38.5048E-03    -26.0509E-03     51.5672E-03    -25.7505E-03     38.4677E-03
             433     7.89417E-03     65.6660E-03    -23.3600E+06    -74.5883E+06     464.010E+03     35.6788E+03    -26.0939E-03     51.9777E-03    -25.8838E-03     42.6476E-03    -26.1212E-03     51.6559E-03    -25.7394E-03     42.6019E-03
             434     8.77139E-03     65.7083E-03    -20.8557E+06    -68.3414E+06     2.47691E+06     38.9031E+03    -26.1658E-03     52.0366E-03    -25.8708E-03     46.4979E-03    -26.1995E-03     51.7465E-03    -25.7291E-03     46.4421E-03
             435     9.64862E-03     65.7541E-03    -18.6747E+06    -60.5598E+06     3.32927E+06     44.6653E+03    -26.2315E-03     52.0826E-03    -25.8511E-03     50.0180E-03    -26.2761E-03     51.8363E-03    -25.7196E-03     49.9507E-03
             436     10.5259E-03     65.8030E-03    -16.8013E+06    -52.3551E+06     3.88353E+06     50.6540E+03    -26.2866E-03     52.1169E-03    -25.8303E-03     53.0926E-03    -26.3468E-03     51.9203E-03    -25.7106E-03     53.0124E-03
             437     11.4031E-03     65.8547E-03    -15.2158E+06    -42.1344E+06     3.45981E+06     52.4687E+03    -26.3211E-03     52.1235E-03    -25.8025E-03     55.5807E-03    -26.4035E-03     51.9923E-03    -25.7020E-03     55.4864E-03
             438     12.2804E-03     65.9083E-03    -13.8709E+06    -27.3419E+06     3.59096E+06     50.0879E+03    -26.3177E-03     52.0887E-03    -25.7710E-03     57.4987E-03    -26.4362E-03     52.0505E-03    -25.6933E-03     57.3896E-03
             439     13.1577E-03     65.9636E-03    -12.7307E+06    -8.76421E+06     2.71354E+06     46.7283E+03    -26.2930E-03     52.0218E-03    -25.7288E-03     59.2940E-03    -26.4623E-03     52.1069E-03    -25.6840E-03     59.1697E-03
             440     14.0350E-03     66.0206E-03    -11.5380E+06     38.5104E+06     10.1437E+06     40.7140E+03    -26.1481E-03     51.8315E-03    -25.6835E-03     61.4611E-03    -26.4271E-03     52.1769E-03    -25.6718E-03     61.3300E-03
             441     14.9125E-03     66.0799E-03    -9.72363E+06     89.5773E+06     28.8860E+06     30.3975E+03    -25.7630E-03     51.4458E-03    -25.6828E-03     56.1071E-03    -26.1409E-03     52.0234E-03    -25.6542E-03     55.9891E-03
             442     15.7900E-03     66.1268E-03    -7.02845E+06     107.086E+06     49.0779E+06     15.2125E+03    -25.3452E-03     51.0784E-03    -25.7333E-03     43.6250E-03    -25.7485E-03     51.6946E-03    -25.6329E-03     43.5279E-03
             443     16.6676E-03     66.1625E-03    -3.64852E+06     111.643E+06     65.4878E+06     1.59143E+03    -25.0547E-03     50.8370E-03    -25.7823E-03     24.6179E-03    -25.4140E-03     51.3898E-03    -25.6115E-03     24.5489E-03
             444     877.052E-06     66.4772E-03    -46.4177E+06    -131.764E+06    -45.4956E+06     18.6265E+03    -25.8578E-03     51.7094E-03    -25.8516E-03     5.64081E-03    -25.8330E-03     51.1840E-03    -25.8207E-03     5.63779E-03
             445     1.75412E-03     66.4847E-03    -44.9211E+06    -126.139E+06    -40.8241E+06     50.5149E+03    -25.8481E-03     51.7100E-03    -25.8618E-03     10.3454E-03    -25.8312E-03     51.2041E-03    -25.8179E-03     10.3399E-03
             446     2.63120E-03     66.4968E-03    -42.4358E+06    -120.985E+06    -33.6646E+06     57.2670E+03    -25.8533E-03     51.7308E-03    -25.8775E-03     15.2566E-03    -25.8424E-03     51.2374E-03    -25.8089E-03     15.2477E-03
             447     3.50831E-03     66.5136E-03    -39.3146E+06    -113.763E+06    -25.9872E+06     48.7433E+03    -25.8646E-03     51.7550E-03    -25.8903E-03     20.1356E-03    -25.8608E-03     51.2830E-03    -25.7983E-03     20.1227E-03
             448     4.38544E-03     66.5350E-03    -35.9320E+06    -105.658E+06    -18.7410E+06     38.3655E+03    -25.8872E-03     51.7853E-03    -25.8981E-03     24.9314E-03    -25.8902E-03     51.3400E-03    -25.7865E-03     24.9138E-03
             449     5.26260E-03     66.5608E-03    -32.5286E+06    -97.1173E+06    -12.3876E+06     26.1186E+03    -25.9217E-03     51.8218E-03    -25.9002E-03     29.6158E-03    -25.9313E-03     51.4072E-03    -25.7741E-03     29.5926E-03
             450     6.13977E-03     66.5911E-03    -29.2508E+06    -90.2826E+06    -7.05975E+06     16.7563E+03    -25.9731E-03     51.8731E-03    -25.9000E-03     34.1421E-03    -25.9869E-03     51.4830E-03    -25.7620E-03     34.1123E-03
             451     7.01696E-03     66.6255E-03    -26.1825E+06    -82.6143E+06    -2.77056E+06     13.0790E+03    -26.0307E-03     51.9250E-03    -25.8943E-03     38.5057E-03    -26.0505E-03     51.5666E-03    -25.7504E-03     38.4683E-03
             452     7.89417E-03     66.6641E-03    -23.3757E+06    -74.5957E+06     431.330E+03     14.6788E+03    -26.0935E-03     51.9770E-03    -25.8835E-03     42.6486E-03    -26.1208E-03     51.6552E-03    -25.7393E-03     42.6025E-03
             453     8.77139E-03     66.7064E-03    -20.8667E+06    -68.3511E+06     2.44714E+06     19.3151E+03    -26.1655E-03     52.0360E-03    -25.8705E-03     46.4990E-03    -26.1992E-03     51.7459E-03    -25.7289E-03     46.4429E-03
             454     9.64862E-03     66.7522E-03    -18.6835E+06    -60.5736E+06     3.30145E+06     26.5792E+03    -26.2313E-03     52.0821E-03    -25.8508E-03     50.0192E-03    -26.2760E-03     51.8358E-03    -25.7194E-03     49.9517E-03
             455     10.5259E-03     66.8011E-03    -16.8068E+06    -52.3687E+06     3.85854E+06     36.4660E+03    -26.2866E-03     52.1166E-03    -25.8300E-03     53.0940E-03    -26.3468E-03     51.9200E-03    -25.7104E-03     53.0136E-03
             456     11.4031E-03     66.8527E-03    -15.2133E+06    -42.1404E+06     3.44168E+06     43.4544E+03    -26.3212E-03     52.1234E-03    -25.8022E-03     55.5822E-03    -26.4036E-03     51.9922E-03    -25.7018E-03     55.4878E-03
             457     12.2804E-03     66.9064E-03    -13.8641E+06    -27.3447E+06     3.57681E+06     46.0863E+03    -26.3180E-03     52.0888E-03    -25.7708E-03     57.5002E-03    -26.4365E-03     52.0506E-03    -25.6932E-03     57.3910E-03
             458     13.1577E-03     66.9616E-03    -12.7239E+06    -8.76476E+06     2.70170E+06     45.9689E+03    -26.2935E-03     52.0221E-03    -25.7286E-03     59.2951E-03    -26.4627E-03     52.1072E-03    -25.6839E-03     59.1708E-03
             459     14.0350E-03     67.0187E-03    -11.5325E+06     38.5163E+06     10.1341E+06     41.8148E+03    -26.1486E-03     51.8319E-03    -25.6833E-03     61.4615E-03    -26.4276E-03     52.1773E-03    -25.6718E-03     61.3305E-03
             460     14.9125E-03     67.0780E-03    -9.72194E+06     89.5905E+06     28.8783E+06     31.3401E+03    -25.7635E-03     51.4462E-03    -25.6827E-03     56.1071E-03    -26.1414E-03     52.0239E-03    -25.6541E-03     55.9891E-03
             461     15.7900E-03     67.1249E-03    -7.02719E+06     107.107E+06     49.0733E+06     13.8784E+03    -25.3459E-03     51.0791E-03    -25.7332E-03     43.6245E-03    -25.7492E-03     51.6954E-03    -25.6329E-03     43.5273E-03
             462     16.6676E-03     67.1606E-03    -3.64674E+06     111.652E+06     65.4769E+06        -182.165    -25.0557E-03     50.8379E-03    -25.7823E-03     24.6173E-03    -25.4150E-03     51.3908E-03    -25.6115E-03     24.5482E-03
             463     877.054E-06     67.4753E-03    -46.4498E+06    -131.810E+06    -45.5033E+06     19.4067E+03    -25.8580E-03     51.7097E-03    -25.8517E-03     5.64170E-03    -25.8333E-03     51.1841E-03    -25.8208E-03     5.63869E-03
             464     1.75412E-03     67.4827E-03    -44.9608E+06    -126.204E+06    -40.8625E+06     48.4941E+03    -25.8482E-03     51.7101E-03    -25.8619E-03     10.3466E-03    -25.8313E-03     51.2041E-03    -25.8180E-03     10.3410E-03
             465     2.63120E-03     67.4949E-03    -42.4868E+06    -121.005E+06    -33.7485E+06     65.0656E+03    -25.8529E-03     51.7302E-03    -25.8773E-03     15.2577E-03    -25.8421E-03     51.2369E-03    -25.8090E-03     15.2490E-03
             466     3.50831E-03     67.5116E-03    -39.3712E+06    -113.759E+06    -26.0620E+06     51.9036E+03    -25.8641E-03     51.7541E-03    -25.8900E-03     20.1364E-03    -25.8604E-03     51.2824E-03    -25.7983E-03     20.1236E-03
             467     4.38544E-03     67.5330E-03    -35.9812E+06    -105.646E+06    -18.7950E+06     28.0157E+03    -25.8868E-03     51.7845E-03    -25.8978E-03     24.9320E-03    -25.8899E-03     51.3394E-03    -25.7864E-03     24.9142E-03
             468     5.26260E-03     67.5589E-03    -32.5650E+06    -97.1015E+06    -12.4365E+06     5.42261E+03    -25.9213E-03     51.8212E-03    -25.8998E-03     29.6162E-03    -25.9311E-03     51.4067E-03    -25.7740E-03     29.5927E-03
             469     6.13977E-03     67.5892E-03    -29.2779E+06    -90.2751E+06    -7.10548E+06    -9.68331E+03    -25.9729E-03     51.8725E-03    -25.8997E-03     34.1426E-03    -25.9868E-03     51.4826E-03    -25.7618E-03     34.1125E-03
             470     7.01696E-03     67.6236E-03    -26.2052E+06    -82.6132E+06    -2.81413E+06    -15.3507E+03    -26.0304E-03     51.9244E-03    -25.8940E-03     38.5062E-03    -26.0503E-03     51.5661E-03    -25.7502E-03     38.4685E-03
             471     7.89417E-03     67.6621E-03    -23.3935E+06    -74.6015E+06     390.150E+03    -14.4418E+03    -26.0932E-03     51.9764E-03    -25.8832E-03     42.6492E-03    -26.1205E-03     51.6547E-03    -25.7391E-03     42.6028E-03
             472     8.77139E-03     67.7044E-03    -20.8798E+06    -68.3608E+06     2.40898E+06    -8.08650E+03    -26.1652E-03     52.0354E-03    -25.8702E-03     46.4997E-03    -26.1990E-03     51.7454E-03    -25.7288E-03     46.4433E-03
             473     9.64863E-03     67.7502E-03    -18.6905E+06    -60.5880E+06     3.26698E+06     1.98571E+03    -26.2313E-03     52.0817E-03    -25.8505E-03     50.0201E-03    -26.2759E-03     51.8354E-03    -25.7192E-03     49.9523E-03
             474     10.5259E-03     67.7992E-03    -16.8075E+06    -52.3848E+06     3.82647E+06     13.5689E+03    -26.2867E-03     52.1164E-03    -25.8297E-03     53.0954E-03    -26.3468E-03     51.9198E-03    -25.7102E-03     53.0147E-03
             475     11.4031E-03     67.8508E-03    -15.2106E+06    -42.1535E+06     3.41413E+06     25.6696E+03    -26.3215E-03     52.1234E-03    -25.8019E-03     55.5838E-03    -26.4038E-03     51.9922E-03    -25.7017E-03     55.4892E-03
             476     12.2804E-03     67.9045E-03    -13.8584E+06    -27.3564E+06     3.55385E+06     38.1492E+03    -26.3183E-03     52.0889E-03    -25.7706E-03     57.5018E-03    -26.4368E-03     52.0507E-03    -25.6930E-03     57.3925E-03
             477     13.1577E-03     67.9597E-03    -12.7178E+06    -8.76770E+06     2.68354E+06     44.8596E+03    -26.2939E-03     52.0223E-03    -25.7284E-03     59.2964E-03    -26.4631E-03     52.1074E-03    -25.6838E-03     59.1721E-03
             478     14.0350E-03     68.0168E-03    -11.5271E+06     38.5202E+06     10.1194E+06     42.6344E+03    -26.1490E-03     51.8322E-03    -25.6832E-03     61.4622E-03    -26.4280E-03     52.1776E-03    -25.6717E-03     61.3312E-03
             479     14.9125E-03     68.0761E-03    -9.71614E+06     89.6031E+06     28.8682E+06     34.5054E+03    -25.7640E-03     51.4466E-03    -25.6826E-03     56.1075E-03    -26.1419E-03     52.0244E-03    -25.6541E-03     55.9895E-03
             480     15.7900E-03     68.1230E-03    -7.02591E+06     107.134E+06     49.0655E+06     14.8382E+03    -25.3464E-03     51.0795E-03    -25.7331E-03     43.6244E-03    -25.7498E-03     51.6960E-03    -25.6329E-03     43.5272E-03
             481     16.6676E-03     68.1587E-03    -3.64795E+06     111.662E+06     65.4601E+06    -3.31392E+03    -25.0563E-03     50.8385E-03    -25.7822E-03     24.6168E-03    -25.4156E-03     51.3914E-03    -25.6115E-03     24.5477E-03
             482     877.052E-06     68.4733E-03    -46.5374E+06    -131.865E+06    -45.6142E+06     34.7895E+03    -25.8577E-03     51.7086E-03    -25.8509E-03     5.64169E-03    -25.8332E-03     51.1830E-03    -25.8203E-03     5.63888E-03
             483     1.75412E-03     68.4808E-03    -45.0599E+06    -126.262E+06    -40.9617E+06     53.2957E+03    -25.8479E-03     51.7093E-03    -25.8614E-03     10.3466E-03    -25.8313E-03     51.2033E-03    -25.8178E-03     10.3411E-03
             484     2.63120E-03     68.4929E-03    -42.5719E+06    -121.033E+06    -33.8097E+06     63.2525E+03    -25.8529E-03     51.7299E-03    -25.8770E-03     15.2575E-03    -25.8424E-03     51.2367E-03    -25.8089E-03     15.2488E-03
             485     3.50831E-03     68.5097E-03    -39.4366E+06    -113.737E+06    -26.1263E+06     44.0614E+03    -25.8640E-03     51.7537E-03    -25.8897E-03     20.1361E-03    -25.8605E-03     51.2822E-03    -25.7982E-03     20.1231E-03
             486     4.38544E-03     68.5311E-03    -36.0341E+06    -105.611E+06    -18.8618E+06     1.60861E+03    -25.8865E-03     51.7839E-03    -25.8974E-03     24.9317E-03    -25.8898E-03     51.3391E-03    -25.7864E-03     24.9135E-03
             487     5.26260E-03     68.5570E-03    -32.6075E+06    -97.0757E+06    -12.4995E+06    -31.0272E+03    -25.9210E-03     51.8205E-03    -25.8995E-03     29.6160E-03    -25.9310E-03     51.4063E-03    -25.7740E-03     29.5920E-03
             488     6.13977E-03     68.5872E-03    -29.3124E+06    -90.2595E+06    -7.16470E+06    -47.5295E+03    -25.9726E-03     51.8719E-03    -25.8993E-03     34.1425E-03    -25.9866E-03     51.4822E-03    -25.7618E-03     34.1118E-03
             489     7.01696E-03     68.6217E-03    -26.2315E+06    -82.6075E+06    -2.86922E+06    -54.1746E+03    -26.0303E-03     51.9239E-03    -25.8936E-03     38.5063E-03    -26.0501E-03     51.5657E-03    -25.7502E-03     38.4681E-03
             490     7.89417E-03     68.6602E-03    -23.4139E+06    -74.6034E+06     338.177E+03    -52.7048E+03    -26.0930E-03     51.9759E-03    -25.8829E-03     42.6494E-03    -26.1204E-03     51.6543E-03    -25.7391E-03     42.6025E-03
             491     8.77140E-03     68.7025E-03    -20.8942E+06    -68.3699E+06     2.35941E+06    -45.6604E+03    -26.1651E-03     52.0350E-03    -25.8699E-03     46.5002E-03    -26.1988E-03     51.7450E-03    -25.7287E-03     46.4433E-03
             492     9.64863E-03     68.7483E-03    -18.6981E+06    -60.6020E+06     3.22153E+06    -34.0396E+03    -26.2312E-03     52.0814E-03    -25.8502E-03     50.0210E-03    -26.2757E-03     51.8351E-03    -25.7191E-03     49.9527E-03
             493     10.5259E-03     68.7973E-03    -16.8093E+06     -52.403E+06     3.78544E+06    -18.5581E+03    -26.2868E-03     52.1162E-03    -25.8294E-03     53.0967E-03    -26.3468E-03     51.9196E-03    -25.7102E-03     53.0156E-03
             494     11.4031E-03     68.8489E-03    -15.2076E+06    -42.1754E+06     3.37783E+06     1.32915E+03    -26.3217E-03     52.1234E-03    -25.8017E-03     55.5855E-03    -26.4039E-03     51.9921E-03    -25.7016E-03     55.4906E-03
             495     12.2804E-03     68.9026E-03    -13.8498E+06    -27.3773E+06     3.52361E+06     21.5135E+03    -26.3186E-03     52.0890E-03    -25.7704E-03     57.5036E-03    -26.4370E-03     52.0508E-03    -25.6930E-03     57.3941E-03
             496     13.1577E-03     68.9578E-03    -12.7026E+06    -8.78199E+06     2.66025E+06     39.9119E+03    -26.2942E-03     52.0225E-03    -25.7282E-03     59.2980E-03    -26.4633E-03     52.1075E-03    -25.6838E-03     59.1737E-03
             497     14.0350E-03     69.0148E-03    -11.5147E+06     38.5214E+06     10.1015E+06     48.0565E+03    -26.1493E-03     51.8323E-03    -25.6830E-03     61.4633E-03    -26.4282E-03     52.1778E-03    -25.6717E-03     61.3323E-03
             498     14.9125E-03     69.0742E-03    -9.71141E+06      89.617E+06     28.8532E+06     38.7626E+03    -25.7644E-03     51.4469E-03    -25.6825E-03     56.1086E-03    -26.1423E-03     52.0247E-03    -25.6541E-03     55.9906E-03
             499     15.7900E-03     69.1211E-03    -7.01941E+06     107.165E+06     49.0572E+06     16.0732E+03    -25.3469E-03     51.0799E-03    -25.7330E-03     43.6248E-03    -25.7503E-03     51.6965E-03    -25.6329E-03     43.5276E-03
             500     16.6676E-03     69.1568E-03    -3.64320E+06     111.674E+06     65.4411E+06    -3.74887E+03    -25.0571E-03     50.8392E-03    -25.7821E-03     24.6165E-03    -25.4163E-03     51.3922E-03    -25.6116E-03     24.5474E-03
             501     877.054E-06     69.4714E-03    -46.6803E+06    -131.920E+06    -45.7489E+06     15.9195E+03    -25.8575E-03     51.7081E-03    -25.8507E-03     5.64101E-03    -25.8334E-03     51.1827E-03    -25.8204E-03     5.63795E-03
             502     1.75412E-03     69.4789E-03    -45.1562E+06    -126.316E+06    -41.0312E+06     45.6848E+03    -25.8479E-03     51.7094E-03    -25.8615E-03     10.3457E-03    -25.8315E-03     51.2033E-03    -25.8180E-03     10.3401E-03
             503     2.63120E-03     69.4910E-03    -42.6466E+06    -121.051E+06    -33.8549E+06     51.0878E+03    -25.8529E-03     51.7301E-03    -25.8772E-03     15.2565E-03    -25.8427E-03     51.2369E-03    -25.8091E-03     15.2476E-03
             504     3.50831E-03     69.5078E-03     -39.496E+06    -113.697E+06    -26.1815E+06     18.5976E+03    -25.8639E-03     51.7535E-03    -25.8897E-03     20.1352E-03    -25.8607E-03     51.2825E-03    -25.7985E-03     20.1219E-03
             505     4.38544E-03     69.5292E-03    -36.0839E+06    -105.548E+06    -18.9413E+06    -36.8281E+03    -25.8862E-03     51.7834E-03    -25.8972E-03     24.9310E-03    -25.8898E-03     51.3392E-03    -25.7866E-03     24.9124E-03
             506     5.26259E-03     69.5550E-03    -32.6557E+06    -97.0388E+06    -12.5783E+06    -79.2643E+03    -25.9207E-03     51.8199E-03    -25.8993E-03     29.6155E-03    -25.9308E-03     51.4061E-03    -25.7741E-03     29.5909E-03
             507     6.13977E-03     69.5853E-03    -29.3546E+06    -90.2348E+06    -7.24044E+06    -99.3534E+03    -25.9722E-03     51.8713E-03    -25.8991E-03     34.1422E-03    -25.9864E-03     51.4819E-03    -25.7619E-03     34.1109E-03
             508     7.01696E-03     69.6197E-03    -26.2662E+06    -82.5958E+06    -2.94073E+06    -106.934E+03    -26.0300E-03     51.9234E-03    -25.8934E-03     38.5062E-03    -26.0500E-03     51.5654E-03    -25.7502E-03     38.4673E-03
             509     7.89417E-03     69.6583E-03    -23.4385E+06    -74.6014E+06     272.168E+03    -105.053E+03    -26.0929E-03     51.9755E-03    -25.8826E-03     42.6497E-03    -26.1202E-03     51.6540E-03    -25.7391E-03     42.6021E-03
             510     8.77139E-03     69.7006E-03    -20.9093E+06    -68.3762E+06     2.29910E+06    -96.2794E+03    -26.1650E-03     52.0347E-03    -25.8697E-03     46.5009E-03    -26.1987E-03     51.7447E-03    -25.7287E-03     46.4433E-03
             511     9.64863E-03     69.7464E-03    -18.7072E+06    -60.6172E+06     3.16620E+06    -80.6521E+03    -26.2312E-03     52.0812E-03    -25.8500E-03     50.0220E-03    -26.2757E-03     51.8349E-03    -25.7191E-03     49.9531E-03
             512     10.5259E-03     69.7953E-03    -16.8148E+06    -52.4240E+06     3.73382E+06    -59.5822E+03    -26.2868E-03     52.1161E-03    -25.8292E-03     53.0980E-03    -26.3468E-03     51.9194E-03    -25.7102E-03     53.0164E-03
             513     11.4031E-03     69.8470E-03    -15.2063E+06    -42.2033E+06     3.32999E+06    -35.4835E+03    -26.3218E-03     52.1233E-03    -25.8015E-03     55.5871E-03    -26.4039E-03     51.9920E-03    -25.7016E-03     55.4917E-03
             514     12.2804E-03     69.9006E-03    -13.8399E+06    -27.4078E+06     3.48241E+06    -6.41433E+03    -26.3188E-03     52.0891E-03    -25.7702E-03     57.5051E-03    -26.4370E-03     52.0507E-03    -25.6930E-03     57.3953E-03
             515     13.1577E-03     69.9559E-03    -12.6830E+06    -8.80913E+06     2.62694E+06     21.0121E+03    -26.2945E-03     52.0226E-03    -25.7281E-03     59.2991E-03    -26.4633E-03     52.1075E-03    -25.6838E-03     59.1745E-03
             516     14.0350E-03     70.0129E-03    -11.4809E+06     38.5005E+06     10.0785E+06     49.4836E+03    -26.1496E-03     51.8324E-03    -25.6829E-03     61.4635E-03    -26.4282E-03     52.1778E-03    -25.6717E-03     61.3325E-03
             517     14.9125E-03     70.0723E-03    -9.68373E+06     89.6307E+06     28.8427E+06     60.2779E+03    -25.7647E-03     51.4470E-03    -25.6824E-03     56.1088E-03    -26.1424E-03     52.0249E-03    -25.6541E-03     55.9911E-03
             518     15.7900E-03     70.1192E-03    -7.01826E+06     107.213E+06     49.0498E+06     26.7378E+03    -25.3474E-03     51.0803E-03    -25.7329E-03     43.6243E-03    -25.7508E-03     51.6972E-03    -25.6330E-03     43.5272E-03
             519     16.6676E-03     70.1548E-03    -3.64770E+06     111.688E+06     65.4163E+06    -7.30579E+03    -25.0582E-03     50.8403E-03    -25.7821E-03     24.6155E-03    -25.4175E-03     51.3934E-03    -25.6117E-03     24.5464E-03
             520     877.051E-06     70.4695E-03    -46.7339E+06    -131.939E+06    -45.7908E+06    -12.4407E+03    -25.8580E-03     51.7095E-03    -25.8516E-03     5.64105E-03    -25.8341E-03     51.1842E-03    -25.8214E-03     5.63763E-03
             521     1.75412E-03     70.4769E-03    -45.2205E+06    -126.381E+06    -41.0962E+06     28.6396E+03    -25.8482E-03     51.7103E-03    -25.8621E-03     10.3457E-03    -25.8320E-03     51.2041E-03    -25.8188E-03     10.3399E-03
             522     2.63120E-03     70.4891E-03    -42.7141E+06    -121.046E+06    -33.9437E+06     35.1480E+03    -25.8527E-03     51.7301E-03    -25.8774E-03     15.2565E-03    -25.8427E-03     51.2372E-03    -25.8097E-03     15.2474E-03
             523     3.50831E-03     70.5059E-03    -39.5633E+06    -113.624E+06    -26.2849E+06    -22.4896E+03    -25.8635E-03     51.7531E-03    -25.8896E-03     20.1354E-03    -25.8607E-03     51.2827E-03    -25.7989E-03     20.1216E-03
             524     4.38544E-03     70.5272E-03    -36.1439E+06    -105.468E+06    -19.0408E+06    -91.6929E+03    -25.8859E-03     51.7830E-03    -25.8970E-03     24.9312E-03    -25.8898E-03     51.3394E-03    -25.7869E-03     24.9119E-03
             525     5.26259E-03     70.5531E-03    -32.7067E+06    -96.9836E+06    -12.6725E+06    -138.833E+03    -25.9205E-03     51.8196E-03    -25.8991E-03     29.6156E-03    -25.9308E-03     51.4062E-03    -25.7744E-03     29.5902E-03
             526     6.13977E-03     70.5834E-03    -29.4020E+06    -90.1988E+06    -7.33258E+06    -164.387E+03    -25.9720E-03     51.8709E-03    -25.8989E-03     34.1424E-03    -25.9863E-03     51.4819E-03    -25.7621E-03     34.1103E-03
             527     7.01696E-03     70.6178E-03    -26.3077E+06    -82.5743E+06    -3.02893E+06    -174.455E+03    -26.0297E-03     51.9229E-03    -25.8932E-03     38.5065E-03    -26.0498E-03     51.5653E-03    -25.7504E-03     38.4668E-03
             528     7.89417E-03     70.6563E-03    -23.4734E+06    -74.5927E+06     189.255E+03    -174.085E+03    -26.0927E-03     51.9751E-03    -25.8824E-03     42.6501E-03    -26.1201E-03     51.6538E-03    -25.7393E-03     42.6016E-03
             529     8.77139E-03     70.6986E-03    -20.9365E+06    -68.3819E+06     2.22110E+06    -161.883E+03    -26.1649E-03     52.0344E-03    -25.8695E-03     46.5016E-03    -26.1987E-03     51.7446E-03    -25.7288E-03     46.4431E-03
             530     9.64862E-03     70.7444E-03    -18.7260E+06    -60.6331E+06     3.09345E+06    -140.546E+03    -26.2312E-03     52.0810E-03    -25.8498E-03     50.0230E-03    -26.2757E-03     51.8348E-03    -25.7193E-03     49.9533E-03
             531     10.5259E-03     70.7934E-03    -16.8225E+06    -52.4474E+06     3.66714E+06    -114.816E+03    -26.2870E-03     52.1161E-03    -25.8291E-03     53.0993E-03    -26.3469E-03     51.9194E-03    -25.7103E-03     53.0170E-03
             532     11.4031E-03     70.8450E-03    -15.2072E+06    -42.2346E+06     3.26844E+06    -83.7060E+03    -26.3221E-03     52.1234E-03    -25.8014E-03     55.5885E-03    -26.4040E-03     51.9920E-03    -25.7017E-03     55.4924E-03
             533     12.2804E-03     70.8987E-03    -13.8347E+06    -27.4460E+06     3.42513E+06    -49.4668E+03    -26.3191E-03     52.0892E-03    -25.7701E-03     57.5064E-03    -26.4371E-03     52.0507E-03    -25.6931E-03     57.3960E-03
             534     13.1577E-03     70.9540E-03    -12.6694E+06    -8.84594E+06     2.57630E+06    -13.0307E+03    -26.2947E-03     52.0227E-03    -25.7280E-03     59.2999E-03    -26.4634E-03     52.1075E-03    -25.6839E-03     59.1748E-03
             535     14.0350E-03     71.0110E-03    -11.4513E+06     38.4584E+06     10.0367E+06     22.1764E+03    -26.1499E-03     51.8327E-03    -25.6828E-03     61.4634E-03    -26.4283E-03     52.1779E-03    -25.6718E-03     61.3321E-03
             536     14.9125E-03     71.0703E-03    -9.61854E+06     89.5981E+06     28.8202E+06     69.8389E+03    -25.7650E-03     51.4473E-03    -25.6823E-03     56.1083E-03    -26.1423E-03     52.0250E-03    -25.6542E-03     55.9908E-03
             537     15.7900E-03     71.1172E-03    -6.94886E+06     107.273E+06     49.0591E+06     73.4767E+03    -25.3478E-03     51.0806E-03    -25.7329E-03     43.6238E-03    -25.7509E-03     51.6977E-03    -25.6331E-03     43.5274E-03
             538     16.6676E-03     71.1529E-03    -3.62435E+06     111.736E+06     65.3914E+06     12.0071E+03    -25.0594E-03     50.8414E-03    -25.7820E-03     24.6155E-03    -25.4186E-03     51.3947E-03    -25.6118E-03     24.5466E-03
             539     877.052E-06     71.4675E-03     -46.786E+06    -131.930E+06    -45.8256E+06    -7.34894E+03    -25.8586E-03     51.7107E-03    -25.8521E-03     5.64170E-03    -25.8349E-03     51.1855E-03    -25.8221E-03     5.63834E-03
             540     1.75412E-03     71.4750E-03    -45.2755E+06    -126.446E+06    -41.1387E+06     18.8222E+03    -25.8488E-03     51.7116E-03    -25.8628E-03     10.3462E-03    -25.8327E-03     51.2052E-03    -25.8195E-03     10.3402E-03
             541     2.63120E-03     71.4871E-03    -42.7700E+06    -121.012E+06    -34.0406E+06     11.0527E+03    -25.8529E-03     51.7305E-03    -25.8776E-03     15.2568E-03    -25.8431E-03     51.2380E-03    -25.8104E-03     15.2474E-03
             542     3.50831E-03     71.5039E-03    -39.6234E+06    -113.498E+06    -26.4174E+06    -77.4343E+03    -25.8633E-03     51.7527E-03    -25.8894E-03     20.1356E-03    -25.8607E-03     51.2832E-03    -25.7995E-03     20.1211E-03
             543     4.38544E-03     71.5253E-03    -36.2066E+06    -105.373E+06    -19.1643E+06    -164.311E+03    -25.8857E-03     51.7826E-03    -25.8968E-03     24.9312E-03    -25.8899E-03     51.3397E-03    -25.7874E-03     24.9109E-03
             544     5.26259E-03     71.5512E-03    -32.7688E+06    -96.9098E+06    -12.7884E+06    -212.806E+03    -25.9204E-03     51.8192E-03    -25.8989E-03     29.6156E-03    -25.9309E-03     51.4066E-03    -25.7748E-03     29.5893E-03
             545     6.13977E-03     71.5814E-03    -29.4588E+06    -90.1463E+06    -7.44282E+06    -243.187E+03    -25.9719E-03     51.8707E-03    -25.8987E-03     34.1425E-03    -25.9865E-03     51.4822E-03    -25.7625E-03     34.1094E-03
             546     7.01696E-03     71.6159E-03    -26.3583E+06    -82.5398E+06    -3.13510E+06    -257.943E+03    -26.0297E-03     51.9227E-03    -25.8930E-03     38.5067E-03    -26.0499E-03     51.5654E-03    -25.7508E-03     38.4658E-03
             547     7.89417E-03     71.6544E-03    -23.5166E+06    -74.5760E+06     87.9951E+03    -257.719E+03    -26.0927E-03     51.9749E-03    -25.8822E-03     42.6504E-03    -26.1202E-03     51.6539E-03    -25.7396E-03     42.6008E-03
             548     8.77139E-03     71.6967E-03    -20.9727E+06    -68.3850E+06     2.12374E+06    -243.580E+03    -26.1650E-03     52.0343E-03    -25.8693E-03     46.5020E-03    -26.1987E-03     51.7447E-03    -25.7291E-03     46.4425E-03
             549     9.64862E-03     71.7425E-03    -18.7515E+06    -60.6476E+06     3.00190E+06    -219.298E+03    -26.2313E-03     52.0810E-03    -25.8497E-03     50.0239E-03    -26.2758E-03     51.8349E-03    -25.7195E-03     49.9531E-03
             550     10.5259E-03     71.7915E-03    -16.8400E+06    -52.4744E+06     3.58153E+06    -186.114E+03    -26.2872E-03     52.1161E-03    -25.8290E-03     53.1006E-03    -26.3470E-03     51.9195E-03    -25.7105E-03     53.0173E-03
             551     11.4031E-03     71.8431E-03    -15.2167E+06    -42.2718E+06     3.18897E+06    -145.548E+03    -26.3223E-03     52.1236E-03    -25.8013E-03     55.5900E-03    -26.4041E-03     51.9921E-03    -25.7020E-03     55.4932E-03
             552     12.2804E-03     71.8968E-03    -13.8386E+06    -27.4849E+06     3.35245E+06    -104.313E+03    -26.3193E-03     52.0893E-03    -25.7700E-03     57.5081E-03    -26.4372E-03     52.0508E-03    -25.6933E-03     57.3970E-03
             553     13.1577E-03     71.9520E-03    -12.6680E+06    -8.89273E+06     2.50822E+06    -62.5532E+03    -26.2950E-03     52.0229E-03    -25.7279E-03     59.3014E-03    -26.4635E-03     52.1076E-03    -25.6841E-03     59.1757E-03
             554     14.0350E-03     72.0091E-03    -11.4477E+06     38.4168E+06     9.97549E+06    -22.7586E+03    -26.1501E-03     51.8329E-03    -25.6828E-03     61.4645E-03    -26.4284E-03     52.1779E-03    -25.6720E-03     61.3326E-03
             555     14.9125E-03     72.0684E-03    -9.59538E+06     89.5284E+06     28.7620E+06     20.0556E+03    -25.7653E-03     51.4476E-03    -25.6823E-03     56.1094E-03    -26.1423E-03     52.0250E-03    -25.6544E-03     55.9912E-03
             556     15.7900E-03     72.1153E-03    -6.85395E+06     107.260E+06     49.0445E+06     79.6030E+03    -25.3479E-03     51.0808E-03    -25.7329E-03     43.6248E-03    -25.7505E-03     51.6976E-03    -25.6332E-03     43.5284E-03
             557     16.6676E-03     72.1510E-03    -3.50576E+06     111.802E+06     65.3885E+06     89.2835E+03    -25.0603E-03     50.8422E-03    -25.7819E-03     24.6160E-03    -25.4190E-03     51.3957E-03    -25.6119E-03     24.5481E-03
             558     877.050E-06     72.4656E-03    -46.9088E+06    -131.920E+06    -45.9422E+06    -11.2227E+03    -25.8589E-03     51.7108E-03    -25.8519E-03     5.64164E-03    -25.8357E-03     51.1860E-03    -25.8223E-03     5.63823E-03
             559     1.75412E-03     72.4731E-03    -45.3658E+06    -126.490E+06    -41.1828E+06     9.32221E+03    -25.8495E-03     51.7129E-03    -25.8634E-03     10.3459E-03    -25.8338E-03     51.2065E-03    -25.8201E-03     10.3399E-03
             560     2.63120E-03     72.4852E-03    -42.8347E+06    -120.929E+06    -34.1241E+06    -33.8942E+03    -25.8534E-03     51.7314E-03    -25.8779E-03     15.2564E-03    -25.8439E-03     51.2395E-03    -25.8111E-03     15.2463E-03
             561     3.50830E-03     72.5020E-03    -39.6838E+06    -113.329E+06    -26.5677E+06    -146.431E+03    -25.8634E-03     51.7526E-03    -25.8892E-03     20.1350E-03    -25.8611E-03     51.2842E-03    -25.8002E-03     20.1195E-03
             562     4.38543E-03     72.5234E-03    -36.2827E+06    -105.255E+06    -19.3125E+06    -241.756E+03    -25.8857E-03     51.7824E-03    -25.8967E-03     24.9306E-03    -25.8901E-03     51.3404E-03    -25.7880E-03     24.9093E-03
             563     5.26259E-03     72.5492E-03    -32.8507E+06    -96.8118E+06    -12.9285E+06    -302.029E+03    -25.9203E-03     51.8190E-03    -25.8988E-03     29.6150E-03    -25.9312E-03     51.4072E-03    -25.7754E-03     29.5876E-03
             564     6.13976E-03     72.5795E-03    -29.5337E+06    -90.0733E+06    -7.57550E+06    -341.442E+03    -25.9720E-03     51.8706E-03    -25.8986E-03     34.1420E-03    -25.9868E-03     51.4828E-03    -25.7631E-03     34.1075E-03
             565     7.01696E-03     72.6139E-03    -26.4220E+06    -82.4894E+06    -3.26208E+06    -360.394E+03    -26.0298E-03     51.9227E-03    -25.8929E-03     38.5063E-03    -26.0502E-03     51.5660E-03    -25.7513E-03     38.4641E-03
             566     7.89417E-03     72.6525E-03    -23.5696E+06    -74.5509E+06    -34.1463E+03    -360.515E+03    -26.0928E-03     51.9749E-03    -25.8822E-03     42.6502E-03    -26.1204E-03     51.6544E-03    -25.7401E-03     42.5994E-03
             567     8.77139E-03     72.6948E-03    -21.0131E+06    -68.3800E+06     2.00872E+06    -344.835E+03    -26.1651E-03     52.0344E-03    -25.8693E-03     46.5022E-03    -26.1989E-03     51.7450E-03    -25.7296E-03     46.4414E-03
             568     9.64862E-03     72.7406E-03    -18.7833E+06    -60.6609E+06     2.89237E+06    -316.236E+03    -26.2314E-03     52.0810E-03    -25.8496E-03     50.0245E-03    -26.2758E-03     51.8350E-03    -25.7200E-03     49.9525E-03
             569     10.5259E-03     72.7895E-03    -16.8635E+06    -52.5077E+06     3.47721E+06    -272.958E+03    -26.2872E-03     52.1162E-03    -25.8289E-03     53.1017E-03    -26.3469E-03     51.9195E-03    -25.7110E-03     53.0173E-03
             570     11.4031E-03     72.8412E-03    -15.2342E+06    -42.3132E+06     3.09123E+06    -222.303E+03    -26.3223E-03     52.1236E-03    -25.8012E-03     55.5915E-03    -26.4040E-03     51.9920E-03    -25.7023E-03     55.4937E-03
             571     12.2804E-03     72.8949E-03    -13.8530E+06    -27.5330E+06     3.26066E+06    -167.846E+03    -26.3194E-03     52.0893E-03    -25.7700E-03     57.5097E-03    -26.4371E-03     52.0507E-03    -25.6937E-03     57.3978E-03
             572     13.1577E-03     72.9501E-03    -12.6888E+06    -8.94073E+06     2.42005E+06    -115.485E+03    -26.2950E-03     52.0228E-03    -25.7279E-03     59.3028E-03    -26.4634E-03     52.1074E-03    -25.6844E-03     59.1764E-03
             573     14.0350E-03     73.0072E-03    -11.4811E+06     38.3671E+06     9.88774E+06    -65.9894E+03    -26.1501E-03     51.8328E-03    -25.6827E-03     61.4654E-03    -26.4283E-03     52.1778E-03    -25.6723E-03     61.3329E-03
             574     14.9125E-03     73.0665E-03    -9.65838E+06     89.4920E+06     28.6724E+06    -35.0908E+03    -25.7655E-03     51.4477E-03    -25.6822E-03     56.1101E-03    -26.1426E-03     52.0251E-03    -25.6546E-03     55.9912E-03
             575     15.7900E-03     73.1134E-03    -6.97362E+06     107.123E+06     48.9093E+06     51.9498E+03    -25.3483E-03     51.0811E-03    -25.7328E-03     43.6244E-03    -25.7511E-03     51.6977E-03    -25.6335E-03     43.5276E-03
             576     16.6676E-03     73.1491E-03    -3.62285E+06     111.803E+06     65.3473E+06     149.308E+03    -25.0586E-03     50.8407E-03    -25.7821E-03     24.6153E-03    -25.4178E-03     51.3944E-03    -25.6122E-03     24.5481E-03
             577     877.051E-06     73.4637E-03    -47.0732E+06    -131.899E+06    -46.0941E+06    -34.2022E+03    -25.8595E-03     51.7121E-03    -25.8527E-03     5.64073E-03    -25.8369E-03     51.1879E-03    -25.8236E-03     5.63703E-03
             578     1.75411E-03     73.4711E-03    -45.5058E+06    -126.486E+06    -41.3382E+06    -27.8442E+03    -25.8501E-03     51.7141E-03    -25.8640E-03     10.3450E-03    -25.8348E-03     51.2081E-03    -25.8213E-03     10.3384E-03
             579     2.63120E-03     73.4833E-03    -42.9511E+06    -120.777E+06    -34.3048E+06    -112.964E+03    -25.8535E-03     51.7316E-03    -25.8781E-03     15.2556E-03    -25.8446E-03     51.2409E-03    -25.8122E-03     15.2445E-03
             580     3.50830E-03     73.5001E-03    -39.8012E+06    -113.147E+06    -26.7505E+06    -227.900E+03    -25.8634E-03     51.7526E-03    -25.8892E-03     20.1343E-03    -25.8617E-03     51.2856E-03    -25.8012E-03     20.1178E-03
             581     4.38543E-03     73.5214E-03    -36.3969E+06    -105.095E+06    -19.4821E+06    -331.320E+03    -25.8857E-03     51.7824E-03    -25.8967E-03     24.9300E-03    -25.8908E-03     51.3417E-03    -25.7889E-03     24.9076E-03
             582     5.26258E-03     73.5473E-03    -32.9535E+06    -96.6823E+06    -13.0900E+06    -412.269E+03    -25.9204E-03     51.8192E-03    -25.8988E-03     29.6146E-03    -25.9318E-03     51.4083E-03    -25.7763E-03     29.5857E-03
             583     6.13976E-03     73.5776E-03    -29.6249E+06    -89.9741E+06    -7.73124E+06    -462.011E+03    -25.9721E-03     51.8707E-03    -25.8986E-03     34.1415E-03    -25.9873E-03     51.4837E-03    -25.7639E-03     34.1055E-03
             584     7.01695E-03     73.6120E-03    -26.5018E+06    -82.4210E+06    -3.41282E+06    -486.921E+03    -26.0299E-03     51.9229E-03    -25.8930E-03     38.5060E-03    -26.0506E-03     51.5668E-03    -25.7521E-03     38.4622E-03
             585     7.89416E-03     73.6505E-03    -23.6347E+06    -74.5130E+06    -179.842E+03    -488.388E+03    -26.0929E-03     51.9751E-03    -25.8822E-03     42.6502E-03    -26.1207E-03     51.6550E-03    -25.7408E-03     42.5977E-03
             586     8.77138E-03     73.6928E-03    -21.0651E+06    -68.3673E+06     1.86937E+06    -470.074E+03    -26.1652E-03     52.0345E-03    -25.8693E-03     46.5025E-03    -26.1991E-03     51.7455E-03    -25.7303E-03     46.4401E-03
             587     9.64861E-03     73.7386E-03    -18.8231E+06    -60.6753E+06     2.75914E+06    -432.224E+03    -26.2314E-03     52.0811E-03    -25.8497E-03     50.0252E-03    -26.2758E-03     51.8353E-03    -25.7206E-03     49.9517E-03
             588     10.5259E-03     73.7876E-03    -16.8936E+06    -52.5442E+06     3.34947E+06    -379.332E+03    -26.2872E-03     52.1162E-03    -25.8290E-03     53.1028E-03    -26.3468E-03     51.9196E-03    -25.7115E-03     53.0170E-03
             589     11.4031E-03     73.8393E-03    -15.2562E+06    -42.3665E+06     2.96986E+06    -312.604E+03    -26.3222E-03     52.1235E-03    -25.8013E-03     55.5928E-03    -26.4038E-03     51.9919E-03    -25.7029E-03     55.4938E-03
             590     12.2804E-03     73.8929E-03    -13.8738E+06    -27.5950E+06     3.14561E+06    -238.495E+03    -26.3192E-03     52.0892E-03    -25.7700E-03     57.5110E-03    -26.4368E-03     52.0505E-03    -25.6941E-03     57.3982E-03
             591     13.1577E-03     73.9482E-03    -12.7165E+06    -9.00729E+06     2.30813E+06    -159.938E+03    -26.2948E-03     52.0227E-03    -25.7279E-03     59.3036E-03    -26.4631E-03     52.1072E-03    -25.6848E-03     59.1766E-03
             592     14.0350E-03     74.0052E-03    -11.5319E+06     38.3080E+06     9.77627E+06    -88.6942E+03    -26.1501E-03     51.8328E-03    -25.6827E-03     61.4659E-03    -26.4283E-03     52.1777E-03    -25.6726E-03     61.3331E-03
             593     14.9125E-03     74.0646E-03    -9.76086E+06     89.4527E+06     28.5517E+06    -27.9646E+03    -25.7654E-03     51.4476E-03    -25.6822E-03     56.1105E-03    -26.1429E-03     52.0252E-03    -25.6550E-03     55.9917E-03
             594     15.7900E-03     74.1115E-03    -7.12126E+06     106.951E+06     48.7385E+06     72.7660E+03    -25.3485E-03     51.0813E-03    -25.7328E-03     43.6251E-03    -25.7516E-03     51.6974E-03    -25.6339E-03     43.5286E-03
             595     16.6676E-03     74.1472E-03    -3.73664E+06     111.796E+06     65.2993E+06     120.572E+03    -25.0566E-03     50.8389E-03    -25.7823E-03     24.6163E-03    -25.4163E-03     51.3929E-03    -25.6125E-03     24.5487E-03
             596     877.047E-06     74.4617E-03    -47.2541E+06    -131.777E+06    -46.3044E+06    -132.681E+03    -25.8604E-03     51.7146E-03    -25.8542E-03     5.64061E-03    -25.8386E-03     51.1916E-03    -25.8262E-03     5.63564E-03
             597     1.75411E-03     74.4692E-03    -45.6291E+06    -126.435E+06    -41.5757E+06    -125.483E+03    -25.8505E-03     51.7153E-03    -25.8648E-03     10.3449E-03    -25.8356E-03     51.2101E-03    -25.8232E-03     10.3371E-03
             598     2.63119E-03     74.4813E-03    -43.1099E+06    -120.571E+06    -34.5828E+06    -199.824E+03    -25.8532E-03     51.7313E-03    -25.8780E-03     15.2555E-03    -25.8450E-03     51.2422E-03    -25.8136E-03     15.2434E-03
             599     3.50830E-03     74.4981E-03    -39.9750E+06    -112.935E+06    -26.9627E+06    -333.143E+03    -25.8634E-03     51.7527E-03    -25.8893E-03     20.1341E-03    -25.8626E-03     51.2872E-03    -25.8024E-03     20.1163E-03
             600     4.38542E-03     74.5195E-03    -36.5466E+06    -104.886E+06    -19.6765E+06    -455.627E+03    -25.8859E-03     51.7827E-03    -25.8968E-03     24.9298E-03    -25.8917E-03     51.3435E-03    -25.7901E-03     24.9058E-03
             601     5.26258E-03     74.5454E-03    -33.0823E+06    -96.5157E+06    -13.2799E+06    -549.461E+03    -25.9206E-03     51.8195E-03    -25.8989E-03     29.6144E-03    -25.9327E-03     51.4100E-03    -25.7774E-03     29.5837E-03
             602     6.13975E-03     74.5756E-03    -29.7383E+06    -89.8439E+06    -7.91571E+06    -610.427E+03    -25.9723E-03     51.8711E-03    -25.8988E-03     34.1413E-03    -25.9880E-03     51.4852E-03    -25.7650E-03     34.1034E-03
             603     7.01694E-03     74.6101E-03    -26.5981E+06    -82.3298E+06    -3.59150E+06    -641.501E+03    -26.0301E-03     51.9232E-03    -25.8931E-03     38.5057E-03    -26.0512E-03     51.5680E-03    -25.7531E-03     38.4599E-03
             604     7.89415E-03     74.6486E-03    -23.7152E+06    -74.4571E+06    -352.894E+03    -646.144E+03    -26.0931E-03     51.9754E-03    -25.8824E-03     42.6501E-03    -26.1211E-03     51.6560E-03    -25.7418E-03     42.5955E-03
             605     8.77137E-03     74.6909E-03    -21.1277E+06    -68.3487E+06     1.70194E+06    -623.723E+03    -26.1653E-03     52.0347E-03    -25.8695E-03     46.5027E-03    -26.1993E-03     51.7461E-03    -25.7312E-03     46.4383E-03
             606     9.64860E-03     74.7367E-03    -18.8683E+06    -60.6906E+06     2.59928E+06    -576.040E+03    -26.2315E-03     52.0813E-03    -25.8498E-03     50.0256E-03    -26.2759E-03     51.8357E-03    -25.7215E-03     49.9503E-03
             607     10.5258E-03     74.7857E-03    -16.9244E+06    -52.5872E+06     3.19764E+06    -506.950E+03    -26.2871E-03     52.1162E-03    -25.8291E-03     53.1036E-03    -26.3466E-03     51.9197E-03    -25.7123E-03     53.0162E-03
             608     11.4031E-03     74.8373E-03    -15.2790E+06    -42.4364E+06     2.82389E+06    -420.231E+03    -26.3221E-03     52.1234E-03    -25.8014E-03     55.5940E-03    -26.4035E-03     51.9917E-03    -25.7036E-03     55.4936E-03
             609     12.2804E-03     74.8910E-03    -13.8910E+06    -27.6815E+06     3.00716E+06    -317.955E+03    -26.3190E-03     52.0890E-03    -25.7701E-03     57.5124E-03    -26.4363E-03     52.0501E-03    -25.6947E-03     57.3985E-03
             610     13.1577E-03     74.9463E-03    -12.7303E+06    -9.10688E+06     2.17675E+06    -207.085E+03    -26.2945E-03     52.0225E-03    -25.7279E-03     59.3046E-03    -26.4626E-03     52.1066E-03    -25.6854E-03     59.1770E-03
             611     14.0350E-03     75.0033E-03    -11.5480E+06     38.2110E+06     9.65169E+06    -90.3270E+03    -26.1498E-03     51.8325E-03    -25.6827E-03     61.4671E-03    -26.4278E-03     52.1772E-03    -25.6731E-03     61.3343E-03
             612     14.9124E-03     75.0627E-03    -9.78384E+06     89.3629E+06     28.4315E+06     21.2473E+03    -25.7652E-03     51.4474E-03    -25.6822E-03     56.1117E-03    -26.1425E-03     52.0247E-03    -25.6554E-03     55.9935E-03
             613     15.7900E-03     75.1096E-03    -7.10990E+06     106.872E+06     48.6420E+06     67.9090E+03    -25.3482E-03     51.0810E-03    -25.7328E-03     43.6263E-03    -25.7510E-03     51.6969E-03    -25.6342E-03     43.5297E-03
             614     16.6676E-03     75.1453E-03    -3.68672E+06     111.835E+06     65.2647E+06     44.2383E+03    -25.0564E-03     50.8387E-03    -25.7823E-03     24.6170E-03    -25.4159E-03     51.3928E-03    -25.6128E-03     24.5485E-03
             615     877.046E-06     75.4598E-03    -47.2908E+06    -131.451E+06    -46.3482E+06    -273.391E+03    -25.8615E-03     51.7167E-03    -25.8552E-03     5.64138E-03    -25.8403E-03     51.1954E-03    -25.8278E-03     5.63458E-03
             616     1.75411E-03     75.4673E-03    -45.7559E+06    -126.390E+06    -41.7082E+06    -213.884E+03    -25.8515E-03     51.7174E-03    -25.8659E-03     10.3455E-03    -25.8371E-03     51.2128E-03    -25.8248E-03     10.3366E-03
             617     2.63119E-03     75.4794E-03    -43.2750E+06    -120.307E+06    -34.7861E+06    -277.115E+03    -25.8536E-03     51.7321E-03    -25.8784E-03     15.2557E-03    -25.8463E-03     51.2449E-03    -25.8152E-03     15.2425E-03
             618     3.50829E-03     75.4962E-03    -40.1484E+06    -112.642E+06    -27.1933E+06    -461.473E+03    -25.8637E-03     51.7531E-03    -25.8895E-03     20.1339E-03    -25.8638E-03     51.2898E-03    -25.8039E-03     20.1144E-03
             619     4.38542E-03     75.5176E-03    -36.7173E+06    -104.637E+06    -19.9044E+06    -612.201E+03    -25.8863E-03     51.7833E-03    -25.8970E-03     24.9293E-03    -25.8930E-03     51.3459E-03    -25.7915E-03     24.9032E-03
             620     5.26257E-03     75.5434E-03    -33.2392E+06    -96.3022E+06    -13.5018E+06    -719.038E+03    -25.9211E-03     51.8202E-03    -25.8991E-03     29.6137E-03    -25.9339E-03     51.4123E-03    -25.7788E-03     29.5808E-03
             621     6.13975E-03     75.5737E-03    -29.8747E+06    -89.6785E+06    -8.13208E+06    -793.042E+03    -25.9727E-03     51.8718E-03    -25.8990E-03     34.1404E-03    -25.9890E-03     51.4872E-03    -25.7663E-03     34.1002E-03
             622     7.01693E-03     75.6081E-03    -26.7134E+06    -82.2089E+06    -3.80131E+06    -831.923E+03    -26.0304E-03     51.9238E-03    -25.8934E-03     38.5048E-03    -26.0520E-03     51.5697E-03    -25.7544E-03     38.4566E-03
             623     7.89414E-03     75.6467E-03    -23.8080E+06    -74.3813E+06    -555.359E+03    -838.239E+03    -26.0933E-03     51.9759E-03    -25.8826E-03     42.6494E-03    -26.1216E-03     51.6573E-03    -25.7430E-03     42.5923E-03
             624     8.77136E-03     75.6890E-03    -21.2009E+06    -68.3197E+06     1.50554E+06    -812.645E+03    -26.1654E-03     52.0351E-03    -25.8697E-03     46.5023E-03    -26.1995E-03     51.7470E-03    -25.7324E-03     46.4354E-03
             625     9.64860E-03     75.7348E-03    -18.9209E+06    -60.7067E+06     2.41013E+06    -754.448E+03    -26.2314E-03     52.0815E-03    -25.8500E-03     50.0257E-03    -26.2758E-03     51.8361E-03    -25.7225E-03     49.9481E-03
             626     10.5258E-03     75.7838E-03    -16.9575E+06    -52.6440E+06     3.01727E+06    -665.087E+03    -26.2869E-03     52.1162E-03    -25.8293E-03     53.1042E-03    -26.3462E-03     51.9197E-03    -25.7133E-03     53.0147E-03
             627     11.4031E-03     75.8354E-03    -15.2952E+06    -42.5263E+06     2.65362E+06    -550.311E+03    -26.3217E-03     52.1232E-03    -25.8015E-03     55.5950E-03    -26.4028E-03     51.9914E-03    -25.7044E-03     55.4930E-03
             628     12.2804E-03     75.8891E-03    -13.8954E+06    -27.7999E+06     2.84555E+06    -417.123E+03    -26.3185E-03     52.0887E-03    -25.7702E-03     57.5138E-03    -26.4355E-03     52.0494E-03    -25.6955E-03     57.3987E-03
             629     13.1577E-03     75.9443E-03    -12.7218E+06    -9.24042E+06     2.02684E+06    -272.596E+03    -26.2940E-03     52.0220E-03    -25.7280E-03     59.3060E-03    -26.4616E-03     52.1057E-03    -25.6860E-03     59.1776E-03
             630     14.0350E-03     76.0014E-03    -11.5158E+06     38.0511E+06     9.51349E+06    -113.779E+03    -26.1494E-03     51.8321E-03    -25.6827E-03     61.4685E-03    -26.4267E-03     52.1761E-03    -25.6736E-03     61.3354E-03
             631     14.9124E-03     76.0607E-03    -9.69593E+06     89.2393E+06     28.3286E+06     27.3752E+03    -25.7648E-03     51.4470E-03    -25.6821E-03     56.1133E-03    -26.1413E-03     52.0237E-03    -25.6558E-03     55.9952E-03
             632     15.7900E-03     76.1077E-03    -7.02037E+06     106.899E+06     48.5965E+06     58.2623E+03    -25.3479E-03     51.0807E-03    -25.7327E-03     43.6278E-03    -25.7503E-03     51.6967E-03    -25.6346E-03     43.5312E-03
             633     16.6676E-03     76.1433E-03    -3.67089E+06     111.891E+06     65.2042E+06     2.75425E+03    -25.0568E-03     50.8390E-03    -25.7822E-03     24.6181E-03    -25.4162E-03     51.3935E-03    -25.6131E-03     24.5490E-03
             634     877.046E-06     76.4579E-03    -47.8269E+06    -130.987E+06    -46.6148E+06    -302.535E+03    -25.8603E-03     51.7139E-03    -25.8535E-03     5.64101E-03    -25.8421E-03     51.1960E-03    -25.8273E-03     5.63384E-03
             635     1.75411E-03     76.4654E-03    -46.1217E+06    -126.326E+06    -41.7815E+06    -265.570E+03    -25.8530E-03     51.7202E-03    -25.8672E-03     10.3449E-03    -25.8404E-03     51.2165E-03    -25.8260E-03     10.3352E-03
             636     2.63118E-03     76.4775E-03    -43.5237E+06    -119.946E+06    -34.9900E+06    -389.233E+03    -25.8546E-03     51.7337E-03    -25.8791E-03     15.2549E-03    -25.8487E-03     51.2490E-03    -25.8170E-03     15.2402E-03
             637     3.50829E-03     76.4943E-03    -40.3545E+06    -112.268E+06    -27.4550E+06    -611.968E+03    -25.8643E-03     51.7542E-03    -25.8898E-03     20.1329E-03    -25.8657E-03     51.2933E-03    -25.8058E-03     20.1115E-03
             638     4.38541E-03     76.5156E-03    -36.9130E+06    -104.323E+06    -20.1644E+06    -792.839E+03    -25.8869E-03     51.7843E-03    -25.8974E-03     24.9282E-03    -25.8946E-03     51.3491E-03    -25.7934E-03     24.8998E-03
             639     5.26256E-03     76.5415E-03    -33.4204E+06    -96.0368E+06    -13.7559E+06    -924.183E+03    -25.9216E-03     51.8212E-03    -25.8996E-03     29.6125E-03    -25.9353E-03     51.4152E-03    -25.7807E-03     29.5769E-03
             640     6.13973E-03     76.5718E-03    -30.0365E+06    -89.4663E+06    -8.38218E+06    -1.01406E+06    -25.9732E-03     51.8727E-03    -25.8995E-03     34.1392E-03    -25.9903E-03     51.4898E-03    -25.7681E-03     34.0960E-03
             641     7.01692E-03     76.6062E-03    -26.8508E+06    -82.0520E+06    -4.04589E+06    -1.06505E+06    -26.0308E-03     51.9246E-03    -25.8938E-03     38.5036E-03    -26.0529E-03     51.5718E-03    -25.7562E-03     38.4523E-03
             642     7.89413E-03     76.6447E-03    -23.9188E+06    -74.2823E+06    -792.811E+03    -1.07452E+06    -26.0934E-03     51.9765E-03    -25.8831E-03     42.6484E-03    -26.1221E-03     51.6589E-03    -25.7447E-03     42.5883E-03
             643     8.77135E-03     76.6870E-03    -21.2838E+06    -68.2773E+06     1.27692E+06    -1.04293E+06    -26.1653E-03     52.0354E-03    -25.8701E-03     46.5017E-03    -26.1995E-03     51.7480E-03    -25.7339E-03     46.4319E-03
             644     9.64858E-03     76.7329E-03    -18.9815E+06    -60.7220E+06     2.18808E+06    -972.098E+03    -26.2311E-03     52.0815E-03    -25.8504E-03     50.0257E-03    -26.2754E-03     51.8365E-03    -25.7239E-03     49.9453E-03
             645     10.5258E-03     76.7818E-03    -16.9967E+06    -52.7147E+06     2.80225E+06    -861.969E+03    -26.2864E-03     52.1159E-03    -25.8296E-03     53.1049E-03    -26.3455E-03     51.9194E-03    -25.7145E-03     53.0129E-03
             646     11.4031E-03     76.8335E-03    -15.3116E+06    -42.6420E+06     2.44952E+06    -717.597E+03    -26.3210E-03     52.1228E-03    -25.8017E-03     55.5964E-03    -26.4017E-03     51.9906E-03    -25.7055E-03     55.4922E-03
             647     12.2803E-03     76.8871E-03    -13.8870E+06    -27.9492E+06     2.65591E+06    -549.362E+03    -26.3178E-03     52.0881E-03    -25.7703E-03     57.5156E-03    -26.4342E-03     52.0483E-03    -25.6964E-03     57.3987E-03
             648     13.1576E-03     76.9424E-03    -12.6980E+06    -9.41635E+06     1.85042E+06    -363.708E+03    -26.2934E-03     52.0214E-03    -25.7281E-03     59.3076E-03    -26.4603E-03     52.1045E-03    -25.6867E-03     59.1780E-03
             649     14.0350E-03     76.9995E-03    -11.4755E+06     37.8643E+06     9.35430E+06    -182.247E+03    -26.1489E-03     51.8316E-03    -25.6828E-03     61.4699E-03    -26.4255E-03     52.1748E-03    -25.6742E-03     61.3359E-03
             650     14.9124E-03     77.0588E-03    -9.63301E+06     89.1013E+06     28.1947E+06    -36.9122E+03    -25.7643E-03     51.4464E-03    -25.6821E-03     56.1149E-03    -26.1401E-03     52.0225E-03    -25.6563E-03     55.9960E-03
             651     15.7900E-03     77.1057E-03    -6.90634E+06     106.911E+06     48.5351E+06     34.7457E+03    -25.3474E-03     51.0801E-03    -25.7327E-03     43.6290E-03    -25.7491E-03     51.6961E-03    -25.6350E-03     43.5321E-03
             652     16.6676E-03     77.1414E-03    -3.54367E+06     111.943E+06     65.1530E+06     29.5705E+03    -25.0577E-03     50.8398E-03    -25.7821E-03     24.6187E-03    -25.4165E-03     51.3944E-03    -25.6135E-03     24.5500E-03
             653     877.050E-06     77.4560E-03    -48.4632E+06    -130.522E+06    -47.0799E+06    -223.496E+03    -25.8595E-03     51.7123E-03    -25.8528E-03     5.63978E-03    -25.8444E-03     51.1984E-03    -25.8286E-03     5.63363E-03
             654     1.75410E-03     77.4634E-03    -46.5838E+06    -126.074E+06    -42.0565E+06    -380.832E+03    -25.8541E-03     51.7223E-03    -25.8682E-03     10.3437E-03    -25.8437E-03     51.2210E-03    -25.8282E-03     10.3326E-03
             655     2.63118E-03     77.4756E-03    -43.8466E+06    -119.501E+06    -35.2825E+06    -577.711E+03    -25.8554E-03     51.7354E-03    -25.8799E-03     15.2537E-03    -25.8514E-03     51.2538E-03    -25.8195E-03     15.2367E-03
             656     3.50827E-03     77.4923E-03    -40.6193E+06    -111.823E+06    -27.7536E+06    -805.439E+03    -25.8650E-03     51.7556E-03    -25.8906E-03     20.1317E-03    -25.8679E-03     51.2978E-03    -25.8083E-03     20.1078E-03
             657     4.38540E-03     77.5137E-03    -37.1450E+06    -103.930E+06    -20.4578E+06    -1.00929E+06    -25.8876E-03     51.7857E-03    -25.8981E-03     24.9271E-03    -25.8966E-03     51.3533E-03    -25.7959E-03     24.8959E-03
             658     5.26255E-03     77.5396E-03    -33.6297E+06    -95.7073E+06    -14.0458E+06    -1.16674E+06    -25.9222E-03     51.8225E-03    -25.9003E-03     29.6113E-03    -25.9370E-03     51.4189E-03    -25.7830E-03     29.5726E-03
             659     6.13972E-03     77.5698E-03    -30.2219E+06    -89.1964E+06    -8.66681E+06    -1.27793E+06    -25.9737E-03     51.8739E-03    -25.9002E-03     34.1379E-03    -25.9917E-03     51.4930E-03    -25.7704E-03     34.0913E-03
             660     7.01690E-03     77.6043E-03    -27.0110E+06    -81.8480E+06    -4.32652E+06    -1.34498E+06    -26.0311E-03     51.9255E-03    -25.8945E-03     38.5023E-03    -26.0538E-03     51.5744E-03    -25.7583E-03     38.4474E-03
             661     7.89412E-03     77.6428E-03    -24.0498E+06    -74.1517E+06    -1.06836E+06    -1.36243E+06    -26.0934E-03     51.9771E-03    -25.8837E-03     42.6474E-03    -26.1225E-03     51.6607E-03    -25.7466E-03     42.5836E-03
             662     8.77133E-03     77.6851E-03    -21.3830E+06    -68.2204E+06     1.00857E+06    -1.32629E+06    -26.1649E-03     52.0355E-03    -25.8706E-03     46.5012E-03    -26.1993E-03     51.7490E-03    -25.7357E-03     46.4277E-03
             663     9.64857E-03     77.7309E-03    -19.0463E+06    -60.7361E+06     1.93025E+06    -1.23842E+06    -26.2304E-03     52.0813E-03    -25.8508E-03     50.0257E-03    -26.2747E-03     51.8367E-03    -25.7255E-03     49.9418E-03
             664     10.5258E-03     77.7799E-03    -17.0312E+06    -52.7951E+06     2.55417E+06    -1.10579E+06    -26.2855E-03     52.1154E-03    -25.8299E-03     53.1056E-03    -26.3443E-03     51.9189E-03    -25.7159E-03     53.0105E-03
             665     11.4031E-03     77.8315E-03    -15.3176E+06    -42.7826E+06     2.21180E+06    -932.142E+03    -26.3200E-03     52.1220E-03    -25.8019E-03     55.5980E-03    -26.4002E-03     51.9895E-03    -25.7066E-03     55.4911E-03
             666     12.2803E-03     77.8852E-03    -13.8741E+06    -28.1397E+06     2.42965E+06    -719.571E+03    -26.3169E-03     52.0873E-03    -25.7704E-03     57.5178E-03    -26.4327E-03     52.0469E-03    -25.6974E-03     57.3988E-03
             667     13.1576E-03     77.9405E-03    -12.6690E+06    -9.63555E+06     1.64069E+06    -486.545E+03    -26.2928E-03     52.0209E-03    -25.7281E-03     59.3098E-03    -26.4589E-03     52.1031E-03    -25.6876E-03     59.1787E-03
             668     14.0349E-03     77.9975E-03    -11.4569E+06     37.6526E+06     9.16046E+06    -258.808E+03    -26.1486E-03     51.8313E-03    -25.6828E-03     61.4718E-03    -26.4246E-03     52.1738E-03    -25.6750E-03     61.3369E-03
             669     14.9124E-03     78.0569E-03    -9.64750E+06     88.9915E+06     28.0229E+06    -113.964E+03    -25.7638E-03     51.4458E-03    -25.6820E-03     56.1167E-03    -26.1393E-03     52.0217E-03    -25.6569E-03     55.9968E-03
             670     15.7900E-03     78.1038E-03    -6.96133E+06     106.830E+06     48.3703E+06    -20.7905E+03    -25.3467E-03     51.0792E-03    -25.7326E-03     43.6306E-03    -25.7483E-03     51.6951E-03    -25.6355E-03     43.5329E-03
             671     16.6676E-03     78.1395E-03    -3.61306E+06     111.930E+06     65.0593E+06     61.9281E+03    -25.0559E-03     50.8380E-03    -25.7822E-03     24.6201E-03    -25.4148E-03     51.3928E-03    -25.6139E-03     24.5518E-03
             672     877.040E-06     78.4540E-03    -48.4659E+06    -130.105E+06    -47.2640E+06    -141.967E+03    -25.8625E-03     51.7186E-03    -25.8561E-03     5.63941E-03    -25.8478E-03     51.2070E-03    -25.8335E-03     5.63431E-03
             673     1.75410E-03     78.4615E-03    -46.7637E+06    -125.507E+06    -42.4421E+06    -501.057E+03    -25.8551E-03     51.7246E-03    -25.8695E-03     10.3434E-03    -25.8460E-03     51.2270E-03    -25.8319E-03     10.3307E-03
             674     2.63117E-03     78.4736E-03    -44.1337E+06    -118.982E+06    -35.6409E+06    -802.993E+03    -25.8563E-03     51.7374E-03    -25.8811E-03     15.2533E-03    -25.8540E-03     51.2593E-03    -25.8227E-03     15.2333E-03
             675     3.50827E-03     78.4904E-03    -40.9091E+06    -111.294E+06    -28.0905E+06    -1.04362E+06    -25.8659E-03     51.7575E-03    -25.8916E-03     20.1310E-03    -25.8705E-03     51.3033E-03    -25.8114E-03     20.1040E-03
             676     4.38539E-03     78.5118E-03    -37.4139E+06    -103.455E+06    -20.7904E+06    -1.26975E+06    -25.8883E-03     51.7875E-03    -25.8991E-03     24.9262E-03    -25.8990E-03     51.3583E-03    -25.7988E-03     24.8916E-03
             677     5.26254E-03     78.5377E-03    -33.8709E+06    -95.2973E+06    -14.3736E+06    -1.45441E+06    -25.9229E-03     51.8241E-03    -25.9013E-03     29.6101E-03    -25.9390E-03     51.4234E-03    -25.7858E-03     29.5677E-03
             678     6.13970E-03     78.5679E-03    -30.4338E+06    -88.8580E+06    -8.99016E+06    -1.59204E+06    -25.9741E-03     51.8752E-03    -25.9011E-03     34.1364E-03    -25.9931E-03     51.4968E-03    -25.7731E-03     34.0858E-03
             679     7.01689E-03     78.6024E-03     -27.191E+06    -81.5871E+06    -4.64438E+06    -1.67666E+06    -26.0311E-03     51.9265E-03    -25.8953E-03     38.5009E-03    -26.0547E-03     51.5774E-03    -25.7608E-03     38.4417E-03
             680     7.89409E-03     78.6409E-03    -24.2003E+06    -73.9775E+06    -1.38295E+06    -1.70494E+06    -26.0931E-03     51.9775E-03    -25.8844E-03     42.6462E-03    -26.1228E-03     51.6626E-03    -25.7490E-03     42.5779E-03
             681     8.77132E-03     78.6832E-03    -21.5009E+06    -68.1404E+06     696.942E+03    -1.66996E+06    -26.1642E-03     52.0354E-03    -25.8712E-03     46.5005E-03    -26.1989E-03     51.7499E-03    -25.7378E-03     46.4226E-03
             682     9.64855E-03     78.7290E-03    -19.1267E+06    -60.7457E+06     1.62607E+06    -1.57017E+06    -26.2294E-03     52.0806E-03    -25.8513E-03     50.0259E-03    -26.2735E-03     51.8365E-03    -25.7273E-03     49.9378E-03
             683     10.5258E-03     78.7780E-03    -17.0683E+06    -52.8840E+06     2.26417E+06    -1.41234E+06    -26.2842E-03     52.1144E-03    -25.8302E-03     53.1068E-03    -26.3426E-03     51.9179E-03    -25.7174E-03     53.0077E-03
             684     11.4030E-03     78.8296E-03    -15.3225E+06    -42.9537E+06     1.93323E+06    -1.19771E+06    -26.3188E-03     52.1209E-03    -25.8021E-03     55.6002E-03    -26.3983E-03     51.9880E-03    -25.7080E-03     55.4898E-03
             685     12.2803E-03     78.8833E-03    -13.8524E+06    -28.3778E+06     2.16440E+06    -933.341E+03    -26.3159E-03     52.0864E-03    -25.7705E-03     57.5207E-03    -26.4308E-03     52.0451E-03    -25.6985E-03     57.3989E-03
             686     13.1576E-03     78.9385E-03    -12.6357E+06    -9.91019E+06     1.39120E+06    -638.120E+03    -26.2921E-03     52.0202E-03    -25.7281E-03     59.3130E-03    -26.4574E-03     52.1014E-03    -25.6885E-03     59.1799E-03
             687     14.0349E-03     78.9956E-03    -11.4198E+06     37.3720E+06     8.93084E+06    -334.816E+03    -26.1484E-03     51.8311E-03    -25.6827E-03     61.4749E-03    -26.4234E-03     52.1724E-03    -25.6757E-03     61.3390E-03
             688     14.9124E-03     79.0550E-03    -9.67011E+06     88.8763E+06     27.8244E+06    -114.223E+03    -25.7635E-03     51.4454E-03    -25.6819E-03     56.1196E-03    -26.1386E-03     52.0210E-03    -25.6576E-03     55.9996E-03
             689     15.7900E-03     79.1019E-03    -7.08266E+06     106.734E+06     48.1580E+06    -15.2010E+03    -25.3458E-03     51.0782E-03    -25.7324E-03     43.6331E-03    -25.7476E-03     51.6941E-03    -25.6361E-03     43.5355E-03
             690     16.6676E-03     79.1376E-03    -3.72284E+06     111.883E+06     64.9447E+06     24.8907E+03    -25.0530E-03     50.8353E-03    -25.7823E-03     24.6219E-03    -25.4122E-03     51.3901E-03    -25.6144E-03     24.5531E-03
             691     877.038E-06     79.4521E-03    -48.5936E+06    -129.664E+06    -47.5721E+06    -199.007E+03    -25.8657E-03     51.7252E-03    -25.8595E-03     5.63962E-03    -25.8519E-03     51.2165E-03    -25.8389E-03     5.63378E-03
             692     1.75409E-03     79.4596E-03    -46.9389E+06    -124.711E+06    -42.8431E+06    -601.402E+03    -25.8565E-03     51.7274E-03    -25.8709E-03     10.3434E-03    -25.8488E-03     51.2346E-03    -25.8362E-03     10.3294E-03
             693     2.63116E-03     79.4718E-03    -44.3920E+06    -118.313E+06    -36.0311E+06    -996.218E+03    -25.8575E-03     51.7398E-03    -25.8823E-03     15.2531E-03    -25.8568E-03     51.2660E-03    -25.8265E-03     15.2306E-03
             694     3.50825E-03     79.4885E-03    -41.2148E+06    -110.665E+06    -28.4692E+06    -1.30656E+06    -25.8669E-03     51.7598E-03    -25.8929E-03     20.1306E-03    -25.8735E-03     51.3097E-03    -25.8150E-03     20.1002E-03
             695     4.38537E-03     79.5099E-03    -37.7122E+06    -102.879E+06    -21.1615E+06    -1.56999E+06    -25.8893E-03     51.7896E-03    -25.9003E-03     24.9254E-03    -25.9017E-03     51.3643E-03    -25.8023E-03     24.8870E-03
             696     5.26252E-03     79.5358E-03    -34.1479E+06    -94.7932E+06    -14.7442E+06    -1.79215E+06    -25.9235E-03     51.8259E-03    -25.9024E-03     29.6091E-03    -25.9413E-03     51.4286E-03    -25.7891E-03     29.5623E-03
             697     6.13969E-03     79.5660E-03    -30.6813E+06    -88.4365E+06    -9.35847E+06    -1.96103E+06    -25.9744E-03     51.8765E-03    -25.9021E-03     34.1353E-03    -25.9947E-03     51.5011E-03    -25.7762E-03     34.0799E-03
             698     7.01687E-03     79.6004E-03    -27.4054E+06    -81.2592E+06    -5.00900E+06    -2.06941E+06    -26.0310E-03     51.9272E-03    -25.8962E-03     38.4997E-03    -26.0556E-03     51.5806E-03    -25.7637E-03     38.4354E-03
             699     7.89408E-03     79.6390E-03    -24.3740E+06    -73.7492E+06    -1.74143E+06    -2.11084E+06    -26.0924E-03     51.9776E-03    -25.8852E-03     42.6452E-03    -26.1228E-03     51.6647E-03    -25.7516E-03     42.5717E-03
             700     8.77129E-03     79.6813E-03    -21.6347E+06    -68.0238E+06     342.263E+03    -2.08017E+06    -26.1630E-03     52.0349E-03    -25.8718E-03     46.5002E-03    -26.1981E-03     51.7506E-03    -25.7401E-03     46.4170E-03
             701     9.64853E-03     79.7271E-03    -19.2197E+06    -60.7382E+06     1.27591E+06    -1.97415E+06    -26.2278E-03     52.0795E-03    -25.8517E-03     50.0267E-03    -26.2719E-03     51.8361E-03    -25.7294E-03     49.9333E-03
             702     10.5258E-03     79.7760E-03    -17.1257E+06    -52.9864E+06     1.92114E+06    -1.78886E+06    -26.2825E-03     52.1129E-03    -25.8304E-03     53.1087E-03    -26.3406E-03     51.9165E-03    -25.7192E-03     53.0048E-03
             703     11.4030E-03     79.8277E-03    -15.3414E+06    -43.1605E+06     1.60119E+06    -1.52691E+06    -26.3173E-03     52.1195E-03    -25.8022E-03     55.6033E-03    -26.3961E-03     51.9860E-03    -25.7094E-03     55.4886E-03
             704     12.2803E-03     79.8813E-03    -13.8396E+06    -28.6689E+06     1.84516E+06    -1.20234E+06    -26.3147E-03     52.0852E-03    -25.7705E-03     57.5246E-03    -26.4287E-03     52.0429E-03    -25.6996E-03     57.3994E-03
             705     13.1576E-03     79.9366E-03    -12.5930E+06    -10.2626E+06     1.09147E+06    -830.526E+03    -26.2915E-03     52.0195E-03    -25.7280E-03     59.3173E-03    -26.4555E-03     52.0993E-03    -25.6894E-03     59.1817E-03
             706     14.0349E-03     79.9937E-03    -11.3657E+06     36.9897E+06     8.65275E+06    -431.115E+03    -26.1482E-03     51.8308E-03    -25.6826E-03     61.4790E-03    -26.4220E-03     52.1705E-03    -25.6765E-03     61.3418E-03
             707     14.9124E-03     80.0530E-03    -9.59146E+06     88.6404E+06     27.5907E+06    -85.8539E+03    -25.7631E-03     51.4447E-03    -25.6816E-03     56.1230E-03    -26.1372E-03     52.0194E-03    -25.6583E-03     56.0035E-03
             708     15.7900E-03     80.1000E-03    -6.97655E+06     106.730E+06     48.0185E+06     31.6630E+03    -25.3450E-03     51.0771E-03    -25.7321E-03     43.6359E-03    -25.7461E-03     51.6930E-03    -25.6366E-03     43.5389E-03
             709     16.6676E-03     80.1357E-03    -3.65289E+06     111.907E+06     64.8390E+06    -24.9771E+03    -25.0528E-03     50.8348E-03    -25.7821E-03     24.6239E-03    -25.4115E-03     51.3899E-03    -25.6148E-03     24.5545E-03
             710     877.032E-06     80.4502E-03    -48.9931E+06    -129.033E+06    -47.9841E+06    -362.635E+03    -25.8679E-03     51.7295E-03    -25.8616E-03     5.63946E-03    -25.8563E-03     51.2251E-03    -25.8434E-03     5.63150E-03
             711     1.75408E-03     80.4577E-03    -47.3176E+06    -123.811E+06    -43.2783E+06    -764.416E+03    -25.8580E-03     51.7303E-03    -25.8724E-03     10.3429E-03    -25.8528E-03     51.2432E-03    -25.8406E-03     10.3269E-03
             712     2.63115E-03     80.4698E-03    -44.7402E+06    -117.465E+06    -36.4458E+06    -1.19756E+06    -25.8589E-03     51.7426E-03    -25.8838E-03     15.2523E-03    -25.8606E-03     51.2742E-03    -25.8308E-03     15.2272E-03
             713     3.50824E-03     80.4866E-03    -41.5489E+06    -109.896E+06    -28.8785E+06    -1.58342E+06    -25.8682E-03     51.7625E-03    -25.8943E-03     20.1296E-03    -25.8769E-03     51.3173E-03    -25.8191E-03     20.0956E-03
             714     4.38535E-03     80.5080E-03    -38.0409E+06    -102.181E+06    -21.5701E+06    -1.90899E+06    -25.8902E-03     51.7919E-03    -25.9017E-03     24.9243E-03    -25.9047E-03     51.3711E-03    -25.8062E-03     24.8814E-03
             715     5.26250E-03     80.5339E-03    -34.4541E+06    -94.1765E+06    -15.1525E+06    -2.17782E+06    -25.9240E-03     51.8276E-03    -25.9036E-03     29.6077E-03    -25.9436E-03     51.4345E-03    -25.7929E-03     29.5560E-03
             716     6.13966E-03     80.5641E-03    -30.9607E+06    -87.9160E+06    -9.76722E+06    -2.38681E+06    -25.9744E-03     51.8776E-03    -25.9032E-03     34.1337E-03    -25.9962E-03     51.5058E-03    -25.7797E-03     34.0729E-03
             717     7.01685E-03     80.5985E-03    -27.6484E+06    -80.8442E+06    -5.41616E+06    -2.52887E+06    -26.0304E-03     51.9275E-03    -25.8971E-03     38.4983E-03    -26.0562E-03     51.5839E-03    -25.7669E-03     38.4281E-03
             718     7.89405E-03     80.6370E-03    -24.5757E+06    -73.4565E+06    -2.14684E+06    -2.59253E+06    -26.0912E-03     51.9771E-03    -25.8859E-03     42.6442E-03    -26.1225E-03     51.6666E-03    -25.7545E-03     42.5644E-03
             719     8.77127E-03     80.6793E-03    -21.7878E+06    -67.8589E+06    -57.2684E+03    -2.56829E+06    -26.1614E-03     52.0337E-03    -25.8723E-03     46.4999E-03    -26.1968E-03     51.7511E-03    -25.7426E-03     46.4104E-03
             720     9.64850E-03     80.7251E-03    -19.3300E+06    -60.7081E+06     878.728E+03    -2.45214E+06    -26.2258E-03     52.0778E-03    -25.8520E-03     50.0277E-03    -26.2699E-03     51.8352E-03    -25.7315E-03     49.9281E-03
             721     10.5258E-03     80.7741E-03    -17.1932E+06    -53.0967E+06     1.52687E+06    -2.23908E+06    -26.2805E-03     52.1110E-03    -25.8305E-03     53.1113E-03    -26.3381E-03     51.9147E-03    -25.7210E-03     53.0015E-03
             722     11.4030E-03     80.8257E-03    -15.3702E+06    -43.4035E+06     1.21257E+06    -1.92999E+06    -26.3155E-03     52.1177E-03    -25.8022E-03     55.6074E-03    -26.3936E-03     51.9836E-03    -25.7109E-03     55.4875E-03
             723     12.2803E-03     80.8794E-03    -13.8312E+06    -29.0232E+06     1.46652E+06    -1.53534E+06    -26.3134E-03     52.0837E-03    -25.7703E-03     57.5300E-03    -26.4263E-03     52.0402E-03    -25.7008E-03     57.4005E-03
             724     13.1576E-03     80.9347E-03    -12.5629E+06    -10.7038E+06     726.146E+03    -1.07637E+06    -26.2908E-03     52.0185E-03    -25.7278E-03     59.3231E-03    -26.4535E-03     52.0966E-03    -25.6904E-03     59.1844E-03
             725     14.0349E-03     80.9917E-03    -11.3149E+06     36.4797E+06     8.30556E+06    -565.566E+03    -26.1482E-03     51.8305E-03    -25.6823E-03     61.4845E-03    -26.4205E-03     52.1681E-03    -25.6773E-03     61.3456E-03
             726     14.9124E-03     81.0511E-03    -9.49376E+06     88.3096E+06     27.2933E+06    -148.477E+03    -25.7626E-03     51.4436E-03    -25.6811E-03     56.1279E-03    -26.1352E-03     52.0169E-03    -25.6589E-03     56.0076E-03
             727     15.7900E-03     81.0980E-03    -6.80215E+06     106.739E+06     47.8658E+06     13.1865E+03    -25.3438E-03     51.0754E-03    -25.7315E-03     43.6403E-03    -25.7438E-03     51.6913E-03    -25.6371E-03     43.5431E-03
             728     16.6675E-03     81.1337E-03    -3.48970E+06     111.955E+06     64.7401E+06     18.2558E+03    -25.0532E-03     50.8349E-03    -25.7816E-03     24.6275E-03    -25.4111E-03     51.3901E-03    -25.6152E-03     24.5586E-03
             729     877.030E-06     81.4484E-03    -49.4376E+06    -128.116E+06    -48.4192E+06    -515.288E+03    -25.8698E-03     51.7333E-03    -25.8635E-03     5.63898E-03    -25.8612E-03     51.2347E-03    -25.8481E-03     5.62905E-03
             730     1.75407E-03     81.4558E-03    -47.7532E+06    -122.791E+06    -43.7008E+06    -973.104E+03    -25.8598E-03     51.7340E-03    -25.8742E-03     10.3420E-03    -25.8576E-03     51.2532E-03    -25.8454E-03     10.3233E-03
             731     2.63113E-03     81.4680E-03    -45.1464E+06    -116.459E+06    -36.8710E+06    -1.44930E+06    -25.8605E-03     51.7460E-03    -25.8855E-03     15.2510E-03    -25.8651E-03     51.2839E-03    -25.8356E-03     15.2227E-03
             732     3.50822E-03     81.4847E-03    -41.9282E+06    -108.962E+06    -29.3118E+06    -1.89515E+06    -25.8694E-03     51.7654E-03    -25.8959E-03     20.1280E-03    -25.8808E-03     51.3261E-03    -25.8237E-03     20.0900E-03
             733     4.38534E-03     81.5061E-03    -38.3943E+06    -101.336E+06    -22.0061E+06    -2.28673E+06    -25.8910E-03     51.7942E-03    -25.9032E-03     24.9223E-03    -25.9078E-03     51.3788E-03    -25.8106E-03     24.8746E-03
             734     5.26247E-03     81.5319E-03    -34.7863E+06    -93.4297E+06    -15.5921E+06    -2.61371E+06    -25.9243E-03     51.8293E-03    -25.9050E-03     29.6055E-03    -25.9459E-03     51.4410E-03    -25.7970E-03     29.5481E-03
             735     6.13964E-03     81.5622E-03    -31.2606E+06    -87.2748E+06    -10.2100E+06    -2.87241E+06    -25.9739E-03     51.8783E-03    -25.9044E-03     34.1314E-03    -25.9976E-03     51.5108E-03    -25.7835E-03     34.0643E-03
             736     7.01682E-03     81.5966E-03    -27.9142E+06    -80.3236E+06    -5.86167E+06    -3.05669E+06    -26.0292E-03     51.9272E-03    -25.8980E-03     38.4962E-03    -26.0565E-03     51.5873E-03    -25.7704E-03     38.4192E-03
             737     7.89403E-03     81.6351E-03    -24.8014E+06    -73.0785E+06    -2.59411E+06    -3.15127E+06    -26.0894E-03     51.9759E-03    -25.8865E-03     42.6427E-03    -26.1216E-03     51.6682E-03    -25.7576E-03     42.5558E-03
             738     8.77125E-03     81.6774E-03    -21.9719E+06    -67.6374E+06    -507.473E+03    -3.14054E+06    -26.1589E-03     52.0317E-03    -25.8727E-03     46.4996E-03    -26.1950E-03     51.7510E-03    -25.7453E-03     46.4027E-03
             739     9.64849E-03     81.7232E-03    -19.4627E+06    -60.6494E+06     428.253E+03    -3.01598E+06    -26.2231E-03     52.0752E-03    -25.8521E-03     50.0292E-03    -26.2674E-03     51.8338E-03    -25.7338E-03     49.9224E-03
             740     10.5257E-03     81.7722E-03    -17.2767E+06    -53.2076E+06     1.07650E+06    -2.77462E+06    -26.2779E-03     52.1083E-03    -25.8304E-03     53.1150E-03    -26.3352E-03     51.9122E-03    -25.7228E-03     52.9984E-03
             741     11.4030E-03     81.8238E-03    -15.4066E+06    -43.6823E+06     764.402E+03    -2.41312E+06    -26.3134E-03     52.1152E-03    -25.8019E-03     55.6133E-03    -26.3906E-03     51.9805E-03    -25.7124E-03     55.4872E-03
             742     12.2803E-03     81.8775E-03    -13.8326E+06    -29.4510E+06     1.02194E+06    -1.93936E+06    -26.3119E-03     52.0818E-03    -25.7699E-03     57.5375E-03    -26.4235E-03     52.0368E-03    -25.7020E-03     57.4027E-03
             743     13.1576E-03     81.9327E-03    -12.5383E+06    -11.2495E+06     292.540E+03    -1.37269E+06    -26.2901E-03     52.0173E-03    -25.7273E-03     59.3314E-03    -26.4513E-03     52.0932E-03    -25.6913E-03     59.1889E-03
             744     14.0349E-03     81.9898E-03    -11.2870E+06     35.8373E+06     7.88160E+06    -741.945E+03    -26.1483E-03     51.8301E-03    -25.6818E-03     61.4925E-03    -26.4189E-03     52.1651E-03    -25.6780E-03     61.3514E-03
             745     14.9124E-03     82.0492E-03    -9.49549E+06     87.9568E+06     26.9115E+06    -252.534E+03    -25.7620E-03     51.4423E-03    -25.6803E-03     56.1346E-03    -26.1336E-03     52.0143E-03    -25.6595E-03     56.0130E-03
             746     15.7899E-03     82.0961E-03    -6.88335E+06     106.646E+06     47.5491E+06    -22.4560E+03    -25.3423E-03     51.0729E-03    -25.7306E-03     43.6457E-03    -25.7420E-03     51.6889E-03    -25.6376E-03     43.5480E-03
             747     16.6675E-03     82.1318E-03    -3.59395E+06     111.930E+06     64.5911E+06     71.6001E+03    -25.0499E-03     50.8313E-03    -25.7814E-03     24.6308E-03    -25.4081E-03     51.3867E-03    -25.6155E-03     24.5626E-03
             748     877.023E-06     82.4465E-03    -49.8776E+06    -126.921E+06    -48.8443E+06    -645.689E+03    -25.8720E-03     51.7376E-03    -25.8656E-03     5.63871E-03    -25.8667E-03     51.2463E-03    -25.8535E-03     5.62710E-03
             749     1.75406E-03     82.4540E-03    -48.1926E+06    -121.581E+06    -44.1393E+06    -1.18864E+06    -25.8618E-03     51.7381E-03    -25.8763E-03     10.3415E-03    -25.8630E-03     51.2646E-03    -25.8508E-03     10.3199E-03
             750     2.63112E-03     82.4661E-03    -45.5767E+06    -115.285E+06    -37.3136E+06    -1.73686E+06    -25.8622E-03     51.7498E-03    -25.8876E-03     15.2500E-03    -25.8700E-03     51.2947E-03    -25.8409E-03     15.2179E-03
             751     3.50820E-03     82.4828E-03    -42.3329E+06    -107.856E+06    -29.7619E+06    -2.25047E+06    -25.8706E-03     51.7684E-03    -25.8978E-03     20.1265E-03    -25.8850E-03     51.3359E-03    -25.8289E-03     20.0839E-03
             752     4.38531E-03     82.5042E-03    -38.7762E+06    -100.326E+06    -22.4671E+06    -2.71035E+06    -25.8916E-03     51.7965E-03    -25.9049E-03     24.9205E-03    -25.9111E-03     51.3873E-03    -25.8155E-03     24.8672E-03
             753     5.26245E-03     82.5301E-03    -35.1395E+06    -92.5317E+06    -16.0619E+06    -3.10093E+06    -25.9241E-03     51.8305E-03    -25.9064E-03     29.6034E-03    -25.9481E-03     51.4479E-03    -25.8016E-03     29.5397E-03
             754     6.13961E-03     82.5603E-03    -31.5884E+06    -86.4931E+06    -10.6872E+06    -3.41869E+06    -25.9729E-03     51.8783E-03    -25.9055E-03     34.1294E-03    -25.9986E-03     51.5159E-03    -25.7877E-03     34.0552E-03
             755     7.01680E-03     82.5947E-03    -28.2066E+06    -79.6776E+06    -6.34387E+06    -3.65434E+06    -26.0272E-03     51.9260E-03    -25.8988E-03     38.4945E-03    -26.0562E-03     51.5904E-03    -25.7741E-03     38.4098E-03
             756     7.89400E-03     82.6332E-03    -25.0546E+06    -72.5967E+06    -3.08203E+06    -3.78763E+06    -26.0865E-03     51.9735E-03    -25.8870E-03     42.6420E-03    -26.1200E-03     51.6693E-03    -25.7608E-03     42.5468E-03
             757     8.77123E-03     82.6755E-03    -22.1776E+06    -67.3405E+06    -1.00250E+06    -3.79883E+06    -26.1556E-03     52.0284E-03    -25.8728E-03     46.5006E-03    -26.1923E-03     51.7503E-03    -25.7480E-03     46.3952E-03
             758     9.64846E-03     82.7213E-03    -19.6211E+06    -60.5506E+06    -76.2530E+03    -3.67427E+06    -26.2196E-03     52.0714E-03    -25.8518E-03     50.0327E-03    -26.2640E-03     51.8315E-03    -25.7360E-03     49.9174E-03
             759     10.5257E-03     82.7702E-03    -17.3821E+06    -53.3133E+06     567.490E+03    -3.40516E+06    -26.2746E-03     52.1045E-03    -25.8299E-03     53.1214E-03    -26.3315E-03     51.9087E-03    -25.7245E-03     52.9966E-03
             760     11.4030E-03     82.8219E-03    -15.4637E+06    -43.9984E+06     249.625E+03    -2.98715E+06    -26.3106E-03     52.1118E-03    -25.8011E-03     55.6225E-03    -26.3869E-03     51.9763E-03    -25.7137E-03     55.4890E-03
             761     12.2803E-03     82.8755E-03    -13.8442E+06    -29.9616E+06     505.139E+03    -2.42249E+06    -26.3101E-03     52.0791E-03    -25.7690E-03     57.5486E-03    -26.4203E-03     52.0323E-03    -25.7030E-03     57.4077E-03
             762     13.1576E-03     82.9308E-03    -12.5206E+06    -11.9240E+06    -218.491E+03    -1.73050E+06    -26.2894E-03     52.0157E-03    -25.7264E-03     59.3440E-03    -26.4488E-03     52.0890E-03    -25.6920E-03     59.1968E-03
             763     14.0349E-03     82.9879E-03    -11.2613E+06     35.0427E+06     7.38268E+06    -942.930E+03    -26.1488E-03     51.8298E-03    -25.6810E-03     61.5042E-03    -26.4175E-03     52.1614E-03    -25.6785E-03     61.3604E-03
             764     14.9124E-03     83.0472E-03    -9.52629E+06     87.5173E+06     26.4512E+06    -298.740E+03    -25.7620E-03     51.4410E-03    -25.6790E-03     56.1447E-03    -26.1325E-03     52.0116E-03    -25.6599E-03     56.0225E-03
             765     15.7899E-03     83.0942E-03    -6.97304E+06     106.499E+06     47.1628E+06    -3.86009E+03    -25.3410E-03     51.0703E-03    -25.7293E-03     43.6545E-03    -25.7404E-03     51.6863E-03    -25.6378E-03     43.5571E-03
             766     16.6675E-03     83.1299E-03    -3.66991E+06     111.893E+06     64.4357E+06     60.2919E+03    -25.0460E-03     50.8268E-03    -25.7809E-03     24.6365E-03    -25.4043E-03     51.3825E-03    -25.6156E-03     24.5682E-03
             767     877.019E-06     83.4446E-03    -50.3005E+06    -125.471E+06    -49.2870E+06    -767.551E+03    -25.8742E-03     51.7421E-03    -25.8679E-03     5.63832E-03    -25.8725E-03     51.2593E-03    -25.8595E-03     5.62512E-03
             768     1.75405E-03     83.4521E-03    -48.6245E+06    -120.146E+06    -44.5801E+06    -1.40796E+06    -25.8637E-03     51.7422E-03    -25.8785E-03     10.3408E-03    -25.8685E-03     51.2771E-03    -25.8567E-03     10.3164E-03
             769     2.63111E-03     83.4642E-03    -45.9977E+06    -113.911E+06    -37.7562E+06    -2.04805E+06    -25.8637E-03     51.7533E-03    -25.8896E-03     15.2490E-03    -25.8750E-03     51.3064E-03    -25.8465E-03     15.2129E-03
             770     3.50818E-03     83.4810E-03    -42.7420E+06    -106.560E+06    -30.2203E+06    -2.64359E+06    -25.8716E-03     51.7712E-03    -25.8996E-03     20.1253E-03    -25.8892E-03     51.3464E-03    -25.8343E-03     20.0775E-03
             771     4.38529E-03     83.5023E-03    -39.1631E+06    -99.1361E+06    -22.9418E+06    -3.17908E+06    -25.8917E-03     51.7982E-03    -25.9064E-03     24.9190E-03    -25.9143E-03     51.3962E-03    -25.8206E-03     24.8597E-03
             772     5.26242E-03     83.5282E-03    -35.5082E+06    -91.4674E+06    -16.5523E+06    -3.63869E+06    -25.9232E-03     51.8308E-03    -25.9076E-03     29.6018E-03    -25.9500E-03     51.4548E-03    -25.8063E-03     29.5311E-03
             773     6.13959E-03     83.5584E-03    -31.9321E+06    -85.5514E+06    -11.1871E+06    -4.01955E+06    -25.9708E-03     51.8771E-03    -25.9063E-03     34.1281E-03    -25.9990E-03     51.5206E-03    -25.7919E-03     34.0461E-03
             774     7.01676E-03     83.5928E-03    -28.5256E+06    -78.8819E+06    -6.85458E+06    -4.31921E+06    -26.0240E-03     51.9233E-03    -25.8992E-03     38.4940E-03    -26.0550E-03     51.5928E-03    -25.7777E-03     38.4007E-03
             775     7.89398E-03     83.6313E-03    -25.3339E+06    -71.9907E+06    -3.60565E+06    -4.50533E+06    -26.0825E-03     51.9694E-03    -25.8869E-03     42.6431E-03    -26.1175E-03     51.6694E-03    -25.7638E-03     42.5387E-03
             776     8.77120E-03     83.6735E-03    -22.4131E+06    -66.9508E+06    -1.54041E+06    -4.54619E+06    -26.1509E-03     52.0233E-03    -25.8723E-03     46.5041E-03    -26.1887E-03     51.7482E-03    -25.7505E-03     46.3890E-03
             777     9.64845E-03     83.7193E-03    -19.8064E+06    -60.3936E+06    -629.925E+03    -4.42742E+06    -26.2148E-03     52.0658E-03    -25.8510E-03     50.0395E-03    -26.2596E-03     51.8277E-03    -25.7378E-03     49.9144E-03
             778     10.5257E-03     83.7683E-03    -17.5177E+06    -53.4045E+06    -1.54442E+03    -4.13744E+06    -26.2702E-03     52.0989E-03    -25.8287E-03     53.1319E-03    -26.3268E-03     51.9038E-03    -25.7259E-03     52.9976E-03
             779     11.4030E-03     83.8199E-03    -15.5447E+06    -44.3507E+06    -334.325E+03    -3.66124E+06    -26.3072E-03     52.1069E-03    -25.7997E-03     55.6364E-03    -26.3825E-03     51.9706E-03    -25.7145E-03     55.4942E-03
             780     12.2803E-03     83.8736E-03    -13.8792E+06    -30.5637E+06    -91.8323E+03    -2.99841E+06    -26.3079E-03     52.0753E-03    -25.7674E-03     57.5649E-03    -26.4165E-03     52.0264E-03    -25.7035E-03     57.4165E-03
             781     13.1576E-03     83.9289E-03    -12.5148E+06    -12.7479E+06    -816.116E+03    -2.16383E+06    -26.2888E-03     52.0136E-03    -25.7248E-03     59.3620E-03    -26.4461E-03     52.0836E-03    -25.6922E-03     59.2092E-03
             782     14.0349E-03     83.9859E-03    -11.2468E+06     34.0291E+06     6.78703E+06    -1.17334E+06    -26.1502E-03     51.8297E-03    -25.6795E-03     61.5206E-03    -26.4164E-03     52.1571E-03    -25.6786E-03     61.3739E-03
             783     14.9124E-03     84.0453E-03    -9.50109E+06     86.9164E+06     25.9034E+06    -335.726E+03    -25.7627E-03     51.4398E-03    -25.6771E-03     56.1588E-03    -26.1313E-03     52.0081E-03    -25.6598E-03     56.0361E-03
             784     15.7899E-03     84.0922E-03    -6.92102E+06     106.399E+06     46.7734E+06    -5.64016E+03    -25.3400E-03     51.0673E-03    -25.7273E-03     43.6661E-03    -25.7385E-03     51.6833E-03    -25.6377E-03     43.5686E-03
             785     16.6675E-03     84.1280E-03    -3.60637E+06     111.887E+06     64.2840E+06     19.8627E+03    -25.0444E-03     50.8242E-03    -25.7798E-03     24.6434E-03    -25.4022E-03     51.3799E-03    -25.6154E-03     24.5746E-03
             786     877.013E-06     84.4428E-03    -50.7078E+06    -123.766E+06    -49.6860E+06    -896.914E+03    -25.8763E-03     51.7465E-03    -25.8703E-03     5.63782E-03    -25.8785E-03     51.2735E-03    -25.8657E-03     5.62295E-03
             787     1.75404E-03     84.4502E-03    -49.0190E+06    -118.467E+06    -44.9960E+06    -1.63618E+06    -25.8653E-03     51.7459E-03    -25.8806E-03     10.3399E-03    -25.8739E-03     51.2904E-03    -25.8627E-03     10.3126E-03
             788     2.63109E-03     84.4623E-03    -46.3937E+06    -112.307E+06    -38.1891E+06    -2.37925E+06    -25.8648E-03     51.7562E-03    -25.8914E-03     15.2478E-03    -25.8797E-03     51.3185E-03    -25.8523E-03     15.2074E-03
             789     3.50816E-03     84.4791E-03    -43.1269E+06    -105.055E+06    -30.6709E+06    -3.06771E+06    -25.8719E-03     51.7731E-03    -25.9011E-03     20.1239E-03    -25.8930E-03     51.3570E-03    -25.8396E-03     20.0706E-03
             790     4.38527E-03     84.5004E-03    -39.5408E+06    -97.7484E+06    -23.4132E+06    -3.68614E+06    -25.8911E-03     51.7986E-03    -25.9076E-03     24.9175E-03    -25.9168E-03     51.4049E-03    -25.8256E-03     24.8516E-03
             791     5.26240E-03     84.5263E-03    -35.8713E+06    -90.2231E+06    -17.0440E+06    -4.21868E+06    -25.9213E-03     51.8296E-03    -25.9083E-03     29.6003E-03    -25.9510E-03     51.4611E-03    -25.8107E-03     29.5222E-03
             792     6.13956E-03     84.5565E-03    -32.2813E+06    -84.4311E+06    -11.6968E+06    -4.67177E+06    -25.9675E-03     51.8740E-03    -25.9065E-03     34.1274E-03    -25.9982E-03     51.5243E-03    -25.7957E-03     34.0370E-03
             793     7.01675E-03     84.5909E-03    -28.8469E+06    -77.9111E+06    -7.37527E+06    -5.04555E+06    -26.0194E-03     51.9182E-03    -25.8989E-03     38.4948E-03    -26.0526E-03     51.5939E-03    -25.7809E-03     38.3921E-03
             794     7.89395E-03     84.6294E-03    -25.6284E+06    -71.2364E+06    -4.14680E+06    -5.29664E+06    -26.0768E-03     51.9629E-03    -25.8861E-03     42.6461E-03    -26.1136E-03     51.6678E-03    -25.7663E-03     42.5314E-03
             795     8.77119E-03     84.6716E-03    -22.6686E+06    -66.4472E+06    -2.10745E+06    -5.38102E+06    -26.1447E-03     52.0157E-03    -25.8710E-03     46.5105E-03    -26.1836E-03     51.7443E-03    -25.7523E-03     46.3847E-03
             796     9.64843E-03     84.7174E-03    -20.0172E+06    -60.1622E+06    -1.22472E+06     -5.2772E+06    -26.2086E-03     52.0577E-03    -25.8491E-03     50.0503E-03    -26.2539E-03     51.8220E-03    -25.7390E-03     49.9143E-03
             797     10.5257E-03     84.7663E-03    -17.6778E+06    -53.4651E+06    -620.785E+03    -4.97077E+06    -26.2646E-03     52.0911E-03    -25.8265E-03     53.1473E-03    -26.3210E-03     51.8967E-03    -25.7265E-03     53.0024E-03
             798     11.4030E-03     84.8180E-03    -15.6583E+06    -44.7336E+06    -984.953E+03    -4.44063E+06    -26.3028E-03     52.1001E-03    -25.7973E-03     55.6561E-03    -26.3772E-03     51.9630E-03    -25.7146E-03     55.5039E-03
             799     12.2803E-03     84.8716E-03    -13.9431E+06    -31.2600E+06    -769.493E+03    -3.67480E+06    -26.3053E-03     52.0702E-03    -25.7649E-03     57.5876E-03    -26.4123E-03     52.0189E-03    -25.7032E-03     57.4305E-03
             800     13.1576E-03     84.9269E-03    -12.5417E+06    -13.7381E+06    -1.51012E+06    -2.68567E+06    -26.2887E-03     52.0109E-03    -25.7223E-03     59.3870E-03    -26.4437E-03     52.0770E-03    -25.6917E-03     59.2275E-03
             801     14.0349E-03     84.9840E-03    -11.2357E+06     32.7389E+06     6.08102E+06    -1.46608E+06    -26.1528E-03     51.8300E-03    -25.6772E-03     61.5441E-03    -26.4161E-03     52.1520E-03    -25.6780E-03     61.3936E-03
             802     14.9124E-03     85.0434E-03    -9.47300E+06     86.1629E+06     25.2384E+06    -431.886E+03    -25.7645E-03     51.4387E-03    -25.6742E-03     56.1783E-03    -26.1309E-03     52.0042E-03    -25.6592E-03     56.0543E-03
             803     15.7900E-03     85.0903E-03    -6.90295E+06     106.339E+06     46.3001E+06    -40.1955E+03    -25.3397E-03     51.0640E-03    -25.7244E-03     43.6820E-03    -25.7373E-03     51.6804E-03    -25.6370E-03     43.5841E-03
             804     16.6675E-03     85.1260E-03    -3.62687E+06     111.873E+06     64.0928E+06    -1.69806E+03    -25.0438E-03     50.8220E-03    -25.7782E-03     24.6535E-03    -25.4013E-03     51.3779E-03    -25.6147E-03     24.5844E-03
             805     877.007E-06     85.4409E-03    -51.0496E+06    -121.794E+06    -50.0539E+06    -1.02915E+06    -25.8780E-03     51.7500E-03    -25.8720E-03     5.63750E-03    -25.8842E-03     51.2878E-03    -25.8717E-03     5.62092E-03
             806     1.75403E-03     85.4484E-03    -49.3785E+06    -116.531E+06    -45.3841E+06    -1.87884E+06    -25.8665E-03     51.7485E-03    -25.8821E-03     10.3393E-03    -25.8791E-03     51.3038E-03    -25.8684E-03     10.3088E-03
             807     2.63107E-03     85.4605E-03    -46.7470E+06    -110.457E+06    -38.5951E+06    -2.72973E+06    -25.8652E-03     51.7578E-03    -25.8926E-03     15.2468E-03    -25.8840E-03     51.3305E-03    -25.8577E-03     15.2019E-03
             808     3.50815E-03     85.4772E-03    -43.4814E+06    -103.323E+06    -31.0965E+06    -3.51882E+06    -25.8713E-03     51.7733E-03    -25.9020E-03     20.1226E-03    -25.8960E-03     51.3670E-03    -25.8446E-03     20.0635E-03
             809     4.38525E-03     85.4986E-03    -39.8867E+06    -96.1523E+06    -23.8616E+06    -4.22347E+06    -25.8891E-03     51.7970E-03    -25.9080E-03     24.9161E-03    -25.9182E-03     51.4124E-03    -25.8300E-03     24.8433E-03
             810     5.26238E-03     85.5244E-03    -36.2153E+06    -88.7857E+06    -17.5217E+06    -4.83291E+06    -25.9178E-03     51.8260E-03    -25.9082E-03     29.5993E-03    -25.9505E-03     51.4658E-03    -25.8145E-03     29.5133E-03
             811     6.13954E-03     85.5546E-03    -32.6150E+06    -83.1100E+06    -12.1967E+06    -5.36670E+06    -25.9622E-03     51.8678E-03    -25.9056E-03     34.1280E-03    -25.9958E-03     51.5260E-03    -25.7988E-03     34.0286E-03
             812     7.01672E-03     85.5890E-03    -29.1689E+06    -76.7442E+06    -7.89274E+06    -5.82791E+06    -26.0125E-03     51.9099E-03    -25.8974E-03     38.4977E-03    -26.0483E-03     51.5926E-03    -25.7832E-03     38.3849E-03
             813     7.89395E-03     85.6275E-03    -25.9215E+06    -70.3120E+06    -4.68646E+06    -6.15358E+06    -26.0689E-03     51.9529E-03    -25.8839E-03     42.6521E-03    -26.1077E-03     51.6636E-03    -25.7678E-03     42.5264E-03
             814     8.77117E-03     85.6697E-03    -22.9345E+06    -65.8043E+06    -2.68422E+06    -6.29249E+06    -26.1362E-03     52.0045E-03    -25.8682E-03     46.5213E-03    -26.1765E-03     51.7376E-03    -25.7530E-03     46.3838E-03
             815     9.64843E-03     85.7154E-03    -20.2477E+06    -59.8352E+06    -1.84527E+06    -6.21773E+06    -26.2003E-03     52.0462E-03    -25.8459E-03     50.0669E-03    -26.2463E-03     51.8133E-03    -25.7390E-03     49.9188E-03
             816     10.5257E-03     85.7644E-03    -17.8655E+06    -53.4782E+06    -1.27998E+06    -5.90636E+06    -26.2573E-03     52.0802E-03    -25.8229E-03     53.1700E-03    -26.3137E-03     51.8870E-03    -25.7258E-03     53.0130E-03
             817     11.4030E-03     85.8160E-03    -15.7958E+06    -45.1392E+06    -1.69163E+06    -5.32295E+06    -26.2975E-03     52.0908E-03    -25.7934E-03     55.6840E-03    -26.3709E-03     51.9529E-03    -25.7135E-03     55.5204E-03
             818     12.2803E-03     85.8697E-03    -14.0405E+06    -32.0462E+06    -1.52338E+06    -4.45434E+06    -26.3026E-03     52.0634E-03    -25.7609E-03     57.6195E-03    -26.4077E-03     52.0094E-03    -25.7017E-03     57.4524E-03
             819     13.1576E-03     85.9249E-03    -12.5960E+06    -14.9055E+06    -2.29846E+06    -3.30382E+06    -26.2892E-03     52.0076E-03    -25.7184E-03     59.4218E-03    -26.4417E-03     52.0691E-03    -25.6900E-03     59.2544E-03
             820     14.0349E-03     85.9820E-03    -11.2539E+06     31.1670E+06     5.25993E+06    -1.85832E+06    -26.1571E-03     51.8308E-03    -25.6737E-03     61.5771E-03    -26.4170E-03     52.1462E-03    -25.6763E-03     61.4216E-03
             821     14.9124E-03     86.0414E-03    -9.45732E+06     85.2274E+06     24.4359E+06    -593.905E+03    -25.7682E-03     51.4382E-03    -25.6700E-03     56.2054E-03    -26.1321E-03     52.0002E-03    -25.6577E-03     56.0794E-03
             822     15.7900E-03     86.0884E-03     -6.8857E+06     106.263E+06     45.7182E+06    -86.9608E+03    -25.3412E-03     51.0613E-03    -25.7201E-03     43.7049E-03    -25.7378E-03     51.6781E-03    -25.6356E-03     43.6064E-03
             823     16.6676E-03     86.1241E-03    -3.59477E+06     111.841E+06     63.8889E+06    -30.0673E+03    -25.0447E-03     50.8205E-03    -25.7758E-03     24.6684E-03    -25.4018E-03     51.3766E-03    -25.6133E-03     24.5988E-03
             824     877.005E-06     86.4391E-03    -51.3272E+06    -119.545E+06    -50.3246E+06    -1.16724E+06    -25.8788E-03     51.7515E-03    -25.8727E-03     5.63696E-03    -25.8893E-03     51.3014E-03    -25.8766E-03     5.61860E-03
             825     1.75402E-03     86.4466E-03    -49.6448E+06    -114.321E+06    -45.6858E+06    -2.13193E+06    -25.8667E-03     51.7493E-03    -25.8826E-03     10.3385E-03    -25.8834E-03     51.3164E-03    -25.8733E-03     10.3047E-03
             826     2.63106E-03     86.4587E-03    -47.0269E+06    -108.349E+06    -38.9282E+06    -3.09721E+06    -25.8644E-03     51.7573E-03    -25.8929E-03     15.2458E-03    -25.8872E-03     51.3414E-03    -25.8622E-03     15.1962E-03
             827     3.50813E-03     86.4754E-03    -43.7632E+06    -101.350E+06    -31.4612E+06    -3.98763E+06    -25.8691E-03     51.7708E-03    -25.9018E-03     20.1215E-03    -25.8975E-03     51.3754E-03    -25.8486E-03     20.0564E-03
             828     4.38523E-03     86.4967E-03    -40.1790E+06    -94.3376E+06    -24.2636E+06    -4.78419E+06    -25.8851E-03     51.7922E-03    -25.9071E-03     24.9154E-03    -25.9177E-03     51.4177E-03    -25.8334E-03     24.8354E-03
             829     5.26237E-03     86.5225E-03    -36.5066E+06    -87.1445E+06    -17.9594E+06    -5.47382E+06    -25.9119E-03     51.8185E-03    -25.9066E-03     29.5997E-03    -25.9479E-03     51.4676E-03    -25.8171E-03     29.5054E-03
             830     6.13953E-03     86.5527E-03    -32.9127E+06    -81.5748E+06    -12.6632E+06    -6.09026E+06    -25.9541E-03     51.8573E-03    -25.9032E-03     34.1311E-03    -25.9908E-03     51.5243E-03    -25.8005E-03     34.0224E-03
             831     7.01672E-03     86.5871E-03    -29.4659E+06    -75.3564E+06    -8.38024E+06    -6.64728E+06    -26.0026E-03     51.8967E-03    -25.8941E-03     38.5044E-03    -26.0412E-03     51.5874E-03    -25.7840E-03     38.3811E-03
             832     7.89394E-03     86.6255E-03    -26.2161E+06    -69.1958E+06    -5.20889E+06    -7.06527E+06    -26.0579E-03     51.9378E-03    -25.8799E-03     42.6634E-03    -26.0990E-03     51.6553E-03    -25.7676E-03     42.5260E-03
             833     8.77119E-03     86.6677E-03    -23.2067E+06    -65.0021E+06    -3.25171E+06    -7.26951E+06    -26.1248E-03     51.9883E-03    -25.8635E-03     46.5390E-03    -26.1668E-03     51.7266E-03    -25.7519E-03     46.3889E-03
             834     9.64844E-03     86.7135E-03    -20.4947E+06    -59.3838E+06    -2.47159E+06    -7.23694E+06    -26.1893E-03     52.0298E-03    -25.8405E-03     50.0924E-03    -26.2363E-03     51.8004E-03    -25.7370E-03     49.9312E-03
             835     10.5257E-03     86.7624E-03    -18.0787E+06    -53.4222E+06    -1.96393E+06    -6.93644E+06    -26.2479E-03     52.0649E-03    -25.8170E-03     53.2036E-03    -26.3044E-03     51.8733E-03    -25.7232E-03     53.0334E-03
             836     11.4030E-03     86.8140E-03    -15.9641E+06    -45.5496E+06    -2.44422E+06    -6.31720E+06    -26.2908E-03     52.0781E-03    -25.7873E-03     55.7246E-03    -26.3634E-03     51.9394E-03    -25.7103E-03     55.5483E-03
             837     12.2803E-03     86.8677E-03    -14.1555E+06    -32.9324E+06    -2.34492E+06    -5.33660E+06    -26.2996E-03     52.0543E-03    -25.7548E-03     57.6655E-03    -26.4028E-03     51.9973E-03    -25.6982E-03     57.4871E-03
             838     13.1576E-03     86.9230E-03    -12.6840E+06    -16.2412E+06    -3.16985E+06    -4.01608E+06    -26.2910E-03     52.0036E-03    -25.7126E-03     59.4720E-03    -26.4406E-03     52.0598E-03    -25.6866E-03     59.2955E-03
             839     14.0350E-03     86.9801E-03    -11.3212E+06     29.3208E+06     4.33191E+06    -2.34269E+06    -26.1640E-03     51.8326E-03    -25.6686E-03     61.6247E-03    -26.4202E-03     52.1402E-03    -25.6730E-03     61.4630E-03
             840     14.9124E-03     87.0395E-03    -9.51632E+06     84.0664E+06     23.4683E+06    -837.309E+03    -25.7750E-03     51.4389E-03    -25.6639E-03     56.2447E-03    -26.1361E-03     51.9966E-03    -25.6547E-03     56.1155E-03
             841     15.7900E-03     87.0864E-03    -6.91725E+06     106.131E+06     44.9821E+06    -190.630E+03    -25.3453E-03     51.0593E-03    -25.7140E-03     43.7387E-03    -25.7408E-03     51.6766E-03    -25.6329E-03     43.6388E-03
             842     16.6676E-03     87.1222E-03    -3.63261E+06     111.776E+06     63.6275E+06    -70.4796E+03    -25.0473E-03     50.8195E-03    -25.7722E-03     24.6908E-03    -25.4041E-03     51.3758E-03    -25.6109E-03     24.6207E-03
             843     876.997E-06     87.4373E-03    -51.4613E+06    -117.003E+06    -50.4930E+06    -1.31383E+06    -25.8781E-03     51.7504E-03    -25.8722E-03     5.63621E-03    -25.8927E-03     51.3133E-03    -25.8804E-03     5.61595E-03
             844     1.75402E-03     87.4447E-03    -49.8029E+06    -111.831E+06    -45.8716E+06    -2.39521E+06    -25.8651E-03     51.7468E-03    -25.8817E-03     10.3376E-03    -25.8860E-03     51.3269E-03    -25.8767E-03     10.3004E-03
             845     2.63105E-03     87.4568E-03    -47.1870E+06    -105.974E+06    -39.1487E+06    -3.47203E+06    -25.8615E-03     51.7530E-03    -25.8914E-03     15.2451E-03    -25.8882E-03     51.3495E-03    -25.8651E-03     15.1906E-03
             846     3.50812E-03     87.4736E-03    -43.9411E+06    -99.1301E+06    -31.7306E+06    -4.46885E+06    -25.8644E-03     51.7641E-03    -25.8997E-03     20.1213E-03    -25.8966E-03     51.3804E-03    -25.8509E-03     20.0500E-03
             847     4.38522E-03     87.4949E-03    -40.3651E+06    -92.2954E+06    -24.5790E+06    -5.35724E+06    -25.8783E-03     51.7825E-03    -25.9042E-03     24.9163E-03    -25.9144E-03     51.4189E-03    -25.8347E-03     24.8289E-03
             848     5.26236E-03     87.5207E-03    -36.7174E+06    -85.2970E+06    -18.3257E+06    -6.12633E+06    -25.9027E-03     51.8054E-03    -25.9027E-03     29.6027E-03    -25.9418E-03     51.4646E-03    -25.8175E-03     29.5000E-03
             849     6.13953E-03     87.5508E-03    -33.1367E+06    -79.8122E+06    -13.0635E+06    -6.83042E+06    -25.9422E-03     51.8404E-03    -25.8982E-03     34.1384E-03    -25.9820E-03     51.5171E-03    -25.7998E-03     34.0202E-03
             850     7.01673E-03     87.5852E-03    -29.7003E+06    -73.7366E+06    -8.80287E+06    -7.48862E+06    -25.9886E-03     51.8766E-03    -25.8880E-03     38.5171E-03    -26.0300E-03     51.5764E-03    -25.7821E-03     38.3829E-03
             851     7.89397E-03     87.6236E-03    -26.4591E+06    -67.8690E+06    -5.66801E+06    -7.99742E+06    -26.0427E-03     51.9157E-03    -25.8730E-03     42.6826E-03    -26.0863E-03     51.6408E-03    -25.7646E-03     42.5332E-03
             852     8.77121E-03     87.6658E-03    -23.4679E+06    -64.0107E+06    -3.77457E+06    -8.28746E+06    -26.1091E-03     51.9649E-03    -25.8558E-03     46.5672E-03    -26.1531E-03     51.7093E-03    -25.7478E-03     46.4040E-03
             853     9.64850E-03     87.7115E-03    -20.7452E+06    -58.7770E+06    -3.07106E+06    -8.32384E+06    -26.1745E-03     52.0065E-03    -25.8320E-03     50.1311E-03    -26.2228E-03     51.7814E-03    -25.7320E-03     49.9560E-03
             854     10.5258E-03     87.7604E-03    -18.2994E+06    -53.2714E+06    -2.63813E+06    -8.05290E+06    -26.2353E-03     52.0434E-03    -25.8080E-03     53.2531E-03    -26.2922E-03     51.8538E-03    -25.7174E-03     53.0686E-03
             855     11.4031E-03     87.8120E-03    -16.1622E+06    -45.9503E+06    -3.21566E+06    -7.39814E+06    -26.2823E-03     52.0604E-03    -25.7781E-03     55.7836E-03    -26.3541E-03     51.9211E-03    -25.7041E-03     55.5935E-03
             856     12.2804E-03     87.8657E-03    -14.3213E+06    -33.8839E+06    -3.21226E+06    -6.34223E+06    -26.2962E-03     52.0419E-03    -25.7457E-03     57.7316E-03    -26.3977E-03     51.9815E-03    -25.6919E-03     57.5404E-03
             857     13.1577E-03     87.9210E-03    -12.7671E+06    -17.7754E+06    -4.09992E+06    -4.85050E+06    -26.2943E-03     51.9984E-03    -25.7041E-03     59.5445E-03    -26.4408E-03     52.0484E-03    -25.6803E-03     59.3573E-03
             858     14.0350E-03     87.9781E-03    -11.3725E+06     27.1781E+06     3.33672E+06    -2.89101E+06    -26.1745E-03     51.8356E-03    -25.6610E-03     61.6933E-03    -26.4265E-03     52.1340E-03    -25.6673E-03     61.5246E-03
             859     14.9125E-03     88.0375E-03    -9.58085E+06     82.6963E+06     22.3964E+06    -1.13884E+06    -25.7865E-03     51.4421E-03    -25.6556E-03     56.3029E-03    -26.1445E-03     51.9947E-03    -25.6496E-03     56.1698E-03
             860     15.7901E-03     88.0845E-03    -6.99814E+06     105.922E+06     44.1074E+06    -364.032E+03    -25.3542E-03     51.0598E-03    -25.7056E-03     43.7886E-03    -25.7486E-03     51.6775E-03    -25.6285E-03     43.6864E-03
             861     16.6677E-03     88.1202E-03    -3.65381E+06     111.639E+06     63.2997E+06    -169.383E+03    -25.0552E-03     50.8222E-03    -25.7670E-03     24.7225E-03    -25.4115E-03     51.3783E-03    -25.6071E-03     24.6510E-03
             862     877.001E-06     88.4355E-03    -51.4525E+06    -114.159E+06    -50.4736E+06    -1.46500E+06    -25.8748E-03     51.7443E-03    -25.8695E-03     5.63633E-03    -25.8935E-03     51.3214E-03    -25.8817E-03     5.61412E-03
             863     1.75401E-03     88.4429E-03    -49.7884E+06    -109.055E+06    -45.9008E+06    -2.66098E+06    -25.8606E-03     51.7388E-03    -25.8782E-03     10.3379E-03    -25.8854E-03     51.3328E-03    -25.8774E-03     10.2973E-03
             864     2.63105E-03     88.4550E-03    -47.2001E+06    -103.333E+06    -39.2265E+06    -3.85112E+06    -25.8553E-03     51.7425E-03    -25.8872E-03     15.2462E-03    -25.8857E-03     51.3523E-03    -25.8651E-03     15.1868E-03
             865     3.50812E-03     88.4717E-03    -43.9706E+06    -96.6561E+06    -31.8632E+06    -4.95184E+06    -25.8560E-03     51.7505E-03    -25.8945E-03     20.1237E-03    -25.8917E-03     51.3794E-03    -25.8499E-03     20.0462E-03
             866     4.38523E-03     88.4930E-03    -40.4239E+06    -90.0229E+06    -24.7737E+06    -5.93712E+06    -25.8672E-03     51.7652E-03    -25.8980E-03     24.9208E-03    -25.9066E-03     51.4134E-03    -25.8327E-03     24.8260E-03
             867     5.26238E-03     88.5188E-03    -36.7928E+06    -83.2503E+06    -18.5783E+06    -6.77841E+06    -25.8888E-03     51.7842E-03    -25.8954E-03     29.6106E-03    -25.9309E-03     51.4540E-03    -25.8142E-03     29.4995E-03
             868     6.13955E-03     88.5489E-03    -33.2504E+06    -77.8123E+06    -13.3589E+06    -7.56548E+06    -25.9250E-03     51.8145E-03    -25.8895E-03     34.1528E-03    -25.9678E-03     51.5017E-03    -25.7952E-03     34.0251E-03
             869     7.01677E-03     88.5832E-03    -29.8405E+06    -71.8682E+06    -9.12347E+06    -8.33908E+06    -25.9688E-03     51.8468E-03    -25.8780E-03     38.5392E-03    -26.0132E-03     51.5566E-03    -25.7761E-03     38.3942E-03
             870     7.89401E-03     88.6216E-03    -26.6140E+06    -66.3434E+06    -6.03045E+06    -8.93910E+06    -26.0216E-03     51.8835E-03    -25.8619E-03     42.7138E-03    -26.0676E-03     51.6171E-03    -25.7573E-03     42.5524E-03
             871     8.77129E-03     88.6638E-03    -23.6406E+06    -62.8037E+06    -4.19164E+06    -9.30182E+06    -26.0878E-03     51.9315E-03    -25.8437E-03     46.6105E-03    -26.1338E-03     51.6827E-03    -25.7393E-03     46.4344E-03
             872     9.64857E-03     88.7095E-03    -20.9702E+06    -57.9813E+06    -3.59078E+06    -9.42335E+06    -26.1546E-03     51.9736E-03    -25.8190E-03     50.1885E-03    -26.2043E-03     51.7535E-03    -25.7225E-03     49.9993E-03
             873     10.5259E-03     88.7584E-03    -18.5773E+06    -52.9966E+06    -3.27717E+06    -9.20389E+06    -26.2188E-03     52.0133E-03    -25.7945E-03     53.3244E-03    -26.2764E-03     51.8264E-03    -25.7071E-03     53.1252E-03
             874     11.4032E-03     88.8100E-03    -16.4276E+06    -46.2841E+06    -3.97773E+06    -8.57612E+06    -26.2713E-03     52.0358E-03    -25.7645E-03     55.8670E-03    -26.3429E-03     51.8963E-03    -25.6934E-03     55.6618E-03
             875     12.2805E-03     88.8637E-03    -14.5098E+06    -34.8559E+06    -4.08759E+06    -7.48181E+06    -26.2926E-03     52.0250E-03    -25.7323E-03     57.8241E-03    -26.3923E-03     51.9613E-03    -25.6812E-03     57.6183E-03
             876     13.1578E-03     88.9190E-03    -12.8876E+06    -19.5020E+06    -5.08512E+06    -5.84813E+06    -26.3000E-03     51.9916E-03    -25.6916E-03     59.6448E-03    -26.4432E-03     52.0346E-03    -25.6701E-03     59.4448E-03
             877     14.0352E-03     88.9762E-03    -11.3869E+06     24.6424E+06     2.26545E+06    -3.56871E+06    -26.1903E-03     51.8404E-03    -25.6500E-03     61.7877E-03    -26.4372E-03     52.1277E-03    -25.6579E-03     61.6103E-03
             878     14.9126E-03     89.0356E-03    -9.55784E+06     81.1104E+06     21.2176E+06    -1.47745E+06    -25.8054E-03     51.4491E-03    -25.6437E-03     56.3810E-03    -26.1593E-03     51.9955E-03    -25.6414E-03     56.2435E-03
             879     15.7902E-03     89.0826E-03    -6.98937E+06     105.680E+06     43.1015E+06    -586.765E+03    -25.3723E-03     51.0662E-03    -25.6939E-03     43.8542E-03    -25.7650E-03     51.6842E-03    -25.6215E-03     43.7491E-03
             880     16.6677E-03     89.1183E-03    -3.68505E+06     111.380E+06     62.8918E+06    -313.651E+03    -25.0734E-03     50.8330E-03    -25.7596E-03     24.7636E-03    -25.4290E-03     51.3885E-03    -25.6013E-03     24.6901E-03
             881     876.995E-06     89.4337E-03    -51.1782E+06    -111.008E+06    -50.2415E+06    -1.61409E+06    -25.8671E-03     51.7292E-03    -25.8621E-03     5.63766E-03    -25.8894E-03     51.3214E-03    -25.8781E-03     5.61352E-03
             882     1.75402E-03     89.4411E-03    -49.5550E+06    -105.994E+06    -45.7089E+06    -2.92862E+06    -25.8516E-03     51.7219E-03    -25.8702E-03     10.3402E-03    -25.8800E-03     51.3306E-03    -25.8732E-03     10.2961E-03
             883     2.63106E-03     89.4532E-03    -46.9831E+06    -100.430E+06    -39.0984E+06    -4.22462E+06    -25.8442E-03     51.7226E-03    -25.8784E-03     15.2499E-03    -25.8780E-03     51.3465E-03    -25.8601E-03     15.1857E-03
             884     3.50814E-03     89.4699E-03    -43.8028E+06    -93.9385E+06    -31.8101E+06    -5.41951E+06    -25.8421E-03     51.7267E-03    -25.8846E-03     20.1297E-03    -25.8810E-03     51.3689E-03    -25.8439E-03     20.0462E-03
             885     4.38526E-03     89.4912E-03    -40.3042E+06    -87.5120E+06    -24.7961E+06    -6.49719E+06    -25.8501E-03     51.7369E-03    -25.8868E-03     24.9305E-03    -25.8925E-03     51.3974E-03    -25.8255E-03     24.8284E-03
             886     5.26242E-03     89.5169E-03    -36.7267E+06    -81.0046E+06    -18.6868E+06    -7.42585E+06    -25.8682E-03     51.7510E-03    -25.8828E-03     29.6257E-03    -25.9131E-03     51.4321E-03    -25.8055E-03     29.5062E-03
             887     6.13962E-03     89.5470E-03    -33.2061E+06    -75.5872E+06    -13.5149E+06    -8.29001E+06    -25.9004E-03     51.7754E-03    -25.8750E-03     34.1774E-03    -25.9459E-03     51.4739E-03    -25.7849E-03     34.0405E-03
             888     7.01684E-03     89.5813E-03    -29.8443E+06    -69.7447E+06    -9.29911E+06    -9.16102E+06    -25.9411E-03     51.8031E-03    -25.8620E-03     38.5749E-03    -25.9883E-03     51.5238E-03    -25.7641E-03     38.4194E-03
             889     7.89412E-03     89.6197E-03    -26.6733E+06    -64.6071E+06    -6.25796E+06    -9.86743E+06    -25.9926E-03     51.8374E-03    -25.8447E-03     42.7618E-03    -26.0411E-03     51.5800E-03    -25.7437E-03     42.5885E-03
             890     8.77141E-03     89.6618E-03    -23.7448E+06    -61.4106E+06    -4.48735E+06    -10.2993E+06    -26.0589E-03     51.8842E-03    -25.8253E-03     46.6745E-03    -26.1069E-03     51.6429E-03    -25.7242E-03     46.4857E-03
             891     9.64873E-03     89.7075E-03    -21.1343E+06    -57.0021E+06    -3.97566E+06    -10.4578E+06    -26.1282E-03     51.9280E-03    -25.7998E-03     50.2691E-03    -26.1796E-03     51.7135E-03    -25.7063E-03     50.0668E-03
             892     10.5261E-03     89.7564E-03    -18.8007E+06    -52.5067E+06    -3.78339E+06    -10.3415E+06    -26.1973E-03     51.9721E-03    -25.7748E-03     53.4237E-03    -26.2561E-03     51.7887E-03    -25.6903E-03     53.2100E-03
             893     11.4034E-03     89.8080E-03    -16.6644E+06    -46.4564E+06    -4.65584E+06    -9.83026E+06    -26.2578E-03     52.0024E-03    -25.7446E-03     55.9836E-03    -26.3293E-03     51.8633E-03    -25.6764E-03     55.7624E-03
             894     12.2807E-03     89.8617E-03    -14.7283E+06    -35.8214E+06    -4.94544E+06    -8.74872E+06    -26.2894E-03     52.0024E-03    -25.7130E-03     57.9528E-03    -26.3876E-03     51.9355E-03    -25.6644E-03     57.7308E-03
             895     13.1581E-03     89.9170E-03    -13.0396E+06    -21.3678E+06    -6.08669E+06    -6.99278E+06    -26.3096E-03     51.9833E-03    -25.6737E-03     59.7829E-03    -26.4495E-03     52.0187E-03    -25.6542E-03     59.5682E-03
             896     14.0354E-03     89.9742E-03    -11.4932E+06     21.6771E+06     1.08683E+06    -4.42171E+06    -26.2141E-03     51.8484E-03    -25.6342E-03     61.9183E-03    -26.4556E-03     52.1229E-03    -25.6436E-03     61.7299E-03
             897     14.9128E-03     90.0336E-03    -9.59729E+06     79.1852E+06     19.7541E+06    -1.93351E+06    -25.8340E-03     51.4608E-03    -25.6268E-03     56.4890E-03    -26.1833E-03     51.9999E-03    -25.6289E-03     56.3456E-03
             898     15.7903E-03     90.0806E-03    -7.03975E+06     105.437E+06     41.7936E+06    -831.393E+03    -25.4015E-03     51.0788E-03    -25.6773E-03     43.9478E-03    -25.7923E-03     51.6977E-03    -25.6110E-03     43.8394E-03
             899     16.6679E-03     90.1164E-03    -3.71994E+06     110.997E+06     62.3839E+06    -508.264E+03    -25.1032E-03     50.8523E-03    -25.7491E-03     24.8260E-03    -25.4577E-03     51.4068E-03    -25.5927E-03     24.7498E-03
             900     877.016E-06     90.4319E-03    -50.6558E+06    -107.539E+06    -49.7218E+06    -1.78379E+06    -25.8531E-03     51.7010E-03    -25.8479E-03     5.63927E-03    -25.8785E-03     51.3090E-03    -25.8671E-03     5.61295E-03
             901     1.75403E-03     90.4393E-03    -49.0219E+06    -102.660E+06    -45.2488E+06    -3.19482E+06    -25.8360E-03     51.6917E-03    -25.8556E-03     10.3436E-03    -25.8672E-03     51.3156E-03    -25.8619E-03     10.2961E-03
             902     2.63110E-03     90.4514E-03    -46.5022E+06    -97.2790E+06    -38.7161E+06    -4.58475E+06    -25.8261E-03     51.6890E-03    -25.8628E-03     15.2559E-03    -25.8626E-03     51.3273E-03    -25.8479E-03     15.1871E-03
             903     3.50818E-03     90.4681E-03    -43.3596E+06    -90.9948E+06    -31.5135E+06    -5.86342E+06    -25.8205E-03     51.6882E-03    -25.8677E-03     20.1398E-03    -25.8618E-03     51.3440E-03    -25.8305E-03     20.0506E-03
             904     4.38532E-03     90.4893E-03    -39.9252E+06    -84.7836E+06    -24.5871E+06    -7.01473E+06    -25.8243E-03     51.6927E-03    -25.8683E-03     24.9467E-03    -25.8690E-03     51.3660E-03    -25.8105E-03     24.8380E-03
             905     5.26250E-03     90.5150E-03    -36.4292E+06    -78.5491E+06    -18.5733E+06    -8.01725E+06    -25.8382E-03     51.7008E-03    -25.8626E-03     29.6503E-03    -25.8853E-03     51.3935E-03    -25.7887E-03     29.5233E-03
             906     6.13972E-03     90.5450E-03    -32.9971E+06    -73.1197E+06    -13.4896E+06    -8.99585E+06    -25.8653E-03     51.7179E-03    -25.8525E-03     34.2163E-03    -25.9134E-03     51.4283E-03    -25.7661E-03     34.0705E-03
             907     7.01699E-03     90.5793E-03    -29.6786E+06    -67.4340E+06    -9.30726E+06    -9.94023E+06    -25.9026E-03     51.7402E-03    -25.8376E-03     38.6292E-03    -25.9523E-03     51.4721E-03    -25.7433E-03     38.4638E-03
             908     7.89429E-03     90.6176E-03    -26.6149E+06    -62.6605E+06    -6.30175E+06    -10.6857E+06    -25.9530E-03     51.7719E-03    -25.8189E-03     42.8326E-03    -26.0039E-03     51.5242E-03    -25.7210E-03     42.6490E-03
             909     8.77162E-03     90.6598E-03    -23.8313E+06    -59.8106E+06    -4.63294E+06    -11.2151E+06    -26.0198E-03     51.8179E-03    -25.7981E-03     46.7670E-03    -26.0703E-03     51.5849E-03    -25.7000E-03     46.5666E-03
             910     9.64896E-03     90.7054E-03    -21.2741E+06    -55.8520E+06    -4.24696E+06    -11.4732E+06    -26.0928E-03     51.8643E-03    -25.7715E-03     50.3860E-03    -26.1461E-03     51.6561E-03    -25.6809E-03     50.1708E-03
             911     10.5263E-03     90.7543E-03    -18.9466E+06    -51.7407E+06    -4.13166E+06    -11.4591E+06    -26.1691E-03     51.9151E-03    -25.7460E-03     53.5657E-03    -26.2291E-03     51.7362E-03    -25.6641E-03     53.3378E-03
             912     11.4037E-03     90.8059E-03    -16.8799E+06    -46.4214E+06    -5.18861E+06    -11.0620E+06    -26.2410E-03     51.9571E-03    -25.7161E-03     56.1466E-03    -26.3128E-03     51.8192E-03    -25.6503E-03     55.9097E-03
             913     12.2810E-03     90.8596E-03    -15.0019E+06    -36.6596E+06    -5.71106E+06    -10.0716E+06    -26.2870E-03     51.9724E-03    -25.6855E-03     58.1316E-03    -26.3842E-03     51.9028E-03    -25.6391E-03     57.8926E-03
             914     13.1583E-03     90.9150E-03    -13.2699E+06    -23.3053E+06    -7.04992E+06    -8.31900E+06    -26.3250E-03     51.9734E-03    -25.6483E-03     59.9743E-03    -26.4619E-03     52.0008E-03    -25.6306E-03     59.7427E-03
             915     14.0357E-03     90.9722E-03    -11.5732E+06     18.2716E+06    -108.678E+03    -5.45467E+06    -26.2488E-03     51.8609E-03    -25.6121E-03     62.0999E-03    -26.4842E-03     52.1203E-03    -25.6223E-03     61.8982E-03
             916     14.9131E-03     91.0317E-03    -9.60790E+06     76.8617E+06     18.0863E+06    -2.54331E+06    -25.8768E-03     51.4803E-03    -25.6035E-03     56.6417E-03    -26.2205E-03     52.0103E-03    -25.6106E-03     56.4904E-03
             917     15.7906E-03     91.0787E-03    -6.96078E+06     105.115E+06     40.1759E+06    -1.20001E+06    -25.4449E-03     51.0990E-03    -25.6542E-03     44.0817E-03    -25.8326E-03     51.7187E-03    -25.5956E-03     43.9683E-03
             918     16.6681E-03     91.1145E-03    -3.64830E+06     110.478E+06     61.7805E+06    -710.371E+03    -25.1493E-03     50.8836E-03    -25.7343E-03     24.9153E-03    -25.5020E-03     51.4363E-03    -25.5803E-03     24.8362E-03
             919     877.017E-06     91.4301E-03    -49.7696E+06    -103.736E+06    -48.8755E+06    -1.94946E+06    -25.8299E-03     51.6549E-03    -25.8251E-03     5.64186E-03    -25.8576E-03     51.2795E-03    -25.8469E-03     5.61342E-03
             920     1.75408E-03     91.4375E-03    -48.1922E+06    -99.0631E+06    -44.4763E+06    -3.46842E+06    -25.8107E-03     51.6427E-03    -25.8320E-03     10.3494E-03    -25.8441E-03     51.2823E-03    -25.8408E-03     10.2984E-03
             921     2.63114E-03     91.4495E-03    -45.6797E+06    -93.8957E+06    -38.0297E+06    -4.94094E+06    -25.7975E-03     51.6354E-03    -25.8378E-03     15.2664E-03    -25.8358E-03     51.2884E-03    -25.8256E-03     15.1931E-03
             922     3.50827E-03     91.4662E-03    -42.5889E+06    -87.8455E+06    -30.9249E+06    -6.28977E+06    -25.7876E-03     51.6286E-03    -25.8410E-03     20.1572E-03    -25.8306E-03     51.2982E-03    -25.8065E-03     20.0625E-03
             923     4.38543E-03     91.4874E-03    -39.1975E+06    -81.8654E+06    -24.0886E+06    -7.50335E+06    -25.7864E-03     51.6260E-03    -25.8395E-03     24.9736E-03    -25.8325E-03     51.3121E-03    -25.7844E-03     24.8587E-03
             924     5.26264E-03     91.5130E-03    -35.7452E+06    -75.9102E+06    -18.1530E+06    -8.56218E+06    -25.7952E-03     51.6267E-03    -25.8316E-03     29.6896E-03    -25.8432E-03     51.3311E-03    -25.7604E-03     29.5557E-03
             925     6.13991E-03     91.5430E-03    -32.4220E+06    -70.4453E+06    -13.1517E+06    -9.57732E+06    -25.8165E-03     51.6353E-03    -25.8188E-03     34.2746E-03    -25.8660E-03     51.3578E-03    -25.7354E-03     34.1215E-03
             926     7.01721E-03     91.5773E-03    -29.3090E+06    -64.9438E+06    -9.06562E+06    -10.5965E+06    -25.8497E-03     51.6512E-03    -25.8015E-03     38.7088E-03    -25.9015E-03     51.3946E-03    -25.7102E-03     38.5352E-03
             927     7.89457E-03     91.6156E-03    -26.3442E+06    -60.5664E+06    -6.11632E+06    -11.4049E+06    -25.8989E-03     51.6799E-03    -25.7810E-03     42.9361E-03    -25.9516E-03     51.4419E-03    -25.6856E-03     42.7435E-03
             928     8.77193E-03     91.6576E-03    -23.6255E+06    -57.9838E+06    -4.49253E+06    -11.9868E+06    -25.9671E-03     51.7256E-03    -25.7585E-03     46.9001E-03    -26.0193E-03     51.5012E-03    -25.6627E-03     46.6901E-03
             929     9.64934E-03     91.7033E-03    -21.2331E+06    -54.4568E+06    -4.26607E+06    -12.3773E+06    -26.0456E-03     51.7762E-03    -25.7307E-03     50.5528E-03    -26.1006E-03     51.5749E-03    -25.6422E-03     50.3264E-03
             930     10.5267E-03     91.7522E-03    -19.0827E+06    -50.7443E+06     -4.2918E+06    -12.4905E+06    -26.1321E-03     51.8369E-03    -25.7048E-03     53.7662E-03    -26.1939E-03     51.6632E-03    -25.6250E-03     53.5255E-03
             931     11.4041E-03     91.8038E-03    -17.1166E+06    -46.1321E+06    -5.51949E+06    -12.2149E+06    -26.2200E-03     51.8956E-03    -25.6756E-03     56.3732E-03    -26.2929E-03     51.7600E-03    -25.6115E-03     56.1219E-03
             932     12.2815E-03     91.8575E-03    -15.3230E+06    -37.2686E+06    -6.31018E+06    -11.3647E+06    -26.2860E-03     51.9326E-03    -25.6466E-03     58.3787E-03    -26.3830E-03     51.8613E-03    -25.6019E-03     58.1234E-03
             933     13.1588E-03     91.9130E-03    -13.6380E+06    -25.0932E+06    -7.88789E+06    -9.75609E+06    -26.3483E-03     51.9610E-03    -25.6127E-03     60.2381E-03    -26.4832E-03     51.9813E-03    -25.5960E-03     59.9881E-03
             934     14.0361E-03     91.9702E-03    -11.8255E+06     14.4789E+06    -1.31152E+06    -6.81673E+06    -26.2984E-03     51.8794E-03    -25.5810E-03     62.3480E-03    -26.5279E-03     52.1222E-03    -25.5915E-03     62.1286E-03
             935     14.9135E-03     92.0298E-03    -9.51823E+06     74.0852E+06     16.1473E+06    -3.49116E+06    -25.9380E-03     51.5092E-03    -25.5711E-03     56.8510E-03    -26.2747E-03     52.0282E-03    -25.5840E-03     56.6872E-03
             936     15.7909E-03     92.0769E-03    -6.75751E+06     104.530E+06     38.1320E+06    -1.70639E+06    -25.5108E-03     51.1332E-03    -25.6224E-03     44.2632E-03    -25.8939E-03     51.7528E-03    -25.5735E-03     44.1430E-03
             937     16.6684E-03     92.1127E-03    -3.50801E+06     109.659E+06     61.0140E+06    -861.692E+03    -25.2206E-03     50.9343E-03    -25.7137E-03     25.0346E-03    -25.5705E-03     51.4841E-03    -25.5626E-03     24.9531E-03
             938     877.065E-06     92.4282E-03    -48.6054E+06    -99.5686E+06    -47.7145E+06    -2.16319E+06    -25.7929E-03     51.5821E-03    -25.7892E-03     5.64759E-03    -25.8225E-03     51.2241E-03    -25.8130E-03     5.61642E-03
             939     1.75412E-03     92.4356E-03    -46.9774E+06    -95.2226E+06    -43.3376E+06    -3.74768E+06    -25.7715E-03     51.5666E-03    -25.7951E-03     10.3606E-03    -25.8060E-03     51.2220E-03    -25.8056E-03     10.3061E-03
             940     2.63125E-03     92.4476E-03    -44.5257E+06    -90.2792E+06    -37.0208E+06    -5.29857E+06    -25.7541E-03     51.5531E-03    -25.7990E-03     15.2855E-03    -25.7933E-03     51.2211E-03    -25.7887E-03     15.2076E-03
             941     3.50839E-03     92.4642E-03    -41.4491E+06    -84.4880E+06    -30.0279E+06    -6.73592E+06    -25.7389E-03     51.5388E-03    -25.7999E-03     20.1867E-03    -25.7823E-03     51.2222E-03    -25.7674E-03     20.0864E-03
             942     4.38561E-03     92.4854E-03    -38.0899E+06    -78.7975E+06    -23.2916E+06    -7.99170E+06    -25.7317E-03     51.5275E-03    -25.7959E-03     25.0169E-03    -25.7777E-03     51.2262E-03    -25.7428E-03     24.8959E-03
             943     5.26287E-03     92.5110E-03    -34.6837E+06    -73.0863E+06    -17.4263E+06    -9.10102E+06    -25.7342E-03     51.5193E-03    -25.7851E-03     29.7509E-03    -25.7821E-03     51.2352E-03    -25.7160E-03     29.6103E-03
             944     6.14019E-03     92.5409E-03    -31.3850E+06    -67.7397E+06    -12.4845E+06    -10.0928E+06    -25.7494E-03     51.5187E-03    -25.7693E-03     34.3599E-03    -25.7985E-03     51.2521E-03    -25.6880E-03     34.2004E-03
             945     7.01756E-03     92.5751E-03    -28.3672E+06    -62.3260E+06    -8.42561E+06    -11.0206E+06    -25.7779E-03     51.5270E-03    -25.7491E-03     38.8232E-03    -25.8296E-03     51.2811E-03    -25.6597E-03     38.6445E-03
             946     7.89496E-03     92.6134E-03    -25.6735E+06    -58.2362E+06    -5.57118E+06    -11.9380E+06    -25.8254E-03     51.5516E-03    -25.7262E-03     43.0852E-03    -25.8789E-03     51.3234E-03    -25.6324E-03     42.8862E-03
             947     8.77241E-03     92.6554E-03    -23.1827E+06    -56.0623E+06    -4.06441E+06    -12.5993E+06    -25.8963E-03     51.5982E-03    -25.7019E-03     47.0886E-03    -25.9496E-03     51.3819E-03    -25.6073E-03     46.8712E-03
             948     9.64986E-03     92.7011E-03    -20.9061E+06    -52.7058E+06    -3.88714E+06    -13.0996E+06    -25.9833E-03     51.6561E-03    -25.6728E-03     50.7841E-03    -26.0395E-03     51.4623E-03    -25.5855E-03     50.5489E-03
             949     10.5273E-03     92.7500E-03    -18.8131E+06    -49.5534E+06    -4.05944E+06    -13.3978E+06    -26.0842E-03     51.7309E-03    -25.6467E-03     54.0418E-03    -26.1466E-03     51.5624E-03    -25.5679E-03     53.7899E-03
             950     11.4047E-03     92.8016E-03    -16.9879E+06    -45.6176E+06    -5.50310E+06    -13.1862E+06    -26.1939E-03     51.8125E-03    -25.6186E-03     56.6884E-03    -26.2669E-03     51.6792E-03    -25.5553E-03     56.4250E-03
             951     12.2821E-03     92.8554E-03    -15.4067E+06    -37.5562E+06    -6.54945E+06    -12.4914E+06    -26.2871E-03     51.8793E-03    -25.5922E-03     58.7195E-03    -26.3838E-03     51.8070E-03    -25.5482E-03     58.4500E-03
             952     13.1594E-03     92.9109E-03    -13.9925E+06    -26.6403E+06    -8.48089E+06    -11.0294E+06    -26.3831E-03     51.9459E-03    -25.5628E-03     60.6036E-03    -26.5169E-03     51.9600E-03    -25.5463E-03     60.3374E-03
             953     14.0367E-03     92.9683E-03    -12.3677E+06     10.8719E+06    -2.32325E+06    -8.34958E+06    -26.3685E-03     51.9063E-03    -25.5378E-03     62.6904E-03    -26.5943E-03     52.1335E-03    -25.5473E-03     62.4513E-03
             954     14.9140E-03     93.0279E-03    -9.97860E+06     70.7692E+06     14.0613E+06    -4.97351E+06    -26.0258E-03     51.5542E-03    -25.5284E-03     57.1376E-03    -26.3572E-03     52.0607E-03    -25.5463E-03     56.9544E-03
             955     15.7914E-03     93.0750E-03    -6.96026E+06     103.209E+06     35.5437E+06    -2.42404E+06    -25.6099E-03     51.1904E-03    -25.5805E-03     44.5127E-03    -25.9887E-03     51.8079E-03    -25.5424E-03     44.3827E-03
             956     16.6688E-03     93.1109E-03    -3.68252E+06     108.562E+06     59.8340E+06    -1.00924E+06    -25.3408E-03     51.0264E-03    -25.6856E-03     25.1945E-03    -25.6885E-03     51.5729E-03    -25.5385E-03     25.1104E-03
             957     877.086E-06     93.4263E-03    -47.0596E+06    -94.9678E+06    -46.2123E+06    -2.41927E+06    -25.7364E-03     51.4699E-03    -25.7336E-03     5.65772E-03    -25.7671E-03     51.1305E-03    -25.7587E-03     5.62328E-03
             958     1.75423E-03     93.4337E-03    -45.4667E+06    -91.1540E+06    -41.9079E+06    -4.07117E+06    -25.7125E-03     51.4511E-03    -25.7386E-03     10.3795E-03    -25.7474E-03     51.1226E-03    -25.7500E-03     10.3209E-03
             959     2.63138E-03     93.4457E-03    -42.9689E+06    -86.4066E+06    -35.6983E+06    -5.69838E+06    -25.6900E-03     51.4302E-03    -25.7403E-03     15.3165E-03    -25.7289E-03     51.1134E-03    -25.7312E-03     15.2335E-03
             960     3.50860E-03     93.4622E-03    -39.9567E+06    -80.9465E+06    -28.8502E+06    -7.19130E+06    -25.6683E-03     51.4066E-03    -25.7383E-03     20.2331E-03    -25.7110E-03     51.1038E-03    -25.7073E-03     20.1271E-03
             961     4.38587E-03     93.4833E-03    -36.6599E+06    -75.5594E+06    -22.2336E+06    -8.50241E+06    -25.6536E-03     51.3847E-03    -25.7311E-03     25.0833E-03    -25.6987E-03     51.0959E-03    -25.6796E-03     24.9560E-03
             962     5.26321E-03     93.5088E-03    -33.3123E+06    -70.1398E+06    -16.4542E+06    -9.62844E+06    -25.6487E-03     51.3657E-03    -25.7171E-03     29.8425E-03    -25.6953E-03     51.0928E-03    -25.6493E-03     29.6955E-03
             963     6.14060E-03     93.5387E-03    -30.0926E+06    -64.9982E+06    -11.5992E+06    -10.6149E+06    -25.6569E-03     51.3545E-03    -25.6976E-03     34.4837E-03    -25.7048E-03     51.0984E-03    -25.6177E-03     34.3179E-03
             964     7.01806E-03     93.5728E-03    -27.0273E+06    -59.7769E+06    -7.53130E+06    -11.4739E+06    -25.6806E-03     51.3546E-03    -25.6741E-03     38.9852E-03    -25.7304E-03     51.1182E-03    -25.5859E-03     38.8011E-03
             965     7.89557E-03     93.6111E-03    -24.3234E+06    -55.8210E+06    -4.54207E+06    -12.1882E+06    -25.7281E-03     51.3769E-03    -25.6488E-03     43.2877E-03    -25.7796E-03     51.1571E-03    -25.5553E-03     43.0861E-03
             966     8.77309E-03     93.6531E-03    -22.0493E+06    -53.8891E+06    -3.06651E+06    -12.9594E+06    -25.8038E-03     51.4263E-03    -25.6225E-03     47.3418E-03    -25.8558E-03     51.2176E-03    -25.5277E-03     47.1205E-03
             967     9.65064E-03     93.6987E-03    -19.9386E+06    -50.6740E+06    -3.02580E+06    -13.6914E+06    -25.9016E-03     51.4933E-03    -25.5917E-03     51.1004E-03    -25.9570E-03     51.3069E-03    -25.5045E-03     50.8583E-03
             968     10.5281E-03     93.7476E-03    -18.0171E+06    -48.1139E+06    -3.31693E+06    -14.1240E+06    -26.0232E-03     51.5894E-03    -25.5661E-03     54.4107E-03    -26.0847E-03     51.4256E-03    -25.4868E-03     54.1501E-03
             969     11.4056E-03     93.7993E-03    -16.3329E+06    -45.0307E+06    -5.01137E+06    -13.9728E+06    -26.1629E-03     51.7029E-03    -25.5399E-03     57.1078E-03    -26.2340E-03     51.5707E-03    -25.4760E-03     56.8350E-03
             970     12.2830E-03     93.8532E-03    -14.9720E+06    -37.5547E+06    -6.15195E+06    -13.2720E+06    -26.2931E-03     51.8111E-03    -25.5180E-03     59.1638E-03    -26.3882E-03     51.7375E-03    -25.4726E-03     58.8848E-03
             971     13.1604E-03     93.9088E-03    -13.8648E+06    -27.9519E+06    -8.39685E+06    -11.9446E+06    -26.4336E-03     51.9288E-03    -25.4952E-03     61.0749E-03    -26.5651E-03     51.9362E-03    -25.4765E-03     60.7971E-03
             972     14.0375E-03     93.9664E-03    -12.4428E+06     8.12353E+06    -2.48828E+06    -9.76160E+06    -26.4668E-03     51.9461E-03    -25.4792E-03     63.1372E-03    -26.6892E-03     52.1603E-03    -25.4854E-03     62.8797E-03
             973     14.9148E-03     94.0260E-03    -10.0610E+06     67.1414E+06     13.4187E+06    -6.69602E+06    -26.1601E-03     51.6383E-03    -25.4782E-03     57.4985E-03    -26.4863E-03     52.1282E-03    -25.4939E-03     57.2926E-03
             974     15.7920E-03     94.0733E-03    -7.02851E+06     100.648E+06     33.9991E+06    -3.39064E+06    -25.7769E-03     51.3116E-03    -25.5348E-03     44.8240E-03    -26.1506E-03     51.9191E-03    -25.5005E-03     44.6807E-03
             975     16.6694E-03     94.1092E-03    -3.64928E+06     107.283E+06     58.9818E+06    -1.24408E+06    -25.5794E-03     51.2330E-03    -25.6536E-03     25.3827E-03    -25.9242E-03     51.7747E-03    -25.5090E-03     25.2945E-03
             976     877.187E-06     94.4243E-03    -44.9487E+06    -90.0433E+06    -43.8990E+06    -2.48727E+06    -25.6539E-03     51.3052E-03    -25.6512E-03     5.67169E-03    -25.6846E-03     50.9839E-03    -25.6750E-03     5.63643E-03
             977     1.75435E-03     94.4316E-03    -43.4411E+06    -86.7470E+06    -39.9019E+06    -4.34046E+06    -25.6270E-03     51.2825E-03    -25.6555E-03     10.4070E-03    -25.6611E-03     50.9701E-03    -25.6662E-03     10.3451E-03
             978     2.63161E-03     94.4435E-03    -41.0893E+06    -82.2598E+06    -34.1064E+06    -6.14049E+06    -25.5974E-03     51.2511E-03    -25.6536E-03     15.3623E-03    -25.6353E-03     50.9499E-03    -25.6453E-03     15.2738E-03
             979     3.50890E-03     94.4600E-03    -38.1035E+06    -77.2459E+06    -27.4215E+06    -7.68964E+06    -25.5677E-03     51.2162E-03    -25.6485E-03     20.3011E-03    -25.6086E-03     50.9271E-03    -25.6183E-03     20.1889E-03
             980     4.38627E-03     94.4810E-03    -34.8775E+06    -72.1623E+06    -20.9275E+06    -9.00603E+06    -25.5439E-03     51.1813E-03    -25.6374E-03     25.1797E-03    -25.5868E-03     50.9050E-03    -25.5869E-03     25.0463E-03
             981     5.26370E-03     94.5065E-03    -31.6769E+06    -67.1597E+06    -15.2691E+06    -10.0922E+06    -25.5304E-03     51.1498E-03    -25.6194E-03     29.9735E-03    -25.5748E-03     50.8877E-03    -25.5525E-03     29.8209E-03
             982     6.14121E-03     94.5363E-03    -28.5889E+06    -62.1081E+06    -10.4893E+06    -11.0901E+06    -25.5309E-03     51.1266E-03    -25.5957E-03     34.6578E-03    -25.5770E-03     50.8811E-03    -25.5166E-03     34.4863E-03
             983     7.01878E-03     94.5704E-03    -25.7220E+06    -57.3386E+06    -6.54472E+06    -11.9141E+06    -25.5500E-03     51.1184E-03    -25.5684E-03     39.2087E-03    -25.5981E-03     50.8907E-03    -25.4807E-03     39.0197E-03
             984     7.89640E-03     94.6085E-03    -23.0555E+06    -53.5541E+06    -3.54886E+06    -12.5147E+06    -25.5975E-03     51.1374E-03    -25.5399E-03     43.5717E-03    -25.6472E-03     50.9254E-03    -25.4466E-03     43.3667E-03
             985     8.77406E-03     94.6506E-03    -20.5803E+06    -51.3978E+06    -1.77623E+06    -13.2711E+06    -25.6819E-03     51.1937E-03    -25.5118E-03     47.6890E-03    -25.7319E-03     50.9933E-03    -25.4163E-03     47.4645E-03
             986     9.65169E-03     94.6962E-03    -18.5527E+06    -48.5365E+06    -1.77173E+06    -14.0502E+06    -25.7985E-03     51.2788E-03    -25.4803E-03     51.5159E-03    -25.8517E-03     51.0990E-03    -25.3919E-03     51.2702E-03
             987     10.5293E-03     94.7452E-03    -16.8759E+06    -46.3808E+06    -2.13654E+06    -14.5809E+06    -25.9506E-03     51.4068E-03    -25.4561E-03     54.8894E-03    -26.0104E-03     51.2481E-03    -25.3751E-03     54.6238E-03
             988     11.4068E-03     94.7969E-03    -15.4346E+06    -44.3678E+06    -4.14290E+06    -14.5688E+06    -26.1326E-03     51.5663E-03    -25.4336E-03     57.6357E-03    -26.2014E-03     51.4347E-03    -25.3676E-03     57.3560E-03
             989     12.2843E-03     94.8510E-03    -14.1331E+06    -37.4520E+06    -5.36768E+06    -13.8971E+06    -26.3150E-03     51.7332E-03    -25.4182E-03     59.7242E-03    -26.4073E-03     51.6579E-03    -25.3702E-03     59.4377E-03
             990     13.1616E-03     94.9067E-03    -12.8813E+06    -28.8601E+06    -7.65539E+06    -12.7659E+06    -26.5137E-03     51.9189E-03    -25.4052E-03     61.6358E-03    -26.6403E-03     51.9195E-03    -25.3830E-03     61.3476E-03
             991     14.0388E-03     94.9645E-03    -11.3292E+06     6.29738E+06    -1.74725E+06    -11.0777E+06    -26.6134E-03     52.0153E-03    -25.4019E-03     63.6732E-03    -26.8292E-03     52.2183E-03    -25.4033E-03     63.3984E-03
             992     14.9158E-03     95.0243E-03    -9.24397E+06     63.3231E+06     13.6340E+06    -8.09998E+06    -26.3752E-03     51.7909E-03    -25.4157E-03     57.8754E-03    -26.6929E-03     52.2611E-03    -25.4260E-03     57.6503E-03
             993     15.7930E-03     95.0716E-03    -6.72391E+06     96.9213E+06     32.7774E+06    -4.15884E+06    -26.0585E-03     51.5408E-03    -25.4823E-03     45.1462E-03    -26.4244E-03     52.1318E-03    -25.4492E-03     44.9914E-03
             994     16.6699E-03     95.1079E-03    -3.65169E+06     105.780E+06     58.1139E+06    -1.49871E+06    -25.9175E-03     51.5360E-03    -25.6185E-03     25.6560E-03    -26.2595E-03     52.0720E-03    -25.4760E-03     25.5630E-03
             995     877.255E-06     95.4221E-03    -42.4358E+06    -84.9551E+06    -41.5063E+06    -2.51180E+06    -25.5341E-03     51.0661E-03    -25.5320E-03     5.69196E-03    -25.5631E-03     50.7632E-03    -25.5548E-03     5.65646E-03
             996     1.75459E-03     95.4294E-03    -40.9457E+06    -82.0237E+06    -37.4659E+06    -4.50492E+06    -25.5038E-03     51.0391E-03    -25.5354E-03     10.4467E-03    -25.5357E-03     50.7432E-03    -25.5444E-03     10.3828E-03
             997     2.63191E-03     95.4412E-03    -38.7720E+06    -77.8141E+06    -31.9840E+06    -6.43024E+06    -25.4667E-03     50.9969E-03    -25.5302E-03     15.4271E-03    -25.5025E-03     50.7116E-03    -25.5211E-03     15.3352E-03
             998     3.50934E-03     95.4576E-03    -36.0937E+06    -73.3176E+06    -25.7718E+06    -8.14433E+06    -25.4269E-03     50.9473E-03    -25.5204E-03     20.3976E-03    -25.4657E-03     50.6724E-03    -25.4906E-03     20.2800E-03
             999     4.38683E-03     95.4786E-03    -33.0082E+06    -68.6562E+06    -19.5020E+06    -9.51927E+06    -25.3925E-03     50.8972E-03    -25.5047E-03     25.3149E-03    -25.4331E-03     50.6335E-03    -25.4548E-03     25.1753E-03
            1000     5.26441E-03     95.5040E-03    -29.7585E+06    -64.1148E+06    -13.8851E+06    -10.6167E+06    -25.3698E-03     50.8521E-03    -25.4823E-03     30.1537E-03    -25.4110E-03     50.6003E-03    -25.4156E-03     29.9950E-03
            1001     6.14206E-03     95.5337E-03    -26.6833E+06    -59.2346E+06    -9.17173E+06    -11.4938E+06    -25.3623E-03     50.8159E-03    -25.4536E-03     34.8946E-03    -25.4048E-03     50.5799E-03    -25.3748E-03     34.7187E-03
            1002     7.01979E-03     95.5677E-03    -23.9523E+06    -54.9711E+06    -5.30032E+06    -12.1580E+06    -25.3785E-03     50.8008E-03    -25.4223E-03     39.5080E-03    -25.4228E-03     50.5803E-03    -25.3343E-03     39.3168E-03
            1003     7.89757E-03     95.6058E-03    -21.4398E+06    -51.1159E+06    -2.33532E+06    -12.8809E+06    -25.4280E-03     50.8179E-03    -25.3899E-03     43.9536E-03    -25.4747E-03     50.6137E-03    -25.2963E-03     43.7449E-03
            1004     8.77537E-03     95.6478E-03    -19.0762E+06    -48.9508E+06    -437.610E+03    -13.6894E+06    -25.5264E-03     50.8865E-03    -25.3600E-03     48.1544E-03    -25.5741E-03     50.6939E-03    -25.2636E-03     47.9257E-03
            1005     9.65317E-03     95.6934E-03    -17.0745E+06    -46.5136E+06    -343.054E+03    -14.2079E+06    -25.6729E-03     51.0023E-03    -25.3294E-03     52.0614E-03    -25.7235E-03     50.8281E-03    -25.2389E-03     51.8149E-03
            1006     10.5309E-03     95.7425E-03    -15.5643E+06    -44.3269E+06    -671.013E+03    -14.7616E+06    -25.8671E-03     51.1751E-03    -25.3081E-03     55.5220E-03    -25.9251E-03     51.0224E-03    -25.2246E-03     55.2553E-03
            1007     11.4085E-03     95.7944E-03    -14.2323E+06    -43.4782E+06    -2.87728E+06    -14.9979E+06    -26.1084E-03     51.4005E-03    -25.2922E-03     58.3287E-03    -26.1741E-03     51.2697E-03    -25.2229E-03     58.0445E-03
            1008     12.2859E-03     95.8486E-03    -12.9132E+06    -37.1311E+06    -4.27027E+06    -14.5986E+06    -26.3605E-03     51.6465E-03    -25.2860E-03     60.4793E-03    -26.4488E-03     51.5695E-03    -25.2348E-03     60.1844E-03
            1009     13.1632E-03     95.9046E-03    -11.5933E+06    -29.3415E+06    -6.47990E+06    -13.7322E+06    -26.6400E-03     51.9273E-03    -25.2873E-03     62.3892E-03    -26.7615E-03     51.9223E-03    -25.2603E-03     62.0887E-03
            1010     14.0402E-03     95.9626E-03    -10.2343E+06     4.93640E+06    -520.015E+03    -12.1885E+06    -26.8238E-03     52.1259E-03    -25.3021E-03     64.4075E-03    -27.0346E-03     52.3195E-03    -25.2971E-03     64.1179E-03
            1011     14.9171E-03     96.0228E-03    -8.58338E+06     59.0920E+06     13.9576E+06    -8.92171E+06    -26.6821E-03     52.0182E-03    -25.3361E-03     58.4493E-03    -26.9919E-03     52.4668E-03    -25.3395E-03     58.2122E-03
            1012     15.7938E-03     96.0701E-03    -6.43756E+06     92.6203E+06     31.3100E+06    -4.62253E+06    -26.4385E-03     51.8554E-03    -25.4168E-03     45.7092E-03    -26.7957E-03     52.4277E-03    -25.3852E-03     45.5464E-03
            1013     16.6705E-03     96.1070E-03    -3.46819E+06     104.073E+06     56.7048E+06    -1.77386E+06    -26.2705E-03     51.8420E-03    -25.5715E-03     26.1602E-03    -26.6077E-03     52.3719E-03    -25.4339E-03     26.0619E-03
            1014     877.438E-06     96.4196E-03    -39.8733E+06    -79.6299E+06    -39.0688E+06    -2.70336E+06    -25.3644E-03     50.7283E-03    -25.3639E-03     5.72219E-03    -25.3918E-03     50.4448E-03    -25.3860E-03     5.68434E-03
            1015     1.75485E-03     96.4269E-03    -38.3294E+06    -77.0418E+06    -35.1235E+06    -4.79545E+06    -25.3286E-03     50.6931E-03    -25.3644E-03     10.5047E-03    -25.3581E-03     50.4148E-03    -25.3728E-03     10.4372E-03
            1016     2.63238E-03     96.4386E-03    -36.0450E+06    -73.2490E+06    -29.5444E+06    -6.70365E+06    -25.2848E-03     50.6416E-03    -25.3568E-03     15.5178E-03    -25.3170E-03     50.3715E-03    -25.3460E-03     15.4226E-03
            1017     3.50994E-03     96.4550E-03    -33.4430E+06    -69.1744E+06    -23.4602E+06    -8.37094E+06    -25.2358E-03     50.5788E-03    -25.3431E-03     20.5279E-03    -25.2707E-03     50.3175E-03    -25.3116E-03     20.4077E-03
            1018     4.38762E-03     96.4758E-03    -30.6951E+06    -64.9322E+06    -17.7061E+06    -9.89428E+06    -25.1886E-03     50.5097E-03    -25.3212E-03     25.4981E-03    -25.2256E-03     50.2586E-03    -25.2710E-03     25.3543E-03
            1019     5.26538E-03     96.5011E-03    -27.8294E+06    -60.9438E+06    -12.5642E+06    -11.1001E+06    -25.1539E-03     50.4463E-03    -25.2924E-03     30.4006E-03    -25.1917E-03     50.2054E-03    -25.2265E-03     30.2364E-03
            1020     6.14323E-03     96.5307E-03    -24.9231E+06    -56.4890E+06    -8.04314E+06    -11.9422E+06    -25.1387E-03     50.3968E-03    -25.2580E-03     35.2152E-03    -25.1777E-03     50.1701E-03    -25.1802E-03     35.0346E-03
            1021     7.02116E-03     96.5646E-03    -22.0566E+06    -52.6320E+06    -4.09008E+06    -12.5355E+06    -25.1547E-03     50.3773E-03    -25.2226E-03     39.9100E-03    -25.1944E-03     50.1637E-03    -25.1348E-03     39.7151E-03
            1022     7.89914E-03     96.6026E-03    -19.4314E+06    -48.5025E+06    -921.970E+03    -13.1970E+06    -25.2114E-03     50.3983E-03    -25.1868E-03     44.4571E-03    -25.2536E-03     50.2019E-03    -25.0929E-03     44.2457E-03
            1023     8.77715E-03     96.6447E-03    -17.2146E+06    -46.6107E+06     1.06664E+06    -13.9247E+06    -25.3304E-03     50.4864E-03    -25.1560E-03     48.7696E-03    -25.3738E-03     50.3002E-03    -25.0582E-03     48.5394E-03
            1024     9.65510E-03     96.6903E-03    -15.3635E+06    -44.7140E+06     1.21121E+06    -14.3527E+06    -25.5158E-03     50.6431E-03    -25.1273E-03     52.7934E-03    -25.5622E-03     50.4727E-03    -25.0341E-03     52.5466E-03
            1025     10.5330E-03     96.7396E-03    -13.8352E+06    -42.1692E+06     1.13222E+06    -14.7509E+06    -25.7647E-03     50.8755E-03    -25.1108E-03     56.3738E-03    -25.8194E-03     50.7281E-03    -25.0239E-03     56.1089E-03
            1026     11.4106E-03     96.7917E-03    -12.7326E+06    -42.1514E+06    -1.06089E+06    -15.1689E+06    -26.0825E-03     51.1873E-03    -25.1047E-03     59.2747E-03    -26.1451E-03     51.0581E-03    -25.0304E-03     58.9895E-03
            1027     12.2881E-03     96.8462E-03    -11.8490E+06    -36.5110E+06    -2.77408E+06    -15.0492E+06    -26.4231E-03     51.5344E-03    -25.1113E-03     61.5094E-03    -26.5091E-03     51.4568E-03    -25.0550E-03     61.2096E-03
            1028     13.1653E-03     96.9025E-03    -10.9757E+06    -29.2831E+06    -4.86764E+06    -14.5223E+06    -26.8064E-03     51.9383E-03    -25.1319E-03     63.4564E-03    -26.9278E-03     51.9309E-03    -25.0979E-03     63.1460E-03
            1029     14.0422E-03     96.9609E-03    -9.77471E+06     3.50389E+06     1.02103E+06    -13.0804E+06    -27.0888E-03     52.2590E-03    -25.1702E-03     65.4506E-03    -27.2985E-03     52.4435E-03    -25.1560E-03     65.1489E-03
            1030     14.9188E-03     97.0215E-03    -8.15715E+06     54.3799E+06     14.8787E+06    -9.43051E+06    -27.0492E-03     52.2798E-03    -25.2306E-03     59.3960E-03    -27.3527E-03     52.7042E-03    -25.2232E-03     59.1510E-03
            1031     15.7953E-03     97.0691E-03    -6.13345E+06     88.2862E+06     30.5280E+06    -4.94524E+06    -26.8841E-03     52.2139E-03    -25.3297E-03     46.5985E-03    -27.2338E-03     52.7667E-03    -25.2962E-03     46.4295E-03
            1032     16.6715E-03     97.1062E-03    -3.50640E+06     102.119E+06     55.2107E+06    -1.95229E+06    -26.7270E-03     52.2322E-03    -25.5052E-03     26.7907E-03    -27.0604E-03     52.7555E-03    -25.3721E-03     26.6879E-03
            1033     877.592E-06     97.4167E-03    -36.9802E+06    -73.9534E+06    -36.2461E+06    -2.88371E+06    -25.1305E-03     50.2620E-03    -25.1315E-03     5.76364E-03    -25.1558E-03     49.9986E-03    -25.1519E-03     5.72361E-03
            1034     1.75529E-03     97.4239E-03    -35.6999E+06    -71.7475E+06    -32.7569E+06    -5.10663E+06    -25.0877E-03     50.2157E-03    -25.1280E-03     10.5847E-03    -25.1151E-03     49.9567E-03    -25.1360E-03     10.5135E-03
            1035     2.63298E-03     97.4357E-03    -33.6643E+06    -68.6220E+06    -27.6212E+06    -7.08958E+06    -25.0342E-03     50.1498E-03    -25.1156E-03     15.6441E-03    -25.0640E-03     49.8966E-03    -25.1054E-03     15.5444E-03
            1036     3.51080E-03     97.4519E-03    -31.0430E+06    -64.9997E+06    -21.6793E+06    -8.70146E+06    -24.9741E-03     50.0710E-03    -25.0969E-03     20.7094E-03    -25.0055E-03     49.8244E-03    -25.0661E-03     20.5856E-03
            1037     4.38869E-03     97.4726E-03    -28.2753E+06    -61.0770E+06    -15.9765E+06    -10.0999E+06    -24.9153E-03     49.9849E-03    -25.0696E-03     25.7448E-03    -24.9482E-03     49.7470E-03    -25.0200E-03     25.5992E-03
            1038     5.26672E-03     97.4978E-03    -25.6488E+06    -57.6448E+06    -11.0543E+06    -11.3008E+06    -24.8699E-03     49.9049E-03    -25.0350E-03     30.7268E-03    -24.9036E-03     49.6750E-03    -24.9695E-03     30.5611E-03
            1039     6.14481E-03     97.5273E-03    -23.0990E+06    -53.6122E+06    -6.90483E+06    -12.2843E+06    -24.8468E-03     49.8409E-03    -24.9942E-03     35.6397E-03    -24.8822E-03     49.6241E-03    -24.9175E-03     35.4559E-03
            1040     7.02301E-03     97.5611E-03    -20.5459E+06    -50.2170E+06    -3.16878E+06    -13.0204E+06    -24.8628E-03     49.8164E-03    -24.9536E-03     40.4487E-03    -24.8994E-03     49.6110E-03    -24.8669E-03     40.2490E-03
            1041     7.90126E-03     97.5991E-03    -18.0671E+06    -46.0552E+06     73.7825E+03    -13.5662E+06    -24.9304E-03     49.8450E-03    -24.9147E-03     45.1287E-03    -24.9702E-03     49.6570E-03    -24.8213E-03     44.9143E-03
            1042     8.77951E-03     97.6411E-03    -15.8555E+06    -44.3721E+06     2.35684E+06    -14.0800E+06    -25.0780E-03     49.9622E-03    -24.8842E-03     49.5835E-03    -25.1193E-03     49.7829E-03    -24.7851E-03     49.3533E-03
            1043     9.65770E-03     97.6869E-03    -14.0114E+06    -42.9283E+06     2.70781E+06    -14.4657E+06    -25.3133E-03     50.1723E-03    -24.8590E-03     53.7593E-03    -25.3571E-03     50.0062E-03    -24.7629E-03     53.5131E-03
            1044     10.5357E-03     97.7363E-03    -12.5255E+06    -40.2545E+06     2.83908E+06    -14.7691E+06    -25.6329E-03     50.4825E-03    -24.8496E-03     57.4896E-03    -25.6859E-03     50.3398E-03    -24.7589E-03     57.2264E-03
            1045     11.4136E-03     97.7888E-03    -11.5272E+06    -40.6798E+06     990.442E+03    -14.9104E+06    -26.0464E-03     50.9036E-03    -24.8572E-03     60.5033E-03    -26.1078E-03     50.7767E-03    -24.7765E-03     60.2232E-03
            1046     12.2910E-03     97.8436E-03    -10.9862E+06    -35.4432E+06    -884.971E+03    -14.9689E+06    -26.4987E-03     51.3793E-03    -24.8807E-03     62.8313E-03    -26.5848E-03     51.3032E-03    -24.8178E-03     62.5338E-03
            1047     13.1681E-03     97.9005E-03    -10.4758E+06    -28.7659E+06    -2.94278E+06    -14.7906E+06    -27.0058E-03     51.9308E-03    -24.9249E-03     64.8471E-03    -27.1289E-03     51.9231E-03    -24.8828E-03     64.5336E-03
            1048     14.0447E-03     97.9594E-03    -9.72460E+06     2.28686E+06     2.74786E+06    -13.6593E+06    -27.4115E-03     52.4040E-03    -24.9924E-03     66.7705E-03    -27.6231E-03     52.5812E-03    -24.9679E-03     66.4606E-03
            1049     14.9212E-03     98.0204E-03    -8.06821E+06     49.3490E+06     15.8083E+06    -10.1758E+06    -27.4956E-03     52.5811E-03    -25.0855E-03     60.5912E-03    -27.7945E-03     52.9807E-03    -25.0663E-03     60.3348E-03
            1050     15.7972E-03     98.0684E-03    -5.84203E+06     83.6208E+06     29.7127E+06    -5.19042E+06    -27.4607E-03     52.6708E-03    -25.2100E-03     47.6114E-03    -27.8029E-03     53.2029E-03    -25.1743E-03     47.4362E-03
            1051     16.6730E-03     98.1059E-03    -3.22530E+06     100.094E+06     54.0312E+06    -1.92894E+06    -27.4237E-03     52.8422E-03    -25.4184E-03     27.4285E-03    -27.7524E-03     53.3581E-03    -25.2887E-03     27.3224E-03
            1052     877.921E-06     98.4134E-03    -34.0490E+06    -68.0507E+06    -33.3320E+06    -2.92936E+06    -24.8121E-03     49.6262E-03    -24.8140E-03     5.81871E-03    -24.8355E-03     49.3838E-03    -24.8327E-03     5.77828E-03
            1053     1.75581E-03     98.4205E-03    -33.0029E+06    -66.2435E+06    -30.2905E+06    -5.19367E+06    -24.7628E-03     49.5699E-03    -24.8071E-03     10.6900E-03    -24.7883E-03     49.3309E-03    -24.8147E-03     10.6180E-03
            1054     2.63384E-03     98.4321E-03    -31.3769E+06    -63.7790E+06    -25.9067E+06    -7.28482E+06    -24.6977E-03     49.4864E-03    -24.7886E-03     15.8117E-03    -24.7256E-03     49.2515E-03    -24.7802E-03     15.7101E-03
            1055     3.51192E-03     98.4482E-03    -29.2739E+06    -60.7224E+06    -20.6686E+06    -9.04773E+06    -24.6228E-03     49.3854E-03    -24.7626E-03     20.9521E-03    -24.6530E-03     49.1560E-03    -24.7355E-03     20.8246E-03
            1056     4.39016E-03     98.4688E-03    -26.7598E+06    -57.3536E+06    -15.1172E+06    -10.4004E+06    -24.5514E-03     49.2810E-03    -24.7295E-03     26.0725E-03    -24.5832E-03     49.0580E-03    -24.6832E-03     25.9240E-03
            1057     5.26848E-03     98.4938E-03    -24.0797E+06    -54.2405E+06    -10.0813E+06    -11.5132E+06    -24.4961E-03     49.1856E-03    -24.6895E-03     31.1554E-03    -24.5280E-03     48.9688E-03    -24.6264E-03     30.9883E-03
            1058     6.14694E-03     98.5232E-03    -21.5720E+06    -50.6754E+06    -5.99565E+06    -12.4288E+06    -24.4676E-03     49.1106E-03    -24.6430E-03     36.1896E-03    -24.5007E-03     48.9045E-03    -24.5682E-03     36.0056E-03
            1059     7.02547E-03     98.5570E-03    -19.3318E+06    -47.5593E+06    -2.36604E+06    -13.1990E+06    -24.4875E-03     49.0851E-03    -24.5977E-03     41.1405E-03    -24.5225E-03     48.8896E-03    -24.5125E-03     40.9405E-03
            1060     7.90405E-03     98.5949E-03    -17.2680E+06    -43.8708E+06     809.634E+03    -13.7396E+06    -24.5731E-03     49.1295E-03    -24.5565E-03     45.9810E-03    -24.6126E-03     48.9496E-03    -24.4638E-03     45.7666E-03
            1061     8.78263E-03     98.6370E-03    -15.3885E+06    -42.2000E+06     3.24299E+06    -14.1232E+06    -24.7580E-03     49.2851E-03    -24.5271E-03     50.6161E-03    -24.8007E-03     49.1139E-03    -24.4274E-03     50.3878E-03
            1062     9.66108E-03     98.6829E-03    -13.7493E+06    -41.1290E+06     3.83573E+06    -14.4869E+06    -25.0579E-03     49.5658E-03    -24.5079E-03     54.9744E-03    -25.1040E-03     49.4060E-03    -24.4091E-03     54.7305E-03
            1063     10.5394E-03     98.7326E-03    -12.4958E+06    -38.6666E+06     3.96893E+06    -14.5795E+06    -25.4685E-03     49.9768E-03    -24.5083E-03     58.8870E-03    -25.5246E-03     49.8397E-03    -24.4143E-03     58.6287E-03
            1064     11.4173E-03     98.7855E-03    -11.4700E+06    -39.2042E+06     2.51711E+06    -14.7414E+06    -26.0004E-03     50.5337E-03    -24.5333E-03     62.0479E-03    -26.0655E-03     50.4116E-03    -24.4472E-03     61.7721E-03
            1065     12.2948E-03     98.8409E-03    -10.5832E+06    -34.2899E+06     822.894E+03    -14.7145E+06    -26.5955E-03     51.1751E-03    -24.5797E-03     64.4727E-03    -26.6838E-03     51.1018E-03    -24.5105E-03     64.1799E-03
            1066     13.1718E-03     98.8984E-03    -10.3216E+06    -28.0483E+06    -1.06468E+06    -14.4005E+06    -27.2601E-03     51.9146E-03    -24.6545E-03     66.5414E-03    -27.3870E-03     51.9084E-03    -24.6042E-03     66.2334E-03
            1067     14.0482E-03     98.9580E-03    -10.2140E+06     1.59236E+06     4.54124E+06    -13.4562E+06    -27.8319E-03     52.5917E-03    -24.7598E-03     68.3397E-03    -28.0493E-03     52.7653E-03    -24.7246E-03     68.0312E-03
            1068     14.9241E-03     99.0196E-03    -9.39418E+06     44.9779E+06     16.5707E+06    -10.6813E+06    -28.1005E-03     52.9965E-03    -24.8960E-03     61.9841E-03    -28.4032E-03     53.3774E-03    -24.8647E-03     61.7183E-03
            1069     15.7997E-03     99.0683E-03    -6.96500E+06     78.4224E+06     27.9244E+06    -6.21768E+06    -28.2499E-03     53.3064E-03    -25.0565E-03     48.7909E-03    -28.5902E-03     53.8195E-03    -25.0205E-03     48.5979E-03
            1070     16.6746E-03     99.1064E-03    -3.48339E+06     97.5472E+06     51.8306E+06    -2.30289E+06    -28.3382E-03     53.6474E-03    -25.3092E-03     28.2109E-03    -28.6632E-03     54.1561E-03    -25.1865E-03     28.0948E-03
            1071     878.227E-06     99.4093E-03    -31.1217E+06    -62.1689E+06    -30.5265E+06    -2.88115E+06    -24.3873E-03     48.7774E-03    -24.3901E-03     5.88894E-03    -24.4087E-03     48.5561E-03    -24.4074E-03     5.84939E-03
            1072     1.75659E-03     99.4164E-03    -30.3046E+06    -60.7204E+06    -27.9305E+06    -5.10756E+06    -24.3312E-03     48.7104E-03    -24.3793E-03     10.8247E-03    -24.3546E-03     48.4917E-03    -24.3869E-03     10.7543E-03
            1073     2.63493E-03     99.4279E-03    -28.9616E+06    -58.7757E+06    -24.0275E+06    -7.24439E+06    -24.2560E-03     48.6117E-03    -24.3556E-03     16.0224E-03    -24.2817E-03     48.3955E-03    -24.3486E-03     15.9220E-03
            1074     3.51346E-03     99.4438E-03    -27.2702E+06    -56.3610E+06    -19.4190E+06    -9.00343E+06    -24.1673E-03     48.4901E-03    -24.3228E-03     21.2533E-03    -24.1955E-03     48.2777E-03    -24.2987E-03     21.1274E-03
            1075     4.39206E-03     99.4643E-03    -25.4165E+06    -53.5814E+06    -14.6629E+06    -10.4400E+06    -24.0796E-03     48.3610E-03    -24.2813E-03     26.4845E-03    -24.1106E-03     48.1540E-03    -24.2401E-03     26.3369E-03
            1076     5.27084E-03     99.4891E-03    -23.3894E+06    -50.8314E+06    -9.97396E+06    -11.6200E+06    -24.0127E-03     48.2471E-03    -24.2344E-03     31.6960E-03    -24.0460E-03     48.0458E-03    -24.1766E-03     31.5292E-03
            1077     6.14970E-03     99.5184E-03    -21.2647E+06    -47.8658E+06    -5.81957E+06    -12.4458E+06    -23.9841E-03     48.1679E-03    -24.1838E-03     36.8727E-03    -24.0195E-03     47.9747E-03    -24.1126E-03     36.6905E-03
            1078     7.02868E-03     99.5520E-03    -19.2574E+06    -44.8795E+06    -2.16218E+06    -13.0663E+06    -24.0154E-03     48.1504E-03    -24.1350E-03     41.9899E-03    -24.0537E-03     47.9673E-03    -24.0528E-03     41.7940E-03
            1079     7.90767E-03     99.5899E-03    -17.5483E+06    -41.8550E+06     1.00872E+06    -13.4498E+06    -24.1313E-03     48.2252E-03    -24.0939E-03     47.0139E-03    -24.1747E-03     48.0547E-03    -24.0027E-03     46.8059E-03
            1080     8.78664E-03     99.6321E-03    -16.0287E+06    -39.9805E+06     3.51530E+06    -13.8484E+06    -24.3669E-03     48.4343E-03    -24.0674E-03     51.8642E-03    -24.4155E-03     48.2739E-03    -23.9686E-03     51.6423E-03
            1081     9.66545E-03     99.6783E-03    -14.6537E+06    -39.3880E+06     4.35405E+06    -14.2186E+06    -24.7495E-03     48.8074E-03    -24.0579E-03     56.4377E-03    -24.8025E-03     48.6559E-03    -23.9578E-03     56.2002E-03
            1082     10.5439E-03     99.7284E-03    -13.4079E+06     -37.296E+06     4.49902E+06    -14.2862E+06    -25.2750E-03     49.3475E-03    -24.0725E-03     60.5673E-03    -25.3377E-03     49.2172E-03    -23.9765E-03     60.3157E-03
            1083     11.4221E-03     99.7819E-03    -12.3335E+06    -37.3468E+06     3.56347E+06    -14.6078E+06    -25.9545E-03     50.0748E-03    -24.1203E-03     63.9130E-03    -26.0277E-03     49.9613E-03    -24.0304E-03     63.6413E-03
            1084     12.2995E-03     99.8379E-03    -11.5338E+06    -33.6253E+06     1.89343E+06    -14.5884E+06    -26.7333E-03     50.9312E-03    -24.1979E-03     66.4364E-03    -26.8291E-03     50.8612E-03    -24.1229E-03     66.1468E-03
            1085     13.1764E-03     99.8963E-03    -10.8581E+06    -27.4382E+06     579.279E+03    -13.9163E+06    -27.6012E-03     51.9141E-03    -24.3128E-03     68.5639E-03    -27.7352E-03     51.9104E-03    -24.2544E-03     68.2624E-03
            1086     14.0524E-03     99.9568E-03    -10.6211E+06     710.323E+03     6.42148E+06    -12.5020E+06    -28.3910E-03     52.8583E-03    -24.4674E-03     70.2132E-03    -28.6143E-03     53.0278E-03    -24.4209E-03     69.9152E-03
            1087     14.9280E-03     100.019E-03    -10.1646E+06     42.2421E+06     18.5008E+06    -10.1871E+06    -28.8957E-03     53.5570E-03    -24.6612E-03     63.7193E-03    -29.2044E-03     53.9259E-03    -24.6153E-03     63.4560E-03
            1088     15.8025E-03     100.069E-03    -8.39172E+06     74.3823E+06     27.9666E+06    -7.51891E+06    -29.2781E-03     54.1552E-03    -24.8771E-03     50.3238E-03    -29.6234E-03     54.6537E-03    -24.8329E-03     50.1078E-03
            1089     16.6767E-03     100.108E-03    -4.74164E+06     93.4488E+06     49.9004E+06    -3.77212E+06    -29.5483E-03     54.7352E-03    -25.1869E-03     29.1934E-03    -29.8734E-03     55.2306E-03    -25.0661E-03     29.0515E-03
            1090     878.778E-06     100.404E-03    -28.7021E+06    -56.4116E+06    -28.2462E+06    -2.85344E+06    -23.8319E-03     47.6678E-03    -23.8359E-03     5.97611E-03    -23.8528E-03     47.4685E-03    -23.8537E-03     5.93722E-03
            1091     1.75751E-03     100.411E-03    -28.0839E+06    -55.4022E+06    -26.1197E+06    -4.90942E+06    -23.7695E-03     47.5903E-03    -23.8208E-03     10.9899E-03    -23.7921E-03     47.3922E-03    -23.8304E-03     10.9227E-03
            1092     2.63643E-03     100.423E-03    -27.2668E+06    -53.9065E+06    -22.8774E+06    -6.86080E+06    -23.6844E-03     47.4760E-03    -23.7916E-03     16.2793E-03    -23.7102E-03     47.2800E-03    -23.7883E-03     16.1847E-03
            1093     3.51539E-03     100.438E-03    -26.1746E+06    -52.0350E+06    -19.0164E+06    -8.60537E+06    -23.5832E-03     47.3352E-03    -23.7520E-03     21.6174E-03    -23.6126E-03     47.1420E-03    -23.7336E-03     21.4979E-03
            1094     4.39457E-03     100.459E-03    -24.7546E+06    -49.7887E+06    -14.7823E+06    -10.0339E+06    -23.4837E-03     47.1875E-03    -23.7038E-03     26.9735E-03    -23.5164E-03     46.9984E-03    -23.6696E-03     26.8327E-03
            1095     5.27383E-03     100.483E-03    -23.3132E+06    -47.5292E+06    -10.4313E+06    -11.1148E+06    -23.4101E-03     47.0613E-03    -23.6512E-03     32.3308E-03    -23.4467E-03     46.8767E-03    -23.6007E-03     32.1725E-03
            1096     6.15326E-03     100.513E-03    -22.0300E+06    -45.1946E+06    -6.47188E+06    -11.8554E+06    -23.3872E-03     46.9848E-03    -23.5975E-03     37.6742E-03    -23.4288E-03     46.8064E-03    -23.5324E-03     37.5020E-03
            1097     7.03274E-03     100.546E-03    -20.9004E+06    -42.4476E+06    -2.98533E+06    -12.3351E+06    -23.4407E-03     46.9887E-03    -23.5479E-03     42.9824E-03    -23.4889E-03     46.8205E-03    -23.4710E-03     42.7986E-03
            1098     7.91226E-03     100.584E-03    -19.7708E+06    -39.9059E+06     166.034E+03    -12.6778E+06    -23.6023E-03     47.1126E-03    -23.5103E-03     48.2154E-03    -23.6575E-03     46.9554E-03    -23.4229E-03     48.0205E-03
            1099     8.79167E-03     100.626E-03    -18.6153E+06    -37.6738E+06     2.80412E+06    -13.1517E+06    -23.9071E-03     47.3985E-03    -23.4914E-03     53.3065E-03    -23.9700E-03     47.2534E-03    -23.3957E-03     53.0969E-03
            1100     9.67086E-03     100.673E-03    -17.3917E+06    -37.5349E+06     4.00444E+06    -13.7519E+06    -24.3950E-03     47.8923E-03    -23.4973E-03     58.1263E-03    -24.4629E-03     47.7535E-03    -23.3976E-03     57.8982E-03
            1101     10.5497E-03     100.723E-03    -16.0029E+06    -35.7322E+06     4.40780E+06    -14.1622E+06    -25.0666E-03     48.6002E-03    -23.5336E-03     62.4936E-03    -25.1436E-03     48.4807E-03    -23.4366E-03     62.2467E-03
            1102     11.4279E-03     100.778E-03    -14.5759E+06    -35.4492E+06     4.07898E+06    -14.5656E+06    -25.9291E-03     49.5413E-03    -23.6123E-03     66.0433E-03    -26.0165E-03     49.4394E-03    -23.5193E-03     65.7748E-03
            1103     12.3054E-03     100.835E-03    -13.1488E+06    -32.8195E+06     2.78148E+06    -14.7206E+06    -26.9357E-03     50.6666E-03    -23.7309E-03     68.6794E-03    -27.0424E-03     50.6021E-03    -23.6504E-03     68.3894E-03
            1104     13.1820E-03     100.894E-03    -11.6944E+06    -27.2251E+06     1.95137E+06    -14.2418E+06    -28.0556E-03     51.9524E-03    -23.8968E-03     70.8783E-03    -28.1977E-03     51.9507E-03    -23.8306E-03     70.5722E-03
            1105     14.0577E-03     100.956E-03    -10.0356E+06    -1.15999E+06     8.19202E+06    -12.1589E+06    -29.1186E-03     53.2314E-03    -24.1128E-03     72.3636E-03    -29.3422E-03     53.3916E-03    -24.0556E-03     72.0668E-03
            1106     14.9324E-03     101.019E-03    -8.12559E+06     40.9119E+06     21.6507E+06    -9.85188E+06    -29.9014E-03     54.2799E-03    -24.3785E-03     65.7115E-03    -30.2071E-03     54.6393E-03    -24.3178E-03     65.4466E-03
            1107     15.8063E-03     101.071E-03    -5.76107E+06     72.0858E+06     32.1143E+06    -8.02645E+06    -30.6041E-03     55.2814E-03    -24.6773E-03     52.0455E-03    -30.9438E-03     55.7635E-03    -24.6129E-03     51.8142E-03
            1108     16.6790E-03     101.110E-03    -3.22150E+06     88.4040E+06     50.8518E+06    -4.58977E+06    -31.2304E-03     56.2952E-03    -25.0648E-03     30.2701E-03    -31.5455E-03     56.7652E-03    -24.9340E-03     30.1081E-03
            1109     879.314E-06     101.398E-03    -27.3865E+06    -51.0186E+06    -26.7870E+06    -2.45192E+06    -23.1228E-03     46.2506E-03    -23.1278E-03     6.07711E-03    -23.1470E-03     46.0741E-03    -23.1480E-03     6.04376E-03
            1110     1.75879E-03     101.405E-03    -27.3651E+06    -50.6094E+06    -25.5783E+06    -4.34279E+06    -23.0560E-03     46.1649E-03    -23.1089E-03     11.1799E-03    -23.0827E-03     45.9889E-03    -23.1237E-03     11.1206E-03
            1111     2.63825E-03     101.416E-03    -27.0168E+06    -49.3227E+06    -23.1701E+06    -6.14086E+06    -22.9633E-03     46.0374E-03    -23.0741E-03     16.5728E-03    -22.9940E-03     45.8643E-03    -23.0792E-03     16.4885E-03
            1112     3.51793E-03     101.432E-03    -26.2768E+06    -47.8205E+06    -19.7807E+06    -7.90492E+06    -22.8557E-03     45.8858E-03    -23.0301E-03     22.0276E-03    -22.8904E-03     45.7148E-03    -23.0215E-03     21.9185E-03
            1113     4.39767E-03     101.452E-03    -25.5496E+06    -46.4503E+06    -16.0846E+06    -9.07973E+06    -22.7525E-03     45.7308E-03    -22.9783E-03     27.5187E-03    -22.7918E-03     45.5612E-03    -22.9544E-03     27.3919E-03
            1114     5.27763E-03     101.476E-03    -25.0281E+06    -44.6153E+06    -12.2714E+06    -9.78151E+06    -22.6807E-03     45.6034E-03    -22.9227E-03     33.0356E-03    -22.7270E-03     45.4380E-03    -22.8831E-03     32.8967E-03
            1115     6.15766E-03     101.505E-03    -24.6105E+06    -42.7789E+06    -8.38295E+06    -10.3012E+06    -22.6763E-03     45.5466E-03    -22.8703E-03     38.5605E-03    -22.7309E-03     45.3861E-03    -22.8145E-03     38.4109E-03
            1116     7.03779E-03     101.539E-03    -24.1514E+06    -40.2580E+06    -4.71007E+06    -10.7219E+06    -22.7708E-03     45.5967E-03    -22.8260E-03     44.0733E-03    -22.8350E-03     45.4459E-03    -22.7561E-03     43.9133E-03
            1117     7.91786E-03     101.577E-03    -23.5413E+06    -37.7645E+06    -1.29767E+06    -11.2865E+06    -22.9994E-03     45.7978E-03    -22.7984E-03     49.5339E-03    -23.0735E-03     45.6580E-03    -22.7160E-03     49.3601E-03
            1118     8.79780E-03     101.619E-03    -22.6147E+06    -35.3257E+06     1.69963E+06    -12.0534E+06    -23.4007E-03     46.1959E-03    -22.7952E-03     54.8771E-03    -23.4843E-03     46.0689E-03    -22.7027E-03     54.6852E-03
            1119     9.67742E-03     101.666E-03    -21.4379E+06    -35.1637E+06     3.42003E+06    -13.0463E+06    -24.0240E-03     46.8488E-03    -22.8248E-03     59.9608E-03    -24.1136E-03     46.7275E-03    -22.7256E-03     59.7453E-03
            1120     10.5565E-03     101.718E-03    -19.8803E+06    -33.5317E+06     4.06574E+06    -14.1985E+06    -24.8750E-03     47.7669E-03    -22.8919E-03     64.5849E-03    -24.9732E-03     47.6637E-03    -22.7941E-03     64.3408E-03
            1121     11.4349E-03     101.773E-03    -17.6824E+06    -33.4081E+06     4.07401E+06    -15.2259E+06    -25.9576E-03     48.9682E-03    -23.0106E-03     68.3633E-03    -26.0632E-03     48.8807E-03    -22.9162E-03     68.0887E-03
            1122     12.3123E-03     101.831E-03    -15.0603E+06    -31.4696E+06     3.33974E+06    -15.8509E+06    -27.2377E-03     50.4192E-03    -23.1815E-03     71.1373E-03    -27.3575E-03     50.3642E-03    -23.0974E-03     70.8337E-03
            1123     13.1887E-03     101.892E-03    -12.4990E+06    -27.3179E+06     2.83836E+06    -15.3928E+06    -28.6667E-03     52.0781E-03    -23.4114E-03     73.3679E-03    -28.8163E-03     52.0782E-03    -23.3395E-03     73.0454E-03
            1124     14.0637E-03     101.956E-03    -9.73677E+06    -3.15076E+06     9.16936E+06    -13.6697E+06    -30.0612E-03     53.7638E-03    -23.7026E-03     74.6795E-03    -30.2866E-03     53.9169E-03    -23.6381E-03     74.3580E-03
            1125     14.9376E-03     102.021E-03    -6.19612E+06     39.3255E+06     23.5313E+06    -11.1282E+06    -31.1854E-03     55.2401E-03    -24.0547E-03     67.7924E-03    -31.4882E-03     55.5923E-03    -23.9851E-03     67.5023E-03
            1126     15.8101E-03     102.073E-03    -3.53276E+06     69.3418E+06     34.9070E+06    -7.87241E+06    -32.2595E-03     56.7145E-03    -24.4550E-03     53.8616E-03    -32.5946E-03     57.1822E-03    -24.3759E-03     53.6200E-03
            1127     16.6814E-03     102.115E-03    -1.74557E+06     83.4610E+06     51.6881E+06    -3.81881E+06    -33.2385E-03     58.1812E-03    -24.9427E-03     31.5588E-03    -33.5447E-03     58.6277E-03    -24.8027E-03     31.3944E-03
            1128     880.172E-06     102.390E-03    -27.3513E+06    -46.7440E+06    -26.8627E+06    -1.71958E+06    -22.2460E-03     44.4968E-03    -22.2508E-03     6.18146E-03    -22.2761E-03     44.3417E-03    -22.2777E-03     6.15794E-03
            1129     1.76027E-03     102.397E-03    -27.5705E+06    -46.4508E+06    -25.6658E+06    -3.30011E+06    -22.1826E-03     44.4152E-03    -22.2327E-03     11.3750E-03    -22.2161E-03     44.2604E-03    -22.2537E-03     11.3299E-03
            1130     2.64059E-03     102.408E-03    -27.6459E+06    -45.1231E+06    -24.3311E+06    -5.09558E+06    -22.0880E-03     44.2817E-03    -22.1938E-03     16.8741E-03    -22.1261E-03     44.1320E-03    -22.2099E-03     16.8044E-03
            1131     3.52094E-03     102.424E-03    -27.9489E+06    -44.2470E+06    -22.2987E+06    -6.46905E+06    -21.9796E-03     44.1250E-03    -22.1454E-03     22.4496E-03    -22.0240E-03     43.9776E-03    -22.1522E-03     22.3604E-03
            1132     4.40154E-03     102.443E-03    -28.3799E+06    -43.8641E+06    -19.1276E+06    -7.18011E+06    -21.8858E-03     43.9809E-03    -22.0951E-03     28.0783E-03    -21.9383E-03     43.8323E-03    -22.0860E-03     27.9778E-03
            1133     5.28219E-03     102.468E-03    -28.7433E+06    -42.4136E+06    -15.3283E+06    -7.51343E+06    -21.8353E-03     43.8798E-03    -22.0445E-03     33.7548E-03    -21.8984E-03     43.7347E-03    -22.0180E-03     33.6474E-03
            1134     6.16300E-03     102.497E-03    -28.9900E+06    -40.7270E+06    -11.1279E+06    -7.85340E+06    -21.8699E-03     43.8713E-03    -22.0013E-03     39.4658E-03    -21.9447E-03     43.7307E-03    -21.9559E-03     39.3505E-03
            1135     7.04378E-03     102.530E-03    -28.8478E+06    -38.0242E+06    -6.89181E+06    -8.54365E+06    -22.0282E-03     43.9993E-03    -21.9710E-03     45.1920E-03    -22.1151E-03     43.8687E-03    -21.9085E-03     45.0631E-03
            1136     7.92451E-03     102.568E-03    -28.0825E+06    -35.3726E+06    -2.77366E+06    -9.52961E+06    -22.3538E-03     44.3171E-03    -21.9633E-03     50.8867E-03    -22.4508E-03     44.1969E-03    -21.8852E-03     50.7389E-03
            1137     8.80496E-03     102.611E-03    -26.7778E+06    -32.5777E+06     874.840E+03    -10.8528E+06    -22.8866E-03     44.8727E-03    -21.9861E-03     56.4874E-03    -22.9927E-03     44.7655E-03    -21.8957E-03     56.3144E-03
            1138     9.68500E-03     102.659E-03    -24.8483E+06    -32.1901E+06     3.06905E+06    -12.5314E+06    -23.6771E-03     45.7256E-03    -22.0485E-03     61.8538E-03    -23.7865E-03     45.6236E-03    -21.9504E-03     61.6483E-03
            1139     10.5644E-03     102.711E-03    -22.5373E+06    -30.3935E+06     4.06203E+06    -14.3718E+06    -24.7397E-03     46.8965E-03    -22.1569E-03     66.7624E-03    -24.8549E-03     46.8121E-03    -22.0598E-03     66.5190E-03
            1140     11.4428E-03     102.768E-03    -19.8488E+06    -30.2777E+06     4.27046E+06    -16.5357E+06    -26.0817E-03     48.4089E-03    -22.3273E-03     70.7946E-03    -26.2029E-03     48.3399E-03    -22.2332E-03     70.5051E-03
            1141     12.3201E-03     102.828E-03    -16.5333E+06    -29.6496E+06     3.65653E+06    -17.9781E+06    -27.6775E-03     50.2405E-03    -22.5630E-03     73.7575E-03    -27.8090E-03     50.1975E-03    -22.4777E-03     73.4266E-03
            1142     13.1959E-03     102.890E-03    -13.1677E+06    -27.8342E+06     2.96143E+06    -17.4288E+06    -29.4742E-03     52.3449E-03    -22.8706E-03     76.0311E-03    -29.6300E-03     52.3466E-03    -22.7964E-03     75.6793E-03
            1143     14.0703E-03     102.956E-03    -10.0209E+06    -4.00321E+06     9.38896E+06    -15.8854E+06    -31.2474E-03     54.4994E-03    -23.2520E-03     77.2060E-03    -31.4795E-03     54.6547E-03    -23.1847E-03     76.8483E-03
            1144     14.9429E-03     103.023E-03    -7.15992E+06     36.0764E+06     22.9118E+06    -12.9460E+06    -32.7484E-03     56.4544E-03    -23.7060E-03     70.1390E-03    -33.0586E-03     56.8010E-03    -23.6334E-03     69.8134E-03
            1145     15.8141E-03     103.078E-03    -4.87688E+06     63.9923E+06     33.2460E+06    -7.41237E+06    -34.1571E-03     58.3727E-03    -24.2156E-03     56.0736E-03    -34.4972E-03     58.8264E-03    -24.1351E-03     55.8225E-03
            1146     16.6833E-03     103.121E-03    -3.14260E+06     79.5345E+06     50.6366E+06    -2.74050E+06    -35.3400E-03     60.1588E-03    -24.8188E-03     33.2625E-03    -35.6513E-03     60.5946E-03    -24.6764E-03     33.0977E-03
            1147     880.988E-06     103.381E-03    -29.3446E+06    -44.1178E+06    -28.9033E+06    -998.935E+03    -21.2052E-03     42.4140E-03    -21.2088E-03     6.27470E-03    -21.2461E-03     42.2779E-03    -21.2468E-03     6.26087E-03
            1148     1.76216E-03     103.387E-03    -30.0255E+06    -43.3280E+06    -28.8898E+06    -1.83564E+06    -21.1434E-03     42.3290E-03    -21.1856E-03     11.5511E-03    -21.1890E-03     42.1979E-03    -21.2237E-03     11.5256E-03
            1149     2.64326E-03     103.398E-03    -31.3107E+06    -41.7250E+06    -28.6725E+06    -3.20286E+06    -21.0554E-03     42.2003E-03    -21.1448E-03     17.1462E-03    -21.1104E-03     42.0790E-03    -21.1823E-03     17.1019E-03
            1150     3.52462E-03     103.414E-03    -32.6466E+06    -41.9283E+06    -27.0465E+06    -4.03549E+06    -20.9662E-03     42.0687E-03    -21.1025E-03     22.8312E-03    -21.0303E-03     41.9465E-03    -21.1296E-03     22.7749E-03
            1151     4.40600E-03     103.433E-03    -33.7893E+06    -42.0685E+06    -23.6859E+06    -4.36133E+06    -20.9035E-03     41.9668E-03    -21.0633E-03     28.5873E-03    -20.9787E-03     41.8413E-03    -21.0717E-03     28.5251E-03
            1152     5.28757E-03     103.457E-03    -34.4709E+06    -40.9032E+06    -19.1832E+06    -4.62056E+06    -20.9007E-03     41.9298E-03    -21.0292E-03     34.4162E-03    -20.9885E-03     41.8057E-03    -21.0158E-03     34.3483E-03
            1153     6.16911E-03     103.486E-03    -34.3537E+06    -38.8009E+06    -14.0485E+06    -5.21587E+06    -21.0011E-03     42.0069E-03    -21.0058E-03     40.3125E-03    -21.1005E-03     41.8873E-03    -20.9700E-03     40.2338E-03
            1154     7.05068E-03     103.520E-03    -33.5012E+06    -35.5968E+06    -8.76740E+06    -6.33770E+06    -21.2524E-03     42.2526E-03    -21.0002E-03     46.2557E-03    -21.3625E-03     42.1427E-03    -20.9439E-03     46.1582E-03
            1155     7.93200E-03     103.558E-03    -31.9825E+06    -32.4091E+06    -3.87502E+06    -8.06084E+06    -21.7037E-03     42.7257E-03    -21.0221E-03     52.1982E-03    -21.8219E-03     42.6266E-03    -20.9481E-03     52.0725E-03
            1156     8.81301E-03     103.602E-03    -29.7003E+06    -29.2962E+06     249.634E+03    -10.1198E+06    -22.3951E-03     43.4753E-03    -21.0802E-03     58.0780E-03    -22.5185E-03     43.3886E-03    -20.9935E-03     57.9177E-03
            1157     9.69342E-03     103.650E-03    -26.9333E+06    -28.2103E+06     2.83208E+06    -12.6564E+06    -23.3783E-03     44.5637E-03    -21.1853E-03     63.7616E-03    -23.5026E-03     44.4839E-03    -21.0912E-03     63.5576E-03
            1158     10.5730E-03     103.704E-03    -23.7403E+06    -26.7773E+06     4.14565E+06    -15.1707E+06    -24.6795E-03     46.0262E-03    -21.3467E-03     69.0004E-03    -24.8054E-03     45.9608E-03    -21.2527E-03     68.7493E-03
            1159     11.4515E-03     103.762E-03    -20.7415E+06    -25.8804E+06     4.78543E+06    -17.6300E+06    -26.3074E-03     47.8877E-03    -21.5804E-03     73.3530E-03    -26.4404E-03     47.8414E-03    -21.4888E-03     73.0509E-03
            1160     12.3284E-03     103.824E-03    -17.8944E+06    -26.6346E+06     3.90051E+06    -20.2120E+06    -28.2470E-03     50.1393E-03    -21.8923E-03     76.6019E-03    -28.3916E-03     50.1147E-03    -21.8082E-03     76.2416E-03
            1161     13.2037E-03     103.889E-03    -14.2615E+06    -28.5411E+06     2.15395E+06    -20.4034E+06    -30.4488E-03     52.7371E-03    -22.2883E-03     79.0517E-03    -30.6120E-03     52.7423E-03    -22.2155E-03     78.6573E-03
            1162     14.0769E-03     103.957E-03    -10.5280E+06    -4.86488E+06     8.58924E+06    -18.2879E+06    -32.6259E-03     55.3968E-03    -22.7710E-03     80.1765E-03    -32.8658E-03     55.5575E-03    -22.7057E-03     79.7781E-03
            1163     14.9485E-03     104.026E-03    -7.96872E+06     30.5250E+06     20.8650E+06    -13.4807E+06    -34.4971E-03     57.8358E-03    -23.3386E-03     73.0013E-03    -34.8106E-03     58.1690E-03    -23.2670E-03     72.6543E-03
            1164     15.8178E-03     104.083E-03    -6.34694E+06     57.4612E+06     29.8505E+06    -7.13656E+06    -36.2006E-03     60.1636E-03    -23.9630E-03     58.8671E-03    -36.5437E-03     60.6018E-03    -23.8879E-03     58.6016E-03
            1165     16.6856E-03     104.130E-03    -3.36942E+06     76.4968E+06     49.5437E+06    -2.97461E+06    -37.5273E-03     62.2179E-03    -24.6907E-03     35.4072E-03    -37.8401E-03     62.6468E-03    -24.5490E-03     35.2229E-03
            1166     882.130E-06     104.369E-03    -35.7523E+06    -43.6863E+06    -35.2498E+06     515.511E+03    -20.0122E-03     40.0261E-03    -20.0138E-03     6.33891E-03    -20.0766E-03     39.9106E-03    -20.0749E-03     6.34497E-03
            1167     1.76416E-03     104.375E-03    -37.5123E+06    -41.7802E+06    -36.8685E+06     174.560E+03    -19.9571E-03     39.9432E-03    -19.9860E-03     11.6717E-03    -20.0309E-03     39.8422E-03    -20.0554E-03     11.6728E-03
            1168     2.64645E-03     104.386E-03    -39.2741E+06    -39.7756E+06    -36.4742E+06    -562.149E+03    -19.8936E-03     39.8472E-03    -19.9536E-03     17.3331E-03    -19.9798E-03     39.7584E-03    -20.0214E-03     17.3239E-03
            1169     3.52867E-03     104.401E-03    -40.7184E+06    -40.7609E+06    -33.3972E+06    -1.06183E+06    -19.8505E-03     39.7832E-03    -19.9327E-03     23.1041E-03    -19.9472E-03     39.6874E-03    -19.9815E-03     23.0875E-03
            1170     4.41110E-03     104.421E-03    -41.2012E+06    -40.8339E+06    -28.8882E+06    -1.53409E+06    -19.8451E-03     39.7611E-03    -19.9160E-03     28.9739E-03    -19.9512E-03     39.6597E-03    -19.9415E-03     28.9497E-03
            1171     5.29347E-03     104.445E-03    -40.4887E+06    -39.5630E+06    -23.0535E+06    -2.25966E+06    -19.9166E-03     39.8248E-03    -19.9082E-03     34.9497E-03    -20.0304E-03     39.7212E-03    -19.9074E-03     34.9143E-03
            1172     6.17592E-03     104.474E-03    -38.8571E+06    -36.7173E+06    -16.5681E+06    -3.39876E+06    -20.1111E-03     40.0258E-03    -19.9147E-03     41.0307E-03    -20.2317E-03     39.9261E-03    -19.8880E-03     40.9777E-03
            1173     7.05815E-03     104.508E-03    -36.4328E+06    -32.8403E+06    -10.2304E+06    -5.12692E+06    -20.4792E-03     40.4219E-03    -19.9427E-03     47.1996E-03    -20.6050E-03     40.3313E-03    -19.8934E-03     47.1203E-03
            1174     7.94017E-03     104.547E-03    -33.4346E+06    -28.7714E+06    -4.60387E+06    -7.41698E+06    -21.0721E-03     41.0743E-03    -20.0021E-03     53.4129E-03    -21.2008E-03     40.9954E-03    -19.9350E-03     53.2983E-03
            1175     8.82164E-03     104.591E-03    -30.2472E+06    -25.4050E+06    -83.1743E+03    -10.1071E+06    -21.9374E-03     42.0420E-03    -20.1046E-03     59.6059E-03    -22.0677E-03     41.9749E-03    -20.0243E-03     59.4486E-03
            1176     9.70244E-03     104.641E-03    -26.9008E+06    -23.3398E+06     3.02396E+06    -13.1845E+06    -23.1258E-03     43.3875E-03    -20.2617E-03     65.6598E-03    -23.2562E-03     43.3307E-03    -20.1737E-03     65.4518E-03
            1177     10.5822E-03     104.695E-03    -23.6481E+06    -22.5965E+06     4.48723E+06    -16.2628E+06    -24.6714E-03     45.1561E-03    -20.4847E-03     71.3090E-03    -24.8028E-03     45.1104E-03    -20.3952E-03     71.0462E-03
            1178     11.4606E-03     104.755E-03    -20.5991E+06    -21.7277E+06     5.24688E+06    -18.5484E+06    -26.5852E-03     47.3734E-03    -20.7883E-03     76.1087E-03    -26.7243E-03     47.3472E-03    -20.7007E-03     75.7961E-03
            1179     12.3373E-03     104.820E-03    -18.1210E+06    -21.5691E+06     4.90051E+06    -21.3382E+06    -28.8674E-03     50.0498E-03    -21.1823E-03     79.8025E-03    -29.0238E-03     50.0511E-03    -21.1003E-03     79.4270E-03
            1180     13.2118E-03     104.887E-03    -15.6007E+06    -28.0644E+06     1.41632E+06    -23.3285E+06    -31.4837E-03     53.1547E-03    -21.6710E-03     82.6361E-03    -31.6578E-03     53.1699E-03    -21.6006E-03     82.1995E-03
            1181     14.0842E-03     104.958E-03    -12.6688E+06    -7.78647E+06     6.33605E+06    -20.6322E+06    -34.0880E-03     56.3467E-03    -22.2588E-03     83.8535E-03    -34.3398E-03     56.5078E-03    -22.1974E-03     83.4144E-03
            1182     14.9541E-03     105.031E-03    -9.61146E+06     23.6279E+06     18.0411E+06    -14.6328E+06    -36.3506E-03     59.2971E-03    -22.9465E-03     76.5859E-03    -36.6702E-03     59.6144E-03    -22.8766E-03     76.2076E-03
            1183     15.8221E-03     105.091E-03    -5.95681E+06     50.9703E+06     26.4013E+06    -8.07008E+06    -38.3664E-03     62.0554E-03    -23.6890E-03     62.3556E-03    -38.7051E-03     62.4776E-03    -23.6223E-03     62.0577E-03
            1184     16.6876E-03     105.140E-03    -3.22444E+06     73.3568E+06     48.0446E+06    -3.33825E+06    -39.8949E-03     64.4438E-03    -24.5488E-03     38.0374E-03    -40.2079E-03     64.8665E-03    -24.4103E-03     37.8294E-03
            1185     883.171E-06     105.354E-03    -50.7893E+06    -45.3148E+06    -50.5522E+06     1.20112E+06    -18.7060E-03     37.4125E-03    -18.7065E-03     6.34142E-03    -18.8211E-03     37.3328E-03    -18.8199E-03     6.35659E-03
            1186     1.76651E-03     105.361E-03    -50.4817E+06    -42.0807E+06    -48.9732E+06     1.73881E+06    -18.6821E-03     37.3771E-03    -18.6949E-03     11.6840E-03    -18.8027E-03     37.3109E-03    -18.8056E-03     11.7057E-03
            1187     2.64971E-03     105.372E-03    -50.8063E+06    -39.4904E+06    -46.1141E+06     1.77683E+06    -18.6635E-03     37.3491E-03    -18.6856E-03     17.3746E-03    -18.7937E-03     37.2924E-03    -18.7853E-03     17.3964E-03
            1188     3.53312E-03     105.387E-03    -50.4429E+06    -40.0263E+06    -40.8503E+06     1.20620E+06    -18.6828E-03     37.3744E-03    -18.6916E-03     23.2101E-03    -18.8183E-03     37.3070E-03    -18.7647E-03     23.2237E-03
            1189     4.41640E-03     105.406E-03    -48.6038E+06    -39.1813E+06    -34.2290E+06    -282.411E+03    -18.7570E-03     37.4620E-03    -18.7050E-03     29.1814E-03    -18.8945E-03     37.3870E-03    -18.7489E-03     29.1746E-03
            1190     5.29979E-03     105.431E-03    -45.1869E+06    -37.7440E+06    -26.8350E+06    -2.07669E+06    -18.9243E-03     37.6540E-03    -18.7298E-03     35.2988E-03    -19.0582E-03     37.5713E-03    -18.7437E-03     35.2673E-03
            1191     6.18297E-03     105.460E-03    -40.7904E+06    -34.4914E+06    -19.0399E+06    -3.66140E+06    -19.2300E-03     38.0015E-03    -18.7715E-03     41.5657E-03    -19.3593E-03     37.9187E-03    -18.7576E-03     41.5112E-03
            1192     7.06602E-03     105.494E-03    -36.4095E+06    -29.7744E+06    -11.6841E+06    -5.47913E+06    -19.7246E-03     38.5631E-03    -18.8384E-03     47.9721E-03    -19.8518E-03     38.4891E-03    -18.8009E-03     47.8905E-03
            1193     7.94859E-03     105.534E-03    -32.3687E+06    -24.8553E+06    -5.32256E+06    -7.89436E+06    -20.4631E-03     39.4049E-03    -18.9418E-03     54.4798E-03    -20.5901E-03     39.3441E-03    -18.8854E-03     54.3616E-03
            1194     8.83063E-03     105.579E-03    -28.3566E+06    -20.8920E+06     1.12816E+03    -10.8283E+06    -21.5005E-03     40.5954E-03    -19.0949E-03     61.0274E-03    -21.6269E-03     40.5469E-03    -19.0235E-03     60.8636E-03
            1195     9.71170E-03     105.630E-03    -24.6283E+06    -18.3642E+06     3.78859E+06    -13.9646E+06    -22.8823E-03     42.1911E-03    -19.3088E-03     67.5141E-03    -23.0086E-03     42.1538E-03    -19.2275E-03     67.2989E-03
            1196     10.5916E-03     105.686E-03    -21.4448E+06    -17.8768E+06     5.75481E+06    -16.9305E+06    -24.6522E-03     44.2482E-03    -19.5960E-03     73.6727E-03    -24.7805E-03     44.2202E-03    -19.5102E-03     73.4039E-03
            1197     11.4700E-03     105.748E-03    -18.8870E+06    -18.1748E+06     6.32333E+06    -19.1750E+06    -26.8309E-03     46.8002E-03    -19.9693E-03     79.0606E-03    -26.9681E-03     46.7876E-03    -19.8839E-03     78.7417E-03
            1198     12.3464E-03     105.815E-03    -16.5286E+06    -15.5312E+06     7.15028E+06    -21.8996E+06    -29.4276E-03     49.8705E-03    -20.4428E-03     83.3934E-03    -29.5893E-03     49.8977E-03    -20.3606E-03     83.0107E-03
            1199     13.2206E-03     105.886E-03    -14.7448E+06    -25.7172E+06     2.91159E+06    -24.3119E+06    -32.4610E-03     53.4842E-03    -21.0231E-03     86.7533E-03    -32.6405E-03     53.5118E-03    -20.9499E-03     86.3002E-03
            1200     14.0919E-03     105.961E-03    -12.7023E+06    -11.6568E+06      5.2662E+06    -22.6100E+06    -35.5337E-03     57.2457E-03    -21.7120E-03     88.2346E-03    -35.7874E-03     57.3979E-03    -21.6503E-03     87.7597E-03
            1201     14.9608E-03     106.037E-03    -9.49956E+06     16.6164E+06     15.9390E+06    -16.7010E+06    -38.2780E-03     60.7955E-03    -22.5176E-03     80.9704E-03    -38.5973E-03     61.0942E-03    -22.4482E-03     80.5473E-03
            1202     15.8266E-03     106.101E-03    -6.83013E+06     43.7739E+06     23.5591E+06    -9.63098E+06    -40.7209E-03     64.1109E-03    -23.3899E-03     66.5023E-03    -41.0637E-03     64.5168E-03    -23.3257E-03     66.1607E-03
            1203     16.6906E-03     106.153E-03    -3.39178E+06     69.2887E+06     46.9016E+06    -4.01032E+06    -42.5479E-03     66.9402E-03    -24.3923E-03     41.1287E-03    -42.8633E-03     67.3538E-03    -24.2534E-03     40.8892E-03
            1204     884.394E-06     106.338E-03    -73.6310E+06    -46.3966E+06    -73.4241E+06    -104.845E+03    -17.3938E-03     34.7909E-03    -17.3970E-03     6.25570E-03    -17.5883E-03     34.7721E-03    -17.5901E-03     6.25415E-03
            1205     1.76866E-03     106.344E-03    -70.7884E+06    -43.4632E+06    -68.6775E+06     506.093E+03    -17.3958E-03     34.7958E-03    -17.4000E-03     11.5522E-03    -17.5873E-03     34.7807E-03    -17.5777E-03     11.5583E-03
            1206     2.65312E-03     106.355E-03    -66.1985E+06    -39.6418E+06    -60.3642E+06     775.363E+03    -17.4288E-03     34.8479E-03    -17.4190E-03     17.2321E-03    -17.6150E-03     34.8332E-03    -17.5674E-03     17.2414E-03
            1207     3.53740E-03     106.370E-03    -60.1087E+06    -38.4327E+06    -50.4452E+06    -655.287E+03    -17.5203E-03     34.9739E-03    -17.4536E-03     23.1074E-03    -17.6923E-03     34.9423E-03    -17.5630E-03     23.0976E-03
            1208     4.42180E-03     106.390E-03    -53.0192E+06    -36.4980E+06    -40.4325E+06    -2.89532E+06    -17.6823E-03     35.1789E-03    -17.4966E-03     29.1620E-03    -17.8365E-03     35.1325E-03    -17.5689E-03     29.1225E-03
            1209     5.30596E-03     106.414E-03    -46.1338E+06    -35.2746E+06    -30.9327E+06    -4.94051E+06    -17.9561E-03     35.5108E-03    -17.5546E-03     35.4128E-03    -18.0921E-03     35.4474E-03    -17.5913E-03     35.3455E-03
            1210     6.19006E-03     106.443E-03    -40.0170E+06    -32.3773E+06    -22.1363E+06    -6.26543E+06    -18.3755E-03     36.0082E-03    -17.6327E-03     41.8602E-03    -18.4990E-03     35.9388E-03    -17.6384E-03     41.7736E-03
            1211     7.07375E-03     106.478E-03    -34.3693E+06    -26.7288E+06    -13.7320E+06    -7.66225E+06    -18.9919E-03     36.7318E-03    -17.7399E-03     48.5024E-03    -19.1096E-03     36.6724E-03    -17.7200E-03     48.3944E-03
            1212     7.95702E-03     106.519E-03    -29.0112E+06    -21.0062E+06    -5.98329E+06    -9.72008E+06    -19.8683E-03     37.7582E-03    -17.8898E-03     55.3191E-03    -19.9823E-03     37.7119E-03    -17.8472E-03     55.1796E-03
            1213     8.83947E-03     106.565E-03    -24.4499E+06    -16.4393E+06     492.539E+03    -12.1753E+06    -21.0488E-03     39.1425E-03    -18.0937E-03     62.2571E-03    -21.1617E-03     39.1088E-03    -18.0320E-03     62.0785E-03
            1214     9.72100E-03     106.617E-03    -21.1564E+06    -14.1449E+06     4.98906E+06    -14.3671E+06    -22.5879E-03     40.9504E-03    -18.3624E-03     69.2321E-03    -22.7034E-03     40.9261E-03    -18.2863E-03     69.0146E-03
            1215     10.6011E-03     106.676E-03    -19.1866E+06    -13.0913E+06     7.56729E+06    -16.7174E+06    -24.5396E-03     43.2474E-03    -18.7078E-03     75.9951E-03    -24.6648E-03     43.2361E-03    -18.6231E-03     75.7321E-03
            1216     11.4796E-03     106.741E-03    -17.1925E+06    -13.9657E+06     8.46165E+06    -19.5532E+06    -26.9515E-03     46.0955E-03    -19.1440E-03     82.0877E-03    -27.0884E-03     46.0974E-03    -19.0565E-03     81.7667E-03
            1217     12.3560E-03     106.811E-03    -15.2625E+06    -10.3351E+06     9.82949E+06    -22.0340E+06    -29.8369E-03     49.5233E-03    -19.6864E-03     87.2156E-03    -30.0037E-03     49.5710E-03    -19.6001E-03     86.8326E-03
            1218     13.2297E-03     106.886E-03    -13.7198E+06    -21.9022E+06     5.75312E+06    -24.4657E+06    -33.2849E-03     53.6333E-03    -20.3484E-03     91.2902E-03    -33.4716E-03     53.6772E-03    -20.2680E-03     90.8331E-03
            1219     14.1004E-03     106.964E-03    -11.5679E+06    -13.7943E+06     5.27215E+06    -24.4383E+06    -36.8964E-03     58.0239E-03    -21.1275E-03     93.1319E-03    -37.1492E-03     58.1717E-03    -21.0643E-03     92.6238E-03
            1220     14.9678E-03     107.044E-03    -8.83104E+06     8.43155E+06     13.8526E+06    -18.6852E+06    -40.2424E-03     62.2914E-03    -22.0489E-03     85.9719E-03    -40.5581E-03     62.5659E-03    -21.9791E-03     85.5032E-03
            1221     15.8323E-03     107.113E-03    -5.95384E+06     36.0304E+06     23.8366E+06    -10.4157E+06    -43.2979E-03     66.3686E-03    -23.0708E-03     71.2582E-03    -43.6422E-03     66.7511E-03    -22.9952E-03     70.8785E-03
            1222     16.6932E-03     107.169E-03    -3.83824E+06     64.6625E+06     47.3111E+06    -4.67973E+06    -45.5185E-03     69.7433E-03    -24.2248E-03     44.6776E-03    -45.8414E-03     70.1453E-03    -24.0765E-03     44.4009E-03
            1223     885.265E-06     107.318E-03    -80.9797E+06    -44.6030E+06    -80.2321E+06    -1.66478E+06    -16.2703E-03     32.5468E-03    -16.2765E-03     6.09110E-03    -16.4943E-03     32.5576E-03    -16.4956E-03     6.06944E-03
            1224     1.77071E-03     107.325E-03    -77.2983E+06    -42.6256E+06    -74.8426E+06    -3.05510E+06    -16.2861E-03     32.5715E-03    -16.2854E-03     11.2687E-03    -16.5024E-03     32.5790E-03    -16.4858E-03     11.2290E-03
            1225     2.65599E-03     107.335E-03    -71.3195E+06    -38.3297E+06    -66.9368E+06    -4.15111E+06    -16.3248E-03     32.6275E-03    -16.3027E-03     16.8677E-03    -16.5289E-03     32.6364E-03    -16.4784E-03     16.8136E-03
            1226     3.54142E-03     107.351E-03    -64.4886E+06    -34.8529E+06    -58.2967E+06    -6.07851E+06    -16.4363E-03     32.7663E-03    -16.3300E-03     22.7218E-03    -16.6239E-03     32.7702E-03    -16.4774E-03     22.6425E-03
            1227     4.42660E-03     107.370E-03    -57.5765E+06    -32.7022E+06    -49.5947E+06    -8.71450E+06    -16.6512E-03     33.0263E-03    -16.3751E-03     28.8253E-03    -16.8203E-03     33.0186E-03    -16.4922E-03     28.7113E-03
            1228     5.31180E-03     107.395E-03    -50.1801E+06    -32.2699E+06    -39.5328E+06    -10.5601E+06    -17.0109E-03     33.4644E-03    -16.4534E-03     35.1832E-03    -17.1588E-03     33.4341E-03    -16.5315E-03     35.0443E-03
            1229     6.19659E-03     107.425E-03    -42.0366E+06    -29.9775E+06    -28.2882E+06    -11.7874E+06    -17.5445E-03     34.1114E-03    -16.5670E-03     41.7935E-03    -17.6722E-03     34.0655E-03    -16.6040E-03     41.6369E-03
            1230     7.08106E-03     107.461E-03    -33.5306E+06    -23.8894E+06    -17.4507E+06    -12.8543E+06    -18.2759E-03     34.9892E-03    -16.7132E-03     48.6635E-03    -18.3875E-03     34.9475E-03    -16.7172E-03     48.4901E-03
            1231     7.96484E-03     107.502E-03    -26.0799E+06    -18.2379E+06    -7.93702E+06    -13.5490E+06    -19.2556E-03     36.1596E-03    -16.9040E-03     55.7829E-03    -19.3552E-03     36.1248E-03    -16.8794E-03     55.5960E-03
            1232     8.84791E-03     107.550E-03    -21.1049E+06    -13.6840E+06     160.431E+03    -13.6126E+06    -20.5400E-03     37.6920E-03    -17.1520E-03     63.1177E-03    -20.6384E-03     37.6664E-03    -17.1007E-03     62.9233E-03
            1233     9.72980E-03     107.604E-03    -18.3810E+06    -10.9141E+06     6.20838E+06    -14.2127E+06    -22.1969E-03     39.6638E-03    -17.4670E-03     70.6048E-03    -22.3032E-03     39.6482E-03    -17.3935E-03     70.3926E-03
            1234     10.6104E-03     107.665E-03    -16.0669E+06    -8.35767E+06     10.3666E+06    -16.2456E+06    -24.2852E-03     42.1434E-03    -17.8582E-03     78.0251E-03    -24.4035E-03     42.1451E-03    -17.7710E-03     77.7720E-03
            1235     11.4891E-03     107.732E-03    -14.3703E+06    -9.07822E+06     12.0919E+06    -19.0322E+06    -26.8813E-03     45.2241E-03    -18.3428E-03     84.9236E-03    -27.0141E-03     45.2388E-03    -18.2484E-03     84.6133E-03
            1236     12.3655E-03     107.806E-03    -13.6535E+06    -6.62485E+06     13.0918E+06    -20.8972E+06    -30.0237E-03     48.9608E-03    -18.9371E-03     90.9883E-03    -30.1907E-03     49.0180E-03    -18.8423E-03     90.6236E-03
            1237     13.2391E-03     107.884E-03    -12.8874E+06    -15.3604E+06     10.4040E+06    -24.3420E+06    -33.8682E-03     53.5331E-03    -19.6649E-03     96.1059E-03    -34.0666E-03     53.6014E-03    -19.5719E-03     95.6515E-03
            1238     14.1091E-03     107.968E-03    -11.3622E+06    -14.8184E+06     7.04008E+06    -25.8575E+06    -38.1391E-03     58.6640E-03    -20.5249E-03     98.5420E-03    -38.3972E-03     58.8092E-03    -20.4517E-03     98.0084E-03
            1239     14.9756E-03     108.053E-03     -9.5084E+06    -886.548E+03     12.2495E+06    -19.7962E+06    -42.2169E-03     63.7724E-03    -21.5555E-03     91.6054E-03    -42.5352E-03     64.0189E-03    -21.4792E-03     91.1013E-03
            1240     15.8378E-03     108.127E-03    -6.96886E+06     29.0408E+06     21.1674E+06    -12.2911E+06    -45.9131E-03     68.6213E-03    -22.7082E-03     76.8102E-03    -46.2675E-03     68.9932E-03    -22.6343E-03     76.3758E-03
            1241     16.6970E-03     108.188E-03    -2.60652E+06     58.4078E+06     45.0547E+06    -5.74230E+06    -48.7683E-03     72.7890E-03    -24.0207E-03     49.0335E-03    -49.0861E-03     73.1747E-03    -23.8763E-03     48.7099E-03
            1242     886.189E-06     108.297E-03    -67.9372E+06    -39.8395E+06    -67.0805E+06    -3.04271E+06    -15.4404E-03     30.8900E-03    -15.4496E-03     5.84887E-03    -15.6251E-03     30.8866E-03    -15.6287E-03     5.80938E-03
            1243     1.77218E-03     108.303E-03    -65.4427E+06    -37.9568E+06    -62.5909E+06    -5.73014E+06    -15.4599E-03     30.9166E-03    -15.4568E-03     10.8232E-03    -15.6414E-03     30.9125E-03    -15.6198E-03     10.7489E-03
            1244     2.65840E-03     108.314E-03    -62.2403E+06    -34.2768E+06    -58.4279E+06    -8.26499E+06    -15.4840E-03     30.9461E-03    -15.4621E-03     16.2254E-03    -15.6610E-03     30.9498E-03    -15.6143E-03     16.1181E-03
            1245     3.54450E-03     108.329E-03    -58.2926E+06    -29.8180E+06    -53.4958E+06    -10.6001E+06    -15.5697E-03     31.0419E-03    -15.4722E-03     21.9204E-03    -15.7406E-03     31.0551E-03    -15.6119E-03     21.7827E-03
            1246     4.43069E-03     108.350E-03    -54.0159E+06    -27.4303E+06    -46.8221E+06    -13.1949E+06    -15.7928E-03     31.3032E-03    -15.5104E-03     27.9414E-03    -15.9557E-03     31.3127E-03    -15.6264E-03     27.7696E-03
            1247     5.31651E-03     108.374E-03    -49.0257E+06    -27.7182E+06    -39.1141E+06    -16.0461E+06    -16.1881E-03     31.7746E-03    -15.5865E-03     34.3180E-03    -16.3372E-03     31.7647E-03    -15.6708E-03     34.1086E-03
            1248     6.20214E-03     108.405E-03    -42.5689E+06    -25.9904E+06    -31.2101E+06    -18.4938E+06    -16.7654E-03     32.4621E-03    -15.6968E-03     41.0662E-03    -16.8970E-03     32.4409E-03    -15.7534E-03     40.8237E-03
            1249     7.08714E-03     108.441E-03    -35.2715E+06    -21.0340E+06    -22.8624E+06    -19.7893E+06    -17.5561E-03     33.4040E-03    -15.8479E-03     48.1767E-03    -17.6721E-03     33.3864E-03    -15.8806E-03     47.9151E-03
            1250     7.97164E-03     108.484E-03    -28.1069E+06    -17.2931E+06    -13.0266E+06    -19.0614E+06    -18.6082E-03     34.6691E-03    -16.0608E-03     55.5904E-03    -18.7109E-03     34.6484E-03    -16.0601E-03     55.3343E-03
            1251     8.85518E-03     108.533E-03    -21.6690E+06    -13.8536E+06    -2.35794E+06    -16.6856E+06    -19.9662E-03     36.3073E-03    -16.3411E-03     63.2879E-03    -20.0620E-03     36.2838E-03    -16.3014E-03     63.0564E-03
            1252     9.73768E-03     108.589E-03    -16.3814E+06    -8.68591E+06     6.99848E+06    -15.3010E+06    -21.6885E-03     38.3745E-03    -16.6860E-03     71.2747E-03    -21.7869E-03     38.3637E-03    -16.6147E-03     71.0520E-03
            1253     10.6186E-03     108.652E-03    -13.1751E+06    -4.42106E+06     13.1767E+06    -16.1365E+06    -23.8504E-03     40.9546E-03    -17.1042E-03     79.3677E-03    -23.9609E-03     40.9645E-03    -17.0128E-03     79.1207E-03
            1254     11.4978E-03     108.723E-03    -11.4439E+06    -4.79588E+06     16.2313E+06    -17.7939E+06    -26.5571E-03     44.1735E-03    -17.6164E-03     87.1427E-03    -26.6832E-03     44.1950E-03    -17.5117E-03     86.8541E-03
            1255     12.3746E-03     108.800E-03    -10.1602E+06    -3.51227E+06     18.0285E+06    -19.3089E+06    -29.9120E-03     48.1536E-03    -18.2416E-03     94.2984E-03    -30.0680E-03     48.2090E-03    -18.1317E-03     93.9605E-03
            1256     13.2483E-03     108.883E-03    -10.0399E+06    -7.59027E+06     17.4497E+06    -22.2466E+06    -34.0836E-03     53.0936E-03    -19.0100E-03     100.761E-03    -34.2839E-03     53.1811E-03    -18.8972E-03     100.339E-03
            1257     14.1183E-03     108.972E-03    -10.5601E+06    -13.2506E+06     12.3310E+06    -25.3003E+06    -38.9972E-03     58.9271E-03    -19.9299E-03     104.461E-03    -39.2602E-03     59.0704E-03    -19.8338E-03     103.934E-03
            1258     14.9834E-03     109.063E-03    -8.49841E+06    -10.1216E+06     13.4508E+06    -21.7293E+06    -44.0033E-03     65.0511E-03    -21.0479E-03     98.3258E-03    -44.3177E-03     65.2612E-03    -20.9536E-03     97.7781E-03
            1259     15.8444E-03     109.143E-03    -5.56442E+06     21.9647E+06     22.6514E+06    -13.3552E+06    -48.5710E-03     70.9012E-03    -22.3301E-03     83.4579E-03    -48.9323E-03     71.2558E-03    -22.2407E-03     82.9754E-03
            1260     16.7007E-03     109.209E-03    -4.44265E+06     51.1652E+06     44.7262E+06    -6.39782E+06    -52.3462E-03     76.1535E-03    -23.8073E-03     54.4731E-03    -52.6784E-03     76.5226E-03    -23.6515E-03     54.1030E-03
            1261     886.552E-06     109.274E-03    -50.4709E+06    -33.2140E+06    -49.7627E+06    -3.60701E+06    -14.9375E-03     29.8832E-03    -14.9457E-03     5.49472E-03    -15.0696E-03     29.8625E-03    -15.0731E-03     5.44784E-03
            1262     1.77332E-03     109.281E-03    -49.2039E+06    -31.1344E+06    -46.7788E+06    -6.72906E+06    -14.9622E-03     29.9120E-03    -14.9498E-03     10.1677E-03    -15.0953E-03     29.8955E-03    -15.0672E-03     10.0803E-03
            1263     2.65988E-03     109.291E-03    -46.7800E+06    -27.9063E+06    -41.6010E+06    -9.97026E+06    -15.0171E-03     29.9881E-03    -14.9710E-03     15.2270E-03    -15.1504E-03     29.9769E-03    -15.0707E-03     15.0974E-03
            1264     3.54658E-03     109.307E-03    -43.6802E+06    -23.9692E+06    -35.7166E+06    -12.7732E+06    -15.1169E-03     30.1179E-03    -15.0010E-03     20.5693E-03    -15.2491E-03     30.1135E-03    -15.0814E-03     20.4031E-03
            1265     4.43309E-03     109.327E-03    -40.3529E+06    -21.6113E+06    -29.7586E+06    -15.1055E+06    -15.3083E-03     30.3538E-03    -15.0455E-03     26.2820E-03    -15.4361E-03     30.3479E-03    -15.1044E-03     26.0852E-03
            1266     5.31957E-03     109.353E-03    -37.5097E+06    -21.0632E+06    -25.0493E+06    -18.0510E+06    -15.6412E-03     30.7497E-03    -15.1085E-03     32.4603E-03    -15.7629E-03     30.7361E-03    -15.1488E-03     32.2247E-03
            1267     6.20563E-03     109.384E-03    -35.3548E+06    -20.1594E+06    -22.2939E+06    -21.3608E+06    -16.1501E-03     31.3434E-03    -15.1933E-03     39.1683E-03    -16.2670E-03     31.3278E-03    -15.2242E-03     38.8890E-03
            1268     7.09141E-03     109.421E-03    -33.0335E+06    -17.1699E+06    -19.0443E+06    -23.4112E+06    -16.8975E-03     32.2161E-03    -15.3186E-03     46.4059E-03    -17.0131E-03     32.2087E-03    -15.3411E-03     46.0982E-03
            1269     7.97638E-03     109.464E-03    -29.4156E+06    -16.4831E+06    -13.0087E+06    -23.5322E+06    -17.9522E-03     33.4651E-03    -15.5130E-03     54.0879E-03    -18.0617E-03     33.4495E-03    -15.5115E-03     53.7756E-03
            1270     8.86052E-03     109.515E-03    -23.2277E+06    -14.4366E+06    -4.34470E+06    -22.2523E+06    -19.3272E-03     35.1060E-03    -15.7789E-03     62.1944E-03    -19.4254E-03     35.0831E-03    -15.7460E-03     61.8935E-03
            1271     9.74345E-03     109.573E-03    -15.5118E+06    -8.99923E+06     5.86971E+06    -19.8461E+06    -21.0534E-03     37.1714E-03    -16.1180E-03     70.6841E-03    -21.1426E-03     37.1565E-03    -16.0531E-03     70.4066E-03
            1272     10.6251E-03     109.638E-03    -9.98692E+06    -3.95140E+06     15.1859E+06    -16.4398E+06    -23.2146E-03     39.7544E-03    -16.5398E-03     79.4007E-03    -23.3082E-03     39.7545E-03    -16.4436E-03     79.1552E-03
            1273     11.5048E-03     109.711E-03    -8.45356E+06    -1.00795E+06     20.9795E+06    -15.8399E+06    -25.9466E-03     42.9997E-03    -17.0531E-03     88.0799E-03    -26.0633E-03     43.0221E-03    -16.9344E-03     87.8241E-03
            1274     12.3822E-03     109.792E-03    -8.49531E+06    -510.259E+03     23.5161E+06    -17.3768E+06    -29.4213E-03     47.1010E-03    -17.6797E-03     96.4400E-03    -29.5720E-03     47.1518E-03    -17.5491E-03     96.1365E-03
            1275     13.2565E-03     109.880E-03    -8.40645E+06    -1.54151E+06     24.3623E+06    -19.3737E+06    -33.7490E-03     52.1996E-03    -18.4506E-03     104.402E-03    -33.9479E-03     52.2928E-03    -18.3143E-03     104.029E-03
            1276     14.1267E-03     109.976E-03    -7.42349E+06    -6.65214E+06     21.2000E+06    -23.9665E+06    -39.0561E-03     58.4436E-03    -19.3875E-03     110.062E-03    -39.3139E-03     58.5905E-03    -19.2611E-03     109.561E-03
            1277     14.9923E-03     110.074E-03    -6.29265E+06    -18.3449E+06     15.5172E+06    -22.7970E+06    -45.2196E-03     65.7610E-03    -20.5414E-03     105.688E-03    -45.5188E-03     65.9286E-03    -20.4281E-03     105.116E-03
            1278     15.8513E-03     110.161E-03    -5.45123E+06     12.0991E+06     23.3185E+06    -13.3972E+06    -51.3607E-03     73.2980E-03    -21.9373E-03     90.8664E-03    -51.7335E-03     73.6278E-03    -21.8303E-03     90.3430E-03
            1279     16.7054E-03     110.234E-03    -2.38229E+06     45.5932E+06     47.1393E+06    -6.31028E+06    -56.1563E-03     79.7460E-03    -23.5896E-03     60.5148E-03    -56.4947E-03     80.1020E-03    -23.4166E-03     60.1002E-03
            1280     886.862E-06     110.251E-03    -31.1158E+06    -25.7995E+06     -30.601E+06    -3.76530E+06    -14.8883E-03     29.7724E-03    -14.8841E-03     4.96634E-03    -14.9622E-03     29.7329E-03    -14.9545E-03     4.91722E-03
            1281     1.77351E-03     110.257E-03    -29.8600E+06    -23.6670E+06    -27.2218E+06    -7.07132E+06    -14.9537E-03     29.8604E-03    -14.9067E-03     9.19358E-03    -15.0294E-03     29.8250E-03    -14.9652E-03     9.10133E-03
            1282     2.66032E-03     110.268E-03    -28.2635E+06    -20.7916E+06    -21.9091E+06    -10.1841E+06    -15.0660E-03     30.0206E-03    -14.9545E-03     13.7530E-03    -15.1457E-03     29.9896E-03    -14.9930E-03     13.6200E-03
            1283     3.54685E-03     110.284E-03    -26.6044E+06    -17.9364E+06    -16.6531E+06    -12.6956E+06    -15.2157E-03     30.2296E-03    -15.0139E-03     18.5608E-03    -15.2991E-03     30.2032E-03    -15.0326E-03     18.3948E-03
            1284     4.43341E-03     110.304E-03    -25.1041E+06    -15.8743E+06    -12.7610E+06    -14.8676E+06    -15.3834E-03     30.4585E-03    -15.0751E-03     23.7328E-03    -15.4682E-03     30.4348E-03    -15.0795E-03     23.5381E-03
            1285     5.31981E-03     110.330E-03    -23.6816E+06    -14.4488E+06    -9.10086E+06    -17.2464E+06    -15.6109E-03     30.7534E-03    -15.1425E-03     29.3818E-03    -15.6964E-03     30.7300E-03    -15.1327E-03     29.1557E-03
            1286     6.20619E-03     110.361E-03    -22.6717E+06    -13.6223E+06    -5.46662E+06    -19.9160E+06    -15.9792E-03     31.2048E-03    -15.2256E-03     35.6257E-03    -16.0668E-03     31.1794E-03    -15.2003E-03     35.3642E-03
            1287     7.09210E-03     110.399E-03    -22.4393E+06    -12.6140E+06    -3.08216E+06    -21.9879E+06    -16.5465E-03     31.8763E-03    -15.3298E-03     42.5932E-03    -16.6389E-03     31.8532E-03    -15.2944E-03     42.3035E-03
            1288     7.97762E-03     110.444E-03    -22.0913E+06    -12.8535E+06    -1.33425E+06    -23.7429E+06    -17.3977E-03     32.8700E-03    -15.4723E-03     50.3102E-03    -17.4922E-03     32.8443E-03    -15.4283E-03     49.9957E-03
            1289     8.86224E-03     110.495E-03    -20.5410E+06    -12.3039E+06     1.08220E+06    -25.3683E+06    -18.6136E-03     34.2838E-03    -15.6702E-03     58.7530E-03    -18.7076E-03     34.2581E-03    -15.6172E-03     58.4139E-03
            1290     9.74589E-03     110.555E-03    -17.2943E+06    -10.4823E+06     6.01355E+06    -24.3131E+06    -20.2408E-03     36.1871E-03    -15.9464E-03     67.7733E-03    -20.3336E-03     36.1639E-03    -15.8760E-03     67.4419E-03
            1291     10.6280E-03     110.623E-03    -11.3678E+06    -7.28024E+06     14.2534E+06    -20.3721E+06    -22.3406E-03     38.6577E-03    -16.3171E-03     77.1663E-03    -22.4292E-03     38.6388E-03    -16.2188E-03     76.8763E-03
            1292     11.5086E-03     110.699E-03    -5.20670E+06    -1.01844E+06     23.9179E+06    -15.5282E+06    -25.0465E-03     41.8381E-03    -16.7916E-03     86.7277E-03    -25.1423E-03     41.8425E-03    -16.6630E-03     86.4851E-03
            1293     12.3868E-03     110.783E-03    -3.79776E+06     1.67950E+06     30.1678E+06    -13.3110E+06    -28.4926E-03     45.8783E-03    -17.3858E-03     96.2451E-03    -28.6191E-03     45.9100E-03    -17.2319E-03     96.0069E-03
            1294     13.2619E-03     110.877E-03    -5.95368E+06     3.83559E+06     32.1104E+06    -15.0221E+06    -32.7670E-03     50.8811E-03    -18.1141E-03     105.727E-03    -32.9526E-03     50.9664E-03    -17.9505E-03     105.427E-03
            1295     14.1334E-03     110.977E-03    -8.20171E+06     4.37881E+06     31.1287E+06    -21.5887E+06    -38.1311E-03     57.1430E-03    -19.0119E-03     113.627E-03    -38.3971E-03     57.3057E-03    -18.8507E-03     113.180E-03
            1296     14.9996E-03     111.084E-03    -6.66749E+06    -24.0521E+06     19.3144E+06    -24.0150E+06    -45.2341E-03     65.3706E-03    -20.1365E-03     112.669E-03    -45.5187E-03     65.4911E-03    -19.9954E-03     112.093E-03
            1297     15.8582E-03     111.181E-03    -2.07101E+06    -908.317E+03     22.0639E+06    -14.6741E+06    -53.5285E-03     75.0963E-03    -21.5679E-03     99.9069E-03    -53.8869E-03     75.3817E-03    -21.4532E-03     99.3304E-03
            1298     16.7084E-03     111.263E-03    -789.534E+03     39.8771E+06     46.8926E+06    -5.44503E+06    -59.8963E-03     83.2631E-03    -23.3668E-03     67.3679E-03    -60.2467E-03     83.6174E-03    -23.1890E-03     66.9097E-03
            1299     886.321E-06     111.228E-03    -12.7790E+06    -18.1185E+06    -11.6805E+06    -4.00981E+06    -15.4976E-03     30.9649E-03    -15.4673E-03     4.22813E-03    -15.5183E-03     30.9098E-03    -15.4809E-03     4.17558E-03
            1300     1.77275E-03     111.235E-03    -11.9220E+06    -16.5563E+06    -8.44733E+06    -6.64042E+06    -15.6142E-03     31.1358E-03    -15.5216E-03     7.81846E-03    -15.6378E-03     31.0827E-03    -15.5226E-03     7.73125E-03
            1301     2.65883E-03     111.246E-03    -11.0689E+06    -14.3507E+06    -4.85934E+06    -9.08230E+06    -15.7850E-03     31.3788E-03    -15.5938E-03     11.6975E-03    -15.8129E-03     31.3304E-03    -15.5812E-03     11.5779E-03
            1302     3.54493E-03     111.261E-03    -10.0995E+06    -12.2010E+06    -1.11532E+06    -11.2932E+06    -15.9872E-03     31.6673E-03    -15.6801E-03     15.7762E-03    -16.0191E-03     31.6232E-03    -15.6534E-03     15.6272E-03
            1303     4.43074E-03     111.282E-03    -8.92650E+06    -10.5338E+06     2.97419E+06    -13.2695E+06    -16.1950E-03     31.9709E-03    -15.7759E-03     20.1494E-03    -16.2298E-03     31.9278E-03    -15.7328E-03     19.9739E-03
            1304     5.31652E-03     111.308E-03     -8.1347E+06    -9.03793E+06     6.98124E+06    -15.0843E+06    -16.3944E-03     32.2677E-03    -15.8733E-03     24.9531E-03    -16.4338E-03     32.2257E-03    -15.8135E-03     24.7532E-03
            1305     6.20208E-03     111.339E-03    -8.20019E+06    -8.41556E+06     10.4277E+06    -16.6159E+06    -16.6136E-03     32.5834E-03    -15.9698E-03     30.3325E-03    -16.6598E-03     32.5403E-03    -15.8936E-03     30.1117E-03
            1306     7.08764E-03     111.378E-03    -8.77354E+06    -7.97788E+06     12.8267E+06    -18.1183E+06    -16.9035E-03     32.9678E-03    -16.0644E-03     36.4797E-03    -16.9576E-03     32.9252E-03    -15.9759E-03     36.2383E-03
            1307     7.97294E-03     111.422E-03    -9.87367E+06    -7.84447E+06     14.1508E+06    -19.8977E+06    -17.3603E-03     33.5257E-03    -16.1654E-03     43.5643E-03    -17.4233E-03     33.4847E-03    -16.0690E-03     43.2986E-03
            1308     8.85796E-03     111.476E-03    -12.0998E+06    -7.75881E+06     14.5748E+06    -21.7578E+06    -18.1296E-03     34.4199E-03    -16.2903E-03     51.6808E-03    -18.2064E-03     34.3840E-03    -16.1887E-03     51.3889E-03
            1309     9.74212E-03     111.536E-03    -13.9800E+06    -9.21727E+06     14.4898E+06    -23.1716E+06    -19.3581E-03     35.8211E-03    -16.4630E-03     60.8331E-03    -19.4454E-03     35.7841E-03    -16.3569E-03     60.5193E-03
            1310     10.6252E-03     111.606E-03    -13.5898E+06    -8.67239E+06     16.8412E+06    -23.0772E+06    -21.1756E-03     37.8903E-03    -16.7147E-03     70.8786E-03    -21.2710E-03     37.8580E-03    -16.5983E-03     70.5596E-03
            1311     11.5064E-03     111.685E-03    -9.48732E+06    -6.01442E+06     23.7669E+06    -19.5414E+06    -23.7026E-03     40.7829E-03    -17.0803E-03     81.4793E-03    -23.8017E-03     40.7582E-03    -16.9390E-03     81.1949E-03
            1312     12.3856E-03     111.773E-03    -2.43868E+06    -293.460E+03     33.9028E+06    -13.6689E+06    -27.0171E-03     44.5959E-03    -17.5787E-03     92.1671E-03    -27.1224E-03     44.5933E-03    -17.4052E-03     91.9396E-03
            1313     13.2621E-03     111.870E-03     1.84537E+06     6.36348E+06     41.2365E+06    -10.3817E+06    -31.1401E-03     49.3552E-03    -18.2151E-03     102.921E-03    -31.2770E-03     49.4020E-03    -18.0208E-03     102.704E-03
            1314     14.1349E-03     111.977E-03    -2.53293E+06     13.8499E+06     43.3849E+06    -11.0336E+06    -36.1583E-03     55.1686E-03    -19.0103E-03     112.930E-03    -36.3872E-03     55.3124E-03    -18.8098E-03     112.652E-03
            1315     15.0033E-03     112.091E-03    -9.92918E+06    -14.1241E+06     30.8820E+06    -21.5696E+06    -43.1288E-03     63.1499E-03    -20.0211E-03     116.966E-03    -43.4174E-03     63.2646E-03    -19.8318E-03     116.464E-03
            1316     15.8636E-03     112.202E-03    -6.52906E+06    -16.3269E+06     21.3009E+06    -22.8605E+06    -53.1775E-03     74.5248E-03    -21.3473E-03     110.168E-03    -53.5335E-03     74.7398E-03    -21.2077E-03     109.489E-03
            1317     16.7134E-03     112.297E-03     1.63767E+06     24.2032E+06     43.5203E+06    -5.29846E+06    -62.6899E-03     85.8599E-03    -23.1700E-03     76.3212E-03    -63.0279E-03     86.1652E-03    -22.9899E-03     75.8149E-03
            1318     885.234E-06     112.207E-03     3.41944E+06    -11.0473E+06     4.80220E+06    -3.28782E+06    -16.9935E-03     33.9438E-03    -16.9503E-03     3.25708E-03    -16.9676E-03     33.8765E-03    -16.9152E-03     3.21349E-03
            1319     1.77018E-03     112.214E-03     3.57312E+06    -10.6031E+06     6.57782E+06    -5.41584E+06    -17.1510E-03     34.1722E-03    -17.0212E-03     6.03625E-03    -17.1277E-03     34.1045E-03    -16.9781E-03     5.96418E-03
            1320     2.65514E-03     112.225E-03     3.93911E+06    -8.73611E+06     9.07172E+06    -7.57174E+06    -17.3749E-03     34.4905E-03    -17.1156E-03     9.00396E-03    -17.3562E-03     34.4281E-03    -17.0633E-03     8.90290E-03
            1321     3.53974E-03     112.241E-03     4.36198E+06    -7.20670E+06     12.5057E+06    -9.47651E+06    -17.6308E-03     34.8645E-03    -17.2337E-03     12.1176E-03    -17.6175E-03     34.8045E-03    -17.1671E-03     11.9906E-03
            1322     4.42420E-03     112.262E-03     4.48809E+06    -5.99848E+06     16.3120E+06    -10.9733E+06    -17.8941E-03     35.2599E-03    -17.3658E-03     15.4729E-03    -17.8880E-03     35.2007E-03    -17.2820E-03     15.3252E-03
            1323     5.30832E-03     112.288E-03     4.26073E+06    -5.17429E+06     19.5722E+06    -11.9219E+06    -18.1225E-03     35.6218E-03    -17.4993E-03     19.2012E-03    -18.1240E-03     35.5628E-03    -17.4001E-03     19.0400E-03
            1324     6.19238E-03     112.320E-03     3.84773E+06    -4.64050E+06     22.3288E+06    -12.7625E+06    -18.2827E-03     35.9073E-03    -17.6246E-03     23.4342E-03    -18.2916E-03     35.8482E-03    -17.5118E-03     23.2607E-03
            1325     7.07631E-03     112.358E-03     3.09712E+06    -4.26853E+06     24.9343E+06    -13.6806E+06    -18.3932E-03     36.1304E-03    -17.7371E-03     28.3037E-03    -18.4111E-03     36.0713E-03    -17.6108E-03     28.1171E-03
            1326     7.96033E-03     112.403E-03     1.59656E+06    -4.10568E+06     27.1005E+06    -14.3791E+06    -18.5085E-03     36.3445E-03    -17.8360E-03     33.9930E-03    -18.5383E-03     36.2864E-03    -17.6969E-03     33.7961E-03
            1327     8.84429E-03     112.456E-03    -533.934E+03    -3.94026E+06     28.4683E+06    -15.0671E+06    -18.7276E-03     36.6530E-03    -17.9254E-03     40.7151E-03    -18.7717E-03     36.5982E-03    -17.7766E-03     40.5079E-03
            1328     9.72828E-03     112.518E-03    -3.56385E+06    -4.77383E+06     28.6228E+06    -16.7278E+06    -19.2338E-03     37.2538E-03    -18.0200E-03     48.6782E-03    -19.2941E-03     37.2012E-03    -17.8648E-03     48.4476E-03
            1329     10.6117E-03     112.588E-03    -7.00045E+06    -6.49020E+06     28.1857E+06    -18.4629E+06    -20.2394E-03     38.3859E-03    -18.1465E-03     58.0984E-03    -20.3169E-03     38.3336E-03    -17.9860E-03     57.8420E-03
            1330     11.4942E-03     112.669E-03    -9.23859E+06    -7.27984E+06     29.3749E+06    -19.1759E+06    -21.9842E-03     40.3266E-03    -18.3424E-03     68.9895E-03    -22.0790E-03     40.2777E-03    -18.1716E-03     68.7179E-03
            1331     12.3747E-03     112.760E-03    -7.42753E+06    -4.51972E+06     34.2773E+06    -17.9384E+06    -24.6767E-03     43.3241E-03    -18.6473E-03     80.9188E-03    -24.7842E-03     43.2900E-03    -18.4586E-03     80.6518E-03
            1332     13.2523E-03     112.862E-03    -1.44232E+06     1.98795E+06     42.7005E+06    -12.3987E+06    -28.3825E-03     47.4780E-03    -19.0955E-03     93.3739E-03    -28.5018E-03     47.4759E-03    -18.8828E-03     93.1573E-03
            1333     14.1272E-03     112.973E-03     4.63852E+06     11.5293E+06     52.6981E+06    -4.36708E+06    -32.9956E-03     52.7084E-03    -19.7128E-03     105.250E-03    -33.1500E-03     52.7679E-03    -19.4727E-03     105.099E-03
            1334     14.9984E-03     113.094E-03     1.69261E+06     7.11495E+06     51.7914E+06    -7.25593E+06    -38.7994E-03     59.3094E-03    -20.5100E-03     113.132E-03    -39.0205E-03     59.4125E-03    -20.2638E-03     112.882E-03
            1335     15.8641E-03     113.216E-03    -9.96640E+06    -15.9829E+06     26.0790E+06    -19.2306E+06    -48.2438E-03     69.7773E-03    -21.5335E-03     115.324E-03    -48.5670E-03     69.9347E-03    -21.3655E-03     114.771E-03
            1336     16.7165E-03     113.333E-03    -12.1193E+06     575.348E+03     28.7653E+06    -12.5617E+06    -61.4572E-03     84.5774E-03    -23.1201E-03     87.4431E-03    -61.8058E-03     84.8047E-03    -22.9596E-03     86.8526E-03
            1337     882.883E-06     113.190E-03     15.3786E+06    -5.76333E+06     16.5253E+06    -1.98978E+06    -19.6724E-03     39.1722E-03    -19.4999E-03     2.15323E-03    -19.6115E-03     39.0967E-03    -19.4312E-03     2.12611E-03
            1338     1.76581E-03     113.197E-03     15.3002E+06    -5.60275E+06     17.6653E+06    -4.02076E+06    -19.8176E-03     39.4665E-03    -19.6489E-03     3.79074E-03    -19.7592E-03     39.3904E-03    -19.5746E-03     3.73610E-03
            1339     2.64831E-03     113.208E-03     15.2068E+06    -4.20273E+06     20.1982E+06    -5.78192E+06    -20.0564E-03     39.8263E-03    -19.7698E-03     5.59637E-03    -20.0044E-03     39.7537E-03    -19.6848E-03     5.51755E-03
            1340     3.53065E-03     113.225E-03     14.9123E+06    -3.36851E+06     23.3663E+06    -6.98306E+06    -20.3412E-03     40.2544E-03    -19.9132E-03     7.55522E-03    -20.2966E-03     40.1821E-03    -19.8131E-03     7.45934E-03
            1341     4.41259E-03     113.246E-03     14.3718E+06    -2.83309E+06     26.3368E+06    -7.69126E+06    -20.6457E-03     40.7179E-03    -20.0723E-03     9.71953E-03    -20.6092E-03     40.6451E-03    -19.9573E-03     9.61289E-03
            1342     5.29432E-03     113.272E-03     13.7375E+06    -2.44127E+06     29.2059E+06     -8.2696E+06    -20.9305E-03     41.1712E-03    -20.2407E-03     12.1564E-03    -20.9024E-03     41.0974E-03    -20.1110E-03     12.0406E-03
            1343     6.17571E-03     113.304E-03     12.9805E+06    -2.07826E+06     32.0571E+06    -8.71195E+06    -21.1565E-03     41.5669E-03    -20.4104E-03     14.9508E-03    -21.1374E-03     41.4925E-03    -20.2659E-03     14.8276E-03
            1344     7.05698E-03     113.342E-03     11.8714E+06    -1.90911E+06     34.8399E+06    -8.94155E+06    -21.2944E-03     41.8678E-03    -20.5735E-03     18.1931E-03    -21.2858E-03     41.7924E-03    -20.4137E-03     18.0653E-03
            1345     7.93809E-03     113.387E-03     10.7298E+06    -2.00463E+06     37.3449E+06    -9.11547E+06    -21.3325E-03     42.0540E-03    -20.7214E-03     21.9945E-03    -21.3341E-03     41.9769E-03    -20.5473E-03     21.8628E-03
            1346     8.81930E-03     113.440E-03     9.56834E+06    -1.77848E+06     39.6713E+06    -9.26258E+06    -21.2848E-03     42.1343E-03    -20.8495E-03     26.5048E-03    -21.2970E-03     42.0577E-03    -20.6624E-03     26.3696E-03
            1347     9.70056E-03     113.501E-03     7.88184E+06    -1.53881E+06     41.6246E+06    -9.43590E+06    -21.2062E-03     42.1637E-03    -20.9575E-03     31.9346E-03    -21.2313E-03     42.0892E-03    -20.7586E-03     31.7954E-03
            1348     10.5821E-03     113.572E-03     5.30363E+06    -2.75905E+06     42.3029E+06    -10.6471E+06    -21.2179E-03     42.2672E-03    -21.0493E-03     38.6162E-03    -21.2570E-03     42.1913E-03    -20.8415E-03     38.4595E-03
            1349     11.4638E-03     113.653E-03     2.37831E+06    -4.57317E+06     42.0291E+06    -12.2513E+06    -21.5016E-03     42.6386E-03    -21.1370E-03     47.0013E-03    -21.5548E-03     42.5611E-03    -20.9236E-03     46.8213E-03
            1350     12.3453E-03     113.746E-03    -1.57619E+06    -3.70912E+06     42.1753E+06    -13.5543E+06    -22.3857E-03     43.6323E-03    -21.2466E-03     57.4521E-03    -22.4644E-03     43.5695E-03    -21.0281E-03     57.2509E-03
            1351     13.2258E-03     113.850E-03    -3.82420E+06    -2.78161E+06     43.9864E+06    -13.2398E+06    -24.4255E-03     45.8510E-03    -21.4256E-03     70.0421E-03    -24.5279E-03     45.8028E-03    -21.1961E-03     69.8355E-03
            1352     14.1032E-03     113.966E-03     491.499E+03     2.50040E+06     50.2961E+06    -8.71688E+06    -27.6643E-03     49.3857E-03    -21.7214E-03     83.5500E-03    -27.7785E-03     49.3659E-03    -21.4743E-03     83.3834E-03
            1353     14.9770E-03     114.092E-03     7.77841E+06     10.6843E+06     56.7584E+06    -984.355E+03    -31.7029E-03     53.8520E-03    -22.1491E-03     94.8498E-03    -31.8302E-03     53.8819E-03    -21.8921E-03     94.7529E-03
            1354     15.8479E-03     114.222E-03     6.74940E+06    -1.69693E+06     44.0343E+06    -1.20861E+06    -37.8949E-03     60.6087E-03    -22.7138E-03     105.410E-03    -38.0613E-03     60.6676E-03    -22.5009E-03     105.233E-03
            1355     16.7135E-03     114.356E-03     2.51910E+06    -4.03224E+06     28.5473E+06    -8.98134E+06    -50.3500E-03     74.0011E-03    -23.6511E-03     94.7457E-03    -50.5527E-03     74.1198E-03    -23.5062E-03     94.3322E-03
            1356     879.638E-06     114.179E-03     23.4907E+06    -2.35641E+06     24.0456E+06    -1.25921E+06    -23.6016E-03     47.2680E-03    -23.6663E-03     464.749E-06    -23.5166E-03     47.1863E-03    -23.5767E-03     447.176E-06
            1357     1.75877E-03     114.186E-03     23.1806E+06    -1.95758E+06     25.7066E+06    -2.43302E+06    -23.8077E-03     47.5039E-03    -23.6962E-03     896.534E-06    -23.7273E-03     47.4223E-03    -23.5984E-03     862.666E-06
            1358     2.63790E-03     114.198E-03     22.4491E+06    -1.29419E+06     27.8999E+06    -3.24393E+06    -24.0222E-03     47.8311E-03    -23.8089E-03     1.42947E-03    -23.9496E-03     47.7508E-03    -23.7001E-03     1.38390E-03
            1359     3.51667E-03     114.215E-03     21.4651E+06    -1.09299E+06     30.3593E+06    -3.65902E+06    -24.3298E-03     48.2854E-03    -23.9555E-03     2.04965E-03    -24.2661E-03     48.2040E-03    -23.8333E-03     1.99744E-03
            1360     4.39515E-03     114.237E-03     20.4691E+06    -952.316E+03     33.1220E+06    -3.94862E+06    -24.7015E-03     48.8386E-03    -24.1372E-03     2.75861E-03    -24.6471E-03     48.7554E-03    -23.9998E-03     2.70129E-03
            1361     5.27316E-03     114.263E-03     19.4323E+06    -700.344E+03     36.1827E+06    -4.14155E+06    -25.1094E-03     49.4590E-03    -24.3496E-03     3.57894E-03    -25.0652E-03     49.3743E-03    -24.1959E-03     3.51768E-03
            1362     6.15075E-03     114.295E-03     18.3094E+06    -650.326E+03     39.3858E+06    -4.22673E+06    -25.5149E-03     50.1020E-03    -24.5870E-03     4.54660E-03    -25.4814E-03     50.0146E-03    -24.4157E-03     4.48268E-03
            1363     7.02783E-03     114.333E-03     17.3380E+06    -729.465E+03     42.4740E+06    -4.17116E+06    -25.8646E-03     50.7042E-03    -24.8396E-03     5.70953E-03    -25.8407E-03     50.6135E-03    -24.6513E-03     5.64468E-03
            1364     7.90455E-03     114.379E-03     16.4125E+06    -590.893E+03     45.5860E+06    -4.29777E+06    -26.1064E-03     51.2049E-03    -25.0985E-03     7.11742E-03    -26.0924E-03     51.1120E-03    -24.8935E-03     7.04919E-03
            1365     8.78088E-03     114.431E-03     15.4961E+06    -917.316E+03     48.3739E+06    -4.23818E+06    -26.1804E-03     51.5332E-03    -25.3528E-03     8.84020E-03    -26.1752E-03     51.4361E-03    -25.1321E-03     8.77090E-03
            1366     9.65702E-03     114.491E-03     14.8252E+06    -335.611E+03     51.0567E+06    -4.12146E+06    -26.0213E-03     51.6111E-03    -25.5898E-03     10.9886E-03    -26.0249E-03     51.5144E-03    -25.3555E-03     10.9189E-03
            1367     10.5332E-03     114.561E-03     13.8791E+06    -572.728E+03     53.1182E+06    -4.03264E+06    -25.5615E-03     51.3592E-03    -25.7977E-03     13.7234E-03    -25.5735E-03     51.2604E-03    -25.5514E-03     13.6531E-03
            1368     11.4095E-03     114.641E-03     11.6389E+06    -1.66024E+06     53.7638E+06    -4.81857E+06    -24.7157E-03     50.6745E-03    -25.9589E-03     17.3715E-03    -24.7394E-03     50.5735E-03    -25.7045E-03     17.2895E-03
            1369     12.2869E-03     114.731E-03     9.09719E+06    -2.07525E+06     53.4260E+06    -5.17118E+06    -23.6667E-03     49.7296E-03    -26.0629E-03     22.4461E-03    -23.7037E-03     49.6322E-03    -25.8060E-03     22.3579E-03
            1370     13.1654E-03     114.836E-03     6.27002E+06    -1.05663E+06     52.7069E+06    -6.44814E+06    -22.7162E-03     48.8328E-03    -26.1166E-03     29.6675E-03    -22.7700E-03     48.7486E-03    -25.8606E-03     29.5606E-03
            1371     14.0450E-03     114.952E-03     2.18596E+06    -2.22546E+06     48.9773E+06    -6.73580E+06    -21.6899E-03     47.8011E-03    -26.1112E-03     39.0311E-03    -21.7601E-03     47.7275E-03    -25.8662E-03     38.9178E-03
            1372     14.9252E-03     115.081E-03     1.23560E+06     3.79004E+06     47.0767E+06    -4.11622E+06    -21.9234E-03     47.9955E-03    -26.0722E-03     49.9138E-03    -22.0097E-03     47.9639E-03    -25.8441E-03     49.8285E-03
            1373     15.8039E-03     115.215E-03     5.46985E+06     277.764E+03     45.3724E+06     606.797E+03    -24.9531E-03     51.0648E-03    -26.1118E-03     60.0470E-03    -25.0276E-03     51.0286E-03    -25.8932E-03     60.0066E-03
            1374     16.6819E-03     115.356E-03     10.8253E+06    -2.59233E+06     33.0974E+06    -610.366E+03    -23.0475E-03     49.1249E-03    -26.0774E-03     56.9427E-03    -23.0989E-03     49.1196E-03    -25.9238E-03     56.8321E-03
            1375     16.6676E-03     57.1798E-03    -3.64780E+06     111.552E+06     65.4948E+06     6.60574E+03    -25.0510E-03     50.8334E-03    -25.7825E-03     24.6295E-03    -25.4102E-03     51.3858E-03    -25.6114E-03     24.5606E-03
            1376     15.7900E-03     57.1441E-03    -7.02557E+06     106.948E+06     49.0564E+06     17.7988E+03    -25.3421E-03     51.0756E-03    -25.7335E-03     43.6310E-03    -25.7452E-03     51.6912E-03    -25.6331E-03     43.5339E-03
            1377     14.9125E-03     57.0973E-03    -9.71857E+06     89.4887E+06     28.8854E+06     29.8334E+03    -25.7603E-03     51.4436E-03    -25.6833E-03     56.1026E-03    -26.1381E-03     52.0208E-03    -25.6545E-03     55.9846E-03
            1378     14.0350E-03     57.0379E-03    -11.5339E+06     38.4456E+06     10.1533E+06     39.5327E+03    -26.1464E-03     51.8305E-03    -25.6841E-03     61.4553E-03    -26.4253E-03     52.1755E-03    -25.6724E-03     61.3242E-03
            1379     13.1577E-03     56.9809E-03    -12.7287E+06    -8.80846E+06     2.72471E+06     46.9336E+03    -26.2927E-03     52.0222E-03    -25.7295E-03     59.2843E-03    -26.4620E-03     52.1071E-03    -25.6846E-03     59.1600E-03
            1380     12.2804E-03     56.9256E-03    -13.8676E+06    -27.3536E+06     3.61026E+06     52.0091E+03    -26.3190E-03     52.0907E-03    -25.7717E-03     57.4850E-03    -26.4375E-03     52.0524E-03    -25.6939E-03     57.3759E-03
            1381     11.4031E-03     56.8720E-03    -15.2106E+06    -42.1226E+06     3.48608E+06     55.2178E+03    -26.3239E-03     52.1268E-03    -25.8030E-03     55.5644E-03    -26.4063E-03     51.9956E-03    -25.7024E-03     55.4702E-03
            1382     10.5259E-03     56.8204E-03    -16.7914E+06    -52.3128E+06     3.92186E+06     56.1136E+03    -26.2902E-03     52.1208E-03    -25.8305E-03     53.0756E-03    -26.3505E-03     51.9243E-03    -25.7107E-03     52.9954E-03
            1383     9.64862E-03     56.7714E-03    -18.6548E+06    -60.4986E+06     3.37786E+06     57.2268E+03    -26.2354E-03     52.0864E-03    -25.8510E-03     50.0002E-03    -26.2801E-03     51.8403E-03    -25.7193E-03     49.9330E-03
            1384     8.77140E-03     56.7256E-03    -20.8231E+06    -68.2674E+06     2.53643E+06     57.8584E+03    -26.1696E-03     52.0398E-03    -25.8703E-03     46.4801E-03    -26.2033E-03     51.7500E-03    -25.7284E-03     46.4245E-03
            1385     7.89418E-03     56.6834E-03    -23.3128E+06    -74.4994E+06     533.934E+03     54.7620E+03    -26.0971E-03     51.9798E-03    -25.8827E-03     42.6293E-03    -26.1243E-03     51.6583E-03    -25.7382E-03     42.5838E-03
            1386     7.01697E-03     56.6448E-03    -26.0992E+06    -82.5009E+06    -2.65484E+06     49.5151E+03    -26.0334E-03     51.9264E-03    -25.8930E-03     38.4863E-03    -26.0531E-03     51.5682E-03    -25.7488E-03     38.4494E-03
            1387     6.13978E-03     56.6104E-03    -29.1480E+06    -90.1633E+06    -6.93399E+06     43.3878E+03    -25.9748E-03     51.8729E-03    -25.8981E-03     34.1238E-03    -25.9885E-03     51.4831E-03    -25.7598E-03     34.0944E-03
            1388     5.26261E-03     56.5802E-03    -32.4112E+06    -96.9894E+06    -12.2560E+06     34.7589E+03    -25.9222E-03     51.8199E-03    -25.8977E-03     29.5990E-03    -25.9317E-03     51.4056E-03    -25.7714E-03     29.5758E-03
            1389     4.38545E-03     56.5543E-03    -35.8126E+06    -105.510E+06    -18.6050E+06     24.9516E+03    -25.8864E-03     51.7815E-03    -25.8951E-03     24.9164E-03    -25.8892E-03     51.3366E-03    -25.7832E-03     24.8986E-03
            1390     3.50832E-03     56.5329E-03    -39.2066E+06    -113.607E+06    -25.8568E+06     18.7367E+03    -25.8625E-03     51.7494E-03    -25.8869E-03     20.1225E-03    -25.8585E-03     51.2779E-03    -25.7946E-03     20.1092E-03
            1391     2.63121E-03     56.5161E-03    -42.3348E+06    -120.780E+06    -33.5596E+06     13.3480E+03    -25.8499E-03     51.7235E-03    -25.8736E-03     15.2462E-03    -25.8390E-03     51.2309E-03    -25.8049E-03     15.2368E-03
            1392     1.75413E-03     56.5040E-03    -44.8113E+06    -125.873E+06    -40.7242E+06     7.35136E+03    -25.8441E-03     51.7017E-03    -25.8576E-03     10.3386E-03    -25.8271E-03     51.1968E-03    -25.8137E-03     10.3325E-03
            1393     877.056E-06     56.4965E-03    -46.2922E+06    -131.535E+06    -45.3698E+06     6.18716E+03    -25.8536E-03     51.7011E-03    -25.8475E-03     5.63712E-03    -25.8287E-03     51.1765E-03    -25.8165E-03     5.63394E-03
            1394     16.6676E-03     56.1818E-03    -3.64773E+06     111.543E+06     65.4917E+06     6.38676E+03    -25.0518E-03     50.8342E-03    -25.7824E-03     24.6309E-03    -25.4110E-03     51.3865E-03    -25.6114E-03     24.5620E-03
            1395     15.7900E-03     56.1461E-03    -7.02627E+06     106.934E+06     49.0492E+06     16.8717E+03    -25.3431E-03     51.0765E-03    -25.7334E-03     43.6316E-03    -25.7462E-03     51.6920E-03    -25.6330E-03     43.5345E-03
            1396     14.9125E-03     56.0992E-03    -9.72132E+06     89.4772E+06     28.8772E+06     30.8067E+03    -25.7611E-03     51.4442E-03    -25.6831E-03     56.1015E-03    -26.1389E-03     52.0214E-03    -25.6544E-03     55.9836E-03
            1397     14.0350E-03     56.0398E-03    -11.5355E+06     38.4400E+06     10.1475E+06      41.374E+03    -26.1472E-03     51.8311E-03    -25.6839E-03     61.4537E-03    -26.4262E-03     52.1761E-03    -25.6721E-03     61.3227E-03
            1398     13.1577E-03     55.9828E-03    -12.7288E+06    -8.81132E+06     2.71979E+06     47.6196E+03    -26.2937E-03     52.0229E-03    -25.7292E-03     59.2821E-03    -26.4630E-03     52.1078E-03    -25.6843E-03     59.1578E-03
            1399     12.2804E-03     55.9276E-03    -13.8692E+06    -27.3531E+06     3.60599E+06     52.0372E+03    -26.3200E-03     52.0913E-03    -25.7713E-03     57.4823E-03    -26.4385E-03     52.0530E-03    -25.6935E-03     57.3732E-03
            1400     11.4031E-03     55.8739E-03    -15.2116E+06    -42.1193E+06     3.48244E+06     53.7531E+03    -26.3249E-03     52.1274E-03    -25.8025E-03     55.5609E-03    -26.4074E-03     51.9962E-03    -25.7019E-03     55.4666E-03
            1401     10.5259E-03     55.8223E-03    -16.7936E+06    -52.3088E+06     3.91886E+06     55.7743E+03    -26.2913E-03     52.1212E-03    -25.8299E-03     53.0712E-03    -26.3515E-03     51.9248E-03    -25.7101E-03     52.9911E-03
            1402     9.64863E-03     55.7734E-03    -18.6585E+06    -60.4926E+06     3.37552E+06     56.1676E+03    -26.2364E-03     52.0865E-03    -25.8502E-03     49.9955E-03    -26.2811E-03     51.8405E-03    -25.7185E-03     49.9283E-03
            1403     8.77140E-03     55.7276E-03    -20.8248E+06    -68.2583E+06     2.53512E+06     53.2439E+03    -26.1703E-03     52.0396E-03    -25.8693E-03     46.4750E-03    -26.2041E-03     51.7497E-03    -25.7274E-03     46.4194E-03
            1404     7.89419E-03     55.6853E-03    -23.3125E+06    -74.4877E+06     533.983E+03     49.6302E+03    -26.0974E-03     51.9790E-03    -25.8816E-03     42.6237E-03    -26.1247E-03     51.6575E-03    -25.7371E-03     42.5782E-03
            1405     7.01698E-03     55.6468E-03    -26.0983E+06    -82.4882E+06    -2.65491E+06     45.4446E+03    -26.0333E-03     51.9249E-03    -25.8916E-03     38.4806E-03    -26.0530E-03     51.5668E-03    -25.7474E-03     38.4437E-03
            1406     6.13979E-03     55.6123E-03    -29.1466E+06    -90.1485E+06    -6.93427E+06     39.6199E+03    -25.9743E-03     51.8709E-03    -25.8966E-03     34.1184E-03    -25.9879E-03     51.4812E-03    -25.7583E-03     34.0889E-03
            1407     5.26262E-03     55.5821E-03    -32.4107E+06    -96.9729E+06    -12.2564E+06     32.5865E+03    -25.9213E-03     51.8174E-03    -25.8961E-03     29.5940E-03    -25.9307E-03     51.4030E-03    -25.7697E-03     29.5708E-03
            1408     4.38546E-03     55.5562E-03    -35.8102E+06    -105.497E+06    -18.6070E+06     27.9991E+03    -25.8852E-03     51.7785E-03    -25.8933E-03     24.9119E-03    -25.8880E-03     51.3336E-03    -25.7814E-03     24.8941E-03
            1409     3.50833E-03     55.5349E-03    -39.1971E+06    -113.590E+06    -25.8561E+06     19.2141E+03    -25.8612E-03     51.7461E-03    -25.8850E-03     20.1185E-03    -25.8571E-03     51.2747E-03    -25.7927E-03     20.1052E-03
            1410     2.63122E-03     55.5181E-03    -42.3243E+06    -120.766E+06    -33.5490E+06     5.45800E+03    -25.8485E-03     51.7201E-03    -25.8715E-03     15.2430E-03    -25.8376E-03     51.2274E-03    -25.8028E-03     15.2335E-03
            1411     1.75413E-03     55.5060E-03    -44.8057E+06    -125.871E+06    -40.7162E+06     3.43333E+03    -25.8423E-03     51.6976E-03    -25.8553E-03     10.3363E-03    -25.8253E-03     51.1928E-03    -25.8114E-03     10.3302E-03
            1412     877.059E-06     55.4985E-03    -46.2866E+06    -131.524E+06    -45.3669E+06     6.36867E+03    -25.8515E-03     51.6962E-03    -25.8447E-03     5.63570E-03    -25.8266E-03     51.1717E-03    -25.8137E-03     5.63253E-03
            1413     16.6676E-03     55.1837E-03    -3.64689E+06     111.533E+06     65.4872E+06     6.36461E+03    -25.0533E-03     50.8357E-03    -25.7823E-03     24.6310E-03    -25.4125E-03     51.3879E-03    -25.6113E-03     24.5620E-03
            1414     15.7900E-03     55.1480E-03    -7.02739E+06     106.918E+06     49.0413E+06     20.1618E+03    -25.3447E-03     51.0780E-03    -25.7332E-03     43.6304E-03    -25.7478E-03     51.6934E-03    -25.6329E-03     43.5333E-03
            1415     14.9125E-03     55.1011E-03    -9.72495E+06     89.4670E+06     28.8715E+06     32.8255E+03    -25.7625E-03     51.4454E-03    -25.6828E-03     56.0996E-03    -26.1403E-03     52.0225E-03    -25.6541E-03     55.9817E-03
            1416     14.0350E-03     55.0418E-03    -11.5399E+06     38.4341E+06     10.1421E+06     41.6559E+03    -26.1485E-03     51.8320E-03    -25.6835E-03     61.4516E-03    -26.4275E-03     52.1770E-03    -25.6718E-03     61.3206E-03
            1417     13.1577E-03     54.9847E-03    -12.7345E+06    -8.81365E+06     2.71426E+06     49.6702E+03    -26.2950E-03     52.0236E-03    -25.7287E-03     59.2792E-03    -26.4642E-03     52.1085E-03    -25.6839E-03     59.1550E-03
            1418     12.2804E-03     54.9295E-03    -13.8750E+06    -27.3497E+06     3.60250E+06     51.8959E+03    -26.3213E-03     52.0920E-03    -25.7707E-03     57.4789E-03    -26.4399E-03     52.0538E-03    -25.6929E-03     57.3698E-03
            1419     11.4031E-03     54.8758E-03    -15.2186E+06    -42.1162E+06     3.47869E+06     52.6190E+03    -26.3262E-03     52.1279E-03    -25.8017E-03     55.5565E-03    -26.4086E-03     51.9967E-03    -25.7012E-03     55.4622E-03
            1420     10.5259E-03     54.8242E-03    -16.7985E+06    -52.3048E+06     3.91649E+06     53.2426E+03    -26.2924E-03     52.1213E-03    -25.8289E-03     53.0660E-03    -26.3527E-03     51.9249E-03    -25.7092E-03     52.9858E-03
            1421     9.64864E-03     54.7753E-03    -18.6570E+06    -60.4843E+06     3.37626E+06     51.8032E+03    -26.2373E-03     52.0863E-03    -25.8490E-03     49.9899E-03    -26.2820E-03     51.8403E-03    -25.7174E-03     49.9227E-03
            1422     8.77142E-03     54.7295E-03    -20.8220E+06    -68.2484E+06     2.53610E+06     48.8663E+03    -26.1709E-03     52.0389E-03    -25.8679E-03     46.4691E-03    -26.2047E-03     51.7491E-03    -25.7261E-03     46.4134E-03
            1423     7.89420E-03     54.6872E-03    -23.3120E+06    -74.4772E+06     533.670E+03     45.0093E+03    -26.0977E-03     51.9777E-03    -25.8800E-03     42.6175E-03    -26.1250E-03     51.6563E-03    -25.7355E-03     42.5718E-03
            1424     7.01699E-03     54.6487E-03    -26.0982E+06    -82.4768E+06    -2.65604E+06     40.7312E+03    -26.0332E-03     51.9230E-03    -25.8898E-03     38.4744E-03    -26.0529E-03     51.5649E-03    -25.7457E-03     38.4374E-03
            1425     6.13981E-03     54.6143E-03    -29.1455E+06    -90.1343E+06    -6.93625E+06     35.1708E+03    -25.9735E-03     51.8681E-03    -25.8946E-03     34.1123E-03    -25.9872E-03     51.4785E-03    -25.7563E-03     34.0827E-03
            1426     5.26263E-03     54.5840E-03    -32.4070E+06    -96.9609E+06    -12.2577E+06     30.1167E+03    -25.9200E-03     51.8138E-03    -25.8939E-03     29.5881E-03    -25.9294E-03     51.3996E-03    -25.7676E-03     29.5649E-03
            1427     4.38547E-03     54.5582E-03    -35.8017E+06    -105.486E+06    -18.6071E+06     25.7441E+03    -25.8835E-03     51.7744E-03    -25.8910E-03     24.9066E-03    -25.8862E-03     51.3296E-03    -25.7792E-03     24.8888E-03
            1428     3.50834E-03     54.5368E-03    -39.1839E+06    -113.568E+06    -25.8561E+06     16.9741E+03    -25.8591E-03     51.7417E-03    -25.8825E-03     20.1142E-03    -25.8551E-03     51.2703E-03    -25.7903E-03     20.1009E-03
            1429     2.63123E-03     54.5200E-03    -42.3116E+06    -120.753E+06    -33.5437E+06     5.46247E+03    -25.8464E-03     51.7154E-03    -25.8690E-03     15.2401E-03    -25.8354E-03     51.2228E-03    -25.8003E-03     15.2306E-03
            1430     1.75414E-03     54.5079E-03    -44.7979E+06    -125.877E+06    -40.7081E+06     1.80917E+03    -25.8400E-03     51.6927E-03    -25.8527E-03     10.3346E-03    -25.8230E-03     51.1878E-03    -25.8088E-03     10.3285E-03
            1431     877.061E-06     54.5004E-03    -46.2794E+06    -131.512E+06    -45.3621E+06     8.21063E+03    -25.8489E-03     51.6908E-03    -25.8419E-03     5.63506E-03    -25.8240E-03     51.1663E-03    -25.8109E-03     5.63191E-03
            1432     16.6676E-03     54.1856E-03    -3.64926E+06     111.520E+06     65.4806E+06     8.41101E+03    -25.0552E-03     50.8374E-03    -25.7822E-03     24.6316E-03    -25.4144E-03     51.3896E-03    -25.6112E-03     24.5626E-03
            1433     15.7900E-03     54.1499E-03    -7.02890E+06     106.901E+06     49.0344E+06     22.6343E+03    -25.3466E-03     51.0796E-03    -25.7330E-03     43.6297E-03    -25.7496E-03     51.6950E-03    -25.6326E-03     43.5326E-03
            1434     14.9125E-03     54.1030E-03    -9.72420E+06     89.4576E+06     28.8687E+06     37.0217E+03    -25.7645E-03     51.4470E-03    -25.6825E-03     56.0980E-03    -26.1423E-03     52.0241E-03    -25.6537E-03     55.9801E-03
            1435     14.0350E-03     54.0437E-03    -11.5441E+06     38.4295E+06     10.1381E+06     46.7076E+03    -26.1504E-03     51.8334E-03    -25.6830E-03     61.4494E-03    -26.4294E-03     52.1784E-03    -25.6713E-03     61.3184E-03
            1436     13.1577E-03     53.9866E-03    -12.7405E+06    -8.81334E+06     2.71125E+06     50.1312E+03    -26.2967E-03     52.0247E-03    -25.7280E-03     59.2764E-03    -26.4660E-03     52.1096E-03    -25.6832E-03     59.1522E-03
            1437     12.2804E-03     53.9314E-03    -13.8798E+06    -27.3459E+06     3.60079E+06     52.0319E+03    -26.3230E-03     52.0928E-03    -25.7698E-03     57.4751E-03    -26.4416E-03     52.0546E-03    -25.6920E-03     57.3660E-03
            1438     11.4031E-03     53.8778E-03    -15.2224E+06    -42.1103E+06     3.47718E+06     51.0670E+03    -26.3277E-03     52.1283E-03    -25.8006E-03     55.5515E-03    -26.4102E-03     51.9972E-03    -25.7001E-03     55.4572E-03
            1439     10.5259E-03     53.8262E-03    -16.8008E+06    -52.2972E+06     3.91459E+06     46.9417E+03    -26.2937E-03     52.1213E-03    -25.8276E-03     53.0599E-03    -26.3540E-03     51.9249E-03    -25.7079E-03     52.9796E-03
            1440     9.64866E-03     53.7772E-03    -18.6603E+06    -60.4781E+06     3.37299E+06     44.6781E+03    -26.2382E-03     52.0857E-03    -25.8475E-03     49.9833E-03    -26.2830E-03     51.8397E-03    -25.7159E-03     49.9160E-03
            1441     8.77143E-03     53.7314E-03    -20.8234E+06    -68.2396E+06     2.53458E+06     43.5388E+03    -26.1714E-03     52.0376E-03    -25.8662E-03     46.4615E-03    -26.2052E-03     51.7478E-03    -25.7243E-03     46.4058E-03
            1442     7.89422E-03     53.6891E-03    -23.3101E+06    -74.4670E+06     533.691E+03     40.4696E+03    -26.0977E-03     51.9757E-03    -25.8780E-03     42.6096E-03    -26.1250E-03     51.6543E-03    -25.7335E-03     42.5639E-03
            1443     7.01701E-03     53.6506E-03    -26.0953E+06    -82.4656E+06    -2.65503E+06     35.8272E+03    -26.0328E-03     51.9203E-03    -25.8875E-03     38.4667E-03    -26.0525E-03     51.5623E-03    -25.7434E-03     38.4297E-03
            1444     6.13982E-03     53.6162E-03    -29.1419E+06    -90.1213E+06    -6.93590E+06     29.8067E+03    -25.9727E-03     51.8647E-03    -25.8921E-03     34.1048E-03    -25.9863E-03     51.4751E-03    -25.7538E-03     34.0752E-03
            1445     5.26264E-03     53.5860E-03    -32.4020E+06    -96.9525E+06    -12.2580E+06     25.4290E+03    -25.9185E-03     51.8096E-03    -25.8911E-03     29.5809E-03    -25.9279E-03     51.3954E-03    -25.7648E-03     29.5577E-03
            1446     4.38549E-03     53.5601E-03    -35.7952E+06    -105.474E+06    -18.6067E+06     21.1832E+03    -25.8813E-03     51.7693E-03    -25.8880E-03     24.8999E-03    -25.8840E-03     51.3245E-03    -25.7762E-03     24.8821E-03
            1447     3.50835E-03     53.5388E-03    -39.1746E+06    -113.551E+06    -25.8588E+06     13.6932E+03    -25.8563E-03     51.7357E-03    -25.8794E-03     20.1086E-03    -25.8522E-03     51.2644E-03    -25.7872E-03     20.0953E-03
            1448     2.63123E-03     53.5220E-03    -42.2933E+06    -120.738E+06    -33.5415E+06     4.77476E+03    -25.8432E-03     51.7091E-03    -25.8659E-03     15.2358E-03    -25.8321E-03     51.2165E-03    -25.7972E-03     15.2263E-03
            1449     1.75414E-03     53.5099E-03    -44.7706E+06    -125.880E+06    -40.6744E+06        -741.302    -25.8369E-03     51.6868E-03    -25.8498E-03     10.3316E-03    -25.8198E-03     51.1818E-03    -25.8058E-03     10.3254E-03
            1450     877.064E-06     53.5024E-03    -46.2560E+06    -131.507E+06    -45.3180E+06     1.83670E+03    -25.8458E-03     51.6852E-03    -25.8394E-03     5.63336E-03    -25.8208E-03     51.1606E-03    -25.8082E-03     5.63013E-03
            1451     16.6676E-03     53.1875E-03    -3.64608E+06     111.506E+06     65.4750E+06     9.31467E+03    -25.0575E-03     50.8396E-03    -25.7820E-03     24.6327E-03    -25.4167E-03     51.3917E-03    -25.6111E-03     24.5637E-03
            1452     15.7900E-03     53.1518E-03    -7.02770E+06     106.880E+06     49.0240E+06     28.7844E+03    -25.3494E-03     51.0820E-03    -25.7327E-03     43.6294E-03    -25.7523E-03     51.6973E-03    -25.6323E-03     43.5324E-03
            1453     14.9125E-03     53.1049E-03    -9.73267E+06     89.4481E+06     28.8581E+06     46.2199E+03    -25.7673E-03     51.4493E-03    -25.6820E-03     56.0954E-03    -26.1451E-03     52.0263E-03    -25.6533E-03     55.9776E-03
            1454     14.0350E-03     53.0456E-03    -11.5520E+06     38.4314E+06     10.1324E+06     51.0092E+03    -26.1530E-03     51.8353E-03    -25.6823E-03     61.4459E-03    -26.4320E-03     52.1803E-03    -25.6706E-03     61.3150E-03
            1455     13.1577E-03     52.9886E-03    -12.7471E+06    -8.81052E+06     2.70756E+06     51.3090E+03    -26.2992E-03     52.0262E-03    -25.7271E-03     59.2722E-03    -26.4684E-03     52.1111E-03    -25.6823E-03     59.1480E-03
            1456     12.2804E-03     52.9333E-03    -13.8860E+06    -27.3394E+06     3.59757E+06     48.9741E+03    -26.3252E-03     52.0938E-03    -25.7686E-03     57.4699E-03    -26.4438E-03     52.0557E-03    -25.6909E-03     57.3608E-03
            1457     11.4032E-03     52.8797E-03    -15.2224E+06    -42.1020E+06     3.47625E+06     44.3071E+03    -26.3296E-03     52.1288E-03    -25.7992E-03     55.5449E-03    -26.4121E-03     51.9977E-03    -25.6987E-03     55.4505E-03
            1458     10.5259E-03     52.8281E-03    -16.7985E+06    -52.2898E+06     3.91469E+06     42.2558E+03    -26.2952E-03     52.1212E-03    -25.8259E-03     53.0520E-03    -26.3555E-03     51.9248E-03    -25.7062E-03     52.9717E-03
            1459     9.64868E-03     52.7791E-03    -18.6594E+06    -60.4708E+06     3.37275E+06     39.2806E+03    -26.2394E-03     52.0849E-03    -25.8455E-03     49.9746E-03    -26.2841E-03     51.8389E-03    -25.7139E-03     49.9073E-03
            1460     8.77145E-03     52.7334E-03    -20.8237E+06    -68.2326E+06     2.53385E+06     35.8382E+03    -26.1718E-03     52.0357E-03    -25.8638E-03     46.4519E-03    -26.2056E-03     51.7460E-03    -25.7220E-03     46.3961E-03
            1461     7.89424E-03     52.6911E-03    -23.3096E+06    -74.4588E+06     533.698E+03     33.8985E+03    -26.0974E-03     51.9728E-03    -25.8754E-03     42.5999E-03    -26.1247E-03     51.6514E-03    -25.7309E-03     42.5541E-03
            1462     7.01703E-03     52.6526E-03    -26.0930E+06    -82.4540E+06    -2.65372E+06     29.9718E+03    -26.0318E-03     51.9165E-03    -25.8847E-03     38.4574E-03    -26.0515E-03     51.5586E-03    -25.7406E-03     38.4203E-03
            1463     6.13984E-03     52.6182E-03    -29.1395E+06    -90.1109E+06    -6.93421E+06     25.2454E+03    -25.9713E-03     51.8602E-03    -25.8889E-03     34.0960E-03    -25.9850E-03     51.4707E-03    -25.7507E-03     34.0663E-03
            1464     5.26266E-03     52.5879E-03    -32.4011E+06    -96.9435E+06    -12.2590E+06     20.8368E+03    -25.9166E-03     51.8043E-03    -25.8877E-03     29.5728E-03    -25.9261E-03     51.3901E-03    -25.7614E-03     29.5495E-03
            1465     4.38550E-03     52.5621E-03    -35.7932E+06    -105.462E+06    -18.6095E+06     14.8829E+03    -25.8787E-03     51.7630E-03    -25.8843E-03     24.8926E-03    -25.8815E-03     51.3183E-03    -25.7725E-03     24.8746E-03
            1466     3.50836E-03     52.5407E-03    -39.1706E+06    -113.540E+06    -25.8558E+06     9.16959E+03    -25.8530E-03     51.7285E-03    -25.8755E-03     20.1022E-03    -25.8490E-03     51.2573E-03    -25.7834E-03     20.0888E-03
            1467     2.63124E-03     52.5239E-03    -42.2937E+06    -120.728E+06    -33.5369E+06     3.94065E+03    -25.8394E-03     51.7013E-03    -25.8619E-03     15.2304E-03    -25.8283E-03     51.2088E-03    -25.7932E-03     15.2209E-03
            1468     1.75415E-03     52.5118E-03    -44.7797E+06    -125.877E+06    -40.6880E+06    -2.21756E+03    -25.8328E-03     51.6785E-03    -25.8457E-03     10.3275E-03    -25.8157E-03     51.1736E-03    -25.8017E-03     10.3213E-03
            1469     877.066E-06     52.5043E-03    -46.2659E+06    -131.512E+06    -45.3403E+06    -7.36830E+03    -25.8416E-03     51.6770E-03    -25.8354E-03     5.63084E-03    -25.8166E-03     51.1524E-03    -25.8043E-03     5.62749E-03
            1470     16.6676E-03     52.1895E-03    -3.65321E+06     111.483E+06     65.4670E+06     14.9014E+03    -25.0614E-03     50.8432E-03    -25.7818E-03     24.6322E-03    -25.4205E-03     51.3953E-03    -25.6109E-03     24.5633E-03
            1471     15.7900E-03     52.1538E-03    -7.04318E+06     106.854E+06     49.0056E+06     42.3432E+03    -25.3532E-03     51.0854E-03    -25.7322E-03     43.6266E-03    -25.7562E-03     51.7006E-03    -25.6319E-03     43.5298E-03
            1472     14.9125E-03     52.1069E-03    -9.74512E+06     89.4474E+06     28.8481E+06     55.1939E+03    -25.7708E-03     51.4521E-03    -25.6812E-03     56.0901E-03    -26.1486E-03     52.0291E-03    -25.6526E-03     55.9724E-03
            1473     14.0350E-03     52.0475E-03    -11.5651E+06     38.4371E+06     10.1261E+06     54.4917E+03    -26.1563E-03     51.8375E-03    -25.6813E-03     61.4406E-03    -26.4353E-03     52.1826E-03    -25.6696E-03     61.3097E-03
            1474     13.1577E-03     51.9905E-03    -12.7591E+06    -8.80091E+06     2.70316E+06     49.0764E+03    -26.3022E-03     52.0280E-03    -25.7258E-03     59.2661E-03    -26.4715E-03     52.1130E-03    -25.6810E-03     59.1418E-03
            1475     12.2804E-03     51.9353E-03    -13.8913E+06    -27.3286E+06     3.59575E+06     40.2849E+03    -26.3278E-03     52.0949E-03    -25.7671E-03     57.4630E-03    -26.4465E-03     52.0568E-03    -25.6893E-03     57.3538E-03
            1476     11.4032E-03     51.8816E-03    -15.2279E+06    -42.0953E+06     3.47429E+06     35.7201E+03    -26.3318E-03     52.1291E-03    -25.7973E-03     55.5365E-03    -26.4143E-03     51.9980E-03    -25.6968E-03     55.4420E-03
            1477     10.5259E-03     51.8300E-03    -16.8020E+06    -52.2849E+06     3.91333E+06     33.7171E+03    -26.2970E-03     52.1207E-03    -25.8237E-03     53.0428E-03    -26.3573E-03     51.9244E-03    -25.7040E-03     52.9624E-03
            1478     9.64870E-03     51.7811E-03    -18.6568E+06    -60.4636E+06     3.37440E+06     32.3418E+03    -26.2405E-03     52.0834E-03    -25.8429E-03     49.9644E-03    -26.2853E-03     51.8375E-03    -25.7113E-03     49.8969E-03
            1479     8.77148E-03     51.7353E-03    -20.8200E+06    -68.2258E+06     2.53598E+06     30.1976E+03    -26.1722E-03     52.0331E-03    -25.8609E-03     46.4407E-03    -26.2060E-03     51.7434E-03    -25.7191E-03     46.3848E-03
            1480     7.89426E-03     51.6930E-03    -23.3081E+06    -74.4518E+06     534.559E+03     26.9786E+03    -26.0969E-03     51.9690E-03    -25.8721E-03     42.5884E-03    -26.1242E-03     51.6477E-03    -25.7277E-03     42.5426E-03
            1481     7.01705E-03     51.6545E-03    -26.0928E+06    -82.4450E+06    -2.65331E+06     24.0004E+03    -26.0305E-03     51.9115E-03    -25.8811E-03     38.4461E-03    -26.0502E-03     51.5536E-03    -25.7370E-03     38.4089E-03
            1482     6.13986E-03     51.6201E-03    -29.1397E+06    -90.1032E+06    -6.93382E+06     21.2505E+03    -25.9691E-03     51.8541E-03    -25.8850E-03     34.0851E-03    -25.9828E-03     51.4646E-03    -25.7468E-03     34.0554E-03
            1483     5.26268E-03     51.5899E-03    -32.4004E+06    -96.9327E+06    -12.2578E+06     16.5866E+03    -25.9138E-03     51.7973E-03    -25.8835E-03     29.5628E-03    -25.9233E-03     51.3832E-03    -25.7573E-03     29.5395E-03
            1484     4.38552E-03     51.5640E-03    -35.7945E+06    -105.451E+06    -18.6091E+06     9.69708E+03    -25.8755E-03     51.7554E-03    -25.8799E-03     24.8839E-03    -25.8782E-03     51.3107E-03    -25.7681E-03     24.8659E-03
            1485     3.50838E-03     51.5427E-03    -39.1775E+06    -113.536E+06    -25.8565E+06     7.04395E+03    -25.8494E-03     51.7203E-03    -25.8709E-03     20.0952E-03    -25.8454E-03     51.2491E-03    -25.7787E-03     20.0818E-03
            1486     2.63126E-03     51.5259E-03    -42.3038E+06    -120.720E+06    -33.5475E+06     7.16525E+03    -25.8352E-03     51.6921E-03    -25.8569E-03     15.2250E-03    -25.8242E-03     51.1997E-03    -25.7883E-03     15.2155E-03
            1487     1.75416E-03     51.5138E-03    -44.7872E+06    -125.870E+06    -40.7068E+06     2.75348E+03    -25.8279E-03     51.6684E-03    -25.8405E-03     10.3238E-03    -25.8109E-03     51.1635E-03    -25.7965E-03     10.3176E-03
            1488     877.072E-06     51.5063E-03    -46.2766E+06    -131.516E+06    -45.3605E+06     2.12582E+03    -25.8364E-03     51.6663E-03    -25.8299E-03     5.62891E-03    -25.8115E-03     51.1418E-03    -25.7989E-03     5.62569E-03
            1489     16.6676E-03     51.1914E-03    -3.66848E+06     111.453E+06     65.4554E+06     29.3353E+03    -25.0673E-03     50.8488E-03    -25.7815E-03     24.6308E-03    -25.4264E-03     51.4008E-03    -25.6106E-03     24.5621E-03
            1490     15.7900E-03     51.1557E-03    -7.05708E+06     106.829E+06     48.9922E+06     54.6340E+03    -25.3582E-03     51.0898E-03    -25.7316E-03     43.6230E-03    -25.7612E-03     51.7049E-03    -25.6313E-03     43.5262E-03
            1491     14.9125E-03     51.1088E-03    -9.76369E+06     89.4546E+06     28.8419E+06     66.3600E+03    -25.7751E-03     51.4554E-03    -25.6803E-03     56.0842E-03    -26.1529E-03     52.0325E-03    -25.6516E-03     55.9666E-03
            1492     14.0350E-03     51.0494E-03    -11.5821E+06     38.4569E+06     10.1256E+06     52.7896E+03    -26.1602E-03     51.8402E-03    -25.6800E-03     61.4340E-03    -26.4393E-03     52.1854E-03    -25.6684E-03     61.3031E-03
            1493     13.1577E-03     50.9924E-03    -12.7642E+06    -8.78683E+06     2.70518E+06     35.9094E+03    -26.3057E-03     52.0299E-03    -25.7242E-03     59.2588E-03    -26.4751E-03     52.1149E-03    -25.6794E-03     59.1344E-03
            1494     12.2805E-03     50.9372E-03    -13.8918E+06    -27.3202E+06     3.59835E+06     29.8093E+03    -26.3308E-03     52.0959E-03    -25.7651E-03     57.4546E-03    -26.4495E-03     52.0579E-03    -25.6873E-03     57.3452E-03
            1495     11.4032E-03     50.8835E-03    -15.2263E+06    -42.0896E+06     3.47663E+06     26.9540E+03    -26.3342E-03     52.1291E-03    -25.7949E-03     55.5267E-03    -26.4167E-03     51.9981E-03    -25.6944E-03     55.4321E-03
            1496     10.5260E-03     50.8319E-03    -16.8005E+06    -52.2791E+06     3.91461E+06     23.6535E+03    -26.2988E-03     52.1197E-03    -25.8209E-03     53.0320E-03    -26.3591E-03     51.9234E-03    -25.7012E-03     52.9514E-03
            1497     9.64873E-03     50.7830E-03    -18.6573E+06    -60.4610E+06     3.37376E+06     22.3896E+03    -26.2415E-03     52.0812E-03    -25.8397E-03     49.9522E-03    -26.2863E-03     51.8353E-03    -25.7081E-03     49.8847E-03
            1498     8.77151E-03     50.7372E-03    -20.8178E+06    -68.2205E+06     2.53760E+06     23.2157E+03    -26.1724E-03     52.0297E-03    -25.8573E-03     46.4277E-03    -26.2062E-03     51.7400E-03    -25.7155E-03     46.3717E-03
            1499     7.89429E-03     50.6950E-03    -23.3038E+06    -74.4452E+06     537.403E+03     21.7798E+03    -26.0963E-03     51.9644E-03    -25.8681E-03     42.5752E-03    -26.1236E-03     51.6431E-03    -25.7236E-03     42.5293E-03
            1500     7.01709E-03     50.6565E-03    -26.0899E+06    -82.4392E+06    -2.65137E+06     19.8222E+03    -26.0290E-03     51.9057E-03    -25.8766E-03     38.4327E-03    -26.0487E-03     51.5478E-03    -25.7325E-03     38.3955E-03
            1501     6.13989E-03     50.6221E-03    -29.1382E+06    -90.0960E+06    -6.93281E+06     17.4073E+03    -25.9665E-03     51.8468E-03    -25.8802E-03     34.0719E-03    -25.9802E-03     51.4573E-03    -25.7420E-03     34.0422E-03
            1502     5.26271E-03     50.5918E-03    -32.4014E+06    -96.9233E+06    -12.2568E+06     13.8576E+03    -25.9102E-03     51.7886E-03    -25.8784E-03     29.5500E-03    -25.9196E-03     51.3745E-03    -25.7522E-03     29.5267E-03
            1503     4.38554E-03     50.5660E-03    -35.7999E+06    -105.441E+06    -18.6086E+06     9.44893E+03    -25.8711E-03     51.7456E-03    -25.8745E-03     24.8725E-03    -25.8739E-03     51.3009E-03    -25.7628E-03     24.8545E-03
            1504     3.50840E-03     50.5446E-03    -39.1861E+06    -113.536E+06    -25.8630E+06     8.00300E+03    -25.8446E-03     51.7098E-03    -25.8652E-03     20.0858E-03    -25.8406E-03     51.2386E-03    -25.7731E-03     20.0724E-03
            1505     2.63127E-03     50.5279E-03    -42.3116E+06    -120.715E+06    -33.5646E+06     10.1780E+03    -25.8300E-03     51.6810E-03    -25.8510E-03     15.2178E-03    -25.8190E-03     51.1886E-03    -25.7824E-03     15.2084E-03
            1506     1.75417E-03     50.5158E-03    -44.7936E+06    -125.860E+06    -40.7123E+06     8.15736E+03    -25.8223E-03     51.6566E-03    -25.8343E-03     10.3189E-03    -25.8053E-03     51.1518E-03    -25.7904E-03     10.3129E-03
            1507     877.077E-06     50.5083E-03    -46.2761E+06    -131.512E+06    -45.3422E+06     1.72250E+03    -25.8303E-03     51.6538E-03    -25.8236E-03     5.62646E-03    -25.8054E-03     51.1293E-03    -25.7925E-03     5.62323E-03
            1508     16.6676E-03     50.1933E-03    -3.66179E+06      111.41E+06     65.4436E+06     58.7038E+03    -25.0743E-03     50.8555E-03    -25.7812E-03     24.6288E-03    -25.4334E-03     51.4072E-03    -25.6102E-03     24.5604E-03
            1509     15.7901E-03     50.1576E-03    -7.08370E+06     106.822E+06     48.9815E+06     86.9629E+03    -25.3646E-03     51.0954E-03    -25.7308E-03     43.6185E-03    -25.7677E-03     51.7105E-03    -25.6305E-03     43.5221E-03
            1510     14.9125E-03     50.1107E-03    -9.79329E+06     89.4878E+06     28.8447E+06     62.4789E+03    -25.7805E-03     51.4596E-03    -25.6791E-03     56.0778E-03    -26.1585E-03     52.0369E-03    -25.6504E-03     55.9601E-03
            1511     14.0351E-03     50.0514E-03    -11.5833E+06     38.4841E+06     10.1365E+06     30.0827E+03    -26.1648E-03     51.8432E-03    -25.6784E-03     61.4270E-03    -26.4440E-03     52.1885E-03    -25.6668E-03     61.2957E-03
            1512     13.1578E-03     49.9943E-03    -12.7559E+06    -8.77851E+06     2.71342E+06     20.2448E+03    -26.3098E-03     52.0320E-03    -25.7222E-03     59.2511E-03    -26.4792E-03     52.1171E-03    -25.6774E-03     59.1265E-03
            1513     12.2805E-03     49.9391E-03    -13.8830E+06    -27.3144E+06     3.60545E+06     17.0698E+03    -26.3345E-03     52.0971E-03    -25.7626E-03     57.4452E-03    -26.4531E-03     52.0591E-03    -25.6849E-03     57.3357E-03
            1514     11.4032E-03     49.8855E-03    -15.2146E+06    -42.0873E+06     3.48231E+06     16.0404E+03    -26.3373E-03     52.1293E-03    -25.7920E-03     55.5156E-03    -26.4198E-03     51.9982E-03    -25.6915E-03     55.4208E-03
            1515     10.5260E-03     49.8339E-03    -16.7885E+06    -52.2752E+06     3.92127E+06     17.3269E+03    -26.3011E-03     52.1186E-03    -25.8175E-03     53.0189E-03    -26.3613E-03     51.9223E-03    -25.6978E-03     52.9383E-03
            1516     9.64877E-03     49.7849E-03    -18.6486E+06    -60.4579E+06     3.37815E+06     16.2887E+03    -26.2427E-03     52.0785E-03    -25.8358E-03     49.9372E-03    -26.2873E-03     51.8325E-03    -25.7042E-03     49.8695E-03
            1517     8.77155E-03     49.7392E-03    -20.8134E+06    -68.2186E+06     2.53966E+06     15.2218E+03    -26.1725E-03     52.0254E-03    -25.8529E-03     46.4118E-03    -26.2062E-03     51.7357E-03    -25.7111E-03     46.3557E-03
            1518     7.89433E-03     49.6969E-03    -23.3002E+06    -74.4422E+06     539.229E+03     16.9056E+03    -26.0956E-03     51.9587E-03    -25.8632E-03     42.5589E-03    -26.1228E-03     51.6374E-03    -25.7187E-03     42.5130E-03
            1519     7.01712E-03     49.6584E-03    -26.0859E+06    -82.4339E+06    -2.64862E+06     16.9771E+03    -26.0273E-03     51.8985E-03    -25.8713E-03     38.4165E-03    -26.0470E-03     51.5407E-03    -25.7271E-03     38.3793E-03
            1520     6.13993E-03     49.6240E-03    -29.1353E+06    -90.0902E+06    -6.93082E+06     15.2196E+03    -25.9637E-03     51.8380E-03    -25.8743E-03     34.0561E-03    -25.9774E-03     51.4485E-03    -25.7361E-03     34.0263E-03
            1521     5.26274E-03     49.5938E-03    -32.3997E+06    -96.9167E+06    -12.2562E+06     13.6404E+03    -25.9061E-03     51.7781E-03    -25.8721E-03     29.5351E-03    -25.9155E-03     51.3641E-03    -25.7458E-03     29.5118E-03
            1522     4.38557E-03     49.5680E-03    -35.7978E+06    -105.433E+06    -18.6081E+06     10.6893E+03    -25.8659E-03     51.7337E-03    -25.8678E-03     24.8590E-03    -25.8687E-03     51.2891E-03    -25.7561E-03     24.8411E-03
            1523     3.50842E-03     49.5466E-03    -39.1820E+06    -113.534E+06    -25.8544E+06     7.55449E+03    -25.8385E-03     51.6968E-03    -25.8583E-03     20.0742E-03    -25.8345E-03     51.2256E-03    -25.7661E-03     20.0608E-03
            1524     2.63129E-03     49.5299E-03    -42.3062E+06    -120.716E+06    -33.5415E+06     10.4643E+03    -25.8233E-03     51.6672E-03    -25.8439E-03     15.2084E-03    -25.8123E-03     51.1748E-03    -25.7752E-03     15.1990E-03
            1525     1.75418E-03     49.5178E-03    -44.7877E+06    -125.843E+06    -40.6963E+06     9.78569E+03    -25.8152E-03     51.6421E-03    -25.8269E-03     10.3122E-03    -25.7982E-03     51.1374E-03    -25.7830E-03     10.3062E-03
            1526     877.084E-06     49.5103E-03    -46.2759E+06    -131.508E+06    -45.3514E+06    -4.74783E+03    -25.8227E-03     51.6388E-03    -25.8161E-03     5.62286E-03    -25.7978E-03     51.1143E-03    -25.7851E-03     5.61955E-03
            1527     16.6676E-03     49.1952E-03    -3.72730E+06     111.356E+06     65.4107E+06     110.671E+03    -25.0822E-03     50.8629E-03    -25.7807E-03     24.6254E-03    -25.4414E-03     51.4145E-03    -25.6097E-03     24.5576E-03
            1528     15.7901E-03     49.1595E-03    -7.11426E+06     106.880E+06     48.9916E+06     91.3239E+03    -25.3722E-03     51.1020E-03    -25.7298E-03     43.6118E-03    -25.7755E-03     51.7175E-03    -25.6295E-03     43.5154E-03
            1529     14.9125E-03     49.1126E-03    -9.76691E+06     89.5396E+06     28.8734E+06     25.4604E+03    -25.7871E-03     51.4648E-03    -25.6777E-03     56.0693E-03    -26.1651E-03     52.0423E-03    -25.6490E-03     55.9511E-03
            1530     14.0351E-03     49.0533E-03    -11.5518E+06     38.4935E+06     10.1546E+06     6.92805E+03    -26.1706E-03     51.8471E-03    -25.6765E-03     61.4178E-03    -26.4497E-03     52.1924E-03    -25.6648E-03     61.2862E-03
            1531     13.1578E-03     48.9962E-03    -12.7328E+06    -8.77433E+06     2.72664E+06     7.69968E+03    -26.3150E-03     52.0347E-03    -25.7198E-03     59.2406E-03    -26.4842E-03     52.1197E-03    -25.6749E-03     59.1158E-03
            1532     12.2805E-03     48.9410E-03    -13.8633E+06    -27.3119E+06     3.61565E+06     7.03610E+03    -26.3390E-03     52.0986E-03    -25.7597E-03     57.4326E-03    -26.4575E-03     52.0605E-03    -25.6819E-03     57.3229E-03
            1533     11.4033E-03     48.8874E-03    -15.2012E+06    -42.0877E+06     3.48855E+06     8.24887E+03    -26.3411E-03     52.1295E-03    -25.7884E-03     55.5011E-03    -26.4234E-03     51.9984E-03    -25.6879E-03     55.4062E-03
            1534     10.5260E-03     48.8358E-03    -16.7775E+06    -52.2769E+06     3.92593E+06     11.3550E+03    -26.3038E-03     52.1172E-03    -25.8133E-03     53.0023E-03    -26.3640E-03     51.9208E-03    -25.6936E-03     52.9216E-03
            1535     9.64881E-03     48.7869E-03    -18.6364E+06    -60.4535E+06     3.38423E+06     13.4158E+03    -26.2442E-03     52.0753E-03    -25.8310E-03     49.9185E-03    -26.2889E-03     51.8293E-03    -25.6994E-03     49.8509E-03
            1536     8.77159E-03     48.7411E-03    -20.8041E+06    -68.2176E+06     2.54395E+06     13.4595E+03    -26.1729E-03     52.0204E-03    -25.8475E-03     46.3921E-03    -26.2066E-03     51.7307E-03    -25.7057E-03     46.3360E-03
            1537     7.89438E-03     48.6989E-03    -23.2966E+06    -74.4411E+06     540.876E+03     14.0191E+03    -26.0947E-03     51.9518E-03    -25.8571E-03     42.5384E-03    -26.1219E-03     51.6305E-03    -25.7127E-03     42.4924E-03
            1538     7.01717E-03     48.6604E-03    -26.0845E+06    -82.4302E+06    -2.64755E+06     14.4976E+03    -26.0250E-03     51.8896E-03    -25.8646E-03     38.3957E-03    -26.0447E-03     51.5318E-03    -25.7205E-03     38.3585E-03
            1539     6.13997E-03     48.6260E-03    -29.1337E+06    -90.0852E+06    -6.92948E+06     13.9713E+03    -25.9600E-03     51.8272E-03    -25.8671E-03     34.0358E-03    -25.9737E-03     51.4377E-03    -25.7289E-03     34.0060E-03
            1540     5.26278E-03     48.5958E-03    -32.3965E+06    -96.9118E+06    -12.2556E+06     12.3774E+03    -25.9012E-03     51.7655E-03    -25.8643E-03     29.5164E-03    -25.9107E-03     51.3514E-03    -25.7381E-03     29.4930E-03
            1541     4.38561E-03     48.5700E-03    -35.7919E+06    -105.426E+06    -18.6064E+06     10.4387E+03    -25.8598E-03     51.7193E-03    -25.8595E-03     24.8425E-03    -25.8626E-03     51.2748E-03    -25.7478E-03     24.8245E-03
            1542     3.50845E-03     48.5486E-03    -39.1797E+06    -113.530E+06    -25.8408E+06     9.00513E+03    -25.8312E-03     51.6808E-03    -25.8496E-03     20.0601E-03    -25.8272E-03     51.2097E-03    -25.7574E-03     20.0467E-03
            1543     2.63132E-03     48.5319E-03    -42.3149E+06    -120.717E+06    -33.5324E+06     10.3162E+03    -25.8149E-03     51.6498E-03    -25.8349E-03     15.1970E-03    -25.8040E-03     51.1574E-03    -25.7661E-03     15.1876E-03
            1544     1.75420E-03     48.5198E-03    -44.8026E+06    -125.827E+06    -40.7207E+06     11.1434E+03    -25.8060E-03     51.6236E-03    -25.8176E-03     10.3040E-03    -25.7890E-03     51.1190E-03    -25.7738E-03     10.2980E-03
            1545     877.091E-06     48.5123E-03    -46.2845E+06    -131.499E+06    -45.3770E+06     8.56348E+03    -25.8132E-03     51.6200E-03    -25.8069E-03     5.61812E-03    -25.7883E-03     51.0956E-03    -25.7760E-03     5.61499E-03
            1546     16.6676E-03     48.1971E-03    -3.63436E+06     111.346E+06     65.4010E+06     137.878E+03    -25.0937E-03     50.8736E-03    -25.7799E-03     24.6226E-03    -25.4524E-03     51.4250E-03    -25.6091E-03     24.5551E-03
            1547     15.7901E-03     48.1614E-03    -6.99509E+06     107.008E+06     49.0757E+06     64.6856E+03    -25.3814E-03     51.1101E-03    -25.7287E-03     43.6035E-03    -25.7845E-03     51.7259E-03    -25.6283E-03     43.5067E-03
            1548     14.9126E-03     48.1145E-03    -9.68229E+06     89.5560E+06     28.9149E+06     6.03317E+03    -25.7954E-03     51.4713E-03    -25.6760E-03     56.0579E-03    -26.1730E-03     52.0487E-03    -25.6472E-03     55.9394E-03
            1549     14.0351E-03     48.0552E-03    -11.5015E+06     38.5010E+06     10.1808E+06     7.23247E+03    -26.1779E-03     51.8521E-03    -25.6742E-03     61.4056E-03    -26.4568E-03     52.1973E-03    -25.6624E-03     61.2740E-03
            1550     13.1578E-03     47.9981E-03    -12.6991E+06    -8.77433E+06     2.74213E+06     4.05667E+03    -26.3215E-03     52.0382E-03    -25.7168E-03     59.2274E-03    -26.4906E-03     52.1231E-03    -25.6719E-03     59.1025E-03
            1551     12.2806E-03     47.9429E-03    -13.8399E+06    -27.3110E+06     3.62610E+06     6.41036E+03    -26.3446E-03     52.1006E-03    -25.7560E-03     57.4168E-03    -26.4630E-03     52.0624E-03    -25.6782E-03     57.3072E-03
            1552     11.4033E-03     47.8893E-03    -15.1846E+06    -42.0889E+06     3.49564E+06     7.99331E+03    -26.3457E-03     52.1298E-03    -25.7841E-03     55.4828E-03    -26.4280E-03     51.9986E-03    -25.6835E-03     55.3879E-03
            1553     10.5261E-03     47.8377E-03    -16.7672E+06    -52.2774E+06     3.92938E+06     9.09054E+03    -26.3072E-03     52.1154E-03    -25.8082E-03     52.9811E-03    -26.3673E-03     51.9190E-03    -25.6885E-03     52.9004E-03
            1554     9.64887E-03     47.7888E-03    -18.6302E+06    -60.4540E+06     3.38632E+06     11.0702E+03    -26.2463E-03     52.0715E-03    -25.8251E-03     49.8951E-03    -26.2909E-03     51.8255E-03    -25.6935E-03     49.8274E-03
            1555     8.77165E-03     47.7430E-03    -20.7973E+06    -68.2168E+06     2.54764E+06     14.5367E+03    -26.1737E-03     52.0145E-03    -25.8408E-03     46.3674E-03    -26.2073E-03     51.7248E-03    -25.6990E-03     46.3113E-03
            1556     7.89444E-03     47.7008E-03    -23.2896E+06    -74.4384E+06     544.967E+03     15.2428E+03    -26.0939E-03     51.9436E-03    -25.8497E-03     42.5128E-03    -26.1211E-03     51.6222E-03    -25.7052E-03     42.4669E-03
            1557     7.01723E-03     47.6624E-03    -26.0806E+06    -82.4268E+06    -2.64489E+06     14.4282E+03    -26.0223E-03     51.8787E-03    -25.8564E-03     38.3697E-03    -26.0420E-03     51.5208E-03    -25.7122E-03     38.3325E-03
            1558     6.14003E-03     47.6280E-03    -29.1322E+06    -90.0802E+06    -6.92787E+06     12.9374E+03    -25.9555E-03     51.8136E-03    -25.8581E-03     34.0104E-03    -25.9692E-03     51.4242E-03    -25.7199E-03     33.9807E-03
            1559     5.26283E-03     47.5978E-03    -32.3961E+06    -96.9063E+06    -12.2542E+06     10.5306E+03    -25.8951E-03     51.7497E-03    -25.8546E-03     29.4928E-03    -25.9046E-03     51.3357E-03    -25.7284E-03     29.4694E-03
            1560     4.38565E-03     47.5720E-03    -35.7942E+06    -105.424E+06    -18.6057E+06     11.0815E+03    -25.8523E-03     51.7015E-03    -25.8492E-03     24.8214E-03    -25.8551E-03     51.2569E-03    -25.7375E-03     24.8035E-03
            1561     3.50849E-03     47.5506E-03    -39.1835E+06    -113.526E+06    -25.8499E+06     14.5823E+03    -25.8223E-03     51.6609E-03    -25.8387E-03     20.0421E-03    -25.8183E-03     51.1898E-03    -25.7465E-03     20.0288E-03
            1562     2.63135E-03     47.5339E-03    -42.3157E+06    -120.710E+06    -33.5460E+06     12.6554E+03    -25.8046E-03     51.6281E-03    -25.8235E-03     15.1828E-03    -25.7937E-03     51.1357E-03    -25.7548E-03     15.1735E-03
            1563     1.75422E-03     47.5218E-03    -44.7978E+06    -125.821E+06    -40.7099E+06     10.1155E+03    -25.7949E-03     51.6008E-03    -25.8060E-03     10.2940E-03    -25.7779E-03     51.0962E-03    -25.7621E-03     10.2880E-03
            1564     877.102E-06     47.5143E-03    -46.2756E+06    -131.481E+06    -45.3485E+06     9.66326E+03    -25.8014E-03     51.5965E-03    -25.7951E-03     5.61224E-03    -25.7765E-03     51.0721E-03    -25.7641E-03     5.60912E-03
            1565     16.6677E-03     47.1990E-03    -3.52687E+06     111.339E+06     65.3950E+06     92.7196E+03    -25.1072E-03     50.8862E-03    -25.7790E-03     24.6183E-03    -25.4653E-03     51.4375E-03    -25.6084E-03     24.5501E-03
            1566     15.7901E-03     47.1633E-03    -6.88322E+06     107.122E+06     49.1514E+06     84.5521E+03    -25.3926E-03     51.1200E-03    -25.7274E-03     43.5925E-03    -25.7953E-03     51.7360E-03    -25.6269E-03     43.4959E-03
            1567     14.9126E-03     47.1164E-03    -9.62010E+06     89.5690E+06     28.9462E+06     39.4363E+03    -25.8054E-03     51.4793E-03    -25.6739E-03     56.0438E-03    -26.1827E-03     52.0565E-03    -25.6451E-03     55.9257E-03
            1568     14.0352E-03     47.0571E-03    -11.4642E+06     38.5159E+06     10.2039E+06     22.8687E+03    -26.1867E-03     51.8581E-03    -25.6714E-03     61.3912E-03    -26.4654E-03     52.2032E-03    -25.6596E-03     61.2598E-03
            1569     13.1579E-03     47.0001E-03    -12.6718E+06    -8.77006E+06     2.75581E+06     16.5348E+03    -26.3295E-03     52.0427E-03    -25.7132E-03     59.2117E-03    -26.4985E-03     52.1275E-03    -25.6683E-03     59.0870E-03
            1570     12.2806E-03     46.9448E-03    -13.8222E+06    -27.3093E+06     3.63443E+06     13.5029E+03    -26.3518E-03     52.1034E-03    -25.7516E-03     57.3984E-03    -26.4701E-03     52.0652E-03    -25.6738E-03     57.2888E-03
            1571     11.4034E-03     46.8912E-03    -15.1709E+06    -42.0876E+06     3.50201E+06     13.4115E+03    -26.3518E-03     52.1306E-03    -25.7788E-03     55.4608E-03    -26.4340E-03     51.9993E-03    -25.6782E-03     55.3660E-03
            1572     10.5262E-03     46.8396E-03    -16.7563E+06    -52.2747E+06     3.93452E+06     12.6083E+03    -26.3118E-03     52.1138E-03    -25.8020E-03     52.9553E-03    -26.3719E-03     51.9174E-03    -25.6822E-03     52.8747E-03
            1573     9.64894E-03     46.7907E-03    -18.6234E+06    -60.4556E+06     3.38810E+06     13.3639E+03    -26.2494E-03     52.0673E-03    -25.8179E-03     49.8664E-03    -26.2939E-03     51.8212E-03    -25.6863E-03     49.7988E-03
            1574     8.77172E-03     46.7450E-03    -20.7947E+06    -68.2170E+06     2.54826E+06     15.7458E+03    -26.1750E-03     52.0076E-03    -25.8326E-03     46.3366E-03    -26.2086E-03     51.7178E-03    -25.6907E-03     46.2806E-03
            1575     7.89451E-03     46.7028E-03    -23.2880E+06    -74.4353E+06     546.362E+03     17.4575E+03    -26.0931E-03     51.9335E-03    -25.8404E-03     42.4805E-03    -26.1202E-03     51.6121E-03    -25.6959E-03     42.4346E-03
            1576     7.01730E-03     46.6643E-03    -26.0787E+06    -82.4213E+06    -2.64248E+06     16.5364E+03    -26.0192E-03     51.8652E-03    -25.8461E-03     38.3370E-03    -26.0388E-03     51.5074E-03    -25.7019E-03     38.2998E-03
            1577     6.14010E-03     46.6300E-03    -29.1317E+06    -90.0743E+06    -6.92640E+06     13.8409E+03    -25.9501E-03     51.7970E-03    -25.8469E-03     33.9787E-03    -25.9638E-03     51.4076E-03    -25.7087E-03     33.9490E-03
            1578     5.26290E-03     46.5998E-03    -32.3996E+06    -96.9011E+06    -12.2539E+06     12.0166E+03    -25.8876E-03     51.7301E-03    -25.8425E-03     29.4632E-03    -25.8971E-03     51.3161E-03    -25.7163E-03     29.4399E-03
            1579     4.38571E-03     46.5740E-03    -35.8006E+06    -105.424E+06    -18.6075E+06     13.0888E+03    -25.8427E-03     51.6790E-03    -25.8363E-03     24.7949E-03    -25.8455E-03     51.2345E-03    -25.7246E-03     24.7770E-03
            1580     3.50854E-03     46.5527E-03    -39.1835E+06    -113.521E+06    -25.8588E+06     13.6156E+03    -25.8109E-03     51.6359E-03    -25.8250E-03     20.0196E-03    -25.8069E-03     51.1648E-03    -25.7329E-03     20.0063E-03
            1581     2.63138E-03     46.5359E-03    -42.3035E+06    -120.699E+06    -33.5379E+06     10.0654E+03    -25.7919E-03     51.6012E-03    -25.8093E-03     15.1652E-03    -25.7809E-03     51.1089E-03    -25.7406E-03     15.1558E-03
            1582     1.75424E-03     46.5239E-03    -44.7847E+06    -125.813E+06    -40.6821E+06     4.08041E+03    -25.7810E-03     51.5724E-03    -25.7914E-03     10.2819E-03    -25.7640E-03     51.0678E-03    -25.7475E-03     10.2758E-03
            1583     877.115E-06     46.5164E-03    -46.2702E+06    -131.472E+06    -45.3386E+06    -1.85831E+03    -25.7866E-03     51.5668E-03    -25.7802E-03     5.60557E-03    -25.7618E-03     51.0425E-03    -25.7492E-03     5.60231E-03
            1584     16.6677E-03     46.2008E-03    -3.61918E+06     111.279E+06     65.3602E+06     27.0784E+03    -25.1204E-03     50.8987E-03    -25.7783E-03     24.6126E-03    -25.4789E-03     51.4498E-03    -25.6076E-03     24.5435E-03
            1585     15.7901E-03     46.1651E-03    -6.95001E+06     107.142E+06     49.1359E+06     78.6663E+03    -25.4056E-03     51.1313E-03    -25.7257E-03     43.5792E-03    -25.8086E-03     51.7475E-03    -25.6253E-03     43.4824E-03
            1586     14.9126E-03     46.1183E-03    -9.62672E+06     89.6180E+06     28.9625E+06     74.4826E+03    -25.8173E-03     51.4888E-03    -25.6715E-03     56.0264E-03    -26.1948E-03     52.0662E-03    -25.6426E-03     55.9086E-03
            1587     14.0352E-03     46.0590E-03    -11.4573E+06     38.5348E+06     10.2168E+06     44.4169E+03    -26.1977E-03     51.8658E-03    -25.6680E-03     61.3727E-03    -26.4764E-03     52.2109E-03    -25.6562E-03     61.2414E-03
            1588     13.1579E-03     46.0019E-03    -12.6650E+06    -8.75540E+06     2.76433E+06     32.0780E+03    -26.3396E-03     52.0485E-03    -25.7089E-03     59.1908E-03    -26.5086E-03     52.1334E-03    -25.6640E-03     59.0662E-03
            1589     12.2807E-03     45.9467E-03    -13.8126E+06    -27.3043E+06     3.63994E+06     24.6294E+03    -26.3610E-03     52.1072E-03    -25.7462E-03     57.3737E-03    -26.4793E-03     52.0689E-03    -25.6684E-03     57.2642E-03
            1590     11.4035E-03     45.8931E-03    -15.1626E+06    -42.0819E+06     3.50626E+06     21.2238E+03    -26.3597E-03     52.1319E-03    -25.7722E-03     55.4317E-03    -26.4418E-03     52.0007E-03    -25.6717E-03     55.3370E-03
            1591     10.5262E-03     45.8416E-03    -16.7497E+06    -52.2714E+06     3.93681E+06     19.4252E+03    -26.3180E-03     52.1123E-03    -25.7942E-03     52.9220E-03    -26.3780E-03     51.9158E-03    -25.6745E-03     52.8415E-03
            1592     9.64903E-03     45.7927E-03    -18.6185E+06    -60.4541E+06     3.38896E+06     19.5937E+03    -26.2538E-03     52.0627E-03    -25.8089E-03     49.8302E-03    -26.2982E-03     51.8166E-03    -25.6773E-03     49.7627E-03
            1593     8.77181E-03     45.7470E-03    -20.7914E+06    -68.2156E+06     2.54896E+06     20.2071E+03    -26.1770E-03     51.9993E-03    -25.8223E-03     46.2978E-03    -26.2106E-03     51.7095E-03    -25.6805E-03     46.2418E-03
            1594     7.89460E-03     45.7048E-03    -23.2867E+06    -74.4317E+06     546.993E+03     20.0698E+03    -26.0923E-03     51.9211E-03    -25.8288E-03     42.4398E-03    -26.1194E-03     51.5997E-03    -25.6844E-03     42.3940E-03
            1595     7.01739E-03     45.6663E-03    -26.0785E+06    -82.4152E+06    -2.64171E+06     19.1969E+03    -26.0155E-03     51.8487E-03    -25.8332E-03     38.2961E-03    -26.0351E-03     51.4908E-03    -25.6891E-03     38.2590E-03
            1596     6.14018E-03     45.6320E-03    -29.1328E+06    -90.0673E+06    -6.92581E+06     17.1423E+03    -25.9435E-03     51.7763E-03    -25.8328E-03     33.9393E-03    -25.9572E-03     51.3869E-03    -25.6946E-03     33.9097E-03
            1597     5.26298E-03     45.6018E-03    -32.4018E+06    -96.8974E+06    -12.2548E+06     16.1120E+03    -25.8781E-03     51.7055E-03    -25.8273E-03     29.4266E-03    -25.8876E-03     51.2915E-03    -25.7011E-03     29.4034E-03
            1598     4.38578E-03     45.5760E-03    -35.8029E+06    -105.418E+06    -18.6079E+06     14.4348E+03    -25.8306E-03     51.6508E-03    -25.8201E-03     24.7623E-03    -25.8335E-03     51.2062E-03    -25.7084E-03     24.7444E-03
            1599     3.50860E-03     45.5547E-03    -39.1925E+06    -113.515E+06    -25.8528E+06     12.1241E+03    -25.7966E-03     51.6047E-03    -25.8081E-03     19.9919E-03    -25.7927E-03     51.1336E-03    -25.7159E-03     19.9786E-03
            1600     2.63143E-03     45.5380E-03    -42.3289E+06    -120.688E+06    -33.5553E+06     10.9703E+03    -25.7757E-03     51.5673E-03    -25.7916E-03     15.1435E-03    -25.7649E-03     51.0750E-03    -25.7230E-03     15.1341E-03
            1601     1.75427E-03     45.5259E-03    -44.8179E+06    -125.799E+06    -40.7375E+06     2.47113E+03    -25.7633E-03     51.5364E-03    -25.7730E-03     10.2669E-03    -25.7464E-03     51.0319E-03    -25.7293E-03     10.2608E-03
            1602     877.131E-06     45.5185E-03    -46.2987E+06    -131.476E+06    -45.3842E+06    -4.63202E+03    -25.7681E-03     51.5299E-03    -25.7618E-03     5.59735E-03    -25.7433E-03     51.0057E-03    -25.7310E-03     5.59406E-03
            1603     16.6677E-03     45.2027E-03    -3.63802E+06     111.232E+06     65.3482E+06     6.41298E+03    -25.1366E-03     50.9140E-03    -25.7774E-03     24.6065E-03    -25.4950E-03     51.4649E-03    -25.6067E-03     24.5370E-03
            1604     15.7902E-03     45.1670E-03    -7.00422E+06     107.098E+06     49.1021E+06     36.3261E+03    -25.4216E-03     51.1455E-03    -25.7238E-03     43.5627E-03    -25.8248E-03     51.7615E-03    -25.6235E-03     43.4653E-03
            1605     14.9127E-03     45.1201E-03    -9.67376E+06     89.6452E+06     28.9547E+06     63.2804E+03    -25.8323E-03     51.5008E-03    -25.6685E-03     56.0040E-03    -26.2100E-03     52.0784E-03    -25.6397E-03     55.8861E-03
            1606     14.0353E-03     45.0608E-03    -11.4741E+06     38.5645E+06     10.2201E+06     56.3843E+03    -26.2117E-03     51.8757E-03    -25.6639E-03     61.3482E-03    -26.4905E-03     52.2210E-03    -25.6521E-03     61.2171E-03
            1607     13.1580E-03     45.0038E-03    -12.6706E+06    -8.73917E+06     2.76607E+06     41.0144E+03    -26.3526E-03     52.0561E-03    -25.7035E-03     59.1637E-03    -26.5215E-03     52.1410E-03    -25.6587E-03     59.0392E-03
            1608     12.2808E-03     44.9486E-03    -13.8144E+06    -27.2937E+06     3.63990E+06     33.0980E+03    -26.3727E-03     52.1122E-03    -25.7395E-03     57.3421E-03    -26.4910E-03     52.0740E-03    -25.6617E-03     57.2327E-03
            1609     11.4035E-03     44.8951E-03    -15.1613E+06    -42.0753E+06     3.50577E+06     28.8375E+03    -26.3697E-03     52.1338E-03    -25.7642E-03     55.3945E-03    -26.4518E-03     52.0026E-03    -25.6636E-03     55.2999E-03
            1610     10.5263E-03     44.8435E-03    -16.7477E+06    -52.2667E+06     3.93682E+06     27.6378E+03    -26.3260E-03     52.1106E-03    -25.7847E-03     52.8799E-03    -26.3859E-03     51.9141E-03    -25.6649E-03     52.7995E-03
            1611     9.64913E-03     44.7946E-03    -18.6163E+06    -60.4502E+06     3.38893E+06     26.6821E+03    -26.2592E-03     52.0569E-03    -25.7977E-03     49.7846E-03    -26.3036E-03     51.8108E-03    -25.6661E-03     49.7172E-03
            1612     8.77192E-03     44.7489E-03    -20.7887E+06    -68.2111E+06     2.54930E+06     25.6003E+03    -26.1794E-03     51.9888E-03    -25.8095E-03     46.2494E-03    -26.2129E-03     51.6990E-03    -25.6677E-03     46.1935E-03
            1613     7.89472E-03     44.7068E-03    -23.2841E+06    -74.4267E+06     546.862E+03     24.6181E+03    -26.0912E-03     51.9056E-03    -25.8144E-03     42.3900E-03    -26.1183E-03     51.5842E-03    -25.6699E-03     42.3443E-03
            1614     7.01750E-03     44.6684E-03    -26.0775E+06    -82.4087E+06    -2.64203E+06     23.3662E+03    -26.0110E-03     51.8282E-03    -25.8172E-03     38.2464E-03    -26.0306E-03     51.4703E-03    -25.6731E-03     38.2094E-03
            1615     6.14029E-03     44.6340E-03    -29.1336E+06    -90.0612E+06    -6.92677E+06     22.4258E+03    -25.9355E-03     51.7508E-03    -25.8153E-03     33.8911E-03    -25.9492E-03     51.3614E-03    -25.6771E-03     33.8616E-03
            1616     5.26308E-03     44.6039E-03    -32.4036E+06    -96.8901E+06    -12.2557E+06     20.1526E+03    -25.8666E-03     51.6750E-03    -25.8084E-03     29.3814E-03    -25.8761E-03     51.2610E-03    -25.6822E-03     29.3583E-03
            1617     4.38587E-03     44.5781E-03    -35.8074E+06    -105.411E+06    -18.6081E+06     18.3989E+03    -25.8158E-03     51.6157E-03    -25.7999E-03     24.7216E-03    -25.8186E-03     51.1712E-03    -25.6882E-03     24.7039E-03
            1618     3.50867E-03     44.5568E-03    -39.2032E+06    -113.510E+06    -25.8598E+06     19.9905E+03    -25.7788E-03     51.5656E-03    -25.7868E-03     19.9571E-03    -25.7749E-03     51.0945E-03    -25.6946E-03     19.9440E-03
            1619     2.63149E-03     44.5401E-03    -42.3376E+06    -120.674E+06    -33.5721E+06     15.5180E+03    -25.7555E-03     51.5248E-03    -25.7694E-03     15.1159E-03    -25.7447E-03     51.0327E-03    -25.7009E-03     15.1067E-03
            1620     1.75431E-03     44.5281E-03    -44.8190E+06    -125.786E+06    -40.7482E+06     7.90587E+03    -25.7414E-03     51.4917E-03    -25.7503E-03     10.2477E-03    -25.7246E-03     50.9874E-03    -25.7066E-03     10.2417E-03
            1621     877.151E-06     44.5206E-03    -46.3027E+06    -131.475E+06    -45.3917E+06     4.80527E+03    -25.7451E-03     51.4840E-03    -25.7389E-03     5.58655E-03    -25.7203E-03     50.9598E-03    -25.7081E-03     5.58339E-03
            1622     16.6677E-03     44.2045E-03    -3.63254E+06     111.215E+06     65.3420E+06     6.65053E+03    -25.1568E-03     50.9331E-03    -25.7763E-03     24.5966E-03    -25.5152E-03     51.4839E-03    -25.6056E-03     24.5270E-03
            1623     15.7902E-03     44.1688E-03    -7.00456E+06     107.062E+06     49.0866E+06     23.5167E+03    -25.4417E-03     51.1632E-03    -25.7215E-03     43.5409E-03    -25.8446E-03     51.7790E-03    -25.6211E-03     43.4431E-03
            1624     14.9127E-03     44.1220E-03    -9.69490E+06     89.6376E+06     28.9405E+06     39.5117E+03    -25.8511E-03     51.5159E-03    -25.6649E-03     55.9765E-03    -26.2287E-03     52.0935E-03    -25.6361E-03     55.8581E-03
            1625     14.0353E-03     44.0627E-03    -11.4976E+06     38.5848E+06     10.2133E+06     47.0401E+03    -26.2292E-03     51.8881E-03    -25.6589E-03     61.3179E-03    -26.5080E-03     52.2334E-03    -25.6471E-03     61.1865E-03
            1626     13.1581E-03     44.0057E-03    -12.6835E+06    -8.72383E+06     2.76258E+06     43.9910E+03    -26.3688E-03     52.0658E-03    -25.6969E-03     59.1303E-03    -26.5378E-03     52.1507E-03    -25.6521E-03     59.0057E-03
            1627     12.2809E-03     43.9506E-03    -13.8238E+06    -27.2822E+06     3.63608E+06     37.5214E+03    -26.3874E-03     52.1187E-03    -25.7313E-03     57.3030E-03    -26.5057E-03     52.0805E-03    -25.6535E-03     57.1936E-03
            1628     11.4037E-03     43.8970E-03    -15.1694E+06    -42.0683E+06     3.50099E+06     34.1384E+03    -26.3823E-03     52.1364E-03    -25.7541E-03     55.3491E-03    -26.4643E-03     52.0051E-03    -25.6536E-03     55.2546E-03
            1629     10.5265E-03     43.8454E-03    -16.7526E+06    -52.2616E+06     3.93226E+06     32.8594E+03    -26.3359E-03     52.1086E-03    -25.7727E-03     52.8288E-03    -26.3958E-03     51.9121E-03    -25.6530E-03     52.7484E-03
            1630     9.64927E-03     43.7966E-03    -18.6175E+06    -60.4440E+06     3.38534E+06     31.9693E+03    -26.2658E-03     52.0497E-03    -25.7838E-03     49.7288E-03    -26.3102E-03     51.8035E-03    -25.6523E-03     49.6616E-03
            1631     8.77206E-03     43.7509E-03    -20.7888E+06    -68.2056E+06     2.54642E+06     31.3722E+03    -26.1820E-03     51.9756E-03    -25.7936E-03     46.1896E-03    -26.2155E-03     51.6858E-03    -25.6518E-03     46.1339E-03
            1632     7.89485E-03     43.7088E-03    -23.2849E+06    -74.4200E+06     543.730E+03     30.4551E+03    -26.0897E-03     51.8862E-03    -25.7965E-03     42.3286E-03    -26.1167E-03     51.5648E-03    -25.6521E-03     42.2830E-03
            1633     7.01764E-03     43.6704E-03    -26.0792E+06    -82.4020E+06    -2.64558E+06     29.6030E+03    -26.0052E-03     51.8026E-03    -25.7974E-03     38.1856E-03    -26.0248E-03     51.4448E-03    -25.6533E-03     38.1487E-03
            1634     6.14042E-03     43.6361E-03    -29.1357E+06    -90.0538E+06    -6.92994E+06     28.3586E+03    -25.9255E-03     51.7192E-03    -25.7936E-03     33.8327E-03    -25.9392E-03     51.3298E-03    -25.6555E-03     33.8033E-03
            1635     5.26320E-03     43.6060E-03    -32.4062E+06    -96.8795E+06    -12.2584E+06     25.2465E+03    -25.8524E-03     51.6374E-03    -25.7850E-03     29.3274E-03    -25.8618E-03     51.2234E-03    -25.6588E-03     29.3044E-03
            1636     4.38598E-03     43.5802E-03    -35.8107E+06    -105.407E+06    -18.6118E+06     24.7394E+03    -25.7975E-03     51.5726E-03    -25.7750E-03     24.6737E-03    -25.8004E-03     51.1281E-03    -25.6633E-03     24.6560E-03
            1637     3.50876E-03     43.5590E-03    -39.1977E+06    -113.499E+06    -25.8690E+06     22.9405E+03    -25.7569E-03     51.5174E-03    -25.7605E-03     19.9167E-03    -25.7530E-03     51.0464E-03    -25.6684E-03     19.9036E-03
            1638     2.63156E-03     43.5423E-03    -42.3211E+06    -120.657E+06    -33.5674E+06     16.6282E+03    -25.7307E-03     51.4728E-03    -25.7421E-03     15.0843E-03    -25.7198E-03     50.9807E-03    -25.6736E-03     15.0751E-03
            1639     1.75436E-03     43.5302E-03    -44.8036E+06    -125.777E+06    -40.7224E+06     13.8794E+03    -25.7147E-03     51.4370E-03    -25.7223E-03     10.2258E-03    -25.6978E-03     50.9326E-03    -25.6786E-03     10.2199E-03
            1640     877.177E-06     43.5228E-03    -46.2871E+06    -131.458E+06     -45.365E+06     11.6701E+03    -25.7169E-03     51.4273E-03    -25.7105E-03     5.57456E-03    -25.6921E-03     50.9031E-03    -25.6796E-03     5.57150E-03
            1641     16.6677E-03     43.2063E-03    -3.63665E+06     111.202E+06     65.3343E+06     5.30453E+03    -25.1812E-03     50.9561E-03    -25.7749E-03     24.5855E-03    -25.5395E-03     51.5068E-03    -25.6042E-03     24.5157E-03
            1642     15.7902E-03     43.1707E-03    -7.00860E+06     107.042E+06     49.0770E+06     19.7928E+03    -25.4658E-03     51.1845E-03    -25.7187E-03     43.5159E-03    -25.8687E-03     51.8002E-03    -25.6183E-03     43.4179E-03
            1643     14.9128E-03     43.1239E-03    -9.69902E+06     89.6312E+06     28.9362E+06     31.8387E+03    -25.8743E-03     51.5347E-03    -25.6604E-03     55.9439E-03    -26.2519E-03     52.1122E-03    -25.6316E-03     55.8252E-03
            1644     14.0354E-03     43.0646E-03    -11.5119E+06     38.5917E+06     10.2085E+06     36.2339E+03    -26.2510E-03     51.9037E-03    -25.6527E-03     61.2811E-03    -26.5298E-03     52.2490E-03    -25.6409E-03     61.1495E-03
            1645     13.1582E-03     43.0076E-03    -12.7005E+06    -8.71419E+06     2.75631E+06     38.0922E+03    -26.3891E-03     52.0779E-03    -25.6888E-03     59.0894E-03    -26.5581E-03     52.1629E-03    -25.6440E-03     58.9647E-03
            1646     12.2810E-03     42.9524E-03    -13.8338E+06    -27.2735E+06     3.62982E+06     37.7790E+03    -26.4057E-03     52.1268E-03    -25.7211E-03     57.2547E-03    -26.5239E-03     52.0886E-03    -25.6434E-03     57.1453E-03
            1647     11.4038E-03     42.8989E-03    -15.1747E+06    -42.0609E+06     3.49520E+06     36.5526E+03    -26.3978E-03     52.1396E-03    -25.7418E-03     55.2931E-03    -26.4799E-03     52.0083E-03    -25.6413E-03     55.1986E-03
            1648     10.5266E-03     42.8474E-03    -16.7558E+06    -52.2560E+06     3.92516E+06     35.5129E+03    -26.3481E-03     52.1061E-03    -25.7580E-03     52.7661E-03    -26.4079E-03     51.9096E-03    -25.6383E-03     52.6859E-03
            1649     9.64943E-03     42.7986E-03    -18.6204E+06    -60.4387E+06     3.37836E+06     35.9802E+03    -26.2739E-03     52.0406E-03    -25.7667E-03     49.6607E-03    -26.3182E-03     51.7944E-03    -25.6352E-03     49.5935E-03
            1650     8.77223E-03     42.7529E-03    -20.7912E+06       -68.2E+06     2.54073E+06     37.1389E+03    -26.1852E-03     51.9593E-03    -25.7741E-03     46.1172E-03    -26.2187E-03     51.6695E-03    -25.6323E-03     46.0616E-03
            1651     7.89503E-03     42.7108E-03    -23.2867E+06    -74.4123E+06     539.207E+03     36.9193E+03    -26.0878E-03     51.8623E-03    -25.7745E-03     42.2542E-03    -26.1148E-03     51.5409E-03    -25.6302E-03     42.2087E-03
            1652     7.01781E-03     42.6725E-03    -26.0804E+06    -82.3945E+06    -2.64978E+06     36.1435E+03    -25.9979E-03     51.7710E-03    -25.7731E-03     38.1113E-03    -26.0175E-03     51.4131E-03    -25.6290E-03     38.0746E-03
            1653     6.14058E-03     42.6382E-03    -29.1350E+06    -90.0426E+06    -6.93405E+06     33.5283E+03    -25.9128E-03     51.6798E-03    -25.7671E-03     33.7609E-03    -25.9264E-03     51.2905E-03    -25.6289E-03     33.7317E-03
            1654     5.26335E-03     42.6081E-03    -32.4040E+06    -96.8708E+06    -12.2626E+06     31.6652E+03    -25.8344E-03     51.5908E-03    -25.7564E-03     29.2609E-03    -25.8439E-03     51.1769E-03    -25.6303E-03     29.2380E-03
            1655     4.38611E-03     42.5824E-03    -35.8053E+06    -105.396E+06    -18.6151E+06     28.8386E+03    -25.7748E-03     51.5194E-03    -25.7446E-03     24.6148E-03    -25.7776E-03     51.0749E-03    -25.6330E-03     24.5973E-03
            1656     3.50887E-03     42.5612E-03    -39.1916E+06    -113.483E+06    -25.8652E+06     20.7554E+03    -25.7300E-03     51.4586E-03    -25.7286E-03     19.8674E-03    -25.7261E-03     50.9877E-03    -25.6365E-03     19.8544E-03
            1657     2.63164E-03     42.5445E-03    -42.3169E+06    -120.647E+06    -33.5608E+06     16.9484E+03    -25.7005E-03     51.4095E-03    -25.7090E-03     15.0461E-03    -25.6896E-03     50.9174E-03    -25.6405E-03     15.0369E-03
            1658     1.75442E-03     42.5325E-03    -44.7958E+06    -125.765E+06    -40.7155E+06     15.6484E+03    -25.6819E-03     51.3703E-03    -25.6883E-03     10.1996E-03    -25.6650E-03     50.8660E-03    -25.6446E-03     10.1937E-03
            1659     877.206E-06     42.5251E-03    -46.2756E+06    -131.436E+06    -45.3551E+06     9.31552E+03    -25.6824E-03     51.3586E-03    -25.6761E-03     5.56027E-03    -25.6576E-03     50.8344E-03    -25.6452E-03     5.55719E-03
            1660     16.6678E-03     42.2081E-03    -3.63504E+06     111.191E+06     65.3291E+06     5.81943E+03    -25.2111E-03     50.9843E-03    -25.7732E-03     24.5729E-03    -25.5694E-03     51.5349E-03    -25.6025E-03     24.5029E-03
            1661     15.7903E-03     42.1725E-03    -7.00890E+06     107.025E+06     49.0697E+06     17.7046E+03    -25.4956E-03     51.2108E-03    -25.7152E-03     43.4865E-03    -25.8984E-03     51.8263E-03    -25.6149E-03     43.3882E-03
            1662     14.9129E-03     42.1257E-03    -9.70384E+06     89.6283E+06     28.9335E+06     28.9751E+03    -25.9029E-03     51.5579E-03    -25.6550E-03     55.9042E-03    -26.2804E-03     52.1353E-03    -25.6262E-03     55.7853E-03
            1663     14.0355E-03     42.0664E-03    -11.5166E+06     38.6020E+06     10.2069E+06     32.1465E+03    -26.2781E-03     51.9232E-03    -25.6451E-03     61.2362E-03    -26.5569E-03     52.2685E-03    -25.6333E-03     61.1044E-03
            1664     13.1583E-03     42.0095E-03    -12.7071E+06    -8.70921E+06     2.74898E+06     31.1586E+03    -26.4144E-03     52.0933E-03    -25.6789E-03     59.0389E-03    -26.5833E-03     52.1782E-03    -25.6341E-03     58.9140E-03
            1665     12.2811E-03     41.9543E-03    -13.8422E+06    -27.2699E+06     3.61906E+06     33.4835E+03    -26.4284E-03     52.1370E-03    -25.7086E-03     57.1953E-03    -26.5465E-03     52.0987E-03    -25.6309E-03     57.0858E-03
            1666     11.4040E-03     41.9008E-03    -15.1810E+06    -42.0549E+06     3.48641E+06     36.1820E+03    -26.4170E-03     52.1436E-03    -25.7265E-03     55.2242E-03    -26.4990E-03     52.0123E-03    -25.6261E-03     55.1297E-03
            1667     10.5268E-03     41.8493E-03    -16.7605E+06    -52.2512E+06     3.91594E+06     37.3674E+03    -26.3628E-03     52.1028E-03    -25.7400E-03     52.6888E-03    -26.4226E-03     51.9062E-03    -25.6203E-03     52.6086E-03
            1668     9.64963E-03     41.8005E-03    -18.6236E+06    -60.4353E+06     3.36924E+06     39.8787E+03    -26.2832E-03     52.0289E-03    -25.7458E-03     49.5767E-03    -26.3274E-03     51.7828E-03    -25.6143E-03     49.5096E-03
            1669     8.77244E-03     41.7549E-03    -20.7933E+06    -68.1944E+06     2.53416E+06     42.5039E+03    -26.1887E-03     51.9389E-03    -25.7501E-03     46.0288E-03    -26.2221E-03     51.6490E-03    -25.6084E-03     45.9734E-03
            1670     7.89524E-03     41.7129E-03    -23.2876E+06    -74.4042E+06     534.358E+03     42.8452E+03    -26.0852E-03     51.8329E-03    -25.7477E-03     42.1642E-03    -26.1122E-03     51.5115E-03    -25.6034E-03     42.1189E-03
            1671     7.01801E-03     41.6746E-03    -26.0788E+06    -82.3839E+06    -2.65364E+06     40.9786E+03    -25.9889E-03     51.7323E-03    -25.7434E-03     38.0220E-03    -26.0084E-03     51.3745E-03    -25.5994E-03     37.9855E-03
            1672     6.14078E-03     41.6403E-03    -29.1323E+06    -90.0312E+06    -6.93923E+06     38.6440E+03    -25.8971E-03     51.6318E-03    -25.7347E-03     33.6749E-03    -25.9107E-03     51.2425E-03    -25.5966E-03     33.6457E-03
            1673     5.26353E-03     41.6103E-03    -32.3994E+06    -96.8612E+06    -12.2674E+06     36.9080E+03    -25.8123E-03     51.5339E-03    -25.7215E-03     29.1806E-03    -25.8218E-03     51.1200E-03    -25.5954E-03     29.1579E-03
            1674     4.38627E-03     41.5846E-03    -35.7989E+06    -105.378E+06    -18.6168E+06     32.0857E+03    -25.7469E-03     51.4545E-03    -25.7076E-03     24.5430E-03    -25.7497E-03     51.0101E-03    -25.5959E-03     24.5256E-03
            1675     3.50901E-03     41.5634E-03    -39.1873E+06    -113.465E+06    -25.8600E+06     24.0071E+03    -25.6972E-03     51.3869E-03    -25.6897E-03     19.8066E-03    -25.6933E-03     50.9161E-03    -25.5977E-03     19.7936E-03
            1676     2.63175E-03     41.5468E-03    -42.3204E+06    -120.639E+06    -33.5521E+06     19.6913E+03    -25.6637E-03     51.3323E-03    -25.6686E-03     14.9982E-03    -25.6528E-03     50.8403E-03    -25.6001E-03     14.9891E-03
            1677     1.75450E-03     41.5348E-03    -44.8075E+06    -125.747E+06    -40.7247E+06     16.4415E+03    -25.6420E-03     51.2888E-03    -25.6468E-03     10.1662E-03    -25.6252E-03     50.7846E-03    -25.6031E-03     10.1604E-03
            1678     877.244E-06     41.5274E-03    -46.2884E+06    -131.416E+06    -45.3712E+06     6.15166E+03    -25.6404E-03     51.2744E-03    -25.6340E-03     5.54159E-03    -25.6157E-03     50.7503E-03    -25.6031E-03     5.53848E-03
            1679     16.6678E-03     41.2099E-03    -3.63632E+06     111.180E+06     65.3246E+06     6.44327E+03    -25.2482E-03     51.0194E-03    -25.7712E-03     24.5569E-03    -25.6063E-03     51.5699E-03    -25.6005E-03     24.4866E-03
            1680     15.7904E-03     41.1742E-03    -7.01008E+06     107.010E+06     49.0630E+06     18.4806E+03    -25.5323E-03     51.2434E-03    -25.7110E-03     43.4509E-03    -25.9350E-03     51.8587E-03    -25.6107E-03     43.3524E-03
            1681     14.9130E-03     41.1275E-03    -9.70331E+06     89.6277E+06     28.9302E+06     27.0527E+03    -25.9382E-03     51.5866E-03    -25.6484E-03     55.8559E-03    -26.3155E-03     52.1637E-03    -25.6196E-03     55.7368E-03
            1682     14.0357E-03     41.0682E-03    -11.5168E+06     38.6149E+06     10.2060E+06     28.9893E+03    -26.3116E-03     51.9474E-03    -25.6358E-03     61.1808E-03    -26.5902E-03     52.2926E-03    -25.6241E-03     61.0488E-03
            1683     13.1585E-03     41.0113E-03    -12.7096E+06    -8.70224E+06     2.74324E+06     28.8647E+03    -26.4454E-03     52.1121E-03    -25.6667E-03     58.9760E-03    -26.6143E-03     52.1970E-03    -25.6219E-03     58.8510E-03
            1684     12.2813E-03     40.9562E-03    -13.8472E+06    -27.2696E+06     3.60801E+06     30.5379E+03    -26.4560E-03     52.1494E-03    -25.6933E-03     57.1220E-03    -26.5741E-03     52.1110E-03    -25.6157E-03     57.0124E-03
            1685     11.4042E-03     40.9027E-03    -15.1880E+06    -42.0516E+06     3.47555E+06     35.4485E+03    -26.4403E-03     52.1483E-03    -25.7079E-03     55.1399E-03    -26.5222E-03     52.0169E-03    -25.6076E-03     55.0454E-03
            1686     10.5270E-03     40.8513E-03    -16.7680E+06    -52.2477E+06     3.90398E+06     38.8074E+03    -26.3806E-03     52.0985E-03    -25.7179E-03     52.5946E-03    -26.4403E-03     51.9018E-03    -25.5983E-03     52.5145E-03
            1687     9.64988E-03     40.8025E-03    -18.6306E+06    -60.4329E+06     3.35644E+06     42.5120E+03    -26.2944E-03     52.0145E-03    -25.7201E-03     49.4743E-03    -26.3385E-03     51.7683E-03    -25.5887E-03     49.4073E-03
            1688     8.77270E-03     40.7570E-03    -20.7986E+06    -68.1900E+06     2.52351E+06     46.9101E+03    -26.1926E-03     51.9136E-03    -25.7209E-03     45.9208E-03    -26.2260E-03     51.6237E-03    -25.5793E-03     45.8656E-03
            1689     7.89549E-03     40.7149E-03    -23.2907E+06    -74.3936E+06     525.545E+03     47.3383E+03    -26.0813E-03     51.7963E-03    -25.7150E-03     42.0540E-03    -26.1083E-03     51.4749E-03    -25.5707E-03     42.0089E-03
            1690     7.01827E-03     40.6767E-03    -26.0814E+06    -82.3727E+06    -2.66230E+06     45.7535E+03    -25.9771E-03     51.6844E-03    -25.7073E-03     37.9132E-03    -25.9965E-03     51.3265E-03    -25.5633E-03     37.8769E-03
            1691     6.14102E-03     40.6425E-03    -29.1357E+06    -90.0204E+06    -6.94761E+06     45.4124E+03    -25.8774E-03     51.5728E-03    -25.6954E-03     33.5712E-03    -25.8910E-03     51.1836E-03    -25.5574E-03     33.5423E-03
            1692     5.26375E-03     40.6126E-03    -32.4036E+06    -96.8453E+06    -12.2766E+06     40.9572E+03    -25.7853E-03     51.4646E-03    -25.6793E-03     29.0856E-03    -25.7947E-03     51.0508E-03    -25.5533E-03     29.0630E-03
            1693     4.38647E-03     40.5869E-03    -35.8015E+06    -105.361E+06    -18.6256E+06     35.0417E+03    -25.7132E-03     51.3760E-03    -25.6628E-03     24.4594E-03    -25.7160E-03     50.9317E-03    -25.5512E-03     24.4421E-03
            1694     3.50918E-03     40.5658E-03    -39.1888E+06    -113.447E+06    -25.8669E+06     30.4605E+03    -25.6576E-03     51.3004E-03    -25.6427E-03     19.7365E-03    -25.6537E-03     50.8296E-03    -25.5507E-03     19.7237E-03
            1695     2.63188E-03     40.5492E-03    -42.3205E+06    -120.625E+06    -33.5494E+06     23.7926E+03    -25.6193E-03     51.2392E-03    -25.6199E-03     14.9437E-03    -25.6085E-03     50.7472E-03    -25.5514E-03     14.9346E-03
            1696     1.75458E-03     40.5372E-03    -44.8049E+06    -125.725E+06    -40.7093E+06     14.2944E+03    -25.5940E-03     51.1906E-03    -25.5966E-03     10.1286E-03    -25.5772E-03     50.6865E-03    -25.5529E-03     10.1228E-03
            1697     877.289E-06     40.5298E-03    -46.2852E+06    -131.401E+06    -45.3651E+06     4.27104E+03    -25.5898E-03     51.1728E-03    -25.5830E-03     5.52093E-03    -25.5651E-03     50.6488E-03    -25.5521E-03     5.51782E-03
            1698     16.6678E-03     40.2116E-03    -3.63569E+06     111.170E+06     65.3208E+06     8.10708E+03    -25.2936E-03     51.0624E-03    -25.7688E-03     24.5370E-03    -25.6517E-03     51.6128E-03    -25.5981E-03     24.4665E-03
            1699     15.7904E-03     40.1760E-03    -7.01056E+06     106.995E+06     49.0592E+06     20.3297E+03    -25.5773E-03     51.2832E-03    -25.7059E-03     43.4079E-03    -25.9798E-03     51.8984E-03    -25.6056E-03     43.3090E-03
            1700     14.9131E-03     40.1292E-03    -9.70749E+06     89.6326E+06     28.9273E+06     26.8062E+03    -25.9815E-03     51.6218E-03    -25.6403E-03     55.7978E-03    -26.3587E-03     52.1989E-03    -25.6116E-03     55.6784E-03
            1701     14.0358E-03     40.0700E-03    -11.5225E+06     38.6295E+06     10.2020E+06     26.2119E+03    -26.3526E-03     51.9770E-03    -25.6245E-03     61.1134E-03    -26.6310E-03     52.3221E-03    -25.6128E-03     60.9811E-03
            1702     13.1587E-03     40.0131E-03    -12.7138E+06    -8.69607E+06     2.73571E+06     27.0615E+03    -26.4832E-03     52.1351E-03    -25.6518E-03     58.8985E-03    -26.6520E-03     52.2198E-03    -25.6071E-03     58.7733E-03
            1703     12.2816E-03     39.9581E-03    -13.8509E+06    -27.2684E+06     3.59658E+06     30.4641E+03    -26.4894E-03     52.1640E-03    -25.6746E-03     57.0318E-03    -26.6074E-03     52.1256E-03    -25.5970E-03     56.9221E-03
            1704     11.4044E-03     39.9046E-03    -15.1920E+06    -42.0508E+06     3.46297E+06     35.9884E+03    -26.4680E-03     52.1533E-03    -25.6852E-03     55.0367E-03    -26.5498E-03     52.0218E-03    -25.5849E-03     54.9422E-03
            1705     10.5273E-03     39.8532E-03    -16.7716E+06    -52.2446E+06     3.89170E+06     41.1505E+03    -26.4014E-03     52.0925E-03    -25.6911E-03     52.4799E-03    -26.4610E-03     51.8958E-03    -25.5715E-03     52.3999E-03
            1706     9.65017E-03     39.8045E-03    -18.6338E+06    -60.4309E+06     3.34262E+06      45.618E+03    -26.3073E-03     51.9963E-03    -25.6890E-03     49.3511E-03    -26.3514E-03     51.7500E-03    -25.5577E-03     49.2843E-03
            1707     8.77300E-03     39.7590E-03    -20.8006E+06    -68.1855E+06     2.51052E+06     49.8935E+03    -26.1969E-03     51.8824E-03    -25.6856E-03     45.7925E-03    -26.2301E-03     51.5925E-03    -25.5440E-03     45.7374E-03
            1708     7.89581E-03     39.7171E-03    -23.2922E+06    -74.3836E+06       514.3E+03     52.1474E+03    -26.0760E-03     51.7514E-03    -25.6754E-03     41.9237E-03    -26.1029E-03     51.4301E-03    -25.5312E-03     41.8788E-03
            1709     7.01857E-03     39.6789E-03    -26.0848E+06    -82.3621E+06    -2.67292E+06     53.7296E+03    -25.9620E-03     51.6257E-03    -25.6637E-03     37.7844E-03    -25.9814E-03     51.2679E-03    -25.5199E-03     37.7482E-03
            1710     6.14131E-03     39.6448E-03    -29.1409E+06    -90.0082E+06    -6.95936E+06     53.8319E+03    -25.8529E-03     51.5011E-03    -25.6481E-03     33.4479E-03    -25.8665E-03     51.1118E-03    -25.5102E-03     33.4192E-03
            1711     5.26402E-03     39.6149E-03    -32.4111E+06    -96.8239E+06    -12.2896E+06     49.3895E+03    -25.7521E-03     51.3808E-03    -25.6287E-03     28.9718E-03    -25.7616E-03     50.9671E-03    -25.5027E-03     28.9494E-03
            1712     4.38670E-03     39.5893E-03    -35.8149E+06    -105.341E+06    -18.6408E+06     40.0292E+03    -25.6722E-03     51.2814E-03    -25.6091E-03     24.3586E-03    -25.6751E-03     50.8372E-03    -25.4977E-03     24.3415E-03
            1713     3.50937E-03     39.5682E-03    -39.2015E+06    -113.432E+06    -25.8840E+06     34.6663E+03    -25.6099E-03     51.1964E-03    -25.5865E-03     19.6519E-03    -25.6060E-03     50.7257E-03    -25.4946E-03     19.6393E-03
            1714     2.63203E-03     39.5517E-03    -42.3306E+06    -120.599E+06    -33.5701E+06     28.1724E+03    -25.5660E-03     51.1275E-03    -25.5616E-03     14.8777E-03    -25.5552E-03     50.6357E-03    -25.4932E-03     14.8688E-03
            1715     1.75469E-03     39.5397E-03     -44.817E+06    -125.701E+06    -40.7344E+06     12.0299E+03    -25.5364E-03     51.0732E-03    -25.5368E-03     10.0830E-03    -25.5197E-03     50.5693E-03    -25.4932E-03     10.0772E-03
            1716     877.342E-06     39.5323E-03    -46.2994E+06    -131.391E+06    -45.3815E+06     2.99608E+03    -25.5295E-03     51.0519E-03    -25.5224E-03     5.49578E-03    -25.5049E-03     50.5280E-03    -25.4916E-03     5.49267E-03
            1717     16.6679E-03     39.2133E-03    -3.63641E+06     111.157E+06     65.3152E+06     9.76223E+03    -25.3491E-03     51.1150E-03    -25.7658E-03     24.5119E-03    -25.7071E-03     51.6652E-03    -25.5952E-03     24.4410E-03
            1718     15.7905E-03     39.1777E-03    -7.01113E+06     106.980E+06     49.0542E+06     24.4379E+03    -25.6320E-03     51.3317E-03    -25.6997E-03     43.3563E-03    -26.0342E-03     51.9466E-03    -25.5994E-03     43.2570E-03
            1719     14.9132E-03     39.1310E-03    -9.70858E+06     89.6435E+06     28.9280E+06     29.8703E+03    -26.0342E-03     51.6647E-03    -25.6305E-03     55.7284E-03    -26.4113E-03     52.2416E-03    -25.6017E-03     55.6086E-03
            1720     14.0360E-03     39.0718E-03    -11.5257E+06     38.6498E+06     10.1985E+06     24.6808E+03    -26.4024E-03     52.0131E-03    -25.6106E-03     61.0320E-03    -26.6808E-03     52.3581E-03    -25.5990E-03     60.8994E-03
            1721     13.1589E-03     39.0149E-03    -12.7190E+06    -8.69306E+06     2.72286E+06     25.3068E+03    -26.5289E-03     52.1626E-03    -25.6337E-03     58.8047E-03    -26.6975E-03     52.2472E-03    -25.5890E-03     58.6793E-03
            1722     12.2818E-03     38.9599E-03    -13.8565E+06    -27.2671E+06     3.58181E+06     31.3099E+03    -26.5294E-03     52.1813E-03    -25.6519E-03     56.9228E-03    -26.6472E-03     52.1427E-03    -25.5744E-03     56.8131E-03
            1723     11.4048E-03     38.9065E-03    -15.1971E+06    -42.0494E+06     3.44744E+06     37.0573E+03    -26.5007E-03     52.1585E-03    -25.6577E-03     54.9127E-03    -26.5823E-03     52.0269E-03    -25.5575E-03     54.8182E-03
            1724     10.5277E-03     38.8552E-03    -16.7753E+06    -52.2435E+06     3.87576E+06     42.8502E+03    -26.4255E-03     52.0841E-03    -25.6586E-03     52.3426E-03    -26.4849E-03     51.8872E-03    -25.5391E-03     52.2626E-03
            1725     9.65053E-03     38.8066E-03    -18.6350E+06    -60.4279E+06     3.32654E+06     48.9344E+03    -26.3215E-03     51.9731E-03    -25.6515E-03     49.2040E-03    -26.3655E-03     51.7267E-03    -25.5203E-03     49.1373E-03
            1726     8.77338E-03     38.7611E-03    -20.8017E+06    -68.1814E+06     2.49580E+06     54.6541E+03    -26.2004E-03     51.8435E-03    -25.6431E-03     45.6398E-03    -26.2335E-03     51.5535E-03    -25.5016E-03     45.5849E-03
            1727     7.89618E-03     38.7193E-03    -23.2941E+06    -74.3751E+06     500.103E+03     58.7633E+03    -26.0685E-03     51.6966E-03    -25.6281E-03     41.7697E-03    -26.0952E-03     51.3752E-03    -25.4840E-03     41.7250E-03
            1728     7.01893E-03     38.6812E-03    -26.0844E+06    -82.3529E+06    -2.68581E+06     62.5081E+03    -25.9433E-03     51.5551E-03    -25.6118E-03     37.6332E-03    -25.9627E-03     51.1973E-03    -25.4680E-03     37.5973E-03
            1729     6.14166E-03     38.6472E-03    -29.1389E+06    -89.9941E+06    -6.97185E+06     65.3672E+03    -25.8234E-03     51.4152E-03    -25.5918E-03     33.3041E-03    -25.8369E-03     51.0260E-03    -25.4539E-03     33.2757E-03
            1730     5.26434E-03     38.6173E-03    -32.4105E+06    -96.8020E+06    -12.3026E+06     63.0822E+03    -25.7124E-03     51.2807E-03    -25.5684E-03     28.8395E-03    -25.7218E-03     50.8671E-03    -25.4425E-03     28.8175E-03
            1731     4.38698E-03     38.5918E-03    -35.8184E+06    -105.313E+06    -18.6529E+06     55.1978E+03    -25.6232E-03     51.1686E-03    -25.5453E-03     24.2417E-03    -25.6261E-03     50.7245E-03    -25.4340E-03     24.2249E-03
            1732     3.50961E-03     38.5708E-03    -39.2173E+06    -113.412E+06    -25.8988E+06     43.0824E+03    -25.5529E-03     51.0727E-03    -25.5197E-03     19.5538E-03    -25.5491E-03     50.6021E-03    -25.4279E-03     19.5413E-03
            1733     2.63221E-03     38.5543E-03    -42.3477E+06    -120.570E+06    -33.6072E+06     33.0069E+03    -25.5023E-03     50.9946E-03    -25.4923E-03     14.8011E-03    -25.4916E-03     50.5030E-03    -25.4241E-03     14.7923E-03
            1734     1.75481E-03     38.5423E-03    -44.8255E+06    -125.675E+06    -40.7742E+06     21.2967E+03    -25.4681E-03     50.9338E-03    -25.4658E-03     10.0299E-03    -25.4513E-03     50.4301E-03    -25.4224E-03     10.0242E-03
            1735     877.404E-06     38.5350E-03    -46.3064E+06    -131.375E+06    -45.4047E+06     13.4739E+03    -25.4584E-03     50.9088E-03    -25.4504E-03     5.46625E-03    -25.4337E-03     50.3850E-03    -25.4198E-03     5.46329E-03
            1736     16.6679E-03     38.2149E-03    -3.63640E+06     111.141E+06     65.3096E+06     12.5344E+03    -25.4164E-03     51.1786E-03    -25.7622E-03     24.4816E-03    -25.7743E-03     51.7287E-03    -25.5916E-03     24.4102E-03
            1737     15.7907E-03     38.1793E-03    -7.01152E+06     106.964E+06     49.0491E+06     28.4371E+03    -25.6982E-03     51.3903E-03    -25.6921E-03     43.2955E-03    -26.1003E-03     52.0050E-03    -25.5918E-03     43.1958E-03
            1738     14.9134E-03     38.1326E-03    -9.70874E+06     89.6581E+06     28.9285E+06     34.2816E+03    -26.0979E-03     51.7165E-03    -25.6185E-03     55.6462E-03    -26.4748E-03     52.2932E-03    -25.5898E-03     55.5260E-03
            1739     14.0362E-03     38.0735E-03    -11.5288E+06     38.6779E+06     10.1977E+06     28.0813E+03    -26.4623E-03     52.0562E-03    -25.5939E-03     60.9340E-03    -26.7405E-03     52.4012E-03    -25.5823E-03     60.8012E-03
            1740     13.1592E-03     38.0167E-03    -12.7252E+06    -8.68876E+06     2.71030E+06     25.1797E+03    -26.5834E-03     52.1952E-03    -25.6118E-03     58.6916E-03    -26.7518E-03     52.2797E-03    -25.5672E-03     58.5660E-03
            1741     12.2822E-03     37.9617E-03    -13.8607E+06    -27.2673E+06     3.56457E+06     30.6137E+03    -26.5764E-03     52.2010E-03    -25.6246E-03     56.7920E-03    -26.6940E-03     52.1622E-03    -25.5471E-03     56.6822E-03
            1742     11.4051E-03     37.9084E-03    -15.1990E+06    -42.0475E+06     3.43053E+06     39.1176E+03    -26.5386E-03     52.1634E-03    -25.6247E-03     54.7653E-03    -26.6200E-03     52.0316E-03    -25.5246E-03     54.6709E-03
            1743     10.5281E-03     37.8571E-03    -16.7780E+06    -52.2427E+06     3.85711E+06     45.9280E+03    -26.4528E-03     52.0726E-03    -25.6198E-03     52.1805E-03    -26.5120E-03     51.8756E-03    -25.5004E-03     52.1007E-03
            1744     9.65096E-03     37.8086E-03    -18.6396E+06    -60.4256E+06     3.30574E+06     53.1909E+03    -26.3370E-03     51.9438E-03    -25.6069E-03     49.0313E-03    -26.3807E-03     51.6973E-03    -25.4757E-03     48.9648E-03
            1745     8.77382E-03     37.7633E-03    -20.8062E+06    -68.1785E+06     2.47648E+06     61.3210E+03    -26.2029E-03     51.7956E-03    -25.5926E-03     45.4609E-03    -26.2359E-03     51.5055E-03    -25.4512E-03     45.4062E-03
            1746     7.89662E-03     37.7215E-03    -23.2966E+06    -74.3650E+06     481.282E+03     65.9633E+03    -26.0577E-03     51.6298E-03    -25.5721E-03     41.5899E-03    -26.0844E-03     51.3083E-03    -25.4280E-03     41.5455E-03
            1747     7.01937E-03     37.6835E-03    -26.0847E+06    -82.3448E+06    -2.70419E+06     70.1371E+03    -25.9196E-03     51.4700E-03    -25.5504E-03     37.4583E-03    -25.9388E-03     51.1122E-03    -25.4067E-03     37.4227E-03
            1748     6.14206E-03     37.6496E-03    -29.1353E+06    -89.9827E+06    -6.98851E+06     77.3028E+03    -25.7873E-03     51.3128E-03    -25.5256E-03     33.1395E-03    -25.8007E-03     50.9236E-03    -25.3878E-03     33.1114E-03
            1749     5.26471E-03     37.6198E-03    -32.4027E+06     -96.779E+06    -12.3180E+06     79.5970E+03    -25.6646E-03     51.1623E-03    -25.4977E-03     28.6901E-03    -25.6739E-03     50.7488E-03    -25.3720E-03     28.6684E-03
            1750     4.38731E-03     37.5944E-03    -35.8060E+06    -105.283E+06    -18.6701E+06     75.3945E+03    -25.5651E-03     51.0358E-03    -25.4708E-03     24.1111E-03    -25.5679E-03     50.5919E-03    -25.3595E-03     24.0947E-03
            1751     3.50988E-03     37.5735E-03    -39.2002E+06    -113.376E+06    -25.9086E+06     64.7216E+03    -25.4859E-03     50.9278E-03    -25.4419E-03     19.4452E-03    -25.4821E-03     50.4575E-03    -25.3502E-03     19.4330E-03
            1752     2.63243E-03     37.5570E-03    -42.3400E+06    -120.535E+06    -33.6031E+06     44.6275E+03    -25.4282E-03     50.8402E-03    -25.4119E-03     14.7168E-03    -25.4175E-03     50.3487E-03    -25.3438E-03     14.7083E-03
            1753     1.75496E-03     37.5451E-03    -44.8222E+06    -125.650E+06    -40.7677E+06     31.9068E+03    -25.3886E-03     50.7721E-03    -25.3835E-03     9.97183E-03    -25.3719E-03     50.2685E-03    -25.3402E-03     9.96636E-03
            1754     877.479E-06     37.5378E-03    -46.2967E+06    -131.337E+06    -45.3880E+06     26.1695E+03    -25.3756E-03     50.7425E-03    -25.3669E-03     5.43438E-03    -25.3510E-03     50.2189E-03    -25.3363E-03     5.43161E-03
            1755     16.6680E-03     37.2164E-03    -3.63594E+06     111.124E+06     65.3035E+06     15.7675E+03    -25.4971E-03     51.2550E-03    -25.7579E-03     24.4447E-03    -25.8548E-03     51.8049E-03    -25.5872E-03     24.3727E-03
            1756     15.7908E-03     37.1809E-03    -7.01156E+06     106.946E+06     49.0457E+06     34.6490E+03    -25.7778E-03     51.4609E-03    -25.6831E-03     43.2241E-03    -26.1796E-03     52.0752E-03    -25.5828E-03     43.1238E-03
            1757     14.9136E-03     37.1343E-03    -9.71257E+06     89.6752E+06     28.9287E+06     40.7417E+03    -26.1743E-03     51.7785E-03    -25.6042E-03     55.5496E-03    -26.5509E-03     52.3551E-03    -25.5755E-03     55.4290E-03
            1758     14.0365E-03     37.0752E-03    -11.5323E+06     38.7133E+06     10.1967E+06     32.0644E+03    -26.5336E-03     52.1074E-03    -25.5738E-03     60.8180E-03    -26.8115E-03     52.4523E-03    -25.5622E-03     60.6848E-03
            1759     13.1595E-03     37.0184E-03    -12.7260E+06    -8.67944E+06     2.69776E+06     26.3549E+03    -26.6475E-03     52.2331E-03    -25.5856E-03     58.5568E-03    -26.8156E-03     52.3174E-03    -25.5411E-03     58.4310E-03
            1760     12.2826E-03     36.9635E-03    -13.8630E+06    -27.2681E+06     3.54341E+06     30.8296E+03    -26.6308E-03     52.2228E-03    -25.5920E-03     56.6369E-03    -26.7482E-03     52.1839E-03    -25.5146E-03     56.5271E-03
            1761     11.4056E-03     36.9103E-03    -15.2020E+06    -42.0485E+06     3.40866E+06     41.7626E+03    -26.5816E-03     52.1671E-03    -25.5855E-03     54.5918E-03    -26.6627E-03     52.0351E-03    -25.4855E-03     54.4975E-03
            1762     10.5285E-03     36.8591E-03    -16.7799E+06    -52.2413E+06     3.83518E+06     51.9778E+03    -26.4828E-03     52.0566E-03    -25.5739E-03     51.9915E-03    -26.5418E-03     51.8595E-03    -25.4546E-03     51.9119E-03
            1763     9.65147E-03     36.8107E-03    -18.6408E+06    -60.4238E+06     3.28210E+06     60.3102E+03    -26.3528E-03     51.9071E-03    -25.5542E-03     48.8319E-03    -26.3963E-03     51.6604E-03    -25.4232E-03     48.7657E-03
            1764     8.77434E-03     36.7655E-03    -20.8068E+06    -68.1750E+06     2.45494E+06     68.6816E+03    -26.2039E-03     51.7374E-03    -25.5335E-03     45.2564E-03    -26.2367E-03     51.4472E-03    -25.3922E-03     45.2020E-03
            1765     7.89714E-03     36.7238E-03    -23.2960E+06    -74.3530E+06     461.683E+03     73.1090E+03    -26.0435E-03     51.5501E-03    -25.5066E-03     41.3854E-03    -26.0700E-03     51.2286E-03    -25.3627E-03     41.3413E-03
            1766     7.01987E-03     36.6859E-03    -26.0827E+06    -82.3376E+06    -2.72455E+06     79.0641E+03    -25.8905E-03     51.3695E-03    -25.4790E-03     37.2587E-03    -25.9096E-03     51.0116E-03    -25.3354E-03     37.2234E-03
            1767     6.14253E-03     36.6521E-03    -29.1311E+06    -89.9725E+06    -7.00947E+06     87.7580E+03    -25.7440E-03     51.1926E-03    -25.4486E-03     32.9500E-03    -25.7573E-03     50.8034E-03    -25.3109E-03     32.9223E-03
            1768     5.26514E-03     36.6225E-03    -32.3903E+06    -96.7581E+06    -12.3388E+06     93.2801E+03    -25.6083E-03     51.0240E-03    -25.4157E-03     28.5160E-03    -25.6175E-03     50.6106E-03    -25.2902E-03     28.4946E-03
            1769     4.38769E-03     36.5972E-03    -35.7824E+06    -105.255E+06    -18.6923E+06     95.5181E+03    -25.4971E-03     50.8815E-03    -25.3844E-03     23.9572E-03    -25.4998E-03     50.4377E-03    -25.2733E-03     23.9412E-03
            1770     3.51019E-03     36.5763E-03    -39.1621E+06    -113.329E+06    -25.9265E+06     86.1208E+03    -25.4080E-03     50.7599E-03    -25.3519E-03     19.3160E-03    -25.4039E-03     50.2896E-03    -25.2604E-03     19.3043E-03
            1771     2.63267E-03     36.5599E-03    -42.2875E+06    -120.490E+06    -33.5733E+06     70.9611E+03    -25.3425E-03     50.6617E-03    -25.3192E-03     14.6161E-03    -25.3316E-03     50.1703E-03    -25.2511E-03     14.6080E-03
            1772     1.75512E-03     36.5481E-03    -44.7909E+06    -125.604E+06    -40.6972E+06     47.9909E+03    -25.2971E-03     50.5859E-03    -25.2888E-03     9.90214E-03    -25.2804E-03     50.0824E-03    -25.2452E-03     9.89693E-03
            1773     877.561E-06     36.5408E-03    -46.2896E+06    -131.290E+06    -45.3514E+06     15.2435E+03    -25.2799E-03     50.5506E-03    -25.2707E-03     5.39573E-03    -25.2554E-03     50.0272E-03    -25.2400E-03     5.39285E-03
            1774     16.6681E-03     36.2179E-03    -3.63659E+06     111.101E+06     65.2945E+06     18.8976E+03    -25.5935E-03     51.3463E-03    -25.7528E-03     24.4008E-03    -25.9511E-03     51.8960E-03    -25.5821E-03     24.3282E-03
            1775     15.7910E-03     36.1824E-03    -7.01160E+06     106.925E+06     49.0392E+06     42.4759E+03    -25.8726E-03     51.5449E-03    -25.6723E-03     43.1403E-03    -26.2741E-03     52.1588E-03    -25.5720E-03     43.0393E-03
            1776     14.9139E-03     36.1358E-03    -9.71038E+06     89.6978E+06     28.9303E+06     49.0117E+03    -26.2650E-03     51.8521E-03    -25.5871E-03     55.4355E-03    -26.6412E-03     52.4284E-03    -25.5585E-03     55.3144E-03
            1777     14.0368E-03     36.0768E-03    -11.5314E+06     38.7563E+06     10.1944E+06     36.7521E+03    -26.6174E-03     52.1673E-03    -25.5500E-03     60.6801E-03    -26.8950E-03     52.5120E-03    -25.5385E-03     60.5466E-03
            1778     13.1599E-03     36.0201E-03    -12.7288E+06    -8.66614E+06     2.68047E+06     29.6405E+03    -26.7215E-03     52.2761E-03    -25.5546E-03     58.3969E-03    -26.8892E-03     52.3601E-03    -25.5102E-03     58.2709E-03
            1779     12.2830E-03     35.9653E-03    -13.8666E+06    -27.2685E+06     3.51843E+06     34.2901E+03    -26.6927E-03     52.2463E-03    -25.5536E-03     56.4550E-03    -26.8097E-03     52.2070E-03    -25.4763E-03     56.3451E-03
            1780     11.4061E-03     35.9121E-03    -15.2063E+06    -42.0504E+06     3.38270E+06     46.2240E+03    -26.6295E-03     52.1690E-03    -25.5395E-03     54.3899E-03    -26.7103E-03     52.0368E-03    -25.4396E-03     54.2957E-03
            1781     10.5291E-03     35.8611E-03    -16.7837E+06    -52.2414E+06     3.80822E+06     57.7903E+03    -26.5152E-03     52.0355E-03    -25.5202E-03     51.7725E-03    -26.5739E-03     51.8381E-03    -25.4011E-03     51.6931E-03
            1782     9.65206E-03     35.8128E-03    -18.6423E+06    -60.4213E+06     3.25491E+06     68.7298E+03    -26.3689E-03     51.8620E-03    -25.4930E-03     48.6004E-03    -26.4122E-03     51.6151E-03    -25.3621E-03     48.5345E-03
            1783     8.77494E-03     35.7677E-03    -20.8069E+06    -68.1699E+06     2.43082E+06     78.0205E+03    -26.2033E-03     51.6681E-03    -25.4648E-03     45.0178E-03    -26.2359E-03     51.3778E-03    -25.3236E-03     44.9638E-03
            1784     7.89773E-03     35.7262E-03    -23.2961E+06    -74.3395E+06     439.252E+03     82.8707E+03    -26.0262E-03     51.4569E-03    -25.4307E-03     41.1458E-03    -26.0525E-03     51.1353E-03    -25.2869E-03     41.1020E-03
            1785     7.02044E-03     35.6885E-03    -26.0810E+06    -82.3296E+06    -2.74771E+06     88.3333E+03    -25.8566E-03     51.2529E-03    -25.3963E-03     37.0244E-03    -25.8756E-03     50.8949E-03    -25.2528E-03     36.9894E-03
            1786     6.14308E-03     35.6548E-03    -29.1244E+06    -89.9618E+06    -7.03218E+06     98.2627E+03    -25.6941E-03     51.0536E-03    -25.3595E-03     32.7276E-03    -25.7072E-03     50.6644E-03    -25.2220E-03     32.7002E-03
            1787     5.26564E-03     35.6253E-03    -32.3790E+06    -96.7355E+06    -12.3595E+06     103.249E+03    -25.5433E-03     50.8641E-03    -25.3208E-03     28.3119E-03    -25.5524E-03     50.4507E-03    -25.1954E-03     28.2908E-03
            1788     4.38813E-03     35.6001E-03    -35.7572E+06    -105.230E+06    -18.7086E+06     106.768E+03    -25.4186E-03     50.7030E-03    -25.2844E-03     23.7771E-03    -25.4211E-03     50.2592E-03    -25.1735E-03     23.7613E-03
            1789     3.51056E-03     35.5793E-03    -39.1233E+06    -113.284E+06    -25.9376E+06     110.466E+03    -25.3178E-03     50.5654E-03    -25.2476E-03     19.1650E-03    -25.3136E-03     50.0953E-03    -25.1563E-03     19.1537E-03
            1790     2.63295E-03     35.5630E-03    -42.2418E+06    -120.435E+06    -33.5850E+06     99.7510E+03    -25.2429E-03     50.4544E-03    -25.2115E-03     14.4984E-03    -25.2318E-03     49.9632E-03    -25.1435E-03     14.4908E-03
            1791     1.75532E-03     35.5512E-03    -44.7142E+06    -125.529E+06    -40.6892E+06     77.0482E+03    -25.1908E-03     50.3695E-03    -25.1787E-03     9.82076E-03    -25.1738E-03     49.8662E-03    -25.1353E-03     9.81599E-03
            1792     877.663E-06     35.5440E-03    -46.2153E+06    -131.222E+06    -45.3231E+06     43.7150E+03    -25.1696E-03     50.3289E-03    -25.1594E-03     5.35076E-03    -25.1448E-03     49.8057E-03    -25.1287E-03     5.34829E-03
            1793     16.6682E-03     35.2192E-03    -3.63673E+06     111.075E+06     65.2866E+06     23.6145E+03    -25.7082E-03     51.4549E-03    -25.7467E-03     24.3493E-03    -26.0655E-03     52.0043E-03    -25.5761E-03     24.2759E-03
            1794     15.7912E-03     35.1838E-03    -7.01175E+06     106.899E+06     49.0312E+06     49.6768E+03    -25.9851E-03     51.6447E-03    -25.6595E-03     43.0422E-03    -26.3862E-03     52.2582E-03    -25.5592E-03     42.9403E-03
            1795     14.9142E-03     35.1373E-03    -9.71181E+06     89.7240E+06     28.9272E+06     58.2564E+03    -26.3713E-03     51.9383E-03    -25.5670E-03     55.3014E-03    -26.7472E-03     52.5143E-03    -25.5384E-03     55.1797E-03
            1796     14.0372E-03     35.0784E-03    -11.5351E+06     38.8088E+06     10.1917E+06     44.9990E+03    -26.7141E-03     52.2361E-03    -25.5219E-03     60.5169E-03    -26.9914E-03     52.5806E-03    -25.5105E-03     60.3829E-03
            1797     13.1604E-03     35.0218E-03    -12.7326E+06    -8.64944E+06     2.66200E+06     34.6846E+03    -26.8058E-03     52.3241E-03    -25.5183E-03     58.2079E-03    -26.9732E-03     52.4079E-03    -25.4740E-03     58.0817E-03
            1798     12.2836E-03     34.9671E-03    -13.8704E+06    -27.2692E+06     3.48949E+06     40.1094E+03    -26.7624E-03     52.2711E-03    -25.5087E-03     56.2410E-03    -26.8790E-03     52.2316E-03    -25.4316E-03     56.1311E-03
            1799     11.4067E-03     34.9140E-03    -15.2110E+06    -42.0515E+06     3.35245E+06     54.1531E+03    -26.6830E-03     52.1690E-03    -25.4861E-03     54.1529E-03    -26.7635E-03     52.0365E-03    -25.3863E-03     54.0589E-03
            1800     10.5298E-03     34.8631E-03    -16.7899E+06    -52.2408E+06     3.77539E+06     66.1784E+03    -26.5512E-03     52.0092E-03    -25.4580E-03     51.5157E-03    -26.6096E-03     51.8117E-03    -25.3391E-03     51.4366E-03
            1801     9.65274E-03     34.8150E-03    -18.6490E+06    -60.4198E+06     3.21889E+06     77.9756E+03    -26.3865E-03     51.8086E-03    -25.4221E-03     48.3297E-03    -26.4295E-03     51.5616E-03    -25.2914E-03     48.2642E-03
            1802     8.77563E-03     34.7701E-03    -20.8128E+06    -68.1640E+06     2.39865E+06     90.0700E+03    -26.2018E-03     51.5873E-03    -25.3854E-03     44.7398E-03    -26.2342E-03     51.2968E-03    -25.2444E-03     44.6862E-03
            1803     7.89843E-03     34.7287E-03    -23.3008E+06    -74.3228E+06     410.071E+03     94.8818E+03    -26.0053E-03     51.3484E-03    -25.3430E-03     40.8680E-03    -26.0315E-03     51.0268E-03    -25.1994E-03     40.8247E-03
            1804     7.02112E-03     34.6911E-03    -26.0855E+06    -82.3183E+06    -2.77572E+06     99.5781E+03    -25.8166E-03     51.1174E-03    -25.3008E-03     36.7547E-03    -25.8355E-03     50.7595E-03    -25.1575E-03     36.7202E-03
            1805     6.14371E-03     34.6576E-03    -29.1295E+06    -89.9501E+06    -7.05969E+06     108.870E+03    -25.6358E-03     50.8925E-03    -25.2568E-03     32.4741E-03    -25.6488E-03     50.5033E-03    -25.1194E-03     32.4471E-03
            1806     5.26621E-03     34.6283E-03    -32.3821E+06    -96.7079E+06    -12.3817E+06     113.777E+03    -25.4680E-03     50.6795E-03    -25.2115E-03     28.0812E-03    -25.4770E-03     50.2662E-03    -25.0863E-03     28.0605E-03
            1807     4.38863E-03     34.6032E-03    -35.7627E+06    -105.201E+06    -18.7248E+06     113.444E+03    -25.3279E-03     50.4973E-03    -25.1694E-03     23.5748E-03    -25.3304E-03     50.0537E-03    -25.0586E-03     23.5593E-03
            1808     3.51098E-03     34.5825E-03    -39.1154E+06    -113.259E+06    -25.9617E+06     124.062E+03    -25.2140E-03     50.3416E-03    -25.1276E-03     18.9962E-03    -25.2097E-03     49.8716E-03    -25.0365E-03     18.9853E-03
            1809     2.63328E-03     34.5663E-03    -42.2097E+06    -120.377E+06    -33.6327E+06     143.456E+03    -25.1283E-03     50.2158E-03    -25.0875E-03     14.3673E-03    -25.1171E-03     49.7250E-03    -25.0199E-03     14.3603E-03
            1810     1.75554E-03     34.5546E-03    -44.6817E+06    -125.424E+06    -40.7549E+06     126.952E+03    -25.0682E-03     50.1200E-03    -25.0518E-03     9.73002E-03    -25.0512E-03     49.6173E-03    -25.0089E-03     9.72597E-03
            1811     877.770E-06     34.5474E-03    -46.1200E+06    -131.096E+06    -45.2704E+06     79.5973E+03    -25.0429E-03     50.0740E-03    -25.0311E-03     5.30041E-03    -25.0179E-03     49.5512E-03    -25.0005E-03     5.29844E-03
            1812     16.6683E-03     34.2205E-03    -3.63506E+06     111.044E+06     65.2786E+06     28.2489E+03    -25.8430E-03     51.5827E-03    -25.7397E-03     24.2865E-03    -26.2000E-03     52.1318E-03    -25.5691E-03     24.2122E-03
            1813     15.7914E-03     34.1851E-03    -7.01114E+06     106.869E+06     49.0232E+06     60.8848E+03    -26.1169E-03     51.7615E-03    -25.6446E-03     42.9256E-03    -26.5176E-03     52.3745E-03    -25.5443E-03     42.8227E-03
            1814     14.9145E-03     34.1387E-03    -9.71523E+06     89.7545E+06     28.9229E+06     70.5392E+03    -26.4948E-03     52.0383E-03    -25.5434E-03     55.1426E-03    -26.8703E-03     52.6140E-03    -25.5149E-03     55.0202E-03
            1815     14.0377E-03     34.0798E-03    -11.5385E+06     38.8714E+06     10.1857E+06     53.2083E+03    -26.8252E-03     52.3144E-03    -25.4892E-03     60.3230E-03    -27.1020E-03     52.6587E-03    -25.4779E-03     60.1885E-03
            1816     13.1610E-03     34.0234E-03    -12.7365E+06    -8.62991E+06     2.63703E+06     42.5549E+03    -26.9016E-03     52.3777E-03    -25.4761E-03     57.9842E-03    -27.0686E-03     52.4612E-03    -25.4319E-03     57.8578E-03
            1817     12.2842E-03     33.9688E-03    -13.8759E+06    -27.2697E+06     3.45266E+06     48.9363E+03    -26.8410E-03     52.2978E-03    -25.4568E-03     55.9896E-03    -26.9572E-03     52.2579E-03    -25.3799E-03     55.8798E-03
            1818     11.4074E-03     33.9159E-03    -15.2156E+06    -42.0523E+06     3.31467E+06     64.8111E+03    -26.7427E-03     52.1670E-03    -25.4243E-03     53.8767E-03    -26.8228E-03     52.0342E-03    -25.3247E-03     53.7829E-03
            1819     10.5305E-03     33.8652E-03    -16.7935E+06    -52.2386E+06     3.73735E+06     78.8088E+03    -26.5907E-03     51.9771E-03    -25.3863E-03     51.2193E-03    -26.6488E-03     51.7792E-03    -25.2675E-03     51.1405E-03
            1820     9.65353E-03     33.8172E-03    -18.6538E+06    -60.4180E+06     3.17611E+06     91.9843E+03    -26.4051E-03     51.7456E-03    -25.3405E-03     48.0202E-03    -26.4478E-03     51.4984E-03    -25.2100E-03     47.9552E-03
            1821     8.77643E-03     33.7725E-03    -20.8191E+06    -68.1583E+06     2.35924E+06     105.390E+03    -26.1987E-03     51.4929E-03    -25.2942E-03     44.4240E-03    -26.2308E-03     51.2023E-03    -25.1534E-03     44.3709E-03
            1822     7.89922E-03     33.7313E-03    -23.3084E+06    -74.3009E+06     374.410E+03     110.444E+03    -25.9798E-03     51.2224E-03    -25.2426E-03     40.5535E-03    -26.0058E-03     50.9008E-03    -25.0992E-03     40.5108E-03
            1823     7.02188E-03     33.6940E-03    -26.0954E+06    -82.3066E+06    -2.80966E+06     116.188E+03    -25.7692E-03     50.9609E-03    -25.1916E-03     36.4500E-03    -25.7879E-03     50.6029E-03    -25.0485E-03     36.4160E-03
            1824     6.14443E-03     33.6606E-03    -29.1447E+06    -89.9329E+06    -7.09000E+06     127.162E+03    -25.5677E-03     50.7072E-03    -25.1395E-03     32.1875E-03    -25.5806E-03     50.3180E-03    -25.0023E-03     32.1610E-03
            1825     5.26687E-03     33.6314E-03    -32.4039E+06    -96.6728E+06    -12.4092E+06     126.533E+03    -25.3807E-03     50.4677E-03    -25.0870E-03     27.8204E-03    -25.3898E-03     50.0546E-03    -24.9619E-03     27.8001E-03
            1826     4.38921E-03     33.6065E-03    -35.7870E+06    -105.170E+06    -18.7442E+06     126.014E+03    -25.2238E-03     50.2623E-03    -25.0385E-03     23.3463E-03    -25.2264E-03     49.8189E-03    -24.9278E-03     23.3312E-03
            1827     3.51146E-03     33.5860E-03    -39.1497E+06    -113.229E+06    -25.9804E+06     128.333E+03    -25.0955E-03     50.0868E-03    -24.9913E-03     18.8058E-03    -25.0913E-03     49.6171E-03    -24.9003E-03     18.7951E-03
            1828     2.63365E-03     33.5699E-03    -42.2105E+06    -120.348E+06    -33.6534E+06     147.740E+03    -24.9980E-03     49.9448E-03    -24.9468E-03     14.2194E-03    -24.9868E-03     49.4541E-03    -24.8793E-03     14.2125E-03
            1829     1.75579E-03     33.5583E-03    -44.6194E+06    -125.344E+06    -40.7395E+06     218.122E+03    -24.9292E-03     49.8372E-03    -24.9080E-03     9.62797E-03    -24.9120E-03     49.3347E-03    -24.8652E-03     9.62518E-03
            1830     877.905E-06     33.5511E-03    -46.1699E+06    -130.796E+06    -45.3806E+06     243.279E+03    -24.8978E-03     49.7824E-03    -24.8846E-03     5.24450E-03    -24.8734E-03     49.2614E-03    -24.8549E-03     5.24469E-03
            1831     16.6684E-03     33.2216E-03    -3.63597E+06     111.005E+06     65.2662E+06     34.2410E+03    -26.0000E-03     51.7315E-03    -25.7315E-03     24.2115E-03    -26.3568E-03     52.2801E-03    -25.5608E-03     24.1362E-03
            1832     15.7917E-03     33.1863E-03    -7.01190E+06     106.832E+06     49.0157E+06     74.3671E+03    -26.2692E-03     51.8965E-03    -25.6273E-03     42.7877E-03    -26.6693E-03     52.5088E-03    -25.5269E-03     42.6837E-03
            1833     14.9149E-03     33.1399E-03    -9.71437E+06     89.7929E+06     28.9235E+06     85.6663E+03    -26.6365E-03     52.1526E-03    -25.5161E-03     54.9557E-03    -27.0114E-03     52.7279E-03    -25.4876E-03     54.8325E-03
            1834     14.0382E-03     33.0812E-03    -11.5419E+06     38.9442E+06     10.1770E+06     64.7134E+03    -26.9514E-03     52.4028E-03    -25.4514E-03     60.0952E-03    -27.2277E-03     52.7468E-03    -25.4402E-03     59.9602E-03
            1835     13.1616E-03     33.0249E-03    -12.7424E+06    -8.60854E+06     2.60591E+06     52.7571E+03    -27.0097E-03     52.4371E-03    -25.4274E-03     57.7247E-03    -27.1761E-03     52.5202E-03    -25.3834E-03     57.5982E-03
            1836     12.2849E-03     32.9705E-03    -13.8794E+06    -27.2685E+06     3.41084E+06     59.7127E+03    -26.9291E-03     52.3262E-03    -25.3971E-03     55.7004E-03    -27.0447E-03     52.2859E-03    -25.3204E-03     55.5907E-03
            1837     11.4082E-03     32.9178E-03    -15.2177E+06    -42.0537E+06     3.27048E+06     77.5129E+03    -26.8088E-03     52.1623E-03    -25.3534E-03     53.5612E-03    -26.8884E-03     52.0291E-03    -25.2540E-03     53.4677E-03
            1838     10.5314E-03     32.8672E-03    -16.7957E+06    -52.2377E+06     3.69287E+06     95.8113E+03    -26.6337E-03     51.9381E-03    -25.3044E-03     50.8820E-03    -26.6913E-03     51.7399E-03    -25.1858E-03     50.8038E-03
            1839     9.65442E-03     32.8195E-03    -18.6560E+06    -60.4140E+06     3.12730E+06     111.919E+03    -26.4241E-03     51.6717E-03    -25.2475E-03     47.6687E-03    -26.4664E-03     51.4242E-03    -25.1173E-03     47.6042E-03
            1840     8.77734E-03     32.7750E-03    -20.8209E+06    -68.1503E+06     2.31368E+06     125.883E+03    -26.1930E-03     51.3835E-03    -25.1904E-03     44.0653E-03    -26.2248E-03     51.0927E-03    -25.0499E-03     44.0129E-03
            1841     7.90012E-03     32.7341E-03    -23.3117E+06    -74.2775E+06     331.938E+03     133.517E+03    -25.9493E-03     51.0777E-03    -25.1284E-03     40.1969E-03    -25.9751E-03     50.7561E-03    -24.9853E-03     40.1548E-03
            1842     7.02275E-03     32.6969E-03    -26.1040E+06    -82.2934E+06    -2.85032E+06     142.954E+03    -25.7146E-03     50.7823E-03    -25.0678E-03     36.1047E-03    -25.7331E-03     50.4243E-03    -24.9248E-03     36.0714E-03
            1843     6.14525E-03     32.6638E-03    -29.1600E+06    -89.9121E+06    -7.12469E+06     156.081E+03    -25.4899E-03     50.4966E-03    -25.0067E-03     31.8621E-03    -25.5028E-03     50.1074E-03    -24.8696E-03     31.8363E-03
            1844     5.26761E-03     32.6348E-03    -32.4302E+06    -96.6210E+06    -12.4368E+06     152.376E+03    -25.2815E-03     50.2275E-03    -24.9460E-03     27.5233E-03    -25.2907E-03     49.8146E-03    -24.8210E-03     27.5036E-03
            1845     4.38986E-03     32.6101E-03    -35.8251E+06    -105.133E+06    -18.7662E+06     139.327E+03    -25.1057E-03     49.9961E-03    -24.8904E-03     23.0850E-03    -25.1084E-03     49.5528E-03    -24.7798E-03     23.0703E-03
            1846     3.51200E-03     32.5897E-03    -39.1921E+06    -113.183E+06    -25.9816E+06     138.598E+03    -24.9610E-03     49.7982E-03    -24.8372E-03     18.5871E-03    -24.9571E-03     49.3287E-03    -24.7461E-03     18.5767E-03
            1847     2.63407E-03     32.5738E-03    -42.3105E+06    -120.317E+06    -33.6293E+06     141.732E+03    -24.8504E-03     49.6382E-03    -24.7878E-03     14.0491E-03    -24.8397E-03     49.1478E-03    -24.7202E-03     14.0423E-03
            1848     1.75608E-03     32.5622E-03    -44.7469E+06    -125.356E+06    -40.7153E+06     213.274E+03    -24.7716E-03     49.5168E-03    -24.7452E-03     9.51011E-03    -24.7550E-03     49.0144E-03    -24.7021E-03     9.50734E-03
            1849     878.041E-06     32.5551E-03    -46.0664E+06    -130.318E+06    -45.1687E+06     320.721E+03    -24.7334E-03     49.4524E-03    -24.7190E-03     5.17948E-03    -24.7094E-03     48.9332E-03    -24.6891E-03     5.18072E-03
            1850     16.6686E-03     32.2225E-03    -3.63565E+06     110.959E+06     65.2507E+06     42.7817E+03    -26.1810E-03     51.9030E-03    -25.7220E-03     24.1261E-03    -26.5374E-03     52.4512E-03    -25.5514E-03     24.0495E-03
            1851     15.7920E-03     32.1873E-03    -7.01184E+06     106.790E+06     49.0071E+06     87.6284E+03    -26.4440E-03     52.0513E-03    -25.6073E-03     42.6293E-03    -26.8435E-03     52.6629E-03    -25.5070E-03     42.5239E-03
            1852     14.9154E-03     32.1411E-03    -9.71602E+06     89.8343E+06     28.9212E+06     102.830E+03    -26.7973E-03     52.2821E-03    -25.4848E-03     54.7393E-03    -27.1716E-03     52.8570E-03    -25.4564E-03     54.6152E-03
            1853     14.0388E-03     32.0825E-03    -11.5442E+06     39.0313E+06     10.1677E+06     81.1472E+03    -27.0936E-03     52.5018E-03    -25.4081E-03     59.8313E-03    -27.3694E-03     52.8456E-03    -25.3971E-03     59.6958E-03
            1854     13.1623E-03     32.0264E-03    -12.7442E+06    -8.58349E+06     2.56965E+06     63.4295E+03    -27.1313E-03     52.5033E-03    -25.3719E-03     57.4251E-03    -27.2971E-03     52.5859E-03    -25.3281E-03     57.2983E-03
            1855     12.2858E-03     31.9721E-03    -13.8803E+06    -27.2685E+06     3.35933E+06     73.0495E+03    -27.0275E-03     52.3566E-03    -25.3291E-03     55.3664E-03    -27.1425E-03     52.3158E-03    -25.2527E-03     55.2568E-03
            1856     11.4091E-03     31.9197E-03    -15.2195E+06    -42.0553E+06     3.21706E+06     95.8558E+03    -26.8822E-03     52.1551E-03    -25.2729E-03     53.1975E-03    -26.9612E-03     52.0215E-03    -25.1738E-03     53.1044E-03
            1857     10.5324E-03     31.8694E-03    -16.7983E+06    -52.2387E+06     3.63658E+06     117.610E+03    -26.6810E-03     51.8923E-03    -25.2113E-03     50.4945E-03    -26.7381E-03     51.6938E-03    -25.0930E-03     50.4168E-03
            1858     9.65544E-03     31.8219E-03    -18.6570E+06    -60.4068E+06     3.06832E+06     135.836E+03    -26.4443E-03     51.5864E-03    -25.1421E-03     47.2649E-03    -26.4862E-03     51.3387E-03    -25.0121E-03     47.2011E-03
            1859     8.77837E-03     31.7776E-03    -20.8216E+06    -68.1424E+06     2.25725E+06     153.419E+03    -26.1853E-03     51.2582E-03    -25.0729E-03     43.6532E-03    -26.2167E-03     50.9672E-03    -24.9326E-03     43.6016E-03
            1860     7.90114E-03     31.7370E-03    -23.3146E+06    -74.2536E+06     277.078E+03     166.059E+03    -25.9138E-03     50.9131E-03    -24.9993E-03     39.7871E-03    -25.9393E-03     50.5914E-03    -24.8565E-03     39.7458E-03
            1861     7.02373E-03     31.7001E-03    -26.1084E+06    -82.2797E+06    -2.90309E+06     180.788E+03    -25.6523E-03     50.5800E-03    -24.9277E-03     35.7076E-03    -25.6706E-03     50.2220E-03    -24.7851E-03     35.6752E-03
            1862     6.14617E-03     31.6672E-03    -29.1694E+06    -89.8852E+06    -7.16872E+06     198.395E+03    -25.4020E-03     50.2585E-03    -24.8565E-03     31.4880E-03    -25.4148E-03     49.8694E-03    -24.7197E-03     31.4630E-03
            1863     5.26845E-03     31.6385E-03    -32.4501E+06    -96.5587E+06    -12.4720E+06     196.440E+03    -25.1698E-03     49.9563E-03    -24.7865E-03     27.1821E-03    -25.1790E-03     49.5437E-03    -24.6618E-03     27.1633E-03
            1864     4.39059E-03     31.6140E-03    -35.8708E+06    -105.066E+06    -18.7940E+06     175.464E+03    -24.9723E-03     49.6951E-03    -24.7228E-03     22.7852E-03    -24.9753E-03     49.2522E-03    -24.6124E-03     22.7712E-03
            1865     3.51262E-03     31.5938E-03    -39.2816E+06    -113.139E+06    -26.0156E+06     160.699E+03    -24.8089E-03     49.4716E-03    -24.6627E-03     18.3366E-03    -24.8055E-03     49.0025E-03    -24.5718E-03     18.3266E-03
            1866     2.63455E-03     31.5780E-03    -42.4371E+06    -120.261E+06    -33.6354E+06     173.849E+03    -24.6832E-03     49.2911E-03    -24.6079E-03     13.8544E-03    -24.6733E-03     48.8011E-03    -24.5401E-03     13.8481E-03
            1867     1.75640E-03     31.5665E-03    -45.0732E+06    -125.373E+06    -40.6719E+06     225.898E+03    -24.5934E-03     49.1545E-03    -24.5611E-03     9.37587E-03    -24.5784E-03     48.6524E-03    -24.5173E-03     9.37337E-03
            1868     878.219E-06     31.5595E-03    -46.8999E+06    -129.824E+06    -45.7119E+06     276.582E+03    -24.5440E-03     49.0717E-03    -24.5277E-03     5.10552E-03    -24.5242E-03     48.5571E-03    -24.5000E-03     5.10624E-03
            1869     16.6688E-03     31.2233E-03    -3.63351E+06     110.905E+06     65.2355E+06     50.0206E+03    -26.3885E-03     52.0998E-03    -25.7113E-03     24.0231E-03    -26.7444E-03     52.6474E-03    -25.5407E-03     23.9451E-03
            1870     15.7923E-03     31.1881E-03    -7.00779E+06     106.739E+06     48.9909E+06     105.540E+03    -26.6429E-03     52.2275E-03    -25.5846E-03     42.4405E-03    -27.0416E-03     52.8382E-03    -25.4842E-03     42.3337E-03
            1871     14.9159E-03     31.1421E-03    -9.71655E+06     89.8788E+06     28.9060E+06     125.438E+03    -26.9788E-03     52.4279E-03    -25.4491E-03     54.4833E-03    -27.3523E-03     53.0022E-03    -25.4208E-03     54.3581E-03
            1872     14.0395E-03     31.0837E-03    -11.5488E+06     39.1341E+06     10.1485E+06     99.1454E+03    -27.2539E-03     52.6128E-03    -25.3589E-03     59.5231E-03    -27.5288E-03     52.9563E-03    -25.3482E-03     59.3870E-03
            1873     13.1632E-03     31.0278E-03    -12.7496E+06    -8.55132E+06     2.52210E+06     77.0066E+03    -27.2686E-03     52.5775E-03    -25.3089E-03     57.0757E-03    -27.4336E-03     52.6596E-03    -25.2654E-03     56.9487E-03
            1874     12.2867E-03     30.9738E-03    -13.8849E+06    -27.2751E+06     3.29339E+06     89.0855E+03    -27.1382E-03     52.3903E-03    -25.2520E-03     54.9784E-03    -27.2525E-03     52.3489E-03    -25.1759E-03     54.8690E-03
            1875     11.4102E-03     30.9215E-03    -15.2223E+06    -42.0578E+06      3.1535E+06     120.486E+03    -26.9643E-03     52.1460E-03    -25.1817E-03     52.7771E-03    -27.0426E-03     52.0118E-03    -25.0829E-03     52.6845E-03
            1876     10.5335E-03     30.8715E-03    -16.7997E+06    -52.2364E+06     3.57078E+06     143.566E+03    -26.7335E-03     51.8395E-03    -25.1060E-03     50.0485E-03    -26.7900E-03     51.6406E-03    -24.9880E-03     49.9716E-03
            1877     9.65659E-03     30.8243E-03    -18.6562E+06    -60.4008E+06     2.99736E+06     164.597E+03    -26.4663E-03     51.4891E-03    -25.0228E-03     46.8008E-03    -26.5076E-03     51.2410E-03    -24.8931E-03     46.7379E-03
            1878     8.77954E-03     30.7804E-03    -20.8201E+06    -68.1368E+06     2.18855E+06     190.014E+03    -26.1759E-03     51.1160E-03    -24.9400E-03     43.1806E-03    -26.2069E-03     50.8247E-03    -24.8001E-03     43.1299E-03
            1879     7.90229E-03     30.7400E-03    -23.3118E+06    -74.2270E+06     209.255E+03     206.804E+03    -25.8732E-03     50.7265E-03    -24.8534E-03     39.3182E-03    -25.8983E-03     50.4048E-03    -24.7109E-03     39.2780E-03
            1880     7.02484E-03     30.7035E-03    -26.1022E+06    -82.2662E+06    -2.97066E+06     226.102E+03    -25.5812E-03     50.3507E-03    -24.7695E-03     35.2547E-03    -25.5992E-03     49.9926E-03    -24.6272E-03     35.2233E-03
            1881     6.14721E-03     30.6709E-03    -29.1612E+06    -89.8596E+06    -7.22728E+06     255.738E+03    -25.3020E-03     49.9888E-03    -24.6869E-03     31.0634E-03    -25.3145E-03     49.5998E-03    -24.5504E-03     31.0397E-03
            1882     5.26940E-03     30.6424E-03    -32.4455E+06    -96.4792E+06    -12.5183E+06     257.514E+03    -25.0429E-03     49.6495E-03    -24.6066E-03     26.7970E-03    -25.0520E-03     49.2373E-03    -24.4823E-03     26.7793E-03
            1883     4.39142E-03     30.6182E-03    -35.8749E+06    -104.991E+06    -18.8283E+06     244.024E+03    -24.8215E-03     49.3554E-03    -24.5339E-03     22.4482E-03    -24.8244E-03     48.9129E-03    -24.4238E-03     22.4354E-03
            1884     3.51331E-03     30.5982E-03    -39.3186E+06    -113.055E+06    -26.0261E+06     230.163E+03    -24.6374E-03     49.1038E-03    -24.4663E-03     18.0563E-03    -24.6342E-03     48.6351E-03    -24.3755E-03     18.0475E-03
            1885     2.63508E-03     30.5825E-03    -42.5342E+06    -120.200E+06    -33.6548E+06     216.104E+03    -24.4950E-03     48.9003E-03    -24.4054E-03     13.6376E-03    -24.4855E-03     48.4108E-03    -24.3377E-03     13.6321E-03
            1886     1.75677E-03     30.5712E-03    -45.1053E+06    -125.304E+06    -40.7096E+06     245.877E+03    -24.3928E-03     48.7466E-03    -24.3539E-03     9.22685E-03    -24.3780E-03     48.2450E-03    -24.3103E-03     9.22472E-03
            1887     878.397E-06     30.5643E-03    -46.6479E+06    -129.380E+06    -45.4924E+06     222.358E+03    -24.3364E-03     48.6541E-03    -24.3178E-03     5.02386E-03    -24.3162E-03     48.1410E-03    -24.2900E-03     5.02394E-03
            1888     16.6690E-03     30.2238E-03    -3.63250E+06     110.839E+06     65.2204E+06     57.6662E+03    -26.6260E-03     52.3252E-03    -25.6991E-03     23.8983E-03    -26.9815E-03     52.8720E-03    -25.5285E-03     23.8186E-03
            1889     15.7928E-03     30.1888E-03    -7.00975E+06     106.672E+06     48.9713E+06     128.990E+03    -26.8668E-03     52.4255E-03    -25.5587E-03     42.2161E-03    -27.2646E-03     53.0351E-03    -25.4584E-03     42.1077E-03
            1890     14.9165E-03     30.1429E-03    -9.72328E+06     89.9356E+06     28.8889E+06     156.096E+03    -27.1820E-03     52.5907E-03    -25.4087E-03     54.1851E-03    -27.5547E-03     53.1643E-03    -25.3805E-03     54.0590E-03
            1891     14.0403E-03     30.0848E-03    -11.5582E+06     39.2559E+06     10.1305E+06     117.955E+03    -27.4344E-03     52.7378E-03    -25.3034E-03     59.1678E-03    -27.7086E-03     53.0809E-03    -25.2929E-03     59.0310E-03
            1892     13.1641E-03     30.0291E-03    -12.7560E+06    -8.51650E+06     2.47087E+06     91.7818E+03    -27.4233E-03     52.6611E-03    -25.2377E-03     56.6721E-03    -27.5875E-03     52.7425E-03    -25.1945E-03     56.5449E-03
            1893     12.2878E-03     29.9754E-03    -13.8882E+06    -27.2855E+06     3.21994E+06     109.134E+03    -27.2628E-03     52.4278E-03    -25.1650E-03     54.5312E-03    -27.3762E-03     52.3857E-03    -25.0892E-03     54.4220E-03
            1894     11.4113E-03     29.9234E-03    -15.2206E+06    -42.0640E+06     3.08056E+06     145.664E+03    -27.0562E-03     52.1349E-03    -25.0787E-03     52.2952E-03    -27.1337E-03     52.0001E-03    -24.9802E-03     52.2032E-03
            1895     10.5347E-03     29.8737E-03    -16.7909E+06    -52.2302E+06     3.49870E+06     174.591E+03    -26.7914E-03     51.7785E-03    -24.9871E-03     49.5404E-03    -26.8471E-03     51.5791E-03    -24.8695E-03     49.4642E-03
            1896     9.65789E-03     29.8269E-03    -18.6460E+06    -60.3988E+06     2.91431E+06     201.784E+03    -26.4893E-03     51.3776E-03    -24.8883E-03     46.2757E-03    -26.5299E-03     51.1292E-03    -24.7591E-03     46.2137E-03
            1897     8.78085E-03     29.7833E-03    -20.8071E+06    -68.1318E+06     2.10640E+06     233.736E+03    -26.1640E-03     50.9544E-03    -24.7904E-03     42.6498E-03    -26.1943E-03     50.6629E-03    -24.6509E-03     42.6002E-03
            1898     7.90359E-03     29.7433E-03    -23.2930E+06    -74.1956E+06     128.286E+03     254.039E+03    -25.8261E-03     50.5154E-03    -24.6892E-03     38.7940E-03    -25.8508E-03     50.1936E-03    -24.5472E-03     38.7549E-03
            1899     7.02609E-03     29.7071E-03    -26.0784E+06    -82.2554E+06    -3.05379E+06     280.812E+03    -25.4997E-03     50.0914E-03    -24.5917E-03     34.7502E-03    -25.5172E-03     49.7332E-03    -24.4499E-03     34.7200E-03
            1900     6.14839E-03     29.6748E-03    -29.1300E+06    -89.8367E+06    -7.30227E+06     321.265E+03    -25.1879E-03     49.6846E-03    -24.4967E-03     30.5922E-03    -25.2000E-03     49.2955E-03    -24.3607E-03     30.5697E-03
            1901     5.27046E-03     29.6467E-03    -32.4026E+06    -96.3851E+06    -12.5761E+06     332.193E+03    -24.8991E-03     49.3043E-03    -24.4052E-03     26.3697E-03    -24.9079E-03     48.8924E-03    -24.2813E-03     26.3534E-03
            1902     4.39235E-03     29.6227E-03    -35.8193E+06    -104.915E+06    -18.8711E+06     326.124E+03    -24.6515E-03     48.9744E-03    -24.3228E-03     22.0746E-03    -24.6542E-03     48.5321E-03    -24.2131E-03     22.0632E-03
            1903     3.51408E-03     29.6029E-03    -39.2467E+06    -112.952E+06    -26.0547E+06     335.227E+03    -24.4453E-03     48.6924E-03    -24.2471E-03     17.7460E-03    -24.4418E-03     48.2241E-03    -24.1567E-03     17.7388E-03
            1904     2.63568E-03     29.5875E-03    -42.4518E+06    -120.037E+06    -33.6429E+06     292.442E+03    -24.2851E-03     48.4648E-03    -24.1797E-03     13.3976E-03    -24.2755E-03     47.9759E-03    -24.1123E-03     13.3932E-03
            1905     1.75718E-03     29.5763E-03    -45.0208E+06    -125.109E+06    -40.6674E+06     145.295E+03    -24.1697E-03     48.2931E-03    -24.1234E-03     9.06159E-03    -24.1548E-03     47.7922E-03    -24.0801E-03     9.05828E-03
            1906     878.603E-06     29.5695E-03    -46.5529E+06    -129.137E+06    -45.4210E+06     16.1029E+03    -24.1053E-03     48.1894E-03    -24.0841E-03     4.93249E-03    -24.0851E-03     47.6772E-03    -24.0564E-03     4.92997E-03
            1907     16.6692E-03     29.2241E-03    -3.63386E+06     110.758E+06     65.2001E+06     71.5280E+03    -26.8945E-03     52.5799E-03    -25.6854E-03     23.7471E-03    -27.2493E-03     53.1259E-03    -25.5147E-03     23.6657E-03
            1908     15.7932E-03     29.1893E-03    -7.01539E+06     106.591E+06     48.9591E+06     156.869E+03    -27.1172E-03     52.6470E-03    -25.5297E-03     41.9555E-03    -27.5140E-03     53.2552E-03    -25.4293E-03     41.8453E-03
            1909     14.9172E-03     29.1436E-03    -9.72261E+06     90.0074E+06     28.8870E+06     181.570E+03    -27.4112E-03     52.7744E-03    -25.3633E-03     53.8443E-03    -27.7827E-03     53.3473E-03    -25.3353E-03     53.7169E-03
            1910     14.0412E-03     29.0857E-03    -11.5465E+06     39.3936E+06     10.1151E+06     138.403E+03    -27.6389E-03     52.8798E-03    -25.2408E-03     58.7571E-03    -27.9120E-03     53.2224E-03    -25.2306E-03     58.6195E-03
            1911     13.1652E-03     29.0303E-03    -12.7468E+06    -8.48188E+06     2.41118E+06     114.768E+03    -27.5971E-03     52.7547E-03    -25.1576E-03     56.2042E-03    -27.7602E-03     52.8354E-03    -25.1147E-03     56.0768E-03
            1912     12.2890E-03     28.9769E-03    -13.8795E+06    -27.2919E+06     3.13544E+06     132.215E+03    -27.4011E-03     52.4681E-03    -25.0670E-03     54.0174E-03    -27.5135E-03     52.4252E-03    -24.9916E-03     53.9084E-03
            1913     11.4127E-03     28.9253E-03    -15.2042E+06    -42.0738E+06     2.99385E+06     170.767E+03    -27.1566E-03     52.1196E-03    -24.9629E-03     51.7480E-03    -27.2332E-03     51.9841E-03    -24.8649E-03     51.6566E-03
            1914     10.5361E-03     28.8760E-03    -16.7707E+06    -52.2310E+06     3.41137E+06     211.560E+03    -26.8526E-03     51.7064E-03    -24.8538E-03     48.9695E-03    -26.9074E-03     51.5065E-03    -24.7367E-03     48.8943E-03
            1915     9.65934E-03     28.8295E-03     -18.622E+06    -60.3962E+06     2.81735E+06     248.595E+03    -26.5114E-03     51.2493E-03    -24.7379E-03     45.6905E-03    -26.5513E-03     51.0005E-03    -24.6092E-03     45.6297E-03
            1916     8.78231E-03     28.7864E-03    -20.7772E+06    -68.1250E+06     2.01139E+06     283.578E+03    -26.1475E-03     50.7709E-03    -24.6235E-03     42.0611E-03    -26.1771E-03     50.4791E-03    -24.4845E-03     42.0128E-03
            1917     7.90503E-03     28.7468E-03    -23.2571E+06    -74.1631E+06     30.2804E+03     311.175E+03    -25.7712E-03     50.2776E-03    -24.5064E-03     38.2141E-03    -25.7952E-03     49.9557E-03    -24.3650E-03     38.1763E-03
            1918     7.02748E-03     28.7109E-03    -26.0364E+06    -82.2448E+06    -3.15244E+06     346.401E+03    -25.4076E-03     49.8016E-03    -24.3941E-03     34.1924E-03    -25.4245E-03     49.4433E-03    -24.2528E-03     34.1636E-03
            1919     6.14969E-03     28.6791E-03    -29.0758E+06    -89.8103E+06    -7.38882E+06     393.120E+03    -25.0601E-03     49.3455E-03    -24.2853E-03     30.0703E-03    -25.0717E-03     48.9564E-03    -24.1499E-03     30.0493E-03
            1920     5.27164E-03     28.6513E-03    -32.3280E+06    -96.2843E+06    -12.6564E+06     410.617E+03    -24.7382E-03     48.9198E-03    -24.1816E-03     25.8962E-03    -24.7465E-03     48.5082E-03    -24.0584E-03     25.8814E-03
            1921     4.39338E-03     28.6276E-03    -35.7223E+06    -104.835E+06    -18.9340E+06     420.537E+03    -24.4623E-03     48.5510E-03    -24.0887E-03     21.6601E-03    -24.4644E-03     48.1091E-03    -23.9796E-03     21.6503E-03
            1922     3.51493E-03     28.6082E-03    -39.1052E+06    -112.832E+06    -26.1126E+06     431.975E+03    -24.2321E-03     48.2362E-03    -24.0041E-03     17.4008E-03    -24.2279E-03     47.7683E-03    -23.9143E-03     17.3951E-03
            1923     2.63633E-03     28.5929E-03    -42.2231E+06    -119.770E+06    -33.6478E+06     371.563E+03    -24.0524E-03     47.9821E-03    -23.9297E-03     13.1303E-03    -24.0420E-03     47.4941E-03    -23.8630E-03     13.1272E-03
            1924     1.75762E-03     28.5819E-03    -44.8289E+06    -124.770E+06    -40.5473E+06     200.209E+03    -23.9231E-03     47.7920E-03    -23.8689E-03     8.87780E-03    -23.9079E-03     47.2924E-03    -23.8257E-03     8.87534E-03
            1925     878.836E-06     28.5752E-03    -46.6480E+06    -129.072E+06    -45.4974E+06    -12.9308E+03    -23.8498E-03     47.6753E-03    -23.8256E-03     4.83181E-03    -23.8300E-03     47.1637E-03    -23.7983E-03     4.82899E-03
            1926     16.6694E-03     28.2241E-03    -3.63601E+06     110.662E+06     65.1817E+06     87.2646E+03    -27.1936E-03     52.8640E-03    -25.6703E-03     23.5699E-03    -27.5477E-03     53.4089E-03    -25.4996E-03     23.4865E-03
            1927     15.7937E-03     28.1895E-03    -7.00348E+06     106.513E+06     48.9510E+06     172.491E+03    -27.4010E-03     52.8984E-03    -25.4974E-03     41.6572E-03    -27.7964E-03     53.5052E-03    -25.3970E-03     41.5448E-03
            1928     14.9180E-03     28.1440E-03    -9.69360E+06     90.0752E+06     28.8756E+06     201.827E+03    -27.6725E-03     52.9849E-03    -25.3124E-03     53.4511E-03    -28.0427E-03     53.5567E-03    -25.2845E-03     53.3222E-03
            1929     14.0422E-03     28.0865E-03    -11.5289E+06     39.5373E+06     10.0780E+06     175.693E+03    -27.8685E-03     53.0389E-03    -25.1705E-03     58.2818E-03    -28.1403E-03     53.3809E-03    -25.1607E-03     58.1436E-03
            1930     13.1663E-03     28.0314E-03    -12.7386E+06    -8.42872E+06     2.33299E+06     144.939E+03    -27.7881E-03     52.8558E-03    -25.0676E-03     55.6690E-03    -27.9499E-03     52.9356E-03    -25.0252E-03     55.5414E-03
            1931     12.2903E-03     27.9784E-03    -13.8620E+06    -27.2963E+06     3.03628E+06     153.436E+03    -27.5500E-03     52.5075E-03    -24.9574E-03     53.4389E-03    -27.6612E-03     52.4637E-03    -24.8826E-03     53.3302E-03
            1932     11.4141E-03     27.9272E-03    -15.1836E+06    -42.0910E+06     2.88956E+06     204.159E+03    -27.2630E-03     52.0970E-03    -24.8340E-03     51.1385E-03    -27.3384E-03     51.9607E-03    -24.7365E-03     51.0479E-03
            1933     10.5377E-03     27.8784E-03    -16.7485E+06    -52.2394E+06     3.30983E+06     255.410E+03    -26.9161E-03     51.6220E-03    -24.7059E-03     48.3360E-03    -26.9699E-03     51.4214E-03    -24.5893E-03     48.2619E-03
            1934     9.66095E-03     27.8323E-03    -18.5907E+06    -60.3934E+06     2.70306E+06     300.379E+03    -26.5315E-03     51.1029E-03    -24.5713E-03     45.0440E-03    -26.5705E-03     50.8536E-03    -24.4433E-03     44.9846E-03
            1935     8.78394E-03     27.7896E-03    -20.7393E+06    -68.1178E+06     1.89492E+06     345.649E+03    -26.1249E-03     50.5639E-03    -24.4390E-03     41.4135E-03    -26.1537E-03     50.2718E-03    -24.3007E-03     41.3666E-03
            1936     7.90663E-03     27.7505E-03    -23.2146E+06    -74.1289E+06    -91.7036E+03     379.830E+03    -25.7072E-03     50.0121E-03    -24.3049E-03     37.5781E-03    -25.7305E-03     49.6901E-03    -24.1642E-03     37.5419E-03
            1937     7.02901E-03     27.7151E-03    -25.9820E+06    -82.2336E+06    -3.28189E+06     423.797E+03    -25.3041E-03     49.4807E-03    -24.1765E-03     33.5830E-03    -25.3203E-03     49.1222E-03    -24.0360E-03     33.5558E-03
            1938     6.15112E-03     27.6837E-03    -29.0128E+06    -89.7750E+06    -7.50628E+06     479.285E+03    -24.9188E-03     48.9718E-03    -24.0530E-03     29.5017E-03    -24.9297E-03     48.5828E-03    -23.9183E-03     29.4823E-03
            1939     5.27294E-03     27.6563E-03    -32.2535E+06    -96.1660E+06    -12.7518E+06     494.170E+03    -24.5613E-03     48.4973E-03    -23.9360E-03     25.3814E-03    -24.5692E-03     48.0863E-03    -23.8135E-03     25.3681E-03
            1940     4.39451E-03     27.6330E-03    -35.6042E+06    -104.756E+06    -19.0018E+06     505.305E+03    -24.2545E-03     48.0863E-03    -23.8318E-03     21.2104E-03    -24.2559E-03     47.6445E-03    -23.7232E-03     21.2021E-03
            1941     3.51588E-03     27.6138E-03    -38.9348E+06    -112.669E+06    -26.1325E+06     524.534E+03    -23.9980E-03     47.7355E-03    -23.7375E-03     17.0266E-03    -23.9931E-03     47.2681E-03    -23.6483E-03     17.0224E-03
            1942     2.63706E-03     27.5988E-03    -42.0239E+06    -119.465E+06    -33.6390E+06     460.136E+03    -23.7968E-03     47.4522E-03    -23.6553E-03     12.8402E-03    -23.7858E-03     46.9654E-03    -23.5894E-03     12.8385E-03
            1943     1.75812E-03     27.5880E-03      -44.41E+06    -124.319E+06    -40.5280E+06     249.836E+03    -23.6519E-03     47.2410E-03    -23.5891E-03     8.67789E-03    -23.6353E-03     46.7429E-03    -23.5471E-03     8.67621E-03
            1944     879.074E-06     27.5814E-03    -45.6816E+06    -129.004E+06    -44.8265E+06    -21.7431E+03    -23.5736E-03     47.1199E-03    -23.5463E-03     4.72165E-03    -23.5501E-03     46.6062E-03    -23.5171E-03     4.71879E-03
            1945     16.6697E-03     27.2238E-03    -3.62535E+06     110.564E+06     65.1707E+06     94.4394E+03    -27.5300E-03     53.1839E-03    -25.6539E-03     23.3655E-03    -27.8831E-03     53.7276E-03    -25.4831E-03     23.2797E-03
            1946     15.7943E-03     27.1894E-03    -6.99239E+06     106.418E+06     48.9276E+06     188.208E+03    -27.7268E-03     53.1881E-03    -25.4614E-03     41.3056E-03    -28.1208E-03     53.7932E-03    -25.3609E-03     41.1906E-03
            1947     14.9188E-03     27.1443E-03    -9.71296E+06     90.1260E+06     28.8390E+06     245.106E+03    -27.9654E-03     53.2206E-03    -25.2553E-03     52.9877E-03    -28.3342E-03     53.7913E-03    -25.2277E-03     52.8574E-03
            1948     14.0433E-03     27.0871E-03    -11.5520E+06     39.7153E+06     10.0491E+06     207.261E+03    -28.1177E-03     53.2096E-03    -25.0920E-03     57.7355E-03    -28.3882E-03     53.5510E-03    -25.0825E-03     57.5965E-03
            1949     13.1676E-03     27.0324E-03    -12.7243E+06    -8.36031E+06     2.26004E+06     154.490E+03    -27.9919E-03     52.9596E-03    -24.9677E-03     55.0641E-03    -28.1523E-03     53.0386E-03    -24.9258E-03     54.9362E-03
            1950     12.2918E-03     26.9799E-03    -13.8283E+06    -27.3165E+06     2.93425E+06     180.453E+03    -27.7070E-03     52.5433E-03    -24.8363E-03     52.7930E-03    -27.8166E-03     52.4983E-03    -24.7620E-03     52.6848E-03
            1951     11.4157E-03     26.9292E-03    -15.1458E+06    -42.1144E+06     2.78136E+06     248.743E+03    -27.3740E-03     52.0661E-03    -24.6921E-03     50.4645E-03    -27.4481E-03     51.9288E-03    -24.5951E-03     50.3749E-03
            1952     10.5394E-03     26.8808E-03    -16.7065E+06    -52.2517E+06     3.19964E+06     309.569E+03    -26.9809E-03     51.5243E-03    -24.5435E-03     47.6387E-03    -27.0336E-03     51.3230E-03    -24.4275E-03     47.5659E-03
            1953     9.66271E-03     26.8353E-03    -18.5492E+06    -60.3915E+06     2.56527E+06     363.219E+03    -26.5490E-03     50.9379E-03    -24.3889E-03     44.3357E-03    -26.5869E-03     50.6881E-03    -24.2616E-03     44.2778E-03
            1954     8.78571E-03     26.7931E-03    -20.6913E+06    -68.1177E+06     1.74249E+06     420.554E+03    -26.0954E-03     50.3329E-03    -24.2375E-03     40.7066E-03    -26.1232E-03     50.0404E-03    -24.1000E-03     40.6615E-03
            1955     7.90836E-03     26.7545E-03    -23.1608E+06    -74.0908E+06    -253.241E+03     470.560E+03    -25.6327E-03     49.7179E-03    -24.0852E-03     36.8872E-03    -25.6552E-03     49.3959E-03    -23.9454E-03     36.8529E-03
            1956     7.03068E-03     26.7196E-03    -25.9346E+06    -82.2218E+06    -3.45693E+06     526.037E+03    -25.1875E-03     49.1275E-03    -23.9399E-03     32.9236E-03    -25.2029E-03     48.7689E-03    -23.8004E-03     32.8985E-03
            1957     6.15267E-03     26.6887E-03    -28.9604E+06    -89.7184E+06    -7.64222E+06     583.042E+03    -24.7627E-03     48.5637E-03    -23.8010E-03     28.8881E-03    -24.7731E-03     48.1749E-03    -23.6672E-03     28.8707E-03
            1958     5.27435E-03     26.6618E-03    -32.1813E+06    -96.0180E+06    -12.8359E+06     584.911E+03    -24.3687E-03     48.0387E-03    -23.6700E-03     24.8274E-03    -24.3762E-03     47.6283E-03    -23.5483E-03     24.8158E-03
            1959     4.39574E-03     26.6389E-03    -35.5231E+06    -104.661E+06    -19.0536E+06     587.881E+03    -24.0291E-03     47.5827E-03    -23.5536E-03     20.7277E-03    -24.0301E-03     47.1413E-03    -23.4456E-03     20.7208E-03
            1960     3.51689E-03     26.6200E-03    -38.8377E+06    -112.495E+06    -26.1315E+06     616.794E+03    -23.7442E-03     47.1932E-03    -23.4490E-03     16.6255E-03    -23.7390E-03     46.7266E-03    -23.3602E-03     16.6229E-03
            1961     2.63785E-03     26.6053E-03    -41.8502E+06    -119.065E+06    -33.5669E+06     520.438E+03    -23.5200E-03     46.8785E-03    -23.3585E-03     12.5294E-03    -23.5088E-03     46.3934E-03    -23.2930E-03     12.5287E-03
            1962     1.75865E-03     26.5947E-03    -44.2327E+06    -123.832E+06    -40.4138E+06     257.702E+03    -23.3583E-03     46.6446E-03    -23.2863E-03     8.46340E-03    -23.3417E-03     46.1485E-03    -23.2447E-03     8.46198E-03
            1963     879.353E-06     26.5882E-03    -45.7629E+06    -128.900E+06    -44.9619E+06     44.3759E+03    -23.2698E-03     46.5086E-03    -23.2389E-03     4.60306E-03    -23.2466E-03     45.9958E-03    -23.2104E-03     4.60114E-03
            1964     16.6700E-03     26.2232E-03    -3.61846E+06     110.450E+06     65.1498E+06     102.025E+03    -27.9146E-03     53.5498E-03    -25.6353E-03     23.1143E-03    -28.2667E-03     54.0923E-03    -25.4644E-03     23.0258E-03
            1965     15.7949E-03     26.1890E-03    -6.99224E+06     106.294E+06     48.8802E+06     230.676E+03    -28.0865E-03     53.5072E-03    -25.4207E-03     40.8841E-03    -28.4788E-03     54.1103E-03    -25.3203E-03     40.7667E-03
            1966     14.9198E-03     26.1442E-03    -9.69709E+06     90.1938E+06     28.7969E+06     283.109E+03    -28.2811E-03     53.4726E-03    -25.1915E-03     52.4568E-03    -28.6481E-03     54.0419E-03    -25.1643E-03     52.3248E-03
            1967     14.0445E-03     26.0875E-03    -11.4929E+06     39.9442E+06     10.0077E+06     209.269E+03    -28.3829E-03     53.3879E-03    -25.0050E-03     57.1240E-03    -28.6516E-03     53.7286E-03    -24.9962E-03     56.9838E-03
            1968     13.1691E-03     26.0333E-03    -12.6607E+06    -8.31745E+06     2.13765E+06     169.344E+03    -28.2068E-03     53.0645E-03    -24.8577E-03     54.3933E-03    -28.3652E-03     53.1422E-03    -24.8166E-03     54.2652E-03
            1969     12.2935E-03     25.9813E-03    -13.7831E+06    -27.3579E+06     2.79334E+06     228.951E+03    -27.8718E-03     52.5756E-03    -24.7038E-03     52.0821E-03    -27.9797E-03     52.5294E-03    -24.6302E-03     51.9746E-03
            1970     11.4175E-03     25.9311E-03    -15.1087E+06    -42.1313E+06     2.64411E+06     304.945E+03    -27.4886E-03     52.0260E-03    -24.5374E-03     49.7266E-03    -27.5612E-03     51.8877E-03    -24.4412E-03     49.6382E-03
            1971     10.5412E-03     25.8833E-03    -16.6638E+06    -52.2726E+06     3.06717E+06     371.302E+03    -27.0453E-03     51.4124E-03    -24.3671E-03     46.8779E-03    -27.0967E-03     51.2102E-03    -24.2518E-03     46.8066E-03
            1972     9.66462E-03     25.8384E-03    -18.4917E+06    -60.3917E+06     2.42467E+06     439.639E+03    -26.5624E-03     50.7538E-03    -24.1913E-03     43.5642E-03    -26.5991E-03     50.5034E-03    -24.0648E-03     43.5080E-03
            1973     8.78762E-03     25.7968E-03    -20.6364E+06    -68.1375E+06     1.55948E+06     523.597E+03    -26.0580E-03     50.0778E-03    -24.0197E-03     39.9413E-03    -26.0847E-03     49.7848E-03    -23.8832E-03     39.8983E-03
            1974     7.91024E-03     25.7588E-03    -23.1188E+06    -74.0436E+06    -441.535E+03     593.416E+03    -25.5475E-03     49.3960E-03    -23.8485E-03     36.1425E-03    -25.5691E-03     49.0740E-03    -23.7098E-03     36.1105E-03
            1975     7.03247E-03     25.7245E-03    -25.8724E+06    -82.1888E+06    -3.61084E+06     639.777E+03    -25.0579E-03     48.7438E-03    -23.6859E-03     32.2126E-03    -25.0725E-03     48.3852E-03    -23.5473E-03     32.1897E-03
            1976     6.15434E-03     25.6941E-03    -28.8640E+06    -89.6504E+06    -7.76140E+06     697.924E+03    -24.5916E-03     48.1225E-03    -23.5310E-03     28.2278E-03    -24.6011E-03     47.7339E-03    -23.3979E-03     28.2125E-03
            1977     5.27585E-03     25.6677E-03    -32.0921E+06    -95.8405E+06    -12.8931E+06     714.722E+03    -24.1603E-03     47.5458E-03    -23.3855E-03     24.2320E-03    -24.1673E-03     47.1360E-03    -23.2645E-03     24.2226E-03
            1978     4.39705E-03     25.6452E-03    -35.4634E+06    -104.519E+06    -19.0052E+06     698.998E+03    -23.7876E-03     47.0444E-03    -23.2568E-03     20.2079E-03    -23.7885E-03     46.6034E-03    -23.1488E-03     20.2029E-03
            1979     3.51798E-03     25.6268E-03    -38.7468E+06    -112.247E+06    -26.0258E+06     647.213E+03    -23.4727E-03     46.6139E-03    -23.1411E-03     16.1947E-03    -23.4675E-03     46.1481E-03    -23.0523E-03     16.1928E-03
            1980     2.63869E-03     25.6124E-03    -41.6943E+06    -118.654E+06    -33.4638E+06     525.633E+03    -23.2238E-03     46.2653E-03    -23.0415E-03     12.1969E-03    -23.2126E-03     45.7818E-03    -22.9763E-03     12.1965E-03
            1981     1.75922E-03     25.6020E-03    -44.0902E+06    -123.429E+06    -40.3221E+06     425.655E+03    -23.0446E-03     46.0074E-03    -22.9629E-03     8.23458E-03    -23.0279E-03     45.5130E-03    -22.9216E-03     8.23550E-03
            1982     879.640E-06     25.5956E-03    -45.6487E+06    -128.530E+06    -44.8294E+06     313.321E+03    -22.9459E-03     45.8567E-03    -22.9108E-03     4.47705E-03    -22.9228E-03     45.3453E-03    -22.8824E-03     4.47869E-03
            1983     16.6704E-03     25.2222E-03    -3.62513E+06     110.306E+06     65.1424E+06     116.722E+03    -28.3433E-03     53.9576E-03    -25.6142E-03     22.8164E-03    -28.6943E-03     54.4984E-03    -25.4432E-03     22.7252E-03
            1984     15.7957E-03     25.1883E-03    -6.99358E+06     106.153E+06     48.8696E+06     265.673E+03    -28.4692E-03     53.8449E-03    -25.3757E-03     40.4095E-03    -28.8596E-03     54.4456E-03    -25.2751E-03     40.2893E-03
            1985     14.9208E-03     25.1439E-03    -9.68289E+06     90.3180E+06     28.7868E+06     297.710E+03    -28.6156E-03     53.7373E-03    -25.1217E-03     51.8652E-03    -28.9807E-03     54.3053E-03    -25.0947E-03     51.7312E-03
            1986     14.0458E-03     25.0877E-03    -11.5012E+06     40.1730E+06     9.93433E+06     218.368E+03    -28.6644E-03     53.5745E-03    -24.9101E-03     56.4367E-03    -28.9313E-03     53.9145E-03    -24.9020E-03     56.2954E-03
            1987     13.1707E-03     25.0341E-03    -12.6919E+06    -8.30480E+06     1.98511E+06     207.617E+03    -28.4328E-03     53.1712E-03    -24.7384E-03     53.6462E-03    -28.5894E-03     53.2476E-03    -24.6981E-03     53.5182E-03
            1988     12.2952E-03     24.9826E-03    -13.8049E+06    -27.4102E+06     2.63164E+06     281.683E+03    -28.0429E-03     52.6036E-03    -24.5607E-03     51.2955E-03    -28.1492E-03     52.5559E-03    -24.4877E-03     51.1888E-03
            1989     11.4194E-03     24.9331E-03    -15.1116E+06    -42.1411E+06     2.50892E+06     366.365E+03    -27.6044E-03     51.9752E-03    -24.3708E-03     48.9164E-03    -27.6757E-03     51.8360E-03    -24.2752E-03     48.8294E-03
            1990     10.5432E-03     24.8859E-03    -16.6508E+06    -52.2891E+06     2.94354E+06     429.192E+03    -27.1058E-03     51.2836E-03    -24.1778E-03     46.0501E-03    -27.1559E-03     51.0805E-03    -24.0631E-03     45.9803E-03
            1991     9.66667E-03     24.8417E-03    -18.4612E+06    -60.4133E+06     2.30427E+06     512.795E+03    -26.5683E-03     50.5486E-03    -23.9803E-03     42.7313E-03    -26.6038E-03     50.2974E-03    -23.8544E-03     42.6769E-03
            1992     8.78967E-03     24.8008E-03    -20.5689E+06    -68.1854E+06     1.41748E+06     632.774E+03    -26.0117E-03     49.7996E-03    -23.7879E-03     39.1199E-03    -26.0372E-03     49.5059E-03    -23.6521E-03     39.0792E-03
            1993     7.91223E-03     24.7634E-03    -23.0105E+06    -74.0028E+06    -612.729E+03     741.407E+03    -25.4510E-03     49.0480E-03    -23.5970E-03     35.3483E-03    -25.4714E-03     48.7258E-03    -23.4594E-03     35.3191E-03
            1994     7.03437E-03     24.7298E-03    -25.7946E+06    -82.1180E+06    -3.77078E+06     808.586E+03    -24.9150E-03     48.3316E-03    -23.4165E-03     31.4597E-03    -24.9287E-03     47.9731E-03    -23.2789E-03     31.4397E-03
            1995     6.15610E-03     24.7000E-03    -28.8320E+06    -89.5313E+06    -7.86124E+06     826.273E+03    -24.4065E-03     47.6519E-03    -23.2455E-03     27.5309E-03    -24.4156E-03     47.2637E-03    -23.1132E-03     27.5179E-03
            1996     5.27744E-03     24.6741E-03    -31.9918E+06    -95.6557E+06    -12.8838E+06     809.891E+03    -23.9368E-03     47.0224E-03    -23.0856E-03     23.6048E-03    -23.9435E-03     46.6133E-03    -22.9649E-03     23.5972E-03
            1997     4.39844E-03     24.6522E-03    -35.2604E+06    -104.318E+06    -18.8645E+06     798.694E+03    -23.5305E-03     46.4748E-03    -22.9443E-03     19.6624E-03    -23.5307E-03     46.0342E-03    -22.8362E-03     19.6591E-03
            1998     3.51913E-03     24.6341E-03    -38.5697E+06    -111.871E+06    -25.8606E+06     696.971E+03    -23.1857E-03     46.0031E-03    -22.8174E-03     15.7440E-03    -23.1803E-03     45.5386E-03    -22.7286E-03     15.7431E-03
            1999     2.63958E-03     24.6201E-03    -41.6141E+06    -118.332E+06    -33.4197E+06     565.175E+03    -22.9119E-03     45.6203E-03    -22.7084E-03     11.8494E-03    -22.9007E-03     45.1383E-03    -22.6436E-03     11.8498E-03
            2000     1.75982E-03     24.6100E-03    -43.9532E+06    -123.130E+06    -40.3096E+06     562.833E+03    -22.7146E-03     45.3379E-03    -22.6233E-03     7.99534E-03    -22.6977E-03     44.8447E-03    -22.5825E-03     7.99820E-03
            2001     879.943E-06     24.6037E-03    -45.3108E+06    -127.749E+06    -44.6004E+06     528.624E+03    -22.6062E-03     45.1730E-03    -22.5669E-03     4.34508E-03    -22.5829E-03     44.6648E-03    -22.5389E-03     4.34960E-03
            2002     16.6708E-03     24.2207E-03    -3.62320E+06     110.152E+06     65.1187E+06     131.273E+03    -28.8034E-03     54.3945E-03    -25.5911E-03     22.4679E-03    -29.1530E-03     54.9334E-03    -25.4200E-03     22.3736E-03
            2003     15.7964E-03     24.1873E-03    -6.99098E+06     105.987E+06     48.8556E+06     290.441E+03    -28.8824E-03     54.2093E-03    -25.3268E-03     39.8762E-03    -29.2706E-03     54.8072E-03    -25.2261E-03     39.7529E-03
            2004     14.9219E-03     24.1434E-03    -9.70987E+06     90.4694E+06     28.7592E+06     345.438E+03    -28.9737E-03     54.0198E-03    -25.0462E-03     51.2007E-03    -29.3368E-03     54.5863E-03    -25.0195E-03     51.0650E-03
            2005     14.0472E-03     24.0877E-03    -11.5603E+06     40.4103E+06     9.86355E+06     259.618E+03    -28.9621E-03     53.7702E-03    -24.8081E-03     55.6654E-03    -29.2272E-03     54.1091E-03    -24.8006E-03     55.5234E-03
            2006     13.1724E-03     24.0347E-03    -12.7407E+06    -8.30219E+06     1.85511E+06     234.884E+03    -28.6688E-03     53.2793E-03    -24.6105E-03     52.8205E-03    -28.8236E-03     53.3541E-03    -24.5707E-03     52.6925E-03
            2007     12.2971E-03     23.9840E-03    -13.8212E+06    -27.4656E+06     2.48825E+06     316.208E+03    -28.2164E-03     52.6240E-03    -24.4076E-03     50.4382E-03    -28.3210E-03     52.5748E-03    -24.3353E-03     50.3323E-03
            2008     11.4215E-03     23.9351E-03    -15.0989E+06    -42.1639E+06     2.38504E+06     416.125E+03    -27.7166E-03     51.9101E-03    -24.1935E-03     48.0432E-03    -27.7863E-03     51.7696E-03    -24.0985E-03     47.9575E-03
            2009     10.5454E-03     23.8887E-03    -16.6387E+06    -52.3031E+06     2.83577E+06     505.698E+03    -27.1579E-03     51.1353E-03    -23.9773E-03     45.1660E-03    -27.2068E-03     50.9312E-03    -23.8632E-03     45.0981E-03
            2010     9.66883E-03     23.8452E-03    -18.4878E+06    -60.4643E+06     2.16351E+06     615.087E+03    -26.5639E-03     50.3217E-03    -23.7577E-03     41.8482E-03    -26.5985E-03     50.0697E-03    -23.6324E-03     41.7961E-03
            2011     8.79182E-03     23.8050E-03    -20.6077E+06    -68.1918E+06     1.26663E+06      709.05E+03    -25.9536E-03     49.4980E-03    -23.5444E-03     38.2548E-03    -25.9784E-03     49.2039E-03    -23.4093E-03     38.2161E-03
            2012     7.91433E-03     23.7684E-03    -22.9783E+06    -74.0509E+06    -821.326E+03     836.513E+03    -25.3417E-03     48.6756E-03    -23.3338E-03     34.5161E-03    -25.3611E-03     48.3529E-03    -23.1973E-03     34.4891E-03
            2013     7.03635E-03     23.7354E-03    -25.6602E+06    -82.0670E+06    -3.92219E+06     1.02113E+06    -24.7593E-03     47.8949E-03    -23.1356E-03     30.6746E-03    -24.7718E-03     47.5364E-03    -22.9990E-03     30.6581E-03
            2014     6.15794E-03     23.7063E-03    -28.6573E+06    -89.2258E+06    -7.84040E+06     985.069E+03    -24.2083E-03     47.1572E-03    -22.9488E-03     26.8068E-03    -24.2168E-03     46.7699E-03    -22.8171E-03     26.7966E-03
            2015     5.27910E-03     23.6811E-03    -31.8658E+06    -95.5174E+06    -12.9355E+06     903.802E+03    -23.6996E-03     46.4740E-03    -22.7745E-03     22.9568E-03    -23.7055E-03     46.0653E-03    -22.6544E-03     22.9510E-03
            2016     4.39987E-03     23.6597E-03    -35.2219E+06    -104.073E+06    -19.0631E+06     940.138E+03    -23.2586E-03     45.8786E-03    -22.6200E-03     19.1031E-03    -23.2585E-03     45.4393E-03    -22.5134E-03     19.1021E-03
            2017     3.52032E-03     23.6421E-03    -38.5768E+06    -111.424E+06    -25.9729E+06     833.080E+03    -22.8860E-03     45.3690E-03    -22.4830E-03     15.2812E-03    -22.8810E-03     44.9069E-03    -22.3954E-03     15.2824E-03
            2018     2.64048E-03     23.6284E-03    -41.6839E+06    -117.997E+06    -33.3457E+06     687.458E+03    -22.5906E-03     44.9572E-03    -22.3666E-03     11.4905E-03    -22.5803E-03     44.4767E-03    -22.3018E-03     11.4928E-03
            2019     1.76045E-03     23.6186E-03    -44.2167E+06    -122.830E+06    -40.1555E+06     644.311E+03    -22.3756E-03     44.6505E-03    -22.2749E-03     7.74854E-03    -22.3607E-03     44.1590E-03    -22.2334E-03     7.75262E-03
            2020     880.259E-06     23.6125E-03    -45.8186E+06    -126.731E+06    -44.7747E+06     628.672E+03    -22.2531E-03     44.4625E-03    -22.2094E-03     4.20912E-03    -22.2337E-03     43.9603E-03    -22.1831E-03     4.21503E-03
            2021     16.6712E-03     23.2188E-03    -3.61483E+06     109.981E+06     65.0829E+06     147.931E+03    -29.2959E-03     54.8626E-03    -25.5666E-03     22.0555E-03    -29.6439E-03     55.3994E-03    -25.3955E-03     21.9580E-03
            2022     15.7973E-03     23.1858E-03    -6.98038E+06     105.799E+06     48.8202E+06     326.917E+03    -29.3279E-03     54.6025E-03    -25.2746E-03     39.2625E-03    -29.7135E-03     55.1974E-03    -25.1738E-03     39.1362E-03
            2023     14.9231E-03     23.1425E-03    -9.67793E+06     90.6005E+06     28.6785E+06     402.157E+03    -29.3544E-03     54.3195E-03    -24.9652E-03     50.4556E-03    -29.7149E-03     54.8842E-03    -24.9391E-03     50.3183E-03
            2024     14.0488E-03     23.0875E-03    -11.5076E+06     40.6875E+06     9.80369E+06     325.015E+03    -29.2722E-03     53.9714E-03    -24.6992E-03     54.8138E-03    -29.5348E-03     54.3092E-03    -24.6925E-03     54.6714E-03
            2025     13.1741E-03     23.0352E-03    -12.7031E+06    -8.26952E+06     1.72847E+06     271.012E+03    -28.9087E-03     53.3835E-03    -24.4748E-03     51.9196E-03    -29.0611E-03     53.4564E-03    -24.4357E-03     51.7919E-03
            2026     12.2991E-03     22.9852E-03    -13.7799E+06    -27.5271E+06     2.31394E+06     331.751E+03    -28.3865E-03     52.6325E-03    -24.2460E-03     49.5177E-03    -28.4888E-03     52.5815E-03    -24.1745E-03     49.4124E-03
            2027     11.4236E-03     22.9372E-03    -15.0477E+06    -42.2379E+06     2.22478E+06     475.209E+03    -27.8200E-03     51.8275E-03    -24.0075E-03     47.1147E-03    -27.8878E-03     51.6855E-03    -23.9133E-03     47.0305E-03
            2028     10.5476E-03     22.8916E-03    -16.6191E+06    -52.3631E+06     2.68207E+06     642.777E+03    -27.1992E-03     50.9675E-03    -23.7683E-03     44.2342E-03    -27.2466E-03     50.7623E-03    -23.6549E-03     44.1690E-03
            2029     9.67107E-03     22.8489E-03    -18.5086E+06    -60.4938E+06     1.98257E+06      776.25E+03    -26.5472E-03     50.0740E-03    -23.5268E-03     40.9247E-03    -26.5807E-03     49.8214E-03    -23.4023E-03     40.8758E-03
            2030     8.79404E-03     22.8095E-03    -20.6809E+06    -68.1039E+06     1.08675E+06     823.958E+03    -25.8824E-03     49.1755E-03    -23.2931E-03     37.3557E-03    -25.9068E-03     48.8815E-03    -23.1589E-03     37.3195E-03
            2031     7.91647E-03     22.7737E-03    -23.1620E+06    -74.2056E+06    -1.10136E+06     961.785E+03    -25.2207E-03     48.2843E-03    -23.0636E-03     33.6514E-03    -25.2399E-03     47.9611E-03    -22.9279E-03     33.6270E-03
            2032     7.03839E-03     22.7416E-03    -25.8285E+06    -81.9584E+06    -4.33639E+06     1.10576E+06    -24.5896E-03     47.4368E-03    -22.8471E-03     29.8670E-03    -24.6022E-03     47.0793E-03    -22.7125E-03     29.8526E-03
            2033     6.15981E-03     22.7132E-03    -28.6293E+06    -88.8841E+06    -8.16224E+06     1.06948E+06    -23.9961E-03     46.6411E-03    -22.6450E-03     26.0663E-03    -24.0043E-03     46.2557E-03    -22.5154E-03     26.0579E-03
            2034     5.28077E-03     22.6886E-03    -31.7858E+06    -95.4848E+06    -13.1774E+06     1.15997E+06    -23.4523E-03     45.9103E-03    -22.4580E-03     22.2886E-03    -23.4573E-03     45.5018E-03    -22.3394E-03     22.2867E-03
            2035     4.40132E-03     22.6677E-03    -35.2227E+06    -103.697E+06    -19.3635E+06     1.21192E+06    -22.9784E-03     45.2699E-03    -22.2915E-03     18.5268E-03    -22.9784E-03     44.8329E-03    -22.1869E-03     18.5298E-03
            2036     3.52150E-03     22.6507E-03    -38.6104E+06    -110.919E+06    -26.1934E+06     1.02430E+06    -22.5798E-03     44.7251E-03    -22.1453E-03     14.8050E-03    -22.5754E-03     44.2658E-03    -22.0594E-03     14.8091E-03
            2037     2.64140E-03     22.6374E-03    -41.7548E+06    -117.580E+06    -33.3077E+06     861.850E+03    -22.2650E-03     44.2875E-03    -22.0225E-03     11.1225E-03    -22.2557E-03     43.8091E-03    -21.9580E-03     11.1272E-03
            2038     1.76107E-03     22.6279E-03    -44.4227E+06    -122.394E+06    -39.9887E+06     774.007E+03    -22.0346E-03     43.9595E-03    -21.9250E-03     7.49655E-03    -22.0215E-03     43.4702E-03    -21.8830E-03     7.50249E-03
            2039     880.580E-06     22.6220E-03    -46.2636E+06    -125.620E+06    -44.9489E+06     602.179E+03    -21.8993E-03     43.7498E-03    -21.8505E-03     4.07139E-03    -21.8834E-03     43.2541E-03    -21.8260E-03     4.07704E-03
            2040     16.6716E-03     22.2164E-03    -3.61012E+06     109.788E+06     65.0675E+06     162.951E+03    -29.8260E-03     55.3670E-03    -25.5411E-03     21.5805E-03    -30.1721E-03     55.9014E-03    -25.3697E-03     21.4796E-03
            2041     15.7981E-03     22.1840E-03    -6.96418E+06     105.598E+06     48.8189E+06     356.640E+03    -29.8008E-03     55.0203E-03    -25.2195E-03     38.5622E-03    -30.1834E-03     55.6115E-03    -25.1184E-03     38.4325E-03
            2042     14.9244E-03     22.1413E-03    -9.65531E+06     90.7102E+06     28.6122E+06     446.048E+03    -29.7525E-03     54.6321E-03    -24.8796E-03     49.6130E-03    -30.1100E-03     55.1945E-03    -24.8541E-03     49.4739E-03
            2043     14.0504E-03     22.0870E-03    -11.4766E+06     40.9709E+06     9.72029E+06     387.155E+03    -29.5874E-03     54.1719E-03    -24.5845E-03     53.8621E-03    -29.8472E-03     54.5082E-03    -24.5786E-03     53.7194E-03
            2044     13.1760E-03     22.0356E-03    -12.6494E+06    -8.17734E+06     1.60522E+06     324.854E+03    -29.1426E-03     53.4754E-03    -24.3328E-03     50.9289E-03    -29.2924E-03     53.5466E-03    -24.2945E-03     50.8019E-03
            2045     12.3012E-03     21.9865E-03    -13.7293E+06    -27.5870E+06     2.12569E+06     362.463E+03    -28.5440E-03     52.6222E-03    -24.0782E-03     48.5240E-03    -28.6439E-03     52.5693E-03    -24.0077E-03     48.4198E-03
            2046     11.4258E-03     21.9394E-03    -15.0104E+06    -42.4115E+06     2.02008E+06     560.262E+03    -27.9089E-03     51.7248E-03    -23.8159E-03     46.1298E-03    -27.9745E-03     51.5808E-03    -23.7225E-03     46.0477E-03
            2047     10.5499E-03     21.8946E-03    -16.5694E+06    -52.4850E+06     2.48945E+06     814.582E+03    -27.2267E-03     50.7810E-03    -23.5543E-03     43.2577E-03    -27.2723E-03     50.5742E-03    -23.4417E-03     43.1959E-03
            2048     9.67336E-03     21.8528E-03    -18.4092E+06    -60.4376E+06     1.84109E+06     936.486E+03    -26.5181E-03     49.8098E-03    -23.2917E-03     39.9616E-03    -26.5502E-03     49.5566E-03    -23.1681E-03     39.9159E-03
            2049     8.79628E-03     21.8144E-03    -20.5521E+06    -68.0654E+06     941.491E+03     1.02630E+06    -25.8008E-03     48.8391E-03    -23.0383E-03     36.4177E-03    -25.8237E-03     48.5447E-03    -22.9051E-03     36.3852E-03
            2050     7.91864E-03     21.7794E-03    -23.0284E+06    -74.2990E+06    -1.31507E+06     1.19196E+06    -25.0900E-03     47.8806E-03    -22.7907E-03     32.7513E-03    -25.1075E-03     47.5565E-03    -22.6561E-03     32.7308E-03
            2051     7.04043E-03     21.7481E-03    -25.7176E+06    -81.6574E+06    -4.69520E+06     1.18727E+06    -24.4110E-03     46.9677E-03    -22.5567E-03     29.0280E-03    -24.4226E-03     46.6117E-03    -22.4245E-03     29.0155E-03
            2052     6.16168E-03     21.7205E-03    -28.6163E+06    -88.7550E+06    -8.67082E+06     1.17684E+06    -23.7767E-03     46.1167E-03    -22.3401E-03     25.2973E-03    -23.7839E-03     45.7324E-03    -22.2132E-03     25.2910E-03
            2053     5.28244E-03     21.6966E-03    -31.7328E+06    -95.5345E+06    -13.4997E+06     1.42520E+06    -23.2001E-03     45.3421E-03    -22.1419E-03     21.5937E-03    -23.2042E-03     44.9335E-03    -22.0249E-03     21.5958E-03
            2054     4.40276E-03     21.6764E-03    -35.0123E+06    -103.192E+06    -19.4481E+06     1.52706E+06    -22.6960E-03     44.6610E-03    -21.9650E-03     17.9263E-03    -22.6954E-03     44.2262E-03    -21.8618E-03     17.9339E-03
            2055     3.52269E-03     21.6599E-03    -38.3714E+06    -110.306E+06    -26.2940E+06     1.33118E+06    -22.2724E-03     44.0824E-03    -21.8100E-03     14.3110E-03    -22.2674E-03     43.6259E-03    -21.7259E-03     14.3194E-03
            2056     2.64230E-03     21.6471E-03    -41.5357E+06    -117.022E+06    -33.3864E+06     1.09704E+06    -21.9394E-03     43.6205E-03    -21.6811E-03     10.7425E-03    -21.9297E-03     43.1447E-03    -21.6181E-03     10.7506E-03
            2057     1.76168E-03     21.6379E-03    -44.0785E+06    -121.709E+06    -39.9020E+06     848.369E+03    -21.6965E-03     43.2763E-03    -21.5798E-03     7.23640E-03    -21.6829E-03     42.7898E-03    -21.5389E-03     7.24348E-03
            2058     880.881E-06     21.6323E-03    -45.6387E+06    -124.536E+06    -44.4984E+06     520.805E+03    -21.5562E-03     43.0586E-03    -21.5024E-03     3.92911E-03    -21.5394E-03     42.5667E-03    -21.4781E-03     3.93381E-03
            2059     16.6721E-03     21.2134E-03    -3.59983E+06     109.581E+06     65.0548E+06     171.417E+03    -30.3917E-03     55.9062E-03    -25.5145E-03     21.0297E-03    -30.7358E-03     56.4378E-03    -25.3429E-03     20.9251E-03
            2060     15.7991E-03     21.1816E-03    -6.95591E+06     105.363E+06     48.7998E+06     389.960E+03    -30.2990E-03     55.4606E-03    -25.1616E-03     37.7613E-03    -30.6784E-03     56.0478E-03    -25.0602E-03     37.6282E-03
            2061     14.9258E-03     21.1397E-03    -9.66191E+06     90.8131E+06     28.5385E+06     508.741E+03    -30.1587E-03     54.9488E-03    -24.7901E-03     48.6686E-03    -30.5132E-03     55.5086E-03    -24.7651E-03     48.5280E-03
            2062     14.0521E-03     21.0864E-03    -11.4750E+06     41.2873E+06     9.60925E+06     423.017E+03    -29.8951E-03     54.3603E-03    -24.4652E-03     52.8208E-03    -30.1520E-03     54.6952E-03    -24.4604E-03     52.6777E-03
            2063     13.1780E-03     21.0359E-03    -12.6066E+06    -8.08209E+06     1.44402E+06     350.091E+03    -29.3599E-03     53.5465E-03    -24.1866E-03     49.8730E-03    -29.5068E-03     53.6158E-03    -24.1494E-03     49.7464E-03
            2064     12.3033E-03     20.9878E-03    -13.6730E+06    -27.6718E+06     1.93001E+06     442.030E+03    -28.6829E-03     52.5903E-03    -23.9074E-03     47.4834E-03    -28.7802E-03     52.5353E-03    -23.8378E-03     47.3809E-03
            2065     11.4280E-03     20.9416E-03    -14.9825E+06    -42.6524E+06     1.78437E+06     683.427E+03    -27.9821E-03     51.6045E-03    -23.6224E-03     45.1103E-03    -28.0455E-03     51.4581E-03    -23.5299E-03     45.0309E-03
            2066     10.5521E-03     20.8978E-03    -16.4788E+06    -52.5819E+06     2.28017E+06     908.231E+03    -27.2430E-03     50.5821E-03    -23.3391E-03     42.2498E-03    -27.2865E-03     50.3739E-03    -23.2276E-03     42.1904E-03
            2067     9.67564E-03     20.8570E-03    -18.2053E+06    -60.4055E+06     1.67922E+06     1.05567E+06    -26.4820E-03     49.5381E-03    -23.0561E-03     38.9635E-03    -26.5119E-03     49.2841E-03    -22.9338E-03     38.9205E-03
            2068     8.79853E-03     20.8195E-03    -20.2795E+06    -68.1274E+06     759.273E+03     1.24296E+06    -25.7137E-03     48.4975E-03    -22.7838E-03     35.4387E-03    -25.7341E-03     48.2019E-03    -22.6518E-03     35.4101E-03
            2069     7.92079E-03     20.7855E-03    -22.6265E+06    -74.2182E+06    -1.47260E+06     1.36661E+06    -24.9538E-03     47.4724E-03    -22.5186E-03     31.8085E-03    -24.9687E-03     47.1478E-03    -22.3856E-03     31.7913E-03
            2070     7.04245E-03     20.7551E-03    -25.2396E+06    -81.3980E+06    -4.79634E+06     1.42888E+06    -24.2309E-03     46.5000E-03    -22.2692E-03     28.1389E-03    -24.2398E-03     46.1444E-03    -22.1385E-03     28.1304E-03
            2071     6.16354E-03     20.7284E-03    -28.2509E+06    -88.6927E+06    -8.88002E+06     1.55282E+06    -23.5573E-03     45.5961E-03    -22.0388E-03     24.4793E-03    -23.5622E-03     45.2116E-03    -21.9136E-03     24.4787E-03
            2072     5.28409E-03     20.7052E-03    -31.5090E+06    -95.4927E+06    -13.8263E+06     1.71509E+06    -22.9460E-03     44.7747E-03    -21.8287E-03     20.8620E-03    -22.9483E-03     44.3662E-03    -21.7137E-03     20.8685E-03
            2073     4.40418E-03     20.6857E-03    -34.7907E+06    -102.722E+06    -19.6919E+06     1.81774E+06    -22.4129E-03     44.0550E-03    -21.6420E-03     17.2942E-03    -22.4114E-03     43.6224E-03    -21.5411E-03     17.3061E-03
            2074     3.52384E-03     20.6698E-03    -38.0405E+06    -109.580E+06    -26.4330E+06     1.71382E+06    -21.9670E-03     43.4466E-03    -21.4796E-03     13.7890E-03    -21.9611E-03     42.9933E-03    -21.3977E-03     13.8028E-03
            2075     2.64319E-03     20.6574E-03    -41.0748E+06    -116.193E+06    -33.4320E+06     1.39960E+06    -21.6175E-03     42.9630E-03    -21.3455E-03     10.3402E-03    -21.6065E-03     42.4907E-03    -21.2846E-03     10.3524E-03
            2076     1.76227E-03     20.6486E-03    -43.5453E+06    -120.757E+06    -39.7399E+06     963.663E+03    -21.3643E-03     42.6059E-03    -21.2417E-03     6.96002E-03    -21.3496E-03     42.1232E-03    -21.2021E-03     6.96878E-03
            2077     881.181E-06     20.6431E-03    -45.1782E+06    -123.496E+06    -44.1445E+06     512.758E+03    -21.2203E-03     42.3823E-03    -21.1621E-03     3.77679E-03    -21.2032E-03     41.8945E-03    -21.1382E-03     3.78149E-03
            2078     16.6725E-03     20.2098E-03    -3.59424E+06     109.353E+06     65.0442E+06     187.047E+03    -30.9861E-03     56.4732E-03    -25.4871E-03     20.3894E-03    -31.3278E-03     57.0017E-03    -25.3152E-03     20.2812E-03
            2079     15.8000E-03     20.1789E-03    -6.95857E+06     105.083E+06     48.7632E+06     442.535E+03    -30.8050E-03     55.9066E-03    -25.1016E-03     36.8574E-03    -31.1807E-03     56.4893E-03    -25.0001E-03     36.7212E-03
            2080     14.9272E-03     20.1378E-03    -9.66811E+06     90.9195E+06     28.4153E+06     579.053E+03    -30.5560E-03     55.2542E-03    -24.6982E-03     47.6375E-03    -30.9069E-03     55.8112E-03    -24.6739E-03     47.4958E-03
            2081     14.0538E-03     20.0855E-03    -11.4849E+06     41.6850E+06     9.45893E+06     457.529E+03    -30.1830E-03     54.5274E-03    -24.3443E-03     51.7037E-03    -30.4369E-03     54.8610E-03    -24.3408E-03     51.5605E-03
            2082     13.1799E-03     20.0361E-03    -12.6301E+06    -8.02348E+06     1.18435E+06     363.764E+03    -29.5553E-03     53.5952E-03    -24.0400E-03     48.7631E-03    -29.6993E-03     53.6626E-03    -24.0041E-03     48.6371E-03
            2083     12.3054E-03     19.9891E-03    -13.6867E+06    -27.8634E+06     1.63073E+06     535.941E+03    -28.8062E-03     52.5438E-03    -23.7376E-03     46.4025E-03    -28.9009E-03     52.4863E-03    -23.6692E-03     46.3021E-03
            2084     11.4302E-03     19.9440E-03    -14.9016E+06    -42.8034E+06     1.54725E+06     762.405E+03    -28.0459E-03     51.4767E-03    -23.4308E-03     44.0535E-03    -28.1067E-03     51.3282E-03    -23.3394E-03     43.9762E-03
            2085     10.5544E-03     19.9012E-03    -16.2885E+06    -52.6539E+06     2.03996E+06     919.272E+03    -27.2542E-03     50.3808E-03    -23.1266E-03     41.2071E-03    -27.2951E-03     50.1711E-03    -23.0164E-03     41.1490E-03
            2086     9.67789E-03     19.8615E-03    -17.9840E+06    -60.5478E+06     1.41087E+06     1.17894E+06    -26.4459E-03     49.2697E-03    -22.8239E-03     37.9260E-03    -26.4731E-03     49.0141E-03    -22.7029E-03     37.8858E-03
            2087     8.80073E-03     19.8250E-03    -19.9958E+06    -68.1277E+06     551.662E+03     1.40138E+06    -25.6304E-03     48.1632E-03    -22.5328E-03     34.4110E-03    -25.6485E-03     47.8668E-03    -22.4022E-03     34.3856E-03
            2088     7.92292E-03     19.7920E-03    -22.2999E+06    -74.1204E+06    -1.67069E+06     1.52624E+06    -24.8240E-03     47.0739E-03    -22.2499E-03     30.8079E-03    -24.8365E-03     46.7490E-03    -22.1185E-03     30.7938E-03
            2089     7.04445E-03     19.7626E-03    -24.9319E+06    -81.3761E+06    -5.03419E+06     1.76386E+06    -24.0576E-03     46.0420E-03    -21.9844E-03     27.1840E-03    -24.0643E-03     45.6860E-03    -21.8555E-03     27.1807E-03
            2090     6.16537E-03     19.7367E-03    -27.8594E+06    -88.5837E+06    -9.08171E+06     2.03643E+06    -23.3439E-03     45.0837E-03    -21.7398E-03     23.5885E-03    -23.3464E-03     44.6992E-03    -21.6164E-03     23.5950E-03
            2091     5.28572E-03     19.7144E-03    -31.0328E+06    -95.2310E+06    -14.0629E+06     2.18357E+06    -22.6967E-03     44.2138E-03    -21.5171E-03     20.0547E-03    -22.6964E-03     43.8061E-03    -21.4044E-03     20.0680E-03
            2092     4.40557E-03     19.6956E-03    -34.3329E+06    -102.249E+06    -19.9495E+06     2.21270E+06    -22.1339E-03     43.4540E-03    -21.3201E-03     16.5890E-03    -22.1302E-03     43.0234E-03    -21.2218E-03     16.6065E-03
            2093     3.52499E-03     19.6803E-03    -37.5456E+06    -108.773E+06    -26.5619E+06     2.11879E+06    -21.6647E-03     42.8147E-03    -21.1499E-03     13.2014E-03    -21.6573E-03     42.3649E-03    -21.0706E-03     13.2208E-03
            2094     2.64405E-03     19.6684E-03    -40.4987E+06    -115.078E+06    -33.3011E+06     1.78392E+06    -21.2981E-03     42.3087E-03    -21.0106E-03     9.88375E-03    -21.2860E-03     41.8409E-03    -20.9515E-03     9.90128E-03
            2095     1.76285E-03     19.6599E-03    -42.9620E+06    -119.550E+06    -39.3673E+06     1.26767E+06    -21.0332E-03     41.9369E-03    -20.9037E-03     6.64423E-03    -21.0179E-03     41.4588E-03    -20.8649E-03     6.65711E-03
            2096     881.475E-06     19.6547E-03    -44.6278E+06    -122.247E+06    -43.7165E+06     723.257E+03    -20.8830E-03     41.7039E-03    -20.8209E-03     3.60235E-03    -20.8656E-03     41.2209E-03    -20.7975E-03     3.60986E-03
            2097     16.6730E-03     19.2057E-03    -3.59440E+06     109.091E+06     65.0367E+06     204.180E+03    -31.5951E-03     57.0547E-03    -25.4596E-03     19.6543E-03    -31.9342E-03     57.5797E-03    -25.2874E-03     19.5425E-03
            2098     15.8010E-03     19.1756E-03    -6.95460E+06     104.760E+06     48.7134E+06     502.884E+03    -31.2999E-03     56.3414E-03    -25.0415E-03     35.8497E-03    -31.6714E-03     56.9189E-03    -24.9397E-03     35.7108E-03
            2099     14.9285E-03     19.1356E-03    -9.66937E+06     91.0333E+06     28.2431E+06     665.756E+03    -30.9334E-03     55.5401E-03    -24.6067E-03     46.5122E-03    -31.2804E-03     56.0940E-03    -24.5834E-03     46.3699E-03
            2100     14.0555E-03     19.0845E-03    -11.5199E+06     42.1316E+06     9.22701E+06     539.432E+03    -30.4491E-03     54.6740E-03    -24.2249E-03     50.4912E-03    -30.6996E-03     55.0064E-03    -24.2231E-03     50.3488E-03
            2101     13.1818E-03     19.0363E-03    -12.7110E+06    -7.95446E+06     836.361E+03     425.632E+03    -29.7316E-03     53.6279E-03    -23.8963E-03     47.5818E-03    -29.8727E-03     53.6933E-03    -23.8621E-03     47.4573E-03
            2102     12.3074E-03     18.9904E-03    -13.7019E+06    -28.0849E+06     1.21091E+06     538.319E+03    -28.9192E-03     52.4909E-03    -23.5717E-03     45.2726E-03    -29.0109E-03     52.4308E-03    -23.5051E-03     45.1734E-03
            2103     11.4323E-03     18.9464E-03    -14.8112E+06    -42.9098E+06     1.19614E+06     764.459E+03    -28.1084E-03     51.3523E-03    -23.2439E-03     42.9495E-03    -28.1664E-03     51.2020E-03    -23.1542E-03     42.8735E-03
            2104     10.5565E-03     18.9048E-03    -16.2634E+06    -52.8056E+06     1.66764E+06     1.02218E+06    -27.2724E-03     50.1916E-03    -22.9192E-03     40.1067E-03    -27.3111E-03     49.9804E-03    -22.8108E-03     40.0513E-03
            2105     9.68007E-03     18.8662E-03    -17.9715E+06    -60.6861E+06     1.01525E+06     1.25426E+06    -26.4246E-03     49.0207E-03    -22.5960E-03     36.8130E-03    -26.4501E-03     48.7639E-03    -22.4769E-03     36.7749E-03
            2106     8.80289E-03     18.8308E-03    -19.8187E+06    -68.1204E+06     225.763E+03     1.43972E+06    -25.5688E-03     47.8534E-03    -22.2846E-03     33.2816E-03    -25.5847E-03     47.5564E-03    -22.1559E-03     33.2578E-03
            2107     7.92501E-03     18.7989E-03    -21.9887E+06    -74.2038E+06    -1.99318E+06     1.73664E+06    -24.7185E-03     46.7004E-03    -21.9818E-03     29.6809E-03    -24.7283E-03     46.3745E-03    -21.8523E-03     29.6706E-03
            2108     7.04643E-03     18.7705E-03    -24.5325E+06    -81.4761E+06    -5.35520E+06     2.13449E+06    -23.9069E-03     45.6042E-03    -21.6974E-03     26.0879E-03    -23.9105E-03     45.2471E-03    -21.5704E-03     26.0904E-03
            2109     6.16721E-03     18.7456E-03    -27.3773E+06    -88.4928E+06    -9.34108E+06     2.49767E+06    -23.1485E-03     44.5837E-03    -21.4352E-03     22.5478E-03    -23.1480E-03     44.1990E-03    -21.3139E-03     22.5611E-03
            2110     5.28737E-03     18.7241E-03    -30.4532E+06    -94.8498E+06    -14.2414E+06     2.72690E+06    -22.4601E-03     43.6567E-03    -21.1966E-03     19.0952E-03    -22.4570E-03     43.2501E-03    -21.0861E-03     19.1162E-03
            2111     4.40701E-03     18.7061E-03    -33.6777E+06     -101.64E+06    -20.0554E+06     2.78543E+06    -21.8607E-03     42.8465E-03    -20.9858E-03     15.7367E-03    -21.8544E-03     42.4179E-03    -20.8899E-03     15.7623E-03
            2112     3.52617E-03     18.6914E-03    -36.8788E+06    -107.815E+06    -26.5731E+06     2.64273E+06    -21.3601E-03     42.1641E-03    -20.8040E-03     12.4817E-03    -21.3506E-03     41.7180E-03    -20.7270E-03     12.5083E-03
            2113     2.64496E-03     18.6800E-03    -39.7866E+06    -113.741E+06    -33.0397E+06     2.26367E+06    -20.9683E-03     41.6243E-03    -20.6560E-03     9.31758E-03    -20.9549E-03     41.1617E-03    -20.5986E-03     9.34163E-03
            2114     1.76347E-03     18.6719E-03    -42.1673E+06    -118.006E+06    -38.7996E+06     1.66258E+06    -20.6845E-03     41.2276E-03    -20.5431E-03     6.24864E-03    -20.6682E-03     40.7552E-03    -20.5049E-03     6.26683E-03
            2115     881.788E-06     18.6669E-03    -43.7371E+06    -120.573E+06    -42.8271E+06     941.773E+03    -20.5231E-03     40.9790E-03    -20.4560E-03     3.38209E-03    -20.5049E-03     40.5018E-03    -20.4318E-03     3.39254E-03
            2116     16.6735E-03     18.2010E-03    -3.59586E+06     108.796E+06     65.0358E+06     229.996E+03    -32.2026E-03     57.6362E-03    -25.4336E-03     18.7973E-03    -32.5387E-03     58.1572E-03    -25.2610E-03     18.6824E-03
            2117     15.8020E-03     18.1720E-03    -6.97257E+06     104.375E+06     48.6128E+06     573.777E+03    -31.7758E-03     56.7590E-03    -24.9832E-03     34.7242E-03    -32.1427E-03     57.3307E-03    -24.8814E-03     34.5832E-03
            2118     14.9299E-03     18.1330E-03    -9.68904E+06     91.1554E+06     27.9740E+06     772.265E+03    -31.2830E-03     55.8011E-03    -24.5182E-03     45.2992E-03    -31.6255E-03     56.3518E-03    -24.4964E-03     45.1569E-03
            2119     14.0571E-03     18.0832E-03    -11.5142E+06     42.5868E+06     8.93057E+06     644.859E+03    -30.6906E-03     54.8009E-03    -24.1103E-03     49.2065E-03    -30.9373E-03     55.1320E-03    -24.1107E-03     49.0655E-03
            2120     13.1836E-03     18.0364E-03    -12.6370E+06    -7.81189E+06     490.895E+03     486.568E+03    -29.8949E-03     53.6540E-03    -23.7591E-03     46.3666E-03    -30.0324E-03     53.7176E-03    -23.7270E-03     46.2437E-03
            2121     12.3094E-03     17.9918E-03    -13.6333E+06    -28.2423E+06     774.356E+03     540.536E+03    -29.0359E-03     52.4492E-03    -23.4132E-03     44.1232E-03    -29.1243E-03     52.3867E-03    -23.3486E-03     44.0250E-03
            2122     11.4344E-03     17.9490E-03    -14.8668E+06    -43.1823E+06     728.009E+03     855.772E+03    -28.1959E-03     51.2599E-03    -23.0640E-03     41.7977E-03    -28.2515E-03     51.1074E-03    -22.9762E-03     41.7240E-03
            2123     10.5587E-03     17.9086E-03    -16.2829E+06    -52.9095E+06     1.28666E+06     1.13162E+06    -27.3317E-03     50.0485E-03    -22.7167E-03     38.9151E-03    -27.3686E-03     49.8360E-03    -22.6100E-03     38.8623E-03
            2124     9.68223E-03     17.8711E-03    -17.8100E+06    -60.6785E+06     635.753E+03     1.22343E+06    -26.4498E-03     48.8189E-03    -22.3691E-03     35.5672E-03    -26.4728E-03     48.5614E-03    -22.2521E-03     35.5300E-03
            2125     8.80507E-03     17.8369E-03    -19.5880E+06    -68.2779E+06    -227.175E+03     1.45322E+06    -25.5520E-03     47.5846E-03    -22.0326E-03     31.9834E-03    -25.5649E-03     47.2863E-03    -21.9063E-03     31.9611E-03
            2126     7.92717E-03     17.8061E-03    -21.7106E+06    -74.4896E+06    -2.45720E+06     1.92515E+06    -24.6533E-03     46.3581E-03    -21.7048E-03     28.3657E-03    -24.6599E-03     46.0303E-03    -21.5776E-03     28.3590E-03
            2127     7.04853E-03     17.7788E-03    -24.1421E+06    -81.6671E+06    -5.76454E+06     2.49361E+06    -23.7902E-03     45.1856E-03    -21.3954E-03     24.7969E-03    -23.7905E-03     44.8270E-03    -21.2708E-03     24.8051E-03
            2128     6.16919E-03     17.7549E-03    -26.8701E+06    -88.4218E+06    -9.64399E+06     2.97910E+06    -22.9792E-03     44.0883E-03    -21.1091E-03     21.3091E-03    -22.9755E-03     43.7033E-03    -20.9902E-03     21.3295E-03
            2129     5.28919E-03     17.7344E-03    -29.8612E+06    -94.4839E+06    -14.4614E+06     3.31963E+06    -22.2383E-03     43.0857E-03    -20.8475E-03     17.9420E-03    -22.2322E-03     42.6802E-03    -20.7395E-03     17.9715E-03
            2130     4.40861E-03     17.7172E-03    -33.0227E+06    -100.883E+06    -20.0668E+06     3.46412E+06    -21.5884E-03     42.2042E-03    -20.6158E-03     14.7013E-03    -21.5797E-03     41.7783E-03    -20.5219E-03     14.7361E-03
            2131     3.52752E-03     17.7032E-03    -36.1455E+06    -106.595E+06    -26.3125E+06     3.28384E+06    -21.0398E-03     41.4553E-03    -20.4155E-03     11.5983E-03    -21.0287E-03     41.0138E-03    -20.3400E-03     11.6336E-03
            2132     2.64602E-03     17.6923E-03    -38.9602E+06    -112.100E+06    -32.5278E+06     2.76604E+06    -20.6053E-03     40.8574E-03    -20.2521E-03     8.61949E-03    -20.5909E-03     40.4010E-03    -20.1957E-03     8.65036E-03
            2133     1.76420E-03     17.6846E-03    -41.1501E+06    -116.027E+06     -37.858E+06      1.9376E+06    -20.2892E-03     40.4175E-03    -20.1283E-03     5.76059E-03    -20.2721E-03     39.9521E-03    -20.0897E-03     5.78256E-03
            2134     882.159E-06     17.6798E-03    -42.4974E+06    -118.593E+06    -41.5844E+06     996.178E+03    -20.1092E-03     40.1407E-03    -20.0316E-03     3.10902E-03    -20.0895E-03     39.6697E-03    -20.0059E-03     3.12029E-03
            2135     16.6739E-03     17.1956E-03    -3.60664E+06     108.456E+06     65.0321E+06     274.100E+03    -32.7896E-03     58.2004E-03    -25.4107E-03     17.8101E-03    -33.1224E-03     58.7168E-03    -25.2376E-03     17.6927E-03
            2136     15.8029E-03     17.1679E-03    -6.99771E+06     103.927E+06     48.5326E+06     670.777E+03    -32.2169E-03     57.1468E-03    -24.9298E-03     33.4842E-03    -32.5787E-03     57.7119E-03    -24.8277E-03     33.3418E-03
            2137     14.9311E-03     17.1302E-03    -9.73821E+06     91.2934E+06     27.6381E+06     895.125E+03    -31.5979E-03     56.0343E-03    -24.4363E-03     44.0274E-03    -31.9360E-03     56.5818E-03    -24.4164E-03     43.8857E-03
            2138     14.0586E-03     17.0819E-03    -11.5383E+06     43.1043E+06      8.5283E+06     701.532E+03    -30.9196E-03     54.9235E-03    -24.0040E-03     47.8596E-03    -31.1623E-03     55.2537E-03    -24.0071E-03     47.7195E-03
            2139     13.1853E-03     17.0365E-03    -12.6383E+06    -7.68501E+06     58.4406E+03     537.695E+03    -30.0734E-03     53.7044E-03    -23.6310E-03     45.0796E-03    -30.2074E-03     53.7661E-03    -23.6012E-03     44.9581E-03
            2140     12.3111E-03     16.9931E-03    -13.7031E+06    -28.4324E+06     317.556E+03     702.161E+03    -29.1938E-03     52.4566E-03    -23.2627E-03     42.8749E-03    -29.2794E-03     52.3916E-03    -23.2001E-03     42.7798E-03
            2141     11.4363E-03     16.9516E-03    -14.8457E+06    -43.3737E+06     312.061E+03     899.789E+03    -28.3478E-03     51.2362E-03    -22.8884E-03     40.5099E-03    -28.4006E-03     51.0815E-03    -22.8024E-03     40.4378E-03
            2142     10.5608E-03     16.9124E-03    -15.9569E+06    -52.9355E+06     979.403E+03     1.00339E+06    -27.4701E-03     49.9826E-03    -22.5124E-03     37.5429E-03    -27.5033E-03     49.7684E-03    -22.4076E-03     37.4896E-03
            2143     9.68445E-03     16.8761E-03    -17.3444E+06    -60.7554E+06     300.212E+03     1.22018E+06    -26.5523E-03     48.6854E-03    -22.1331E-03     34.0908E-03    -26.5711E-03     48.4261E-03    -22.0184E-03     34.0548E-03
            2144     8.80737E-03     16.8431E-03    -19.1622E+06    -68.5423E+06    -666.785E+03     1.58728E+06    -25.6013E-03     47.3646E-03    -21.7633E-03     30.4219E-03    -25.6101E-03     47.0640E-03    -21.6394E-03     30.4025E-03
            2145     7.92949E-03     16.8136E-03    -21.2873E+06    -74.9140E+06    -2.86608E+06     2.13825E+06    -24.6433E-03     46.0451E-03    -21.4018E-03     26.7642E-03    -24.6458E-03     45.7144E-03    -21.2766E-03     26.7614E-03
            2146     7.05083E-03     16.7875E-03    -23.6661E+06    -82.0162E+06    -6.12890E+06     2.86740E+06    -23.7146E-03     44.7726E-03    -21.0580E-03     23.2031E-03    -23.7108E-03     44.4115E-03    -20.9354E-03     23.2173E-03
            2147     6.17141E-03     16.7647E-03    -26.3289E+06    -88.3432E+06    -9.84385E+06     3.49049E+06    -22.8317E-03     43.5695E-03    -20.7378E-03     19.7692E-03    -22.8247E-03     43.1839E-03    -20.6207E-03     19.7972E-03
            2148     5.29127E-03     16.7452E-03    -29.1637E+06    -94.1076E+06    -14.3617E+06     3.86978E+06    -22.0172E-03     42.4614E-03    -20.4442E-03     16.5072E-03    -22.0080E-03     42.0562E-03    -20.3372E-03     16.5446E-03
            2149     4.41048E-03     16.7289E-03    -32.0595E+06    -100.060E+06    -19.6280E+06     4.09070E+06    -21.2938E-03     41.4764E-03    -20.1827E-03     13.4231E-03    -21.2819E-03     41.0524E-03    -20.0892E-03     13.4667E-03
            2150     3.52912E-03     16.7157E-03    -34.9815E+06    -105.044E+06    -25.3670E+06     3.90061E+06    -20.6765E-03     40.6330E-03    -19.9564E-03     10.5199E-03    -20.6631E-03     40.1960E-03    -19.8802E-03     10.5637E-03
            2151     2.64728E-03     16.7054E-03    -37.6268E+06    -110.026E+06    -31.1956E+06     3.14790E+06    -20.1816E-03     39.9527E-03    -19.7712E-03     7.77449E-03    -20.1653E-03     39.5028E-03    -19.7131E-03     7.81065E-03
            2152     1.76507E-03     16.6981E-03    -39.7088E+06    -113.757E+06    -36.6070E+06     2.14637E+06    -19.8165E-03     39.4462E-03    -19.6297E-03     5.17636E-03    -19.7972E-03     38.9883E-03    -19.5902E-03     5.20126E-03
            2153     882.609E-06     16.6937E-03    -41.1470E+06    -116.363E+06    -40.4568E+06     1.21573E+06    -19.6121E-03     39.1303E-03    -19.5182E-03     2.78651E-03    -19.5905E-03     38.6668E-03    -19.4921E-03     2.80075E-03
            2154     16.6742E-03     16.1896E-03    -3.61744E+06     108.045E+06     65.0450E+06     352.074E+03    -33.3328E-03     58.7260E-03    -25.3932E-03     16.6967E-03    -33.6619E-03     59.2372E-03    -25.2194E-03     16.5777E-03
            2155     15.8036E-03     16.1635E-03    -7.07135E+06     103.437E+06     48.4836E+06     808.744E+03    -32.6181E-03     57.5026E-03    -24.8845E-03     32.1212E-03    -32.9747E-03     58.0608E-03    -24.7818E-03     31.9785E-03
            2156     14.9321E-03     16.1271E-03    -9.83218E+06     91.4726E+06     27.2862E+06     1.03194E+06    -31.9027E-03     56.2667E-03    -24.3639E-03     42.6807E-03    -32.2364E-03     56.8111E-03    -24.3459E-03     42.5400E-03
            2157     14.0599E-03     16.0803E-03    -11.6707E+06     43.7056E+06     8.03164E+06     793.257E+03    -31.1863E-03     55.0927E-03    -23.9064E-03     46.3945E-03    -31.4254E-03     55.4222E-03    -23.9127E-03     46.2557E-03
            2158     13.1868E-03     16.0364E-03    -12.8235E+06    -7.64585E+06    -526.602E+03     630.320E+03    -30.3327E-03     53.8407E-03    -23.5080E-03     43.6291E-03    -30.4634E-03     53.9003E-03    -23.4810E-03     43.5091E-03
            2159     12.3129E-03     15.9944E-03    -13.6798E+06    -28.5744E+06    -209.428E+03     721.433E+03    -29.4628E-03     52.5734E-03    -23.1106E-03     41.4043E-03    -29.5446E-03     52.5059E-03    -23.0503E-03     41.3101E-03
            2160     11.4383E-03     15.9541E-03    -14.5332E+06    -43.3121E+06    -52.4493E+03     758.987E+03    -28.6248E-03     51.3265E-03    -22.7017E-03     38.9072E-03    -28.6735E-03     51.1700E-03    -22.6180E-03     38.8342E-03
            2161     10.5630E-03     15.9161E-03    -15.6660E+06    -53.0680E+06     621.815E+03     874.006E+03    -27.7331E-03     50.0189E-03    -22.2857E-03     35.7448E-03    -27.7623E-03     49.8023E-03    -22.1829E-03     35.6908E-03
            2162     9.68692E-03     15.8812E-03    -17.0783E+06    -61.0322E+06    -128.703E+03     1.22499E+06    -26.7670E-03     48.6283E-03    -21.8614E-03     32.0911E-03    -26.7819E-03     48.3664E-03    -21.7488E-03     32.0564E-03
            2163     8.81001E-03     15.8496E-03    -18.7203E+06     -68.898E+06    -1.09065E+06     1.73422E+06    -25.7423E-03     47.1860E-03    -21.4437E-03     28.2782E-03    -25.7464E-03     46.8823E-03    -21.3221E-03     28.2621E-03
            2164     7.93225E-03     15.8214E-03    -20.7413E+06    -75.4581E+06    -3.07097E+06     2.44176E+06    -24.6956E-03     45.7301E-03    -21.0345E-03     24.5506E-03    -24.6933E-03     45.3952E-03    -20.9103E-03     24.5532E-03
            2165     7.05362E-03     15.7966E-03    -23.0566E+06    -82.4011E+06    -6.05824E+06     3.23376E+06    -23.6606E-03     44.3037E-03    -20.6431E-03     21.0036E-03    -23.6527E-03     43.9390E-03    -20.5205E-03     21.0239E-03
            2166     6.17414E-03     15.7750E-03    -25.4807E+06    -88.2739E+06    -9.45603E+06     3.87559E+06    -22.6617E-03     42.9390E-03    -20.2774E-03     17.6823E-03    -22.6505E-03     42.5515E-03    -20.1597E-03     17.7165E-03
            2167     5.29385E-03     15.7567E-03    -28.0985E+06    -93.6605E+06    -13.5566E+06     4.32000E+06    -21.7357E-03     41.6790E-03    -19.9434E-03     14.6137E-03    -21.7226E-03     41.2731E-03    -19.8346E-03     14.6579E-03
            2168     4.41281E-03     15.7414E-03    -30.8494E+06    -99.1232E+06    -18.4633E+06     4.49098E+06    -20.9117E-03     40.5584E-03    -19.6466E-03     11.7886E-03    -20.8966E-03     40.1354E-03    -19.5505E-03     11.8382E-03
            2169     3.53110E-03     15.7290E-03    -33.4069E+06    -103.293E+06    -24.1946E+06     4.25894E+06    -20.2099E-03     39.5988E-03    -19.3889E-03     9.18459E-03    -20.1927E-03     39.1665E-03    -19.3116E-03     9.23364E-03
            2170     2.64884E-03     15.7195E-03    -35.8512E+06    -107.725E+06    -30.1353E+06     3.62195E+06    -19.6486E-03     38.8275E-03    -19.1788E-03     6.75561E-03    -19.6283E-03     38.3848E-03    -19.1213E-03     6.79832E-03
            2171     1.76615E-03     15.7128E-03    -38.1625E+06    -111.217E+06    -35.4204E+06     2.69443E+06    -19.2352E-03     38.2567E-03    -19.0214E-03     4.48481E-03    -19.2136E-03     37.8074E-03    -18.9819E-03     4.51705E-03
            2172     883.145E-06     15.7086E-03    -39.7616E+06    -113.604E+06    -39.0173E+06     1.53622E+06    -19.0050E-03     37.9016E-03    -18.8966E-03     2.41129E-03    -18.9826E-03     37.4479E-03    -18.8693E-03     2.42981E-03
            2173     16.6745E-03     15.1831E-03    -3.71522E+06     107.575E+06     65.0255E+06     482.592E+03    -33.8248E-03     59.2064E-03    -25.3816E-03     15.4214E-03    -34.1501E-03     59.7119E-03    -25.2071E-03     15.3021E-03
            2174     15.8042E-03     15.1588E-03    -7.15008E+06     102.967E+06     48.4464E+06     931.413E+03    -33.0048E-03     57.8520E-03    -24.8472E-03     30.5902E-03    -33.3560E-03     58.4029E-03    -24.7439E-03     30.4474E-03
            2175     14.9330E-03     15.1238E-03    -9.86051E+06      91.643E+06     26.9434E+06     1.16110E+06    -32.2563E-03     56.5553E-03    -24.2990E-03     41.2218E-03    -32.5851E-03     57.0963E-03    -24.2828E-03     41.0816E-03
            2176     14.0611E-03     15.0786E-03    -11.6668E+06     44.3398E+06     7.56260E+06     952.856E+03    -31.5729E-03     55.3840E-03    -23.8112E-03     44.7425E-03    -31.8074E-03     55.7126E-03    -23.8207E-03     44.6050E-03
            2177     13.1884E-03     15.0361E-03    -12.7013E+06    -7.48856E+06    -1.05378E+06     662.775E+03    -30.7723E-03     54.1495E-03    -23.3772E-03     41.8972E-03    -30.8981E-03     54.2067E-03    -23.3532E-03     41.7773E-03
            2178     12.3149E-03     14.9954E-03    -13.4618E+06    -28.5514E+06    -695.434E+03     565.212E+03    -29.9513E-03     52.8866E-03    -22.9353E-03     39.5255E-03    -30.0283E-03     52.8166E-03    -22.8779E-03     39.4292E-03
            2179     11.4407E-03     14.9564E-03    -14.3816E+06     -43.334E+06    -446.335E+03     661.198E+03    -29.1277E-03     51.6006E-03    -22.4729E-03     36.7299E-03    -29.1723E-03     51.4417E-03    -22.3914E-03     36.6561E-03
            2180     10.5659E-03     14.9198E-03    -15.5599E+06    -53.2625E+06     324.785E+03     888.782E+03    -28.1942E-03     50.1895E-03    -21.9953E-03     33.2190E-03    -28.2198E-03     49.9699E-03    -21.8939E-03     33.1664E-03
            2181     9.69022E-03     14.8863E-03    -16.9448E+06    -61.3387E+06    -400.680E+03     1.19633E+06    -27.1321E-03     48.6357E-03    -21.5035E-03     29.2680E-03    -27.1435E-03     48.3704E-03    -21.3920E-03     29.2345E-03
            2182     8.81364E-03     14.8562E-03    -18.5067E+06    -69.4429E+06    -1.37941E+06     1.76862E+06    -25.9729E-03     46.9893E-03    -21.0164E-03     25.2924E-03    -25.9732E-03     46.6815E-03    -20.8958E-03     25.2786E-03
            2183     7.93608E-03     14.8295E-03    -20.3563E+06    -76.1784E+06    -2.99683E+06     2.69517E+06    -24.7649E-03     45.3058E-03    -20.5409E-03     21.5396E-03    -24.7585E-03     44.9654E-03    -20.4159E-03     21.5473E-03
            2184     7.05750E-03     14.8062E-03    -22.4941E+06    -82.5498E+06    -5.47121E+06     3.47207E+06    -23.5542E-03     43.6418E-03    -20.0875E-03     18.0949E-03    -23.5432E-03     43.2737E-03    -19.9626E-03     18.1200E-03
            2185     6.17790E-03     14.7861E-03    -24.7627E+06    -88.2398E+06    -8.59135E+06     3.98453E+06    -22.3841E-03     42.0509E-03    -19.6668E-03     14.9945E-03    -22.3700E-03     41.6606E-03    -19.5459E-03     15.0316E-03
            2186     5.29731E-03     14.7690E-03    -27.1490E+06    -93.2959E+06    -12.5987E+06     4.57633E+06    -21.3073E-03     40.5933E-03    -19.2860E-03     12.2284E-03    -21.2910E-03     40.1859E-03    -19.1743E-03     12.2771E-03
            2187     4.41585E-03     14.7549E-03    -29.6929E+06    -97.8705E+06    -17.5162E+06     4.73223E+06    -20.3621E-03     39.3131E-03    -18.9510E-03     9.76241E-03    -20.3441E-03     38.8931E-03    -18.8536E-03     9.81612E-03
            2188     3.53362E-03     14.7436E-03    -32.2306E+06    -101.724E+06    -23.8413E+06     4.53294E+06    -19.5689E-03     38.2318E-03    -18.6629E-03     7.54828E-03    -19.5485E-03     37.8049E-03    -18.5878E-03     7.60162E-03
            2189     2.65076E-03     14.7349E-03    -34.5185E+06    -105.455E+06    -29.7494E+06     4.26058E+06    -18.9481E-03     37.3814E-03    -18.4333E-03     5.52162E-03    -18.9249E-03     36.9476E-03    -18.3791E-03     5.57310E-03
            2190     1.76744E-03     14.7287E-03    -36.4157E+06    -108.112E+06    -33.8972E+06     3.31225E+06    -18.5027E-03     36.7694E-03    -18.2667E-03     3.64820E-03    -18.4790E-03     36.3309E-03    -18.2266E-03     3.68876E-03
            2191     883.819E-06     14.7249E-03    -37.7563E+06    -110.173E+06    -37.1008E+06     1.85726E+06    -18.2425E-03     36.3827E-03    -18.1402E-03     1.95671E-03    -18.2178E-03     35.9404E-03    -18.1112E-03     1.97954E-03
            2192     16.6746E-03     14.1761E-03    -3.59835E+06     107.104E+06     65.0380E+06     591.329E+03    -34.2983E-03     59.6728E-03    -25.3745E-03     13.9879E-03    -34.6187E-03     60.1720E-03    -25.1994E-03     13.8685E-03
            2193     15.8047E-03     14.1537E-03    -7.01984E+06     102.539E+06     48.5791E+06     1.03648E+06    -33.4429E-03     58.2571E-03    -24.8142E-03     28.8791E-03    -33.7878E-03     58.8003E-03    -24.7098E-03     28.7356E-03
            2194     14.9339E-03     14.1201E-03    -9.76094E+06     91.7409E+06     26.7177E+06     1.30041E+06    -32.7663E-03     56.9986E-03    -24.2323E-03     39.5907E-03    -33.0895E-03     57.5353E-03    -24.2175E-03     39.4499E-03
            2195     14.0624E-03     14.0764E-03    -11.5124E+06     45.0677E+06     7.24183E+06     1.06048E+06    -32.2176E-03     55.9183E-03    -23.7007E-03     42.7383E-03    -32.4467E-03     56.2456E-03    -23.7132E-03     42.5998E-03
            2196     13.1903E-03     14.0354E-03    -12.5041E+06    -7.13697E+06    -1.38172E+06     663.166E+03    -31.5361E-03     54.7465E-03    -23.2104E-03     39.6090E-03    -31.6564E-03     54.8012E-03    -23.1889E-03     39.4872E-03
            2197     12.3176E-03     13.9960E-03    -13.3687E+06    -28.5201E+06    -993.953E+03     575.042E+03    -30.7762E-03     53.4739E-03    -22.6977E-03     36.8895E-03    -30.8485E-03     53.4004E-03    -22.6419E-03     36.7925E-03
            2198     11.4442E-03     13.9583E-03    -14.3881E+06    -43.4400E+06    -672.774E+03     692.957E+03    -29.9233E-03     52.0750E-03    -22.1516E-03     33.6478E-03    -29.9640E-03     51.9124E-03    -22.0711E-03     33.5748E-03
            2199     10.5701E-03     13.9232E-03    -15.5459E+06    -53.4312E+06     213.157E+03      878.84E+03    -28.8638E-03     50.4463E-03    -21.5825E-03     29.7268E-03    -28.8859E-03     50.2230E-03    -21.4814E-03     29.6755E-03
            2200     9.69501E-03     13.8914E-03    -16.9315E+06    -61.6338E+06    -409.364E+03     1.22572E+06    -27.6028E-03     48.6000E-03    -20.9972E-03     25.5132E-03    -27.6112E-03     48.3308E-03    -20.8853E-03     25.4821E-03
            2201     8.81884E-03     13.8630E-03    -18.6154E+06    -70.0564E+06    -1.40348E+06     1.82622E+06    -26.2069E-03     46.6265E-03    -20.4196E-03     21.4743E-03    -26.2049E-03     46.3139E-03    -20.2981E-03     21.4636E-03
            2202     7.94146E-03     13.8382E-03    -20.3914E+06    -76.8851E+06    -2.84230E+06     2.63037E+06    -24.7510E-03     44.6124E-03    -19.8614E-03     17.8250E-03    -24.7426E-03     44.2670E-03    -19.7345E-03     17.8342E-03
            2203     7.06281E-03     13.8166E-03    -22.2129E+06    -82.6601E+06    -4.85669E+06     3.41473E+06    -23.3081E-03     42.6436E-03    -19.3355E-03     14.5979E-03    -23.2954E-03     42.2727E-03    -19.2077E-03     14.6243E-03
            2204     6.18292E-03     13.7982E-03    -24.4322E+06    -88.1778E+06    -7.53622E+06     4.03708E+06    -21.9380E-03     40.7920E-03    -18.8541E-03     11.7969E-03    -21.9232E-03     40.3994E-03    -18.7284E-03     11.8365E-03
            2205     5.30189E-03     13.7827E-03    -26.7905E+06    -92.9243E+06    -12.1607E+06     4.47236E+06    -20.6906E-03     39.1089E-03    -18.4183E-03     9.39590E-03    -20.6733E-03     38.7019E-03    -18.3055E-03     9.44477E-03
            2206     4.41982E-03     13.7699E-03    -28.8219E+06    -96.6136E+06    -17.8086E+06     4.66236E+06    -19.6064E-03     37.6448E-03    -18.0384E-03     7.34487E-03    -19.5853E-03     37.2300E-03    -17.9456E-03     7.39884E-03
            2207     3.53688E-03     13.7596E-03    -30.7506E+06    -100.433E+06    -22.6497E+06     4.73615E+06    -18.7176E-03     36.4465E-03    -17.7290E-03     5.57860E-03    -18.6932E-03     36.0221E-03    -17.6520E-03     5.63544E-03
            2208     2.65326E-03     13.7518E-03    -32.6120E+06    -103.156E+06    -27.4023E+06     4.55417E+06    -18.0330E-03     35.5178E-03    -17.4848E-03     4.03122E-03    -18.0070E-03     35.0892E-03    -17.4249E-03     4.08713E-03
            2209     1.76913E-03     13.7462E-03    -34.0792E+06    -104.562E+06    -31.8868E+06     3.59997E+06    -17.5493E-03     34.8540E-03    -17.3047E-03     2.64599E-03    -17.5219E-03     34.4269E-03    -17.2631E-03     2.69068E-03
            2210     884.652E-06     13.7428E-03    -35.0632E+06    -106.216E+06    -34.5897E+06     2.17152E+06    -17.2716E-03     34.4573E-03    -17.1857E-03     1.41333E-03    -17.2428E-03     34.0272E-03    -17.1538E-03     1.44044E-03
            2211     16.6747E-03     13.1685E-03    -3.47673E+06     106.561E+06     65.1068E+06     602.994E+03    -34.8317E-03     60.1989E-03    -25.3672E-03     12.3859E-03    -35.1470E-03     60.6913E-03    -25.1911E-03     12.2647E-03
            2212     15.8052E-03     13.1483E-03    -6.90686E+06     102.026E+06     48.8896E+06     1.21244E+06    -34.0656E-03     58.8405E-03    -24.7749E-03     26.9502E-03    -34.4044E-03     59.3753E-03    -24.6684E-03     26.8055E-03
            2213     14.9350E-03     13.1158E-03    -9.71129E+06     91.8967E+06     26.7210E+06     1.47814E+06    -33.6040E-03     57.7476E-03    -24.1436E-03     37.6798E-03    -33.9219E-03     58.2799E-03    -24.1292E-03     37.5366E-03
            2214     14.0644E-03     13.0734E-03    -11.4636E+06     45.9567E+06     7.15940E+06     1.11988E+06    -33.2878E-03     56.8308E-03    -23.5430E-03     40.2062E-03    -33.5120E-03     57.1567E-03    -23.5572E-03     40.0637E-03
            2215     13.1934E-03     13.0339E-03    -12.4562E+06    -6.78965E+06    -1.49619E+06     746.722E+03    -32.7415E-03     55.7053E-03    -22.9638E-03     36.5839E-03    -32.8564E-03     55.7564E-03    -22.9433E-03     36.4598E-03
            2216     12.3218E-03     12.9958E-03    -13.3402E+06    -28.5270E+06    -1.03908E+06     728.096E+03    -31.9682E-03     54.3131E-03    -22.3449E-03     33.3751E-03    -32.0355E-03     54.2349E-03    -22.2894E-03     33.2788E-03
            2217     11.4495E-03     12.9597E-03    -14.4019E+06    -43.4127E+06    -593.608E+03     804.056E+03    -30.9479E-03     52.6305E-03    -21.6826E-03     29.6649E-03    -30.9847E-03     52.4639E-03    -21.6017E-03     29.5939E-03
            2218     10.5763E-03     12.9263E-03    -15.6580E+06    -53.5149E+06     321.705E+03     896.575E+03    -29.6095E-03     50.6054E-03    -20.9959E-03     25.4231E-03    -29.6289E-03     50.3784E-03    -20.8940E-03     25.3740E-03
            2219     9.70189E-03     12.8965E-03    -17.0983E+06    -62.0061E+06    -279.522E+03     1.25322E+06    -28.0207E-03     48.3202E-03    -20.2996E-03     21.1289E-03    -28.0270E-03     48.0467E-03    -20.1863E-03     21.1009E-03
            2220     8.82603E-03     12.8703E-03    -18.7076E+06    -70.5537E+06    -1.11533E+06     1.86365E+06    -26.3049E-03     45.9270E-03    -19.6220E-03     17.2178E-03    -26.3012E-03     45.6098E-03    -19.4982E-03     17.2104E-03
            2221     7.94866E-03     12.8476E-03    -20.4593E+06    -77.1930E+06    -2.27603E+06     2.36108E+06    -24.5605E-03     43.5368E-03    -18.9764E-03     13.8251E-03    -24.5515E-03     43.1879E-03    -18.8461E-03     13.8334E-03
            2222     7.06978E-03     12.8282E-03    -22.2529E+06    -83.0872E+06    -4.06606E+06     3.00695E+06    -22.8726E-03     41.2480E-03    -18.3755E-03     10.9318E-03    -22.8598E-03     40.8731E-03    -18.2431E-03     10.9551E-03
            2223     6.18945E-03     12.8117E-03    -24.0323E+06    -88.0173E+06    -6.51474E+06     3.68615E+06    -21.3008E-03     39.1296E-03    -17.8288E-03     8.51113E-03    -21.2853E-03     38.7352E-03    -17.6989E-03     8.54795E-03
            2224     5.30780E-03     12.7980E-03    -25.7193E+06    -92.2377E+06    -10.5269E+06     3.82042E+06    -19.8852E-03     37.2252E-03    -17.3400E-03     6.53193E-03    -19.8656E-03     36.8173E-03    -17.2216E-03     6.57376E-03
            2225     4.42497E-03     12.7867E-03    -27.2549E+06    -95.8969E+06    -15.3006E+06     3.98116E+06    -18.6596E-03     35.5798E-03    -16.9202E-03     4.93760E-03    -18.6351E-03     35.1624E-03    -16.8181E-03     4.98380E-03
            2226     3.54113E-03     12.7777E-03    -28.5957E+06    -99.0944E+06    -19.3081E+06     4.11960E+06    -17.6576E-03     34.2388E-03    -16.5812E-03     3.65850E-03    -17.6292E-03     33.8130E-03    -16.4926E-03     3.70812E-03
            2227     2.65651E-03     12.7708E-03    -29.4989E+06    -100.937E+06    -23.1364E+06     3.69338E+06    -16.8945E-03     33.2141E-03    -16.3196E-03     2.61526E-03    -16.8622E-03     32.7858E-03    -16.2461E-03     2.66058E-03
            2228     1.77130E-03     12.7659E-03    -29.8248E+06    -101.407E+06    -26.9366E+06     2.95055E+06    -16.3733E-03     32.5062E-03    -16.1329E-03     1.72333E-03    -16.3365E-03     32.0815E-03    -16.0773E-03     1.75998E-03
            2229     885.725E-06     12.7629E-03    -29.7963E+06    -102.318E+06    -29.0285E+06     1.81808E+06    -16.1014E-03     32.1109E-03    -16.0094E-03     928.730E-06    -16.0600E-03     31.6845E-03    -15.9630E-03     951.468E-06
            2230     16.6749E-03     12.1603E-03    -3.60427E+06     105.855E+06     65.1648E+06     585.659E+03    -35.5578E-03     60.9084E-03    -25.3506E-03     10.6571E-03    -35.8691E-03     61.3937E-03    -25.1730E-03     10.5328E-03
            2231     15.8061E-03     12.1422E-03    -7.01395E+06     101.306E+06     49.4059E+06     1.36626E+06    -35.0476E-03     59.7590E-03    -24.7114E-03     24.8577E-03    -35.3815E-03     60.2844E-03    -24.6011E-03     24.7090E-03
            2232     14.9369E-03     12.1105E-03    -9.72489E+06     92.2637E+06     27.1778E+06     1.61620E+06    -34.9399E-03     58.9444E-03    -24.0045E-03     35.5024E-03    -35.2539E-03     59.4727E-03    -23.9883E-03     35.3529E-03
            2233     14.0676E-03     12.0693E-03    -11.4092E+06     46.9248E+06     7.36857E+06     1.18416E+06    -34.8729E-03     58.1718E-03    -23.2989E-03     37.1317E-03    -35.0920E-03     58.4957E-03    -23.3136E-03     36.9827E-03
            2234     13.1981E-03     12.0311E-03    -12.4147E+06    -6.52851E+06    -1.38475E+06     919.343E+03    -34.3453E-03     56.9396E-03    -22.5943E-03     32.8771E-03    -34.4544E-03     56.9857E-03    -22.5738E-03     32.7508E-03
            2235     12.3281E-03     11.9946E-03    -13.3748E+06    -28.4611E+06    -824.251E+03     945.481E+03    -33.3643E-03     55.2031E-03    -21.8389E-03     29.1970E-03    -33.4268E-03     55.1197E-03    -21.7823E-03     29.1025E-03
            2236     11.4570E-03     11.9604E-03    -14.4942E+06    -43.2024E+06    -240.960E+03     942.010E+03    -31.9683E-03     53.0090E-03    -21.0407E-03     25.1939E-03    -32.0020E-03     52.8388E-03    -20.9582E-03     25.1264E-03
            2237     10.5847E-03     11.9294E-03    -15.8124E+06    -53.5075E+06     692.799E+03     985.191E+03    -30.1918E-03     50.4213E-03    -20.2295E-03     20.8964E-03    -30.2091E-03     50.1908E-03    -20.1255E-03     20.8513E-03
            2238     9.71067E-03     11.9021E-03    -17.3430E+06    -62.2857E+06     136.384E+03     1.24447E+06    -28.1905E-03     47.6160E-03    -19.4256E-03     16.7961E-03    -28.1959E-03     47.3386E-03    -19.3094E-03     16.7713E-03
            2239     8.83488E-03     11.8785E-03    -18.9022E+06    -70.8699E+06    -504.553E+03     1.64107E+06    -26.1301E-03     44.7878E-03    -18.6577E-03     13.2499E-03    -26.1263E-03     44.4669E-03    -18.5301E-03     13.2426E-03
            2240     7.95728E-03     11.8584E-03    -20.6498E+06    -77.3349E+06    -1.17004E+06     2.12155E+06    -24.1114E-03     42.0494E-03    -17.9380E-03     10.2847E-03    -24.1039E-03     41.6975E-03    -17.8018E-03     10.2924E-03
            2241     7.07794E-03     11.8414E-03    -22.6742E+06    -83.2772E+06    -2.80669E+06     2.47466E+06    -22.2048E-03     39.4796E-03    -17.2748E-03     7.86125E-03    -22.1951E-03     39.1019E-03    -17.1352E-03     7.87961E-03
            2242     6.19696E-03     11.8271E-03    -24.3858E+06    -87.6477E+06    -5.82743E+06     2.52050E+06    -20.4601E-03     37.1315E-03    -16.6715E-03     5.91639E-03    -20.4475E-03     36.7381E-03    -16.5381E-03     5.93950E-03
            2243     5.31450E-03     11.8153E-03    -25.7570E+06    -91.6101E+06    -9.01191E+06     2.52377E+06    -18.9135E-03     35.0553E-03    -16.1418E-03     4.37960E-03    -18.8970E-03     34.6482E-03    -16.0166E-03     4.40558E-03
            2244     4.43073E-03     11.8058E-03    -27.1991E+06    -95.4307E+06    -12.0627E+06     2.59266E+06    -17.5834E-03     33.2761E-03    -15.6927E-03     3.19604E-03    -17.5639E-03     32.8562E-03    -15.5752E-03     3.22489E-03
            2245     3.54586E-03     11.7981E-03    -28.2778E+06    -97.6138E+06    -16.6166E+06     2.23368E+06    -16.4876E-03     31.8052E-03    -15.3175E-03     2.30391E-03    -16.4636E-03     31.3824E-03    -15.2181E-03     2.32955E-03
            2246     2.66007E-03     11.7923E-03    -28.5863E+06    -99.2230E+06    -21.1051E+06     1.44599E+06    -15.6570E-03     30.6838E-03    -15.0268E-03     1.61605E-03    -15.6256E-03     30.2598E-03    -14.9470E-03     1.63258E-03
            2247     1.77369E-03     11.7880E-03    -28.3316E+06    -99.6735E+06    -24.4076E+06     920.006E+03    -15.0936E-03     29.9148E-03    -14.8212E-03     1.04984E-03    -15.0554E-03     29.4928E-03    -14.7576E-03     1.06039E-03
            2248     886.936E-06     11.7854E-03    -27.8921E+06    -99.9074E+06    -26.6503E+06     603.514E+03    -14.7911E-03     29.4597E-03    -14.6686E-03     560.329E-06    -14.7471E-03     29.0392E-03    -14.6165E-03     567.442E-06
            2249     16.6754E-03     11.1514E-03    -3.66953E+06     105.052E+06     65.2437E+06     649.448E+03    -36.6175E-03     61.9311E-03    -25.3137E-03     8.98775E-03    -36.9247E-03     62.4091E-03    -25.1344E-03     8.85914E-03
            2250     15.8077E-03     11.1350E-03    -7.12295E+06     100.509E+06     50.2056E+06     1.40424E+06    -36.5493E-03     61.1538E-03    -24.6045E-03     22.8265E-03    -36.8793E-03     61.6698E-03    -24.4889E-03     22.6685E-03
            2251     14.9400E-03     11.1036E-03    -9.69269E+06     92.7350E+06     28.0844E+06     1.56855E+06    -36.8564E-03     60.6440E-03    -23.7877E-03     33.1808E-03    -37.1671E-03     61.1682E-03    -23.7677E-03     33.0190E-03
            2252     14.0727E-03     11.0636E-03    -11.2653E+06     47.8061E+06     7.78639E+06     1.27615E+06    -36.8810E-03     59.8213E-03    -22.9403E-03     33.6331E-03    -37.0943E-03     60.1420E-03    -22.9544E-03     33.4765E-03
            2253     13.2050E-03     11.0270E-03    -12.3562E+06    -6.30246E+06    -1.07274E+06     1.22277E+06    -36.0868E-03     58.1713E-03    -22.0845E-03     28.7576E-03    -36.1898E-03     58.2114E-03    -22.0628E-03     28.6317E-03
            2254     12.3364E-03     10.9926E-03    -13.4608E+06    -28.2124E+06    -298.054E+03     1.24644E+06    -34.6206E-03     55.8042E-03    -21.1836E-03     24.8296E-03    -34.6792E-03     55.7160E-03    -21.1246E-03     24.7398E-03
            2255     11.4664E-03     10.9609E-03    -14.7206E+06    -42.7455E+06     427.928E+03     1.08205E+06    -32.6628E-03     52.9199E-03    -20.2571E-03     20.8492E-03    -32.6952E-03     52.7474E-03    -20.1717E-03     20.7865E-03
            2256     10.5945E-03     10.9328E-03    -16.0789E+06    -53.4511E+06     1.38212E+06     1.00308E+06    -30.3653E-03     49.7073E-03    -19.3420E-03     16.8271E-03    -30.3823E-03     49.4737E-03    -19.2342E-03     16.7860E-03
            2257     9.72053E-03     10.9086E-03    -17.6248E+06    -62.4064E+06     991.219E+03     1.22987E+06    -27.9462E-03     46.4051E-03    -18.4589E-03     13.2033E-03    -27.9524E-03     46.1245E-03    -18.3379E-03     13.1819E-03
            2258     8.84441E-03     10.8881E-03    -19.4206E+06    -70.8271E+06     554.685E+03     1.37975E+06    -25.5751E-03     43.2083E-03    -17.6332E-03     10.2408E-03    -25.5745E-03     42.8859E-03    -17.4996E-03     10.2329E-03
            2259     7.96623E-03     10.8708E-03    -21.2638E+06    -77.6571E+06     230.388E+03     1.64830E+06    -23.3379E-03     40.2119E-03    -16.8740E-03     7.85394E-03    -23.3344E-03     39.8567E-03    -16.7294E-03     7.85755E-03
            2260     7.08612E-03     10.8564E-03    -23.1202E+06    -82.7796E+06    -1.07895E+06     1.75129E+06    -21.2836E-03     37.4658E-03    -16.1822E-03     5.98064E-03    -21.2791E-03     37.0885E-03    -16.0340E-03     5.99096E-03
            2261     6.20426E-03     10.8446E-03    -25.2156E+06    -87.0303E+06    -3.73906E+06     1.30832E+06    -19.4509E-03     35.0120E-03    -15.5611E-03     4.52411E-03    -19.4463E-03     34.6198E-03    -15.4171E-03     4.53234E-03
            2262     5.32086E-03     10.8349E-03    -27.4217E+06    -91.2749E+06    -7.36270E+06     1.05303E+06    -17.8617E-03     32.8765E-03    -15.0148E-03     3.38295E-03    -17.8563E-03     32.4711E-03    -14.8795E-03     3.39035E-03
            2263     4.43613E-03     10.8271E-03    -29.2113E+06    -94.4885E+06    -11.3090E+06     483.104E+03    -16.5153E-03     31.0590E-03    -14.5437E-03     2.49498E-03    -16.5083E-03     30.6456E-03    -14.4209E-03     2.49677E-03
            2264     3.55027E-03     10.8210E-03    -30.3996E+06    -96.6370E+06    -16.8025E+06    -365.706E+03    -15.4117E-03     29.5525E-03    -14.1408E-03     1.80392E-03    -15.3995E-03     29.1380E-03    -14.0406E-03     1.79603E-03
            2265     2.66354E-03     10.8162E-03    -31.4087E+06     -98.519E+06    -23.2945E+06    -823.746E+03    -14.5477E-03     28.3569E-03    -13.8092E-03     1.25427E-03    -14.5282E-03     27.9437E-03    -13.7373E-03     1.24147E-03
            2266     1.77611E-03     10.8128E-03    -32.3351E+06    -99.6202E+06    -28.5743E+06    -975.995E+03    -13.9102E-03     27.4689E-03    -13.5586E-03     797.922E-06    -13.8861E-03     27.0591E-03    -13.5102E-03     783.953E-06
            2267     888.208E-06     10.8106E-03    -32.8461E+06    -99.9501E+06    -31.6136E+06    -681.505E+03    -13.5214E-03     26.8913E-03    -13.3700E-03     414.456E-06    -13.4949E-03     26.4850E-03    -13.3355E-03     404.944E-06
            2268     16.6763E-03     10.1412E-03    -3.73728E+06     104.252E+06     65.3528E+06     742.603E+03    -38.1121E-03     63.3597E-03    -25.2476E-03     7.60975E-03    -38.4162E-03     63.8312E-03    -25.0666E-03     7.47430E-03
            2269     15.8102E-03     10.1262E-03    -7.01860E+06     99.9262E+06     51.1487E+06     1.25628E+06    -38.6365E-03     63.0753E-03    -24.4388E-03     21.0561E-03    -38.9629E-03     63.5833E-03    -24.3178E-03     20.8820E-03
            2270     14.9447E-03     10.0946E-03    -9.39475E+06     93.0165E+06     29.2769E+06     1.33869E+06    -39.2254E-03     62.7057E-03    -23.4803E-03     30.8240E-03    -39.5319E-03     63.2243E-03    -23.4552E-03     30.6451E-03
            2271     14.0796E-03     10.0559E-03    -11.0035E+06     48.3652E+06     8.50161E+06     1.47600E+06    -38.9750E-03     61.4452E-03    -22.4702E-03     29.9608E-03    -39.1816E-03     61.7601E-03    -22.4818E-03     29.7991E-03
            2272     13.2137E-03     10.0216E-03    -12.3113E+06    -5.99671E+06    -473.921E+03     1.70692E+06    -37.5484E-03     59.0113E-03    -21.4629E-03     24.6876E-03    -37.6459E-03     59.0455E-03    -21.4387E-03     24.5671E-03
            2273     12.3462E-03     9.99011E-03    -13.6624E+06    -27.7162E+06     622.184E+03     1.64966E+06    -35.3682E-03     55.8067E-03    -20.4386E-03     20.8817E-03    -35.4250E-03     55.7152E-03    -20.3755E-03     20.8004E-03
            2274     11.4766E-03     9.96181E-03    -15.1417E+06    -41.9981E+06     1.49941E+06     1.29475E+06    -32.7700E-03     52.1908E-03    -19.4208E-03     17.2557E-03    -32.8039E-03     52.0179E-03    -19.3305E-03     17.2003E-03
            2275     10.6046E-03     9.93725E-03    -16.7326E+06    -53.2140E+06     2.39404E+06     978.982E+03    -29.9659E-03     48.4134E-03    -18.4475E-03     13.8059E-03    -29.9861E-03     48.1786E-03    -18.3341E-03     13.7689E-03
            2276     9.73005E-03     9.91663E-03    -18.2790E+06    -62.3890E+06     2.25954E+06     948.858E+03    -27.1913E-03     44.7275E-03    -17.5363E-03     10.8906E-03    -27.2016E-03     44.4451E-03    -17.4080E-03     10.8689E-03
            2277     8.85313E-03     9.89939E-03    -19.8223E+06    -70.5926E+06     2.26326E+06     991.984E+03    -24.5967E-03     41.3027E-03    -16.7061E-03     8.65453E-03    -24.6004E-03     40.9791E-03    -16.5636E-03     8.64410E-03
            2278     7.97400E-03     9.88517E-03    -21.7111E+06    -77.7133E+06     2.34887E+06     960.592E+03    -22.2435E-03     38.2049E-03    -15.9614E-03     6.92330E-03    -22.2451E-03     37.8468E-03    -15.8055E-03     6.91954E-03
            2279     7.09287E-03     9.87353E-03    -23.8111E+06    -82.1196E+06     639.352E+03     721.572E+03    -20.1597E-03     35.4506E-03    -15.2910E-03     5.60830E-03    -20.1621E-03     35.0752E-03    -15.1342E-03     5.60618E-03
            2280     6.20999E-03     9.86408E-03    -26.0593E+06    -86.3580E+06    -1.90253E+06     273.319E+03    -18.3618E-03     33.0629E-03    -14.7011E-03     4.59210E-03    -18.3651E-03     32.6727E-03    -14.5476E-03     4.58737E-03
            2281     5.32563E-03     9.85648E-03    -28.3711E+06    -90.5291E+06    -5.33674E+06    -561.201E+03    -16.8469E-03     31.0335E-03    -14.1866E-03     3.78389E-03    -16.8504E-03     30.6304E-03    -14.0409E-03     3.77061E-03
            2282     4.44002E-03     9.85045E-03    -30.5379E+06    -93.4815E+06    -11.2613E+06    -1.66089E+06    -15.5980E-03     29.3290E-03    -13.7311E-03     3.09971E-03    -15.5992E-03     28.9227E-03    -13.6076E-03     3.07385E-03
            2283     3.55341E-03     9.84575E-03    -32.8368E+06    -96.6958E+06    -19.2514E+06    -2.21269E+06    -14.5804E-03     27.9133E-03    -13.3330E-03     2.48344E-03    -14.5767E-03     27.5056E-03    -13.2414E-03     2.45168E-03
            2284     2.66594E-03     9.84220E-03    -35.0248E+06    -99.0378E+06    -27.0708E+06    -2.11015E+06    -13.7508E-03     26.7505E-03    -12.9997E-03     1.91180E-03    -13.7432E-03     26.3455E-03    -12.9406E-03     1.88235E-03
            2285     1.77778E-03     9.83969E-03    -36.6920E+06    -100.720E+06    -33.1408E+06    -1.73490E+06    -13.1066E-03     25.8505E-03    -12.7439E-03     1.33258E-03    -13.0960E-03     25.4482E-03    -12.7103E-03     1.30880E-03
            2286     889.043E-06     9.83817E-03    -37.8687E+06    -101.696E+06    -36.9110E+06    -1.14503E+06    -12.6960E-03     25.2570E-03    -12.5610E-03     744.934E-06    -12.6844E-03     24.8570E-03    -12.5432E-03     729.436E-06
            2287     16.6778E-03     9.12951E-03    -3.47141E+06     103.609E+06     65.6019E+06     677.125E+03    -40.0796E-03     65.2264E-03    -25.1468E-03     6.79621E-03    -40.3804E-03     65.6924E-03    -24.9640E-03     6.64831E-03
            2288     15.8138E-03     9.11488E-03    -6.57604E+06     99.5715E+06     52.0672E+06     957.005E+03    -41.1521E-03     65.3636E-03    -24.2114E-03     19.7107E-03    -41.4747E-03     65.8653E-03    -24.0859E-03     19.5153E-03
            2289     14.9508E-03     9.08330E-03    -9.09211E+06     92.8342E+06     30.4377E+06     1.20951E+06    -41.6409E-03     64.7373E-03    -23.0964E-03     28.5344E-03    -41.9425E-03     65.2481E-03    -23.0656E-03     28.3405E-03
            2290     14.0877E-03     9.04667E-03    -11.0488E+06     48.4790E+06     9.45925E+06     1.88734E+06    -40.6593E-03     62.5925E-03    -21.9332E-03     26.4254E-03    -40.8608E-03     62.8998E-03    -21.9402E-03     26.2651E-03
            2291     13.2230E-03     9.01576E-03    -12.6812E+06      -5.555E+06     511.949E+03     2.36695E+06    -38.3337E-03     59.1411E-03    -20.8074E-03     21.1001E-03    -38.4294E-03     59.1709E-03    -20.7784E-03     20.9913E-03
            2292     12.3558E-03     8.98798E-03    -14.2614E+06    -26.8957E+06     2.06222E+06     2.13433E+06    -35.3526E-03     55.0628E-03    -19.7102E-03     17.8042E-03    -35.4119E-03     54.9704E-03    -19.6402E-03     17.7350E-03
            2293     11.4859E-03     8.96372E-03    -15.8704E+06    -40.9381E+06     3.20688E+06     1.47543E+06    -32.1407E-03     50.8026E-03    -18.6619E-03     14.8355E-03    -32.1801E-03     50.6313E-03    -18.5635E-03     14.7883E-03
            2294     10.6131E-03     8.94325E-03    -17.3897E+06    -52.5893E+06     4.13886E+06     779.906E+03    -28.9198E-03     46.6153E-03    -17.6955E-03     12.2110E-03    -28.9456E-03     46.3809E-03    -17.5734E-03     12.1760E-03
            2295     9.73757E-03     8.92644E-03    -18.8134E+06    -62.0214E+06     4.32124E+06     267.598E+03    -25.9103E-03     42.7339E-03    -16.8237E-03     10.1901E-03    -25.9263E-03     42.4507E-03    -16.6848E-03     10.1629E-03
            2296     8.85943E-03     8.91267E-03    -20.2700E+06    -70.5484E+06     4.64712E+06     100.031E+03    -23.2285E-03     39.2854E-03    -16.0569E-03     8.76327E-03    -23.2380E-03     38.9591E-03    -15.9020E-03     8.74343E-03
            2297     7.97903E-03     8.90150E-03    -21.9108E+06    -77.3376E+06     4.75289E+06    -31.3053E+03    -20.9017E-03     36.2917E-03    -15.3900E-03     7.70601E-03    -20.9085E-03     35.9325E-03    -15.2223E-03     7.69069E-03
            2298     7.09672E-03     8.89252E-03    -23.9061E+06    -81.6055E+06     3.12601E+06    -487.796E+03    -18.9316E-03     33.7405E-03    -14.8089E-03     6.92298E-03    -18.9390E-03     33.3643E-03    -14.6402E-03     6.90593E-03
            2299     6.21279E-03     8.88532E-03    -26.0886E+06    -85.6397E+06    -86.4905E+03    -1.18457E+06    -17.3033E-03     31.6125E-03    -14.3093E-03     6.28412E-03    -17.3105E-03     31.2235E-03    -14.1477E-03     6.26095E-03
            2300     5.32752E-03     8.87962E-03    -28.4029E+06    -89.4615E+06    -4.81388E+06    -2.27103E+06    -15.9835E-03     29.8660E-03    -13.8825E-03     5.69896E-03    -15.9895E-03     29.4676E-03    -13.7356E-03     5.66384E-03
            2301     4.44119E-03     8.87512E-03    -31.1749E+06    -93.4377E+06    -12.3267E+06    -2.96785E+06    -14.9376E-03     28.4512E-03    -13.5136E-03     5.07987E-03    -14.9406E-03     28.0476E-03    -13.3946E-03     5.03732E-03
            2302     3.55402E-03     8.87172E-03    -34.1078E+06    -97.4808E+06    -21.4064E+06    -2.93392E+06    -14.1155E-03     27.3157E-03    -13.2001E-03     4.36177E-03    -14.1140E-03     26.9090E-03    -13.1164E-03     4.32087E-03
            2303     2.66614E-03     8.86923E-03    -36.6477E+06    -100.360E+06    -29.1421E+06    -2.63378E+06    -13.4712E-03     26.4217E-03    -12.9505E-03     3.52615E-03    -13.4668E-03     26.0154E-03    -12.8976E-03     3.49012E-03
            2304     1.77772E-03     8.86756E-03    -38.5709E+06    -102.533E+06    -35.0149E+06    -1.97322E+06    -13.0035E-03     25.7717E-03    -12.7682E-03     2.52807E-03    -12.9970E-03     25.3658E-03    -12.7387E-03     2.50135E-03
            2305     888.950E-06     8.86658E-03    -39.8141E+06    -103.928E+06    -38.7141E+06    -1.10134E+06    -12.7220E-03     25.3715E-03    -12.6496E-03     1.43171E-03    -12.7143E-03     24.9658E-03    -12.6347E-03     1.41686E-03
            2306     16.6800E-03     8.11572E-03    -3.20060E+06     103.091E+06     65.9365E+06     408.492E+03    -42.4025E-03     67.4170E-03    -25.0145E-03     6.69002E-03    -42.7017E-03     67.8795E-03    -24.8296E-03     6.52387E-03
            2307     15.8183E-03     8.10083E-03    -6.36330E+06     99.0781E+06     52.5768E+06     827.837E+03    -43.6839E-03     67.6235E-03    -23.9396E-03     18.8167E-03    -44.0039E-03     68.1202E-03    -23.8111E-03     18.6017E-03
            2308     14.9575E-03     8.06991E-03    -9.27578E+06     92.1849E+06     31.2949E+06     1.44109E+06    -43.5594E-03     66.2414E-03    -22.6820E-03     26.3016E-03    -43.8574E-03     66.7433E-03    -22.6458E-03     26.1019E-03
            2309     14.0957E-03     8.03659E-03    -11.6878E+06     48.0877E+06     10.8555E+06     2.58999E+06    -41.4756E-03     62.8868E-03    -21.4113E-03     23.2211E-03    -41.6751E-03     63.1846E-03    -21.4098E-03     23.0725E-03
            2310     13.2313E-03     8.01011E-03    -13.7617E+06    -4.93061E+06     2.33558E+06     3.24558E+06    -38.1524E-03     58.3830E-03    -20.2306E-03     18.3085E-03    -38.2521E-03     58.4101E-03    -20.1919E-03     18.2188E-03
            2311     12.3637E-03     7.98697E-03    -15.5822E+06    -25.3623E+06     4.38419E+06     2.45819E+06    -34.4151E-03     53.5484E-03    -19.1333E-03     15.9561E-03    -34.4838E-03     53.4594E-03    -19.0520E-03     15.8994E-03
            2312     11.4927E-03     7.96730E-03    -16.8984E+06    -39.4601E+06     5.86481E+06     1.06805E+06    -30.7041E-03     48.8367E-03    -18.1326E-03     13.9770E-03    -30.7532E-03     48.6691E-03    -18.0215E-03     13.9313E-03
            2313     10.6185E-03     7.95124E-03    -17.8393E+06    -51.5247E+06     7.00405E+06    -137.949E+03    -27.2285E-03     44.4813E-03    -17.2528E-03     12.4040E-03    -27.2617E-03     44.2483E-03    -17.1172E-03     12.3622E-03
            2314     9.74134E-03     7.93832E-03    -18.8105E+06    -61.5126E+06     7.53952E+06    -906.855E+03    -24.1690E-03     40.6673E-03    -16.4983E-03     11.3865E-03    -24.1904E-03     40.3819E-03    -16.3441E-03     11.3475E-03
            2315     8.86163E-03     7.92792E-03    -19.9931E+06    -70.4382E+06     8.28503E+06    -1.33281E+06    -21.5866E-03     37.4564E-03    -15.8698E-03     10.7678E-03    -21.6002E-03     37.1251E-03    -15.6973E-03     10.7315E-03
            2316     7.97980E-03     7.91959E-03    -21.4096E+06    -77.0331E+06     8.46285E+06    -1.71205E+06    -19.4644E-03     34.8162E-03    -15.3518E-03     10.3174E-03    -19.4747E-03     34.4525E-03    -15.1667E-03     10.2817E-03
            2317     7.09623E-03     7.91295E-03    -23.0718E+06    -81.1807E+06     6.50934E+06    -2.19416E+06    -17.7766E-03     32.7004E-03    -14.9238E-03     9.90923E-03    -17.7855E-03     32.3205E-03    -14.7401E-03     9.87104E-03
            2318     6.21132E-03     7.90763E-03    -25.0654E+06    -85.0017E+06     1.70752E+06    -2.96058E+06    -16.4728E-03     31.0449E-03    -14.5721E-03     9.41747E-03    -16.4786E-03     30.6551E-03    -14.4040E-03     9.37205E-03
            2319     5.32538E-03     7.90344E-03    -27.6102E+06    -89.2426E+06    -5.00617E+06    -3.51521E+06    -15.4866E-03     29.7766E-03    -14.2900E-03     8.76664E-03    -15.4888E-03     29.3785E-03    -14.1456E-03     8.71603E-03
            2320     4.43864E-03     7.90013E-03    -30.5597E+06    -94.1143E+06    -12.7795E+06    -3.66070E+06    -14.7683E-03     28.8387E-03    -14.0704E-03     7.89343E-03    -14.7666E-03     28.4314E-03    -13.9535E-03     7.84245E-03
            2321     3.55135E-03     7.89763E-03    -33.1654E+06    -98.7103E+06    -21.1726E+06    -3.53658E+06    -14.2766E-03     28.1783E-03    -13.9017E-03     6.74547E-03    -14.2689E-03     27.7638E-03    -13.8163E-03     6.69723E-03
            2322     2.66370E-03     7.89582E-03    -35.1775E+06    -102.147E+06    -28.2434E+06    -2.96165E+06    -13.9580E-03     27.7390E-03    -13.7811E-03     5.34905E-03    -13.9450E-03     27.3204E-03    -13.7232E-03     5.30910E-03
            2323     1.77587E-03     7.89458E-03    -36.7630E+06    -104.693E+06    -33.5101E+06    -2.13635E+06    -13.7686E-03     27.4706E-03    -13.7020E-03     3.74905E-03    -13.7522E-03     27.0490E-03    -13.6644E-03     3.72042E-03
            2324     887.953E-06     7.89383E-03    -37.7950E+06    -106.302E+06    -36.7744E+06    -1.22934E+06    -13.6705E-03     27.3285E-03    -13.6580E-03     2.08580E-03    -13.6521E-03     26.9050E-03    -13.6329E-03     2.06939E-03
            2325     16.6826E-03     7.09961E-03    -3.42581E+06     102.529E+06     66.1873E+06     183.012E+03    -44.7930E-03     69.6604E-03    -24.8674E-03     7.17236E-03    -45.0937E-03     70.1210E-03    -24.6801E-03     6.98796E-03
            2326     15.8231E-03     7.08422E-03    -6.65918E+06     98.1884E+06     52.7347E+06     844.956E+03    -45.6877E-03     69.3525E-03    -23.6649E-03     18.2363E-03    -46.0067E-03     69.8437E-03    -23.5339E-03     18.0086E-03
            2327     14.9638E-03     7.05532E-03    -9.88566E+06     90.7800E+06     32.3003E+06     2.20658E+06    -44.4482E-03     66.7618E-03    -22.3136E-03     24.1016E-03    -44.7432E-03     67.2507E-03    -22.2694E-03     23.9121E-03
            2328     14.1023E-03     7.02671E-03    -13.2718E+06     47.2382E+06     13.1505E+06     4.03564E+06    -41.0306E-03     62.0440E-03    -21.0134E-03     20.6280E-03    -41.2336E-03     62.3300E-03    -20.9969E-03     20.5091E-03
            2329     13.2371E-03     7.00569E-03    -16.0562E+06    -3.28994E+06     5.59753E+06     4.06140E+06    -36.7521E-03     56.6207E-03    -19.8686E-03     16.8275E-03    -36.8663E-03     56.6506E-03    -19.8126E-03     16.7613E-03
            2330     12.3679E-03     6.98782E-03    -17.4073E+06    -22.5957E+06     8.23614E+06     1.76208E+06    -32.4486E-03     51.3128E-03    -18.8642E-03     15.8766E-03    -32.5342E-03     51.2329E-03    -18.7650E-03     15.8217E-03
            2331     11.4951E-03     6.97308E-03    -17.7868E+06    -37.6381E+06     9.76962E+06    -540.024E+03    -28.4774E-03     46.4795E-03    -18.0021E-03     15.1771E-03    -28.5385E-03     46.3159E-03    -17.8729E-03     15.1185E-03
            2332     10.6188E-03     6.96143E-03    -18.1747E+06    -50.4370E+06     11.0037E+06    -1.90141E+06    -25.0203E-03     42.3148E-03    -17.2946E-03     14.7647E-03    -25.0624E-03     42.0818E-03    -17.1401E-03     14.7054E-03
            2333     9.73963E-03     6.95218E-03    -18.9307E+06    -61.0790E+06     11.8525E+06    -2.76699E+06    -22.1872E-03     38.9208E-03    -16.7336E-03     14.6593E-03    -22.2162E-03     38.6316E-03    -16.5583E-03     14.5996E-03
            2334     8.85817E-03     6.94477E-03    -19.9287E+06    -70.2248E+06     11.8435E+06    -3.39095E+06    -19.9656E-03     36.2670E-03    -16.3014E-03     14.5952E-03    -19.9845E-03     35.9317E-03    -16.1115E-03     14.5347E-03
            2335     7.97492E-03     6.93880E-03    -21.1211E+06    -76.8634E+06     11.1457E+06    -4.00351E+06    -18.2891E-03     34.2672E-03    -15.9782E-03     14.3727E-03    -18.3021E-03     33.9002E-03    -15.7804E-03     14.3090E-03
            2336     7.09038E-03     6.93393E-03    -22.4593E+06    -81.1139E+06     7.84158E+06    -4.58193E+06    -17.0827E-03     32.8174E-03    -15.7347E-03     13.8781E-03    -17.0906E-03     32.4349E-03    -15.5453E-03     13.8103E-03
            2337     6.20494E-03     6.92994E-03    -24.1264E+06    -85.2642E+06     1.25342E+06    -4.74354E+06    -16.2570E-03     31.8093E-03    -15.5523E-03     13.0349E-03    -16.2571E-03     31.4173E-03    -15.3874E-03     12.9674E-03
            2338     5.31889E-03     6.92669E-03    -26.2437E+06    -90.0674E+06    -5.79152E+06    -4.57604E+06    -15.7218E-03     31.1516E-03    -15.4297E-03     11.8573E-03    -15.7149E-03     30.7484E-03    -15.2900E-03     11.7938E-03
            2339     4.43250E-03     6.92402E-03    -28.4727E+06    -95.1261E+06    -13.1595E+06    -4.38847E+06    -15.4104E-03     30.7624E-03    -15.3520E-03     10.3631E-03    -15.3962E-03     30.3475E-03    -15.2386E-03     10.3033E-03
            2340     3.54596E-03     6.92188E-03    -30.6523E+06    -100.375E+06    -21.0212E+06    -4.00696E+06    -15.2688E-03     30.5727E-03    -15.3039E-03     8.58212E-03    -15.2464E-03     30.1459E-03    -15.2190E-03     8.52820E-03
            2341     2.65942E-03     6.92024E-03    -32.5454E+06    -104.332E+06    -27.2802E+06    -3.21479E+06    -15.2315E-03     30.5110E-03    -15.2795E-03     6.60395E-03    -15.2037E-03     30.0761E-03    -15.2174E-03     6.56095E-03
            2342     1.77291E-03     6.91908E-03    -33.9281E+06    -106.997E+06    -31.5946E+06    -2.19170E+06    -15.2391E-03     30.5085E-03    -15.2693E-03     4.51846E-03    -15.2080E-03     30.0684E-03    -15.2230E-03     4.48922E-03
            2343     886.439E-06     6.91836E-03    -34.8941E+06    -108.741E+06    -34.3303E+06    -1.19914E+06    -15.2528E-03     30.5222E-03    -15.2694E-03     2.47420E-03    -15.2200E-03     30.0788E-03    -15.2327E-03     2.45823E-03
            2344     16.6851E-03     6.08124E-03    -3.34176E+06     101.886E+06     66.6452E+06     164.842E+03    -46.7831E-03     71.5256E-03    -24.7425E-03     7.96012E-03    -47.0840E-03     71.9831E-03    -24.5522E-03     7.76421E-03
            2345     15.8271E-03     6.06598E-03    -7.16857E+06     96.5242E+06     53.2037E+06     1.40109E+06    -46.5566E-03     70.0152E-03    -23.4586E-03     17.9557E-03    -46.8739E-03     70.4958E-03    -23.3222E-03     17.7339E-03
            2346     14.9682E-03     6.04073E-03    -11.8712E+06     87.8087E+06     34.0288E+06     4.26334E+06    -43.7399E-03     65.8418E-03    -22.1019E-03     22.3225E-03    -44.0363E-03     66.3097E-03    -22.0419E-03     22.1734E-03
            2347     14.1054E-03     6.01846E-03    -16.6013E+06     47.2643E+06     17.1284E+06     6.12763E+06    -38.9426E-03     59.8253E-03    -20.8827E-03     19.4541E-03    -39.1618E-03     60.1044E-03    -20.8416E-03     19.3831E-03
            2348     13.2380E-03     6.00356E-03    -19.0133E+06     1.04231E+06     11.0203E+06     3.47536E+06    -33.9843E-03     53.8713E-03    -19.8870E-03     17.5922E-03    -34.1243E-03     53.9161E-03    -19.8058E-03     17.5363E-03
            2349     12.3663E-03     5.99119E-03    -18.9766E+06    -18.9687E+06     13.7686E+06    -837.600E+03    -29.5214E-03     48.6027E-03    -19.0813E-03     18.2984E-03    -29.6268E-03     48.5339E-03    -18.9574E-03     18.2224E-03
            2350     11.4907E-03     5.98135E-03    -18.4851E+06    -36.0369E+06     14.7422E+06    -3.35095E+06    -25.7368E-03     44.1838E-03    -18.4469E-03     18.8676E-03    -25.8105E-03     44.0215E-03    -18.2942E-03     18.7811E-03
            2351     10.6120E-03     5.97366E-03    -18.4481E+06    -49.8509E+06     15.8220E+06    -4.51134E+06    -22.7468E-03     40.7261E-03    -17.9793E-03     19.3116E-03    -22.7979E-03     40.4891E-03    -17.8011E-03     19.2241E-03
            2352     9.73085E-03     5.96746E-03    -18.9327E+06    -60.8127E+06     16.7166E+06    -5.25620E+06    -20.5410E-03     38.1932E-03    -17.6522E-03     19.5296E-03    -20.5772E-03     37.8980E-03    -17.4530E-03     19.4415E-03
            2353     8.84803E-03     5.96230E-03    -19.7604E+06    -70.0760E+06     15.9726E+06    -6.08775E+06    -19.0044E-03     36.4356E-03    -17.4313E-03     19.3039E-03    -19.0284E-03     36.0945E-03    -17.2212E-03     19.2111E-03
            2354     7.96409E-03     5.95790E-03    -20.4969E+06    -76.8132E+06     12.7635E+06    -6.97922E+06    -17.9953E-03     35.2789E-03    -17.2836E-03     18.5719E-03    -18.0074E-03     34.9085E-03    -17.0787E-03     18.4717E-03
            2355     7.07947E-03     5.95403E-03    -21.2740E+06    -81.9720E+06     6.80651E+06    -7.26405E+06    -17.3819E-03     34.5678E-03    -17.1860E-03     17.3521E-03    -17.3810E-03     34.1805E-03    -17.0022E-03     17.2511E-03
            2356     6.19449E-03     5.95068E-03    -22.3436E+06    -86.8594E+06    -296.055E+03    -6.65842E+06    -17.0541E-03     34.1831E-03    -17.1291E-03     15.7123E-03    -17.0406E-03     33.7826E-03    -16.9722E-03     15.6211E-03
            2357     5.30941E-03     5.94774E-03    -23.7265E+06    -91.7468E+06    -7.25691E+06    -5.73285E+06    -16.9163E-03     34.0199E-03    -17.1036E-03     13.7791E-03    -16.8921E-03     33.6066E-03    -16.9725E-03     13.7012E-03
            2358     4.42432E-03     5.94521E-03    -25.7517E+06    -97.0439E+06    -14.6710E+06    -4.60692E+06    -16.8961E-03     33.9914E-03    -17.0952E-03     11.6507E-03    -16.8635E-03     33.5650E-03    -16.9905E-03     11.5884E-03
            2359     3.53931E-03     5.94307E-03    -28.2770E+06    -102.316E+06    -21.9928E+06    -3.48053E+06    -16.9406E-03     34.0364E-03    -17.0958E-03     9.39654E-03    -16.9021E-03     33.5978E-03    -17.0164E-03     9.34958E-03
            2360     2.65438E-03     5.94136E-03    -30.6416E+06    -106.464E+06    -27.6932E+06    -2.60082E+06    -17.0066E-03     34.1096E-03    -17.1030E-03     7.09232E-03    -16.9655E-03     33.6618E-03    -17.0427E-03     7.05731E-03
            2361     1.76953E-03     5.94013E-03    -32.4277E+06    -109.206E+06    -31.2811E+06    -1.68656E+06    -17.0681E-03     34.1814E-03    -17.1133E-03     4.78562E-03    -17.0268E-03     33.7276E-03    -17.0643E-03     4.76292E-03
            2362     884.752E-06     5.93936E-03    -33.5100E+06    -110.766E+06    -33.2651E+06    -807.763E+03    -17.1051E-03     34.2306E-03    -17.1254E-03     2.59703E-03    -17.0640E-03     33.7734E-03    -17.0826E-03     2.58612E-03
            2363     16.6866E-03     5.06131E-03    -3.51126E+06     100.608E+06      66.683E+06     620.736E+03    -47.5243E-03     72.2356E-03    -24.7113E-03     9.18302E-03    -47.8244E-03     72.6872E-03    -24.5186E-03     8.99309E-03
            2364     15.8288E-03     5.04750E-03    -8.41931E+06     93.3678E+06     54.0705E+06     3.26438E+06    -45.5094E-03     68.9534E-03    -23.4440E-03     18.7021E-03    -45.8258E-03     69.4150E-03    -23.2968E-03     18.5223E-03
            2365     14.9683E-03     5.02805E-03    -14.1080E+06     83.7304E+06     37.8195E+06     7.27177E+06    -40.9058E-03     63.1220E-03    -22.2162E-03     22.2709E-03    -41.2056E-03     63.5601E-03    -22.1281E-03     22.1904E-03
            2366     14.1023E-03     5.01338E-03    -18.4221E+06     50.6379E+06     23.9560E+06     7.19304E+06    -35.0895E-03     56.3001E-03    -21.2106E-03     21.1865E-03    -35.3268E-03     56.5831E-03    -21.1376E-03     21.1586E-03
            2367     13.2313E-03     5.00458E-03    -19.6946E+06     8.65886E+06     18.1791E+06     763.201E+03    -30.1274E-03     50.6059E-03    -20.4785E-03     21.6984E-03    -30.2895E-03     50.6767E-03    -20.3716E-03     21.6284E-03
            2368     12.3561E-03     4.99742E-03    -19.2213E+06    -16.0542E+06     19.3123E+06    -4.67507E+06    -26.2586E-03     46.2163E-03    -19.9577E-03     23.6326E-03    -26.3759E-03     46.1529E-03    -19.8100E-03     23.5202E-03
            2369     11.4777E-03     4.99167E-03    -18.9736E+06    -35.0821E+06     18.9438E+06    -6.64369E+06    -23.3660E-03     42.9601E-03    -19.5941E-03     24.6654E-03    -23.4485E-03     42.7961E-03    -19.4210E-03     24.5448E-03
            2370     10.5970E-03     4.98692E-03    -18.9982E+06    -49.6910E+06     19.0813E+06    -7.88484E+06    -21.4004E-03     40.7643E-03    -19.3638E-03     24.8750E-03    -21.4584E-03     40.5231E-03    -19.1688E-03     24.7494E-03
            2371     9.71490E-03     4.98264E-03    -18.6821E+06    -60.9219E+06     18.9149E+06    -8.82709E+06    -20.1677E-03     39.3938E-03    -19.2262E-03     24.3009E-03    -20.2051E-03     39.0937E-03    -19.0162E-03     24.1703E-03
            2372     8.83206E-03     4.97870E-03    -18.1076E+06    -70.0657E+06     16.4311E+06    -9.78090E+06    -19.4514E-03     38.5930E-03    -19.1416E-03     23.0253E-03    -19.4674E-03     38.2481E-03    -18.9316E-03     22.8872E-03
            2373     7.94886E-03     4.97495E-03    -17.9125E+06    -77.6701E+06     11.3208E+06    -10.2807E+06    -19.0715E-03     38.1581E-03    -19.0866E-03     21.2197E-03    -19.0671E-03     37.7812E-03    -18.8914E-03     21.0784E-03
            2374     7.06553E-03     4.97148E-03    -18.4787E+06    -84.1455E+06     4.49202E+06    -9.62618E+06    -18.8978E-03     37.9476E-03    -19.0498E-03     19.0477E-03    -18.8762E-03     37.5483E-03    -18.8786E-03     18.9172E-03
            2375     6.18218E-03     4.96822E-03    -19.6283E+06    -89.6030E+06    -2.90899E+06    -8.17918E+06    -18.8443E-03     37.8692E-03    -19.0250E-03     16.6680E-03    -18.8093E-03     37.4546E-03    -18.8811E-03     16.5578E-03
            2376     5.29888E-03     4.96530E-03    -21.4572E+06    -94.9076E+06    -9.90891E+06    -6.03267E+06    -18.8535E-03     37.8636E-03    -19.0101E-03     14.2052E-03    -18.8095E-03     37.4349E-03    -18.8909E-03     14.1238E-03
            2377     4.41563E-03     4.96270E-03    -23.9594E+06    -99.8676E+06    -16.3730E+06    -3.70152E+06    -18.8851E-03     37.8855E-03    -19.0004E-03     11.7476E-03    -18.8369E-03     37.4448E-03    -18.9027E-03     11.6971E-03
            2378     3.53244E-03     4.96050E-03    -26.6002E+06    -104.331E+06    -22.3409E+06    -2.02969E+06    -18.9199E-03     37.9117E-03    -18.9918E-03     9.32365E-03    -18.8696E-03     37.4611E-03    -18.9137E-03     9.29549E-03
            2379     2.64929E-03     4.95874E-03    -29.0076E+06    -107.990E+06    -27.1991E+06    -1.01921E+06    -18.9475E-03     37.9330E-03    -18.9854E-03     6.95670E-03    -18.8968E-03     37.4745E-03    -18.9228E-03     6.94215E-03
            2380     1.76618E-03     4.95744E-03    -30.9334E+06     -110.51E+06    -30.3955E+06    -520.140E+03    -18.9666E-03     37.9495E-03    -18.9829E-03     4.66050E-03    -18.9171E-03     37.4858E-03    -18.9298E-03     4.65288E-03
            2381     883.083E-06     4.95664E-03    -32.0860E+06    -111.855E+06    -32.0400E+06    -265.240E+03    -18.9744E-03     37.9619E-03    -18.9875E-03     2.51794E-03    -18.9263E-03     37.4955E-03    -18.9390E-03     2.51403E-03
            2382     16.6847E-03     4.04149E-03    -4.58121E+06     98.2261E+06     65.4981E+06     2.08778E+06    -45.7525E-03     70.6651E-03    -24.9126E-03     11.8793E-03    -46.0520E-03     71.1076E-03    -24.7209E-03     11.7279E-03
            2383     15.8247E-03     4.03111E-03    -9.79504E+06     89.3275E+06     54.9416E+06     5.28595E+06    -41.7444E-03     65.5652E-03    -23.8208E-03     21.9523E-03    -42.0580E-03     66.0027E-03    -23.6614E-03     21.8379E-03
            2384     14.9601E-03     4.01939E-03    -13.7731E+06     80.7754E+06     42.6841E+06     8.38382E+06    -35.8958E-03     58.7778E-03    -22.8820E-03     25.7265E-03    -36.1888E-03     59.1859E-03    -22.7657E-03     25.7017E-03
            2385     14.0893E-03     4.01259E-03    -15.8341E+06     57.6207E+06     29.5306E+06     5.88486E+06    -30.2510E-03     52.4509E-03    -22.1999E-03     27.0063E-03    -30.4879E-03     52.7512E-03    -22.1128E-03     26.9933E-03
            2386     13.2138E-03     4.00887E-03    -16.8582E+06     17.3322E+06     21.1971E+06    -2.15922E+06    -26.5411E-03     48.3274E-03    -21.7863E-03     28.8659E-03    -26.7024E-03     48.4294E-03    -21.6810E-03     28.7780E-03
            2387     12.3356E-03     4.00550E-03    -17.8835E+06    -14.4994E+06     19.1402E+06    -7.54404E+06    -24.2399E-03     45.7847E-03    -21.5448E-03     30.2386E-03    -24.3500E-03     45.7245E-03    -21.4021E-03     30.1008E-03
            2388     11.4557E-03     4.00221E-03    -18.3732E+06    -34.1828E+06     16.1151E+06    -9.80975E+06    -22.8335E-03     44.2147E-03    -21.3812E-03     30.0391E-03    -22.9083E-03     44.0560E-03    -21.2244E-03     29.8847E-03
            2389     10.5751E-03     3.99884E-03    -17.6468E+06    -49.6135E+06     13.5775E+06    -11.7901E+06    -22.0790E-03     43.3540E-03    -21.2751E-03     28.6715E-03    -22.1209E-03     43.1175E-03    -21.1096E-03     28.4998E-03
            2390     9.69417E-03     3.99533E-03    -16.3213E+06    -61.3282E+06     10.9048E+06    -13.0723E+06    -21.6835E-03     42.8807E-03    -21.1972E-03     26.5840E-03    -21.6959E-03     42.5854E-03    -21.0301E-03     26.4012E-03
            2391     8.81316E-03     3.99176E-03    -15.2997E+06    -71.1721E+06     6.49303E+06    -13.4895E+06    -21.4784E-03     42.6054E-03    -21.1270E-03     24.0674E-03    -21.4637E-03     42.2644E-03    -20.9691E-03     23.8831E-03
            2392     7.93210E-03     3.98823E-03    -15.3182E+06    -80.3821E+06     1.80896E+06    -12.4756E+06    -21.3560E-03     42.4211E-03    -21.0651E-03     21.3515E-03    -21.3204E-03     42.0400E-03    -20.9173E-03     21.1829E-03
            2393     7.05099E-03     3.98482E-03    -16.5340E+06    -87.4770E+06    -3.06303E+06    -10.5617E+06    -21.2589E-03     42.2643E-03    -21.0054E-03     18.6037E-03    -21.2115E-03     41.8561E-03    -20.8699E-03     18.4617E-03
            2394     6.16985E-03     3.98166E-03    -18.5711E+06    -93.5741E+06    -8.46454E+06    -8.12624E+06    -21.1690E-03     42.1146E-03    -20.9456E-03     15.9121E-03    -21.1147E-03     41.6864E-03    -20.8253E-03     15.8029E-03
            2395     5.28863E-03     3.97877E-03    -20.9806E+06    -99.2240E+06    -13.1704E+06    -5.09408E+06    -21.0789E-03     41.9703E-03    -20.8914E-03     13.3209E-03    -21.0214E-03     41.5239E-03    -20.7830E-03     13.2519E-03
            2396     4.40736E-03     3.97623E-03    -23.3343E+06    -102.928E+06    -17.7441E+06    -2.36167E+06    -20.9852E-03     41.8231E-03    -20.8379E-03     10.8614E-03    -20.9273E-03     41.3681E-03    -20.7435E-03     10.8284E-03
            2397     3.52600E-03     3.97408E-03    -25.4588E+06    -106.192E+06    -22.1561E+06    -506.029E+03    -20.8947E-03     41.6832E-03    -20.7885E-03     8.52807E-03    -20.8362E-03     41.2213E-03    -20.7084E-03     8.51972E-03
            2398     2.64458E-03     3.97237E-03    -27.2701E+06    -108.717E+06    -25.6505E+06     490.434E+03    -20.8141E-03     41.5622E-03    -20.7480E-03     6.31478E-03    -20.7558E-03     41.0953E-03    -20.6791E-03     6.31982E-03
            2399     1.76309E-03     3.97112E-03    -28.6715E+06     -110.49E+06    -28.0959E+06     675.379E+03    -20.7502E-03     41.4687E-03    -20.7184E-03     4.21022E-03    -20.6928E-03     40.9984E-03    -20.6571E-03     4.21810E-03
            2400     881.556E-06     3.97033E-03    -29.6293E+06    -111.680E+06    -29.6708E+06     406.969E+03    -20.7039E-03     41.4094E-03    -20.7055E-03     2.26755E-03    -20.6472E-03     40.9369E-03    -20.6490E-03     2.27236E-03
            2401     16.6754E-03     3.02485E-03    -4.72383E+06     95.0626E+06     64.0367E+06     4.14868E+06    -40.3839E-03     65.9632E-03    -25.5793E-03     18.2294E-03    -40.6763E-03     66.3916E-03    -25.3901E-03     18.1432E-03
            2402     15.8100E-03     3.01957E-03    -9.66386E+06     87.2491E+06     54.9422E+06     5.81024E+06    -35.6104E-03     60.4491E-03    -24.8387E-03     28.8439E-03    -35.9140E-03     60.8699E-03    -24.6765E-03     28.7855E-03
            2403     14.9390E-03     3.01634E-03    -11.5175E+06     80.8575E+06     43.5923E+06     5.74347E+06    -30.3506E-03     54.6376E-03    -24.2870E-03     32.6977E-03    -30.6250E-03     55.0326E-03    -24.1696E-03     32.6785E-03
            2404     14.0630E-03     3.01538E-03    -11.1266E+06     63.8478E+06     26.9704E+06     2.76624E+06    -26.9396E-03     50.8642E-03    -23.9246E-03     34.5729E-03    -27.1514E-03     51.1852E-03    -23.8662E-03     34.5447E-03
            2405     13.1852E-03     3.01412E-03    -11.7808E+06     24.0729E+06     13.0938E+06    -2.92326E+06    -25.6435E-03     49.3712E-03    -23.7277E-03     34.7998E-03    -25.7724E-03     49.5055E-03    -23.6800E-03     34.7170E-03
            2406     12.3070E-03     3.01232E-03    -13.5127E+06    -12.4013E+06     7.09263E+06    -8.35025E+06    -25.1757E-03     48.7844E-03    -23.6087E-03     33.5070E-03    -25.2459E-03     48.7415E-03    -23.5357E-03     33.3674E-03
            2407     11.4289E-03     3.00963E-03    -13.9465E+06    -32.5975E+06     640.218E+03    -12.1306E+06    -24.9513E-03     48.4242E-03    -23.4729E-03     31.0813E-03    -24.9813E-03     48.2865E-03    -23.4022E-03     30.9020E-03
            2408     10.5509E-03     3.00661E-03    -13.4099E+06    -49.5794E+06    -4.49053E+06    -14.5677E+06    -24.8176E-03     48.1543E-03    -23.3367E-03     28.0902E-03    -24.8105E-03     47.9360E-03    -23.2679E-03     27.8857E-03
            2409     9.67290E-03     3.00337E-03    -13.1098E+06    -62.5361E+06    -7.84349E+06    -15.3659E+06    -24.6500E-03     47.8493E-03    -23.1993E-03     24.9492E-03    -24.6163E-03     47.5693E-03    -23.1288E-03     24.7389E-03
            2410     8.79473E-03     3.00005E-03    -13.6975E+06    -74.1724E+06    -10.5438E+06    -14.4488E+06    -24.4187E-03     47.4803E-03    -23.0616E-03     21.8594E-03    -24.3662E-03     47.1460E-03    -22.9869E-03     21.6640E-03
            2411     7.91636E-03     2.99679E-03    -15.1226E+06    -84.5319E+06    -12.5144E+06    -12.2795E+06    -24.1439E-03     47.0714E-03    -22.9276E-03     18.9212E-03    -24.0800E-03     46.6897E-03    -22.8456E-03     18.7561E-03
            2412     7.03773E-03     2.99371E-03    -16.8909E+06    -91.7423E+06    -14.4870E+06    -9.56857E+06    -23.8355E-03     46.6289E-03    -22.7934E-03     16.1720E-03    -23.7668E-03     46.2162E-03    -22.7083E-03     16.0436E-03
            2413     6.15881E-03     2.99084E-03    -18.9385E+06    -98.1492E+06    -15.4931E+06    -6.59322E+06    -23.5180E-03     46.1885E-03    -22.6706E-03     13.6235E-03    -23.4484E-03     45.7480E-03    -22.5783E-03     13.5347E-03
            2414     5.27964E-03     2.98826E-03    -21.0407E+06    -103.377E+06    -16.6812E+06    -3.71485E+06    -23.2092E-03     45.7643E-03    -22.5551E-03     11.2707E-03    -23.1407E-03     45.3022E-03    -22.4581E-03     11.2199E-03
            2415     4.40017E-03     2.98600E-03    -22.8273E+06    -105.815E+06    -19.2874E+06    -1.22374E+06    -22.9157E-03     45.3565E-03    -22.4408E-03     9.09851E-03    -22.8487E-03     44.8886E-03    -22.3507E-03     9.08062E-03
            2416     3.52048E-03     2.98412E-03    -24.2294E+06    -107.613E+06     -21.908E+06     498.796E+03    -22.6566E-03     44.9974E-03    -22.3407E-03     7.09058E-03    -22.5902E-03     44.5262E-03    -22.2591E-03     7.09548E-03
            2417     2.64055E-03     2.98263E-03    -25.2359E+06    -108.797E+06    -23.8913E+06     1.26322E+06    -22.4442E-03     44.7045E-03    -22.2603E-03     5.22099E-03    -22.3781E-03     44.2317E-03    -22.1854E-03     5.23621E-03
            2418     1.76047E-03     2.98153E-03    -25.9510E+06    -109.639E+06    -25.3068E+06     1.32449E+06    -22.2860E-03     44.4869E-03    -22.2009E-03     3.46547E-03    -22.2202E-03     44.0130E-03    -22.1308E-03     3.48187E-03
            2419     880.267E-06     2.98086E-03    -26.4734E+06    -110.329E+06    -26.3776E+06     927.152E+03    -22.1803E-03     44.3490E-03    -22.1687E-03     1.86158E-03    -22.1145E-03     43.8740E-03    -22.1023E-03     1.87318E-03
            2420     16.6523E-03     2.01373E-03    -4.55623E+06     93.3916E+06     63.0035E+06     5.08810E+06    -32.7108E-03     59.6344E-03    -26.9236E-03     27.9715E-03    -32.9952E-03     60.0526E-03    -26.7374E-03     27.9403E-03
            2421     15.7802E-03     2.01436E-03    -6.93505E+06     89.0521E+06     55.1278E+06     3.78935E+06    -30.1404E-03     56.7439E-03    -26.6035E-03     36.1330E-03    -30.4221E-03     57.1580E-03    -26.4470E-03     36.0902E-03
            2422     14.9043E-03     2.01699E-03    -7.05537E+06     82.2472E+06     38.2140E+06     1.50905E+06    -28.2940E-03     54.6270E-03    -26.3330E-03     37.7106E-03    -28.5286E-03     55.0175E-03    -26.2509E-03     37.6653E-03
            2423     14.0279E-03     2.01691E-03    -6.24787E+06     65.2404E+06     11.8144E+06     436.143E+03    -28.1838E-03     54.2525E-03    -26.0687E-03     36.3182E-03    -28.3423E-03     54.5854E-03    -26.0952E-03     36.2773E-03
            2424     13.1527E-03     2.01584E-03    -6.22458E+06     28.5589E+06    -7.73770E+06    -1.99985E+06    -28.5928E-03     54.4396E-03    -25.8469E-03     32.9242E-03    -28.6637E-03     54.6115E-03    -25.9179E-03     32.8646E-03
            2425     12.2783E-03     2.01378E-03    -6.99109E+06    -8.11296E+06    -14.6285E+06    -7.38166E+06    -28.7937E-03     54.4464E-03    -25.6527E-03     29.3226E-03    -28.8017E-03     54.4425E-03    -25.7040E-03     29.2029E-03
            2426     11.4041E-03     2.01146E-03    -8.20569E+06    -31.0007E+06    -21.7866E+06    -11.5320E+06    -28.7019E-03     54.1111E-03    -25.4093E-03     25.7812E-03    -28.6702E-03     54.0028E-03    -25.4613E-03     25.6147E-03
            2427     10.5296E-03     2.00876E-03    -9.86466E+06    -49.7379E+06    -27.3543E+06    -13.3206E+06    -28.3735E-03     53.5254E-03    -25.1519E-03     22.4480E-03    -28.3135E-03     53.3326E-03    -25.2023E-03     22.2633E-03
            2428     9.65476E-03     2.00607E-03    -12.0256E+06    -64.8893E+06    -28.4206E+06    -13.3455E+06    -27.8898E-03     52.7968E-03    -24.9070E-03     19.4040E-03    -27.8161E-03     52.5322E-03    -24.9376E-03     19.2224E-03
            2429     8.77944E-03     2.00343E-03    -14.4500E+06    -78.0724E+06    -27.8314E+06    -11.7894E+06    -27.3197E-03     51.9904E-03    -24.6708E-03     16.6676E-03    -27.2394E-03     51.6621E-03    -24.6758E-03     16.5086E-03
            2430     7.90354E-03     2.00087E-03    -16.6911E+06    -88.6557E+06    -26.5761E+06    -9.67190E+06    -26.7066E-03     51.1500E-03    -24.4434E-03     14.1997E-03    -26.6237E-03     50.7699E-03    -24.4235E-03     14.0698E-03
            2431     7.02710E-03     1.99846E-03    -18.6611E+06    -96.2402E+06    -24.8011E+06    -7.17856E+06    -26.0909E-03     50.3196E-03    -24.2287E-03     11.9864E-03    -26.0091E-03     49.9016E-03    -24.1861E-03     11.8901E-03
            2432     6.15011E-03     1.99627E-03    -20.3576E+06    -102.125E+06    -22.7435E+06    -4.56390E+06    -25.5012E-03     49.5326E-03    -24.0314E-03     9.99520E-03    -25.4222E-03     49.0846E-03    -23.9675E-03     9.93355E-03
            2433     5.27258E-03     1.99429E-03    -21.6532E+06    -106.534E+06    -21.4734E+06    -2.44939E+06    -24.9548E-03     48.8043E-03    -23.8495E-03     8.19743E-03    -24.8776E-03     48.3342E-03    -23.7710E-03     8.16377E-03
            2434     4.39461E-03     1.99261E-03    -22.4811E+06    -108.341E+06    -21.3048E+06    -548.483E+03    -24.4648E-03     48.1475E-03    -23.6827E-03     6.57227E-03    -24.3893E-03     47.6693E-03    -23.5995E-03     6.56367E-03
            2435     3.51620E-03     1.99120E-03    -22.9474E+06    -108.479E+06    -21.8142E+06     854.922E+03    -24.0469E-03     47.5842E-03    -23.5373E-03     5.09358E-03    -23.9728E-03     47.1067E-03    -23.4558E-03     5.10351E-03
            2436     2.63747E-03     1.99009E-03    -23.1971E+06    -108.549E+06    -22.4225E+06     1.36655E+06    -23.7129E-03     47.1333E-03    -23.4204E-03     3.73469E-03    -23.6390E-03     46.6567E-03    -23.3415E-03     3.75155E-03
            2437     1.75846E-03     1.98928E-03    -23.2870E+06    -108.532E+06    -22.8607E+06     1.34706E+06    -23.4681E-03     46.8028E-03    -23.3347E-03     2.47131E-03    -23.3941E-03     46.3270E-03    -23.2578E-03     2.48820E-03
            2438     879.276E-06     1.98878E-03    -23.2514E+06    -108.501E+06    -23.1264E+06     913.867E+03    -23.3103E-03     46.5975E-03    -23.2873E-03     1.32436E-03    -23.2357E-03     46.1222E-03    -23.2118E-03     1.33590E-03
            2439     16.6169E-03     1.00832E-03    -1.76808E+06     94.1851E+06     64.5281E+06     3.01402E+06    -29.5851E-03     58.4399E-03    -28.8548E-03     35.2230E-03    -29.8486E-03     58.8440E-03    -28.6662E-03     35.1974E-03
            2440     15.7407E-03     1.01214E-03    -2.14928E+06     91.4962E+06     52.3891E+06     1.45872E+06    -31.1602E-03     59.8282E-03    -28.6680E-03     33.4377E-03    -31.3985E-03     60.2309E-03    -28.5356E-03     33.4023E-03
            2441     14.8674E-03     1.01292E-03    -2.76571E+06     82.3553E+06     24.5749E+06     108.250E+03    -32.2861E-03     60.6122E-03    -28.3261E-03     28.9875E-03    -32.4653E-03     61.0017E-03    -28.3186E-03     28.9517E-03
            2442     13.9972E-03     1.01171E-03    -3.11530E+06     64.2748E+06    -7.76226E+06     231.592E+03    -32.9950E-03     60.8952E-03    -27.9002E-03     24.3479E-03    -33.0985E-03     61.2376E-03    -28.0277E-03     24.3237E-03
            2443     13.1275E-03     1.01052E-03    -2.64282E+06     31.7710E+06    -28.7366E+06    -1.15222E+06    -33.0571E-03     60.5540E-03    -27.4969E-03     20.3181E-03    -33.0782E-03     60.7614E-03    -27.6828E-03     20.2836E-03
            2444     12.2573E-03     1.00906E-03    -2.84848E+06    -3.86595E+06    -36.7728E+06    -4.34836E+06    -32.6922E-03     59.8262E-03    -27.1340E-03     17.2377E-03    -32.6496E-03     59.8661E-03    -27.3081E-03     17.1676E-03
            2445     11.3865E-03     1.00742E-03    -4.92598E+06    -29.8214E+06    -42.0720E+06    -6.88718E+06    -32.0422E-03     58.8032E-03    -26.7610E-03     14.6676E-03    -31.9639E-03     58.7233E-03    -26.9210E-03     14.5686E-03
            2446     10.5150E-03     1.00588E-03    -7.96684E+06    -50.2367E+06    -44.4822E+06    -7.83907E+06    -31.2242E-03     57.6204E-03    -26.3963E-03     12.5138E-03    -31.1275E-03     57.4460E-03    -26.5343E-03     12.4054E-03
            2447     9.64254E-03     1.00433E-03    -11.3631E+06    -67.2622E+06    -42.4127E+06    -7.50280E+06    -30.3225E-03     56.3819E-03    -26.0594E-03     10.6575E-03    -30.2208E-03     56.1239E-03    -26.1574E-03     10.5555E-03
            2448     8.76925E-03     1.00281E-03    -14.6505E+06    -80.9527E+06    -38.5655E+06    -6.56149E+06    -29.4052E-03     55.1479E-03    -25.7427E-03     9.04098E-03    -29.3055E-03     54.8205E-03    -25.7969E-03     8.95253E-03
            2449     7.89517E-03     1.00141E-03    -17.5163E+06    -91.7638E+06    -34.5131E+06    -5.32947E+06    -28.4974E-03     53.9410E-03    -25.4436E-03     7.63440E-03    -28.4021E-03     53.5578E-03    -25.4577E-03     7.56288E-03
            2450     7.02020E-03     1.00009E-03    -19.8763E+06    -99.5986E+06    -31.1399E+06    -3.73911E+06    -27.6296E-03     52.7915E-03    -25.1620E-03     6.39702E-03    -27.5395E-03     52.3676E-03    -25.1444E-03     6.34678E-03
            2451     6.14450E-03     998.876E-06    -21.4287E+06    -104.590E+06    -28.5092E+06    -2.40780E+06    -26.8242E-03     51.7250E-03    -24.9008E-03     5.30016E-03    -26.7385E-03     51.2745E-03    -24.8606E-03     5.26762E-03
            2452     5.26810E-03     997.825E-06    -22.1462E+06    -108.581E+06    -25.6669E+06    -1.35599E+06    -26.0998E-03     50.7703E-03    -24.6705E-03     4.32642E-03    -26.0159E-03     50.2968E-03    -24.6093E-03     4.30784E-03
            2453     4.39105E-03     996.908E-06    -22.3780E+06    -110.103E+06    -23.3396E+06    -261.264E+03    -25.4688E-03     49.9369E-03    -24.4681E-03     3.45425E-03    -25.3873E-03     49.4527E-03    -24.3927E-03     3.45009E-03
            2454     3.51352E-03     996.157E-06    -22.2021E+06    -109.041E+06    -22.0624E+06     587.476E+03    -24.9377E-03     49.2302E-03    -24.2925E-03     2.66733E-03    -24.8587E-03     48.7492E-03    -24.2125E-03     2.67434E-03
            2455     2.63551E-03     995.564E-06    -21.7682E+06    -108.208E+06    -21.3936E+06     934.662E+03    -24.5186E-03     48.6703E-03    -24.1517E-03     1.95047E-03    -24.4396E-03     48.1918E-03    -24.0702E-03     1.96213E-03
            2456     1.75721E-03     995.132E-06    -21.2803E+06    -107.572E+06    -21.0505E+06     824.956E+03    -24.2157E-03     48.2636E-03    -24.0479E-03     1.28893E-03    -24.1356E-03     47.7871E-03    -23.9663E-03     1.29932E-03
            2457     878.663E-06     994.870E-06    -20.8180E+06    -107.064E+06    -20.8058E+06     528.224E+03    -24.0211E-03     48.0107E-03    -23.9896E-03     690.420E-06    -23.9398E-03     47.5357E-03    -23.9082E-03     697.107E-06


