********************************************************************************
Field Output Report, written Tue May 28 23:54:01 2024

Source 1
---------

   ODB: G:/Abaqus_calc_2019/1740/Vel_5/odb/zeides_2a_16_red_1000_cal_30_vel_5_fric_025.odb
   Step: Step-1
   Frame: Increment  18003326: Step Time =    2.165

Loc 1 : Nodal values from source 1

Output sorted by column "Nodal Label".

Field Output reported at nodes for region: DIE_2A_16_D0_36-1.Region_1
   Computation algorithm: EXTRAPOLATE_COMPUTE_AVERAGE
   Averaged at nodes
   Averaging regions: ODB_REGIONS

      Node Label     COORD.COOR1     COORD.COOR2
                          @Loc 1          @Loc 1
-------------------------------------------------
               1     18.4546E-03     138.850E-03


Field Output reported at nodes for region: DIE_2A_16_D0_36-1.Region_2
   Computation algorithm: EXTRAPOLATE_COMPUTE_AVERAGE
   Averaged at nodes
   Averaging regions: ODB_REGIONS

      Node Label     COORD.COOR1     COORD.COOR2
                          @Loc 1          @Loc 1
-------------------------------------------------
               1     18.4546E-03     138.850E-03


Field Output reported at nodes for part: WIRE-1
   Computation algorithm: EXTRAPOLATE_COMPUTE_AVERAGE
   Averaged at nodes
   Averaging regions: ODB_REGIONS

      Node Label     COORD.COOR1     COORD.COOR2           S.S11           S.S22           S.S33           S.S12         PE.PE11         PE.PE22         PE.PE33         PE.PE12         LE.LE11         LE.LE22         LE.LE33         LE.LE12
                          @Loc 1          @Loc 1          @Loc 1          @Loc 1          @Loc 1          @Loc 1          @Loc 1          @Loc 1          @Loc 1          @Loc 1          @Loc 1          @Loc 1          @Loc 1          @Loc 1
-------------------------------------------------------------------------------------------------------------------------------------------------------------------------------------------------------------------------------------------------
               1     184.339E-09     67.0440E-03    -120.122E+06    -268.427E+06    -120.282E+06     103.922E+03    -106.452E-03     212.608E-03    -106.156E-03     8.94229E-03    -106.492E-03     211.618E-03    -106.194E-03     8.77072E-03
               2     16.1925E-03     68.4770E-03    -2.83022E+06     116.472E+06     92.7340E+06    -166.957E+03    -105.260E-03     211.432E-03    -106.172E-03     3.28794E-03    -105.751E-03     212.058E-03    -105.873E-03     1.14251E-03
               3     16.2019E-03     137.112E-03    -33.7685E+06     21.7242E+06     20.7583E+06    -21.3241E+06    -98.2554E-03     203.362E-03    -105.107E-03     14.7031E-03    -98.4788E-03     203.518E-03    -104.985E-03     14.1251E-03
               4    -3.98380E-06     134.280E-03     51.3426E+06    -5.79764E+06     47.5658E+06    -3.04306E+06    -103.165E-03     209.895E-03    -106.730E-03    -11.1200E-03    -103.015E-03     209.675E-03    -106.558E-03    -11.2337E-03
               5    -282.709E-09    -4.95437E-15    -74.5046E+06    -216.002E+06    -75.8544E+06    -724.252E+03    -113.719E-03     228.175E-03    -114.456E-03     1.10977E-03    -113.668E-03     227.313E-03    -114.414E-03     1.08511E-03
               6     16.0171E-03    -4.95437E-15     849.728E+03     117.922E+06     99.2460E+06     2.42047E+06    -136.020E-03     249.620E-03    -113.600E-03     98.7675E-03    -136.862E-03     250.582E-03    -113.276E-03     96.2086E-03
               7     809.234E-06     67.0540E-03    -118.436E+06    -264.982E+06    -114.957E+06     112.213E+03    -106.421E-03     212.663E-03    -106.243E-03     14.8091E-03    -106.473E-03     211.688E-03    -106.261E-03     14.5226E-03
               8     1.61841E-03     67.0770E-03    -113.718E+06    -255.644E+06    -101.240E+06     109.814E+03    -106.439E-03     212.790E-03    -106.351E-03     26.9466E-03    -106.524E-03     211.858E-03    -106.322E-03     26.4119E-03
               9     2.42769E-03     67.1138E-03    -106.861E+06    -242.148E+06    -83.3987E+06     41.1382E+03    -106.560E-03     212.951E-03    -106.391E-03     39.2694E-03    -106.696E-03     212.090E-03    -106.302E-03     38.4566E-03
              10     3.23702E-03     67.1640E-03    -98.7974E+06    -223.431E+06    -65.8427E+06    -30.5605E+03    -106.732E-03     213.143E-03    -106.411E-03     51.0069E-03    -106.938E-03     212.396E-03    -106.273E-03     49.8941E-03
              11     4.04642E-03     67.2267E-03    -90.4664E+06    -203.523E+06    -49.6061E+06    -53.0533E+03    -106.951E-03     213.372E-03    -106.421E-03     61.9064E-03    -107.246E-03     212.767E-03    -106.243E-03     60.4723E-03
              12     4.85585E-03     67.3008E-03    -82.5021E+06    -184.458E+06    -35.2004E+06    -86.0208E+03    -107.183E-03     213.608E-03    -106.425E-03     71.7810E-03    -107.585E-03     213.164E-03    -106.214E-03     70.0056E-03
              13     5.66531E-03     67.3852E-03    -74.9430E+06    -163.528E+06    -23.3830E+06    -109.300E+03    -107.394E-03     213.810E-03    -106.415E-03     80.5217E-03    -107.924E-03     213.561E-03    -106.186E-03     78.3910E-03
              14     6.47483E-03     67.4784E-03    -67.9004E+06    -141.845E+06    -12.8123E+06    -68.9444E+03    -107.572E-03     213.972E-03    -106.400E-03     88.0088E-03    -108.250E-03     213.943E-03    -106.160E-03     85.5180E-03
              15     7.28435E-03     67.5789E-03    -61.2738E+06    -118.942E+06    -2.79579E+06    -41.9085E+03    -107.692E-03     214.075E-03    -106.383E-03     94.0905E-03    -108.534E-03     214.286E-03    -106.136E-03     91.2468E-03
              16     8.09389E-03     67.6853E-03    -54.8790E+06    -95.1069E+06     7.05098E+06    -88.2801E+03    -107.727E-03     214.093E-03    -106.365E-03     98.6514E-03    -108.741E-03     214.553E-03    -106.113E-03     95.4791E-03
              17     8.90346E-03     67.7954E-03    -48.8829E+06    -67.9847E+06     16.8896E+06    -24.6294E+03    -107.662E-03     214.005E-03    -106.344E-03     101.386E-03    -108.842E-03     214.722E-03    -106.090E-03     97.9343E-03
              18     9.71319E-03     67.9073E-03    -43.1446E+06    -43.1993E+06     26.2884E+06     99.7731E+03    -107.519E-03     213.844E-03    -106.325E-03     101.713E-03    -108.833E-03     214.775E-03    -106.068E-03     98.0530E-03
              19     10.5228E-03     68.0178E-03    -37.3854E+06      -11.69E+06     35.6184E+06     123.247E+03    -107.240E-03     213.537E-03    -106.297E-03     99.1751E-03    -108.644E-03     214.663E-03    -106.048E-03     95.3971E-03
              20     11.3325E-03     68.1237E-03    -31.9090E+06     17.7144E+06     45.0644E+06     374.305E+03    -106.833E-03     213.107E-03    -106.274E-03     93.4248E-03    -108.259E-03     214.352E-03    -106.028E-03     89.6241E-03
              21     12.1421E-03     68.2212E-03    -25.6193E+06     60.8967E+06     53.0376E+06     682.736E+03    -106.330E-03     212.550E-03    -106.220E-03     84.6955E-03    -107.728E-03     213.919E-03    -106.006E-03     80.9507E-03
              22     12.9518E-03     68.3075E-03    -19.3961E+06     101.833E+06     65.3937E+06    -308.380E+03    -105.843E-03     212.034E-03    -106.191E-03     73.8628E-03    -107.172E-03     213.466E-03    -105.984E-03     70.2070E-03
              23     13.7613E-03     68.3805E-03    -15.0444E+06     108.009E+06     72.5285E+06    -1.14627E+06    -105.417E-03     211.605E-03    -106.189E-03     59.7005E-03    -106.581E-03     212.889E-03    -105.961E-03     56.1930E-03
              24     14.5711E-03     68.4350E-03    -10.8810E+06     115.728E+06     82.0609E+06     293.353E+03    -104.703E-03     210.889E-03    -106.186E-03     46.4563E-03    -105.737E-03     212.058E-03    -105.928E-03     43.0916E-03
              25     15.3826E-03     68.4767E-03    -5.69183E+06     119.506E+06     93.0549E+06     679.371E+03    -104.742E-03     210.932E-03    -106.190E-03     22.4129E-03    -105.494E-03     211.818E-03    -105.890E-03     19.6767E-03
              26     16.1905E-03     69.6526E-03    -1.52749E+06     116.722E+06     93.9060E+06     343.013E+03    -105.279E-03     211.466E-03    -106.187E-03     3.69316E-03    -105.767E-03     212.090E-03    -105.884E-03     1.55477E-03
              27     16.1927E-03     70.8213E-03    -1.52864E+06     117.005E+06     93.6072E+06    -605.359E+03    -104.627E-03     210.812E-03    -106.185E-03     3.96678E-03    -105.115E-03     211.439E-03    -105.885E-03     1.82851E-03
              28     16.1914E-03     71.9935E-03    -2.55718E+06     116.551E+06     92.9320E+06    -765.816E+03    -105.352E-03     211.517E-03    -106.166E-03     2.82032E-03    -105.840E-03     212.140E-03    -105.866E-03     672.820E-06
              29     16.1919E-03     73.1671E-03    -3.18424E+06     116.194E+06     92.9433E+06     619.148E+03    -105.213E-03     211.403E-03    -106.190E-03     1.91666E-03    -105.703E-03     212.025E-03    -105.889E-03    -226.135E-06
              30     16.1910E-03     74.3368E-03    -3.33188E+06     115.997E+06     92.5153E+06     175.732E+03    -105.049E-03     211.265E-03    -106.216E-03     2.17303E-03    -105.538E-03     211.887E-03    -105.917E-03     36.4623E-06
              31     16.1908E-03     75.5115E-03    -2.14175E+06     116.918E+06     92.6897E+06     148.363E+03    -104.863E-03     211.095E-03    -106.232E-03     2.02800E-03    -105.347E-03     211.717E-03    -105.935E-03    -98.9476E-06
              32     16.1913E-03     76.6807E-03    -788.453E+03     117.329E+06     93.5258E+06    -920.065E+03    -104.366E-03     210.590E-03    -106.224E-03     2.64546E-03    -104.846E-03     211.213E-03    -105.926E-03     507.537E-06
              33     16.1919E-03     77.8524E-03    -2.15052E+06     116.044E+06     93.1156E+06    -1.18777E+06    -105.219E-03     211.398E-03    -106.180E-03     2.82240E-03    -105.704E-03     212.018E-03    -105.879E-03     669.584E-06
              34     16.1917E-03     79.0272E-03    -2.86017E+06     116.588E+06     93.1339E+06     701.498E+03    -105.397E-03     211.573E-03    -106.176E-03     2.48677E-03    -105.888E-03     212.198E-03    -105.875E-03     343.343E-06
              35     16.1914E-03     80.1981E-03    -1.74846E+06     117.400E+06     93.6431E+06     754.296E+03    -104.546E-03     210.736E-03    -106.190E-03     2.90149E-03    -105.035E-03     211.364E-03    -105.889E-03     768.494E-06
              36     16.1926E-03     81.3682E-03    -2.81630E+06     116.698E+06     92.9688E+06    -155.961E+03    -105.078E-03     211.261E-03    -106.183E-03     2.47024E-03    -105.568E-03     211.886E-03    -105.883E-03     322.387E-06
              37     16.1900E-03     82.5436E-03    -3.85846E+06     115.550E+06     91.7588E+06     472.081E+03    -105.430E-03     211.625E-03    -106.194E-03     2.71848E-03    -105.921E-03     212.246E-03    -105.897E-03     586.177E-06
              38     16.1926E-03     83.7136E-03    -2.34816E+06     116.934E+06     92.8756E+06    -53.2628E+03    -104.670E-03     210.883E-03    -106.213E-03     2.78663E-03    -105.156E-03     211.507E-03    -105.915E-03     662.780E-06
              39     16.1901E-03     84.8857E-03    -2.17531E+06     117.272E+06     92.9861E+06    -33.9348E+03    -104.936E-03     211.149E-03    -106.214E-03     2.99248E-03    -105.423E-03     211.775E-03    -105.916E-03     868.614E-06
              40     16.1920E-03     86.0587E-03    -2.66194E+06     117.264E+06     92.8495E+06     1.08049E+06    -105.044E-03     211.245E-03    -106.201E-03     3.54575E-03    -105.535E-03     211.874E-03    -105.903E-03     1.42566E-03
              41     16.1913E-03     87.2293E-03    -2.42721E+06     119.077E+06     94.1467E+06     559.997E+03    -104.885E-03     211.087E-03    -106.202E-03     2.46803E-03    -105.380E-03     211.722E-03    -105.900E-03     326.516E-06
              42     16.1913E-03     88.4019E-03    -2.32496E+06     119.503E+06     94.3965E+06     305.510E+03    -105.002E-03     211.219E-03    -106.217E-03     2.26695E-03    -105.495E-03     211.854E-03    -105.915E-03     128.887E-06
              43     16.1909E-03     89.5736E-03    -2.01066E+06     120.204E+06     94.7047E+06    -35.0913E+03    -104.832E-03     211.046E-03    -106.214E-03     3.15654E-03    -105.327E-03     211.686E-03    -105.912E-03     1.01332E-03
              44     16.1921E-03     90.7457E-03    -1.36649E+06     121.365E+06     95.5161E+06    -932.896E+03    -105.066E-03     211.254E-03    -106.188E-03     3.67231E-03    -105.562E-03     211.899E-03    -105.884E-03     1.51138E-03
              45     16.1915E-03     91.9183E-03    -2.63200E+06     120.789E+06     94.7224E+06     75.0742E+03    -105.441E-03     211.628E-03    -106.187E-03     2.70106E-03    -105.940E-03     212.271E-03    -105.885E-03     549.035E-06
              46     16.1909E-03     93.0907E-03    -3.88701E+06     119.902E+06     93.2450E+06     1.40586E+06    -104.743E-03     210.950E-03    -106.208E-03     2.27264E-03    -105.243E-03     211.592E-03    -105.910E-03     148.909E-06
              47     16.1922E-03     94.2603E-03    -1.80269E+06     122.677E+06     95.4302E+06     418.165E+03    -104.377E-03     210.571E-03    -106.194E-03     2.87420E-03    -104.874E-03     211.221E-03    -105.892E-03     750.980E-06
              48     16.1919E-03     95.4334E-03    -2.10188E+06     123.950E+06     96.1669E+06    -575.759E+03    -105.056E-03     211.232E-03    -106.176E-03     2.36099E-03    -105.558E-03     211.887E-03    -105.872E-03     200.812E-06
              49     16.1914E-03     96.6057E-03    -1.89406E+06     123.634E+06     95.5764E+06     768.280E+03    -104.828E-03     211.018E-03    -106.190E-03     2.08977E-03    -105.329E-03     211.674E-03    -105.889E-03    -65.6554E-06
              50     16.1920E-03     97.7757E-03    -3.18885E+06     124.714E+06     95.4828E+06     617.881E+03    -104.547E-03     210.746E-03    -106.200E-03     2.02680E-03    -105.056E-03     211.410E-03    -105.899E-03    -125.317E-06
              51     16.1911E-03     98.9488E-03    -2.76303E+06     124.227E+06     95.0716E+06    -858.660E+03    -104.753E-03     210.947E-03    -106.194E-03     2.50864E-03    -105.259E-03     211.608E-03    -105.895E-03     345.005E-06
              52     16.1922E-03     100.120E-03    -2.14169E+06     124.216E+06     94.8892E+06     341.679E+03    -104.621E-03     210.806E-03    -106.185E-03     3.25888E-03    -105.124E-03     211.468E-03    -105.888E-03     1.11906E-03
              53     16.1916E-03     101.292E-03    -2.08521E+06     123.716E+06     94.5450E+06    -207.882E+03    -104.791E-03     210.988E-03    -106.196E-03     2.63165E-03    -105.290E-03     211.644E-03    -105.900E-03     493.088E-06
              54     16.1906E-03     102.464E-03     11.0861E+06     131.797E+06     98.3729E+06     4.96860E+06    -103.327E-03     209.524E-03    -106.197E-03     2.45275E-03    -103.773E-03     210.192E-03    -105.912E-03     386.690E-06
              55     16.1948E-03     103.630E-03    -17.3432E+06     109.798E+06     76.8871E+06     1.74491E+06    -106.075E-03     212.286E-03    -106.211E-03     496.670E-06    -106.590E-03     212.903E-03    -105.960E-03    -1.65344E-03
              56     16.1798E-03     104.813E-03    -20.5039E+06     107.956E+06     77.8694E+06    -3.22809E+06    -106.931E-03     213.306E-03    -106.375E-03    -636.438E-06    -107.459E-03     213.916E-03    -106.112E-03    -2.83825E-03
              57     16.1946E-03     105.978E-03     12.4274E+06     135.253E+06     103.353E+06    -787.209E+03    -100.279E-03     206.679E-03    -106.400E-03     3.91335E-03    -100.735E-03     207.361E-03    -106.098E-03     1.86088E-03
              58     16.1919E-03     107.142E-03     2.76536E+06     128.534E+06     99.5758E+06    -2.01861E+06    -101.714E-03     207.947E-03    -106.233E-03     2.48512E-03    -102.199E-03     208.610E-03    -105.925E-03     391.849E-06
              59     16.1911E-03     108.321E-03    -906.993E+03     126.278E+06     97.1097E+06     238.377E+03    -103.136E-03     209.331E-03    -106.195E-03     2.05927E-03    -103.634E-03     209.993E-03    -105.892E-03    -47.9214E-06
              60     16.1952E-03     109.481E-03    -8.35872E+06     120.802E+06     90.2608E+06    -3.59347E+06    -103.363E-03     209.582E-03    -106.219E-03     2.21281E-03    -103.881E-03     210.237E-03    -105.931E-03     65.1560E-06
              61     16.1849E-03     110.661E-03    -9.96410E+06     119.821E+06     91.4540E+06     2.28050E+06    -103.981E-03     210.270E-03    -106.289E-03     1.27510E-03    -104.505E-03     210.918E-03    -105.991E-03    -798.102E-06
              62     16.1966E-03     111.823E-03     3.85773E+06     128.565E+06     104.297E+06     3.13150E+06    -99.9267E-03     206.210E-03    -106.284E-03     4.28822E-03    -100.418E-03     206.870E-03    -105.954E-03     2.29465E-03
              63     16.1925E-03     112.990E-03     1.76975E+06     125.925E+06     103.090E+06    -2.93176E+06    -100.977E-03     207.109E-03    -106.132E-03     3.36047E-03    -101.471E-03     207.757E-03    -105.801E-03     1.26362E-03
              64     16.1970E-03     114.160E-03    -2.69483E+06     122.298E+06     101.196E+06    -869.804E+03    -103.343E-03     209.354E-03    -106.011E-03     4.25393E-03    -103.854E-03     209.996E-03    -105.678E-03     2.14016E-03
              65     16.1960E-03     115.330E-03    -2.94241E+06     119.278E+06     101.709E+06    -883.729E+03    -104.309E-03     210.215E-03    -105.907E-03     5.02234E-03    -104.818E-03     210.843E-03    -105.567E-03     2.90319E-03
              66     16.1989E-03     116.502E-03    -3.19288E+06     115.001E+06     100.497E+06     93.5969E+03    -105.902E-03     211.680E-03    -105.778E-03     5.99359E-03    -106.407E-03     212.290E-03    -105.438E-03     3.85833E-03
              67     16.1996E-03     117.675E-03    -3.67104E+06     111.480E+06     99.2310E+06    -2.29943E+06    -108.731E-03     214.327E-03    -105.596E-03     9.23994E-03    -109.241E-03     214.932E-03    -105.256E-03     7.02514E-03
              68     16.2023E-03     118.857E-03    -1.38003E+06     105.368E+06     95.9262E+06    -4.07918E+06    -112.916E-03     218.296E-03    -105.380E-03     12.0866E-03    -113.411E-03     218.882E-03    -105.051E-03     9.76842E-03
              69     16.2025E-03     120.040E-03    -959.735E+03     97.1308E+06     89.9679E+06    -1.57396E+06    -117.482E-03     222.681E-03    -105.199E-03     14.1217E-03    -117.966E-03     223.245E-03    -104.888E-03     11.7277E-03
              70     16.2023E-03     121.230E-03    -3.85952E+06     90.8673E+06     85.7494E+06     110.015E+03    -122.597E-03     227.653E-03    -105.055E-03     15.8373E-03    -123.089E-03     228.205E-03    -104.753E-03     13.3375E-03
              71     16.2028E-03     122.425E-03    -2.36175E+06     87.5776E+06     86.1130E+06    -1.57914E+06    -127.523E-03     232.445E-03    -104.923E-03     18.6308E-03    -128.014E-03     232.990E-03    -104.616E-03     15.9819E-03
              72     16.2029E-03     123.628E-03    -767.416E+03     83.2555E+06     85.5564E+06    -4.12361E+06    -132.715E-03     237.497E-03    -104.781E-03     22.1882E-03    -133.205E-03     238.031E-03    -104.473E-03     19.3965E-03
              73     16.2032E-03     124.835E-03     -571.38E+03     77.8471E+06     86.3341E+06    -2.71895E+06    -137.698E-03     242.355E-03    -104.657E-03     24.9464E-03    -138.189E-03     242.870E-03    -104.337E-03     22.0809E-03
              74     16.2033E-03     126.049E-03    -3.86892E+06     70.4831E+06     85.5864E+06     1.19059E+06    -142.344E-03     246.881E-03    -104.537E-03     27.3848E-03    -142.853E-03     247.379E-03    -104.205E-03     24.4303E-03
              75     16.2039E-03     127.266E-03    -4.25300E+06     65.0778E+06     86.2147E+06    -1.14045E+06    -147.653E-03     252.037E-03    -104.384E-03     30.3979E-03    -148.175E-03     252.525E-03    -104.041E-03     27.2406E-03
              76     16.2048E-03     128.492E-03     1.68295E+06     57.2070E+06     88.6534E+06    -4.43777E+06    -153.787E-03     257.987E-03    -104.199E-03     34.0707E-03    -154.282E-03     258.434E-03    -103.841E-03     30.7622E-03
              77     16.2058E-03     129.727E-03    -5.73791E+06     44.6337E+06     86.8424E+06    -6.46225E+06    -159.088E-03     263.122E-03    -104.034E-03     37.3212E-03    -159.597E-03     263.517E-03    -103.656E-03     33.9941E-03
              78     16.2066E-03     130.965E-03     1.30247E+06     32.5250E+06     89.9698E+06    -4.29798E+06    -162.672E-03     266.571E-03    -103.899E-03     39.3620E-03    -163.127E-03     266.886E-03    -103.498E-03     36.0854E-03
              79     16.2086E-03     132.203E-03    -2.15157E+06     18.7666E+06     87.1499E+06     1.57846E+06    -166.414E-03     270.178E-03    -103.764E-03     39.8182E-03    -166.848E-03     270.419E-03    -103.353E-03     36.6937E-03
              80     16.2073E-03     133.451E-03    -27.3267E+06     19.8297E+06     82.3849E+06     1.80045E+06    -166.248E-03     269.978E-03    -103.730E-03     36.2361E-03    -166.780E-03     270.244E-03    -103.308E-03     33.1801E-03
              81     16.2107E-03     134.685E-03     20.2703E+06     32.8752E+06     98.7182E+06     4.84428E+06    -161.248E-03     264.968E-03    -103.720E-03     42.0934E-03    -161.533E-03     265.157E-03    -103.303E-03     39.7127E-03
              82     16.2137E-03     135.936E-03     18.3047E+06     29.1229E+06     65.8301E+06    -5.82819E+06    -128.474E-03     232.865E-03    -104.391E-03     32.7508E-03    -128.590E-03     232.980E-03    -104.131E-03     31.6326E-03
              83     15.3417E-03     137.004E-03    -16.5755E+06    -9.17947E+06     38.4647E+06    -12.8155E+06    -85.5045E-03     191.071E-03    -105.567E-03     1.68246E-03    -85.6198E-03     191.022E-03    -105.337E-03     1.14437E-03
              84     14.4894E-03     136.842E-03     915.424E+03    -11.1493E+06     73.7014E+06     1.94130E+06    -67.1034E-03     173.843E-03    -106.739E-03    -17.2636E-03    -67.1693E-03     173.711E-03    -106.356E-03    -17.6726E-03
              85     13.6353E-03     136.654E-03     8.28528E+06     6.71577E+06     93.1615E+06     4.99111E+06    -61.1892E-03     169.307E-03    -108.118E-03    -32.4331E-03    -61.2649E-03     169.214E-03    -107.674E-03    -32.8226E-03
              86     12.8022E-03     136.440E-03     15.5908E+06     778.267E+03     97.9380E+06     1.65518E+06    -60.4114E-03     169.749E-03    -109.338E-03    -46.0976E-03    -60.4474E-03     169.586E-03    -108.872E-03    -46.5614E-03
              87     11.9767E-03     136.221E-03     15.5625E+06     2.77405E+06     102.071E+06     965.021E+03    -61.5038E-03     171.864E-03    -110.360E-03    -54.6727E-03    -61.5450E-03     171.689E-03    -109.877E-03    -55.1626E-03
              88     11.1585E-03     136.000E-03     15.4624E+06     685.024E+03     104.931E+06    -137.344E+03    -65.8205E-03     176.949E-03    -111.129E-03    -63.2040E-03    -65.8574E-03     176.743E-03    -110.627E-03    -63.7401E-03
              89     10.3486E-03     135.782E-03     16.9068E+06     1.16350E+06     106.590E+06    -1.64640E+06    -71.5005E-03     183.026E-03    -111.526E-03    -70.9146E-03    -71.5283E-03     182.800E-03    -111.019E-03    -71.5052E-03
              90     9.54577E-03     135.572E-03     20.1413E+06    -456.153E+03     106.139E+06    -2.83637E+06    -77.4082E-03     188.949E-03    -111.541E-03    -76.5002E-03    -77.4142E-03     188.695E-03    -111.039E-03    -77.1337E-03
              91     8.74810E-03     135.373E-03     24.1669E+06    -1.63368E+06     104.255E+06    -2.75993E+06    -83.0830E-03     194.299E-03    -111.216E-03    -79.6383E-03    -83.0654E-03     194.025E-03    -110.727E-03    -80.2794E-03
              92     7.95422E-03     135.187E-03     27.6891E+06    -1.89574E+06     100.787E+06    -1.83419E+06    -88.1525E-03     198.767E-03    -110.615E-03    -80.0622E-03    -88.1168E-03     198.487E-03    -110.148E-03    -80.6776E-03
              93     7.16203E-03     135.017E-03     30.2940E+06    -867.290E+03     96.9339E+06    -1.44716E+06    -92.3855E-03     202.203E-03    -109.818E-03    -77.9692E-03    -92.3406E-03     201.931E-03    -109.376E-03    -78.5485E-03
              94     6.37054E-03     134.864E-03     32.8351E+06    -807.584E+03     92.7597E+06    -2.26903E+06    -95.7500E-03     204.655E-03    -108.905E-03    -73.6646E-03    -95.6963E-03     204.390E-03    -108.488E-03    -74.2106E-03
              95     5.57845E-03     134.729E-03     35.9565E+06    -881.519E+03     88.1829E+06    -3.14439E+06    -98.2831E-03     206.229E-03    -107.946E-03    -67.6053E-03    -98.2177E-03     205.972E-03    -107.556E-03    -68.1093E-03
              96     4.78533E-03     134.611E-03     39.4545E+06    -718.955E+03     82.7460E+06    -3.53256E+06    -100.067E-03     207.075E-03    -107.008E-03    -60.1852E-03    -99.9865E-03     206.830E-03    -106.651E-03    -60.6358E-03
              97     3.99057E-03     134.511E-03     42.8539E+06    -845.188E+03     76.5100E+06    -3.65000E+06    -101.239E-03     207.398E-03    -106.160E-03    -51.8358E-03    -101.142E-03     207.165E-03    -105.838E-03    -52.2266E-03
              98     3.19395E-03     134.430E-03     46.0035E+06    -370.947E+03     70.1277E+06    -3.86321E+06    -102.027E-03     207.486E-03    -105.458E-03    -42.9999E-03    -101.914E-03     207.266E-03    -105.174E-03    -43.3306E-03
              99     2.39597E-03     134.366E-03     48.9727E+06    -824.065E+03     63.9814E+06    -4.17985E+06    -102.533E-03     207.504E-03    -104.971E-03    -33.8812E-03    -102.402E-03     207.292E-03    -104.721E-03    -34.1527E-03
             100     1.59647E-03     134.320E-03     51.5777E+06    -1.76192E+06     58.2205E+06    -4.34964E+06    -102.964E-03     207.771E-03    -104.807E-03    -24.7353E-03    -102.817E-03     207.563E-03    -104.588E-03    -24.9460E-03
             101     796.364E-06     134.292E-03     52.0338E+06    -4.15616E+06     51.3620E+06    -3.72229E+06    -103.193E-03     208.969E-03    -105.776E-03    -15.6532E-03    -103.040E-03     208.755E-03    -105.589E-03    -15.8004E-03
             102     1.31136E-06     133.108E-03     36.1335E+06    -9.92880E+06     35.0069E+06    -2.70701E+06    -91.0514E-03     183.250E-03    -92.1987E-03    -4.68797E-03    -90.9371E-03     183.066E-03    -92.0617E-03    -4.78099E-03
             103    -179.995E-09     132.002E-03      942.92E+03    -22.8387E+06     2.17776E+06    -3.68597E+06    -71.2891E-03     141.752E-03    -70.4634E-03     3.06058E-03    -71.2641E-03     141.625E-03    -70.4207E-03     2.97089E-03
             104     527.350E-09     130.926E-03    -37.7866E+06    -41.9988E+06    -36.6835E+06    -5.41152E+06    -59.9298E-03     119.310E-03    -59.3798E-03     6.23530E-03    -60.0079E-03     119.206E-03    -59.4475E-03     6.13058E-03
             105     80.4902E-09     129.866E-03    -80.7372E+06    -63.5118E+06    -78.7504E+06    -6.27146E+06    -55.1627E-03     109.791E-03    -54.6280E-03     9.27917E-03    -55.3610E-03     109.705E-03    -54.8126E-03     9.17653E-03
             106     207.807E-09     128.810E-03    -128.418E+06    -86.8649E+06    -127.513E+06    -6.57219E+06    -55.5651E-03     110.680E-03    -55.1152E-03     11.3684E-03    -55.8972E-03     110.617E-03    -55.4406E-03     11.2712E-03
             107     224.413E-09     127.749E-03    -175.384E+06    -110.613E+06    -175.151E+06    -5.67661E+06    -60.3425E-03     120.129E-03    -59.7862E-03     12.7418E-03    -60.8071E-03     120.082E-03    -60.2473E-03     12.6621E-03
             108     231.184E-09     126.673E-03    -194.048E+06    -131.374E+06    -193.883E+06    -5.08322E+06    -68.1284E-03     135.790E-03    -67.6613E-03     13.1830E-03    -68.6305E-03     135.692E-03    -68.1589E-03     13.1101E-03
             109     51.1812E-09     125.577E-03    -171.555E+06    -147.078E+06    -172.703E+06    -3.08025E+06    -77.3146E-03     154.266E-03    -76.9515E-03     12.7791E-03    -77.7127E-03     154.027E-03    -77.3530E-03     12.7207E-03
             110     215.461E-09     124.461E-03    -137.832E+06    -154.258E+06    -138.443E+06    -362.377E+03    -86.3409E-03     172.225E-03    -85.8843E-03     11.9927E-03    -86.6094E-03     171.853E-03    -86.1530E-03     11.9479E-03
             111     223.324E-09     123.325E-03    -115.358E+06    -157.463E+06    -114.974E+06    -1.12407E+06    -93.9582E-03     187.565E-03    -93.6069E-03     11.2519E-03    -94.1433E-03     187.112E-03    -93.7862E-03     11.1683E-03
             112    -122.255E-09     122.173E-03    -104.185E+06    -165.006E+06    -104.688E+06    -2.36236E+06    -99.8044E-03     199.469E-03    -99.6647E-03     10.6223E-03    -99.9373E-03     198.948E-03    -99.7978E-03     10.4915E-03
             113     201.838E-09     121.010E-03    -101.443E+06    -176.002E+06    -101.670E+06    -2.74206E+06    -104.078E-03     207.966E-03    -103.887E-03     10.1423E-03    -104.186E-03     207.383E-03    -103.994E-03     9.98035E-03
             114    -16.1008E-09     119.839E-03    -100.132E+06    -188.450E+06    -100.365E+06    -3.12539E+06    -106.923E-03     213.613E-03    -106.690E-03     9.68077E-03    -107.008E-03     212.964E-03    -106.773E-03     9.49292E-03
             115     165.104E-09     118.663E-03    -102.268E+06    -199.743E+06    -103.194E+06    -1.98610E+06    -108.674E-03     217.030E-03    -108.356E-03     9.17975E-03    -108.749E-03     216.332E-03    -108.434E-03     8.99170E-03
             116     153.446E-09     117.484E-03    -106.487E+06    -207.664E+06    -106.969E+06    -1.36255E+06    -109.534E-03     218.680E-03    -109.145E-03     8.92910E-03    -109.614E-03     217.954E-03    -109.225E-03     8.73879E-03
             117     116.935E-09     116.304E-03    -109.965E+06    -215.193E+06    -109.300E+06    -2.20926E+06    -109.735E-03     219.146E-03    -109.411E-03     8.87630E-03    -109.817E-03     218.392E-03    -109.486E-03     8.66759E-03
             118     108.197E-09     115.124E-03    -114.922E+06    -224.353E+06    -115.149E+06    -2.25734E+06    -109.542E-03     218.859E-03    -109.317E-03     8.80399E-03    -109.627E-03     218.075E-03    -109.401E-03     8.59289E-03
             119    -6.16989E-09     113.946E-03    -117.797E+06    -232.362E+06    -118.287E+06    -1.23009E+06    -109.232E-03     218.282E-03    -109.050E-03     8.74905E-03    -109.316E-03     217.466E-03    -109.133E-03     8.55078E-03
             120     162.247E-09     112.767E-03    -119.671E+06    -237.849E+06    -119.462E+06    -1.20968E+06    -109.008E-03     217.681E-03    -108.672E-03     8.77312E-03    -109.092E-03     216.842E-03    -108.751E-03     8.57422E-03
             121     194.637E-09     111.590E-03    -122.354E+06    -243.250E+06    -122.666E+06    -1.29291E+06    -108.688E-03     216.944E-03    -108.256E-03     8.87927E-03    -108.772E-03     216.086E-03    -108.339E-03     8.67908E-03
             122     109.877E-09     110.413E-03    -125.959E+06    -248.976E+06    -125.683E+06    -1.37693E+06    -108.204E-03     216.073E-03    -107.870E-03     8.80577E-03    -108.293E-03     215.197E-03    -107.955E-03     8.60611E-03
             123     95.5673E-09     109.238E-03    -126.925E+06    -253.865E+06    -127.213E+06     -843.24E+03    -107.785E-03     215.228E-03    -107.443E-03     8.74789E-03    -107.870E-03     214.331E-03    -107.527E-03     8.55760E-03
             124     216.787E-09     108.063E-03    -127.169E+06    -255.917E+06    -127.176E+06    -7.20361E+03    -107.435E-03     214.520E-03    -107.085E-03     8.84308E-03    -107.518E-03     213.613E-03    -107.166E-03     8.66582E-03
             125     2.88685E-09     106.890E-03    -125.927E+06    -257.180E+06    -126.328E+06    -529.916E+03    -107.103E-03     213.947E-03    -106.844E-03     8.88573E-03    -107.180E-03     213.031E-03    -106.921E-03     8.70339E-03
             126     158.201E-09     105.717E-03    -127.137E+06    -260.771E+06    -126.762E+06    -1.01602E+06    -106.882E-03     213.530E-03    -106.648E-03     8.94568E-03    -106.959E-03     212.598E-03    -106.719E-03     8.75631E-03
             127     30.3746E-09     104.544E-03    -125.965E+06    -265.580E+06    -125.778E+06    -1.27468E+06    -106.767E-03     213.276E-03    -106.509E-03     8.93980E-03    -106.833E-03     212.317E-03    -106.570E-03     8.74639E-03
             128     167.131E-09     103.372E-03    -124.199E+06    -269.560E+06    -124.688E+06    -635.105E+03    -106.735E-03     213.114E-03    -106.378E-03     8.87909E-03    -106.788E-03     212.130E-03    -106.431E-03     8.69652E-03
             129     175.202E-09     102.200E-03    -123.486E+06    -269.528E+06    -123.937E+06     806.878E+03    -106.696E-03     212.969E-03    -106.273E-03     8.88836E-03    -106.746E-03     211.984E-03    -106.323E-03     8.72567E-03
             130     127.875E-09     101.027E-03    -122.369E+06    -268.327E+06    -121.496E+06     95.5138E+03    -106.618E-03     212.873E-03    -106.254E-03     8.96678E-03    -106.668E-03     211.888E-03    -106.295E-03     8.79425E-03
             131     133.250E-09     99.8555E-03    -122.029E+06    -269.400E+06    -122.436E+06    -498.455E+03    -106.549E-03     212.800E-03    -106.252E-03     9.01007E-03    -106.594E-03     211.811E-03    -106.296E-03     8.83133E-03
             132     48.3465E-09     98.6832E-03    -121.686E+06    -269.072E+06    -121.948E+06     221.247E+03    -106.514E-03     212.724E-03    -106.211E-03     8.99996E-03    -106.558E-03     211.736E-03    -106.254E-03     8.83170E-03
             133     223.183E-09     97.5119E-03    -120.834E+06    -267.797E+06    -120.670E+06     444.001E+03    -106.539E-03     212.733E-03    -106.194E-03     9.01804E-03    -106.584E-03     211.748E-03    -106.234E-03     8.85169E-03
             134     31.4961E-09     96.3395E-03    -121.570E+06    -264.727E+06    -121.933E+06     1.10594E+06    -106.532E-03     212.747E-03    -106.215E-03     8.99376E-03    -106.582E-03     211.780E-03    -106.265E-03     8.83351E-03
             135     187.715E-09     95.1680E-03    -122.769E+06    -261.526E+06    -122.130E+06     254.460E+03    -106.543E-03     212.749E-03    -106.207E-03     8.96112E-03    -106.604E-03     211.801E-03    -106.260E-03     8.78976E-03
             136     109.570E-09     93.9957E-03    -121.575E+06    -261.494E+06    -122.036E+06     86.5101E+03    -106.586E-03     212.786E-03    -106.200E-03     8.91345E-03    -106.641E-03     211.835E-03    -106.254E-03     8.74248E-03
             137     180.333E-09     92.8241E-03    -121.335E+06    -261.184E+06    -121.726E+06     144.395E+03    -106.522E-03     212.795E-03    -106.272E-03     8.93150E-03    -106.577E-03     211.845E-03    -106.326E-03     8.76145E-03
             138    -103.574E-09     91.6517E-03    -121.705E+06    -260.598E+06    -121.473E+06     13.5480E+03    -106.511E-03     212.787E-03    -106.276E-03     8.88879E-03    -106.569E-03     211.840E-03    -106.329E-03     8.71612E-03
             139     377.123E-09     90.4800E-03    -121.822E+06    -260.796E+06    -121.549E+06    -7.26106E+03    -106.580E-03     212.733E-03    -106.154E-03     8.91520E-03    -106.638E-03     211.786E-03    -106.207E-03     8.74203E-03
             140     7.93887E-09     89.3078E-03    -121.531E+06    -261.245E+06    -122.064E+06    -341.071E+03    -106.505E-03     212.668E-03    -106.163E-03     9.05827E-03    -106.560E-03     211.719E-03    -106.219E-03     8.88070E-03
             141     119.152E-09     88.1362E-03    -120.886E+06    -262.719E+06    -120.486E+06    -390.800E+03    -106.459E-03     212.660E-03    -106.201E-03     8.98433E-03    -106.511E-03     211.700E-03    -106.248E-03     8.80520E-03
             142     140.704E-09     86.9642E-03    -120.184E+06    -265.135E+06    -120.159E+06    -631.592E+03    -106.534E-03     212.687E-03    -106.152E-03     8.99460E-03    -106.580E-03     211.713E-03    -106.194E-03     8.81215E-03
             143     184.290E-09     85.7926E-03    -120.296E+06    -267.324E+06    -120.432E+06    -149.012E+03    -106.521E-03     212.724E-03    -106.202E-03     9.03522E-03    -106.564E-03     211.740E-03    -106.243E-03     8.86093E-03
             144    -29.2721E-09     84.6204E-03    -119.875E+06    -268.260E+06    -119.838E+06    -185.110E+03    -106.505E-03     212.752E-03    -106.247E-03     9.02686E-03    -106.545E-03     211.762E-03    -106.283E-03     8.85211E-03
             145     259.421E-09     83.4487E-03    -120.067E+06    -268.504E+06    -120.323E+06    -177.777E+03    -106.490E-03     212.735E-03    -106.245E-03     9.05224E-03    -106.530E-03     211.745E-03    -106.283E-03     8.87712E-03
             146    -130.715E-09     82.2766E-03    -119.847E+06    -268.361E+06    -120.107E+06     107.541E+03    -106.397E-03     212.673E-03    -106.276E-03     9.00065E-03    -106.436E-03     211.682E-03    -106.313E-03     8.82954E-03
             147     160.912E-09     81.1052E-03    -119.807E+06    -268.200E+06    -119.658E+06    -140.625E+03    -106.451E-03     212.669E-03    -106.218E-03     8.89987E-03    -106.491E-03     211.679E-03    -106.254E-03     8.72560E-03
             148     153.827E-09     79.9331E-03    -119.349E+06    -268.022E+06    -119.658E+06     249.143E+03    -106.501E-03     212.682E-03    -106.181E-03     8.94273E-03    -106.539E-03     211.692E-03    -106.218E-03     8.77369E-03
             149     12.0259E-09     78.7615E-03    -119.235E+06    -267.313E+06    -118.954E+06     108.126E+03    -106.421E-03     212.641E-03    -106.220E-03     8.94801E-03    -106.461E-03     211.653E-03    -106.254E-03     8.77601E-03
             150     117.475E-09     77.5896E-03    -119.619E+06    -267.873E+06    -119.624E+06    -298.933E+03    -106.469E-03     212.612E-03    -106.142E-03     8.90520E-03    -106.509E-03     211.623E-03    -106.179E-03     8.72731E-03
             151     249.190E-09     76.4180E-03    -120.070E+06    -268.467E+06    -120.285E+06     163.039E+03    -106.501E-03     212.601E-03    -106.100E-03     8.98158E-03    -106.541E-03     211.611E-03    -106.138E-03     8.80995E-03
             152    -3.11191E-09     75.2461E-03    -119.727E+06    -267.836E+06    -119.626E+06    -9.06541E+03    -106.372E-03     212.540E-03    -106.168E-03     8.97178E-03    -106.412E-03     211.551E-03    -106.204E-03     8.79930E-03
             153     54.0744E-09     74.0748E-03    -119.334E+06    -267.798E+06    -119.742E+06    -25.4724E+03    -106.386E-03     212.548E-03    -106.161E-03     8.90113E-03    -106.424E-03     211.559E-03    -106.199E-03     8.72839E-03
             154     221.507E-09     72.9029E-03    -119.935E+06    -268.140E+06    -119.793E+06     84.4191E+03    -106.476E-03     212.637E-03    -106.161E-03     8.91771E-03    -106.516E-03     211.647E-03    -106.197E-03     8.74512E-03
             155    -19.7865E-09     71.7312E-03    -119.777E+06    -268.089E+06    -119.871E+06    -38.5261E+03    -106.444E-03     212.648E-03    -106.204E-03     8.91970E-03    -106.483E-03     211.658E-03    -106.241E-03     8.74751E-03
             156     171.965E-09     70.5593E-03    -120.177E+06    -268.356E+06    -120.144E+06     108.825E+03    -106.449E-03     212.620E-03    -106.171E-03     8.92575E-03    -106.490E-03     211.631E-03    -106.208E-03     8.75678E-03
             157     92.8161E-09     69.3875E-03    -120.055E+06    -268.280E+06    -120.107E+06    -55.9095E+03    -106.417E-03     212.615E-03    -106.197E-03     9.05156E-03    -106.458E-03     211.625E-03    -106.235E-03     8.87967E-03
             158    -36.4317E-09     68.2158E-03    -120.316E+06    -268.568E+06    -120.398E+06    -217.541E+03    -106.387E-03     212.627E-03    -106.239E-03     9.02051E-03    -106.428E-03     211.637E-03    -106.278E-03     8.84508E-03
             159     111.061E-09     65.8724E-03    -119.945E+06    -268.197E+06    -119.852E+06     51.1466E+03    -106.447E-03     212.588E-03    -106.141E-03     8.95973E-03    -106.487E-03     211.598E-03    -106.177E-03     8.78755E-03
             160     55.8166E-09     64.7006E-03    -120.100E+06    -268.473E+06    -120.158E+06    -154.019E+03    -106.408E-03     212.569E-03    -106.161E-03     8.90455E-03    -106.448E-03     211.579E-03    -106.198E-03     8.73044E-03
             161     143.679E-09     63.5290E-03    -119.828E+06    -268.248E+06    -119.904E+06     159.873E+03    -106.415E-03     212.540E-03    -106.126E-03     8.89978E-03    -106.454E-03     211.550E-03    -106.162E-03     8.73012E-03
             162     90.7525E-09     62.3574E-03    -119.816E+06    -268.152E+06    -119.660E+06    -12.3415E+03    -106.443E-03     212.554E-03    -106.111E-03     8.89988E-03    -106.483E-03     211.564E-03    -106.147E-03     8.72766E-03
             163     180.246E-09     61.1857E-03    -119.651E+06    -268.297E+06    -119.889E+06    -14.6076E+03    -106.440E-03     212.572E-03    -106.132E-03     8.92552E-03    -106.478E-03     211.581E-03    -106.169E-03     8.75308E-03
             164     11.2661E-09     60.0140E-03    -119.868E+06    -268.280E+06    -119.624E+06       6.422E+03    -106.437E-03     212.572E-03    -106.135E-03     8.93074E-03    -106.477E-03     211.581E-03    -106.170E-03     8.75916E-03
             165     254.968E-09     58.8422E-03    -119.855E+06    -268.161E+06    -120.053E+06     127.109E+03    -106.424E-03     212.517E-03    -106.093E-03     8.94452E-03    -106.464E-03     211.528E-03    -106.131E-03     8.77575E-03
             166    -21.3883E-09     57.6708E-03    -118.853E+06    -266.767E+06    -118.995E+06     445.927E+03    -106.333E-03     212.450E-03    -106.117E-03     8.94100E-03    -106.371E-03     211.465E-03    -106.153E-03     8.77477E-03
             167     101.840E-09     56.4992E-03    -120.430E+06    -264.231E+06    -120.494E+06     680.544E+03    -106.312E-03     212.388E-03    -106.076E-03     8.83445E-03    -106.359E-03     211.419E-03    -106.120E-03     8.67118E-03
             168     166.619E-09     55.3277E-03    -122.000E+06    -261.718E+06    -121.802E+06     637.574E+03    -106.330E-03     212.267E-03    -105.937E-03     8.81229E-03    -106.387E-03     211.315E-03    -105.989E-03     8.64982E-03
             169     170.688E-09     54.1565E-03    -120.752E+06    -260.532E+06    -120.602E+06    -90.2715E+03    -106.223E-03     212.113E-03    -105.890E-03     8.85021E-03    -106.277E-03     211.164E-03    -105.940E-03     8.67809E-03
             170    -658.524E-12     52.9853E-03    -120.769E+06    -260.731E+06    -121.006E+06    -153.865E+03    -106.126E-03     211.945E-03    -105.818E-03     8.82203E-03    -106.180E-03     210.995E-03    -105.870E-03     8.64877E-03
             171     293.811E-09     51.8145E-03    -121.174E+06    -260.919E+06    -121.159E+06         421.748    -106.088E-03     211.792E-03    -105.704E-03     8.85117E-03    -106.143E-03     210.842E-03    -105.755E-03     8.68121E-03
             172     3.07008E-09     50.6437E-03    -121.210E+06    -260.948E+06    -121.209E+06     159.235E+03    -106.023E-03     211.675E-03    -105.652E-03     8.82432E-03    -106.078E-03     210.725E-03    -105.704E-03     8.65648E-03
             173     267.323E-09     49.4732E-03    -121.589E+06    -260.729E+06    -121.222E+06    -51.3345E+03    -106.009E-03     211.611E-03    -105.602E-03     8.78914E-03    -106.066E-03     210.663E-03    -105.654E-03     8.61766E-03
             174     92.3844E-09     48.3025E-03    -121.286E+06    -260.707E+06    -121.450E+06    -227.379E+03    -105.984E-03     211.579E-03    -105.595E-03     8.83129E-03    -106.039E-03     210.631E-03    -105.648E-03     8.65828E-03
             175     143.447E-09     47.1319E-03    -121.246E+06    -261.022E+06    -121.242E+06     93.1267E+03    -105.933E-03     211.527E-03    -105.595E-03     8.82890E-03    -105.988E-03     210.577E-03    -105.647E-03     8.66159E-03
             176     134.915E-09     45.9615E-03    -121.357E+06    -261.209E+06    -121.469E+06     80.5816E+03    -105.907E-03     211.466E-03    -105.559E-03     8.83536E-03    -105.962E-03     210.515E-03    -105.611E-03     8.66832E-03
             177     116.913E-09     44.7911E-03    -121.207E+06    -261.031E+06    -121.209E+06     27.8162E+03    -105.875E-03     211.413E-03    -105.538E-03     8.80137E-03    -105.930E-03     210.463E-03    -105.590E-03     8.63295E-03
             178     144.275E-09     43.6208E-03    -121.115E+06    -260.893E+06    -121.053E+06    -43.1580E+03    -105.840E-03     211.341E-03    -105.500E-03     8.76586E-03    -105.895E-03     210.391E-03    -105.552E-03     8.59645E-03
             179     113.008E-09     42.4505E-03    -120.949E+06    -260.844E+06    -121.186E+06     38.1231E+03    -105.777E-03     211.210E-03    -105.433E-03     8.72981E-03    -105.831E-03     210.260E-03    -105.485E-03     8.56176E-03
             180     152.557E-09     41.2805E-03    -121.190E+06    -260.845E+06    -121.036E+06     2.48011E+03    -105.686E-03     211.032E-03    -105.346E-03     8.70182E-03    -105.741E-03     210.082E-03    -105.397E-03     8.53379E-03
             181     102.507E-09     40.1107E-03    -120.856E+06    -260.649E+06    -121.051E+06    -80.3471E+03    -105.572E-03     210.815E-03    -105.243E-03     8.66792E-03    -105.626E-03     209.866E-03    -105.295E-03     8.49942E-03
             182     141.062E-09     38.9412E-03    -120.747E+06    -260.405E+06    -120.787E+06     21.6297E+03    -105.438E-03     210.548E-03    -105.110E-03     8.62661E-03    -105.492E-03     209.600E-03    -105.162E-03     8.46015E-03
             183     114.403E-09     37.7720E-03    -121.342E+06    -260.782E+06    -121.304E+06    -84.0669E+03    -105.272E-03     210.215E-03    -104.944E-03     8.58545E-03    -105.327E-03     209.267E-03    -104.996E-03     8.41836E-03
             184     130.701E-09     36.6032E-03    -121.700E+06    -261.002E+06    -121.851E+06     2.14645E+03    -105.071E-03     209.818E-03    -104.747E-03     8.53414E-03    -105.128E-03     208.869E-03    -104.801E-03     8.36920E-03
             185     118.266E-09     35.4350E-03    -121.219E+06    -260.597E+06    -121.224E+06     111.678E+03    -104.846E-03     209.361E-03    -104.515E-03     8.47490E-03    -104.901E-03     208.413E-03    -104.567E-03     8.31261E-03
             186     139.423E-09     34.2673E-03    -120.729E+06    -260.385E+06    -120.767E+06    -19.7365E+03    -104.597E-03     208.854E-03    -104.258E-03     8.41824E-03    -104.651E-03     207.906E-03    -104.309E-03     8.25531E-03
             187     122.953E-09     33.1003E-03    -120.720E+06    -260.451E+06    -120.806E+06     48.6540E+03    -104.321E-03     208.308E-03    -103.987E-03     8.35134E-03    -104.375E-03     207.359E-03    -104.038E-03     8.19060E-03
             188     127.180E-09     31.9339E-03    -120.577E+06    -260.150E+06    -120.644E+06     106.044E+03    -104.018E-03     207.706E-03    -103.688E-03     8.26344E-03    -104.072E-03     206.758E-03    -103.739E-03     8.10515E-03
             189     129.897E-09     30.7683E-03    -120.504E+06    -259.809E+06    -120.477E+06     19.5137E+03    -103.697E-03     207.059E-03    -103.362E-03     8.18484E-03    -103.751E-03     206.112E-03    -103.413E-03     8.02695E-03
             190     128.772E-09     29.6034E-03    -120.197E+06    -259.522E+06    -120.292E+06     67.3937E+03    -103.365E-03     206.388E-03    -103.023E-03     8.09940E-03    -103.418E-03     205.442E-03    -103.073E-03     7.94367E-03
             191     140.560E-09     28.4394E-03    -119.909E+06    -259.102E+06    -119.984E+06     150.934E+03    -103.024E-03     205.695E-03    -102.671E-03     8.00924E-03    -103.076E-03     204.750E-03    -102.721E-03     7.85616E-03
             192     135.399E-09     27.2761E-03    -119.844E+06    -258.374E+06    -119.844E+06     167.042E+03    -102.674E-03     204.989E-03    -102.315E-03     7.91232E-03    -102.728E-03     204.048E-03    -102.365E-03     7.76108E-03
             193     147.319E-09     26.1137E-03    -119.693E+06    -257.628E+06    -119.757E+06     142.978E+03    -102.324E-03     204.285E-03    -101.961E-03     7.80134E-03    -102.378E-03     203.347E-03    -102.013E-03     7.65154E-03
             194     133.564E-09     24.9521E-03    -119.427E+06    -256.971E+06    -119.477E+06     169.344E+03    -101.962E-03     203.571E-03    -101.609E-03     7.67365E-03    -102.016E-03     202.635E-03    -101.660E-03     7.52627E-03
             195     134.896E-09     23.7914E-03    -118.740E+06    -255.685E+06    -118.896E+06     383.466E+03    -101.561E-03     202.781E-03    -101.220E-03     7.50050E-03    -101.614E-03     201.850E-03    -101.272E-03     7.35879E-03
             196     126.577E-09     22.6317E-03    -117.870E+06    -254.019E+06    -117.875E+06     358.018E+03    -101.067E-03     201.798E-03    -100.731E-03     7.27462E-03    -101.120E-03     200.873E-03    -100.782E-03     7.13583E-03
             197     136.512E-09     21.4732E-03    -117.584E+06    -253.105E+06    -117.596E+06    -13.0008E+03    -100.400E-03     200.484E-03    -100.084E-03     6.99078E-03    -100.453E-03     199.562E-03    -100.135E-03     6.85082E-03
             198     95.6915E-09     20.3166E-03    -117.722E+06    -252.600E+06    -118.084E+06     322.836E+03    -99.4858E-03     198.701E-03    -99.2153E-03     6.61913E-03    -99.5391E-03     197.782E-03    -99.2687E-03     6.48903E-03
             199     91.8263E-09     19.1622E-03    -116.864E+06    -250.512E+06    -116.930E+06     647.851E+03    -98.2272E-03     196.260E-03    -98.0326E-03     6.13962E-03    -98.2806E-03     195.348E-03    -98.0845E-03     6.02129E-03
             200     23.0744E-09     18.0113E-03    -115.951E+06    -248.490E+06    -116.012E+06     231.267E+03    -96.4777E-03     192.890E-03    -96.4123E-03     5.53779E-03    -96.5307E-03     191.986E-03    -96.4639E-03     5.42390E-03
             201    -42.5889E-09     16.8648E-03    -114.889E+06    -246.428E+06    -115.470E+06     725.546E+03    -94.0690E-03     188.209E-03    -94.1397E-03     4.73945E-03    -94.1203E-03     187.312E-03    -94.1932E-03     4.64519E-03
             202    -65.8319E-09     15.7246E-03    -112.778E+06    -242.040E+06    -112.960E+06     1.39524E+06    -90.8684E-03     181.837E-03    -90.9683E-03     3.79523E-03    -90.9190E-03     180.954E-03    -91.0186E-03     3.72466E-03
             203     8.01140E-09     14.5927E-03    -110.662E+06    -237.043E+06    -110.724E+06     1.04998E+06    -86.8715E-03     173.767E-03    -86.8953E-03     2.87638E-03    -86.9220E-03     172.903E-03    -86.9448E-03     2.81524E-03
             204     14.9884E-09     13.4708E-03    -107.130E+06    -231.837E+06    -107.590E+06     1.49183E+06    -82.2170E-03     164.363E-03    -82.1456E-03     2.01518E-03    -82.2620E-03     163.514E-03    -82.1920E-03     1.97183E-03
             205     84.5250E-09     12.3600E-03    -102.454E+06    -225.244E+06    -102.289E+06     1.75427E+06    -77.1547E-03     154.120E-03    -76.9648E-03     1.24143E-03    -77.1935E-03     153.290E-03    -77.0011E-03     1.21090E-03
             206     145.549E-09     11.2610E-03    -96.2736E+06    -220.419E+06    -95.7583E+06     567.748E+03    -72.1800E-03     144.023E-03    -71.8432E-03     766.145E-06    -72.2042E-03     143.199E-03    -71.8628E-03     724.890E-06
             207     204.204E-09     10.1727E-03    -92.9966E+06    -219.027E+06    -92.4767E+06     35.7535E+03    -68.2475E-03     136.064E-03    -67.8170E-03     935.208E-06    -68.2615E-03     135.238E-03    -67.8269E-03     888.056E-06
             208     180.382E-09     9.09129E-03    -94.0387E+06    -219.127E+06    -92.9609E+06    -15.2165E+03    -66.7495E-03     133.118E-03    -66.3687E-03     1.99569E-03    -66.7677E-03     132.294E-03    -66.3795E-03     1.94877E-03
             209     88.1692E-09     8.00933E-03    -93.8483E+06    -220.419E+06    -92.8485E+06    -455.247E+03    -68.7807E-03     137.311E-03    -68.5302E-03     3.50444E-03    -68.7970E-03     136.480E-03    -68.5388E-03     3.45271E-03
             210     78.0529E-09     6.91841E-03    -92.2112E+06    -222.450E+06    -91.7247E+06    -509.523E+03    -74.2227E-03     148.311E-03    -74.0881E-03     4.77710E-03    -74.2308E-03     147.464E-03    -74.0905E-03     4.72358E-03
             211    -3.47898E-09     5.81195E-03    -88.9208E+06    -223.958E+06    -88.7379E+06    -176.876E+03    -82.0222E-03     164.026E-03    -82.0035E-03     5.51150E-03    -82.0172E-03     163.161E-03    -81.9935E-03     5.45838E-03
             212    -20.5614E-09     4.68602E-03    -82.9426E+06    -222.781E+06    -83.5110E+06     869.631E+03    -90.9237E-03     181.974E-03    -91.0505E-03     5.61407E-03    -90.8984E-03     181.099E-03    -91.0247E-03     5.57027E-03
             213    -149.592E-09     3.53892E-03    -77.8945E+06    -217.300E+06    -78.2450E+06     1.76687E+06    -99.6547E-03     199.623E-03    -99.9686E-03     5.05458E-03    -99.6190E-03     198.761E-03    -99.9318E-03     5.02233E-03
             214    -178.466E-09     2.37235E-03    -74.5915E+06    -212.875E+06    -74.5094E+06     364.438E+03    -107.013E-03     214.541E-03    -107.528E-03     3.84869E-03    -106.971E-03     213.692E-03    -107.484E-03     3.80616E-03
             215    -315.690E-09     1.19046E-03    -73.5334E+06    -214.165E+06    -74.2949E+06    -908.075E+03    -111.963E-03     224.603E-03    -112.639E-03     2.10354E-03    -111.913E-03     223.746E-03    -112.594E-03     2.06379E-03
             216     802.221E-06    -4.95437E-15    -74.5823E+06    -215.950E+06    -76.1461E+06    -745.223E+03    -113.807E-03     228.043E-03    -114.236E-03     1.83281E-03    -113.756E-03     227.181E-03    -114.195E-03     1.79798E-03
             217     1.60469E-03    -4.95437E-15    -74.7490E+06    -215.337E+06    -75.3004E+06     12.0571E+03    -113.752E-03     227.719E-03    -113.967E-03     3.31730E-03    -113.705E-03     226.860E-03    -113.922E-03     3.27152E-03
             218     2.40738E-03    -4.95437E-15    -74.5231E+06    -217.848E+06    -71.2681E+06     479.588E+03    -113.428E-03     227.296E-03    -113.868E-03     4.86740E-03    -113.382E-03     226.419E-03    -113.800E-03     4.80586E-03
             219     3.21032E-03    -4.95437E-15    -73.2008E+06    -219.673E+06    -67.1473E+06    -288.484E+03    -112.998E-03     226.733E-03    -113.735E-03     6.40793E-03    -112.949E-03     225.839E-03    -113.646E-03     6.31362E-03
             220     4.01377E-03    -4.95437E-15    -70.7597E+06    -217.145E+06    -65.3709E+06    -1.20413E+06    -112.455E-03     226.002E-03    -113.547E-03     7.89435E-03    -112.401E-03     225.115E-03    -113.456E-03     7.76483E-03
             221     4.81763E-03    -4.95437E-15    -67.5903E+06    -209.533E+06    -64.2248E+06    -2.13634E+06    -111.833E-03     225.146E-03    -113.313E-03     9.33472E-03    -111.777E-03     224.292E-03    -113.232E-03     9.16975E-03
             222     5.62216E-03    -4.95437E-15    -64.3755E+06    -193.297E+06    -62.9492E+06    -1.96292E+06    -111.167E-03     224.208E-03    -113.041E-03     10.7130E-03    -111.121E-03     223.429E-03    -112.982E-03     10.5260E-03
             223     6.42713E-03    -4.95437E-15    -61.0526E+06    -170.981E+06    -61.4936E+06    -2.68761E+06    -110.515E-03     223.258E-03    -112.742E-03     12.1257E-03    -110.488E-03     222.585E-03    -112.714E-03     11.9051E-03
             224     7.23262E-03    -4.95437E-15    -56.5347E+06    -144.107E+06    -58.9984E+06    -4.12137E+06    -109.938E-03     222.373E-03    -112.435E-03     13.5497E-03    -109.932E-03     221.826E-03    -112.439E-03     13.2840E-03
             225     8.03858E-03    -4.95437E-15    -50.7634E+06    -113.881E+06    -56.0466E+06    -4.72482E+06    -109.510E-03     221.640E-03    -112.130E-03     15.0972E-03    -109.525E-03     221.233E-03    -112.172E-03     14.7958E-03
             226     8.84448E-03    -4.95437E-15    -44.1954E+06    -78.7787E+06    -52.2334E+06    -5.68602E+06    -109.287E-03     221.130E-03    -111.843E-03     16.8804E-03    -109.327E-03     220.885E-03    -111.926E-03     16.5364E-03
             227     9.65064E-03    -4.95437E-15    -36.7142E+06    -38.5361E+06    -47.2538E+06    -6.31109E+06    -109.332E-03     220.922E-03    -111.590E-03     18.8404E-03    -109.403E-03     220.862E-03    -111.717E-03     18.4478E-03
             228     10.4563E-03    -4.95437E-15    -28.9227E+06     9.76601E+06    -41.7448E+06    -5.91434E+06    -109.718E-03     221.097E-03    -111.379E-03     21.4388E-03    -109.832E-03     221.263E-03    -111.560E-03     21.0074E-03
             229     11.2608E-03    -4.95437E-15    -22.4614E+06     54.8001E+06    -25.4814E+06    -4.07179E+06    -110.462E-03     221.758E-03    -111.296E-03     24.7914E-03    -110.638E-03     222.122E-03    -111.470E-03     24.3184E-03
             230     12.0647E-03    -4.95437E-15    -16.8699E+06     80.5821E+06    -2.02022E+06    -2.96332E+06    -111.625E-03     222.984E-03    -111.360E-03     28.9394E-03    -111.854E-03     223.445E-03    -111.462E-03     28.3808E-03
             231     12.8665E-03    -4.95437E-15    -10.5912E+06     97.3857E+06     26.2001E+06    -1.56685E+06    -113.331E-03     224.886E-03    -111.556E-03     35.9132E-03    -113.611E-03     225.397E-03    -111.551E-03     35.2389E-03
             232     13.6638E-03    -4.95437E-15    -5.49847E+06     109.044E+06     66.8958E+06     894.179E+03    -115.272E-03     227.202E-03    -111.930E-03     46.2166E-03    -115.631E-03     227.732E-03    -111.746E-03     45.4130E-03
             233     14.4593E-03    -4.95437E-15    -1.62310E+06     114.485E+06     96.7229E+06     1.43961E+06    -119.557E-03     231.980E-03    -112.423E-03     60.9028E-03    -120.034E-03     232.575E-03    -112.103E-03     59.6563E-03
             234     15.2498E-03    -4.95437E-15     688.388E+03     117.424E+06     101.507E+06     1.73634E+06    -129.463E-03     242.604E-03    -113.142E-03     84.3368E-03    -130.159E-03     243.417E-03    -112.806E-03     82.2477E-03
             235     16.1079E-03     1.23081E-03    -2.38676E+06     116.649E+06     95.4952E+06     4.87866E+06    -128.473E-03     240.011E-03    -111.538E-03     89.3937E-03    -129.346E-03     241.006E-03    -111.226E-03     86.8051E-03
             236     16.1584E-03     2.42222E-03    -3.48934E+06     117.388E+06     92.7516E+06     6.21336E+06    -127.122E-03     235.305E-03    -108.184E-03     61.5165E-03    -127.939E-03     236.260E-03    -107.885E-03     58.6563E-03
             237     16.1798E-03     3.62903E-03    -2.19836E+06     121.066E+06     94.4003E+06     3.13410E+06    -137.536E-03     243.877E-03    -106.340E-03     32.9853E-03    -138.246E-03     244.735E-03    -106.040E-03     29.6431E-03
             238     16.1868E-03     4.84600E-03    -2.38633E+06     122.787E+06     96.1074E+06     266.373E+03    -142.449E-03     248.085E-03    -105.637E-03     19.6058E-03    -143.118E-03     248.904E-03    -105.331E-03     15.9751E-03
             239     16.1885E-03     6.06330E-03    -1.99252E+06     122.393E+06     97.3572E+06    -446.850E+03    -142.245E-03     247.712E-03    -105.467E-03     15.2106E-03    -142.885E-03     248.497E-03    -105.155E-03     11.5870E-03
             240     16.1895E-03     7.27730E-03    -2.35834E+06     121.629E+06     97.1224E+06    -230.785E+03    -139.880E-03     245.344E-03    -105.463E-03     13.0379E-03    -140.496E-03     246.101E-03    -105.151E-03     9.55040E-03
             241     16.1898E-03     8.48753E-03    -2.25467E+06     121.032E+06     96.4293E+06    -283.723E+03    -136.587E-03     242.099E-03    -105.512E-03     10.7682E-03    -137.175E-03     242.829E-03    -105.202E-03     7.45006E-03
             242     16.1902E-03     9.69305E-03    -2.30548E+06     120.177E+06     95.8265E+06    -276.906E+03    -132.609E-03     238.193E-03    -105.584E-03     8.66384E-03    -133.173E-03     238.897E-03    -105.276E-03     5.52952E-03
             243     16.1907E-03     10.8937E-03    -2.50138E+06     118.852E+06     95.2470E+06    -288.229E+03    -128.399E-03     234.077E-03    -105.678E-03     6.39120E-03    -128.939E-03     234.754E-03    -105.371E-03     3.44620E-03
             244     16.1899E-03     12.0901E-03    -2.47102E+06     117.598E+06     94.4574E+06    -809.567E+03    -124.072E-03     229.891E-03    -105.819E-03     3.77952E-03    -124.588E-03     230.542E-03    -105.514E-03     1.01419E-03
             245     16.1888E-03     13.2802E-03    -2.18878E+06     116.060E+06     93.1847E+06    -789.456E+03    -119.461E-03     225.446E-03    -105.985E-03     1.79636E-03    -119.955E-03     226.074E-03    -105.684E-03    -789.624E-06
             246     16.1884E-03     14.4649E-03    -2.36690E+06     114.507E+06     91.7939E+06    -206.368E+03    -115.216E-03     221.337E-03    -106.120E-03     327.484E-06    -115.695E-03     221.947E-03    -105.824E-03    -2.09715E-03
             247     16.1883E-03     15.6457E-03    -2.57085E+06     113.904E+06     91.0376E+06    -48.3191E+03    -112.036E-03     218.243E-03    -106.206E-03    -816.755E-06    -112.505E-03     218.843E-03    -105.912E-03    -3.13007E-03
             248     16.1885E-03     16.8235E-03    -2.39073E+06     113.808E+06     90.8488E+06     198.497E+03    -110.258E-03     216.502E-03    -106.244E-03    -1.34960E-03    -110.721E-03     217.098E-03    -105.951E-03    -3.60103E-03
             249     16.1887E-03     18.0008E-03    -2.46862E+06     114.051E+06     90.9759E+06     329.771E+03    -109.740E-03     215.982E-03    -106.242E-03    -1.45780E-03    -110.204E-03     216.578E-03    -105.949E-03    -3.69397E-03
             250     16.1891E-03     19.1784E-03    -2.34749E+06     114.489E+06     91.3970E+06     225.218E+03    -109.846E-03     216.065E-03    -106.219E-03    -1.26196E-03    -110.312E-03     216.664E-03    -105.925E-03    -3.50896E-03
             251     16.1894E-03     20.3565E-03    -2.33358E+06     114.851E+06     91.7701E+06     169.451E+03    -110.045E-03     216.241E-03    -106.196E-03    -938.742E-06    -110.515E-03     216.844E-03    -105.900E-03    -3.20100E-03
             252     16.1897E-03     21.5348E-03    -2.34529E+06     115.150E+06     92.0439E+06     102.734E+03    -110.107E-03     216.286E-03    -106.179E-03    -552.763E-06    -110.580E-03     216.892E-03    -105.882E-03    -2.82715E-03
             253     16.1899E-03     22.7130E-03    -2.33093E+06     115.375E+06     92.2285E+06     62.1979E+03    -109.998E-03     216.168E-03    -106.170E-03    -187.978E-06    -110.474E-03     216.778E-03    -105.872E-03    -2.46845E-03
             254     16.1900E-03     23.8909E-03    -2.35992E+06     115.513E+06     92.3591E+06     42.9642E+03    -109.761E-03     215.928E-03    -106.166E-03     135.989E-06    -110.240E-03     216.541E-03    -105.869E-03    -2.14559E-03
             255     16.1901E-03     25.0685E-03    -2.33959E+06     115.639E+06     92.4958E+06     49.9718E+03    -109.445E-03     215.613E-03    -106.167E-03     408.182E-06    -109.927E-03     216.228E-03    -105.869E-03    -1.87091E-03
             256     16.1902E-03     26.2456E-03    -2.37168E+06     115.792E+06     92.6076E+06     54.8906E+03    -109.081E-03     215.252E-03    -106.171E-03     633.879E-06    -109.565E-03     215.869E-03    -105.872E-03    -1.64037E-03
             257     16.1903E-03     27.4223E-03    -2.36736E+06     115.910E+06     92.6477E+06     33.5919E+03    -108.698E-03     214.874E-03    -106.176E-03     823.913E-06    -109.183E-03     215.493E-03    -105.877E-03    -1.44476E-03
             258     16.1904E-03     28.5985E-03    -2.35442E+06     116.042E+06     92.6754E+06     53.3862E+03    -108.314E-03     214.497E-03    -106.183E-03     982.289E-06    -108.800E-03     215.118E-03    -105.884E-03    -1.27963E-03
             259     16.1904E-03     29.7742E-03    -2.43952E+06     116.102E+06     92.4506E+06    -17.3080E+03    -107.957E-03     214.146E-03    -106.189E-03     1.10577E-03    -108.444E-03     214.769E-03    -105.892E-03    -1.15030E-03
             260     16.1903E-03     30.9496E-03    -2.34604E+06     115.947E+06     92.3684E+06    -114.227E+03    -107.609E-03     213.806E-03    -106.197E-03     1.22975E-03    -108.096E-03     214.428E-03    -105.900E-03    -1.02098E-03
             261     16.1904E-03     32.1244E-03    -2.33371E+06     115.745E+06     92.2067E+06     1.93271E+03    -107.320E-03     213.524E-03    -106.204E-03     1.31419E-03    -107.807E-03     214.147E-03    -105.908E-03    -928.912E-06
             262     16.1903E-03     33.2992E-03    -2.34046E+06     115.876E+06     91.7297E+06     58.2873E+03    -107.106E-03     213.318E-03    -106.212E-03     1.33249E-03    -107.593E-03     213.942E-03    -105.918E-03    -904.296E-06
             263     16.1902E-03     34.4735E-03    -2.32183E+06     116.262E+06      91.723E+06     83.2522E+03    -106.867E-03     213.087E-03    -106.220E-03     1.46947E-03    -107.355E-03     213.714E-03    -105.926E-03    -762.014E-06
             264     16.1904E-03     35.6474E-03    -2.25794E+06     116.604E+06     92.4025E+06     214.886E+03    -106.539E-03     212.755E-03    -106.216E-03     1.68596E-03    -107.029E-03     213.383E-03    -105.920E-03    -539.713E-06
             265     16.1910E-03     36.8210E-03    -2.43206E+06     117.021E+06     92.6537E+06     290.384E+03    -106.147E-03     212.345E-03    -106.198E-03     1.74309E-03    -106.639E-03     212.976E-03    -105.901E-03    -478.024E-06
             266     16.1913E-03     37.9943E-03    -2.63787E+06     117.406E+06     92.7480E+06     46.9213E+03    -106.003E-03     212.190E-03    -106.187E-03     1.63649E-03    -106.497E-03     212.823E-03    -105.890E-03    -585.163E-06
             267     16.1911E-03     39.1676E-03    -2.29168E+06     117.906E+06     93.6545E+06    -129.603E+03    -105.847E-03     212.030E-03    -106.183E-03     1.82489E-03    -106.342E-03     212.663E-03    -105.882E-03    -392.654E-06
             268     16.1920E-03     40.3402E-03    -2.83466E+06     118.148E+06     93.4353E+06    -100.101E+03    -106.010E-03     212.184E-03    -106.174E-03     2.46582E-03    -106.507E-03     212.819E-03    -105.874E-03     270.361E-06
             269     16.1906E-03     41.5158E-03    -2.38789E+06     117.597E+06     93.2008E+06    -396.962E+03    -105.972E-03     212.133E-03    -106.161E-03     4.16462E-03    -106.466E-03     212.765E-03    -105.862E-03     1.99915E-03
             270     16.1932E-03     42.6879E-03    -1.21148E+06     118.309E+06     94.5798E+06    -1.42229E+06    -105.519E-03     211.672E-03    -106.153E-03     4.43518E-03    -106.009E-03     212.304E-03    -105.850E-03     2.27014E-03
             271     16.1909E-03     43.8605E-03    -2.34244E+06     117.883E+06     93.7680E+06    -723.677E+03    -105.790E-03     211.946E-03    -106.156E-03     3.67881E-03    -106.283E-03     212.578E-03    -105.855E-03     1.51458E-03
             272     16.1923E-03     45.0333E-03    -1.82173E+06     116.776E+06     93.3482E+06     28.2101E+03    -105.544E-03     211.694E-03    -106.150E-03     4.13420E-03    -106.033E-03     212.321E-03    -105.850E-03     1.98901E-03
             273     16.1926E-03     46.2055E-03    -2.04153E+06     117.174E+06     93.8175E+06    -153.784E+03    -105.812E-03     211.972E-03    -106.160E-03     3.44292E-03    -106.301E-03     212.598E-03    -105.858E-03     1.29696E-03
             274     16.1897E-03     47.3804E-03    -4.06753E+06     115.688E+06     91.4775E+06     843.213E+03    -105.971E-03     212.158E-03    -106.187E-03     3.67939E-03    -106.466E-03     212.784E-03    -105.891E-03     1.54231E-03
             275     16.1928E-03     48.5506E-03    -2.78012E+06     115.712E+06     92.0560E+06     721.817E+03    -105.140E-03     211.332E-03    -106.191E-03     3.78684E-03    -105.630E-03     211.955E-03    -105.895E-03     1.65856E-03
             276     16.1906E-03     49.7241E-03    -2.56919E+06     116.364E+06     92.8944E+06     435.214E+03    -105.074E-03     211.263E-03    -106.189E-03     3.31234E-03    -105.565E-03     211.888E-03    -105.890E-03     1.16975E-03
             277     16.1923E-03     50.8955E-03    -2.45543E+06     116.463E+06     92.7989E+06     61.7324E+03    -105.283E-03     211.471E-03    -106.188E-03     4.06416E-03    -105.777E-03     212.100E-03    -105.889E-03     1.91044E-03
             278     16.1908E-03     52.0687E-03    -2.14956E+06     116.590E+06     93.2300E+06     189.507E+03    -105.514E-03     211.699E-03    -106.185E-03     3.89308E-03    -106.006E-03     212.327E-03    -105.885E-03     1.73866E-03
             279     16.1920E-03     53.2409E-03    -3.21397E+06     115.956E+06     92.3332E+06     600.035E+03    -105.375E-03     211.573E-03    -106.198E-03     3.16030E-03    -105.867E-03     212.198E-03    -105.900E-03     1.01843E-03
             280     16.1903E-03     54.4127E-03    -1.87523E+06     116.854E+06     93.0068E+06     14.2245E+03    -104.730E-03     210.932E-03    -106.202E-03     2.99026E-03    -105.216E-03     211.556E-03    -105.904E-03     851.752E-06
             281     16.1933E-03     55.5827E-03    -1.17598E+06     118.284E+06     94.2807E+06    -1.03846E+06    -105.226E-03     211.408E-03    -106.182E-03     2.60337E-03    -105.713E-03     212.037E-03    -105.880E-03     430.027E-06
             282     16.1897E-03     56.7578E-03    -2.73179E+06     117.310E+06     92.9882E+06     595.280E+03    -105.703E-03     211.883E-03    -106.180E-03     2.71646E-03    -106.194E-03     212.511E-03    -105.881E-03     572.375E-06
             283     16.1931E-03     57.9301E-03    -2.23217E+06     116.581E+06     92.8627E+06     230.268E+03    -104.606E-03     210.786E-03    -106.180E-03     3.89049E-03    -105.095E-03     211.411E-03    -105.881E-03     1.76959E-03
             284     16.1916E-03     59.0996E-03    -2.57163E+06     117.451E+06     93.6139E+06    -1.16106E+06    -105.265E-03     211.445E-03    -106.181E-03     2.82071E-03    -105.756E-03     212.073E-03    -105.879E-03     662.572E-06
             285     16.1903E-03     60.2755E-03    -3.04507E+06     117.058E+06     92.7040E+06     824.949E+03    -105.539E-03     211.741E-03    -106.201E-03     2.83578E-03    -106.030E-03     212.367E-03    -105.903E-03     704.546E-06
             286     16.1925E-03     61.4444E-03    -2.60869E+06     116.622E+06     92.5569E+06     414.385E+03    -104.704E-03     210.911E-03    -106.207E-03     3.32759E-03    -105.191E-03     211.535E-03    -105.910E-03     1.21376E-03
             287     16.1903E-03     62.6188E-03    -2.77223E+06     116.418E+06     92.3208E+06    -470.760E+03    -105.204E-03     211.421E-03    -106.217E-03     2.78067E-03    -105.692E-03     212.044E-03    -105.920E-03     642.512E-06
             288     16.1910E-03     63.7895E-03    -896.053E+03     116.498E+06     93.1798E+06    -190.114E+03    -104.885E-03     211.099E-03    -106.215E-03     3.38063E-03    -105.368E-03     211.722E-03    -105.916E-03     1.23306E-03
             289     16.1925E-03     64.9604E-03    -1.23133E+06     116.870E+06     93.6486E+06    -589.015E+03    -104.882E-03     211.064E-03    -106.183E-03     2.70020E-03    -105.367E-03     211.688E-03    -105.882E-03     538.839E-06
             290     16.1910E-03     66.1343E-03    -3.17809E+06     116.156E+06     92.2505E+06     167.914E+03    -105.331E-03     211.517E-03    -106.186E-03     1.81500E-03    -105.821E-03     212.140E-03    -105.888E-03    -344.316E-06
             291     16.1914E-03     67.3048E-03    -3.44598E+06     116.071E+06     91.7746E+06     749.707E+03    -104.799E-03     210.989E-03    -106.190E-03     2.48210E-03    -105.290E-03     211.614E-03    -105.895E-03     342.335E-06
             292     809.171E-06     68.2258E-03    -118.490E+06    -265.109E+06    -115.225E+06    -91.2164E+03    -106.378E-03     212.661E-03    -106.283E-03     14.8626E-03    -106.430E-03     211.685E-03    -106.303E-03     14.5740E-03
             293     1.61846E-03     68.2487E-03    -113.708E+06    -255.677E+06    -101.491E+06     70.9476E+03    -106.421E-03     212.766E-03    -106.346E-03     26.9713E-03    -106.505E-03     211.834E-03    -106.317E-03     26.4366E-03
             294     2.42772E-03     68.2856E-03    -106.813E+06    -242.026E+06    -83.3868E+06     27.1482E+03    -106.558E-03     212.942E-03    -106.383E-03     39.2867E-03    -106.694E-03     212.081E-03    -106.294E-03     38.4737E-03
             295     3.23706E-03     68.3357E-03    -98.7482E+06    -223.398E+06      -65.87E+06    -31.8972E+03    -106.744E-03     213.151E-03    -106.407E-03     51.0143E-03    -106.950E-03     212.404E-03    -106.269E-03     49.9011E-03
             296     4.04644E-03     68.3985E-03    -90.5770E+06    -203.514E+06    -49.8199E+06    -15.2468E+03    -106.958E-03     213.377E-03    -106.419E-03     61.8994E-03    -107.253E-03     212.772E-03    -106.241E-03     60.4651E-03
             297     4.85585E-03     68.4726E-03    -82.5866E+06    -184.409E+06    -35.4661E+06    -2.95061E+03    -107.185E-03     213.608E-03    -106.423E-03     71.7700E-03    -107.586E-03     213.165E-03    -106.214E-03     69.9950E-03
             298     5.66533E-03     68.5570E-03    -75.0064E+06    -163.485E+06    -23.5837E+06     10.5335E+03    -107.401E-03     213.816E-03    -106.414E-03     80.5196E-03    -107.932E-03     213.568E-03    -106.187E-03     78.3898E-03
             299     6.47480E-03     68.6502E-03    -67.9439E+06    -141.764E+06    -12.8939E+06    -44.5321E+03    -107.581E-03     213.982E-03    -106.401E-03     88.0324E-03    -108.260E-03     213.954E-03    -106.161E-03     85.5412E-03
             300     7.28432E-03     68.7508E-03    -61.1366E+06    -118.971E+06    -2.82671E+06    -57.5804E+03    -107.698E-03     214.082E-03    -106.384E-03     94.1447E-03    -108.540E-03     214.293E-03    -106.137E-03     91.3002E-03
             301     8.09389E-03     68.8571E-03    -54.8354E+06    -95.0525E+06     7.07768E+06    -36.0929E+03    -107.733E-03     214.101E-03    -106.367E-03     98.6813E-03    -108.747E-03     214.562E-03    -106.114E-03     95.5085E-03
             302     8.90355E-03     68.9673E-03    -48.7820E+06    -68.1825E+06     16.9683E+06     7.76086E+03    -107.687E-03     214.035E-03    -106.347E-03     101.370E-03    -108.868E-03     214.751E-03    -106.093E-03     97.9162E-03
             303     9.71307E-03     69.0792E-03    -42.6584E+06    -43.1497E+06     26.5694E+06    -13.1662E+03    -107.547E-03     213.878E-03    -106.330E-03     101.685E-03    -108.860E-03     214.809E-03    -106.073E-03     98.0215E-03
             304     10.5226E-03     69.1898E-03    -36.6710E+06    -11.7794E+06     35.8841E+06    -15.6224E+03    -107.248E-03     213.552E-03    -106.304E-03     99.1982E-03    -108.649E-03     214.676E-03    -106.054E-03     95.4183E-03
             305     11.3323E-03     69.2957E-03    -30.5406E+06     17.2612E+06     45.5655E+06     108.981E+03    -106.835E-03     213.115E-03    -106.280E-03     93.5482E-03    -108.255E-03     214.355E-03    -106.033E-03     89.7444E-03
             306     12.1420E-03     69.3933E-03    -25.0788E+06     61.4266E+06     53.8766E+06    -387.884E+03    -106.273E-03     212.498E-03    -106.225E-03     84.9511E-03    -107.670E-03     213.868E-03    -106.009E-03     81.1965E-03
             307     12.9519E-03     69.4795E-03    -20.0038E+06     102.164E+06     65.4649E+06    -251.175E+03    -105.671E-03     211.857E-03    -106.186E-03     74.3187E-03    -107.004E-03     213.292E-03    -105.978E-03     70.6755E-03
             308     13.7621E-03     69.5528E-03    -15.6116E+06     107.260E+06     72.7373E+06     812.211E+03    -105.183E-03     211.356E-03    -106.173E-03     60.0154E-03    -106.349E-03     212.637E-03    -105.943E-03     56.5459E-03
             309     14.5726E-03     69.6059E-03    -10.9675E+06     115.522E+06     83.2404E+06     176.853E+03    -104.948E-03     211.124E-03    -106.175E-03     45.7337E-03    -105.984E-03     212.289E-03    -105.911E-03     42.3492E-03
             310     15.3825E-03     69.6476E-03    -4.74726E+06     119.956E+06     94.3270E+06    -250.400E+03    -105.114E-03     211.309E-03    -106.195E-03     21.8645E-03    -105.864E-03     212.195E-03    -105.891E-03     19.0933E-03
             311     809.250E-06     69.3975E-03    -118.502E+06    -265.030E+06    -115.084E+06    -77.9599E+03    -106.389E-03     212.648E-03    -106.259E-03     14.8728E-03    -106.441E-03     211.672E-03    -106.278E-03     14.5846E-03
             312     1.61844E-03     69.4205E-03    -113.736E+06    -255.759E+06    -101.630E+06    -85.2653E+03    -106.418E-03     212.757E-03    -106.339E-03     26.9508E-03    -106.502E-03     211.825E-03    -106.312E-03     26.4133E-03
             313     2.42777E-03     69.4573E-03    -106.648E+06    -241.919E+06    -83.4589E+06    -61.8285E+03    -106.566E-03     212.945E-03    -106.379E-03     39.2601E-03    -106.701E-03     212.085E-03    -106.291E-03     38.4453E-03
             314     3.23705E-03     69.5075E-03    -98.6814E+06    -223.435E+06    -65.7149E+06    -25.9840E+03    -106.754E-03     213.161E-03    -106.407E-03     50.9866E-03    -106.960E-03     212.414E-03    -106.269E-03     49.8727E-03
             315     4.04641E-03     69.5702E-03    -90.4854E+06    -203.550E+06    -49.7333E+06     33.3116E+03    -106.958E-03     213.378E-03    -106.420E-03     61.8864E-03    -107.253E-03     212.773E-03    -106.242E-03     60.4521E-03
             316     4.85585E-03     69.6444E-03    -82.4893E+06    -184.331E+06    -35.4652E+06    -5.82154E+03    -107.182E-03     213.606E-03    -106.424E-03     71.7893E-03    -107.584E-03     213.163E-03    -106.214E-03     70.0140E-03
             317     5.66530E-03     69.7287E-03    -74.7960E+06    -163.512E+06    -23.5087E+06    -76.6450E+03    -107.401E-03     213.816E-03    -106.415E-03     80.5607E-03    -107.931E-03     213.567E-03    -106.187E-03     78.4295E-03
             318     6.47481E-03     69.8220E-03    -67.6245E+06    -141.712E+06    -12.7322E+06    -36.0781E+03    -107.584E-03     213.984E-03    -106.401E-03     88.0788E-03    -108.261E-03     213.956E-03    -106.161E-03     85.5873E-03
             319     7.28436E-03     69.9226E-03    -61.0343E+06    -118.890E+06    -2.73365E+06    -46.2686E+03    -107.713E-03     214.098E-03    -106.385E-03     94.1709E-03    -108.555E-03     214.309E-03    -106.138E-03     91.3257E-03
             320     8.09389E-03     70.0290E-03    -54.7786E+06    -95.1199E+06     7.09189E+06    -17.0472E+03    -107.774E-03     214.144E-03    -106.370E-03     98.6838E-03    -108.788E-03     214.606E-03    -106.117E-03     95.5089E-03
             321     8.90336E-03     70.1392E-03    -48.6798E+06    -68.1193E+06     17.0300E+06    -67.2031E+03    -107.713E-03     214.066E-03    -106.353E-03     101.406E-03    -108.894E-03     214.783E-03    -106.099E-03     97.9495E-03
             322     9.71297E-03     70.2513E-03    -42.8777E+06    -43.1969E+06     26.4495E+06    -102.216E+03    -107.511E-03     213.846E-03    -106.335E-03     101.791E-03    -108.825E-03     214.777E-03    -106.078E-03     98.1286E-03
             323     10.5227E-03     70.3617E-03    -37.3009E+06    -11.4715E+06     35.8492E+06    -269.296E+03    -107.187E-03     213.491E-03    -106.304E-03     99.3740E-03    -108.591E-03     214.618E-03    -106.054E-03     95.5949E-03
             324     11.3324E-03     70.4678E-03    -31.8679E+06     17.2472E+06     45.2458E+06    -760.525E+03    -106.758E-03     213.034E-03    -106.275E-03     93.7145E-03    -108.184E-03     214.277E-03    -106.028E-03     89.9030E-03
             325     12.1422E-03     70.5651E-03    -26.3496E+06     61.1388E+06     53.5920E+06    -175.647E+03    -106.173E-03     212.388E-03    -106.215E-03     85.0162E-03    -107.576E-03     213.759E-03    -105.998E-03     81.2681E-03
             326     12.9523E-03     70.6514E-03    -21.6287E+06     101.086E+06     64.4117E+06     723.001E+03    -105.572E-03     211.740E-03    -106.169E-03     74.0675E-03    -106.909E-03     213.173E-03    -105.962E-03     70.4379E-03
             327     13.7625E-03     70.7241E-03    -16.0860E+06     106.704E+06     73.0493E+06     891.845E+03    -105.277E-03     211.439E-03    -106.162E-03     59.5030E-03    -106.444E-03     212.716E-03    -105.928E-03     56.0300E-03
             328     14.5719E-03     70.7783E-03     -9.8961E+06     116.511E+06     85.8580E+06     355.045E+03    -105.284E-03     211.468E-03    -106.184E-03     46.0803E-03    -106.321E-03     212.634E-03    -105.909E-03     42.6940E-03
             329     15.3801E-03     70.8216E-03    -4.49080E+06     120.301E+06     95.2630E+06    -435.833E+03    -104.983E-03     211.186E-03    -106.203E-03     22.6021E-03    -105.736E-03     212.074E-03    -105.895E-03     19.8342E-03
             330     809.177E-06     70.5693E-03    -118.392E+06    -264.922E+06    -114.996E+06     22.3463E+03    -106.407E-03     212.655E-03    -106.247E-03     14.8078E-03    -106.459E-03     211.679E-03    -106.267E-03     14.5211E-03
             331     1.61847E-03     70.5922E-03    -113.673E+06    -255.646E+06    -101.474E+06    -89.7372E+03    -106.427E-03     212.771E-03    -106.344E-03     26.9506E-03    -106.512E-03     211.839E-03    -106.316E-03     26.4125E-03
             332     2.42768E-03     70.6291E-03    -106.669E+06    -241.913E+06    -83.4277E+06    -115.045E+03    -106.566E-03     212.950E-03    -106.384E-03     39.2747E-03    -106.701E-03     212.090E-03    -106.296E-03     38.4590E-03
             333     3.23703E-03     70.6793E-03    -98.6390E+06    -223.395E+06    -65.7158E+06    -149.082E+03    -106.739E-03     213.148E-03    -106.409E-03     51.0121E-03    -106.945E-03     212.401E-03    -106.270E-03     49.8965E-03
             334     4.04643E-03     70.7420E-03    -90.4163E+06    -203.656E+06    -49.7177E+06    -136.927E+03    -106.951E-03     213.371E-03    -106.419E-03     61.9115E-03    -107.246E-03     212.765E-03    -106.241E-03     60.4750E-03
             335     4.85586E-03     70.8161E-03    -82.2849E+06    -184.254E+06    -35.4282E+06    -106.946E+03    -107.183E-03     213.605E-03    -106.422E-03     71.8182E-03    -107.584E-03     213.162E-03    -106.213E-03     70.0416E-03
             336     5.66534E-03     70.9005E-03    -74.7595E+06    -163.551E+06    -23.5637E+06    -59.2823E+03    -107.407E-03     213.821E-03    -106.413E-03     80.5754E-03    -107.936E-03     213.572E-03    -106.185E-03     78.4440E-03
             337     6.47484E-03     70.9938E-03    -67.7331E+06    -141.806E+06    -12.8436E+06     14.6951E+03    -107.601E-03     214.002E-03    -106.401E-03     88.0764E-03    -108.279E-03     213.974E-03    -106.161E-03     85.5852E-03
             338     7.28431E-03     71.0945E-03    -61.1612E+06    -118.910E+06    -2.77371E+06     128.078E+03    -107.728E-03     214.116E-03    -106.387E-03     94.1775E-03    -108.571E-03     214.327E-03    -106.140E-03     91.3341E-03
             339     8.09382E-03     71.2009E-03    -54.9906E+06    -95.1265E+06     7.10240E+06     186.718E+03    -107.762E-03     214.134E-03    -106.373E-03     98.7720E-03    -108.777E-03     214.596E-03    -106.120E-03     95.6006E-03
             340     8.90340E-03     71.3113E-03    -49.3810E+06    -68.0140E+06     16.8677E+06     222.823E+03    -107.669E-03     214.021E-03    -106.352E-03     101.531E-03    -108.853E-03     214.740E-03    -106.098E-03     98.0813E-03
             341     9.71307E-03     71.4230E-03    -43.8682E+06    -42.9844E+06     26.2502E+06     103.350E+03    -107.473E-03     213.804E-03    -106.330E-03     101.887E-03    -108.792E-03     214.738E-03    -106.073E-03     98.2288E-03
             342     10.5228E-03     71.5337E-03    -38.5139E+06    -11.1591E+06     35.4307E+06    -63.2612E+03    -107.141E-03     213.437E-03    -106.296E-03     99.4026E-03    -108.551E-03     214.568E-03    -106.047E-03     95.6271E-03
             343     11.3325E-03     71.6396E-03    -33.5054E+06     18.0630E+06     44.5836E+06    -266.124E+03    -106.694E-03     212.957E-03    -106.263E-03     93.6422E-03    -108.128E-03     214.207E-03    -106.018E-03     89.8388E-03
             344     12.1424E-03     71.7370E-03    -28.1782E+06     60.0384E+06     51.9441E+06    -493.766E+03    -106.153E-03     212.353E-03    -106.200E-03     84.8735E-03    -107.561E-03     213.723E-03    -105.986E-03     81.1211E-03
             345     12.9523E-03     71.8231E-03    -21.8568E+06     100.018E+06     63.1084E+06     8.85743E+03    -105.645E-03     211.801E-03    -106.156E-03     73.9955E-03    -106.981E-03     213.231E-03    -105.953E-03     70.3509E-03
             346     13.7619E-03     71.8961E-03    -15.6883E+06     107.368E+06     71.9904E+06    -143.399E+03    -105.297E-03     211.447E-03    -106.150E-03     59.9891E-03    -106.463E-03     212.729E-03    -105.923E-03     56.5067E-03
             347     14.5719E-03     71.9507E-03    -9.74772E+06     116.820E+06     84.7775E+06     47.5783E+03    -104.960E-03     211.124E-03    -106.164E-03     46.7489E-03    -105.996E-03     212.294E-03    -105.895E-03     43.3766E-03
             348     15.3839E-03     71.9928E-03    -4.50664E+06     120.506E+06     95.0003E+06     59.2473E+03    -105.066E-03     211.246E-03    -106.180E-03     22.2329E-03    -105.817E-03     212.134E-03    -105.874E-03     19.4771E-03
             349     809.233E-06     71.7410E-03    -118.176E+06    -264.788E+06    -114.859E+06    -37.3413E+03    -106.408E-03     212.677E-03    -106.269E-03     14.8029E-03    -106.459E-03     211.702E-03    -106.288E-03     14.5149E-03
             350     1.61841E-03     71.7640E-03    -113.527E+06    -255.482E+06    -101.312E+06    -96.5153E+03    -106.420E-03     212.771E-03    -106.352E-03     26.9643E-03    -106.504E-03     211.839E-03    -106.323E-03     26.4264E-03
             351     2.42774E-03     71.8008E-03    -106.674E+06    -241.860E+06    -83.3822E+06    -132.996E+03    -106.547E-03     212.932E-03    -106.385E-03     39.2983E-03    -106.683E-03     212.072E-03    -106.296E-03     38.4827E-03
             352     3.23706E-03     71.8510E-03    -98.7190E+06    -223.294E+06    -65.8812E+06    -138.549E+03    -106.728E-03     213.133E-03    -106.404E-03     51.0347E-03    -106.935E-03     212.387E-03    -106.267E-03     49.9197E-03
             353     4.04645E-03     71.9137E-03    -90.5278E+06    -203.468E+06    -49.8755E+06    -287.512E+03    -106.956E-03     213.370E-03    -106.414E-03     61.9291E-03    -107.250E-03     212.766E-03    -106.237E-03     60.4909E-03
             354     4.85587E-03     71.9879E-03    -82.4651E+06    -184.487E+06    -35.6175E+06    -211.313E+03    -107.198E-03     213.618E-03    -106.420E-03     71.8180E-03    -107.600E-03     213.175E-03    -106.211E-03     70.0395E-03
             355     5.66532E-03     72.0723E-03    -74.9605E+06    -163.693E+06    -23.6404E+06     39.2422E+03    -107.424E-03     213.838E-03    -106.414E-03     80.5854E-03    -107.954E-03     213.589E-03    -106.186E-03     78.4550E-03
             356     6.47476E-03     72.1657E-03    -67.9733E+06    -141.961E+06    -12.8753E+06     200.859E+03    -107.603E-03     214.006E-03    -106.403E-03     88.1158E-03    -108.282E-03     213.977E-03    -106.163E-03     85.6271E-03
             357     7.28428E-03     72.2664E-03    -61.4501E+06    -119.298E+06    -2.85297E+06     441.459E+03    -107.700E-03     214.088E-03    -106.388E-03     94.2594E-03    -108.544E-03     214.299E-03    -106.140E-03     91.4209E-03
             358     8.09386E-03     72.3728E-03    -55.3605E+06    -95.0731E+06     7.07116E+06     597.012E+03    -107.714E-03     214.083E-03    -106.369E-03     98.8469E-03    -108.731E-03     214.546E-03    -106.116E-03     95.6828E-03
             359     8.90354E-03     72.4830E-03    -49.2589E+06    -67.9598E+06     16.9083E+06     534.269E+03    -107.642E-03     213.986E-03    -106.345E-03     101.531E-03    -108.826E-03     214.705E-03    -106.090E-03     98.0865E-03
             360     9.71317E-03     72.5950E-03    -43.4706E+06    -42.8406E+06     26.2455E+06     591.306E+03    -107.464E-03     213.785E-03    -106.321E-03     101.855E-03    -108.781E-03     214.719E-03    -106.065E-03     98.2027E-03
             361     10.5228E-03     72.7055E-03    -38.0659E+06    -11.1459E+06     35.3310E+06     719.125E+03    -107.119E-03     213.404E-03    -106.286E-03     99.3734E-03    -108.527E-03     214.535E-03    -106.038E-03     95.6087E-03
             362     11.3327E-03     72.8114E-03    -32.9039E+06     18.6310E+06     44.8093E+06     609.646E+03    -106.683E-03     212.936E-03    -106.253E-03     93.6478E-03    -108.115E-03     214.187E-03    -106.008E-03     89.8578E-03
             363     12.1424E-03     72.9088E-03    -28.2830E+06     61.5323E+06     52.2678E+06    -497.390E+03    -106.170E-03     212.360E-03    -106.191E-03     84.9062E-03    -107.581E-03     213.738E-03    -105.977E-03     81.1548E-03
             364     12.9524E-03     72.9949E-03    -22.6801E+06     99.8290E+06     62.8399E+06    -1.93134E+06    -105.671E-03     211.820E-03    -106.149E-03     74.0615E-03    -107.011E-03     213.252E-03    -105.946E-03     70.3893E-03
             365     13.7627E-03     73.0680E-03    -15.9478E+06     107.099E+06     71.3506E+06    -1.69048E+06    -105.329E-03     211.472E-03    -106.143E-03     59.7116E-03    -106.495E-03     212.755E-03    -105.918E-03     56.1990E-03
             366     14.5730E-03     73.1220E-03    -10.2420E+06     116.768E+06     83.9111E+06    -582.027E+03    -105.239E-03     211.404E-03    -106.165E-03     45.7995E-03    -106.275E-03     212.575E-03    -105.900E-03     42.3929E-03
             367     15.3809E-03     73.1652E-03    -5.47867E+06     119.725E+06     94.4795E+06     241.010E+03    -105.254E-03     211.453E-03    -106.199E-03     21.1634E-03    -106.007E-03     212.338E-03    -105.892E-03     18.3855E-03
             368     809.152E-06     72.9128E-03    -118.149E+06    -264.725E+06    -114.678E+06     14.9370E+03    -106.419E-03     212.663E-03    -106.245E-03     14.8189E-03    -106.470E-03     211.688E-03    -106.263E-03     14.5307E-03
             369     1.61844E-03     72.9357E-03    -113.323E+06    -255.369E+06    -101.149E+06    -89.9268E+03    -106.413E-03     212.757E-03    -106.345E-03     26.9896E-03    -106.496E-03     211.825E-03    -106.316E-03     26.4521E-03
             370     2.42772E-03     72.9725E-03    -106.535E+06    -241.774E+06    -83.2822E+06    -102.394E+03    -106.544E-03     212.922E-03    -106.378E-03     39.3006E-03    -106.679E-03     212.062E-03    -106.289E-03     38.4856E-03
             371     3.23708E-03     73.0227E-03    -98.4357E+06    -223.086E+06    -65.6891E+06    -152.360E+03    -106.733E-03     213.132E-03    -106.399E-03     51.0347E-03    -106.938E-03     212.386E-03    -106.261E-03     49.9198E-03
             372     4.04646E-03     73.0855E-03    -90.2628E+06    -203.428E+06    -49.5855E+06    -55.1426E+03    -106.964E-03     213.376E-03    -106.412E-03     61.9416E-03    -107.258E-03     212.771E-03    -106.234E-03     60.5064E-03
             373     4.85587E-03     73.1597E-03    -82.6466E+06    -184.618E+06    -35.3517E+06     62.0377E+03    -107.207E-03     213.627E-03    -106.420E-03     71.8449E-03    -107.610E-03     213.183E-03    -106.209E-03     70.0699E-03
             374     5.66530E-03     73.2441E-03    -75.1739E+06    -163.884E+06    -23.5640E+06     94.3942E+03    -107.420E-03     213.834E-03    -106.414E-03     80.6437E-03    -107.951E-03     213.585E-03    -106.185E-03     78.5142E-03
             375     6.47481E-03     73.3375E-03    -68.1059E+06    -142.374E+06    -12.9042E+06     326.886E+03    -107.579E-03     213.980E-03    -106.401E-03     88.1781E-03    -108.258E-03     213.950E-03    -106.161E-03     85.6912E-03
             376     7.28437E-03     73.4382E-03    -61.2591E+06    -119.491E+06    -2.80281E+06     413.887E+03    -107.682E-03     214.065E-03    -106.383E-03     94.2870E-03    -108.525E-03     214.274E-03    -106.135E-03     91.4482E-03
             377     8.09398E-03     73.5446E-03    -54.4848E+06    -95.2601E+06     7.15017E+06     434.584E+03    -107.714E-03     214.077E-03    -106.363E-03     98.8262E-03    -108.727E-03     214.537E-03    -106.110E-03     95.6597E-03
             378     8.90352E-03     73.6549E-03    -48.2385E+06    -68.0744E+06     17.1622E+06     560.591E+03    -107.635E-03     213.974E-03    -106.339E-03     101.520E-03    -108.815E-03     214.691E-03    -106.084E-03     98.0750E-03
             379     9.71318E-03     73.7668E-03    -42.1982E+06    -43.0808E+06     26.7809E+06     681.069E+03    -107.439E-03     213.754E-03    -106.315E-03     101.838E-03    -108.750E-03     214.685E-03    -106.058E-03     98.1881E-03
             380     10.5230E-03     73.8773E-03    -36.0777E+06    -11.3758E+06     36.3711E+06     805.197E+03    -107.115E-03     213.396E-03    -106.280E-03     99.3229E-03    -108.514E-03     214.521E-03    -106.030E-03     95.5599E-03
             381     11.3328E-03     73.9832E-03    -30.2902E+06     18.3713E+06     46.3136E+06     1.11005E+06    -106.729E-03     212.979E-03    -106.251E-03     93.5595E-03    -108.149E-03     214.223E-03    -106.002E-03     89.7742E-03
             382     12.1427E-03     74.0806E-03    -24.6575E+06     63.9175E+06     55.1045E+06     841.371E+03    -106.267E-03     212.461E-03    -106.194E-03     84.7023E-03    -107.668E-03     213.842E-03    -105.976E-03     80.9614E-03
             383     12.9525E-03     74.1668E-03    -20.2538E+06     102.875E+06     66.2134E+06    -1.08276E+06    -105.880E-03     212.046E-03    -106.166E-03     73.6769E-03    -107.218E-03     213.486E-03    -105.955E-03     70.0031E-03
             384     13.7620E-03     74.2398E-03    -16.6591E+06     105.690E+06     72.0486E+06    -2.05463E+06    -105.685E-03     211.859E-03    -106.175E-03     59.2472E-03    -106.855E-03     213.137E-03    -105.944E-03     55.7061E-03
             385     14.5709E-03     74.2947E-03    -11.6944E+06     115.030E+06     83.1415E+06    -1.14495E+06    -105.346E-03     211.550E-03    -106.204E-03     45.9916E-03    -106.387E-03     212.716E-03    -105.938E-03     42.5755E-03
             386     15.3814E-03     74.3385E-03    -6.05302E+06     119.562E+06     94.0931E+06    -243.509E+03    -105.071E-03     211.302E-03    -106.232E-03     21.7009E-03    -105.826E-03     212.187E-03    -105.926E-03     18.9368E-03
             387     809.276E-06     74.0845E-03    -117.783E+06    -264.517E+06    -114.662E+06    -84.7864E+03    -106.376E-03     212.606E-03    -106.230E-03     14.8193E-03    -106.426E-03     211.631E-03    -106.249E-03     14.5307E-03
             388     1.61849E-03     74.1075E-03    -113.205E+06    -255.325E+06    -101.088E+06    -66.1703E+03    -106.419E-03     212.742E-03    -106.322E-03     26.9988E-03    -106.502E-03     211.810E-03    -106.293E-03     26.4618E-03
             389     2.42777E-03     74.1442E-03    -106.305E+06    -241.658E+06    -83.0076E+06    -80.1524E+03    -106.558E-03     212.925E-03    -106.367E-03     39.3187E-03    -106.692E-03     212.065E-03    -106.278E-03     38.5038E-03
             390     3.23709E-03     74.1945E-03    -98.4424E+06    -223.045E+06    -65.4845E+06    -64.3746E+03    -106.746E-03     213.141E-03    -106.395E-03     51.0606E-03    -106.952E-03     212.395E-03    -106.256E-03     49.9464E-03
             391     4.04647E-03     74.2572E-03    -90.4975E+06    -203.842E+06    -49.4499E+06     163.428E+03    -106.966E-03     213.377E-03    -106.411E-03     61.9558E-03    -107.261E-03     212.770E-03    -106.232E-03     60.5231E-03
             392     4.85589E-03     74.3315E-03    -82.3676E+06    -184.413E+06    -34.8567E+06     180.707E+03    -107.198E-03     213.617E-03    -106.419E-03     71.8704E-03    -107.600E-03     213.173E-03    -106.207E-03     70.0969E-03
             393     5.66535E-03     74.4159E-03    -74.3964E+06    -164.038E+06    -23.0754E+06     109.555E+03    -107.411E-03     213.823E-03    -106.412E-03     80.6414E-03    -107.939E-03     213.571E-03    -106.181E-03     78.5115E-03
             394     6.47485E-03     74.5092E-03    -67.2021E+06    -142.825E+06    -12.6666E+06     240.662E+03    -107.579E-03     213.977E-03    -106.397E-03     88.1512E-03    -108.254E-03     213.942E-03    -106.156E-03     85.6626E-03
             395     7.28440E-03     74.6100E-03    -60.4443E+06    -119.190E+06    -2.53990E+06     179.223E+03    -107.694E-03     214.073E-03    -106.379E-03     94.2668E-03    -108.534E-03     214.282E-03    -106.131E-03     91.4245E-03
             396     8.09390E-03     74.7164E-03    -54.0114E+06    -95.5675E+06     7.38546E+06     119.917E+03    -107.707E-03     214.068E-03    -106.360E-03     98.8066E-03    -108.718E-03     214.526E-03    -106.107E-03     95.6356E-03
             397     8.90360E-03     74.8267E-03    -47.7614E+06    -68.2935E+06     17.5866E+06     205.946E+03    -107.621E-03     213.958E-03    -106.337E-03     101.527E-03    -108.798E-03     214.672E-03    -106.080E-03     98.0779E-03
             398     9.71333E-03     74.9386E-03    -41.4638E+06    -43.3010E+06     27.4322E+06     221.167E+03    -107.470E-03     213.785E-03    -106.315E-03     101.761E-03    -108.778E-03     214.713E-03    -106.055E-03     98.1027E-03
             399     10.5230E-03     75.0491E-03    -35.4154E+06    -11.6598E+06     36.9827E+06      345.78E+03    -107.201E-03     213.486E-03    -106.285E-03     99.1423E-03    -108.597E-03     214.608E-03    -106.032E-03     95.3670E-03
             400     11.3328E-03     75.1551E-03    -29.1446E+06     17.8419E+06     46.8828E+06     554.036E+03    -106.865E-03     213.128E-03    -106.263E-03     93.3069E-03    -108.281E-03     214.368E-03    -106.012E-03     89.5034E-03
             401     12.1423E-03     75.2527E-03    -23.1056E+06     63.8303E+06     56.0451E+06     1.10018E+06    -106.446E-03     212.664E-03    -106.218E-03     84.4329E-03    -107.842E-03     214.042E-03    -105.997E-03     80.6824E-03
             402     12.9519E-03     75.3390E-03    -18.2738E+06     105.188E+06     67.6990E+06     1.50256E+06    -106.061E-03     212.259E-03    -106.198E-03     73.6198E-03    -107.395E-03     213.706E-03    -105.986E-03     69.9705E-03
             403     13.7614E-03     75.4127E-03    -14.2288E+06     108.324E+06     76.5237E+06    -221.946E+03    -105.734E-03     211.960E-03    -106.226E-03     59.5965E-03    -106.903E-03     213.241E-03    -105.979E-03     56.0831E-03
             404     14.5713E-03     75.4671E-03    -9.35409E+06     113.477E+06     86.8261E+06    -1.59664E+06    -105.243E-03     211.496E-03    -106.253E-03     45.8824E-03    -106.274E-03     212.645E-03    -105.970E-03     42.4724E-03
             405     15.3815E-03     75.5091E-03    -4.26619E+06     117.634E+06     94.1999E+06    -563.920E+03    -104.908E-03     211.163E-03    -106.255E-03     21.2216E-03    -105.649E-03     212.033E-03    -105.949E-03     18.4631E-03
             406     809.256E-06     75.2562E-03    -118.106E+06    -264.545E+06    -114.518E+06     63.0974E+03    -106.360E-03     212.590E-03    -106.230E-03     14.8285E-03    -106.412E-03     211.616E-03    -106.248E-03     14.5418E-03
             407     1.61850E-03     75.2791E-03    -113.322E+06    -255.323E+06    -100.996E+06     76.1908E+03    -106.408E-03     212.724E-03    -106.315E-03     26.9596E-03    -106.492E-03     211.792E-03    -106.286E-03     26.4243E-03
             408     2.42780E-03     75.3160E-03    -106.214E+06    -241.520E+06    -82.6526E+06     24.9914E+03    -106.560E-03     212.922E-03    -106.362E-03     39.3045E-03    -106.695E-03     212.062E-03    -106.271E-03     38.4908E-03
             409     3.23712E-03     75.3662E-03    -98.2980E+06    -223.253E+06    -65.6151E+06     101.895E+03    -106.754E-03     213.144E-03    -106.391E-03     51.0534E-03    -106.958E-03     212.398E-03    -106.252E-03     49.9407E-03
             410     4.04647E-03     75.4290E-03    -90.2282E+06    -203.927E+06    -49.8547E+06     38.9609E+03    -106.969E-03     213.376E-03    -106.407E-03     61.9604E-03    -107.262E-03     212.769E-03    -106.230E-03     60.5253E-03
             411     4.85589E-03     75.5032E-03    -82.0757E+06    -184.328E+06    -34.8598E+06    -49.3759E+03    -107.195E-03     213.612E-03    -106.417E-03     71.8781E-03    -107.596E-03     213.168E-03    -106.205E-03     70.1011E-03
             412     5.66536E-03     75.5877E-03    -74.5231E+06    -164.175E+06    -23.1243E+06     33.2637E+03    -107.414E-03     213.824E-03    -106.410E-03     80.6222E-03    -107.942E-03     213.572E-03    -106.180E-03     78.4907E-03
             413     6.47484E-03     75.6810E-03    -67.3710E+06    -142.837E+06    -12.5435E+06     2.42315E+03    -107.593E-03     213.991E-03    -106.398E-03     88.1387E-03    -108.269E-03     213.957E-03    -106.156E-03     85.6460E-03
             414     7.28437E-03     75.7818E-03    -60.5015E+06    -119.044E+06    -2.36612E+06    -49.2894E+03    -107.690E-03     214.070E-03    -106.380E-03     94.2591E-03    -108.531E-03     214.281E-03    -106.132E-03     91.4133E-03
             415     8.09400E-03     75.8882E-03    -54.1966E+06    -95.6446E+06     7.52009E+06    -158.704E+03    -107.716E-03     214.079E-03    -106.363E-03     98.7497E-03    -108.728E-03     214.537E-03    -106.108E-03     95.5729E-03
             416     8.90362E-03     75.9985E-03    -47.8054E+06    -68.3808E+06     17.6273E+06    -174.817E+03    -107.673E-03     214.015E-03    -106.341E-03     101.413E-03    -108.851E-03     214.729E-03    -106.085E-03     97.9552E-03
             417     9.71319E-03     76.1106E-03    -41.8748E+06    -43.5341E+06     27.1090E+06    -73.4191E+03    -107.550E-03     213.875E-03    -106.325E-03     101.618E-03    -108.860E-03     214.803E-03    -106.065E-03     97.9500E-03
             418     10.5228E-03     76.2210E-03    -36.1108E+06    -11.8562E+06     36.4602E+06     27.5943E+03    -107.318E-03     213.620E-03    -106.301E-03     99.0618E-03    -108.719E-03     214.744E-03    -106.050E-03     95.2745E-03
             419     11.3322E-03     76.3273E-03    -30.6725E+06     18.1124E+06     46.1205E+06    -267.881E+03    -106.980E-03     213.267E-03    -106.286E-03     93.3561E-03    -108.404E-03     214.513E-03    -106.038E-03     89.5354E-03
             420     12.1419E-03     76.4249E-03    -24.9441E+06     62.2868E+06     54.3827E+06    -167.076E+03    -106.518E-03     212.763E-03    -106.244E-03     84.7096E-03    -107.920E-03     214.139E-03    -106.027E-03     80.9409E-03
             421     12.9514E-03     76.5116E-03    -18.1464E+06     104.265E+06     66.7420E+06     773.590E+03    -105.975E-03     212.197E-03    -106.222E-03     74.0258E-03    -107.307E-03     213.641E-03    -106.013E-03     70.3722E-03
             422     13.7612E-03     76.5849E-03    -12.2980E+06     110.600E+06     78.4741E+06     1.59823E+06    -105.501E-03     211.745E-03    -106.244E-03     59.9218E-03    -106.664E-03     213.030E-03    -105.994E-03     56.4557E-03
             423     14.5707E-03     76.6395E-03    -9.13289E+06     114.102E+06     87.1770E+06     1.29167E+06    -105.165E-03     211.423E-03    -106.258E-03     46.4548E-03    -106.195E-03     212.573E-03    -105.974E-03     43.1011E-03
             424     15.3794E-03     76.6821E-03    -4.61646E+06     116.867E+06     93.1754E+06    -163.135E+03    -104.703E-03     210.951E-03    -106.248E-03     21.9615E-03    -105.446E-03     211.822E-03    -105.945E-03     19.2091E-03
             425     809.183E-06     76.4278E-03    -118.215E+06    -264.796E+06    -114.776E+06     129.581E+03    -106.421E-03     212.626E-03    -106.205E-03     14.8336E-03    -106.472E-03     211.651E-03    -106.224E-03     14.5468E-03
             426     1.61849E-03     76.4508E-03    -113.362E+06    -255.219E+06    -100.778E+06     39.0316E+03    -106.404E-03     212.734E-03    -106.330E-03     26.9562E-03    -106.488E-03     211.802E-03    -106.300E-03     26.4201E-03
             427     2.42776E-03     76.4877E-03    -106.394E+06    -241.579E+06    -82.6531E+06     19.9719E+03    -106.553E-03     212.923E-03    -106.370E-03     39.2932E-03    -106.689E-03     212.063E-03    -106.279E-03     38.4791E-03
             428     3.23709E-03     76.5380E-03    -98.3658E+06    -223.334E+06    -65.7358E+06     23.4255E+03    -106.742E-03     213.136E-03    -106.394E-03     51.0321E-03    -106.947E-03     212.389E-03    -106.256E-03     49.9181E-03
             429     4.04649E-03     76.6007E-03    -90.1068E+06    -203.765E+06    -49.6991E+06    -12.2890E+03    -106.968E-03     213.377E-03    -106.409E-03     61.9499E-03    -107.261E-03     212.771E-03    -106.231E-03     60.5138E-03
             430     4.85590E-03     76.6750E-03    -82.1235E+06    -184.360E+06    -34.8588E+06    -8.55267E+03    -107.203E-03     213.621E-03    -106.419E-03     71.8560E-03    -107.604E-03     213.178E-03    -106.207E-03     70.0791E-03
             431     5.66535E-03     76.7595E-03    -74.6555E+06    -164.278E+06    -23.1782E+06     24.6067E+03    -107.423E-03     213.836E-03    -106.413E-03     80.6099E-03    -107.952E-03     213.584E-03    -106.183E-03     78.4776E-03
             432     6.47483E-03     76.8529E-03    -67.4857E+06    -142.520E+06    -12.3405E+06    -95.7902E+03    -107.607E-03     214.010E-03    -106.403E-03     88.1255E-03    -108.284E-03     213.977E-03    -106.160E-03     85.6299E-03
             433     7.28435E-03     76.9536E-03    -60.7047E+06    -119.120E+06    -2.39490E+06    -205.162E+03    -107.717E-03     214.105E-03    -106.387E-03     94.1831E-03    -108.559E-03     214.315E-03    -106.138E-03     91.3325E-03
             434     8.09391E-03     77.0600E-03    -54.2473E+06    -95.4206E+06     7.41240E+06    -210.963E+03    -107.782E-03     214.155E-03    -106.373E-03     98.6781E-03    -108.795E-03     214.615E-03    -106.119E-03     95.4971E-03
             435     8.90336E-03     77.1705E-03    -48.3352E+06    -68.4513E+06     17.1956E+06    -245.151E+03    -107.742E-03     214.099E-03    -106.357E-03     101.343E-03    -108.922E-03     214.815E-03    -106.101E-03     97.8803E-03
             436     9.71296E-03     77.2825E-03    -42.6658E+06    -43.5692E+06     26.6318E+06    -309.200E+03    -107.593E-03     213.937E-03    -106.344E-03     101.675E-03    -108.907E-03     214.867E-03    -106.085E-03     98.0017E-03
             437     10.5225E-03     77.3933E-03    -36.8447E+06    -11.9045E+06     36.0502E+06    -454.058E+03    -107.329E-03     213.650E-03    -106.321E-03     99.2521E-03    -108.732E-03     214.776E-03    -106.070E-03     95.4600E-03
             438     11.3321E-03     77.4994E-03    -30.7258E+06     18.2307E+06     45.9450E+06    -242.647E+03    -106.937E-03     213.239E-03    -106.302E-03     93.6837E-03    -108.362E-03     214.486E-03    -106.055E-03     89.8686E-03
             439     12.1416E-03     77.5972E-03    -25.3935E+06     62.8612E+06     53.9924E+06    -797.796E+03    -106.417E-03     212.669E-03    -106.252E-03     85.2104E-03    -107.822E-03     214.050E-03    -106.037E-03     81.4419E-03
             440     12.9514E-03     77.6838E-03    -20.6363E+06     102.155E+06     64.9468E+06    -450.732E+03    -105.813E-03     212.033E-03    -106.219E-03     74.4033E-03    -107.152E-03     213.473E-03    -106.013E-03     70.7450E-03
             441     13.7613E-03     77.7569E-03    -15.5148E+06     107.121E+06     72.3451E+06     2.12542E+06    -105.209E-03     211.418E-03    -106.209E-03     60.2839E-03    -106.374E-03     212.699E-03    -105.981E-03     56.8380E-03
             442     14.5716E-03     77.8117E-03    -10.6075E+06     116.106E+06     82.9277E+06     2.64788E+06    -104.601E-03     210.799E-03    -106.198E-03     46.9448E-03    -105.636E-03     211.968E-03    -105.937E-03     43.6269E-03
             443     15.3832E-03     77.8534E-03    -5.16583E+06     119.768E+06     93.6830E+06     294.970E+03    -104.762E-03     210.960E-03    -106.198E-03     22.2970E-03    -105.513E-03     211.846E-03    -105.895E-03     19.5562E-03
             444     809.247E-06     77.5996E-03    -117.861E+06    -264.580E+06    -114.668E+06    -250.691E+03    -106.421E-03     212.653E-03    -106.232E-03     14.8006E-03    -106.471E-03     211.678E-03    -106.251E-03     14.5086E-03
             445     1.61842E-03     77.6225E-03    -113.044E+06    -255.277E+06    -101.086E+06    -121.738E+03    -106.423E-03     212.765E-03    -106.342E-03     26.9802E-03    -106.506E-03     211.833E-03    -106.313E-03     26.4418E-03
             446     2.42773E-03     77.6595E-03    -106.204E+06    -241.604E+06    -82.8502E+06     7.38723E+03    -106.555E-03     212.936E-03    -106.381E-03     39.3113E-03    -106.689E-03     212.076E-03    -106.291E-03     38.4969E-03
             447     3.23707E-03     77.7097E-03    -98.3726E+06    -223.346E+06    -65.7829E+06     21.5839E+03    -106.747E-03     213.150E-03    -106.403E-03     51.0276E-03    -106.952E-03     212.404E-03    -106.266E-03     49.9132E-03
             448     4.04644E-03     77.7725E-03    -90.1867E+06    -203.678E+06    -49.6486E+06    -44.3749E+03    -106.977E-03     213.395E-03    -106.418E-03     61.9283E-03    -107.270E-03     212.789E-03    -106.240E-03     60.4912E-03
             449     4.85585E-03     77.8468E-03    -82.1508E+06    -184.480E+06    -34.8298E+06    -15.7127E+03    -107.212E-03     213.641E-03    -106.429E-03     71.8135E-03    -107.613E-03     213.196E-03    -106.216E-03     70.0354E-03
             450     5.66530E-03     77.9313E-03    -74.3582E+06    -164.293E+06    -23.1132E+06     32.9045E+03    -107.442E-03     213.866E-03    -106.424E-03     80.5748E-03    -107.970E-03     213.613E-03    -106.193E-03     78.4411E-03
             451     6.47476E-03     78.0247E-03    -67.1660E+06    -142.262E+06    -12.3737E+06    -22.2585E+03    -107.633E-03     214.047E-03    -106.414E-03     88.0730E-03    -108.309E-03     214.015E-03    -106.172E-03     85.5772E-03
             452     7.28425E-03     78.1255E-03    -60.7709E+06    -119.058E+06    -2.46619E+06    -74.2443E+03    -107.767E-03     214.169E-03    -106.402E-03     94.1457E-03    -108.610E-03     214.380E-03    -106.154E-03     91.2946E-03
             453     8.09367E-03     78.2320E-03    -54.6633E+06    -95.5078E+06     7.23664E+06     37.6642E+03    -107.810E-03     214.200E-03    -106.390E-03     98.7240E-03    -108.825E-03     214.661E-03    -106.136E-03     95.5458E-03
             454     8.90323E-03     78.3425E-03    -48.9931E+06    -68.2567E+06     17.0823E+06     30.0844E+03    -107.734E-03     214.108E-03    -106.374E-03     101.464E-03    -108.918E-03     214.826E-03    -106.118E-03     98.0062E-03
             455     9.71275E-03     78.4545E-03    -43.2132E+06    -42.9751E+06     26.6843E+06    -367.268E+03    -107.568E-03     213.925E-03    -106.357E-03     101.896E-03    -108.886E-03     214.860E-03    -106.099E-03     98.2248E-03
             456     10.5224E-03     78.5654E-03    -37.4833E+06    -11.6533E+06     35.8604E+06    -698.782E+03    -107.245E-03     213.573E-03    -106.328E-03     99.5040E-03    -108.652E-03     214.701E-03    -106.078E-03     95.7139E-03
             457     11.3321E-03     78.6714E-03    -31.7518E+06     18.4266E+06     45.4796E+06    -1.26435E+06    -106.807E-03     213.107E-03    -106.300E-03     93.9266E-03    -108.237E-03     214.358E-03    -106.053E-03     90.1043E-03
             458     12.1420E-03     78.7694E-03    -26.0411E+06     62.3087E+06     53.3183E+06    -319.018E+03    -106.229E-03     212.467E-03    -106.238E-03     85.3761E-03    -107.635E-03     213.847E-03    -106.024E-03     81.6236E-03
             459     12.9518E-03     78.8559E-03    -22.1068E+06     100.149E+06     63.3722E+06     1.34935E+06    -105.613E-03     211.806E-03    -106.193E-03     74.5197E-03    -106.953E-03     213.239E-03    -105.989E-03     70.8973E-03
             460     13.7618E-03     78.9287E-03    -17.7937E+06     105.238E+06     69.2808E+06     950.851E+03    -105.112E-03     211.281E-03    -106.169E-03     60.0984E-03    -106.283E-03     212.562E-03    -105.949E-03     56.6305E-03
             461     14.5724E-03     78.9824E-03    -9.90969E+06     116.934E+06     83.2520E+06     453.566E+03    -104.777E-03     210.948E-03    -106.171E-03     45.8788E-03    -105.809E-03     212.119E-03    -105.910E-03     42.5076E-03
             462     15.3820E-03     79.0246E-03    -3.92589E+06     121.596E+06     95.9115E+06     638.001E+03    -105.042E-03     211.234E-03    -106.192E-03     21.3317E-03    -105.790E-03     212.122E-03    -105.883E-03     18.5762E-03
             463     809.178E-06     78.7713E-03    -117.694E+06    -264.203E+06    -114.156E+06    -17.8207E+03    -106.403E-03     212.680E-03    -106.278E-03     14.8143E-03    -106.453E-03     211.707E-03    -106.295E-03     14.5257E-03
             464     1.61846E-03     78.7943E-03    -113.034E+06    -255.284E+06    -101.122E+06    -108.645E+03    -106.437E-03     212.791E-03    -106.355E-03     26.9610E-03    -106.519E-03     211.859E-03    -106.326E-03     26.4226E-03
             465     2.42771E-03     78.8312E-03    -106.135E+06    -241.734E+06    -83.1271E+06    -49.9416E+03    -106.571E-03     212.964E-03    -106.393E-03     39.2943E-03    -106.704E-03     212.104E-03    -106.305E-03     38.4786E-03
             466     3.23703E-03     78.8815E-03    -98.1211E+06    -223.255E+06    -65.7588E+06    -54.4721E+03    -106.766E-03     213.183E-03    -106.417E-03     51.0367E-03    -106.970E-03     212.437E-03    -106.280E-03     49.9207E-03
             467     4.04636E-03     78.9443E-03    -89.9534E+06    -203.607E+06    -49.7019E+06    -83.9139E+03    -106.995E-03     213.427E-03    -106.433E-03     61.9331E-03    -107.287E-03     212.822E-03    -106.255E-03     60.4949E-03
             468     4.85577E-03     79.0186E-03    -82.1968E+06    -184.737E+06    -35.1010E+06     37.9700E+03    -107.234E-03     213.678E-03    -106.443E-03     71.8198E-03    -107.635E-03     213.233E-03    -106.232E-03     70.0417E-03
             469     5.66518E-03     79.1031E-03    -74.7628E+06    -164.211E+06    -23.3921E+06     113.235E+03    -107.467E-03     213.906E-03    -106.439E-03     80.5838E-03    -107.996E-03     213.655E-03    -106.210E-03     78.4507E-03
             470     6.47461E-03     79.1966E-03    -67.7706E+06    -142.233E+06    -12.5879E+06     113.506E+03    -107.648E-03     214.079E-03    -106.431E-03     88.0979E-03    -108.327E-03     214.049E-03    -106.189E-03     85.6039E-03
             471     7.28406E-03     79.2974E-03    -61.2975E+06    -119.122E+06    -2.44313E+06     199.944E+03    -107.758E-03     214.177E-03    -106.419E-03     94.2415E-03    -108.603E-03     214.388E-03    -106.169E-03     91.3951E-03
             472     8.09359E-03     79.4040E-03    -55.2709E+06    -95.6801E+06     7.17924E+06     290.885E+03    -107.773E-03     214.176E-03    -106.402E-03     98.8291E-03    -108.790E-03     214.636E-03    -106.148E-03     95.6564E-03
             473     8.90316E-03     79.5143E-03    -49.2877E+06    -67.9957E+06     17.1413E+06     236.045E+03    -107.687E-03     214.067E-03    -106.380E-03     101.611E-03    -108.873E-03     214.787E-03    -106.124E-03     98.1592E-03
             474     9.71283E-03     79.6266E-03    -43.6373E+06    -42.3643E+06     26.6691E+06     122.035E+03    -107.503E-03     213.860E-03    -106.357E-03     102.016E-03    -108.824E-03     214.798E-03    -106.099E-03     98.3551E-03
             475     10.5225E-03     79.7372E-03    -38.5378E+06    -11.0517E+06     35.6251E+06    -175.859E+03    -107.173E-03     213.496E-03    -106.323E-03     99.5729E-03    -108.586E-03     214.630E-03    -106.073E-03     95.7919E-03
             476     11.3323E-03     79.8435E-03    -34.2266E+06     19.6075E+06     44.8961E+06    -644.037E+03    -106.726E-03     213.015E-03    -106.289E-03     93.9071E-03    -108.169E-03     214.276E-03    -106.044E-03     90.0954E-03
             477     12.1420E-03     79.9411E-03    -30.0013E+06     59.7313E+06     51.1924E+06    -457.581E+03    -106.107E-03     212.329E-03    -106.223E-03     85.1165E-03    -107.524E-03     213.704E-03    -106.010E-03     81.3643E-03
             478     12.9523E-03     80.0275E-03    -23.0906E+06     98.2995E+06     62.3250E+06     665.662E+03    -105.514E-03     211.687E-03    -106.172E-03     74.0970E-03    -106.854E-03     213.112E-03    -105.970E-03     70.4652E-03
             479     13.7626E-03     80.1004E-03    -15.8718E+06     107.722E+06     71.9911E+06     432.772E+03    -105.320E-03     211.482E-03    -106.162E-03     59.6494E-03    -106.488E-03     212.767E-03    -105.935E-03     56.1634E-03
             480     14.5717E-03     80.1546E-03    -10.7432E+06     116.998E+06     84.4637E+06    -610.918E+03    -105.303E-03     211.489E-03    -106.186E-03     45.9413E-03    -106.343E-03     212.661E-03    -105.918E-03     42.5389E-03
             481     15.3812E-03     80.1975E-03    -5.04195E+06     120.866E+06     95.1780E+06     46.3197E+03    -104.909E-03     211.118E-03    -106.209E-03     21.8136E-03    -105.662E-03     212.007E-03    -105.901E-03     19.0483E-03
             482     809.209E-06     79.9432E-03    -117.687E+06    -264.410E+06    -114.259E+06     239.127E+03    -106.445E-03     212.713E-03    -106.268E-03     14.8155E-03    -106.496E-03     211.738E-03    -106.285E-03     14.5307E-03
             483     1.61837E-03     79.9661E-03    -113.239E+06    -255.133E+06    -100.687E+06     130.370E+03    -106.448E-03     212.821E-03    -106.373E-03     26.9649E-03    -106.533E-03     211.890E-03    -106.342E-03     26.4292E-03
             484     2.42765E-03     80.0030E-03    -106.400E+06    -241.772E+06    -83.2003E+06    -5.71204E+03    -106.594E-03     213.004E-03    -106.410E-03     39.3014E-03    -106.729E-03     212.144E-03    -106.321E-03     38.4857E-03
             485     3.23695E-03     80.0533E-03    -98.3606E+06    -223.139E+06    -65.6917E+06    -34.4305E+03    -106.779E-03     213.214E-03    -106.435E-03     51.0477E-03    -106.984E-03     212.468E-03    -106.297E-03     49.9322E-03
             486     4.04633E-03     80.1162E-03    -90.2692E+06    -203.601E+06    -49.2877E+06     12.9932E+03    -107.003E-03     213.454E-03    -106.451E-03     61.9459E-03    -107.297E-03     212.848E-03    -106.272E-03     60.5093E-03
             487     4.85568E-03     80.1904E-03    -82.1551E+06    -185.020E+06    -34.8997E+06     120.351E+03    -107.252E-03     213.712E-03    -106.460E-03     71.8607E-03    -107.653E-03     213.266E-03    -106.247E-03     70.0839E-03
             488     5.66509E-03     80.2751E-03    -74.6588E+06    -164.325E+06    -23.1569E+06     303.809E+03    -107.471E-03     213.926E-03    -106.455E-03     80.6487E-03    -108.000E-03     213.674E-03    -106.224E-03     78.5186E-03
             489     6.47452E-03     80.3685E-03    -67.8903E+06    -142.349E+06    -12.3993E+06     442.391E+03    -107.629E-03     214.073E-03    -106.444E-03     88.1910E-03    -108.309E-03     214.042E-03    -106.201E-03     85.7021E-03
             490     7.28405E-03     80.4694E-03    -61.5179E+06    -119.407E+06    -2.34249E+06     600.131E+03    -107.715E-03     214.141E-03    -106.426E-03     94.3430E-03    -108.561E-03     214.351E-03    -106.175E-03     91.5040E-03
             491     8.09361E-03     80.5759E-03    -55.3338E+06    -95.4886E+06     7.37087E+06     538.300E+03    -107.735E-03     214.139E-03    -106.404E-03     98.9168E-03    -108.754E-03     214.601E-03    -106.149E-03     95.7489E-03
             492     8.90321E-03     80.6864E-03    -49.0931E+06    -67.9528E+06     17.2251E+06     429.338E+03    -107.658E-03     214.035E-03    -106.377E-03     101.675E-03    -108.843E-03     214.755E-03    -106.122E-03     98.2257E-03
             493     9.71285E-03     80.7984E-03    -43.4453E+06    -42.6367E+06     26.6006E+06     657.497E+03    -107.472E-03     213.823E-03    -106.352E-03     102.014E-03    -108.791E-03     214.760E-03    -106.094E-03     98.3602E-03
             494     10.5226E-03     80.9092E-03    -38.1771E+06    -10.6592E+06     35.7447E+06     935.153E+03    -107.158E-03     213.474E-03    -106.316E-03     99.5113E-03    -108.570E-03     214.609E-03    -106.066E-03     95.7445E-03
             495     11.3323E-03     81.0153E-03    -33.3366E+06     19.2506E+06     44.9575E+06     1.65350E+06    -106.712E-03     212.994E-03    -106.282E-03     93.7574E-03    -108.150E-03     214.252E-03    -106.037E-03     89.9756E-03
             496     12.1423E-03     81.1130E-03    -29.0887E+06     61.3237E+06     52.0916E+06     816.088E+03    -106.167E-03     212.386E-03    -106.219E-03     84.8700E-03    -107.583E-03     213.766E-03    -106.005E-03     81.1310E-03
             497     12.9520E-03     81.1990E-03    -23.6895E+06     99.2210E+06     62.4787E+06    -1.94762E+06    -105.679E-03     211.855E-03    -106.176E-03     73.8701E-03    -107.023E-03     213.286E-03    -105.973E-03     70.1949E-03
             498     13.7618E-03     81.2724E-03    -16.3182E+06     106.975E+06     71.7060E+06    -1.76913E+06    -105.384E-03     211.556E-03    -106.173E-03     59.7452E-03    -106.551E-03     212.838E-03    -105.946E-03     56.2332E-03
             499     14.5718E-03     81.3273E-03    -10.5635E+06     117.319E+06     84.3206E+06    -284.239E+03    -104.997E-03     211.185E-03    -106.187E-03     46.2604E-03    -106.035E-03     212.357E-03    -105.921E-03     42.8790E-03
             500     15.3817E-03     81.3695E-03    -5.88675E+06     120.190E+06     94.1848E+06    -239.084E+03    -104.899E-03     211.100E-03    -106.201E-03     21.7341E-03    -105.655E-03     211.988E-03    -105.895E-03     18.9714E-03
             501     809.147E-06     81.1149E-03    -118.024E+06    -264.908E+06    -114.743E+06     38.6848E+03    -106.433E-03     212.719E-03    -106.286E-03     14.8102E-03    -106.483E-03     211.743E-03    -106.305E-03     14.5226E-03
             502     1.61842E-03     81.1380E-03    -113.191E+06    -255.462E+06    -101.108E+06     361.853E+03    -106.472E-03     212.851E-03    -106.378E-03     26.9946E-03    -106.555E-03     211.918E-03    -106.349E-03     26.4619E-03
             503     2.42763E-03     81.1748E-03    -106.299E+06    -241.405E+06    -82.8809E+06     290.091E+03    -106.615E-03     213.038E-03    -106.423E-03     39.3310E-03    -106.750E-03     212.179E-03    -106.333E-03     38.5194E-03
             504     3.23690E-03     81.2252E-03    -98.3691E+06    -222.962E+06    -65.5925E+06    -14.4049E+03    -106.796E-03     213.245E-03    -106.449E-03     51.0736E-03    -107.002E-03     212.500E-03    -106.311E-03     49.9584E-03
             505     4.04622E-03     81.2880E-03    -90.2917E+06    -203.866E+06    -49.4175E+06     30.6594E+03    -107.010E-03     213.474E-03    -106.464E-03     61.9878E-03    -107.304E-03     212.867E-03    -106.285E-03     60.5517E-03
             506     4.85563E-03     81.3624E-03    -82.4772E+06    -185.396E+06    -34.6994E+06     370.294E+03    -107.238E-03     213.711E-03    -106.473E-03     71.9181E-03    -107.640E-03     213.262E-03    -106.258E-03     70.1452E-03
             507     5.66504E-03     81.4469E-03    -75.1169E+06    -164.587E+06    -22.9420E+06     545.376E+03    -107.439E-03     213.902E-03    -106.463E-03     80.7171E-03    -107.970E-03     213.649E-03    -106.230E-03     78.5911E-03
             508     6.47454E-03     81.5404E-03    -68.1168E+06    -142.528E+06    -12.3770E+06     596.220E+03    -107.597E-03     214.042E-03    -106.445E-03     88.2637E-03    -108.278E-03     214.011E-03    -106.201E-03     85.7779E-03
             509     7.28406E-03     81.6412E-03    -61.1575E+06    -119.571E+06    -2.30208E+06     574.928E+03    -107.701E-03     214.124E-03    -106.423E-03     94.3848E-03    -108.545E-03     214.334E-03    -106.173E-03     91.5455E-03
             510     8.09366E-03     81.7478E-03    -54.4503E+06    -95.5086E+06     7.58406E+06     618.535E+03    -107.730E-03     214.130E-03    -106.400E-03     98.9361E-03    -108.744E-03     214.590E-03    -106.145E-03     95.7686E-03
             511     8.90326E-03     81.8582E-03    -48.4149E+06    -68.1034E+06     17.4257E+06     787.716E+03    -107.661E-03     214.035E-03    -106.374E-03     101.641E-03    -108.844E-03     214.754E-03    -106.118E-03     98.1949E-03
             512     9.71295E-03     81.9703E-03    -42.2938E+06    -43.0734E+06     27.0449E+06     962.086E+03    -107.497E-03     213.848E-03    -106.351E-03     101.953E-03    -108.812E-03     214.781E-03    -106.092E-03     98.3003E-03
             513     10.5226E-03     82.0811E-03    -36.3570E+06    -11.2866E+06     36.4031E+06     1.33615E+06    -107.171E-03     213.487E-03    -106.316E-03     99.4038E-03    -108.574E-03     214.616E-03    -106.065E-03     95.6402E-03
             514     11.3324E-03     82.1873E-03    -30.2612E+06     17.8508E+06     46.2247E+06     1.84623E+06    -106.753E-03     213.039E-03    -106.287E-03     93.6126E-03    -108.175E-03     214.283E-03    -106.037E-03     89.8309E-03
             515     12.1421E-03     82.2848E-03    -23.5617E+06     63.9433E+06     55.4210E+06     1.71890E+06    -106.283E-03     212.512E-03    -106.229E-03     84.7873E-03    -107.681E-03     213.892E-03    -106.010E-03     81.0552E-03
             516     12.9520E-03     82.3713E-03    -19.2941E+06     103.815E+06     66.8090E+06    -162.360E+03    -105.871E-03     212.069E-03    -106.198E-03     73.9003E-03    -107.207E-03     213.512E-03    -105.987E-03     70.2402E-03
             517     13.7618E-03     82.4442E-03    -16.8618E+06     105.560E+06     71.4235E+06    -2.20037E+06    -105.358E-03     211.549E-03    -106.192E-03     59.5989E-03    -106.527E-03     212.826E-03    -105.963E-03     56.0762E-03
             518     14.5717E-03     82.4991E-03    -11.5447E+06     115.655E+06     82.5180E+06    -1.97785E+06    -104.816E-03     211.010E-03    -106.194E-03     45.5769E-03    -105.852E-03     212.177E-03    -105.932E-03     42.1690E-03
             519     15.3827E-03     82.5402E-03    -5.74630E+06     120.289E+06     94.0669E+06    -355.807E+03    -105.041E-03     211.251E-03    -106.210E-03     21.3763E-03    -105.793E-03     212.137E-03    -105.906E-03     18.6115E-03
             520     809.259E-06     82.2868E-03    -118.316E+06    -265.064E+06    -115.030E+06     39.5342E+03    -106.413E-03     212.732E-03    -106.319E-03     14.8529E-03    -106.464E-03     211.756E-03    -106.338E-03     14.5653E-03
             521     1.61835E-03     82.3097E-03    -113.672E+06    -256.047E+06    -101.756E+06     154.153E+03    -106.483E-03     212.868E-03    -106.385E-03     26.9888E-03    -106.567E-03     211.934E-03    -106.358E-03     26.4536E-03
             522     2.42761E-03     82.3468E-03    -106.878E+06    -241.154E+06    -84.7749E+06     201.976E+03    -106.615E-03     213.036E-03    -106.422E-03     39.3472E-03    -106.750E-03     212.182E-03    -106.341E-03     38.5348E-03
             523     3.23689E-03     82.3970E-03    -99.2497E+06    -222.574E+06    -67.1835E+06    -52.0366E+03    -106.796E-03     213.244E-03    -106.448E-03     51.1116E-03    -107.004E-03     212.504E-03    -106.317E-03     49.9958E-03
             524     4.04623E-03     82.4599E-03    -91.1285E+06    -204.552E+06    -49.7343E+06     160.461E+03    -107.006E-03     213.476E-03    -106.470E-03     62.0372E-03    -107.304E-03     212.868E-03    -106.290E-03     60.6026E-03
             525     4.85560E-03     82.5342E-03    -83.0280E+06    -185.759E+06    -34.7724E+06     456.204E+03    -107.212E-03     213.687E-03    -106.475E-03     71.9616E-03    -107.616E-03     213.238E-03    -106.259E-03     70.1900E-03
             526     5.66509E-03     82.6188E-03    -75.1532E+06    -164.720E+06    -22.8828E+06     449.792E+03    -107.410E-03     213.871E-03    -106.461E-03     80.7549E-03    -107.942E-03     213.617E-03    -106.227E-03     78.6279E-03
             527     6.47459E-03     82.7122E-03    -67.5102E+06    -142.620E+06    -12.1829E+06     386.183E+03    -107.592E-03     214.033E-03    -106.440E-03     88.2864E-03    -108.270E-03     214.000E-03    -106.197E-03     85.7974E-03
             528     7.28414E-03     82.8131E-03    -60.3616E+06    -119.621E+06    -2.11702E+06     378.156E+03    -107.718E-03     214.137E-03    -106.419E-03     94.3873E-03    -108.559E-03     214.345E-03    -106.169E-03     91.5439E-03
             529     8.09365E-03     82.9196E-03    -53.9188E+06    -95.7755E+06     7.77010E+06     477.537E+03    -107.756E-03     214.155E-03    -106.399E-03     98.9119E-03    -108.769E-03     214.614E-03    -106.143E-03     95.7401E-03
             530     8.90327E-03     83.0301E-03    -47.6381E+06    -68.5676E+06     17.8144E+06     721.482E+03    -107.694E-03     214.071E-03    -106.377E-03     101.602E-03    -108.873E-03     214.786E-03    -106.119E-03     98.1527E-03
             531     9.71283E-03     83.1423E-03    -41.4460E+06    -43.2439E+06     27.5854E+06     856.245E+03    -107.526E-03     213.882E-03    -106.356E-03     101.905E-03    -108.837E-03     214.813E-03    -106.095E-03     98.2490E-03
             532     10.5225E-03     83.2531E-03    -35.4441E+06    -11.9862E+06     37.0517E+06     879.679E+03    -107.212E-03     213.537E-03    -106.325E-03     99.3205E-03    -108.611E-03     214.660E-03    -106.071E-03     95.5480E-03
             533     11.3322E-03     83.3590E-03    -29.1590E+06     17.9016E+06     47.2231E+06     423.324E+03    -106.810E-03     213.109E-03    -106.299E-03     93.5708E-03    -108.229E-03     214.351E-03    -106.046E-03     89.7667E-03
             534     12.1420E-03     83.4570E-03    -23.1518E+06     63.3489E+06     56.0728E+06     489.500E+03    -106.326E-03     212.570E-03    -106.244E-03     84.8453E-03    -107.722E-03     213.946E-03    -106.022E-03     81.0942E-03
             535     12.9517E-03     83.5432E-03    -17.4609E+06     104.802E+06     68.2252E+06     1.86940E+06    -105.821E-03     212.032E-03    -106.211E-03     74.0768E-03    -107.151E-03     213.475E-03    -105.997E-03     70.4479E-03
             536     13.7612E-03     83.6170E-03    -12.8265E+06     109.967E+06     77.3049E+06     512.763E+03    -105.424E-03     211.642E-03    -106.218E-03     59.6386E-03    -106.588E-03     212.927E-03    -105.973E-03     56.1524E-03
             537     14.5713E-03     83.6696E-03    -8.73202E+06     114.488E+06     86.3906E+06    -1.18714E+06    -105.169E-03     211.399E-03    -106.231E-03     45.8988E-03    -106.197E-03     212.552E-03    -105.952E-03     42.4975E-03
             538     15.3799E-03     83.7140E-03    -4.37574E+06     117.808E+06     93.9791E+06    -422.334E+03    -104.880E-03     211.114E-03    -106.234E-03     21.8195E-03    -105.623E-03     211.988E-03    -105.929E-03     19.0623E-03
             539     809.091E-06     83.4586E-03    -118.408E+06    -265.158E+06    -115.204E+06    -19.0957E+03    -106.456E-03     212.769E-03    -106.313E-03     14.8831E-03    -106.507E-03     211.793E-03    -106.332E-03     14.5946E-03
             540     1.61838E-03     83.4817E-03    -113.722E+06    -256.093E+06    -101.806E+06    -48.5947E+03    -106.475E-03     212.873E-03    -106.398E-03     27.0008E-03    -106.559E-03     211.939E-03    -106.371E-03     26.4628E-03
             541     2.42759E-03     83.5185E-03    -106.879E+06    -241.220E+06    -84.9410E+06    -74.1743E+03    -106.605E-03     213.031E-03    -106.427E-03     39.3560E-03    -106.740E-03     212.177E-03    -106.347E-03     38.5398E-03
             542     3.23690E-03     83.5689E-03    -99.2442E+06    -222.567E+06    -67.2780E+06     180.073E+03    -106.778E-03     213.225E-03    -106.448E-03     51.1211E-03    -106.986E-03     212.486E-03    -106.317E-03     50.0082E-03
             543     4.04623E-03     83.6317E-03    -91.2109E+06    -204.782E+06    -49.6405E+06     93.0454E+03    -106.985E-03     213.452E-03    -106.467E-03     62.0538E-03    -107.282E-03     212.842E-03    -106.286E-03     60.6181E-03
             544     4.85566E-03     83.7061E-03    -82.6998E+06    -186.004E+06    -34.7644E+06     18.6137E+03    -107.206E-03     213.675E-03    -106.469E-03     71.9774E-03    -107.608E-03     213.224E-03    -106.254E-03     70.1995E-03
             545     5.66511E-03     83.7905E-03    -74.5857E+06    -164.746E+06    -22.8829E+06     59.3722E+03    -107.425E-03     213.880E-03    -106.455E-03     80.7633E-03    -107.954E-03     213.626E-03    -106.222E-03     78.6299E-03
             546     6.47462E-03     83.8841E-03    -67.1073E+06    -142.700E+06    -12.1148E+06     126.332E+03    -107.615E-03     214.053E-03    -106.438E-03     88.2664E-03    -108.292E-03     214.020E-03    -106.194E-03     85.7724E-03
             547     7.28410E-03     83.9849E-03    -60.2784E+06    -119.791E+06    -2.02156E+06     241.713E+03    -107.734E-03     214.155E-03    -106.420E-03     94.3515E-03    -108.575E-03     214.362E-03    -106.169E-03     91.5051E-03
             548     8.09367E-03     84.0916E-03    -53.7693E+06    -95.8951E+06     8.03439E+06     240.287E+03    -107.780E-03     214.183E-03    -106.403E-03     98.9027E-03    -108.792E-03     214.641E-03    -106.146E-03     95.7261E-03
             549     8.90317E-03     84.2020E-03    -47.3541E+06    -68.9424E+06     18.1026E+06     200.081E+03    -107.722E-03     214.105E-03    -106.383E-03     101.619E-03    -108.900E-03     214.818E-03    -106.124E-03     98.1602E-03
             550     9.71282E-03     84.3143E-03    -41.3746E+06    -43.5705E+06     27.7683E+06     340.651E+03    -107.541E-03     213.904E-03    -106.363E-03     101.924E-03    -108.852E-03     214.833E-03    -106.101E-03     98.2597E-03
             551     10.5224E-03     84.4250E-03    -35.4708E+06    -11.8605E+06     37.3395E+06     166.770E+03    -107.244E-03     213.577E-03    -106.334E-03     99.4009E-03    -108.644E-03     214.701E-03    -106.078E-03     95.6177E-03
             552     11.3321E-03     84.5313E-03    -29.8532E+06     18.1779E+06     47.0923E+06     206.975E+03    -106.845E-03     213.153E-03    -106.308E-03     93.6867E-03    -108.268E-03     214.398E-03    -106.055E-03     89.8782E-03
             553     12.1418E-03     84.6288E-03    -25.0119E+06     62.7370E+06     55.0841E+06     336.004E+03    -106.286E-03     212.537E-03    -106.251E-03     85.0225E-03    -107.690E-03     213.915E-03    -106.030E-03     81.2719E-03
             554     12.9516E-03     84.7156E-03    -19.2597E+06     103.394E+06     66.6325E+06    -181.116E+03    -105.672E-03     211.882E-03    -106.210E-03     74.1823E-03    -107.008E-03     213.323E-03    -105.999E-03     70.5322E-03
             555     13.7622E-03     84.7883E-03    -12.2241E+06     110.802E+06     77.9389E+06     1.31181E+06    -105.414E-03     211.630E-03    -106.216E-03     59.9628E-03    -106.577E-03     212.917E-03    -105.969E-03     56.4949E-03
             556     14.5712E-03     84.8436E-03    -7.76418E+06     115.703E+06     87.8405E+06     2.05066E+06    -105.193E-03     211.424E-03    -106.231E-03     46.2755E-03    -106.221E-03     212.581E-03    -105.948E-03     42.9213E-03
             557     15.3821E-03     84.8847E-03    -4.49252E+06     117.790E+06     93.9616E+06     512.505E+03    -104.947E-03     211.180E-03    -106.233E-03     21.9465E-03    -105.692E-03     212.055E-03    -105.928E-03     19.2012E-03
             558     809.212E-06     84.6306E-03    -118.183E+06    -265.059E+06    -115.008E+06    -187.582E+03    -106.464E-03     212.779E-03    -106.315E-03     14.8787E-03    -106.515E-03     211.803E-03    -106.334E-03     14.5881E-03
             559     1.61832E-03     84.6535E-03    -113.381E+06    -255.736E+06    -101.520E+06    -249.962E+03    -106.472E-03     212.873E-03    -106.401E-03     27.0207E-03    -106.555E-03     211.940E-03    -106.374E-03     26.4798E-03
             560     2.42759E-03     84.6905E-03    -106.603E+06    -241.506E+06    -83.3185E+06    -142.273E+03    -106.596E-03     213.030E-03    -106.434E-03     39.3714E-03    -106.732E-03     212.172E-03    -106.346E-03     38.5538E-03
             561     3.23688E-03     84.7407E-03    -98.6021E+06    -222.905E+06    -65.8262E+06     64.8674E+03    -106.763E-03     213.214E-03    -106.451E-03     51.1294E-03    -106.970E-03     212.470E-03    -106.314E-03     50.0149E-03
             562     4.04629E-03     84.8036E-03    -90.2540E+06    -204.425E+06    -49.4975E+06     38.0308E+03    -106.976E-03     213.436E-03    -106.460E-03     62.0445E-03    -107.270E-03     212.827E-03    -106.280E-03     60.6079E-03
             563     4.85570E-03     84.8778E-03    -82.2820E+06    -185.984E+06    -34.8709E+06    -120.157E+03    -107.222E-03     213.685E-03    -106.463E-03     71.9513E-03    -107.622E-03     213.234E-03    -106.249E-03     70.1707E-03
             564     5.66514E-03     84.9625E-03    -74.4717E+06    -164.764E+06    -22.9099E+06    -132.024E+03    -107.459E-03     213.913E-03    -106.454E-03     80.7475E-03    -107.987E-03     213.659E-03    -106.222E-03     78.6104E-03
             565     6.47456E-03     85.0559E-03    -67.2410E+06    -142.804E+06    -12.1166E+06    -123.871E+03    -107.639E-03     214.081E-03    -106.442E-03     88.2566E-03    -108.316E-03     214.047E-03    -106.198E-03     85.7580E-03
             566     7.28407E-03     85.1569E-03    -60.4492E+06    -119.990E+06    -2.05190E+06    -115.643E+03    -107.746E-03     214.172E-03    -106.426E-03     94.3556E-03    -108.587E-03     214.378E-03    -106.174E-03     91.5033E-03
             567     8.09358E-03     85.2634E-03    -53.9389E+06    -95.9737E+06     7.97273E+06    -42.9764E+03    -107.786E-03     214.194E-03    -106.409E-03     98.9356E-03    -108.799E-03     214.652E-03    -106.151E-03     95.7550E-03
             568     8.90318E-03     85.3742E-03    -47.9171E+06    -68.8902E+06     17.9129E+06    -42.1386E+03    -107.721E-03     214.108E-03    -106.388E-03     101.637E-03    -108.902E-03     214.823E-03    -106.129E-03     98.1757E-03
             569     9.71272E-03     85.4862E-03    -41.8801E+06    -43.8392E+06     27.4362E+06    -76.2171E+03    -107.545E-03     213.913E-03    -106.368E-03     101.953E-03    -108.859E-03     214.842E-03    -106.106E-03     98.2834E-03
             570     10.5224E-03     85.5971E-03    -36.3470E+06    -11.6925E+06     36.9429E+06     60.6008E+03    -107.234E-03     213.571E-03    -106.337E-03     99.4591E-03    -108.639E-03     214.698E-03    -106.083E-03     95.6749E-03
             571     11.3321E-03     85.7032E-03    -30.8913E+06     17.4874E+06     46.2858E+06     436.560E+03    -106.831E-03     213.140E-03    -106.310E-03     93.7507E-03    -108.258E-03     214.385E-03    -106.059E-03     89.9452E-03
             572     12.1418E-03     85.8011E-03    -24.7902E+06     63.5276E+06     55.0284E+06     234.346E+03    -106.265E-03     212.516E-03    -106.251E-03     84.9802E-03    -107.669E-03     213.898E-03    -106.032E-03     81.2259E-03
             573     12.9519E-03     85.8871E-03    -20.0713E+06     103.652E+06     66.3157E+06     47.1703E+03    -105.717E-03     211.929E-03    -106.212E-03     73.9713E-03    -107.057E-03     213.374E-03    -106.002E-03     70.3176E-03
             574     13.7612E-03     85.9606E-03    -16.2019E+06     106.579E+06     72.2942E+06     1.08293E+06    -105.303E-03     211.504E-03    -106.201E-03     59.8315E-03    -106.472E-03     212.785E-03    -105.971E-03     56.3566E-03
             575     14.5719E-03     86.0154E-03    -11.0863E+06     116.226E+06     83.2776E+06     1.74318E+06    -104.948E-03     211.153E-03    -106.205E-03     45.9058E-03    -105.986E-03     212.322E-03    -105.941E-03     42.5484E-03
             576     15.3808E-03     86.0567E-03    -5.42391E+06     120.846E+06     94.0672E+06     1.33003E+06    -104.935E-03     211.153E-03    -106.218E-03     21.8553E-03    -105.689E-03     212.043E-03    -105.915E-03     19.1152E-03
             577     809.112E-06     85.8023E-03    -118.516E+06    -264.351E+06    -115.030E+06    -355.120E+03    -106.467E-03     212.756E-03    -106.290E-03     14.8830E-03    -106.520E-03     211.784E-03    -106.310E-03     14.5900E-03
             578     1.61839E-03     85.8254E-03    -113.687E+06    -255.519E+06    -101.288E+06    -430.442E+03    -106.464E-03     212.858E-03    -106.394E-03     27.0258E-03    -106.549E-03     211.926E-03    -106.365E-03     26.4824E-03
             579     2.42761E-03     85.8622E-03    -106.648E+06    -241.733E+06    -83.4983E+06    -246.758E+03    -106.592E-03     213.018E-03    -106.426E-03     39.3731E-03    -106.727E-03     212.159E-03    -106.339E-03     38.5542E-03
             580     3.23695E-03     85.9126E-03    -98.6282E+06    -223.134E+06    -65.9539E+06    -64.7515E+03    -106.768E-03     213.214E-03    -106.445E-03     51.1121E-03    -106.975E-03     212.469E-03    -106.308E-03     49.9957E-03
             581     4.04628E-03     85.9753E-03    -90.3798E+06    -204.234E+06    -49.5038E+06    -10.7971E+03    -106.996E-03     213.454E-03    -106.458E-03     62.0239E-03    -107.290E-03     212.846E-03    -106.278E-03     60.5860E-03
             582     4.85567E-03     86.0498E-03    -82.2047E+06    -185.737E+06    -34.8825E+06    -134.008E+03    -107.248E-03     213.714E-03    -106.466E-03     71.9360E-03    -107.649E-03     213.264E-03    -106.251E-03     70.1541E-03
             583     5.66508E-03     86.1343E-03    -74.6158E+06    -164.728E+06    -23.0399E+06    -265.917E+03    -107.469E-03     213.928E-03    -106.459E-03     80.7405E-03    -107.998E-03     213.674E-03    -106.227E-03     78.6011E-03
             584     6.47454E-03     86.2280E-03    -67.4074E+06    -142.772E+06    -12.2925E+06    -311.086E+03    -107.642E-03     214.088E-03    -106.446E-03     88.2738E-03    -108.320E-03     214.056E-03    -106.203E-03     85.7726E-03
             585     7.28402E-03     86.3287E-03    -60.6922E+06    -120.101E+06    -2.29326E+06    -250.380E+03    -107.762E-03     214.192E-03    -106.431E-03     94.3807E-03    -108.604E-03     214.400E-03    -106.180E-03     91.5256E-03
             586     8.09356E-03     86.4355E-03    -54.5055E+06    -96.2175E+06     7.51806E+06    -49.3790E+03    -107.791E-03     214.205E-03    -106.414E-03     98.9457E-03    -108.806E-03     214.663E-03    -106.158E-03     95.7648E-03
             587     8.90308E-03     86.5460E-03    -48.6428E+06    -68.8174E+06     17.4567E+06     56.1734E+03    -107.718E-03     214.110E-03    -106.392E-03     101.640E-03    -108.902E-03     214.827E-03    -106.135E-03     98.1791E-03
             588     9.71275E-03     86.6583E-03    -43.0137E+06    -43.7559E+06     26.8026E+06     16.7393E+03    -107.549E-03     213.921E-03    -106.372E-03     101.924E-03    -108.867E-03     214.853E-03    -106.112E-03     98.2535E-03
             589     10.5223E-03     86.7690E-03    -37.2665E+06    -12.1249E+06     36.0721E+06     191.314E+03    -107.230E-03     213.571E-03    -106.341E-03     99.4053E-03    -108.637E-03     214.698E-03    -106.089E-03     95.6214E-03
             590     11.3320E-03     86.8753E-03    -31.5549E+06     17.8131E+06     45.5973E+06    -169.499E+03    -106.809E-03     213.121E-03    -106.312E-03     93.6806E-03    -108.239E-03     214.370E-03    -106.064E-03     89.8661E-03
             591     12.1418E-03     86.9729E-03    -26.2653E+06     63.0314E+06     53.5326E+06     67.1330E+03    -106.295E-03     212.547E-03    -106.252E-03     84.8545E-03    -107.704E-03     213.931E-03    -106.038E-03     81.0945E-03
             592     12.9514E-03     87.0594E-03    -21.3830E+06     102.318E+06     64.5596E+06     1.62005E+06    -105.794E-03     212.010E-03    -106.216E-03     73.9618E-03    -107.136E-03     213.452E-03    -106.011E-03     70.3269E-03
             593     13.7617E-03     87.1325E-03    -16.9354E+06     106.196E+06     70.3898E+06     1.72710E+06    -105.284E-03     211.488E-03    -106.204E-03     59.6236E-03    -106.453E-03     212.770E-03    -105.981E-03     56.1558E-03
             594     14.5713E-03     87.1867E-03    -11.3098E+06     116.166E+06     81.7925E+06     905.317E+03    -104.848E-03     211.053E-03    -106.205E-03     45.8499E-03    -105.883E-03     212.223E-03    -105.948E-03     42.4856E-03
             595     15.3822E-03     87.2294E-03    -5.09313E+06     121.899E+06     94.6245E+06     675.693E+03    -104.805E-03     211.024E-03    -106.219E-03     21.5373E-03    -105.558E-03     211.917E-03    -105.915E-03     18.7877E-03
             596     809.226E-06     86.9743E-03    -118.462E+06    -263.159E+06    -114.872E+06    -566.714E+03    -106.473E-03     212.731E-03    -106.259E-03     14.8558E-03    -106.528E-03     211.765E-03    -106.280E-03     14.5594E-03
             597     1.61837E-03     86.9972E-03    -113.608E+06    -255.464E+06    -101.349E+06    -421.239E+03    -106.461E-03     212.845E-03    -106.384E-03     27.0020E-03    -106.546E-03     211.914E-03    -106.355E-03     26.4591E-03
             598     2.42765E-03     87.0342E-03    -106.718E+06    -241.884E+06    -83.5714E+06    -219.691E+03    -106.598E-03     213.019E-03    -106.421E-03     39.3461E-03    -106.734E-03     212.159E-03    -106.333E-03     38.5275E-03
             599     3.23692E-03     87.0843E-03    -98.7566E+06    -223.293E+06    -66.0319E+06    -101.627E+03    -106.792E-03     213.237E-03    -106.445E-03     51.0883E-03    -106.999E-03     212.492E-03    -106.308E-03     49.9707E-03
             600     4.04628E-03     87.1473E-03    -90.5570E+06    -204.030E+06    -49.6887E+06    -138.038E+03    -107.022E-03     213.484E-03    -106.462E-03     62.0123E-03    -107.317E-03     212.878E-03    -106.283E-03     60.5719E-03
             601     4.85563E-03     87.2216E-03    -82.5119E+06    -185.476E+06    -35.1340E+06    -315.967E+03    -107.261E-03     213.733E-03    -106.472E-03     71.9480E-03    -107.663E-03     213.286E-03    -106.259E-03     70.1633E-03
             602     5.66504E-03     87.3063E-03    -74.6751E+06    -164.618E+06    -23.3124E+06    -386.889E+03    -107.474E-03     213.940E-03    -106.466E-03     80.7328E-03    -108.004E-03     213.687E-03    -106.235E-03     78.5913E-03
             603     6.47451E-03     87.3997E-03    -67.6354E+06    -142.867E+06    -12.6859E+06    -263.924E+03    -107.652E-03     214.105E-03    -106.453E-03     88.2561E-03    -108.330E-03     214.073E-03    -106.211E-03     85.7545E-03
             604     7.28400E-03     87.5009E-03    -61.2212E+06    -120.273E+06    -2.75873E+06    -51.8187E+03    -107.776E-03     214.215E-03    -106.438E-03     94.3498E-03    -108.621E-03     214.423E-03    -106.189E-03     91.4962E-03
             605     8.09345E-03     87.6073E-03    -55.0225E+06    -96.4024E+06     7.02460E+06     120.513E+03    -107.803E-03     214.225E-03    -106.422E-03     98.8834E-03    -108.820E-03     214.684E-03    -106.167E-03     95.7029E-03
             606     8.90306E-03     87.7181E-03    -48.9541E+06    -68.9136E+06     16.9928E+06     237.602E+03    -107.722E-03     214.122E-03    -106.401E-03     101.601E-03    -108.907E-03     214.840E-03    -106.145E-03     98.1413E-03
             607     9.71256E-03     87.8302E-03    -43.1277E+06    -43.6865E+06     26.4571E+06     268.625E+03    -107.547E-03     213.926E-03    -106.380E-03     101.895E-03    -108.865E-03     214.860E-03    -106.122E-03     98.2278E-03
             608     10.5222E-03     87.9411E-03    -37.3983E+06    -12.1541E+06     35.6222E+06     108.492E+03    -107.232E-03     213.579E-03    -106.348E-03     99.3950E-03    -108.639E-03     214.708E-03    -106.098E-03     95.6100E-03
             609     11.3319E-03     88.0472E-03    -32.3969E+06     18.1961E+06     45.1485E+06     234.509E+03    -106.798E-03     213.116E-03    -106.318E-03     93.6939E-03    -108.231E-03     214.368E-03    -106.072E-03     89.8870E-03
             610     12.1416E-03     88.1451E-03    -28.1348E+06     61.6014E+06     52.4940E+06     770.767E+03    -106.249E-03     212.507E-03    -106.257E-03     84.9831E-03    -107.664E-03     213.888E-03    -106.043E-03     81.2381E-03
             611     12.9516E-03     88.2313E-03    -22.3896E+06     100.764E+06     63.6974E+06     1.24620E+06    -105.740E-03     211.958E-03    -106.217E-03     74.2261E-03    -107.083E-03     213.394E-03    -106.013E-03     70.5933E-03
             612     13.7610E-03     88.3047E-03    -15.5183E+06     107.822E+06     71.8311E+06     1.03038E+06    -105.352E-03     211.561E-03    -106.208E-03     59.7520E-03    -106.520E-03     212.847E-03    -105.983E-03     56.2705E-03
             613     14.5714E-03     88.3583E-03    -10.3148E+06     117.112E+06     83.5240E+06     558.838E+03    -104.981E-03     211.198E-03    -106.218E-03     45.9848E-03    -106.017E-03     212.371E-03    -105.955E-03     42.6058E-03
             614     15.3808E-03     88.4010E-03    -5.37999E+06     121.676E+06     95.0326E+06     378.792E+03    -104.904E-03     211.139E-03    -106.234E-03     21.5810E-03    -105.660E-03     212.031E-03    -105.928E-03     18.8286E-03
             615     809.150E-06     88.1460E-03    -118.910E+06    -262.084E+06    -115.013E+06    -394.061E+03    -106.437E-03     212.720E-03    -106.282E-03     14.8403E-03    -106.496E-03     211.759E-03    -106.305E-03     14.5462E-03
             616     1.61840E-03     88.1691E-03    -114.032E+06    -255.617E+06    -101.187E+06    -224.849E+03    -106.471E-03     212.856E-03    -106.385E-03     26.9745E-03    -106.557E-03     211.924E-03    -106.355E-03     26.4340E-03
             617     2.42763E-03     88.2059E-03    -107.088E+06    -241.851E+06    -83.3924E+06    -135.442E+03    -106.613E-03     213.040E-03    -106.427E-03     39.3259E-03    -106.751E-03     212.181E-03    -106.338E-03     38.5081E-03
             618     3.23692E-03     88.2563E-03    -98.9182E+06    -223.183E+06    -65.9085E+06    -207.757E+03    -106.811E-03     213.265E-03    -106.454E-03     51.0867E-03    -107.019E-03     212.521E-03    -106.317E-03     49.9673E-03
             619     4.04620E-03     88.3191E-03    -90.5213E+06    -203.892E+06    -49.7202E+06    -265.567E+03    -107.040E-03     213.512E-03    -106.472E-03     62.0077E-03    -107.335E-03     212.907E-03    -106.294E-03     60.5650E-03
             620     4.85558E-03     88.3936E-03    -82.4573E+06    -185.184E+06    -35.3971E+06    -320.666E+03    -107.271E-03     213.752E-03    -106.482E-03     71.9341E-03    -107.672E-03     213.307E-03    -106.271E-03     70.1486E-03
             621     5.66499E-03     88.4781E-03    -75.0453E+06    -164.646E+06    -23.7398E+06    -293.678E+03    -107.500E-03     213.976E-03    -106.476E-03     80.7104E-03    -108.030E-03     213.725E-03    -106.247E-03     78.5686E-03
             622     6.47439E-03     88.5718E-03    -68.1517E+06    -143.157E+06    -13.1590E+06    -68.4527E+03    -107.681E-03     214.148E-03    -106.467E-03     88.2128E-03    -108.361E-03     214.116E-03    -106.226E-03     85.7118E-03
             623     7.28383E-03     88.6727E-03    -61.6534E+06    -120.392E+06    -3.16861E+06     68.3414E+03    -107.781E-03     214.233E-03    -106.452E-03     94.3194E-03    -108.627E-03     214.442E-03    -106.204E-03     91.4665E-03
             624     8.09337E-03     88.7795E-03    -55.1798E+06    -96.4778E+06     6.70821E+06     15.8611E+03    -107.805E-03     214.240E-03    -106.435E-03     98.8630E-03    -108.822E-03     214.699E-03    -106.182E-03     95.6802E-03
             625     8.90282E-03     88.8899E-03    -48.9377E+06    -69.1818E+06     16.6436E+06     100.243E+03    -107.707E-03     214.119E-03    -106.412E-03     101.607E-03    -108.891E-03     214.835E-03    -106.157E-03     98.1466E-03
             626     9.71254E-03     89.0023E-03    -43.0323E+06    -43.9412E+06     26.2136E+06     367.500E+03    -107.511E-03     213.899E-03    -106.388E-03     101.959E-03    -108.828E-03     214.831E-03    -106.131E-03     98.2960E-03
             627     10.5222E-03     89.1130E-03    -37.6449E+06    -12.0245E+06     35.6040E+06     626.869E+03    -107.194E-03     213.546E-03    -106.353E-03     99.4892E-03    -108.602E-03     214.675E-03    -106.103E-03     95.7149E-03
             628     11.3318E-03     89.2194E-03    -32.4532E+06     17.4634E+06     45.1213E+06     942.922E+03    -106.751E-03     213.072E-03    -106.320E-03     93.8127E-03    -108.184E-03     214.320E-03    -106.073E-03     90.0190E-03
             629     12.1418E-03     89.3168E-03    -26.8711E+06     61.1423E+06     53.5423E+06     1.18105E+06    -106.203E-03     212.461E-03    -106.259E-03     85.0847E-03    -107.611E-03     213.836E-03    -106.041E-03     81.3490E-03
             630     12.9516E-03     89.4034E-03    -20.7940E+06     101.574E+06     65.0723E+06     418.276E+03    -105.659E-03     211.873E-03    -106.214E-03     74.2804E-03    -106.998E-03     213.310E-03    -106.006E-03     70.6392E-03
             631     13.7620E-03     89.4767E-03    -15.1741E+06     107.851E+06     74.0802E+06     210.769E+03    -105.352E-03     211.562E-03    -106.210E-03     59.9296E-03    -106.522E-03     212.845E-03    -105.974E-03     56.4405E-03
             632     14.5713E-03     89.5306E-03    -10.4113E+06     116.835E+06     85.9152E+06     867.742E+03    -105.104E-03     211.329E-03    -106.224E-03     46.1989E-03    -106.145E-03     212.498E-03    -105.949E-03     42.8264E-03
             633     15.3815E-03     89.5732E-03    -5.03270E+06     122.131E+06     95.6529E+06     479.107E+03    -104.884E-03     211.118E-03    -106.234E-03     22.0784E-03    -105.641E-03     212.013E-03    -105.925E-03     19.3263E-03
             634     809.214E-06     89.3180E-03    -119.689E+06    -261.687E+06    -115.722E+06    -118.720E+03    -106.463E-03     212.733E-03    -106.270E-03     14.8748E-03    -106.526E-03     211.777E-03    -106.295E-03     14.5844E-03
             635     1.61836E-03     89.3408E-03    -114.428E+06    -255.832E+06    -100.837E+06     74.6615E+03    -106.487E-03     212.887E-03    -106.400E-03     26.9698E-03    -106.576E-03     211.954E-03    -106.367E-03     26.4325E-03
             636     2.42758E-03     89.3779E-03    -107.071E+06    -241.465E+06    -82.9032E+06    -92.5962E+03    -106.635E-03     213.078E-03    -106.444E-03     39.3152E-03    -106.774E-03     212.220E-03    -106.353E-03     38.4973E-03
             637     3.23684E-03     89.4281E-03    -98.8298E+06    -222.865E+06    -65.7244E+06    -378.187E+03    -106.822E-03     213.292E-03    -106.470E-03     51.0845E-03    -107.030E-03     212.549E-03    -106.332E-03     49.9624E-03
             638     4.04617E-03     89.4912E-03    -90.5764E+06    -203.949E+06    -49.9676E+06    -357.258E+03    -107.052E-03     213.538E-03    -106.486E-03     62.0035E-03    -107.347E-03     212.933E-03    -106.309E-03     60.5589E-03
             639     4.85551E-03     89.5654E-03    -82.6465E+06    -185.190E+06    -35.6736E+06    -138.920E+03    -107.299E-03     213.796E-03    -106.496E-03     71.9171E-03    -107.702E-03     213.351E-03    -106.286E-03     70.1328E-03
             640     5.66487E-03     89.6502E-03    -75.3018E+06    -164.782E+06    -23.9238E+06     31.2512E+03    -107.519E-03     214.012E-03    -106.493E-03     80.7063E-03    -108.051E-03     213.761E-03    -106.265E-03     78.5676E-03
             641     6.47426E-03     89.7437E-03    -68.5544E+06    -143.380E+06    -13.4049E+06     110.422E+03    -107.681E-03     214.164E-03    -106.483E-03     88.2370E-03    -108.363E-03     214.132E-03    -106.242E-03     85.7384E-03
             642     7.28372E-03     89.8447E-03    -61.7543E+06    -120.099E+06    -3.29894E+06    -50.1783E+03    -107.774E-03     214.239E-03    -106.466E-03     94.3942E-03    -108.621E-03     214.450E-03    -106.218E-03     91.5402E-03
             643     8.09320E-03     89.9514E-03    -55.2826E+06    -96.5920E+06     6.48123E+06    -175.872E+03    -107.780E-03     214.225E-03    -106.445E-03     98.9574E-03    -108.798E-03     214.685E-03    -106.192E-03     95.7740E-03
             644     8.90284E-03     90.0620E-03    -49.1429E+06    -69.4542E+06     16.4148E+06    -57.0576E+03    -107.678E-03     214.096E-03    -106.418E-03     101.687E-03    -108.862E-03     214.812E-03    -106.164E-03     98.2272E-03
             645     9.71242E-03     90.1741E-03    -43.4179E+06    -44.5125E+06     25.8807E+06     202.426E+03    -107.475E-03     213.866E-03    -106.391E-03     102.042E-03    -108.792E-03     214.796E-03    -106.134E-03     98.3795E-03
             646     10.5222E-03     90.2851E-03    -37.6083E+06    -12.6220E+06     35.3600E+06     632.276E+03    -107.134E-03     213.485E-03    -106.351E-03     99.5335E-03    -108.540E-03     214.611E-03    -106.102E-03     95.7621E-03
             647     11.3320E-03     90.3911E-03    -31.5789E+06     16.7825E+06     45.0808E+06     1.04850E+06    -106.724E-03     213.040E-03    -106.315E-03     93.8080E-03    -108.151E-03     214.283E-03    -106.068E-03     90.0167E-03
             648     12.1418E-03     90.4889E-03    -25.4645E+06     61.6481E+06     53.8686E+06     828.080E+03    -106.223E-03     212.475E-03    -106.253E-03     85.0525E-03    -107.626E-03     213.851E-03    -106.036E-03     81.3113E-03
             649     12.9517E-03     90.5752E-03    -20.5746E+06     102.419E+06     64.9813E+06     504.809E+03    -105.640E-03     211.847E-03    -106.208E-03     74.0824E-03    -106.978E-03     213.288E-03    -106.001E-03     70.4410E-03
             650     13.7615E-03     90.6484E-03    -16.5209E+06     106.379E+06     72.4170E+06     1.11256E+06    -105.173E-03     211.369E-03    -106.196E-03     59.9390E-03    -106.341E-03     212.646E-03    -105.964E-03     56.4816E-03
             651     14.5716E-03     90.7032E-03    -10.9225E+06     116.538E+06     85.1086E+06     1.28055E+06    -104.841E-03     211.041E-03    -106.200E-03     46.4668E-03    -105.878E-03     212.206E-03    -105.927E-03     43.1275E-03
             652     15.3814E-03     90.7446E-03    -4.55551E+06     123.459E+06     96.3742E+06    -36.9512E+03    -104.885E-03     211.091E-03    -106.207E-03     22.4245E-03    -105.642E-03     211.991E-03    -105.897E-03     19.6702E-03
             653     809.130E-06     90.4897E-03    -119.689E+06    -261.546E+06    -115.753E+06    -89.2334E+03    -106.510E-03     212.787E-03    -106.277E-03     14.8019E-03    -106.572E-03     211.832E-03    -106.303E-03     14.5119E-03
             654     1.61834E-03     90.5129E-03    -114.440E+06    -256.389E+06    -101.598E+06     216.265E+03    -106.500E-03     212.921E-03    -106.421E-03     26.9709E-03    -106.587E-03     211.986E-03    -106.391E-03     26.4353E-03
             655     2.42754E-03     90.5497E-03    -107.473E+06    -240.893E+06    -84.3952E+06     217.705E+03    -106.646E-03     213.101E-03    -106.455E-03     39.3281E-03    -106.786E-03     212.249E-03    -106.372E-03     38.5138E-03
             656     3.23678E-03     90.6002E-03    -99.7818E+06    -222.108E+06    -67.4294E+06    -394.124E+03    -106.836E-03     213.316E-03    -106.480E-03     51.0998E-03    -107.047E-03     212.580E-03    -106.350E-03     49.9768E-03
             657     4.04608E-03     90.6630E-03    -91.7538E+06    -204.406E+06    -50.9053E+06    -389.533E+03    -107.065E-03     213.567E-03    -106.502E-03     62.0215E-03    -107.364E-03     212.962E-03    -106.327E-03     60.5762E-03
             658     4.85541E-03     90.7375E-03    -83.7817E+06    -185.331E+06    -36.1421E+06    -76.3915E+03    -107.305E-03     213.817E-03    -106.513E-03     71.9577E-03    -107.712E-03     213.374E-03    -106.303E-03     70.1743E-03
             659     5.66474E-03     90.8221E-03    -76.1199E+06    -164.914E+06    -24.2308E+06    -20.6508E+03    -107.503E-03     214.010E-03    -106.507E-03     80.7639E-03    -108.038E-03     213.760E-03    -106.279E-03     78.6254E-03
             660     6.47421E-03     90.9158E-03    -68.6354E+06    -143.171E+06    -13.4846E+06    -188.335E+03    -107.654E-03     214.146E-03    -106.491E-03     88.3228E-03    -108.336E-03     214.115E-03    -106.252E-03     85.8216E-03
             661     7.28369E-03     91.0167E-03    -61.8173E+06    -120.089E+06    -3.54202E+06    -242.069E+03    -107.747E-03     214.216E-03    -106.469E-03     94.4726E-03    -108.593E-03     214.427E-03    -106.223E-03     91.6179E-03
             662     8.09326E-03     91.1235E-03    -55.6448E+06    -96.5944E+06     6.20108E+06    -103.920E+03    -107.751E-03     214.197E-03    -106.445E-03     99.0234E-03    -108.770E-03     214.657E-03    -106.194E-03     95.8427E-03
             663     8.90282E-03     91.2338E-03    -49.6604E+06    -69.6516E+06     16.0046E+06    -29.1229E+03    -107.657E-03     214.073E-03    -106.416E-03     101.733E-03    -108.843E-03     214.789E-03    -106.163E-03     98.2743E-03
             664     9.71253E-03     91.3462E-03    -43.4225E+06    -44.7839E+06     25.5233E+06     54.1251E+03    -107.458E-03     213.844E-03    -106.386E-03     102.070E-03    -108.774E-03     214.773E-03    -106.131E-03     98.4057E-03
             665     10.5222E-03     91.4568E-03    -37.4884E+06    -13.2230E+06     34.7358E+06     134.208E+03    -107.134E-03     213.479E-03    -106.345E-03     99.5375E-03    -108.538E-03     214.603E-03    -106.098E-03     95.7601E-03
             666     11.3320E-03     91.5631E-03    -31.5016E+06     16.1957E+06     44.4348E+06     400.682E+03    -106.728E-03     213.038E-03    -106.309E-03     93.8078E-03    -108.152E-03     214.279E-03    -106.065E-03     90.0097E-03
             667     12.1418E-03     91.6608E-03    -26.3664E+06     61.7540E+06     52.9151E+06     778.888E+03    -106.165E-03     212.409E-03    -106.244E-03     85.0950E-03    -107.570E-03     213.786E-03    -106.031E-03     81.3582E-03
             668     12.9517E-03     91.7473E-03    -21.8042E+06     101.921E+06     63.8723E+06     1.30326E+06    -105.570E-03     211.766E-03    -106.196E-03     74.2197E-03    -106.911E-03     213.206E-03    -105.993E-03     70.5951E-03
             669     13.7618E-03     91.8200E-03    -16.2434E+06     106.303E+06     71.4214E+06     971.448E+03    -105.081E-03     211.259E-03    -106.177E-03     59.9941E-03    -106.247E-03     212.537E-03    -105.951E-03     56.5334E-03
             670     14.5724E-03     91.8743E-03    -10.2452E+06     117.682E+06     84.7990E+06     172.834E+03    -104.841E-03     211.022E-03    -106.181E-03     46.1896E-03    -105.878E-03     212.194E-03    -105.912E-03     42.8218E-03
             671     15.3830E-03     91.9168E-03    -4.87214E+06     124.084E+06     96.5122E+06     86.6587E+03    -105.147E-03     211.347E-03    -106.200E-03     21.7218E-03    -105.907E-03     212.250E-03    -105.890E-03     18.9573E-03
             672     809.127E-06     91.6618E-03    -119.887E+06    -261.520E+06    -115.862E+06     67.8928E+03    -106.489E-03     212.840E-03    -106.351E-03     14.7993E-03    -106.552E-03     211.885E-03    -106.378E-03     14.5116E-03
             673     1.61827E-03     91.6847E-03    -114.777E+06    -256.850E+06    -102.305E+06     98.4564E+03    -106.517E-03     212.960E-03    -106.443E-03     26.9850E-03    -106.604E-03     212.025E-03    -106.416E-03     26.4480E-03
             674     2.42749E-03     91.7218E-03    -107.779E+06    -240.522E+06    -86.2252E+06     50.9111E+03    -106.649E-03     213.115E-03    -106.466E-03     39.3448E-03    -106.788E-03     212.268E-03    -106.392E-03     38.5286E-03
             675     3.23675E-03     91.7720E-03    -100.263E+06    -221.494E+06    -69.3306E+06    -59.5920E+03    -106.843E-03     213.329E-03    -106.486E-03     51.1190E-03    -107.055E-03     212.600E-03    -106.366E-03     50.0006E-03
             676     4.04601E-03     91.8351E-03    -92.4321E+06    -204.388E+06    -51.7067E+06    -346.914E+03    -107.064E-03     213.576E-03    -106.512E-03     62.0757E-03    -107.365E-03     212.973E-03    -106.340E-03     60.6312E-03
             677     4.85534E-03     91.9094E-03    -84.2536E+06    -185.527E+06    -36.5317E+06    -453.359E+03    -107.274E-03     213.794E-03    -106.520E-03     72.0391E-03    -107.683E-03     213.351E-03    -106.312E-03     70.2520E-03
             678     5.66479E-03     91.9942E-03    -76.2831E+06    -164.710E+06    -24.5680E+06    -474.515E+03    -107.478E-03     213.987E-03    -106.508E-03     80.8406E-03    -108.014E-03     213.738E-03    -106.282E-03     78.6975E-03
             679     6.47420E-03     92.0876E-03    -68.8065E+06    -143.062E+06    -13.8220E+06    -492.340E+03    -107.644E-03     214.133E-03    -106.490E-03     88.3807E-03    -108.326E-03     214.104E-03    -106.252E-03     85.8761E-03
             680     7.28372E-03     92.1888E-03    -62.0954E+06    -120.410E+06    -3.89849E+06    -249.541E+03    -107.725E-03     214.192E-03    -106.466E-03     94.4828E-03    -108.572E-03     214.402E-03    -106.221E-03     91.6288E-03
             681     8.09327E-03     92.2952E-03    -55.7962E+06    -96.6305E+06     5.89560E+06     -131.99E+03    -107.735E-03     214.175E-03    -106.440E-03     99.0267E-03    -108.753E-03     214.636E-03    -106.190E-03     95.8466E-03
             682     8.90291E-03     92.4060E-03    -49.4764E+06    -69.6483E+06     15.7943E+06    -136.311E+03    -107.652E-03     214.062E-03    -106.410E-03     101.724E-03    -108.836E-03     214.778E-03    -106.158E-03     98.2643E-03
             683     9.71254E-03     92.5179E-03    -43.5451E+06    -44.7814E+06     25.2938E+06    -190.355E+03    -107.465E-03     213.846E-03    -106.382E-03     102.019E-03    -108.781E-03     214.776E-03    -106.127E-03     98.3519E-03
             684     10.5223E-03     92.6289E-03    -37.7253E+06    -13.5513E+06     34.6908E+06     21.6322E+03    -107.146E-03     213.489E-03    -106.343E-03     99.5073E-03    -108.551E-03     214.611E-03    -106.095E-03     95.7286E-03
             685     11.3320E-03     92.7349E-03    -32.2979E+06     16.2427E+06     44.5445E+06    -3.13447E+03    -106.692E-03     213.000E-03    -106.308E-03     93.8045E-03    -108.120E-03     214.242E-03    -106.062E-03     90.0033E-03
             686     12.1419E-03     92.8328E-03    -26.3817E+06     60.4814E+06     52.6595E+06     327.886E+03    -106.105E-03     212.344E-03    -106.239E-03     85.0145E-03    -107.507E-03     213.715E-03    -106.025E-03     81.2729E-03
             687     12.9521E-03     92.9187E-03    -19.9108E+06     101.454E+06     65.1160E+06     1.01267E+06    -105.617E-03     211.812E-03    -106.194E-03     73.9200E-03    -106.950E-03     213.245E-03    -105.987E-03     70.2856E-03
             688     13.7622E-03     92.9919E-03    -14.3998E+06     107.840E+06     73.0194E+06     501.442E+03    -105.381E-03     211.567E-03    -106.186E-03     59.2353E-03    -106.545E-03     212.851E-03    -105.956E-03     55.7363E-03
             689     14.5717E-03     93.0459E-03    -9.30243E+06     118.434E+06     84.7582E+06    -171.132E+03    -105.235E-03     211.439E-03    -106.204E-03     45.6167E-03    -106.272E-03     212.617E-03    -105.938E-03     42.2067E-03
             690     15.3804E-03     93.0897E-03    -5.28885E+06     123.868E+06     95.6014E+06     556.449E+03    -104.959E-03     211.186E-03    -106.227E-03     21.4674E-03    -105.720E-03     212.090E-03    -105.921E-03     18.7036E-03
             691     809.130E-06     92.8337E-03    -119.626E+06    -261.841E+06    -115.874E+06     198.225E+03    -106.500E-03     212.853E-03    -106.353E-03     14.8378E-03    -106.562E-03     211.897E-03    -106.379E-03     14.5524E-03
             692     1.61826E-03     92.8568E-03    -114.608E+06    -256.397E+06    -101.540E+06    -108.978E+03    -106.534E-03     212.988E-03    -106.454E-03     27.0273E-03    -106.622E-03     212.053E-03    -106.424E-03     26.4876E-03
             693     2.42744E-03     92.8936E-03    -107.473E+06    -240.582E+06    -84.3879E+06    -304.906E+03    -106.661E-03     213.146E-03    -106.485E-03     39.3966E-03    -106.801E-03     212.295E-03    -106.402E-03     38.5760E-03
             694     3.23668E-03     92.9442E-03    -99.4071E+06    -221.523E+06    -67.7075E+06    -72.6119E+03    -106.834E-03     213.335E-03    -106.501E-03     51.1774E-03    -107.044E-03     212.602E-03    -106.374E-03     50.0594E-03
             695     4.04600E-03     93.0069E-03    -91.3949E+06    -203.771E+06    -51.1688E+06    -144.848E+03    -107.044E-03     213.559E-03    -106.515E-03     62.1201E-03    -107.342E-03     212.958E-03    -106.342E-03     60.6788E-03
             696     4.85539E-03     93.0815E-03    -83.6003E+06    -185.199E+06    -36.4592E+06    -523.061E+03    -107.261E-03     213.778E-03    -106.518E-03     72.0558E-03    -107.667E-03     213.336E-03    -106.310E-03     70.2682E-03
             697     5.66479E-03     93.1660E-03    -76.0249E+06    -164.686E+06    -24.8234E+06    -611.733E+03    -107.467E-03     213.970E-03    -106.503E-03     80.8518E-03    -108.001E-03     213.722E-03    -106.278E-03     78.7073E-03
             698     6.47427E-03     93.2598E-03    -69.1608E+06    -143.187E+06    -14.1799E+06    -387.361E+03    -107.632E-03     214.116E-03    -106.484E-03     88.3771E-03    -108.316E-03     214.087E-03    -106.247E-03     85.8744E-03
             699     7.28374E-03     93.3605E-03    -62.3857E+06    -120.450E+06    -4.06537E+06    -388.632E+03    -107.727E-03     214.188E-03    -106.461E-03     94.4787E-03    -108.575E-03     214.399E-03    -106.217E-03     91.6229E-03
             700     8.09332E-03     93.4674E-03    -55.6527E+06    -96.4900E+06     5.93593E+06    -507.094E+03    -107.742E-03     214.179E-03    -106.437E-03     99.0158E-03    -108.760E-03     214.640E-03    -106.186E-03     95.8309E-03
             701     8.90292E-03     93.5777E-03    -49.3247E+06    -69.7644E+06     15.9027E+06    -486.954E+03    -107.659E-03     214.067E-03    -106.408E-03     101.682E-03    -108.842E-03     214.782E-03    -106.156E-03     98.2179E-03
             702     9.71259E-03     93.6901E-03    -43.3737E+06    -44.8471E+06     25.5247E+06    -281.593E+03    -107.473E-03     213.854E-03    -106.381E-03     101.992E-03    -108.789E-03     214.783E-03    -106.125E-03     98.3224E-03
             703     10.5222E-03     93.8005E-03    -37.4937E+06    -13.5962E+06     34.9834E+06    -460.461E+03    -107.130E-03     213.472E-03    -106.343E-03     99.4932E-03    -108.534E-03     214.594E-03    -106.094E-03     95.7078E-03
             704     11.3321E-03     93.9070E-03    -31.3222E+06     15.8804E+06     44.7555E+06    -166.134E+03    -106.676E-03     212.982E-03    -106.306E-03     93.7301E-03    -108.099E-03     214.220E-03    -106.059E-03     89.9254E-03
             705     12.1419E-03     94.0042E-03    -25.8789E+06     60.2878E+06     52.9411E+06    -9.79988E+03    -106.185E-03     212.424E-03    -106.240E-03     84.9103E-03    -107.585E-03     213.794E-03    -106.025E-03     81.1594E-03
             706     12.9517E-03     94.0909E-03    -20.6983E+06     100.583E+06      64.647E+06    -218.761E+03    -105.782E-03     211.984E-03    -106.202E-03     74.0199E-03    -107.118E-03     213.415E-03    -105.994E-03     70.3650E-03
             707     13.7610E-03     94.1641E-03    -14.7926E+06     107.986E+06     73.3308E+06     469.299E+03    -105.525E-03     211.728E-03    -106.203E-03     59.8406E-03    -106.693E-03     213.014E-03    -105.972E-03     56.3451E-03
             708     14.5706E-03     94.2186E-03    -10.4831E+06     117.770E+06     84.5832E+06     1.11921E+06    -105.041E-03     211.259E-03    -106.218E-03     46.7963E-03    -106.083E-03     212.437E-03    -105.950E-03     43.4318E-03
             709     15.3812E-03     94.2618E-03    -5.48129E+06     123.753E+06     95.5726E+06     874.707E+03    -104.528E-03     210.749E-03    -106.221E-03     22.4830E-03    -105.289E-03     211.653E-03    -105.915E-03     19.7537E-03
             710     809.117E-06     94.0058E-03    -119.636E+06    -261.977E+06    -115.906E+06    -8.95173E+03    -106.530E-03     212.845E-03    -106.315E-03     14.8248E-03    -106.591E-03     211.887E-03    -106.341E-03     14.5363E-03
             711     1.61830E-03     94.0287E-03    -114.614E+06    -256.295E+06    -101.199E+06     185.831E+03    -106.527E-03     212.977E-03    -106.451E-03     27.0335E-03    -106.615E-03     212.043E-03    -106.419E-03     26.4977E-03
             712     2.42747E-03     94.0658E-03    -107.705E+06    -240.235E+06    -83.8496E+06     93.2778E+03    -106.652E-03     213.135E-03    -106.482E-03     39.4209E-03    -106.795E-03     212.285E-03    -106.397E-03     38.6056E-03
             713     3.23673E-03     94.1160E-03    -99.8900E+06    -221.404E+06    -66.9991E+06    -371.551E+03    -106.821E-03     213.320E-03    -106.499E-03     51.2166E-03    -107.035E-03     212.587E-03    -106.368E-03     50.0949E-03
             714     4.04605E-03     94.1790E-03    -91.4995E+06    -203.742E+06    -50.6549E+06    -290.054E+03    -107.036E-03     213.547E-03    -106.511E-03     62.1452E-03    -107.335E-03     212.945E-03    -106.336E-03     60.7024E-03
             715     4.85539E-03     94.2533E-03    -83.3604E+06    -184.711E+06    -36.2008E+06    -157.278E+03    -107.265E-03     213.776E-03    -106.512E-03     72.0599E-03    -107.671E-03     213.336E-03    -106.304E-03     70.2767E-03
             716     5.66481E-03     94.3381E-03    -76.0476E+06    -164.578E+06    -24.5799E+06    -277.022E+03    -107.467E-03     213.967E-03    -106.499E-03     80.8544E-03    -108.002E-03     213.719E-03    -106.273E-03     78.7140E-03
             717     6.47427E-03     94.4315E-03    -68.9663E+06    -143.182E+06    -14.0142E+06    -428.883E+03    -107.629E-03     214.109E-03    -106.480E-03     88.3686E-03    -108.312E-03     214.080E-03    -106.243E-03     85.8659E-03
             718     7.28381E-03     94.5327E-03    -62.0768E+06    -119.856E+06    -3.86048E+06    -734.551E+03    -107.738E-03     214.196E-03    -106.458E-03     94.4546E-03    -108.586E-03     214.409E-03    -106.213E-03     91.5942E-03
             719     8.09332E-03     94.6391E-03    -55.5119E+06    -96.4653E+06     6.01606E+06    -886.889E+03    -107.760E-03     214.195E-03    -106.435E-03     98.9813E-03    -108.778E-03     214.656E-03    -106.185E-03     95.7902E-03
             720     8.90290E-03     94.7499E-03    -49.4365E+06    -69.7422E+06     15.8589E+06    -908.459E+03    -107.659E-03     214.067E-03    -106.408E-03     101.669E-03    -108.843E-03     214.782E-03    -106.156E-03     98.1982E-03
             721     9.71254E-03     94.8617E-03    -43.1687E+06    -45.1412E+06     25.4214E+06    -958.568E+03    -107.455E-03     213.835E-03    -106.380E-03     101.994E-03    -108.769E-03     214.762E-03    -106.125E-03     98.3167E-03
             722     10.5224E-03     94.9728E-03    -37.1702E+06    -13.6474E+06     34.8709E+06    -518.718E+03    -107.120E-03     213.460E-03    -106.340E-03     99.4625E-03    -108.522E-03     214.580E-03    -106.092E-03     95.6773E-03
             723     11.3321E-03     95.0784E-03    -32.0514E+06     15.6919E+06     44.2673E+06    -666.880E+03    -106.712E-03     213.016E-03    -106.304E-03     93.7175E-03    -108.138E-03     214.255E-03    -106.059E-03     89.9051E-03
             724     12.1419E-03     95.1765E-03    -26.3647E+06     59.7117E+06     52.6515E+06    -409.123E+03    -106.209E-03     212.450E-03    -106.241E-03     85.0579E-03    -107.611E-03     213.818E-03    -106.026E-03     81.3023E-03
             725     12.9517E-03     95.2628E-03    -20.9591E+06     100.633E+06     64.2307E+06    -110.179E+03    -105.683E-03     211.881E-03    -106.198E-03     74.4413E-03    -107.020E-03     213.315E-03    -105.992E-03     70.7931E-03
             726     13.7621E-03     95.3364E-03    -16.7559E+06     105.822E+06     71.7949E+06     771.003E+03    -105.237E-03     211.425E-03    -106.188E-03     60.3531E-03    -106.409E-03     212.705E-03    -105.958E-03     56.8800E-03
             727     14.5722E-03     95.3906E-03    -11.0999E+06     117.144E+06     84.6462E+06     1.92914E+06    -104.758E-03     210.949E-03    -106.191E-03     46.5473E-03    -105.801E-03     212.122E-03    -105.921E-03     43.2043E-03
             728     15.3827E-03     95.4322E-03    -4.76762E+06     125.743E+06     96.9086E+06     572.716E+03    -104.782E-03     210.978E-03    -106.196E-03     21.7553E-03    -105.544E-03     211.888E-03    -105.887E-03     19.0060E-03
             729     809.153E-06     95.1777E-03    -120.762E+06    -262.151E+06    -116.182E+06     287.410E+03    -106.506E-03     212.818E-03    -106.313E-03     14.8476E-03    -106.572E-03     211.862E-03    -106.338E-03     14.5619E-03
             730     1.61825E-03     95.2008E-03    -115.188E+06    -256.747E+06    -101.985E+06     268.272E+03    -106.515E-03     212.952E-03    -106.437E-03     27.0411E-03    -106.605E-03     212.017E-03    -106.408E-03     26.5065E-03
             731     2.42752E-03     95.2376E-03    -107.720E+06    -239.584E+06    -85.5616E+06     21.1768E+03    -106.639E-03     213.100E-03    -106.461E-03     39.4185E-03    -106.780E-03     212.256E-03    -106.385E-03     38.6023E-03
             732     3.23677E-03     95.2881E-03    -99.8962E+06    -220.927E+06    -68.3383E+06    -229.976E+03    -106.822E-03     213.303E-03    -106.481E-03     51.1860E-03    -107.034E-03     212.574E-03    -106.357E-03     50.0658E-03
             733     4.04608E-03     95.3508E-03    -92.0224E+06    -204.000E+06    -50.9618E+06    -247.746E+03    -107.034E-03     213.536E-03    -106.502E-03     62.1294E-03    -107.335E-03     212.934E-03    -106.327E-03     60.6869E-03
             734     4.85546E-03     95.4254E-03    -84.0325E+06    -184.535E+06    -36.3160E+06    -264.750E+03    -107.259E-03     213.764E-03    -106.505E-03     72.0621E-03    -107.668E-03     213.325E-03    -106.297E-03     70.2776E-03
             735     5.66487E-03     95.5099E-03    -76.1009E+06    -164.349E+06    -24.4609E+06    -313.304E+03    -107.481E-03     213.975E-03    -106.494E-03     80.8409E-03    -108.017E-03     213.728E-03    -106.268E-03     78.6997E-03
             736     6.47431E-03     95.6037E-03    -68.7584E+06    -142.558E+06    -13.8363E+06    -629.377E+03    -107.651E-03     214.129E-03    -106.478E-03     88.3451E-03    -108.334E-03     214.102E-03    -106.241E-03     85.8388E-03
             737     7.28377E-03     95.7044E-03    -62.1920E+06    -119.585E+06    -3.99674E+06    -801.285E+03    -107.746E-03     214.203E-03    -106.457E-03     94.4379E-03    -108.594E-03     214.417E-03    -106.213E-03     91.5764E-03
             738     8.09331E-03     95.8113E-03    -56.2131E+06    -96.2483E+06     5.65991E+06    -816.439E+03    -107.751E-03     214.186E-03    -106.434E-03     98.9623E-03    -108.772E-03     214.649E-03    -106.185E-03     95.7724E-03
             739     8.90291E-03     95.9215E-03    -50.1200E+06    -69.2364E+06     15.5275E+06    -1.17410E+06    -107.653E-03     214.059E-03    -106.406E-03     101.656E-03    -108.841E-03     214.778E-03    -106.156E-03     98.1822E-03
             740     9.71261E-03     96.0339E-03    -44.2218E+06    -44.7276E+06     24.8547E+06    -1.62430E+06    -107.459E-03     213.837E-03    -106.378E-03     101.940E-03    -108.778E-03     214.768E-03    -106.125E-03     98.2537E-03
             741     10.5223E-03     96.1442E-03    -38.0886E+06    -14.5179E+06     33.8980E+06    -1.66143E+06    -107.132E-03     213.471E-03    -106.339E-03     99.3682E-03    -108.535E-03     214.589E-03    -106.093E-03     95.5668E-03
             742     11.3321E-03     96.2508E-03    -31.7414E+06     15.2241E+06     43.8397E+06    -586.308E+03    -106.714E-03     213.018E-03    -106.304E-03     93.6754E-03    -108.137E-03     214.255E-03    -106.061E-03     89.8627E-03
             743     12.1418E-03     96.3480E-03    -26.9291E+06     59.4333E+06     51.7668E+06    -340.862E+03    -106.167E-03     212.406E-03    -106.239E-03     84.9690E-03    -107.571E-03     213.775E-03    -106.027E-03     81.2116E-03
             744     12.9521E-03     96.4347E-03    -21.8772E+06     99.2601E+06     62.8987E+06     758.279E+03    -105.590E-03     211.782E-03    -106.192E-03     74.0841E-03    -106.927E-03     213.212E-03    -105.990E-03     70.4453E-03
             745     13.7618E-03     96.5079E-03    -16.3859E+06     105.537E+06     70.6586E+06     1.09679E+06    -105.192E-03     211.368E-03    -106.177E-03     59.5585E-03    -106.357E-03     212.645E-03    -105.953E-03     56.0852E-03
             746     14.5720E-03     96.5620E-03    -9.93649E+06     118.009E+06     84.1379E+06    -126.860E+03    -105.025E-03     211.212E-03    -106.187E-03     45.5174E-03    -106.061E-03     212.388E-03    -105.923E-03     42.1249E-03
             747     15.3814E-03     96.6047E-03    -3.87625E+06     126.258E+06     96.9508E+06     393.248E+03    -104.923E-03     211.130E-03    -106.207E-03     21.1126E-03    -105.682E-03     212.042E-03    -105.900E-03     18.3370E-03
             748     809.147E-06     96.3498E-03    -119.692E+06    -263.271E+06    -116.068E+06     840.059E+03    -106.488E-03     212.797E-03    -106.309E-03     14.8564E-03    -106.548E-03     211.833E-03    -106.334E-03     14.5781E-03
             749     1.61836E-03     96.3726E-03    -114.548E+06    -255.944E+06    -101.876E+06    -10.9467E+03    -106.506E-03     212.928E-03    -106.422E-03     27.0383E-03    -106.594E-03     211.996E-03    -106.394E-03     26.5001E-03
             750     2.42751E-03     96.4097E-03    -107.528E+06    -239.300E+06    -85.7317E+06    -474.264E+03    -106.642E-03     213.091E-03    -106.449E-03     39.4238E-03    -106.783E-03     212.249E-03    -106.375E-03     38.6009E-03
             751     3.23679E-03     96.4599E-03    -99.9184E+06    -221.084E+06    -68.7513E+06    -121.405E+03    -106.822E-03     213.293E-03    -106.471E-03     51.1783E-03    -107.034E-03     212.565E-03    -106.350E-03     50.0596E-03
             752     4.04610E-03     96.5229E-03    -92.1976E+06    -203.835E+06    -51.1090E+06    -33.8599E+03    -107.036E-03     213.531E-03    -106.495E-03     62.1087E-03    -107.338E-03     212.931E-03    -106.322E-03     60.6690E-03
             753     4.85548E-03     96.5972E-03    -84.3899E+06    -184.122E+06    -36.5120E+06    -347.373E+03    -107.268E-03     213.769E-03    -106.500E-03     72.0393E-03    -107.680E-03     213.333E-03    -106.294E-03     70.2538E-03
             754     5.66487E-03     96.6821E-03    -76.5942E+06    -163.954E+06    -24.9279E+06    -724.241E+03    -107.491E-03     213.982E-03    -106.491E-03     80.8119E-03    -108.029E-03     213.738E-03    -106.267E-03     78.6653E-03
             755     6.47428E-03     96.7754E-03    -69.4538E+06    -142.385E+06    -14.2820E+06    -636.174E+03    -107.658E-03     214.134E-03    -106.477E-03     88.3282E-03    -108.344E-03     214.110E-03    -106.241E-03     85.8216E-03
             756     7.28377E-03     96.8766E-03    -63.0010E+06    -119.432E+06    -4.27952E+06    -505.225E+03    -107.746E-03     214.204E-03    -106.458E-03     94.4198E-03    -108.598E-03     214.420E-03    -106.215E-03     91.5621E-03
             757     8.09333E-03     96.9830E-03    -56.6836E+06    -95.8670E+06     5.38634E+06    -728.081E+03    -107.755E-03     214.190E-03    -106.435E-03     98.9155E-03    -108.778E-03     214.656E-03    -106.187E-03     95.7266E-03
             758     8.90292E-03     97.0937E-03    -50.7924E+06    -68.5632E+06     15.1624E+06    -898.639E+03    -107.674E-03     214.082E-03    -106.408E-03     101.571E-03    -108.865E-03     214.806E-03    -106.159E-03     98.0996E-03
             759     9.71251E-03     97.2055E-03    -45.2320E+06    -43.6039E+06     24.5426E+06    -1.27782E+06    -107.493E-03     213.875E-03    -106.383E-03     101.822E-03    -108.818E-03     214.814E-03    -106.131E-03     98.1373E-03
             760     10.5222E-03     97.3165E-03    -39.8067E+06    -13.1710E+06     33.2438E+06    -2.67332E+06    -107.156E-03     213.501E-03    -106.346E-03     99.2512E-03    -108.569E-03     214.630E-03    -106.103E-03     95.4324E-03
             761     11.3319E-03     97.4222E-03    -32.7376E+06     13.3708E+06     42.3006E+06    -3.39900E+06    -106.714E-03     213.025E-03    -106.311E-03     93.5431E-03    -108.137E-03     214.256E-03    -106.071E-03     89.6899E-03
             762     12.1419E-03     97.5203E-03    -25.0237E+06     56.2449E+06     50.8255E+06    -217.411E+03    -106.185E-03     212.431E-03    -106.246E-03     84.7715E-03    -107.573E-03     213.783E-03    -106.037E-03     81.0133E-03
             763     12.9515E-03     97.6063E-03    -20.1913E+06     98.4054E+06     63.0537E+06     1.55974E+06    -105.680E-03     211.884E-03    -106.205E-03     73.9054E-03    -107.007E-03     213.307E-03    -106.003E-03     70.2750E-03
             764     13.7618E-03     97.6799E-03    -14.8833E+06     107.345E+06     72.1722E+06     364.351E+03    -105.388E-03     211.588E-03    -106.200E-03     59.6130E-03    -106.553E-03     212.871E-03    -105.973E-03     56.1221E-03
             765     14.5711E-03     97.7343E-03    -10.7105E+06     118.543E+06      83.914E+06     19.3684E+03    -105.037E-03     211.248E-03    -106.211E-03     45.9466E-03    -106.078E-03     212.428E-03    -105.948E-03     42.5612E-03
             766     15.3811E-03     97.7772E-03    -6.72489E+06     125.244E+06     95.2629E+06     242.765E+03    -104.664E-03     210.886E-03    -106.222E-03     21.3994E-03    -105.433E-03     211.799E-03    -105.917E-03     18.6366E-03
             767     809.150E-06     97.5215E-03    -119.017E+06    -264.824E+06    -115.859E+06     623.146E+03    -106.495E-03     212.785E-03    -106.290E-03     14.8763E-03    -106.549E-03     211.812E-03    -106.313E-03     14.5963E-03
             768     1.61830E-03     97.5447E-03    -114.521E+06    -254.268E+06    -103.266E+06     39.7804E+03    -106.504E-03     212.908E-03    -106.404E-03     27.0383E-03    -106.592E-03     211.987E-03    -106.386E-03     26.5007E-03
             769     2.42757E-03     97.5815E-03    -108.252E+06    -238.902E+06    -86.1000E+06    -635.821E+03    -106.635E-03     213.076E-03    -106.441E-03     39.4069E-03    -106.779E-03     212.238E-03    -106.369E-03     38.5821E-03
             770     3.23680E-03     97.6319E-03    -100.454E+06    -222.003E+06    -67.6470E+06    -251.375E+03    -106.820E-03     213.293E-03    -106.474E-03     51.1717E-03    -107.034E-03     212.560E-03    -106.345E-03     50.0517E-03
             771     4.04614E-03     97.6947E-03    -92.0400E+06    -203.480E+06    -50.5913E+06    -35.5786E+03    -107.052E-03     213.547E-03    -106.495E-03     62.1019E-03    -107.355E-03     212.947E-03    -106.319E-03     60.6623E-03
             772     4.85545E-03     97.7693E-03    -83.6224E+06    -183.484E+06    -36.2052E+06    -339.615E+03    -107.292E-03     213.793E-03    -106.501E-03     72.0363E-03    -107.701E-03     213.359E-03    -106.295E-03     70.2506E-03
             773     5.66483E-03     97.8539E-03    -76.1204E+06    -163.556E+06    -24.6471E+06    -497.385E+03    -107.506E-03     214.001E-03    -106.495E-03     80.7954E-03    -108.043E-03     213.758E-03    -106.271E-03     78.6512E-03
             774     6.47429E-03     97.9476E-03    -69.2568E+06    -142.663E+06    -14.3524E+06    -453.864E+03    -107.673E-03     214.155E-03    -106.482E-03     88.2724E-03    -108.358E-03     214.129E-03    -106.246E-03     85.7673E-03
             775     7.28376E-03     98.0484E-03    -62.3532E+06    -119.216E+06    -4.21739E+06    -392.993E+03    -107.772E-03     214.236E-03    -106.464E-03     94.3162E-03    -108.621E-03     214.453E-03    -106.222E-03     91.4582E-03
             776     8.09325E-03     98.1551E-03    -56.1546E+06    -95.3626E+06     5.57548E+06    -495.787E+03    -107.791E-03     214.235E-03    -106.445E-03     98.7855E-03    -108.812E-03     214.703E-03    -106.197E-03     95.5971E-03
             777     8.90279E-03     98.2654E-03    -50.2737E+06    -68.4790E+06     15.2804E+06    -497.199E+03    -107.711E-03     214.132E-03    -106.420E-03     101.454E-03    -108.900E-03     214.854E-03    -106.172E-03     97.9853E-03
             778     9.71239E-03     98.3778E-03    -44.7409E+06    -42.7775E+06     24.8884E+06    -532.776E+03    -107.516E-03     213.913E-03    -106.397E-03     101.707E-03    -108.840E-03     214.854E-03    -106.146E-03     98.0305E-03
             779     10.5220E-03     98.4882E-03    -40.2701E+06    -10.9529E+06     33.9314E+06    -847.591E+03    -107.184E-03     213.547E-03    -106.363E-03     99.1299E-03    -108.604E-03     214.686E-03    -106.119E-03     95.3328E-03
             780     11.3318E-03     98.5944E-03    -37.4739E+06     17.4588E+06     42.2011E+06    -3.90072E+06    -106.750E-03     213.081E-03    -106.330E-03     93.4213E-03    -108.203E-03     214.340E-03    -106.090E-03     89.5580E-03
             781     12.1413E-03     98.6917E-03    -31.1971E+06     50.8772E+06     47.4458E+06    -6.11013E+06    -106.223E-03     212.492E-03    -106.269E-03     84.6706E-03    -107.630E-03     213.830E-03    -106.060E-03     80.8325E-03
             782     12.9518E-03     98.7786E-03    -20.3482E+06     93.4421E+06     61.1886E+06    -1.13530E+06    -105.714E-03     211.940E-03    -106.227E-03     73.8214E-03    -107.032E-03     213.341E-03    -106.027E-03     70.1506E-03
             783     13.7611E-03     98.8517E-03    -14.9968E+06     108.936E+06     72.2065E+06     1.98845E+06    -105.299E-03     211.517E-03    -106.219E-03     59.7082E-03    -106.466E-03     212.809E-03    -105.994E-03     56.2400E-03
             784     14.5713E-03     98.9067E-03    -11.4807E+06     118.441E+06     84.2117E+06     1.18268E+06    -104.743E-03     210.967E-03    -106.223E-03     45.8040E-03    -105.787E-03     212.146E-03    -105.957E-03     42.4448E-03
             785     15.3819E-03     98.9477E-03    -5.33046E+06     126.596E+06     96.3462E+06     310.801E+03    -104.572E-03     210.794E-03    -106.222E-03     21.3617E-03    -105.336E-03     211.709E-03    -105.916E-03     18.6089E-03
             786     809.198E-06     98.6936E-03    -120.067E+06    -265.934E+06    -116.892E+06     267.353E+03    -106.483E-03     212.782E-03    -106.299E-03     14.8757E-03    -106.539E-03     211.807E-03    -106.323E-03     14.5915E-03
             787     1.61836E-03     98.7165E-03    -115.604E+06    -252.904E+06    -104.777E+06    -130.808E+03    -106.497E-03     212.894E-03    -106.397E-03     27.0410E-03    -106.591E-03     211.983E-03    -106.386E-03     26.5011E-03
             788     2.42752E-03     98.7535E-03    -108.812E+06    -238.120E+06    -86.3665E+06    -735.050E+03    -106.633E-03     213.072E-03    -106.440E-03     39.3973E-03    -106.780E-03     212.239E-03    -106.369E-03     38.5711E-03
             789     3.23683E-03     98.8038E-03    -100.624E+06    -222.922E+06    -66.6786E+06    -533.478E+03    -106.837E-03     213.319E-03    -106.483E-03     51.1544E-03    -107.052E-03     212.580E-03    -106.347E-03     50.0305E-03
             790     4.04609E-03     98.8669E-03    -91.8989E+06    -202.968E+06    -50.5008E+06    -415.134E+03    -107.073E-03     213.574E-03    -106.500E-03     62.0749E-03    -107.376E-03     212.976E-03    -106.325E-03     60.6300E-03
             791     4.85545E-03     98.9412E-03    -83.4600E+06    -183.099E+06    -36.3582E+06    -598.287E+03    -107.314E-03     213.823E-03    -106.508E-03     71.9832E-03    -107.723E-03     213.390E-03    -106.304E-03     70.1934E-03
             792     5.66482E-03     99.0260E-03    -75.5500E+06    -163.639E+06     -24.598E+06    -504.627E+03    -107.543E-03     214.049E-03    -106.506E-03     80.7157E-03    -108.076E-03     213.805E-03    -106.283E-03     78.5698E-03
             793     6.47417E-03     99.1194E-03    -68.1643E+06    -142.457E+06    -14.0577E+06    -513.086E+03    -107.722E-03     214.219E-03    -106.497E-03     88.1685E-03    -108.402E-03     214.192E-03    -106.262E-03     85.6601E-03
             794     7.28358E-03     99.2206E-03    -61.4455E+06    -119.219E+06    -4.14354E+06    -623.369E+03    -107.818E-03     214.301E-03    -106.483E-03     94.2035E-03    -108.663E-03     214.516E-03    -106.241E-03     91.3399E-03
             795     8.09305E-03     99.3270E-03    -54.9982E+06    -95.5219E+06     5.89683E+06    -340.289E+03    -107.834E-03     214.301E-03    -106.467E-03     98.6749E-03    -108.849E-03     214.765E-03    -106.219E-03     95.4862E-03
             796     8.90257E-03     99.4377E-03    -49.0115E+06    -68.3845E+06     15.9668E+06    -112.855E+03    -107.739E-03     214.185E-03    -106.445E-03     101.335E-03    -108.922E-03     214.905E-03    -106.195E-03     97.8702E-03
             797     9.71214E-03     99.5496E-03    -43.2849E+06    -43.1845E+06     25.4573E+06     250.258E+03    -107.530E-03     213.952E-03    -106.422E-03     101.572E-03    -108.846E-03     214.888E-03    -106.169E-03     97.9038E-03
             798     10.5218E-03     99.6604E-03    -37.8624E+06    -10.6853E+06     35.0424E+06     759.489E+03    -107.220E-03     213.608E-03    -106.388E-03     99.0306E-03    -108.630E-03     214.744E-03    -106.142E-03     95.2522E-03
             799     11.3314E-03     99.7663E-03    -33.0809E+06     22.6259E+06     45.4889E+06     644.705E+03    -106.817E-03     213.175E-03    -106.358E-03     93.2720E-03    -108.260E-03     214.449E-03    -106.115E-03     89.4649E-03
             800     12.1413E-03     99.8640E-03    -32.6991E+06     57.1486E+06     49.7282E+06    -3.82545E+06    -106.337E-03     212.640E-03    -106.303E-03     84.5445E-03    -107.764E-03     214.010E-03    -106.090E-03     80.7303E-03
             801     12.9505E-03     99.9500E-03    -30.4834E+06     86.7993E+06     55.2062E+06    -8.13010E+06    -105.722E-03     211.977E-03    -106.255E-03     73.7046E-03    -107.074E-03     213.369E-03    -106.061E-03     69.9379E-03
             802     13.7612E-03     100.024E-03    -18.8883E+06     102.111E+06     64.6209E+06    -2.47877E+06    -104.998E-03     211.219E-03    -106.222E-03     59.3969E-03    -106.161E-03     212.491E-03    -106.019E-03     55.8787E-03
             803     14.5711E-03     100.078E-03    -9.63774E+06      120.59E+06     82.6636E+06     1.33318E+06    -104.451E-03     210.668E-03    -106.217E-03     45.5258E-03    -105.484E-03     211.856E-03    -105.965E-03     42.1762E-03
             804     15.3812E-03     100.120E-03    -5.01554E+06     127.189E+06     96.4545E+06    -68.0177E+03    -104.447E-03     210.664E-03    -106.217E-03     21.6511E-03    -105.211E-03     211.582E-03    -105.912E-03     18.8958E-03
             805     809.108E-06     99.8653E-03    -120.279E+06    -265.852E+06    -117.103E+06    -510.248E+03    -106.494E-03     212.824E-03    -106.330E-03     14.8779E-03    -106.551E-03     211.850E-03    -106.355E-03     14.5830E-03
             806     1.61830E-03     99.8885E-03    -115.609E+06    -251.943E+06    -104.287E+06    -554.153E+03    -106.492E-03     212.907E-03    -106.415E-03     27.0152E-03    -106.588E-03     212.000E-03    -106.403E-03     26.4697E-03
             807     2.42757E-03     99.9253E-03    -108.970E+06    -237.406E+06    -86.0169E+06    -695.378E+03    -106.652E-03     213.106E-03    -106.454E-03     39.3615E-03    -106.802E-03     212.276E-03    -106.382E-03     38.5355E-03
             808     3.23674E-03     99.9759E-03    -100.813E+06    -222.951E+06    -66.9711E+06    -943.027E+03    -106.870E-03     213.368E-03    -106.499E-03     51.1215E-03    -107.086E-03     212.629E-03    -106.364E-03     49.9914E-03
             809     4.04604E-03     100.039E-03    -92.0887E+06    -202.620E+06    -50.9575E+06    -971.012E+03    -107.106E-03     213.624E-03    -106.519E-03     62.0281E-03    -107.409E-03     213.029E-03    -106.346E-03     60.5748E-03
             810     4.85531E-03     100.113E-03    -83.8755E+06    -182.789E+06    -36.9986E+06    -1.02219E+06    -107.356E-03     213.885E-03    -106.530E-03     71.9095E-03    -107.766E-03     213.456E-03    -106.328E-03     70.1126E-03
             811     5.66462E-03     100.198E-03    -75.8858E+06    -163.395E+06    -25.2094E+06    -1.32242E+06    -107.588E-03     214.119E-03    -106.531E-03     80.6312E-03    -108.123E-03     213.878E-03    -106.310E-03     78.4727E-03
             812     6.47399E-03     100.292E-03    -68.1040E+06    -142.358E+06    -14.3115E+06    -1.47908E+06    -107.766E-03     214.292E-03    -106.526E-03     88.0814E-03    -108.445E-03     214.266E-03    -106.293E-03     85.5586E-03
             813     7.28337E-03     100.392E-03    -60.8396E+06    -119.386E+06    -4.06815E+06    -1.28340E+06    -107.864E-03     214.379E-03    -106.515E-03     94.0984E-03    -108.705E-03     214.592E-03    -106.274E-03     91.2238E-03
             814     8.09280E-03     100.499E-03    -53.9179E+06    -96.1387E+06     5.93408E+06    -990.032E+03    -107.879E-03     214.380E-03    -106.501E-03     98.5695E-03    -108.888E-03     214.839E-03    -106.253E-03     95.3695E-03
             815     8.90227E-03     100.610E-03    -47.1062E+06    -68.8314E+06     16.3579E+06    -466.548E+03    -107.784E-03     214.264E-03    -106.480E-03     101.181E-03    -108.957E-03     214.978E-03    -106.231E-03     97.7072E-03
             816     9.71185E-03     100.722E-03    -40.4134E+06    -43.9765E+06     26.1942E+06     20.4186E+03    -107.590E-03     214.049E-03    -106.459E-03     101.372E-03    -108.892E-03     214.975E-03    -106.206E-03     97.6961E-03
             817     10.5214E-03     100.832E-03    -33.8245E+06    -11.5792E+06     36.1435E+06     569.940E+03    -107.265E-03     213.691E-03    -106.426E-03     98.8123E-03    -108.654E-03     214.814E-03    -106.179E-03     95.0285E-03
             818     11.3312E-03     100.939E-03    -27.4750E+06     21.6162E+06     47.3895E+06     1.83165E+06    -106.838E-03     213.235E-03    -106.397E-03     93.0705E-03    -108.253E-03     214.492E-03    -106.151E-03     89.2783E-03
             819     12.1406E-03     101.036E-03    -21.4185E+06     63.0214E+06     55.5601E+06     3.33786E+06    -106.305E-03     212.644E-03    -106.339E-03     84.4611E-03    -107.691E-03     214.016E-03    -106.121E-03     80.7429E-03
             820     12.9507E-03     101.123E-03    -21.0600E+06     96.1492E+06     63.5537E+06    -1.38387E+06    -105.719E-03     212.015E-03    -106.296E-03     73.7520E-03    -107.048E-03     213.426E-03    -106.087E-03     70.0834E-03
             821     13.7600E-03     101.195E-03    -21.7802E+06     96.2705E+06     62.7954E+06    -8.47617E+06    -104.991E-03     211.240E-03    -106.249E-03     59.1602E-03    -106.158E-03     212.489E-03    -106.043E-03     55.5638E-03
             822     14.5712E-03     101.249E-03    -12.1317E+06     114.174E+06     76.1701E+06    -4.05481E+06    -104.298E-03     210.515E-03    -106.217E-03     45.2638E-03    -105.327E-03     211.684E-03    -105.984E-03     41.8348E-03
             823     15.3821E-03     101.290E-03    -3.26312E+06     128.717E+06     95.2259E+06     889.103E+03    -104.430E-03     210.650E-03    -106.219E-03     21.3651E-03    -105.185E-03     211.573E-03    -105.925E-03     18.6244E-03
             824     809.114E-06     101.037E-03    -120.517E+06    -264.673E+06    -116.293E+06    -295.235E+03    -106.547E-03     212.899E-03    -106.351E-03     14.8373E-03    -106.608E-03     211.930E-03    -106.374E-03     14.5442E-03
             825     1.61828E-03     101.060E-03    -115.746E+06    -251.273E+06    -104.024E+06    -693.993E+03    -106.531E-03     212.985E-03    -106.454E-03     26.9843E-03    -106.628E-03     212.081E-03    -106.442E-03     26.4365E-03
             826     2.42741E-03     101.097E-03    -108.954E+06    -236.837E+06    -86.1828E+06    -820.581E+03    -106.689E-03     213.181E-03    -106.492E-03     39.3197E-03    -106.839E-03     212.354E-03    -106.422E-03     38.4913E-03
             827     3.23666E-03     101.148E-03    -100.797E+06    -222.168E+06    -66.8624E+06    -1.05269E+06    -106.909E-03     213.447E-03    -106.538E-03     51.0599E-03    -107.127E-03     212.712E-03    -106.404E-03     49.9273E-03
             828     4.04586E-03     101.211E-03    -92.3221E+06    -202.156E+06    -51.0874E+06    -1.40358E+06    -107.155E-03     213.714E-03    -106.559E-03     61.9572E-03    -107.460E-03     213.122E-03    -106.387E-03     60.4967E-03
             829     4.85512E-03     101.285E-03    -83.6360E+06    -181.891E+06    -37.2966E+06    -1.91695E+06    -107.409E-03     213.979E-03    -106.570E-03     71.8374E-03    -107.819E-03     213.554E-03    -106.372E-03     70.0268E-03
             830     5.66440E-03     101.370E-03    -75.3587E+06    -162.660E+06    -25.3799E+06    -2.39136E+06    -107.643E-03     214.217E-03    -106.574E-03     80.5453E-03    -108.176E-03     213.979E-03    -106.356E-03     78.3703E-03
             831     6.47367E-03     101.464E-03    -67.7734E+06    -142.070E+06    -14.6670E+06    -2.61011E+06    -107.816E-03     214.386E-03    -106.571E-03     87.9658E-03    -108.493E-03     214.361E-03    -106.340E-03     85.4253E-03
             832     7.28303E-03     101.565E-03    -60.3304E+06    -119.589E+06    -4.44587E+06    -2.62318E+06    -107.920E-03     214.481E-03    -106.561E-03     93.9612E-03    -108.758E-03     214.693E-03    -106.322E-03     91.0654E-03
             833     8.09240E-03     101.671E-03    -52.8904E+06    -96.3759E+06     5.73200E+06    -2.43763E+06    -107.947E-03     214.496E-03    -106.549E-03     98.3939E-03    -108.951E-03     214.953E-03    -106.303E-03     95.1705E-03
             834     8.90185E-03     101.782E-03    -45.5045E+06    -69.7280E+06     16.0807E+06    -2.17515E+06    -107.858E-03     214.389E-03    -106.531E-03     100.956E-03    -109.021E-03     215.096E-03    -106.283E-03     97.4553E-03
             835     9.71129E-03     101.894E-03    -38.4346E+06    -44.8421E+06     26.2021E+06    -1.62672E+06    -107.655E-03     214.167E-03    -106.512E-03     101.156E-03    -108.945E-03     215.085E-03    -106.260E-03     97.4540E-03
             836     10.5208E-03     102.005E-03    -31.6676E+06    -12.8992E+06     36.4302E+06    -842.455E+03    -107.270E-03     213.749E-03    -106.479E-03     98.6255E-03    -108.646E-03     214.861E-03    -106.232E-03     94.8216E-03
             837     11.3304E-03     102.110E-03    -25.4076E+06     18.2914E+06     47.0844E+06     769.236E+03    -106.730E-03     213.172E-03    -106.442E-03     93.0161E-03    -108.127E-03     214.408E-03    -106.197E-03     89.2152E-03
             838     12.1404E-03     102.208E-03    -19.5171E+06     60.9151E+06     55.2910E+06     2.44806E+06    -106.074E-03     212.441E-03    -106.368E-03     84.4080E-03    -107.444E-03     213.799E-03    -106.151E-03     80.6897E-03
             839     12.9504E-03     102.294E-03    -12.0729E+06     101.682E+06     68.4398E+06     4.75845E+06    -105.402E-03     211.710E-03    -106.309E-03     73.7050E-03    -106.697E-03     213.126E-03    -106.097E-03     70.1346E-03
             840     13.7608E-03     102.368E-03    -10.4367E+06     108.948E+06     78.7290E+06      425.57E+03    -105.083E-03     211.377E-03    -106.294E-03     59.3977E-03    -106.233E-03     212.648E-03    -106.043E-03     55.9307E-03
             841     14.5701E-03     102.419E-03    -12.8004E+06     107.685E+06     80.2459E+06    -8.48273E+06    -104.919E-03     211.185E-03    -106.266E-03     45.4391E-03    -105.949E-03     212.319E-03    -106.002E-03     41.9350E-03
             842     15.3805E-03     102.463E-03    -591.590E+03     119.452E+06     90.1503E+06    -3.08318E+06    -104.051E-03     210.278E-03    -106.227E-03     21.2591E-03    -104.771E-03     211.158E-03    -105.949E-03     18.4505E-03
             843     809.072E-06     102.209E-03    -121.776E+06    -263.615E+06    -118.744E+06     32.0272E+03    -106.615E-03     212.997E-03    -106.382E-03     14.7784E-03    -106.681E-03     212.039E-03    -106.417E-03     14.4894E-03
             844     1.61812E-03     102.233E-03    -117.149E+06    -250.089E+06    -105.766E+06    -917.862E+03    -106.593E-03     213.099E-03    -106.506E-03     26.9618E-03    -106.697E-03     212.206E-03    -106.502E-03     26.4102E-03
             845     2.42730E-03     102.269E-03    -110.373E+06    -236.323E+06    -87.6588E+06    -1.14399E+06    -106.749E-03     213.298E-03    -106.549E-03     39.3018E-03    -106.906E-03     212.478E-03    -106.484E-03     38.4682E-03
             846     3.23641E-03     102.320E-03    -102.064E+06    -220.868E+06    -68.3956E+06    -1.63452E+06    -106.969E-03     213.563E-03    -106.594E-03     51.0217E-03    -107.193E-03     212.838E-03    -106.468E-03     49.8801E-03
             847     4.04561E-03     102.383E-03    -92.9270E+06    -200.944E+06    -51.9438E+06    -2.36175E+06    -107.220E-03     213.839E-03    -106.619E-03     61.8940E-03    -107.528E-03     213.255E-03    -106.452E-03     60.4187E-03
             848     4.85478E-03     102.458E-03    -84.2413E+06    -180.397E+06    -38.1733E+06    -3.08003E+06    -107.471E-03     214.102E-03    -106.630E-03     71.7431E-03    -107.885E-03     213.687E-03    -106.437E-03     69.9146E-03
             849     5.66401E-03     102.542E-03    -76.0781E+06    -161.606E+06    -26.3628E+06    -3.69999E+06    -107.703E-03     214.338E-03    -106.635E-03     80.4205E-03    -108.239E-03     214.107E-03    -106.423E-03     78.2253E-03
             850     6.47326E-03     102.636E-03    -68.0675E+06    -141.327E+06    -15.5840E+06    -4.07610E+06    -107.883E-03     214.516E-03    -106.633E-03     87.8122E-03    -108.562E-03     214.497E-03    -106.407E-03     85.2484E-03
             851     7.28254E-03     102.737E-03    -60.3485E+06    -118.795E+06    -5.31636E+06    -4.59231E+06    -107.997E-03     214.621E-03    -106.624E-03     93.8004E-03    -108.834E-03     214.838E-03    -106.391E-03     90.8747E-03
             852     8.09184E-03     102.844E-03    -52.6033E+06    -96.6886E+06     4.67555E+06    -4.70376E+06    -108.023E-03     214.638E-03    -106.614E-03     98.2102E-03    -109.023E-03     215.093E-03    -106.374E-03     94.9532E-03
             853     8.90113E-03     102.954E-03    -45.2752E+06    -69.9427E+06     15.1095E+06    -4.37637E+06    -107.906E-03     214.502E-03    -106.596E-03     100.794E-03    -109.065E-03     215.209E-03    -106.354E-03     97.2615E-03
             854     9.71057E-03     103.066E-03    -38.5888E+06    -46.1623E+06     24.9996E+06    -3.78487E+06    -107.637E-03     214.211E-03    -106.575E-03     101.046E-03    -108.923E-03     215.124E-03    -106.327E-03     97.3159E-03
             855     10.5201E-03     103.177E-03    -31.9423E+06    -14.2026E+06     35.2118E+06    -2.77769E+06    -107.178E-03     213.712E-03    -106.533E-03     98.5480E-03    -108.550E-03     214.817E-03    -106.290E-03     94.7227E-03
             856     11.3300E-03     103.283E-03    -25.6006E+06     13.8493E+06     44.9305E+06    -546.551E+03    -106.568E-03     213.051E-03    -106.483E-03     92.8733E-03    -107.955E-03     214.266E-03    -106.241E-03     89.0619E-03
             857     12.1400E-03     103.380E-03    -20.6843E+06     57.9105E+06     53.7080E+06     2.62126E+06    -105.826E-03     212.220E-03    -106.394E-03     84.2705E-03    -107.193E-03     213.563E-03    -106.179E-03     80.5686E-03
             858     12.9502E-03     103.466E-03    -16.8351E+06     101.678E+06     65.2068E+06     1.56458E+06    -105.082E-03     211.392E-03    -106.309E-03     73.3970E-03    -106.395E-03     212.816E-03    -106.106E-03     69.7910E-03
             859     13.7611E-03     103.538E-03    -8.75908E+06     112.128E+06     76.8219E+06     3.06615E+06    -104.743E-03     211.011E-03    -106.268E-03     59.4870E-03    -105.884E-03     212.296E-03    -106.034E-03     56.0688E-03
             860     14.5712E-03     103.594E-03    -4.30698E+06     122.982E+06     90.0613E+06     110.041E+03    -104.800E-03     211.057E-03    -106.257E-03     46.6360E-03    -105.816E-03     212.233E-03    -105.979E-03     43.2878E-03
             861     15.3795E-03     103.633E-03    -11.7065E+06     118.501E+06     87.6047E+06    -2.56052E+06    -105.475E-03     211.717E-03    -106.242E-03     21.0993E-03    -106.235E-03     212.600E-03    -105.959E-03     18.3014E-03
             862     808.979E-06     103.382E-03    -122.758E+06    -262.115E+06    -120.655E+06    -920.088E+03    -106.673E-03     213.137E-03    -106.464E-03     14.7752E-03    -106.742E-03     212.190E-03    -106.509E-03     14.4732E-03
             863     1.61806E-03     103.405E-03    -118.559E+06    -248.832E+06    -107.423E+06    -1.14740E+06    -106.675E-03     213.252E-03    -106.577E-03     26.9464E-03    -106.785E-03     212.370E-03    -106.581E-03     26.3911E-03
             864     2.42706E-03     103.442E-03    -111.772E+06    -235.169E+06    -88.4086E+06    -1.54262E+06    -106.839E-03     213.469E-03    -106.630E-03     39.2711E-03    -107.003E-03     212.658E-03    -106.569E-03     38.4308E-03
             865     3.23617E-03     103.492E-03    -103.211E+06    -218.446E+06    -69.7298E+06    -2.71334E+06    -107.057E-03     213.730E-03    -106.673E-03     50.9790E-03    -107.287E-03     213.021E-03    -106.555E-03     49.8211E-03
             866     4.04523E-03     103.556E-03    -94.1524E+06    -199.254E+06    -53.4987E+06    -3.75612E+06    -107.301E-03     214.000E-03    -106.699E-03     61.8317E-03    -107.616E-03     213.429E-03    -106.541E-03     60.3354E-03
             867     4.85437E-03     103.630E-03    -85.2024E+06    -178.447E+06    -39.5508E+06    -4.48501E+06    -107.554E-03     214.265E-03    -106.711E-03     71.6602E-03    -107.973E-03     213.864E-03    -106.527E-03     69.8099E-03
             868     5.66350E-03     103.715E-03    -76.8636E+06    -159.888E+06    -27.6146E+06    -5.25213E+06    -107.787E-03     214.505E-03    -106.718E-03     80.2981E-03    -108.328E-03     214.285E-03    -106.513E-03     78.0785E-03
             869     6.47266E-03     103.809E-03    -68.6870E+06    -139.748E+06    -16.7548E+06    -6.15484E+06    -107.969E-03     214.685E-03    -106.717E-03     87.6729E-03    -108.651E-03     214.676E-03    -106.498E-03     85.0778E-03
             870     7.28184E-03     103.910E-03    -60.8327E+06    -117.626E+06    -6.53835E+06    -6.71667E+06    -108.079E-03     214.788E-03    -106.709E-03     93.6507E-03    -108.919E-03     215.013E-03    -106.483E-03     90.6931E-03
             871     8.09106E-03     104.016E-03    -53.8774E+06    -96.2003E+06     3.21654E+06    -6.93206E+06    -108.072E-03     214.770E-03    -106.698E-03     98.0321E-03    -109.076E-03     215.232E-03    -106.465E-03     94.7419E-03
             872     8.90042E-03     104.127E-03    -47.4769E+06    -70.6522E+06     13.0760E+06    -6.50352E+06    -107.901E-03     214.577E-03    -106.677E-03     100.572E-03    -109.066E-03     215.286E-03    -106.440E-03     97.0081E-03
             873     9.70992E-03     104.238E-03    -41.1916E+06    -46.8351E+06     23.0943E+06    -5.62863E+06    -107.601E-03     214.250E-03    -106.649E-03     100.723E-03    -108.895E-03     215.165E-03    -106.406E-03     96.9664E-03
             874     10.5196E-03     104.349E-03    -35.5750E+06    -16.5522E+06     32.3243E+06    -4.20110E+06    -107.136E-03     213.736E-03    -106.600E-03     97.9811E-03    -108.517E-03     214.838E-03    -106.363E-03     94.1304E-03
             875     11.3294E-03     104.454E-03    -30.1581E+06     10.9116E+06     41.6875E+06    -2.70519E+06    -106.570E-03     213.118E-03    -106.548E-03     91.9804E-03    -107.970E-03     214.328E-03    -106.311E-03     88.1265E-03
             876     12.1396E-03     104.551E-03    -21.8403E+06     53.0884E+06     50.7430E+06    -941.347E+03    -105.868E-03     212.328E-03    -106.459E-03     82.8266E-03    -107.229E-03     213.652E-03    -106.251E-03     79.0508E-03
             877     12.9504E-03     104.637E-03    -14.0201E+06     101.729E+06     64.9569E+06     3.03454E+06    -105.224E-03     211.605E-03    -106.381E-03     71.4190E-03    -106.521E-03     213.025E-03    -106.183E-03     67.7913E-03
             878     13.7602E-03     104.710E-03    -10.6792E+06     113.244E+06     73.1436E+06     253.879E+03    -104.802E-03     211.136E-03    -106.334E-03     56.8971E-03    -105.948E-03     212.434E-03    -106.117E-03     53.3893E-03
             879     14.5718E-03     104.763E-03    -11.8150E+06     123.280E+06     84.1094E+06     3.34941E+06    -105.161E-03     211.496E-03    -106.335E-03     42.3501E-03    -106.198E-03     212.684E-03    -106.076E-03     38.9858E-03
             880     15.3846E-03     104.807E-03    -17.1229E+06     121.534E+06     87.6246E+06     4.26561E+06    -106.329E-03     212.705E-03    -106.376E-03     17.7811E-03    -107.112E-03     213.603E-03    -106.089E-03     15.0513E-03
             881     808.965E-06     104.554E-03    -124.332E+06    -259.676E+06    -120.602E+06    -1.25195E+06    -106.745E-03     213.329E-03    -106.584E-03     14.7889E-03    -106.826E-03     212.396E-03    -106.630E-03     14.4812E-03
             882     1.61783E-03     104.577E-03    -119.246E+06    -247.797E+06    -106.609E+06    -1.36902E+06    -106.793E-03     213.480E-03    -106.687E-03     26.9126E-03    -106.909E-03     212.602E-03    -106.688E-03     26.3537E-03
             883     2.42684E-03     104.614E-03    -111.513E+06    -232.774E+06    -87.8797E+06    -2.18731E+06    -106.956E-03     213.696E-03    -106.741E-03     39.2292E-03    -107.122E-03     212.896E-03    -106.681E-03     38.3786E-03
             884     3.23576E-03     104.665E-03    -102.935E+06    -215.446E+06    -69.7145E+06    -3.47002E+06    -107.167E-03     213.950E-03    -106.782E-03     50.9113E-03    -107.401E-03     213.256E-03    -106.669E-03     49.7406E-03
             885     4.04479E-03     104.728E-03    -94.3225E+06    -196.436E+06    -54.4105E+06    -4.90988E+06    -107.409E-03     214.214E-03    -106.805E-03     61.7430E-03    -107.727E-03     213.658E-03    -106.656E-03     60.2281E-03
             886     4.85381E-03     104.803E-03    -85.6432E+06    -176.119E+06    -40.9007E+06    -6.12060E+06    -107.659E-03     214.475E-03    -106.816E-03     71.5538E-03    -108.082E-03     214.087E-03    -106.641E-03     69.6782E-03
             887     5.66287E-03     104.888E-03    -77.1987E+06    -157.529E+06    -28.7180E+06    -7.06092E+06    -107.905E-03     214.730E-03    -106.825E-03     80.1555E-03    -108.450E-03     214.525E-03    -106.628E-03     77.9070E-03
             888     6.47192E-03     104.981E-03    -69.7198E+06    -137.484E+06    -18.0307E+06    -7.87880E+06    -108.095E-03     214.922E-03    -106.827E-03     87.4635E-03    -108.784E-03     214.928E-03    -106.616E-03     84.8385E-03
             889     7.28105E-03     105.082E-03    -63.0173E+06    -116.419E+06    -8.27651E+06    -8.24655E+06    -108.188E-03     215.011E-03    -106.823E-03     93.3297E-03    -109.038E-03     215.247E-03    -106.604E-03     90.3427E-03
             890     8.09020E-03     105.189E-03    -56.8972E+06    -95.3862E+06     1.03143E+06    -8.11157E+06    -108.156E-03     214.968E-03    -106.813E-03     97.5325E-03    -109.172E-03     215.441E-03    -106.587E-03     94.2150E-03
             891     8.89947E-03     105.299E-03    -50.9012E+06    -70.7994E+06     10.3618E+06    -7.83650E+06    -107.995E-03     214.787E-03    -106.792E-03     99.8491E-03    -109.174E-03     215.504E-03    -106.564E-03     96.2528E-03
             892     9.70887E-03     105.411E-03    -44.8752E+06    -47.6590E+06     19.4424E+06    -7.15557E+06    -107.721E-03     214.486E-03    -106.765E-03     99.7285E-03    -109.026E-03     215.407E-03    -106.534E-03     95.9314E-03
             893     10.5183E-03     105.521E-03    -38.9313E+06    -19.3501E+06     28.1606E+06    -5.46363E+06    -107.316E-03     214.040E-03    -106.724E-03     96.7086E-03    -108.703E-03     215.139E-03    -106.499E-03     92.8153E-03
             894     11.3279E-03     105.626E-03    -33.0220E+06     9.56087E+06     37.6704E+06    -3.75341E+06    -106.827E-03     213.508E-03    -106.681E-03     90.5306E-03    -108.232E-03     214.721E-03    -106.459E-03     86.6335E-03
             895     12.1373E-03     105.723E-03    -29.0235E+06     51.9486E+06     45.2085E+06    -3.67231E+06    -106.289E-03     212.900E-03    -106.610E-03     81.2911E-03    -107.676E-03     214.237E-03    -106.418E-03     77.4428E-03
             896     12.9464E-03     105.809E-03    -21.2304E+06     96.5626E+06     57.6488E+06    -4.20480E+06    -105.697E-03     212.250E-03    -106.553E-03     69.9016E-03    -107.013E-03     213.666E-03    -106.374E-03     66.1403E-03
             897     13.7569E-03     105.882E-03    -11.0700E+06     113.799E+06     76.4393E+06     1.34017E+06    -105.487E-03     212.055E-03    -106.568E-03     55.5715E-03    -106.638E-03     213.348E-03    -106.335E-03     52.0510E-03
             898     14.5647E-03     105.936E-03    -12.7801E+06     110.969E+06     82.5814E+06     7.70031E+06    -104.959E-03     211.525E-03    -106.566E-03     43.6013E-03    -105.982E-03     212.657E-03    -106.296E-03     40.3370E-03
             899     15.3673E-03     105.984E-03    -2.80865E+06     119.274E+06     91.6235E+06     3.89446E+06    -102.306E-03     208.781E-03    -106.475E-03     21.8957E-03    -103.031E-03     209.654E-03    -106.186E-03     19.2723E-03
             900     808.789E-06     105.727E-03    -124.968E+06    -256.806E+06    -121.063E+06    -1.23859E+06    -106.876E-03     213.599E-03    -106.723E-03     14.8032E-03    -106.963E-03     212.683E-03    -106.775E-03     14.4954E-03
             901     1.61766E-03     105.750E-03    -119.418E+06    -246.003E+06    -106.585E+06    -1.92250E+06    -106.940E-03     213.769E-03    -106.828E-03     26.8980E-03    -107.060E-03     212.900E-03    -106.831E-03     26.3302E-03
             902     2.42642E-03     105.787E-03    -111.986E+06    -229.854E+06    -88.8465E+06    -2.89459E+06    -107.095E-03     213.973E-03    -106.878E-03     39.1610E-03    -107.267E-03     213.190E-03    -106.827E-03     38.2987E-03
             903     3.23535E-03     105.838E-03    -103.618E+06    -212.050E+06    -71.2870E+06    -4.22687E+06    -107.304E-03     214.220E-03    -106.916E-03     50.8118E-03    -107.544E-03     213.546E-03    -106.815E-03     49.6275E-03
             904     4.04420E-03     105.901E-03    -95.1372E+06    -192.617E+06    -55.4601E+06    -5.85834E+06    -107.558E-03     214.502E-03    -106.943E-03     61.5902E-03    -107.885E-03     213.968E-03    -106.803E-03     60.0574E-03
             905     4.85313E-03     105.976E-03    -87.0812E+06    -173.162E+06    -42.3015E+06    -7.24543E+06    -107.824E-03     214.783E-03    -106.959E-03     71.3154E-03    -108.256E-03     214.414E-03    -106.793E-03     69.4171E-03
             906     5.66204E-03     106.061E-03    -79.4602E+06    -154.748E+06    -30.7744E+06    -8.31305E+06    -108.084E-03     215.056E-03    -106.972E-03     79.8249E-03    -108.641E-03     214.871E-03    -106.787E-03     77.5498E-03
             907     6.47095E-03     106.154E-03    -72.2299E+06    -135.145E+06    -20.1636E+06    -9.07410E+06    -108.298E-03     215.281E-03    -106.983E-03     86.9914E-03    -109.000E-03     215.306E-03    -106.783E-03     84.3361E-03
             908     7.27979E-03     106.255E-03    -65.3773E+06    -115.095E+06    -10.6496E+06    -9.30014E+06    -108.396E-03     215.384E-03    -106.988E-03     92.6760E-03    -109.256E-03     215.635E-03    -106.780E-03     89.6564E-03
             909     8.08874E-03     106.362E-03    -58.7378E+06    -94.6411E+06    -1.63892E+06    -9.23488E+06    -108.374E-03     215.360E-03    -106.986E-03     96.7115E-03    -109.397E-03     215.844E-03    -106.772E-03     93.3582E-03
             910     8.89772E-03     106.472E-03    -52.0929E+06    -69.9351E+06     7.72088E+06    -9.24620E+06    -108.228E-03     215.202E-03    -106.973E-03     98.9250E-03    -109.410E-03     215.928E-03    -106.758E-03     95.2885E-03
             911     9.70666E-03     106.584E-03    -45.4949E+06    -49.1263E+06     16.2746E+06    -8.34896E+06    -107.937E-03     214.891E-03    -106.954E-03     98.8019E-03    -109.238E-03     215.809E-03    -106.736E-03     94.9710E-03
             912     10.5158E-03     106.694E-03    -39.1357E+06    -21.2340E+06     25.0516E+06    -6.99697E+06    -107.481E-03     214.397E-03    -106.916E-03     96.0379E-03    -108.859E-03     215.487E-03    -106.703E-03     92.1179E-03
             913     11.3249E-03     106.799E-03    -33.2981E+06     6.15573E+06     34.3259E+06    -4.54179E+06    -106.918E-03     213.788E-03    -106.870E-03     90.3494E-03    -108.310E-03     214.984E-03    -106.659E-03     86.4502E-03
             914     12.1344E-03     106.896E-03    -27.0998E+06     53.5528E+06     43.7050E+06    -3.20166E+06    -106.222E-03     213.005E-03    -106.783E-03     82.1061E-03    -107.592E-03     214.343E-03    -106.603E-03     78.2990E-03
             915     12.9441E-03     106.982E-03    -25.7247E+06     97.3357E+06     55.5083E+06    -3.80032E+06    -105.566E-03     212.277E-03    -106.711E-03     72.0861E-03    -106.898E-03     213.702E-03    -106.537E-03     68.3883E-03
             916     13.7529E-03     107.053E-03    -27.3218E+06     96.0786E+06     56.7757E+06     2.19857E+06    -104.459E-03     211.092E-03    -106.633E-03     59.8872E-03    -105.635E-03     212.347E-03    -106.449E-03     56.4856E-03
             917     14.5634E-03     107.111E-03    -10.1229E+06     113.146E+06     75.4052E+06     5.63194E+06    -101.866E-03     208.376E-03    -106.510E-03     48.2297E-03    -102.870E-03     209.527E-03    -106.283E-03     45.0898E-03
             918     15.3869E-03     107.146E-03     4.66681E+06     131.050E+06     99.4859E+06     570.730E+03    -100.926E-03     207.274E-03    -106.348E-03     22.8990E-03    -101.642E-03     208.184E-03    -106.048E-03     20.2938E-03
             919     808.709E-06     106.900E-03    -124.420E+06    -253.945E+06    -121.103E+06    -970.052E+03    -107.077E-03     213.998E-03    -106.920E-03     14.7468E-03    -107.167E-03     213.095E-03    -106.977E-03     14.4415E-03
             920     1.61731E-03     106.923E-03    -119.897E+06    -243.137E+06    -107.810E+06    -2.09821E+06    -107.117E-03     214.134E-03    -107.018E-03     26.8076E-03    -107.242E-03     213.283E-03    -107.030E-03     26.2345E-03
             921     2.42604E-03     106.960E-03    -113.011E+06    -226.568E+06    -90.7298E+06    -3.43517E+06    -107.281E-03     214.341E-03    -107.060E-03     39.0095E-03    -107.460E-03     213.578E-03    -107.022E-03     38.1356E-03
             922     3.23470E-03     107.011E-03    -105.065E+06    -207.976E+06    -73.1536E+06    -5.01108E+06    -107.508E-03     214.610E-03    -107.102E-03     50.6000E-03    -107.759E-03     213.962E-03    -107.014E-03     49.3987E-03
             923     4.04345E-03     107.074E-03    -96.6978E+06    -188.615E+06    -57.0454E+06    -6.64716E+06    -107.790E-03     214.928E-03    -107.138E-03     61.2864E-03    -108.128E-03     214.419E-03    -107.009E-03     59.7335E-03
             924     4.85211E-03     107.149E-03    -88.5461E+06    -169.744E+06    -43.5871E+06    -7.97058E+06    -108.092E-03     215.259E-03    -107.168E-03     70.8947E-03    -108.536E-03     214.913E-03    -107.011E-03     68.9731E-03
             925     5.66075E-03     107.234E-03    -80.9317E+06    -151.495E+06    -32.4121E+06    -9.12886E+06    -108.362E-03     215.554E-03    -107.192E-03     79.3087E-03    -108.930E-03     215.391E-03    -107.017E-03     77.0065E-03
             926     6.46934E-03     107.328E-03    -73.7010E+06    -132.701E+06    -22.2147E+06    -10.0235E+06    -108.555E-03     215.766E-03    -107.211E-03     86.4096E-03    -109.265E-03     215.809E-03    -107.023E-03     83.7253E-03
             927     7.27796E-03     107.429E-03    -66.5707E+06    -113.330E+06    -12.7848E+06    -10.5890E+06    -108.634E-03     215.856E-03    -107.222E-03     92.0628E-03    -109.500E-03     216.121E-03    -107.025E-03     89.0112E-03
             928     8.08658E-03     107.536E-03    -59.3510E+06    -93.1467E+06    -3.56168E+06    -11.1148E+06    -108.576E-03     215.797E-03    -107.222E-03     96.2248E-03    -109.600E-03     216.291E-03    -107.019E-03     92.8366E-03
             929     8.89524E-03     107.646E-03    -52.6307E+06    -69.4212E+06     5.81238E+06    -11.0046E+06    -108.334E-03     215.538E-03    -107.204E-03     98.6408E-03    -109.513E-03     216.267E-03    -106.998E-03     94.9806E-03
             930     9.70427E-03     107.757E-03    -46.1240E+06    -49.7527E+06     14.6150E+06    -10.5508E+06    -107.901E-03     215.073E-03    -107.172E-03     98.8368E-03    -109.196E-03     215.985E-03    -106.960E-03     94.9900E-03
             931     10.5134E-03     107.867E-03    -39.3517E+06    -23.0708E+06     23.6129E+06    -9.27113E+06    -107.253E-03     214.360E-03    -107.106E-03     96.5234E-03    -108.621E-03     215.437E-03    -106.898E-03     92.6014E-03
             932     11.3233E-03     107.972E-03    -31.3655E+06     3.72633E+06     33.9249E+06    -8.42366E+06    -106.436E-03     213.456E-03    -107.020E-03     91.3577E-03    -107.807E-03     214.631E-03    -106.811E-03     87.4519E-03
             933     12.1333E-03     108.068E-03    -24.9034E+06     48.2480E+06     43.0851E+06    -4.33983E+06    -105.407E-03     212.284E-03    -106.878E-03     83.4234E-03    -106.752E-03     213.588E-03    -106.696E-03     79.6568E-03
             934     12.9444E-03     108.153E-03    -22.6117E+06     88.6130E+06     53.8268E+06     6.66553E+06    -104.209E-03     210.933E-03    -106.724E-03     73.6681E-03    -105.503E-03     212.305E-03    -106.550E-03     70.1863E-03
             935     13.7563E-03     108.226E-03    -20.6738E+06     98.5224E+06     58.4585E+06     5.94604E+06    -102.674E-03     209.218E-03    -106.544E-03     59.7698E-03    -103.815E-03     210.466E-03    -106.364E-03     56.4832E-03
             936     14.5722E-03     108.274E-03    -13.3754E+06     119.539E+06     74.6573E+06    -5.02791E+06    -101.793E-03     208.164E-03    -106.371E-03     44.0312E-03    -102.820E-03     209.351E-03    -106.152E-03     40.6745E-03
             937     15.3782E-03     108.314E-03    -4.26331E+06     129.643E+06     95.1940E+06    -4.26089E+06    -102.493E-03     208.755E-03    -106.262E-03     19.5314E-03    -103.249E-03     209.680E-03    -105.968E-03     16.7486E-03
             938     808.362E-06     108.074E-03    -125.340E+06    -251.462E+06    -121.745E+06    -736.978E+03    -107.369E-03     214.547E-03    -107.178E-03     14.6698E-03    -107.465E-03     213.659E-03    -107.241E-03     14.3649E-03
             939     1.61690E-03     108.097E-03    -120.399E+06    -239.285E+06    -108.358E+06    -2.29267E+06    -107.369E-03     214.657E-03    -107.288E-03     26.6662E-03    -107.501E-03     213.826E-03    -107.308E-03     26.0859E-03
             940     2.42535E-03     108.134E-03    -113.337E+06    -222.530E+06    -91.2960E+06    -4.04702E+06    -107.553E-03     214.881E-03    -107.328E-03     38.7938E-03    -107.739E-03     214.139E-03    -107.297E-03     37.9049E-03
             941     3.23385E-03     108.185E-03    -105.079E+06    -203.656E+06    -73.6163E+06    -5.70816E+06    -107.813E-03     215.188E-03    -107.375E-03     50.3013E-03    -108.069E-03     214.562E-03    -107.295E-03     49.0812E-03
             942     4.04223E-03     108.248E-03    -96.7813E+06    -184.533E+06    -57.8511E+06    -7.22138E+06    -108.110E-03     215.530E-03    -107.420E-03     60.9290E-03    -108.455E-03     215.043E-03    -107.301E-03     59.3567E-03
             943     4.85062E-03     108.323E-03    -88.7796E+06    -165.963E+06    -44.4454E+06    -8.67237E+06    -108.404E-03     215.861E-03    -107.458E-03     70.5073E-03    -108.853E-03     215.535E-03    -107.310E-03     68.5642E-03
             944     5.65893E-03     108.408E-03    -81.2206E+06    -147.960E+06    -33.0976E+06    -9.94782E+06    -108.630E-03     216.116E-03    -107.485E-03     78.9465E-03    -109.203E-03     215.971E-03    -107.319E-03     76.6225E-03
             945     6.46728E-03     108.502E-03    -73.8886E+06    -129.739E+06    -23.0487E+06    -11.0418E+06    -108.747E-03     216.246E-03    -107.499E-03     86.1379E-03    -109.460E-03     216.303E-03    -107.319E-03     83.4343E-03
             946     7.27572E-03     108.603E-03    -66.7395E+06    -110.527E+06    -13.5895E+06    -12.1524E+06    -108.729E-03     216.224E-03    -107.495E-03     91.9275E-03    -109.596E-03     216.501E-03    -107.306E-03     88.8569E-03
             947     8.08432E-03     108.710E-03    -59.9987E+06    -90.9854E+06    -4.32416E+06    -12.8964E+06    -108.538E-03     216.010E-03    -107.472E-03     96.2640E-03    -109.564E-03     216.512E-03    -107.274E-03     92.8625E-03
             948     8.89328E-03     108.819E-03    -52.9894E+06    -68.5542E+06     5.13825E+06    -13.2244E+06    -108.138E-03     215.559E-03    -107.422E-03     98.8673E-03    -109.313E-03     216.289E-03    -107.220E-03     95.1978E-03
             949     9.70244E-03     108.930E-03    -46.1106E+06    -49.0089E+06     14.0737E+06    -13.2692E+06    -107.544E-03     214.890E-03    -107.346E-03     99.2012E-03    -108.834E-03     215.801E-03    -107.138E-03     95.3453E-03
             950     10.5123E-03     109.040E-03    -38.7044E+06    -24.1960E+06     22.7085E+06    -13.0596E+06    -106.723E-03     213.954E-03    -107.231E-03     96.9105E-03    -108.078E-03     215.020E-03    -107.026E-03     92.9702E-03
             951     11.3224E-03     109.144E-03    -32.8108E+06     2.28296E+06     32.3069E+06    -11.2189E+06    -105.700E-03     212.789E-03    -107.088E-03     91.5867E-03    -107.068E-03     213.955E-03    -106.883E-03     87.6786E-03
             952     12.1337E-03     109.239E-03    -28.6131E+06     35.1173E+06     37.9119E+06    -4.26219E+06    -104.544E-03     211.434E-03    -106.889E-03     83.2727E-03    -105.876E-03     212.679E-03    -106.709E-03     79.5408E-03
             953     12.9449E-03     109.324E-03    -19.1180E+06     76.2650E+06     50.8555E+06     2.13213E+06    -103.233E-03     209.909E-03    -106.677E-03     72.3707E-03    -104.479E-03     211.211E-03    -106.505E-03     68.8577E-03
             954     13.7582E-03     109.393E-03    -6.65242E+06     109.060E+06     69.3003E+06     3.32274E+06    -102.624E-03     209.114E-03    -106.490E-03     57.2821E-03    -103.720E-03     210.372E-03    -106.292E-03     53.9457E-03
             955     14.5666E-03     109.445E-03    -3.56216E+06     127.988E+06     88.0645E+06     646.688E+03    -102.992E-03     209.367E-03    -106.375E-03     44.1328E-03    -104.001E-03     210.562E-03    -106.115E-03     40.8390E-03
             956     15.3804E-03     109.486E-03    -7.13251E+06     125.926E+06     95.5703E+06    -2.79217E+06    -103.318E-03     209.609E-03    -106.292E-03     21.0966E-03    -104.084E-03     210.520E-03    -105.986E-03     18.3537E-03
             957     808.192E-06     109.248E-03    -124.951E+06    -248.489E+06    -121.792E+06    -1.39644E+06    -107.728E-03     215.263E-03    -107.535E-03     14.5512E-03    -107.827E-03     214.389E-03    -107.603E-03     14.2346E-03
             958     1.61628E-03     109.271E-03    -120.034E+06    -235.034E+06    -108.150E+06    -2.76276E+06    -107.737E-03     215.384E-03    -107.647E-03     26.5089E-03    -107.874E-03     214.574E-03    -107.673E-03     25.9172E-03
             959     2.42447E-03     109.309E-03    -113.136E+06    -217.808E+06    -90.8575E+06    -4.52808E+06    -107.912E-03     215.602E-03    -107.690E-03     38.6047E-03    -108.105E-03     214.884E-03    -107.665E-03     37.7028E-03
             960     3.23257E-03     109.360E-03    -104.983E+06      -199.2E+06    -73.5023E+06    -6.34980E+06    -108.157E-03     215.893E-03    -107.736E-03     50.1006E-03    -108.420E-03     215.289E-03    -107.662E-03     48.8648E-03
             961     4.04071E-03     109.423E-03    -96.5389E+06    -180.207E+06    -57.9112E+06    -7.93946E+06    -108.419E-03     216.193E-03    -107.774E-03     60.7563E-03    -108.768E-03     215.727E-03    -107.662E-03     59.1680E-03
             962     4.84879E-03     109.498E-03    -88.4096E+06    -161.797E+06    -44.4728E+06    -9.42466E+06    -108.634E-03     216.432E-03    -107.799E-03     70.3985E-03    -109.087E-03     216.126E-03    -107.659E-03     68.4419E-03
             963     5.65698E-03     109.583E-03    -80.5061E+06    -144.138E+06    -32.7877E+06    -10.8007E+06    -108.771E-03     216.577E-03    -107.806E-03     78.9182E-03    -109.345E-03     216.449E-03    -107.644E-03     76.5831E-03
             964     6.46529E-03     109.677E-03    -72.9499E+06    -125.909E+06    -22.4499E+06    -12.2464E+06    -108.789E-03     216.580E-03    -107.791E-03     86.1872E-03    -109.501E-03     216.652E-03    -107.615E-03     83.4726E-03
             965     7.27380E-03     109.778E-03    -65.9590E+06    -107.087E+06    -13.0593E+06    -13.5777E+06    -108.645E-03     216.397E-03    -107.752E-03     92.0357E-03    -109.510E-03     216.686E-03    -107.566E-03     88.9561E-03
             966     8.08261E-03     109.884E-03    -59.1371E+06    -88.1292E+06    -3.76478E+06    -14.7560E+06    -108.322E-03     216.010E-03    -107.688E-03     96.3553E-03    -109.344E-03     216.520E-03    -107.493E-03     92.9444E-03
             967     8.89169E-03     109.993E-03    -52.5142E+06    -66.4933E+06     5.48018E+06    -15.5903E+06    -107.810E-03     215.403E-03    -107.593E-03     98.8644E-03    -108.981E-03     216.136E-03    -107.393E-03     95.1816E-03
             968     9.70148E-03     110.103E-03    -45.8256E+06    -48.0162E+06     14.3095E+06    -15.6046E+06    -107.137E-03     214.611E-03    -107.474E-03     99.0043E-03    -108.421E-03     215.520E-03    -107.266E-03     95.1370E-03
             969     10.5114E-03     110.212E-03    -40.2707E+06    -23.1167E+06     22.5465E+06    -15.3489E+06    -106.270E-03     213.588E-03    -107.318E-03     96.3532E-03    -107.628E-03     214.655E-03    -107.113E-03     92.3999E-03
             970     11.3224E-03     110.315E-03    -34.9184E+06    -3.58230E+06     30.2808E+06    -12.0351E+06    -105.288E-03     212.431E-03    -107.143E-03     90.5272E-03    -106.649E-03     213.567E-03    -106.936E-03     86.6186E-03
             971     12.1333E-03     110.410E-03    -27.5480E+06     26.1689E+06     36.3201E+06    -7.73997E+06    -104.255E-03     211.177E-03    -106.922E-03     81.5011E-03    -105.557E-03     212.369E-03    -106.739E-03     77.7269E-03
             972     12.9459E-03     110.493E-03    -19.9658E+06     73.3943E+06     51.9797E+06    -6.03034E+06    -103.530E-03     210.250E-03    -106.720E-03     70.0022E-03    -104.772E-03     211.531E-03    -106.537E-03     66.3554E-03
             973     13.7566E-03     110.563E-03    -13.0738E+06     104.468E+06     61.4203E+06    -3.38023E+06    -103.065E-03     209.589E-03    -106.524E-03     55.2442E-03    -104.175E-03     210.845E-03    -106.350E-03     51.7623E-03
             974     14.5713E-03     110.615E-03    -5.96371E+06     127.679E+06     82.4177E+06     1.51454E+06    -102.756E-03     209.172E-03    -106.416E-03     41.5655E-03    -103.761E-03     210.370E-03    -106.181E-03     38.2528E-03
             975     15.3826E-03     110.654E-03    -6.13402E+06     129.086E+06     99.4100E+06     3.32533E+06    -103.360E-03     209.724E-03    -106.364E-03     18.8321E-03    -104.121E-03     210.634E-03    -106.046E-03     16.1691E-03
             976     807.724E-06     110.423E-03    -124.168E+06    -244.227E+06    -120.803E+06    -1.94618E+06    -108.155E-03     216.117E-03    -107.961E-03     14.5366E-03    -108.258E-03     215.262E-03    -108.031E-03     14.2106E-03
             977     1.61556E-03     110.447E-03    -119.118E+06    -230.650E+06    -107.416E+06    -3.26439E+06    -108.153E-03     216.224E-03    -108.071E-03     26.4478E-03    -108.293E-03     215.433E-03    -108.101E-03     25.8472E-03
             978     2.42334E-03     110.484E-03    -111.987E+06    -212.584E+06    -89.8528E+06    -5.14232E+06    -108.284E-03     216.389E-03    -108.105E-03     38.5859E-03    -108.480E-03     215.694E-03    -108.084E-03     37.6729E-03
             979     3.23123E-03     110.535E-03    -103.751E+06    -194.307E+06    -72.3764E+06    -7.12621E+06    -108.466E-03     216.600E-03    -108.133E-03     50.1248E-03    -108.732E-03     216.016E-03    -108.063E-03     48.8766E-03
             980     4.03909E-03     110.599E-03    -95.1369E+06    -175.639E+06    -56.7630E+06    -8.78236E+06    -108.636E-03     216.781E-03    -108.145E-03     60.8103E-03    -108.986E-03     216.334E-03    -108.036E-03     59.2109E-03
             981     4.84712E-03     110.674E-03    -87.0002E+06    -157.396E+06    -43.3450E+06    -10.2735E+06    -108.762E-03     216.898E-03    -108.136E-03     70.4707E-03    -109.215E-03     216.609E-03    -107.998E-03     68.5044E-03
             982     5.65527E-03     110.759E-03    -79.2600E+06    -139.806E+06    -31.6210E+06    -11.8335E+06    -108.812E-03     216.919E-03    -108.107E-03     78.9708E-03    -109.386E-03     216.807E-03    -107.947E-03     76.6259E-03
             983     6.46359E-03     110.852E-03    -72.1437E+06    -121.606E+06    -21.2135E+06    -13.3427E+06    -108.731E-03     216.785E-03    -108.054E-03     86.1674E-03    -109.445E-03     216.873E-03    -107.879E-03     83.4441E-03
             984     7.27222E-03     110.952E-03    -65.4897E+06    -103.153E+06    -11.7497E+06    -14.7708E+06    -108.504E-03     216.481E-03    -107.976E-03     91.9057E-03    -109.371E-03     216.783E-03    -107.791E-03     88.8180E-03
             985     8.08114E-03     111.058E-03    -58.9934E+06    -84.3566E+06    -2.69918E+06    -16.0896E+06    -108.125E-03     215.999E-03    -107.874E-03     96.0187E-03    -109.148E-03     216.521E-03    -107.680E-03     92.5988E-03
             986     8.89062E-03     111.167E-03    -52.9387E+06    -63.8107E+06     6.08667E+06    -16.9328E+06    -107.586E-03     215.332E-03    -107.746E-03     98.2638E-03    -108.759E-03     216.073E-03    -107.546E-03     94.5712E-03
             987     9.70022E-03     111.276E-03    -47.3566E+06    -46.5444E+06     14.0283E+06    -17.2134E+06    -106.905E-03     214.502E-03    -107.598E-03     98.0942E-03    -108.190E-03     215.414E-03    -107.391E-03     94.2137E-03
             988     10.5107E-03     111.384E-03    -41.7409E+06    -23.2986E+06     21.7044E+06    -15.9499E+06    -106.102E-03     213.522E-03    -107.420E-03     95.1217E-03    -107.457E-03     214.583E-03    -107.218E-03     91.1667E-03
             989     11.3210E-03     111.486E-03    -35.0177E+06    -6.88990E+06     28.9729E+06    -14.8541E+06    -105.252E-03     212.488E-03    -107.236E-03     89.0399E-03    -106.596E-03     213.599E-03    -107.030E-03     85.0987E-03
             990     12.1323E-03     111.580E-03    -28.0110E+06     21.1465E+06     34.4782E+06    -12.2408E+06    -104.437E-03     211.455E-03    -107.018E-03     80.0957E-03    -105.723E-03     212.617E-03    -106.835E-03     76.2610E-03
             991     12.9426E-03     111.663E-03    -22.6460E+06     69.5979E+06     48.8853E+06    -7.64219E+06    -103.718E-03     210.536E-03    -106.818E-03     69.6483E-03    -104.956E-03     211.799E-03    -106.642E-03     65.9922E-03
             992     13.7540E-03     111.734E-03    -18.5224E+06     101.119E+06     59.3595E+06    -4.76907E+06    -103.181E-03     209.816E-03    -106.635E-03     55.6137E-03    -104.304E-03     211.060E-03    -106.457E-03     52.1435E-03
             993     14.5632E-03     111.783E-03    -15.2975E+06     119.802E+06     72.5598E+06    -535.517E+03    -102.549E-03     209.040E-03    -106.491E-03     43.2399E-03    -103.573E-03     210.224E-03    -106.280E-03     39.9424E-03
             994     15.3732E-03     111.828E-03    -5.11966E+06     127.696E+06     95.8640E+06     2.90354E+06    -101.026E-03     207.400E-03    -106.374E-03     21.8946E-03    -101.778E-03     208.310E-03    -106.073E-03     19.2877E-03
             995     807.456E-06     111.600E-03    -120.798E+06    -239.094E+06    -117.522E+06    -2.07825E+06    -108.600E-03     216.968E-03    -108.368E-03     14.5922E-03    -108.698E-03     216.129E-03    -108.434E-03     14.2635E-03
             996     1.61482E-03     111.623E-03    -116.032E+06    -225.604E+06    -104.795E+06    -3.93532E+06    -108.542E-03     217.028E-03    -108.486E-03     26.5224E-03    -108.678E-03     216.254E-03    -108.514E-03     25.9124E-03
             997     2.42240E-03     111.661E-03    -109.112E+06    -207.052E+06    -87.9703E+06     -5.8419E+06    -108.622E-03     217.120E-03    -108.498E-03     38.6932E-03    -108.814E-03     216.444E-03    -108.479E-03     37.7703E-03
             998     3.22997E-03     111.711E-03    -101.315E+06    -188.952E+06    -70.3240E+06    -7.69307E+06    -108.719E-03     217.220E-03    -108.501E-03     50.2203E-03    -108.982E-03     216.657E-03    -108.432E-03     48.9643E-03
             999     4.03776E-03     111.775E-03    -93.4278E+06    -170.821E+06    -54.9088E+06    -9.44904E+06    -108.807E-03     217.288E-03    -108.482E-03     60.8610E-03    -109.157E-03     216.860E-03    -108.373E-03     59.2525E-03
            1000     4.84566E-03     111.850E-03    -85.4802E+06    -152.858E+06    -41.4811E+06    -10.9319E+06    -108.867E-03     217.307E-03    -108.440E-03     70.4511E-03    -109.320E-03     217.035E-03    -108.302E-03     68.4766E-03
            1001     5.65374E-03     111.934E-03    -77.9484E+06    -134.935E+06    -29.7378E+06    -12.4839E+06    -108.839E-03     217.217E-03    -108.378E-03     78.8264E-03    -109.415E-03     217.123E-03    -108.218E-03     76.4745E-03
            1002     6.46211E-03     112.027E-03    -70.8510E+06    -117.121E+06    -19.3957E+06    -14.1048E+06    -108.690E-03     216.982E-03    -108.292E-03     85.8840E-03    -109.404E-03     217.085E-03    -108.116E-03     83.1535E-03
            1003     7.27076E-03     112.127E-03    -64.0397E+06    -99.0174E+06    -10.0469E+06    -15.3195E+06    -108.426E-03     216.608E-03    -108.183E-03     91.4767E-03    -109.290E-03     216.923E-03    -107.997E-03     88.3865E-03
            1004     8.07977E-03     112.232E-03    -58.0351E+06    -80.4530E+06    -1.35920E+06    -16.3014E+06    -108.031E-03     216.084E-03    -108.053E-03     95.4271E-03    -109.051E-03     216.616E-03    -107.859E-03     92.0111E-03
            1005     8.88895E-03     112.340E-03    -52.4816E+06    -60.7549E+06     6.93331E+06    -17.1562E+06    -107.464E-03     215.365E-03    -107.901E-03     97.5586E-03    -108.632E-03     216.111E-03    -107.702E-03     93.8756E-03
            1006     9.69889E-03     112.449E-03    -46.9830E+06    -44.5964E+06     14.5173E+06    -17.3420E+06    -106.764E-03     214.495E-03    -107.731E-03     97.4282E-03    -108.041E-03     215.405E-03    -107.526E-03     93.5661E-03
            1007     10.5088E-03     112.556E-03    -41.2600E+06    -23.4858E+06     21.5905E+06    -17.3000E+06    -105.909E-03     213.441E-03    -107.532E-03     94.7316E-03    -107.248E-03     214.487E-03    -107.331E-03     90.7930E-03
            1008     11.3197E-03     112.658E-03    -35.8504E+06    -5.99994E+06     28.8549E+06    -16.7722E+06    -104.989E-03     212.312E-03    -107.323E-03     89.2970E-03    -106.324E-03     213.415E-03    -107.118E-03     85.3822E-03
            1009     12.1302E-03     112.751E-03    -30.3201E+06     17.0865E+06     32.4821E+06    -15.4052E+06    -104.028E-03     211.102E-03    -107.073E-03     81.5143E-03    -105.304E-03     212.237E-03    -106.892E-03     77.7093E-03
            1010     12.9424E-03     112.833E-03    -24.0961E+06     61.0113E+06     45.6424E+06    -10.1518E+06    -102.920E-03     209.745E-03    -106.826E-03     72.1881E-03    -104.137E-03     210.962E-03    -106.651E-03     68.5940E-03
            1011     13.7551E-03     112.902E-03     -19.556E+06     94.6822E+06     54.7390E+06    -2.11137E+06    -102.211E-03     208.781E-03    -106.570E-03     59.8715E-03    -103.316E-03     209.994E-03    -106.405E-03     56.5642E-03
            1012     14.5683E-03     112.955E-03    -13.2392E+06     118.561E+06     71.0818E+06     476.403E+03    -101.398E-03     207.764E-03    -106.366E-03     47.5179E-03    -102.408E-03     208.942E-03    -106.163E-03     44.3502E-03
            1013     15.3855E-03     112.990E-03    -3.23051E+06     128.717E+06     97.3951E+06    -1.72313E+06    -100.845E-03     207.072E-03    -106.227E-03     22.9305E-03    -101.594E-03     207.984E-03    -105.922E-03     20.2924E-03
            1014     807.066E-06     112.777E-03    -117.910E+06    -233.340E+06    -114.716E+06    -2.32546E+06    -108.928E-03     217.682E-03    -108.753E-03     14.5726E-03    -109.024E-03     216.863E-03    -108.818E-03     14.2400E-03
            1015     1.61434E-03     112.801E-03    -113.335E+06    -219.583E+06    -102.311E+06    -4.38661E+06    -108.872E-03     217.707E-03    -108.835E-03     26.5694E-03    -109.007E-03     216.956E-03    -108.864E-03     25.9519E-03
            1016     2.42154E-03     112.838E-03    -106.659E+06    -201.622E+06    -85.5243E+06    -6.22628E+06    -108.915E-03     217.750E-03    -108.835E-03     38.7037E-03    -109.106E-03     217.094E-03    -108.816E-03     37.7740E-03
            1017     3.22901E-03     112.889E-03    -98.9255E+06    -183.349E+06    -67.8929E+06    -8.04539E+06    -108.952E-03     217.773E-03    -108.820E-03     50.1704E-03    -109.215E-03     217.230E-03    -108.751E-03     48.9076E-03
            1018     4.03656E-03     112.952E-03    -90.8227E+06    -165.719E+06    -52.0397E+06    -9.80609E+06    -108.990E-03     217.771E-03    -108.782E-03     60.7417E-03    -109.338E-03     217.359E-03    -108.670E-03     59.1265E-03
            1019     4.84433E-03     113.026E-03    -82.7763E+06    -148.114E+06    -38.7216E+06    -11.3763E+06    -108.973E-03     217.689E-03    -108.715E-03     70.2619E-03    -109.422E-03     217.430E-03    -108.574E-03     68.2815E-03
            1020     5.65236E-03     113.110E-03    -75.0876E+06    -129.891E+06    -27.3229E+06    -13.0022E+06    -108.869E-03     217.491E-03    -108.622E-03     78.5829E-03    -109.438E-03     217.412E-03    -108.461E-03     76.2278E-03
            1021     6.46063E-03     113.203E-03    -67.8486E+06    -112.619E+06    -17.0860E+06    -14.4064E+06    -108.665E-03     217.171E-03    -108.507E-03     85.5987E-03    -109.369E-03     217.285E-03    -108.330E-03     82.8732E-03
            1022     7.26928E-03     113.302E-03    -61.2047E+06    -95.1993E+06     -7.9238E+06    -15.4025E+06    -108.322E-03     216.689E-03    -108.367E-03     91.2324E-03    -109.173E-03     217.008E-03    -108.180E-03     88.1586E-03
            1023     8.07821E-03     113.407E-03    -55.0403E+06    -76.8798E+06     945.767E+03    -16.2197E+06    -107.821E-03     216.025E-03    -108.203E-03     95.3679E-03    -108.825E-03     216.557E-03    -108.007E-03     91.9840E-03
            1024     8.88779E-03     113.514E-03    -49.4709E+06    -58.0913E+06     9.47249E+06    -16.4711E+06    -107.155E-03     215.170E-03    -108.015E-03     97.7968E-03    -108.302E-03     215.908E-03    -107.811E-03     94.1686E-03
            1025     9.69760E-03     113.622E-03    -44.3931E+06    -41.6847E+06     17.2972E+06    -17.0463E+06    -106.293E-03     214.093E-03    -107.801E-03     98.1446E-03    -107.548E-03     214.993E-03    -107.589E-03     94.3520E-03
            1026     10.5085E-03     113.728E-03    -39.6624E+06    -21.4916E+06     24.4480E+06    -17.6535E+06    -105.254E-03     212.804E-03    -107.550E-03     96.0313E-03    -106.573E-03     213.836E-03    -107.339E-03     92.1728E-03
            1027     11.3197E-03     113.828E-03    -34.8080E+06    -5.47034E+06     31.1825E+06    -17.4110E+06    -104.163E-03     211.443E-03    -107.280E-03     91.1824E-03    -105.479E-03     212.526E-03    -107.066E-03     87.3556E-03
            1028     12.1324E-03     113.921E-03    -30.9426E+06     16.1613E+06     34.9016E+06    -16.2455E+06    -103.063E-03     210.034E-03    -106.972E-03     83.5038E-03    -104.329E-03     211.147E-03    -106.776E-03     79.7839E-03
            1029     12.9452E-03     114.001E-03    -27.1305E+06     51.0287E+06     44.5528E+06    -11.9126E+06    -102.066E-03     208.734E-03    -106.667E-03     73.7447E-03    -103.274E-03     209.897E-03    -106.479E-03     70.1994E-03
            1030     13.7586E-03     114.071E-03    -19.1708E+06     86.1702E+06     50.0980E+06    -6.37434E+06    -101.342E-03     207.684E-03    -106.343E-03     60.3827E-03    -102.419E-03     208.854E-03    -106.189E-03     57.0692E-03
            1031     14.5727E-03     114.121E-03    -10.3714E+06     119.260E+06     70.1384E+06    -3.83113E+06    -101.394E-03     207.520E-03    -106.126E-03     45.9190E-03    -102.385E-03     208.694E-03    -105.933E-03     42.6838E-03
            1032     15.3816E-03     114.160E-03    -4.88088E+06     127.836E+06     97.5786E+06    -2.16833E+06    -102.539E-03     208.597E-03    -106.058E-03     21.9246E-03    -103.295E-03     209.507E-03    -105.748E-03     19.2247E-03
            1033     806.933E-06     113.956E-03    -116.247E+06    -226.743E+06    -112.979E+06    -2.50619E+06    -109.194E-03     218.289E-03    -109.095E-03     14.5450E-03    -109.294E-03     217.499E-03    -109.162E-03     14.2096E-03
            1034     1.61380E-03     113.979E-03    -111.353E+06    -213.068E+06    -99.5028E+06    -4.86503E+06    -109.155E-03     218.295E-03    -109.140E-03     26.5092E-03    -109.292E-03     217.569E-03    -109.167E-03     25.8836E-03
            1035     2.42090E-03     114.016E-03    -104.261E+06    -196.056E+06    -82.4044E+06    -6.75816E+06    -109.158E-03     218.288E-03    -109.131E-03     38.5967E-03    -109.349E-03     217.652E-03    -109.107E-03     37.6587E-03
            1036     3.22805E-03     114.066E-03    -96.2700E+06    -177.588E+06    -64.9831E+06    -8.57247E+06    -109.156E-03     218.254E-03    -109.098E-03     50.0519E-03    -109.417E-03     217.732E-03    -109.026E-03     48.7825E-03
            1037     4.03547E-03     114.129E-03    -87.6975E+06    -160.224E+06    -49.2594E+06    -10.5025E+06    -109.118E-03     218.154E-03    -109.037E-03     60.6389E-03    -109.460E-03     217.760E-03    -108.923E-03     59.0189E-03
            1038     4.84312E-03     114.203E-03    -79.1757E+06    -143.090E+06    -35.9859E+06    -12.2387E+06    -108.996E-03     217.936E-03    -108.940E-03     70.1948E-03    -109.435E-03     217.691E-03    -108.798E-03     68.2140E-03
            1039     5.65112E-03     114.287E-03    -71.4093E+06    -125.299E+06    -24.5997E+06    -13.4710E+06    -108.771E-03     217.579E-03    -108.808E-03     78.6397E-03    -109.327E-03     217.508E-03    -108.646E-03     76.2997E-03
            1040     6.45952E-03     114.379E-03    -64.5401E+06    -108.561E+06    -14.3067E+06    -14.3692E+06    -108.430E-03     217.077E-03    -108.648E-03     85.8865E-03    -109.119E-03     217.194E-03    -108.468E-03     83.1963E-03
            1041     7.26830E-03     114.477E-03    -58.2597E+06    -91.3310E+06    -4.86662E+06    -15.3619E+06    -107.917E-03     216.372E-03    -108.455E-03     91.8472E-03    -108.753E-03     216.691E-03    -108.262E-03     88.8256E-03
            1042     8.07782E-03     114.581E-03    -52.2876E+06    -73.5691E+06     4.24428E+06    -16.0931E+06    -107.229E-03     215.458E-03    -108.229E-03     96.3853E-03    -108.213E-03     215.983E-03    -108.025E-03     93.0738E-03
            1043     8.88784E-03     114.687E-03    -46.2982E+06    -55.9079E+06     13.0080E+06    -16.4292E+06    -106.386E-03     214.356E-03    -107.970E-03     99.2347E-03    -107.506E-03     215.076E-03    -107.757E-03     95.6962E-03
            1044     9.69887E-03     114.794E-03    -40.6594E+06    -37.9565E+06     21.4647E+06    -17.0333E+06    -105.392E-03     213.073E-03    -107.681E-03     99.8804E-03    -106.620E-03     213.959E-03    -107.460E-03     96.1898E-03
            1045     10.5105E-03     114.898E-03    -35.5076E+06    -20.3164E+06     28.2616E+06    -16.8562E+06    -104.341E-03     211.702E-03    -107.362E-03     97.8867E-03    -105.626E-03     212.708E-03    -107.139E-03     94.1410E-03
            1046     11.3232E-03     114.998E-03    -31.5236E+06    -3.79303E+06     34.7873E+06    -16.2012E+06    -103.347E-03     210.381E-03    -107.034E-03     92.8499E-03    -104.637E-03     211.444E-03    -106.809E-03     89.1323E-03
            1047     12.1358E-03     115.089E-03    -27.5815E+06     14.3699E+06     37.9607E+06    -14.6492E+06    -102.561E-03     209.254E-03    -106.694E-03     84.7676E-03    -103.798E-03     210.335E-03    -106.485E-03     81.1402E-03
            1048     12.9490E-03     115.170E-03    -22.0844E+06     47.0438E+06     47.5045E+06    -12.6443E+06    -102.060E-03     208.446E-03    -106.386E-03     74.6124E-03    -103.231E-03     209.568E-03    -106.185E-03     71.1060E-03
            1049     13.7622E-03     115.237E-03    -16.9792E+06     82.3512E+06     52.9667E+06    -11.2804E+06    -101.927E-03     208.023E-03    -106.096E-03     60.9858E-03    -102.986E-03     209.160E-03    -105.926E-03     57.6293E-03
            1050     14.5739E-03     115.289E-03    -12.3745E+06     113.014E+06     68.3154E+06    -6.84211E+06    -102.425E-03     208.348E-03    -105.923E-03     47.6676E-03    -103.414E-03     209.496E-03    -105.727E-03     44.3993E-03
            1051     15.3887E-03     115.329E-03    -6.39586E+06     125.048E+06     95.1612E+06    -2.10143E+06    -103.589E-03     209.499E-03    -105.910E-03     23.7814E-03    -104.347E-03     210.402E-03    -105.606E-03     21.0856E-03
            1052     806.610E-06     115.135E-03    -112.824E+06    -219.173E+06    -109.656E+06    -3.27322E+06    -109.470E-03     218.836E-03    -109.366E-03     14.5250E-03    -109.568E-03     218.074E-03    -109.433E-03     14.1806E-03
            1053     1.61337E-03     115.158E-03    -107.779E+06    -206.364E+06    -96.2004E+06    -5.31435E+06    -109.366E-03     218.767E-03    -109.401E-03     26.4366E-03    -109.500E-03     218.065E-03    -109.427E-03     25.8078E-03
            1054     2.42021E-03     115.194E-03    -100.848E+06    -189.813E+06    -79.3244E+06    -7.39243E+06    -109.297E-03     218.660E-03    -109.363E-03     38.5747E-03    -109.484E-03     218.046E-03    -109.338E-03     37.6345E-03
            1055     3.22734E-03     115.245E-03    -92.6195E+06    -171.699E+06    -62.1404E+06    -9.27201E+06    -109.197E-03     218.490E-03    -109.293E-03     50.1274E-03    -109.450E-03     217.985E-03    -109.220E-03     48.8617E-03
            1056     4.03469E-03     115.307E-03    -84.2614E+06    -154.215E+06    -46.6722E+06    -11.2118E+06    -109.021E-03     218.205E-03    -109.184E-03     60.8753E-03    -109.355E-03     217.828E-03    -109.071E-03     59.2687E-03
            1057     4.84248E-03     115.380E-03    -76.3433E+06    -137.850E+06    -33.2723E+06    -13.0145E+06    -108.737E-03     217.769E-03    -109.032E-03     70.6704E-03    -109.168E-03     217.536E-03    -108.887E-03     68.7151E-03
            1058     5.65072E-03     115.463E-03    -68.7516E+06    -121.399E+06    -21.5376E+06    -14.0198E+06    -108.324E-03     217.159E-03    -108.835E-03     79.4485E-03    -108.868E-03     217.090E-03    -108.667E-03     77.1529E-03
            1059     6.45957E-03     115.554E-03    -61.3818E+06    -104.542E+06    -10.8827E+06    -14.8629E+06    -107.766E-03     216.362E-03    -108.595E-03     87.0775E-03    -108.439E-03     216.476E-03    -108.409E-03     84.4514E-03
            1060     7.26920E-03     115.652E-03    -54.4913E+06    -87.8274E+06    -1.12781E+06    -15.5511E+06    -107.069E-03     215.385E-03    -108.316E-03     93.3929E-03    -107.881E-03     215.695E-03    -108.115E-03     90.4574E-03
            1061     8.07947E-03     115.754E-03    -48.3956E+06    -70.4405E+06     8.09886E+06    -15.9813E+06    -106.239E-03     214.241E-03    -108.002E-03     98.2610E-03    -107.195E-03     214.751E-03    -107.789E-03     95.0547E-03
            1062     8.89072E-03     115.859E-03    -42.7841E+06    -53.0495E+06     16.7562E+06    -16.5115E+06    -105.312E-03     212.969E-03    -107.658E-03     101.305E-03    -106.402E-03     213.671E-03    -107.435E-03     97.8802E-03
            1063     9.70264E-03     115.965E-03    -37.4962E+06    -35.6548E+06     24.9347E+06    -16.3863E+06    -104.395E-03     211.691E-03    -107.296E-03     102.008E-03    -105.592E-03     212.556E-03    -107.065E-03     98.4426E-03
            1064     10.5152E-03     116.068E-03    -33.1737E+06    -19.5403E+06     31.3877E+06    -15.6328E+06    -103.573E-03     210.502E-03    -106.929E-03     99.9653E-03    -104.830E-03     211.481E-03    -106.696E-03     96.3438E-03
            1065     11.3281E-03     116.166E-03    -28.6980E+06    -2.60025E+06     37.9647E+06    -14.8694E+06    -102.907E-03     209.486E-03    -106.579E-03     94.9304E-03    -104.170E-03     210.527E-03    -106.343E-03     91.3255E-03
            1066     12.1414E-03     116.257E-03    -24.0009E+06     13.4901E+06     41.4452E+06    -14.1364E+06    -102.575E-03     208.824E-03    -106.250E-03     87.0155E-03    -103.783E-03     209.875E-03    -106.027E-03     83.4738E-03
            1067     12.9543E-03     116.337E-03    -20.1995E+06     47.1654E+06     50.8845E+06    -13.3970E+06    -102.571E-03     208.551E-03    -105.980E-03     77.0964E-03    -103.728E-03     209.656E-03    -105.765E-03     73.6382E-03
            1068     13.7665E-03     116.407E-03    -15.8737E+06     80.6821E+06     55.8104E+06    -11.9601E+06    -102.972E-03     208.727E-03    -105.755E-03     63.6581E-03    -104.027E-03     209.850E-03    -105.570E-03     60.3150E-03
            1069     14.5792E-03     116.457E-03    -10.1970E+06     105.580E+06     70.4183E+06    -8.57594E+06    -103.942E-03     209.613E-03    -105.671E-03     50.4599E-03    -104.921E-03     210.726E-03    -105.457E-03     47.1551E-03
            1070     15.3871E-03     116.501E-03    -5.15856E+06     119.763E+06     95.3975E+06    -3.06647E+06    -105.230E-03     210.971E-03    -105.741E-03     25.7067E-03    -105.982E-03     211.853E-03    -105.430E-03     22.9707E-03
            1071     806.454E-06     116.314E-03    -108.311E+06    -210.954E+06    -104.847E+06    -3.20606E+06    -109.607E-03     219.078E-03    -109.472E-03     14.6371E-03    -109.701E-03     218.343E-03    -109.533E-03     14.2987E-03
            1072     1.61306E-03     116.337E-03    -103.800E+06    -198.850E+06    -92.8525E+06    -5.58168E+06    -109.400E-03     218.899E-03    -109.499E-03     26.6351E-03    -109.529E-03     218.223E-03    -109.525E-03     26.0146E-03
            1073     2.41995E-03     116.373E-03    -97.1823E+06    -182.757E+06    -76.7397E+06    -8.21842E+06    -109.198E-03     218.610E-03    -109.412E-03     38.9054E-03    -109.379E-03     218.020E-03    -109.390E-03     37.9748E-03
            1074     3.22714E-03     116.423E-03    -89.0371E+06    -165.709E+06    -59.6744E+06    -10.3238E+06    -108.903E-03     218.181E-03    -109.277E-03     50.6649E-03    -109.148E-03     217.694E-03    -109.206E-03     49.4181E-03
            1075     4.03487E-03     116.485E-03    -80.4747E+06    -148.101E+06    -43.4608E+06    -12.0184E+06    -108.513E-03     217.601E-03    -109.088E-03     61.7079E-03    -108.836E-03     217.239E-03    -108.974E-03     60.1388E-03
            1076     4.84314E-03     116.557E-03    -72.3762E+06    -132.702E+06    -29.5097E+06    -13.4757E+06    -108.018E-03     216.863E-03    -108.845E-03     71.8607E-03    -108.433E-03     216.636E-03    -108.695E-03     69.9646E-03
            1077     5.65216E-03     116.639E-03    -64.7565E+06    -117.260E+06    -17.8228E+06    -14.5919E+06    -107.394E-03     215.942E-03    -108.548E-03     81.0316E-03    -107.917E-03     215.871E-03    -108.373E-03     78.8129E-03
            1078     6.46198E-03     116.729E-03    -57.6926E+06    -100.551E+06    -7.45237E+06    -15.3931E+06    -106.650E-03     214.853E-03    -108.203E-03     89.0491E-03    -107.298E-03     214.960E-03    -108.010E-03     86.5195E-03
            1079     7.27258E-03     116.825E-03    -51.3455E+06    -84.8497E+06     1.87004E+06    -15.8087E+06    -105.831E-03     213.652E-03    -107.822E-03     95.7197E-03    -106.614E-03     213.947E-03    -107.615E-03     92.9011E-03
            1080     8.08415E-03     116.926E-03    -45.1942E+06    -67.3217E+06     11.2549E+06    -16.1174E+06    -104.987E-03     212.404E-03    -107.417E-03     100.862E-03    -105.912E-03     212.897E-03    -107.197E-03     97.7861E-03
            1081     8.89639E-03     117.030E-03    -39.5662E+06    -50.8509E+06     19.8779E+06    -15.8800E+06    -104.186E-03     211.189E-03    -107.003E-03     104.082E-03    -105.242E-03     211.866E-03    -106.773E-03     100.802E-03
            1082     9.70934E-03     117.134E-03    -34.6154E+06    -34.1590E+06     27.6298E+06    -15.3267E+06    -103.488E-03     210.083E-03    -106.595E-03     104.982E-03    -104.649E-03     210.920E-03    -106.357E-03     101.566E-03
            1083     10.5227E-03     117.236E-03    -29.7106E+06    -19.0758E+06     34.3556E+06    -14.4173E+06    -102.978E-03     209.189E-03    -106.211E-03     103.142E-03    -104.198E-03     210.136E-03    -105.969E-03     99.6648E-03
            1084     11.3362E-03     117.334E-03    -25.4490E+06    -979.981E+03     41.2820E+06    -13.9784E+06    -102.727E-03     208.598E-03    -105.871E-03     98.3718E-03    -103.959E-03     209.616E-03    -105.626E-03     94.8927E-03
            1085     12.1495E-03     117.425E-03    -21.7555E+06     13.4776E+06     44.5577E+06    -13.6123E+06    -102.883E-03     208.466E-03    -105.583E-03     90.7319E-03    -104.069E-03     209.493E-03    -105.348E-03     87.2919E-03
            1086     12.9621E-03     117.506E-03    -18.2518E+06     46.8110E+06     53.1751E+06    -11.8357E+06    -103.439E-03     208.817E-03    -105.378E-03     80.9790E-03    -104.582E-03     209.907E-03    -105.154E-03     77.6058E-03
            1087     13.7743E-03     117.575E-03    -15.5572E+06     81.2980E+06     58.3010E+06    -11.0720E+06    -104.558E-03     209.812E-03    -105.254E-03     67.6021E-03    -105.618E-03     210.936E-03    -105.058E-03     64.2959E-03
            1088     14.5834E-03     117.629E-03    -12.5831E+06     98.8643E+06     68.7101E+06    -8.47521E+06    -106.017E-03     211.304E-03    -105.287E-03     54.6196E-03    -107.005E-03     212.399E-03    -105.069E-03     51.3110E-03
            1089     15.3940E-03     117.674E-03    -7.15740E+06     112.619E+06     91.4369E+06    -3.93698E+06    -107.715E-03     213.197E-03    -105.482E-03     29.5228E-03    -108.472E-03     214.063E-03    -105.178E-03     26.7441E-03
            1090     806.646E-06     117.494E-03    -104.835E+06    -202.798E+06    -101.931E+06    -2.93577E+06    -109.359E-03     218.571E-03    -109.211E-03     14.8484E-03    -109.452E-03     217.867E-03    -109.275E-03     14.5256E-03
            1091     1.61343E-03     117.516E-03    -100.032E+06    -190.074E+06    -89.4237E+06    -6.18333E+06    -109.032E-03     218.251E-03    -109.219E-03     27.1381E-03    -109.159E-03     217.607E-03    -109.245E-03     26.5329E-03
            1092     2.42056E-03     117.552E-03    -93.1010E+06    -175.100E+06    -73.2543E+06    -8.99017E+06    -108.652E-03     217.723E-03    -109.071E-03     39.6969E-03    -108.826E-03     217.157E-03    -109.048E-03     38.7933E-03
            1093     3.22831E-03     117.601E-03    -85.5096E+06    -159.029E+06    -56.4238E+06    -11.2176E+06    -108.129E-03     216.979E-03    -108.850E-03     51.7948E-03    -108.365E-03     216.511E-03    -108.778E-03     50.5899E-03
            1094     4.03675E-03     117.661E-03    -77.7894E+06    -142.224E+06    -40.9710E+06    -12.9930E+06    -107.482E-03     216.037E-03    -108.555E-03     63.2091E-03    -107.795E-03     215.688E-03    -108.441E-03     61.7009E-03
            1095     4.84607E-03     117.733E-03    -69.9826E+06    -127.595E+06    -27.3422E+06    -14.2643E+06    -106.747E-03     214.944E-03    -108.197E-03     73.7843E-03    -107.149E-03     214.723E-03    -108.047E-03     71.9740E-03
            1096     5.65622E-03     117.813E-03    -62.4085E+06    -112.673E+06    -15.6335E+06    -15.3356E+06    -105.938E-03     213.722E-03    -107.783E-03     83.4061E-03    -106.443E-03     213.650E-03    -107.608E-03     81.2957E-03
            1097     6.46735E-03     117.901E-03    -55.3014E+06    -97.1589E+06    -5.42496E+06    -15.8458E+06    -105.084E-03     212.412E-03    -107.328E-03     91.8982E-03    -105.707E-03     212.509E-03    -107.134E-03     89.5006E-03
            1098     7.27947E-03     117.996E-03    -48.6335E+06    -81.7152E+06     4.09688E+06    -16.0285E+06    -104.274E-03     211.126E-03    -106.852E-03     99.0414E-03    -105.027E-03     211.404E-03    -106.642E-03     96.3738E-03
            1099     8.09236E-03     118.095E-03    -42.4932E+06    -64.7085E+06     13.5161E+06    -15.9810E+06    -103.567E-03     209.942E-03    -106.375E-03     104.586E-03    -104.457E-03     210.412E-03    -106.152E-03     101.675E-03
            1100     8.90593E-03     118.198E-03    -36.8758E+06    -49.5930E+06     22.0130E+06    -15.5278E+06    -103.020E-03     208.939E-03    -105.918E-03     108.179E-03    -104.038E-03     209.585E-03    -105.683E-03     105.069E-03
            1101     9.71987E-03     118.301E-03    -31.6449E+06    -32.7391E+06     29.7905E+06    -14.8090E+06    -102.678E-03     208.174E-03    -105.496E-03     109.400E-03    -103.801E-03     208.982E-03    -105.254E-03     106.149E-03
            1102     10.5340E-03     118.403E-03    -27.0257E+06    -19.5682E+06     36.3314E+06    -13.5792E+06    -102.614E-03     207.748E-03    -105.133E-03     107.731E-03    -103.796E-03     208.659E-03    -104.884E-03     104.410E-03
            1103     11.3479E-03     118.501E-03    -23.2650E+06     188.393E+03     43.5716E+06    -11.8831E+06    -102.904E-03     207.748E-03    -104.844E-03     103.052E-03    -104.107E-03     208.743E-03    -104.593E-03     99.7252E-03
            1104     12.1611E-03     118.592E-03    -20.6669E+06     14.2641E+06     47.2952E+06    -11.1774E+06    -103.664E-03     208.310E-03    -104.645E-03     95.4289E-03    -104.834E-03     209.320E-03    -104.400E-03     92.1157E-03
            1105     12.9733E-03     118.674E-03    -17.6286E+06     45.8286E+06     54.6091E+06    -10.3951E+06    -104.910E-03     209.463E-03    -104.553E-03     85.7480E-03    -106.046E-03     210.540E-03    -104.320E-03     82.4501E-03
            1106     13.7833E-03     118.746E-03    -14.1992E+06     82.3419E+06     61.1245E+06    -8.69977E+06    -106.788E-03     211.366E-03    -104.578E-03     72.5505E-03    -107.851E-03     212.493E-03    -104.371E-03     69.2912E-03
            1107     14.5924E-03     118.802E-03    -10.9708E+06     95.1658E+06     66.7769E+06    -7.69403E+06    -109.046E-03     213.814E-03    -104.768E-03     58.4129E-03    -110.027E-03     214.901E-03    -104.557E-03     55.0713E-03
            1108     15.3978E-03     118.849E-03    -5.22629E+06     105.795E+06     85.0566E+06    -5.72698E+06    -111.530E-03     216.676E-03    -105.146E-03     32.2297E-03    -112.267E-03     217.524E-03    -104.867E-03     29.3469E-03
            1109     807.170E-06     118.672E-03    -100.933E+06    -193.540E+06    -99.2593E+06    -3.83907E+06    -108.466E-03     216.845E-03    -108.379E-03     15.2809E-03    -108.556E-03     216.177E-03    -108.448E-03     14.9642E-03
            1110     1.61471E-03     118.694E-03    -97.1110E+06    -180.711E+06    -87.7331E+06    -7.02988E+06    -108.013E-03     216.326E-03    -108.313E-03     27.9278E-03    -108.139E-03     215.720E-03    -108.348E-03     27.3464E-03
            1111     2.42279E-03     118.729E-03    -91.0614E+06    -167.113E+06    -71.4714E+06    -9.61717E+06    -107.436E-03     215.527E-03    -108.090E-03     40.8881E-03    -107.610E-03     214.992E-03    -108.073E-03     40.0311E-03
            1112     3.23157E-03     118.777E-03    -83.6959E+06    -151.775E+06    -54.7054E+06    -11.8237E+06    -106.693E-03     214.468E-03    -107.775E-03     53.4637E-03    -106.926E-03     214.024E-03    -107.708E-03     52.3282E-03
            1113     4.04127E-03     118.836E-03    -76.0186E+06    -136.243E+06    -39.5623E+06    -13.4999E+06    -105.816E-03     213.189E-03    -107.373E-03     65.4038E-03    -106.121E-03     212.855E-03    -107.263E-03     63.9913E-03
            1114     4.85201E-03     118.905E-03    -68.3890E+06    -122.096E+06    -26.3194E+06    -14.9573E+06    -104.867E-03     211.766E-03    -106.899E-03     76.5692E-03    -105.254E-03     211.553E-03    -106.754E-03     74.8788E-03
            1115     5.66392E-03     118.984E-03    -61.0224E+06    -108.020E+06    -14.6270E+06    -16.0763E+06    -103.918E-03     210.292E-03    -106.374E-03     86.8078E-03    -104.403E-03     210.219E-03    -106.202E-03     84.8422E-03
            1116     6.47686E-03     119.070E-03    -53.9896E+06    -93.8543E+06    -4.47179E+06    -16.5900E+06    -103.074E-03     208.896E-03    -105.822E-03     95.9383E-03    -103.670E-03     208.980E-03    -105.630E-03     93.7063E-03
            1117     7.29073E-03     119.164E-03    -47.5081E+06    -78.8710E+06     4.73556E+06    -16.5638E+06    -102.426E-03     207.698E-03    -105.273E-03     103.697E-03    -103.147E-03     207.957E-03    -105.066E-03     101.212E-03
            1118     8.10527E-03     119.262E-03    -41.8590E+06    -63.1793E+06     13.7235E+06    -15.8054E+06    -102.005E-03     206.762E-03    -104.757E-03     109.723E-03    -102.861E-03     207.205E-03    -104.536E-03     107.010E-03
            1119     8.92026E-03     119.363E-03    -36.8274E+06    -47.7174E+06     22.4530E+06    -15.1632E+06    -101.875E-03     206.174E-03    -104.298E-03     113.715E-03    -102.863E-03     206.795E-03    -104.063E-03     110.800E-03
            1120     9.73529E-03     119.467E-03    -32.2368E+06    -32.3535E+06       30.07E+06    -14.2671E+06    -102.109E-03     206.025E-03    -103.916E-03     115.129E-03    -103.204E-03     206.803E-03    -103.672E-03     112.058E-03
            1121     10.5500E-03     119.568E-03    -28.1232E+06    -20.4959E+06     36.1924E+06    -12.3691E+06    -102.758E-03     206.392E-03    -103.634E-03     113.462E-03    -103.918E-03     207.274E-03    -103.382E-03     110.300E-03
            1122     11.3637E-03     119.667E-03    -24.2145E+06    -66.8792E+03     43.2486E+06    -10.7224E+06    -103.778E-03     207.243E-03    -103.464E-03     108.600E-03    -104.966E-03     208.219E-03    -103.213E-03     105.397E-03
            1123     12.1763E-03     119.759E-03    -19.9850E+06     14.1345E+06     48.3983E+06    -8.92808E+06    -105.323E-03     208.751E-03    -103.427E-03     100.674E-03    -106.480E-03     209.747E-03    -103.177E-03     97.4566E-03
            1124     12.9868E-03     119.844E-03    -16.3146E+06     47.8479E+06     56.3112E+06    -8.56616E+06    -107.396E-03     210.919E-03    -103.523E-03     90.6271E-03    -108.528E-03     212.000E-03    -103.287E-03     87.3737E-03
            1125     13.7959E-03     119.918E-03    -11.7942E+06     82.6447E+06     63.7414E+06    -9.24730E+06    -110.137E-03     213.910E-03    -103.773E-03     76.9439E-03    -111.199E-03     215.039E-03    -103.557E-03     73.6476E-03
            1126     14.6006E-03     119.980E-03    -5.12349E+06     92.4757E+06     67.4670E+06    -8.43000E+06    -113.529E-03     217.734E-03    -104.205E-03     61.9752E-03    -114.494E-03     218.814E-03    -103.994E-03     58.5172E-03
            1127     15.4029E-03     120.030E-03    -1.27503E+06     100.203E+06     80.3770E+06    -4.66815E+06    -116.385E-03     221.216E-03    -104.830E-03     34.7325E-03    -117.104E-03     222.053E-03    -104.572E-03     31.7312E-03
            1128     808.604E-06     119.848E-03    -98.8773E+06    -182.905E+06    -96.7003E+06    -4.42298E+06    -106.694E-03     213.370E-03    -106.677E-03     15.9112E-03    -106.792E-03     212.748E-03    -106.751E-03     15.6123E-03
            1129     1.61746E-03     119.869E-03    -95.1901E+06    -171.446E+06    -86.1384E+06    -7.16869E+06    -106.131E-03     212.671E-03    -106.540E-03     28.9649E-03    -106.261E-03     212.105E-03    -106.585E-03     28.4302E-03
            1130     2.42704E-03     119.903E-03    -89.8301E+06    -158.670E+06    -71.0935E+06    -9.88188E+06    -105.361E-03     211.600E-03    -106.239E-03     42.5125E-03    -105.537E-03     211.100E-03    -106.234E-03     41.7271E-03
            1131     3.23759E-03     119.949E-03    -83.2400E+06    -144.303E+06    -54.8855E+06    -12.2185E+06    -104.399E-03     210.229E-03    -105.829E-03     55.7270E-03    -104.632E-03     209.813E-03    -105.774E-03     54.6910E-03
            1132     4.04927E-03     120.006E-03    -75.8344E+06    -130.032E+06    -39.8801E+06    -14.0180E+06    -103.330E-03     208.654E-03    -105.324E-03     68.4148E-03    -103.629E-03     208.337E-03    -105.225E-03     67.1308E-03
            1133     4.86218E-03     120.073E-03    -68.6802E+06    -116.464E+06    -27.0267E+06    -15.2511E+06    -102.264E-03     207.012E-03    -104.747E-03     80.3771E-03    -102.641E-03     206.809E-03    -104.614E-03     78.8476E-03
            1134     5.67628E-03     120.150E-03    -62.2227E+06    -103.273E+06    -16.0286E+06    -16.2033E+06    -101.324E-03     205.458E-03    -104.134E-03     91.4067E-03    -101.793E-03     205.386E-03    -103.974E-03     89.6302E-03
            1135     6.49153E-03     120.235E-03    -56.4388E+06    -90.0813E+06    -6.38311E+06    -16.8124E+06    -100.665E-03     204.187E-03    -103.522E-03     101.308E-03    -101.245E-03     204.265E-03    -103.342E-03     99.2824E-03
            1136     7.30748E-03     120.327E-03    -51.2219E+06    -76.7233E+06     2.37676E+06    -16.5353E+06    -100.360E-03     203.312E-03    -102.952E-03     109.705E-03    -101.064E-03     203.554E-03    -102.755E-03     107.439E-03
            1137     8.12388E-03     120.424E-03    -46.1606E+06    -61.9483E+06     11.1961E+06    -15.6695E+06    -100.460E-03     202.917E-03    -102.458E-03     116.212E-03    -101.298E-03     203.340E-03    -102.245E-03     113.716E-03
            1138     8.94019E-03     120.526E-03    -41.3009E+06    -46.1033E+06     20.1408E+06    -14.6951E+06    -101.042E-03     203.111E-03    -102.069E-03     120.461E-03    -102.015E-03     203.716E-03    -101.842E-03     117.747E-03
            1139     9.75600E-03     120.629E-03    -36.8611E+06    -32.4253E+06     27.7171E+06    -13.4066E+06    -102.142E-03     203.954E-03    -101.811E-03     121.855E-03    -103.228E-03     204.713E-03    -101.572E-03     118.958E-03
            1140     10.5705E-03     120.733E-03    -31.9780E+06    -20.8922E+06     33.8400E+06    -12.3334E+06    -103.718E-03     205.419E-03    -101.701E-03     119.936E-03    -104.871E-03     206.287E-03    -101.455E-03     116.894E-03
            1141     11.3836E-03     120.833E-03    -26.4444E+06    -272.503E+03     41.3006E+06    -11.0870E+06    -105.724E-03     207.472E-03    -101.747E-03     114.645E-03    -106.908E-03     208.442E-03    -101.502E-03     111.505E-03
            1142     12.1943E-03     120.928E-03    -20.5994E+06     13.0152E+06     46.8599E+06    -10.2609E+06    -108.296E-03     210.263E-03    -101.968E-03     106.192E-03    -109.450E-03     211.256E-03    -101.722E-03     102.971E-03
            1143     13.0028E-03     121.015E-03    -13.8856E+06     49.7265E+06     57.0635E+06    -9.22370E+06    -111.389E-03     213.745E-03    -102.356E-03     95.4272E-03    -112.520E-03     214.838E-03    -102.122E-03     92.1214E-03
            1144     13.8071E-03     121.095E-03    -8.75932E+06     83.6972E+06     64.6175E+06    -8.93766E+06    -114.844E-03     217.758E-03    -102.915E-03     81.1506E-03    -115.909E-03     218.903E-03    -102.700E-03     77.7598E-03
            1145     14.6089E-03     121.161E-03    -6.35560E+06     88.8602E+06     67.4510E+06    -7.66239E+06    -118.453E-03     222.111E-03    -103.658E-03     66.0704E-03    -119.440E-03     223.196E-03    -103.440E-03     62.4983E-03
            1146     15.4065E-03     121.217E-03    -4.62800E+06     94.7407E+06     78.8542E+06    -2.71907E+06    -121.421E-03     225.984E-03    -104.564E-03     37.6566E-03    -122.162E-03     226.818E-03    -104.300E-03     34.5531E-03
            1147     810.715E-06     121.019E-03    -100.199E+06    -172.097E+06    -97.5347E+06    -4.26856E+06    -103.795E-03     207.640E-03    -103.845E-03     16.6304E-03    -103.914E-03     207.074E-03    -103.938E-03     16.3684E-03
            1148     1.62198E-03     121.039E-03    -96.5240E+06    -162.513E+06    -86.9930E+06    -7.02775E+06    -103.117E-03     206.762E-03    -103.645E-03     30.3366E-03    -103.263E-03     206.240E-03    -103.704E-03     29.8683E-03
            1149     2.43404E-03     121.071E-03    -91.3386E+06    -150.112E+06    -73.0222E+06    -9.52065E+06    -102.194E-03     205.462E-03    -103.268E-03     44.6781E-03    -102.380E-03     205.002E-03    -103.283E-03     43.9953E-03
            1150     3.24719E-03     121.115E-03    -85.6705E+06    -136.804E+06    -58.1523E+06    -11.7453E+06    -101.075E-03     203.849E-03    -102.774E-03     58.7296E-03    -101.315E-03     203.467E-03    -102.742E-03     57.8320E-03
            1151     4.06167E-03     121.170E-03    -79.9428E+06    -123.616E+06    -44.1691E+06    -13.4994E+06    -99.9159E-03     202.103E-03    -102.187E-03     72.3186E-03    -100.220E-03     201.812E-03    -102.113E-03     71.2075E-03
            1152     4.87749E-03     121.235E-03    -74.2330E+06    -111.052E+06    -31.7885E+06    -14.7230E+06    -98.9035E-03     200.452E-03    -101.549E-03     85.2015E-03    -99.2836E-03     200.265E-03    -101.439E-03     83.8755E-03
            1153     5.69450E-03     121.310E-03    -68.6679E+06    -98.5919E+06    -20.8330E+06    -15.4931E+06    -98.2296E-03     199.136E-03    -100.907E-03     97.1389E-03    -98.6998E-03     199.072E-03    -100.769E-03     95.5906E-03
            1154     6.51227E-03     121.394E-03    -63.5399E+06    -86.3190E+06    -10.9494E+06    -15.8805E+06    -98.0127E-03     198.326E-03    -100.313E-03     107.830E-03    -98.5900E-03     198.402E-03    -100.151E-03     106.048E-03
            1155     7.33052E-03     121.485E-03    -58.5905E+06    -74.3942E+06    -1.96411E+06    -15.8156E+06    -98.3414E-03     198.152E-03    -99.8107E-03     116.800E-03    -99.0402E-03     198.384E-03    -99.6277E-03     114.773E-03
            1156     8.14858E-03     121.582E-03    -53.6770E+06    -60.2163E+06     6.74985E+06    -15.2991E+06    -99.2915E-03     198.728E-03    -99.4369E-03     123.651E-03    -100.126E-03     199.139E-03    -99.2380E-03     121.372E-03
            1157     8.96592E-03     121.685E-03    -48.5890E+06    -44.9060E+06     15.4758E+06    -14.6192E+06    -100.897E-03     200.124E-03    -99.2272E-03     127.977E-03    -101.870E-03     200.720E-03    -99.0142E-03     125.442E-03
            1158     9.78167E-03     121.790E-03    -42.7837E+06    -32.0149E+06     23.3198E+06    -14.0102E+06    -103.101E-03     202.306E-03    -99.2050E-03     129.203E-03    -104.187E-03     203.059E-03    -98.9799E-03     126.428E-03
            1159     10.5955E-03     121.896E-03    -36.6257E+06    -19.4991E+06     29.9430E+06    -13.8405E+06    -105.820E-03     205.199E-03    -99.3790E-03     126.871E-03    -106.981E-03     206.075E-03    -99.1479E-03     123.884E-03
            1160     11.4065E-03     121.999E-03    -29.9812E+06    -322.173E+03     37.3482E+06    -13.6359E+06    -109.016E-03     208.770E-03    -99.7537E-03     121.001E-03    -110.212E-03     209.750E-03    -99.5230E-03     117.842E-03
            1161     12.2146E-03     122.099E-03    -23.1350E+06     13.6478E+06     43.8117E+06    -13.0266E+06    -112.689E-03     213.027E-03    -100.338E-03     111.935E-03    -113.862E-03     214.040E-03    -100.105E-03     108.632E-03
            1162     13.0186E-03     122.191E-03    -17.8493E+06     47.9919E+06     53.3533E+06    -11.5538E+06    -116.550E-03     217.655E-03    -101.105E-03     100.876E-03    -117.712E-03     218.770E-03    -100.882E-03     97.4411E-03
            1163     13.8195E-03     122.277E-03    -13.8213E+06     82.2244E+06     60.8511E+06    -8.57782E+06    -120.228E-03     222.257E-03    -102.029E-03     86.1944E-03    -121.336E-03     223.433E-03    -101.824E-03     82.6754E-03
            1164     14.6163E-03     122.348E-03    -10.9627E+06     86.4678E+06     66.0914E+06    -5.47077E+06    -123.577E-03     226.687E-03    -103.111E-03     70.8105E-03    -124.606E-03     227.794E-03    -102.890E-03     67.1353E-03
            1165     15.4109E-03     122.411E-03    -6.21350E+06     88.3506E+06     78.6424E+06    -2.84555E+06    -126.335E-03     230.641E-03    -104.306E-03     41.4843E-03    -127.092E-03     231.462E-03    -104.032E-03     38.2546E-03
            1166     814.138E-06     122.181E-03    -103.554E+06    -162.206E+06    -101.434E+06    -3.57976E+06    -99.4960E-03     199.089E-03    -99.5928E-03     17.5730E-03    -99.6392E-03     198.581E-03    -99.7147E-03     17.3632E-03
            1167     1.62881E-03     122.200E-03    -101.468E+06    -154.143E+06    -92.5225E+06    -6.04705E+06    -98.7537E-03     198.097E-03    -99.3428E-03     32.1664E-03    -98.9251E-03     197.627E-03    -99.4348E-03     31.7900E-03
            1168     2.44439E-03     122.231E-03    -97.9052E+06    -142.546E+06    -80.0562E+06    -8.18605E+06    -97.7620E-03     196.685E-03    -98.9226E-03     47.4065E-03    -97.9743E-03     196.273E-03    -98.9742E-03     46.8578E-03
            1169     3.26124E-03     122.273E-03    -93.4134E+06    -129.905E+06    -65.8411E+06    -9.96937E+06    -96.6492E-03     195.044E-03    -98.3945E-03     62.4394E-03    -96.9125E-03     194.703E-03    -98.3999E-03     61.7184E-03
            1170     4.07936E-03     122.326E-03    -88.3899E+06    -117.366E+06    -51.5342E+06    -11.6045E+06    -95.6462E-03     193.447E-03    -97.8006E-03     77.0040E-03    -95.9698E-03     193.188E-03    -97.7600E-03     76.1038E-03
            1171     4.89872E-03     122.389E-03    -83.1709E+06    -105.660E+06    -38.5045E+06    -13.0296E+06    -94.9849E-03     192.179E-03    -97.1938E-03     90.8382E-03    -95.3789E-03     192.012E-03    -97.1126E-03     89.7461E-03
            1172     5.71890E-03     122.463E-03    -77.9319E+06    -94.0411E+06    -26.9379E+06    -14.0386E+06    -94.8654E-03     191.497E-03    -96.6320E-03     103.638E-03    -95.3443E-03     191.443E-03    -96.5173E-03     102.337E-03
            1173     6.53950E-03     122.546E-03    -72.5877E+06    -82.5309E+06    -16.6908E+06    -14.6280E+06    -95.4247E-03     191.596E-03    -96.1713E-03     115.021E-03    -96.0049E-03     191.673E-03    -96.0299E-03     113.486E-03
            1174     7.35978E-03     122.637E-03    -67.0254E+06    -71.0210E+06    -7.54283E+06    -15.2908E+06    -96.7566E-03     192.618E-03    -95.8612E-03     124.479E-03    -97.4545E-03     192.847E-03    -95.6988E-03     122.677E-03
            1175     8.17909E-03     122.736E-03    -60.7308E+06    -57.7591E+06     1.20848E+06    -15.8109E+06    -98.8796E-03     194.621E-03    -95.7417E-03     131.566E-03    -99.7096E-03     195.027E-03    -95.5639E-03     129.468E-03
            1176     8.99653E-03     122.840E-03    -53.7867E+06    -43.0277E+06     10.2639E+06    -15.8612E+06    -101.723E-03     197.567E-03    -95.8440E-03     135.892E-03    -102.691E-03     198.162E-03    -95.6523E-03     133.486E-03
            1177     9.81161E-03     122.949E-03    -46.7336E+06    -29.8904E+06     18.6512E+06    -16.2695E+06    -105.189E-03     201.372E-03    -96.1830E-03     136.868E-03    -106.278E-03     202.135E-03    -95.9786E-03     134.151E-03
            1178     10.6235E-03     123.059E-03    -39.5551E+06    -17.6076E+06     25.8526E+06    -16.6133E+06    -109.208E-03     205.969E-03    -96.7605E-03     134.148E-03    -110.380E-03     206.863E-03    -96.5483E-03     131.148E-03
            1179     11.4317E-03     123.168E-03    -32.9474E+06     1.33847E+06     33.7319E+06    -16.5935E+06    -113.588E-03     211.158E-03    -97.5707E-03     127.811E-03    -114.807E-03     212.169E-03    -97.3562E-03     124.572E-03
            1180     12.2355E-03     123.273E-03    -27.0645E+06     13.2554E+06     39.4414E+06    -15.9544E+06    -118.050E-03     216.647E-03    -98.5975E-03     118.373E-03    -119.256E-03     217.692E-03    -98.3803E-03     114.940E-03
            1181     13.0357E-03     123.373E-03    -21.0268E+06     45.8581E+06     49.2846E+06    -13.6091E+06    -122.191E-03     221.981E-03    -99.7896E-03     107.050E-03    -123.386E-03     223.122E-03    -99.5792E-03     103.466E-03
            1182     13.8317E-03     123.464E-03    -15.4487E+06     77.0819E+06     56.4822E+06    -9.35543E+06    -125.851E-03     226.948E-03    -101.097E-03     91.9966E-03    -126.981E-03     228.134E-03    -100.904E-03     88.3334E-03
            1183     14.6247E-03     123.541E-03    -9.60907E+06     81.3633E+06     63.1030E+06    -5.00749E+06    -129.064E-03     231.584E-03    -102.520E-03     76.1060E-03    -130.102E-03     232.694E-03    -102.308E-03     72.2888E-03
            1184     15.4149E-03     123.607E-03    -3.50258E+06     85.2746E+06     78.3193E+06    -3.72357E+06    -131.626E-03     235.648E-03    -104.022E-03     45.7601E-03    -132.385E-03     236.471E-03    -103.749E-03     42.3838E-03
            1185     818.913E-06     123.332E-03    -114.795E+06    -154.947E+06    -112.108E+06    -2.02646E+06    -93.6339E-03     187.234E-03    -93.5999E-03     18.7126E-03    -93.8276E-03     186.791E-03    -93.7693E-03     18.5712E-03
            1186     1.63838E-03     123.350E-03    -112.979E+06    -147.303E+06    -103.864E+06    -3.88901E+06    -92.9122E-03     186.342E-03    -93.4297E-03     34.3057E-03    -93.1306E-03     185.934E-03    -93.5716E-03     34.0430E-03
            1187     2.45874E-03     123.379E-03    -109.715E+06    -136.095E+06    -91.1545E+06    -5.91658E+06    -92.0713E-03     185.125E-03    -93.0537E-03     50.5693E-03    -92.3266E-03     184.769E-03    -93.1531E-03     50.1743E-03
            1188     3.28015E-03     123.419E-03    -105.061E+06    -123.712E+06    -75.9008E+06    -7.82847E+06    -91.2689E-03     183.872E-03    -92.6029E-03     66.6229E-03    -91.5687E-03     183.577E-03    -92.6507E-03     66.0880E-03
            1189     4.10266E-03     123.470E-03    -99.5090E+06    -111.602E+06    -60.3947E+06    -9.56973E+06    -90.7798E-03     182.912E-03    -92.1322E-03     82.1452E-03    -91.1308E-03     182.686E-03    -92.1281E-03     81.4575E-03
            1190     4.92587E-03     123.532E-03    -93.4841E+06    -100.136E+06    -46.1753E+06    -11.2733E+06    -90.8447E-03     182.547E-03    -91.7023E-03     96.8628E-03    -91.2564E-03     182.403E-03    -91.6524E-03     95.9982E-03
            1191     5.74937E-03     123.606E-03    -86.9768E+06    -88.9547E+06    -33.8201E+06    -13.0022E+06    -91.6448E-03     183.017E-03    -91.3726E-03     110.395E-03    -92.1301E-03     182.975E-03    -91.2866E-03     109.320E-03
            1192     6.57246E-03     123.689E-03    -79.8414E+06    -77.9625E+06    -22.9180E+06    -14.6727E+06    -93.3133E-03     184.514E-03    -91.2007E-03     122.326E-03    -93.8886E-03     184.595E-03    -91.0865E-03     120.999E-03
            1193     7.39436E-03     123.783E-03    -72.0901E+06    -66.3535E+06    -12.9609E+06    -16.3369E+06    -95.9008E-03     187.136E-03    -91.2351E-03     132.209E-03    -96.5857E-03     187.367E-03    -91.0991E-03     130.583E-03
            1194     8.21410E-03     123.885E-03    -64.1743E+06    -53.7975E+06    -3.71478E+06    -18.0453E+06    -99.3685E-03     190.880E-03    -91.5116E-03     139.605E-03    -100.184E-03     191.288E-03    -91.3591E-03     137.633E-03
            1195     9.03108E-03     123.994E-03    -56.2432E+06    -40.5365E+06     5.36785E+06    -18.9008E+06    -103.588E-03     195.642E-03    -92.0535E-03     144.006E-03    -104.545E-03     196.241E-03    -91.8863E-03     141.665E-03
            1196     9.84442E-03     124.108E-03    -48.6441E+06    -26.8197E+06     14.5226E+06    -19.0872E+06    -108.414E-03     201.282E-03    -92.8688E-03     144.870E-03    -109.505E-03     202.065E-03    -92.6868E-03     142.159E-03
            1197     10.6536E-03     124.224E-03    -41.6343E+06    -14.5348E+06     22.5363E+06    -20.0812E+06    -113.637E-03     207.585E-03    -93.9475E-03     141.977E-03    -114.829E-03     208.514E-03    -93.7534E-03     138.909E-03
            1198     11.4579E-03     124.340E-03    -34.4044E+06     2.40379E+06     30.3551E+06    -20.2118E+06    -118.907E-03     214.166E-03    -95.2593E-03     135.465E-03    -120.152E-03     215.211E-03    -95.0611E-03     132.101E-03
            1199     12.2579E-03     124.453E-03    -26.9803E+06     13.3784E+06     37.0309E+06    -19.4561E+06    -123.884E-03     220.655E-03    -96.7709E-03     125.661E-03    -125.114E-03     221.731E-03    -96.5661E-03     122.066E-03
            1200     13.0532E-03     124.559E-03    -19.5034E+06     42.9126E+06     46.6233E+06    -17.3882E+06    -128.181E-03     226.590E-03    -98.4086E-03     113.727E-03    -129.388E-03     227.746E-03    -98.2095E-03     109.961E-03
            1201     13.8454E-03     124.657E-03    -11.4352E+06     69.0946E+06     54.1078E+06    -12.2377E+06    -131.934E-03     232.058E-03    -100.124E-03     97.8755E-03    -133.056E-03     233.230E-03    -99.9370E-03     94.0199E-03
            1202     14.6341E-03     124.739E-03    -6.18941E+06     75.6259E+06     60.0694E+06    -6.39295E+06    -135.164E-03     237.071E-03    -101.907E-03     80.6278E-03    -136.201E-03     238.182E-03    -101.708E-03     76.5972E-03
            1203     15.4196E-03     124.812E-03    -2.86724E+06     81.9545E+06     76.0725E+06    -3.18270E+06    -137.127E-03     240.861E-03    -103.734E-03     48.9609E-03    -137.895E-03     241.689E-03    -103.468E-03     45.4390E-03
            1204     825.236E-06     124.468E-03    -136.493E+06    -150.276E+06    -134.006E+06    -1.27055E+06    -86.1103E-03     172.056E-03    -85.9458E-03     19.9752E-03    -86.3868E-03     171.698E-03    -86.2000E-03     19.8897E-03
            1205     1.65078E-03     124.485E-03    -132.581E+06    -141.939E+06    -122.396E+06    -2.99996E+06    -85.6881E-03     171.611E-03    -85.9225E-03     36.5948E-03    -85.9811E-03     171.279E-03    -86.1364E-03     36.4248E-03
            1206     2.47696E-03     124.512E-03    -126.837E+06    -130.323E+06    -106.619E+06    -4.93021E+06    -85.3600E-03     171.088E-03    -85.7278E-03     53.8597E-03    -85.6772E-03     170.797E-03    -85.8880E-03     53.5927E-03
            1207     3.30377E-03     124.551E-03    -119.696E+06    -117.318E+06    -89.0024E+06    -7.50847E+06    -85.2908E-03     170.807E-03    -85.5162E-03     70.8482E-03    -85.6377E-03     170.567E-03    -85.6175E-03     70.4606E-03
            1208     4.13095E-03     124.602E-03    -111.039E+06    -105.699E+06    -71.1942E+06    -10.0166E+06    -85.7298E-03     171.078E-03    -85.3477E-03     87.2020E-03    -86.1082E-03     170.890E-03    -85.3894E-03     86.6721E-03
            1209     4.95813E-03     124.665E-03    -101.443E+06    -94.3035E+06    -54.7725E+06    -12.2977E+06    -86.8859E-03     172.161E-03    -85.2753E-03     102.642E-03    -87.3041E-03     172.041E-03    -85.2654E-03     101.941E-03
            1210     5.78461E-03     124.739E-03     -91.778E+06    -83.1365E+06    -40.5756E+06    -14.5363E+06    -88.9279E-03     174.282E-03    -85.3538E-03     116.819E-03    -89.4023E-03     174.251E-03    -85.3030E-03     115.904E-03
            1211     6.60963E-03     124.825E-03    -82.5912E+06    -72.0510E+06    -28.5309E+06    -16.8251E+06    -91.9202E-03     177.554E-03    -85.6334E-03     129.320E-03    -92.4748E-03     177.641E-03    -85.5518E-03     128.138E-03
            1212     7.43239E-03     124.922E-03    -73.8253E+06    -60.3256E+06    -17.9463E+06    -19.3450E+06    -95.8581E-03     182.012E-03    -86.1535E-03     139.705E-03    -96.5206E-03     182.250E-03    -86.0488E-03     138.196E-03
            1213     8.25216E-03     125.030E-03    -65.2882E+06    -48.6877E+06    -8.03380E+06    -21.5000E+06    -100.695E-03     187.640E-03    -86.9452E-03     147.505E-03    -101.491E-03     188.056E-03    -86.8201E-03     145.612E-03
            1214     9.06787E-03     125.145E-03    -57.1635E+06    -37.1423E+06     1.42559E+06    -22.7352E+06    -106.299E-03     194.323E-03    -88.0244E-03     152.208E-03    -107.246E-03     194.933E-03    -87.8805E-03     149.894E-03
            1215     9.87894E-03     125.267E-03    -48.9562E+06    -24.0657E+06     11.1796E+06    -23.1282E+06    -112.388E-03     201.778E-03    -89.3899E-03     153.310E-03    -113.482E-03     202.583E-03    -89.2281E-03     150.562E-03
            1216     10.6848E-03     125.392E-03    -40.7286E+06    -10.3289E+06     20.7208E+06    -23.8154E+06    -118.591E-03     209.608E-03    -91.0174E-03     150.527E-03    -119.800E-03     210.578E-03    -90.8398E-03     147.364E-03
            1217     11.4855E-03     125.516E-03    -32.7860E+06     4.30526E+06     29.0831E+06    -24.8724E+06    -124.578E-03     217.439E-03    -92.8608E-03     143.865E-03    -125.844E-03     218.522E-03    -92.6741E-03     140.345E-03
            1218     12.2811E-03     125.637E-03    -25.1362E+06     12.5340E+06     35.8306E+06    -23.9133E+06    -130.083E-03     224.959E-03    -94.8762E-03     133.404E-03    -131.333E-03     226.063E-03    -94.6788E-03     129.620E-03
            1219     13.0722E-03     125.751E-03    -18.4596E+06     40.9102E+06     45.6824E+06    -21.3299E+06    -134.799E-03     231.789E-03    -96.9900E-03     120.241E-03    -136.028E-03     232.967E-03    -96.7941E-03     116.257E-03
            1220     13.8592E-03     125.855E-03    -13.0130E+06     59.2311E+06     51.0949E+06    -16.3531E+06    -138.721E-03     237.872E-03    -99.1504E-03     103.271E-03    -139.862E-03     239.030E-03    -98.9619E-03     99.1738E-03
            1221     14.6418E-03     125.946E-03    -7.60795E+06     67.3770E+06     56.5397E+06    -9.17063E+06    -141.451E-03     242.769E-03    -101.318E-03     84.8719E-03    -142.505E-03     243.873E-03    -101.122E-03     80.6097E-03
            1222     15.4225E-03     126.022E-03    -4.24489E+06     77.8055E+06     74.5898E+06    -2.30251E+06    -142.359E-03     245.823E-03    -103.465E-03     51.9143E-03    -143.144E-03     246.654E-03    -103.199E-03     48.2337E-03
            1223     832.773E-06     125.585E-03    -168.662E+06    -143.112E+06    -167.165E+06    -4.47800E+06    -77.3137E-03     154.371E-03    -77.0569E-03     21.1581E-03    -77.7123E-03     154.140E-03    -77.4406E-03     21.0667E-03
            1224     1.66556E-03     125.601E-03    -160.788E+06    -135.022E+06    -151.944E+06    -7.36864E+06    -77.5211E-03     154.737E-03    -77.2154E-03     38.6246E-03    -77.9184E-03     154.518E-03    -77.5462E-03     38.4615E-03
            1225     2.49825E-03     125.629E-03    -149.133E+06    -123.111E+06    -130.544E+06    -10.3567E+06    -78.1099E-03     155.458E-03    -77.3478E-03     56.7220E-03    -78.5056E-03     155.260E-03    -77.6057E-03     56.4732E-03
            1226     3.33073E-03     125.668E-03    -135.315E+06    -109.519E+06    -106.914E+06    -13.4871E+06    -79.1659E-03     156.718E-03    -77.5522E-03     74.4768E-03    -79.5621E-03     156.551E-03    -77.7317E-03     74.1213E-03
            1227     4.16259E-03     125.720E-03    -121.099E+06    -98.7894E+06    -84.7227E+06    -16.3686E+06    -80.8898E-03     158.752E-03    -77.8626E-03     91.5199E-03    -81.2892E-03     158.614E-03    -77.9674E-03     91.0330E-03
            1228     4.99335E-03     125.785E-03    -107.546E+06    -88.2646E+06    -65.5643E+06    -18.3568E+06    -83.4058E-03     161.719E-03    -78.3135E-03     107.578E-03    -83.8230E-03     161.630E-03    -78.3574E-03     106.933E-03
            1229     5.82236E-03     125.863E-03    -95.1809E+06    -77.0633E+06    -49.2803E+06    -20.1035E+06    -86.8090E-03     165.753E-03    -78.9441E-03     122.382E-03    -87.2683E-03     165.743E-03    -78.9408E-03     121.535E-03
            1230     6.64891E-03     125.953E-03    -83.4093E+06    -65.3822E+06    -34.9745E+06    -22.3566E+06    -91.1709E-03     170.965E-03    -79.7942E-03     135.547E-03    -91.7001E-03     171.068E-03    -79.7533E-03     134.432E-03
            1231     7.47213E-03     126.056E-03    -72.2937E+06    -54.2216E+06    -22.0015E+06    -24.4052E+06    -96.4741E-03     177.372E-03    -80.8982E-03     146.596E-03    -97.1041E-03     177.618E-03    -80.8248E-03     145.146E-03
            1232     8.29114E-03     126.171E-03    -62.6428E+06    -43.6122E+06    -10.4097E+06    -25.6981E+06    -102.624E-03     184.901E-03    -82.2769E-03     155.055E-03    -103.388E-03     185.320E-03    -82.1749E-03     153.210E-03
            1233     9.10536E-03     126.295E-03    -53.7058E+06    -32.3836E+06     421.299E+03    -27.0067E+06    -109.436E-03     193.374E-03    -83.9377E-03     160.416E-03    -110.358E-03     193.992E-03    -83.8108E-03     158.110E-03
            1234     9.91395E-03     126.426E-03    -44.9706E+06    -20.7779E+06     10.4754E+06    -28.0453E+06    -116.570E-03     202.440E-03    -85.8702E-03     162.029E-03    -117.650E-03     203.259E-03    -85.7225E-03     159.229E-03
            1235     10.7168E-03     126.561E-03    -36.8057E+06    -6.85511E+06     20.7183E+06    -28.2039E+06    -123.686E-03     211.735E-03    -88.0485E-03     159.465E-03    -124.899E-03     212.736E-03    -87.8816E-03     156.195E-03
            1236     11.5137E-03     126.695E-03    -30.2533E+06     7.35865E+06     30.0125E+06    -27.7369E+06    -130.471E-03     220.900E-03    -90.4291E-03     152.513E-03    -131.761E-03     222.025E-03    -90.2458E-03     148.850E-03
            1237     12.3049E-03     126.826E-03    -24.8046E+06     12.7413E+06     35.8628E+06    -27.6044E+06    -136.649E-03     229.608E-03    -92.9591E-03     141.346E-03    -137.932E-03     230.747E-03    -92.7623E-03     137.366E-03
            1238     13.0908E-03     126.948E-03    -19.3932E+06     36.2781E+06     44.4215E+06    -24.4351E+06    -141.838E-03     237.402E-03    -95.5645E-03     127.286E-03    -143.096E-03     238.594E-03    -95.3669E-03     123.085E-03
            1239     13.8717E-03     127.062E-03    -15.3397E+06     49.0511E+06     47.8901E+06    -17.4825E+06    -145.486E-03     243.656E-03    -98.1704E-03     109.480E-03    -146.647E-03     244.800E-03    -97.9799E-03     105.196E-03
            1240     14.6504E-03     127.158E-03    -11.9803E+06     57.2601E+06     54.3120E+06    -10.4592E+06    -147.322E-03     248.041E-03    -100.719E-03     90.1231E-03    -148.400E-03     249.123E-03    -100.513E-03     85.7053E-03
            1241     15.4276E-03     127.239E-03    -7.17854E+06     71.0620E+06     74.9922E+06    -4.04473E+06    -147.719E-03     250.896E-03    -103.177E-03     55.7368E-03    -148.526E-03     251.713E-03    -102.895E-03     51.8863E-03
            1242     840.732E-06     126.681E-03    -191.927E+06    -128.157E+06    -189.564E+06    -8.33427E+06    -68.3681E-03     136.246E-03    -67.8774E-03     21.7408E-03    -68.8711E-03     136.156E-03    -68.3611E-03     21.6189E-03
            1243     1.68103E-03     126.698E-03    -185.234E+06    -121.322E+06    -176.894E+06    -14.8601E+06    -69.2708E-03     137.570E-03    -68.2994E-03     39.6433E-03    -69.7708E-03     137.489E-03    -68.7393E-03     39.4189E-03
            1244     2.52039E-03     126.728E-03    -173.859E+06    -110.114E+06    -156.685E+06    -21.2091E+06    -70.9249E-03     139.725E-03    -68.7996E-03     58.2513E-03    -71.4192E-03     139.660E-03    -69.1713E-03     57.9136E-03
            1245     3.35845E-03     126.769E-03    -158.554E+06    -98.1363E+06    -131.344E+06    -26.4092E+06    -73.2707E-03     142.754E-03    -69.4830E-03     76.5516E-03    -73.7544E-03     142.704E-03    -69.7675E-03     76.0954E-03
            1246     4.19479E-03     126.825E-03    -140.692E+06    -89.4002E+06    -105.818E+06    -30.2413E+06    -76.3941E-03     146.739E-03    -70.3450E-03     94.2173E-03    -76.8609E-03     146.694E-03    -70.5405E-03     93.6306E-03
            1247     5.02875E-03     126.893E-03    -121.576E+06    -81.7275E+06    -83.0153E+06    -32.3857E+06    -80.3535E-03     151.742E-03    -71.3882E-03     110.945E-03    -80.8076E-03     151.714E-03    -71.5085E-03     110.209E-03
            1248     5.85988E-03     126.977E-03    -102.354E+06    -70.8080E+06    -61.7875E+06    -33.3020E+06    -85.1635E-03     157.796E-03    -72.6322E-03     126.451E-03    -85.6286E-03     157.825E-03    -72.6900E-03     125.532E-03
            1249     6.68750E-03     127.074E-03    -84.6752E+06    -59.4618E+06    -42.4870E+06    -34.0845E+06    -90.8478E-03     164.948E-03    -74.0998E-03     140.338E-03    -91.3574E-03     165.069E-03    -74.1032E-03     139.173E-03
            1250     7.51085E-03     127.185E-03    -70.0322E+06    -51.4098E+06    -26.1087E+06    -33.1398E+06    -97.3845E-03     173.196E-03    -75.8115E-03     152.162E-03    -97.9761E-03     173.434E-03    -75.7660E-03     150.700E-03
            1251     8.32927E-03     127.309E-03    -58.6445E+06    -39.9149E+06    -11.6381E+06    -31.3749E+06    -104.660E-03     182.436E-03    -77.7755E-03     161.532E-03    -105.384E-03     182.845E-03    -77.6908E-03     159.705E-03
            1252     9.14187E-03     127.443E-03    -49.8049E+06    -26.6711E+06     936.944E+03    -31.6387E+06    -112.448E-03     192.442E-03    -79.9945E-03     167.801E-03    -113.340E-03     193.063E-03    -79.8789E-03     165.506E-03
            1253     9.94845E-03     127.585E-03    -41.8705E+06    -16.2007E+06     11.4806E+06    -33.1715E+06    -120.530E-03     202.992E-03    -82.4620E-03     170.175E-03    -121.594E-03     203.819E-03    -82.3204E-03     167.341E-03
            1254     10.7484E-03     127.732E-03    -34.1634E+06    -5.70810E+06     21.3826E+06    -32.6062E+06    -128.634E-03     213.794E-03    -85.1600E-03     168.026E-03    -129.843E-03     214.803E-03    -84.9953E-03     164.673E-03
            1255     11.5416E-03     127.878E-03    -27.9507E+06     6.67518E+06     31.1068E+06    -29.0931E+06    -136.300E-03     224.353E-03    -88.0530E-03     160.954E-03    -137.601E-03     225.492E-03    -87.8667E-03     157.180E-03
            1256     12.3284E-03     128.020E-03    -24.3609E+06     16.7118E+06     38.9627E+06    -27.5570E+06    -143.097E-03     234.179E-03    -91.0821E-03     149.454E-03    -144.416E-03     235.361E-03    -90.8761E-03     145.343E-03
            1257     13.1093E-03     128.153E-03    -21.2288E+06     30.2421E+06     44.3239E+06    -25.8382E+06    -148.412E-03     242.562E-03    -94.1507E-03     134.710E-03    -149.692E-03     243.749E-03    -93.9422E-03     130.360E-03
            1258     13.8864E-03     128.274E-03    -16.3700E+06     37.0415E+06     46.7488E+06    -19.0003E+06    -151.689E-03     248.858E-03    -97.1686E-03     115.489E-03    -152.848E-03     249.957E-03    -96.9648E-03     111.074E-03
            1259     14.6603E-03     128.376E-03    -11.0559E+06     50.0903E+06     56.0127E+06    -11.5267E+06    -153.046E-03     253.118E-03    -100.072E-03     94.5623E-03    -154.112E-03     254.162E-03    -99.8490E-03     90.0453E-03
            1260     15.4331E-03     128.460E-03    -3.40963E+06     61.6756E+06     76.8627E+06    -6.47582E+06    -153.545E-03     256.388E-03    -102.843E-03     59.4456E-03    -154.325E-03     257.154E-03    -102.544E-03     55.4728E-03
            1261     847.862E-06     127.757E-03    -173.576E+06    -107.225E+06    -170.643E+06    -9.74273E+06    -60.7733E-03     120.868E-03    -60.0946E-03     21.0675E-03    -61.2409E-03     120.830E-03    -60.5407E-03     20.9302E-03
            1262     1.69472E-03     127.777E-03    -168.677E+06    -100.414E+06    -159.087E+06    -18.3759E+06    -62.2126E-03     122.941E-03    -60.7283E-03     38.5892E-03    -62.6845E-03     122.915E-03    -61.1336E-03     38.3257E-03
            1263     2.54009E-03     127.810E-03    -161.401E+06    -89.9035E+06    -143.681E+06    -27.3821E+06    -64.6986E-03     126.203E-03    -61.5046E-03     57.0592E-03    -65.1769E-03     126.203E-03    -61.8586E-03     56.6532E-03
            1264     3.38322E-03     127.856E-03    -151.638E+06    -80.6108E+06    -125.577E+06    -35.5853E+06    -68.1125E-03     130.655E-03    -62.5426E-03     75.4850E-03    -68.5927E-03     130.673E-03    -62.8337E-03     74.9284E-03
            1265     4.22351E-03     127.916E-03    -139.636E+06    -74.9587E+06    -106.789E+06    -42.0226E+06    -72.4036E-03     136.233E-03    -63.8290E-03     93.5625E-03    -72.8801E-03     136.256E-03    -64.0518E-03     92.8513E-03
            1266     5.06057E-03     127.991E-03    -125.934E+06    -70.5568E+06    -89.4064E+06    -47.0217E+06    -77.5873E-03     142.933E-03    -65.3453E-03     110.967E-03    -78.0625E-03     142.969E-03    -65.5074E-03     110.082E-03
            1267     5.89361E-03     128.082E-03    -110.672E+06    -62.6992E+06    -71.6379E+06    -50.0024E+06    -83.6376E-03     150.733E-03    -67.0956E-03     127.311E-03    -84.1300E-03     150.818E-03    -67.2024E-03     126.229E-03
            1268     6.72213E-03     128.188E-03    -94.9936E+06    -54.6620E+06    -53.2076E+06    -50.0608E+06    -90.4789E-03     159.568E-03    -69.0888E-03     142.119E-03    -91.0141E-03     159.727E-03    -69.1378E-03     140.815E-03
            1269     7.54560E-03     128.308E-03    -78.9443E+06    -50.8433E+06    -35.1726E+06    -48.0800E+06    -98.0680E-03     169.395E-03    -71.3271E-03     154.943E-03    -98.6679E-03     169.638E-03    -71.3147E-03     153.368E-03
            1270     8.36334E-03     128.443E-03    -62.1231E+06    -40.2697E+06    -17.2001E+06    -44.3055E+06    -106.235E-03     180.030E-03    -73.7944E-03     165.327E-03    -106.937E-03     180.420E-03    -73.7319E-03     163.425E-03
            1271     9.17503E-03     128.589E-03    -47.0949E+06    -25.0245E+06     126.017E+03    -39.8170E+06    -114.852E-03     191.343E-03    -76.4905E-03     172.599E-03    -115.696E-03     191.933E-03    -76.3853E-03     170.296E-03
            1272     9.97989E-03     128.744E-03    -37.1851E+06    -12.9256E+06     14.5544E+06    -36.7123E+06    -123.813E-03     203.230E-03    -79.4173E-03     176.013E-03    -124.826E-03     204.027E-03    -79.2718E-03     173.221E-03
            1273     10.7775E-03     128.904E-03    -31.8286E+06    -5.71797E+06     24.4115E+06    -34.4208E+06    -132.808E-03     215.366E-03    -82.5581E-03     174.792E-03    -133.982E-03     216.340E-03    -82.3816E-03     171.467E-03
            1274     11.5676E-03     129.064E-03    -26.9486E+06     2.65112E+06     33.1568E+06    -30.5995E+06    -141.286E-03     227.169E-03    -85.8828E-03     168.337E-03    -142.569E-03     228.274E-03    -85.6818E-03     164.534E-03
            1275     12.3506E-03     129.219E-03    -21.8147E+06     17.3750E+06     43.7294E+06    -25.9942E+06    -148.598E-03     237.932E-03    -89.3334E-03     156.924E-03    -149.916E-03     239.111E-03    -89.1083E-03     152.775E-03
            1276     13.1279E-03     129.363E-03    -18.9326E+06     29.3517E+06     50.1232E+06    -23.3287E+06    -154.149E-03     246.954E-03    -92.8051E-03     141.182E-03    -155.420E-03     248.120E-03    -92.5696E-03     136.818E-03
            1277     13.9002E-03     129.493E-03    -16.4613E+06     28.5938E+06     50.8779E+06    -20.7671E+06    -157.642E-03     253.844E-03    -96.2017E-03     120.262E-03    -158.780E-03     254.879E-03    -95.9649E-03     115.797E-03
            1278     14.6703E-03     129.600E-03    -11.3117E+06      41.064E+06     56.3701E+06    -15.2130E+06    -159.081E-03     258.520E-03    -99.4390E-03     97.1601E-03    -160.119E-03     259.502E-03    -99.2003E-03     92.5331E-03
            1279     15.4391E-03     129.689E-03    -6.87531E+06     51.0413E+06     74.3510E+06    -9.04308E+06    -159.189E-03     261.708E-03    -102.519E-03     61.6919E-03    -159.958E-03     262.419E-03    -102.211E-03     57.6429E-03
            1280     852.189E-06     128.820E-03    -126.486E+06    -84.4992E+06    -123.400E+06    -10.3988E+06    -56.0549E-03     111.465E-03    -55.4097E-03     18.9158E-03    -56.3878E-03     111.405E-03    -55.7208E-03     18.7609E-03
            1281     1.70352E-03     128.842E-03    -121.580E+06    -77.3152E+06    -111.971E+06    -18.8561E+06    -57.6915E-03     113.760E-03    -56.0688E-03     34.8835E-03    -58.0303E-03     113.717E-03    -56.3402E-03     34.5979E-03
            1282     2.55302E-03     128.878E-03    -115.132E+06    -66.9355E+06    -97.5597E+06    -27.6881E+06    -60.5183E-03     117.469E-03    -56.9503E-03     51.9971E-03    -60.8679E-03     117.454E-03    -57.1741E-03     51.5649E-03
            1283     3.39996E-03     128.930E-03    -108.845E+06    -59.9142E+06    -84.7158E+06    -35.4586E+06    -64.4095E-03     122.544E-03    -58.1345E-03     69.4633E-03    -64.7694E-03     122.550E-03    -58.3134E-03     68.8822E-03
            1284     4.24358E-03     128.996E-03    -103.603E+06    -56.0298E+06    -74.2274E+06    -42.4727E+06    -69.3215E-03     128.929E-03    -59.6072E-03     87.0298E-03    -69.6980E-03     128.954E-03    -59.7469E-03     86.2868E-03
            1285     5.08313E-03     129.079E-03    -98.6877E+06    -52.8072E+06    -64.8836E+06    -49.3306E+06    -75.1833E-03     136.540E-03    -61.3564E-03     104.446E-03    -75.5880E-03     136.595E-03    -61.4612E-03     103.512E-03
            1286     5.91803E-03     129.179E-03    -93.4514E+06    -49.5254E+06    -55.4926E+06    -54.8347E+06    -81.9305E-03     145.303E-03    -63.3726E-03     121.276E-03    -82.3793E-03     145.406E-03    -63.4428E-03     120.127E-03
            1287     6.74775E-03     129.295E-03    -86.4509E+06    -46.5420E+06    -45.1447E+06    -57.7311E+06    -89.5039E-03     155.152E-03    -65.6482E-03     137.000E-03    -90.0106E-03     155.319E-03    -65.6811E-03     135.615E-03
            1288     7.57162E-03     129.427E-03    -77.2794E+06    -45.4555E+06    -33.8853E+06    -59.1746E+06    -97.7848E-03     165.960E-03    -68.1750E-03     151.091E-03    -98.3623E-03     166.202E-03    -68.1665E-03     149.426E-03
            1289     8.38929E-03     129.573E-03    -66.7141E+06    -40.4024E+06    -21.9010E+06    -58.5234E+06    -106.614E-03     177.548E-03    -70.9337E-03     162.897E-03    -107.289E-03     177.909E-03    -70.8879E-03     160.905E-03
            1290     9.20034E-03     129.732E-03    -54.2857E+06    -29.0779E+06    -5.89157E+06    -54.0492E+06    -115.893E-03     189.821E-03    -73.9284E-03     171.698E-03    -116.694E-03     190.347E-03    -73.8370E-03     169.348E-03
            1291     10.0042E-03     129.901E-03    -40.7629E+06    -18.1764E+06     12.7395E+06    -45.9891E+06    -125.477E-03     202.635E-03    -77.1571E-03     176.705E-03    -126.416E-03     203.330E-03    -77.0079E-03     173.970E-03
            1292     10.8006E-03     130.076E-03    -28.8374E+06    -8.88700E+06     28.6502E+06    -37.9693E+06    -135.059E-03     215.646E-03    -80.5867E-03     177.197E-03    -136.128E-03     216.502E-03    -80.3888E-03     174.025E-03
            1293     11.5890E-03     130.251E-03    -19.6741E+06    -1.01418E+06     40.1084E+06    -32.9524E+06    -144.200E-03     228.383E-03    -84.1830E-03     172.369E-03    -145.368E-03     229.366E-03    -83.9525E-03     168.719E-03
            1294     12.3700E-03     130.420E-03    -12.2927E+06     10.2989E+06     50.4600E+06    -26.7064E+06    -152.276E-03     240.179E-03    -87.9032E-03     161.768E-03    -153.485E-03     241.239E-03    -87.6480E-03     157.732E-03
            1295     13.1442E-03     130.577E-03    -8.00966E+06     24.4722E+06     59.6285E+06    -17.8357E+06    -158.571E-03     250.239E-03    -91.6675E-03     145.586E-03    -159.750E-03     251.306E-03    -91.3933E-03     141.368E-03
            1296     13.9136E-03     130.716E-03    -7.04557E+06     31.3390E+06     64.8817E+06    -14.7636E+06    -162.869E-03     258.249E-03    -95.3804E-03     123.948E-03    -163.939E-03     259.220E-03    -95.0912E-03     119.634E-03
            1297     14.6783E-03     130.831E-03    -5.43854E+06     35.4339E+06     65.2820E+06    -16.1785E+06    -164.865E-03     263.790E-03    -98.9247E-03     99.4882E-03    -165.836E-03     264.680E-03    -98.6418E-03     94.8855E-03
            1298     15.4414E-03     130.923E-03    -1.30780E+06     35.3368E+06     76.8363E+06    -10.2333E+06    -163.928E-03     266.195E-03    -102.268E-03     63.2825E-03    -164.627E-03     266.793E-03    -101.933E-03     59.2279E-03
            1299     852.889E-06     129.876E-03    -79.1969E+06    -61.8813E+06    -75.4302E+06    -10.1255E+06    -55.5716E-03     110.507E-03    -54.9358E-03     15.4508E-03    -55.7710E-03     110.424E-03    -55.1084E-03     15.2832E-03
            1300     1.70493E-03     129.901E-03    -75.7013E+06    -54.8542E+06    -66.9281E+06    -18.2022E+06    -57.0567E-03     112.643E-03    -55.5865E-03     28.5893E-03    -57.2663E-03     112.583E-03    -55.7319E-03     28.2818E-03
            1301     2.55534E-03     129.941E-03    -71.6985E+06    -46.2114E+06    -55.5286E+06    -25.5981E+06    -59.7472E-03     116.189E-03    -56.4421E-03     42.7526E-03    -59.9755E-03     116.160E-03    -56.5488E-03     42.3022E-03
            1302     3.40328E-03     129.997E-03    -67.3819E+06    -41.1089E+06    -44.2072E+06    -31.6213E+06    -63.4817E-03     121.101E-03    -57.6189E-03     57.3797E-03    -63.7282E-03     121.090E-03    -57.6826E-03     56.7886E-03
            1303     4.24793E-03     130.070E-03    -62.8712E+06    -37.2263E+06    -34.7190E+06    -37.4136E+06    -68.1953E-03     127.285E-03    -59.0894E-03     72.4977E-03    -68.4631E-03     127.298E-03    -59.1179E-03     71.7488E-03
            1304     5.08852E-03     130.161E-03    -58.9430E+06    -34.4320E+06    -26.3028E+06    -43.0141E+06    -73.8087E-03     134.647E-03    -60.8383E-03     88.0576E-03    -74.1080E-03     134.692E-03    -60.8345E-03     87.1289E-03
            1305     5.92453E-03     130.269E-03    -55.9716E+06    -33.1641E+06    -19.2073E+06    -48.0327E+06    -80.2779E-03     143.124E-03    -62.8461E-03     103.833E-03    -80.6222E-03     143.209E-03    -62.8129E-03     102.702E-03
            1306     6.75522E-03     130.396E-03    -54.1542E+06    -33.0965E+06    -14.3840E+06    -52.2923E+06    -87.5809E-03     152.675E-03    -65.0939E-03     119.416E-03    -87.9851E-03     152.813E-03    -65.0393E-03     118.059E-03
            1307     7.58012E-03     130.539E-03    -53.4250E+06    -33.6159E+06    -10.7597E+06    -55.4377E+06    -95.6858E-03     163.264E-03    -67.5780E-03     134.248E-03    -96.1688E-03     163.471E-03    -67.5056E-03     132.637E-03
            1308     8.39872E-03     130.697E-03    -52.7299E+06    -32.5238E+06    -6.27288E+06    -57.7888E+06    -104.546E-03     174.847E-03    -70.3008E-03     147.614E-03    -105.129E-03     175.148E-03    -70.2086E-03     145.706E-03
            1309     9.21028E-03     130.870E-03    -50.7833E+06    -28.0190E+06     1.36457E+06    -58.2792E+06    -113.985E-03     187.251E-03    -73.2654E-03     158.688E-03    -114.688E-03     187.673E-03    -73.1444E-03     156.449E-03
            1310     10.0146E-03     131.054E-03    -45.9827E+06    -24.8567E+06     11.8220E+06    -54.9285E+06    -123.733E-03     200.196E-03    -76.4635E-03     166.447E-03    -124.552E-03     200.734E-03    -76.3016E-03     163.867E-03
            1311     10.8113E-03     131.244E-03    -37.6741E+06    -16.9965E+06     26.0363E+06    -48.3096E+06    -133.490E-03     213.361E-03    -79.8713E-03     169.938E-03    -134.418E-03     214.024E-03    -79.6618E-03     167.012E-03
            1312     11.6006E-03     131.435E-03    -27.7622E+06    -6.09771E+06     41.3606E+06     -41.643E+06    -143.054E-03     226.515E-03    -83.4602E-03     168.239E-03    -144.072E-03     227.296E-03    -83.2043E-03     164.933E-03
            1313     12.3816E-03     131.621E-03    -17.8227E+06    -1.57275E+06     52.7121E+06    -34.3376E+06    -152.098E-03     239.293E-03    -87.1951E-03     160.454E-03    -153.151E-03     240.128E-03    -86.9034E-03     156.768E-03
            1314     13.1552E-03     131.792E-03    -6.42482E+06     8.49990E+06     65.3128E+06    -23.3261E+06    -159.911E-03     250.945E-03    -91.0346E-03     146.035E-03    -160.941E-03     251.797E-03    -90.7110E-03     142.082E-03
            1315     13.9222E-03     131.943E-03     4.99103E+06     27.2905E+06     80.4784E+06    -13.1393E+06    -165.444E-03     260.336E-03    -94.8919E-03     125.062E-03    -166.380E-03     261.156E-03    -94.5363E-03     121.031E-03
            1316     14.6852E-03     132.069E-03     7.91590E+06     35.4793E+06     83.1284E+06    -7.82076E+06    -167.826E-03     266.424E-03    -98.5974E-03     100.591E-03    -168.667E-03     267.179E-03    -98.2447E-03     96.4096E-03
            1317     15.4461E-03     132.164E-03     1.84383E+06     26.0335E+06     82.7818E+06    -2.31028E+06    -167.291E-03     269.367E-03    -102.075E-03     63.9944E-03    -167.915E-03     269.850E-03    -101.702E-03     60.2587E-03
            1318     849.123E-06     130.937E-03    -36.9173E+06    -40.4139E+06    -34.0049E+06    -9.05201E+06    -60.3182E-03     120.027E-03    -59.7092E-03     10.4943E-03    -60.4001E-03     119.928E-03    -59.7670E-03     10.3187E-03
            1319     1.69744E-03     130.963E-03    -34.8654E+06    -34.7849E+06    -26.8814E+06    -15.8169E+06    -61.6726E-03     122.066E-03    -60.3934E-03     19.4085E-03    -61.7686E-03     121.987E-03    -60.4268E-03     19.0910E-03
            1320     2.54418E-03     131.006E-03    -32.0162E+06    -28.6115E+06    -17.3393E+06    -21.7313E+06    -63.9951E-03     125.247E-03    -61.2516E-03     28.7830E-03    -64.1100E-03     125.191E-03    -61.2503E-03     28.3202E-03
            1321     3.38849E-03     131.067E-03    -28.5021E+06    -24.8023E+06    -7.29237E+06    -27.0776E+06    -67.0394E-03     129.424E-03    -62.3844E-03     38.5815E-03    -67.1730E-03     129.384E-03    -62.3436E-03     37.9656E-03
            1322     4.22982E-03     131.145E-03    -25.3787E+06    -22.1875E+06     1.60091E+06    -31.3125E+06    -70.7273E-03     134.480E-03    -63.7529E-03     49.1318E-03    -70.8852E-03     134.460E-03    -63.6759E-03     48.3613E-03
            1323     5.06786E-03     131.242E-03    -23.6545E+06    -19.8030E+06     8.55616E+06    -34.5932E+06    -75.0581E-03     140.389E-03    -65.3306E-03     60.5354E-03    -75.2522E-03     140.400E-03    -65.2248E-03     59.6058E-03
            1324     5.90195E-03     131.358E-03    -23.4502E+06    -18.7441E+06     13.7947E+06    -37.7535E+06    -80.0326E-03     147.138E-03    -67.1053E-03     72.7754E-03    -80.2748E-03     147.188E-03    -66.9751E-03     71.6707E-03
            1325     6.73188E-03     131.492E-03    -24.3370E+06    -19.5129E+06     17.6859E+06    -40.5237E+06    -85.7012E-03     154.771E-03    -69.0693E-03     85.6281E-03    -86.0010E-03     154.862E-03    -68.9173E-03     84.3350E-03
            1326     7.55708E-03     131.645E-03    -25.4398E+06    -20.6683E+06     21.1820E+06    -42.8758E+06    -92.1639E-03     163.387E-03    -71.2230E-03     98.7251E-03    -92.5294E-03     163.528E-03    -71.0502E-03     97.2283E-03
            1327     8.37676E-03     131.815E-03    -26.8489E+06    -20.4620E+06     24.8256E+06    -44.7610E+06    -99.4272E-03     172.997E-03    -73.5696E-03     111.636E-03    -99.8697E-03     173.201E-03    -73.3769E-03     109.920E-03
            1328     9.19055E-03     132.000E-03    -29.6072E+06    -19.3095E+06     27.4212E+06    -45.6568E+06    -107.412E-03     183.515E-03    -76.1037E-03     123.764E-03    -107.943E-03     183.797E-03    -75.8957E-03     121.820E-03
            1329     9.99765E-03     132.198E-03    -33.2333E+06    -19.7758E+06     29.2425E+06    -46.5255E+06    -115.948E-03     194.770E-03    -78.8214E-03     134.214E-03    -116.571E-03     195.124E-03    -78.5983E-03     132.021E-03
            1330     10.7980E-03     132.403E-03    -35.0767E+06    -17.0923E+06     35.0154E+06    -47.1112E+06    -124.882E-03     206.607E-03    -81.7244E-03     142.040E-03    -125.595E-03     207.038E-03    -81.4737E-03     139.584E-03
            1331     11.5908E-03     132.611E-03    -33.3825E+06    -9.72197E+06     44.9103E+06    -44.7934E+06    -134.115E-03     218.917E-03    -84.8020E-03     146.096E-03    -134.903E-03     219.428E-03    -84.5150E-03     143.389E-03
            1332     12.3766E-03     132.813E-03    -29.2363E+06    -9.20524E+06     52.8944E+06    -40.0484E+06    -143.666E-03     231.712E-03    -88.0461E-03     145.180E-03    -144.491E-03     232.253E-03    -87.7259E-03     142.212E-03
            1333     13.1539E-03     133.003E-03    -23.2462E+06    -5.81154E+06     62.9110E+06    -34.7620E+06    -153.091E-03     244.556E-03    -91.4646E-03     138.228E-03    -153.934E-03     245.119E-03    -91.1079E-03     134.953E-03
            1334     13.9229E-03     133.170E-03    -16.3285E+06     6.51619E+06     76.1678E+06    -23.9850E+06    -161.284E-03     256.308E-03    -95.0235E-03     123.178E-03    -162.109E-03     256.881E-03    -94.6284E-03     119.715E-03
            1335     14.6867E-03     133.304E-03    -14.6349E+06     19.2318E+06     78.4208E+06    -6.53370E+06    -166.932E-03     265.517E-03    -98.5846E-03     99.3749E-03    -167.711E-03     266.087E-03    -98.1991E-03     95.8355E-03
            1336     15.4493E-03     133.406E-03    -21.8105E+06      23.189E+06     78.4970E+06     2.33385E+06    -167.593E-03     269.629E-03    -102.035E-03     60.8676E-03    -168.240E-03     270.053E-03    -101.645E-03     57.5410E-03
            1337     840.161E-06     132.013E-03     714.177E+03    -21.9003E+06     3.77215E+06    -6.65097E+06    -71.7777E-03     142.743E-03    -70.9658E-03     3.98747E-03    -71.7594E-03     142.619E-03    -70.9162E-03     3.82368E-03
            1338     1.67914E-03     132.042E-03     1.39884E+06    -18.3225E+06     9.48600E+06    -12.2674E+06    -72.9537E-03     144.839E-03    -71.8850E-03     6.03707E-03    -72.9492E-03     144.726E-03    -71.8130E-03     5.72134E-03
            1339     2.51625E-03     132.087E-03     3.45720E+06    -13.9240E+06     18.0382E+06    -17.0196E+06    -74.4545E-03     147.237E-03    -72.7829E-03     8.66346E-03    -74.4641E-03     147.138E-03    -72.6776E-03     8.19484E-03
            1340     3.35134E-03     132.151E-03     4.98146E+06    -11.5368E+06     26.2939E+06    -20.5092E+06    -76.2498E-03     150.067E-03    -73.8173E-03     12.0765E-03    -76.2764E-03     149.976E-03    -73.6763E-03     11.4624E-03
            1341     4.18422E-03     132.233E-03     5.45527E+06    -10.9691E+06     33.2747E+06    -22.7742E+06    -78.3502E-03     153.345E-03    -74.9947E-03     16.3814E-03    -78.3989E-03     153.260E-03    -74.8203E-03     15.6289E-03
            1342     5.01442E-03     132.333E-03     5.29307E+06    -9.54219E+06     38.9139E+06    -24.2677E+06    -80.7212E-03     157.027E-03    -76.3056E-03     21.7024E-03    -80.7993E-03     156.961E-03    -76.1048E-03     20.8132E-03
            1343     5.84187E-03     132.453E-03     4.28826E+06    -8.50451E+06     44.0246E+06    -25.2597E+06    -83.3881E-03     161.135E-03    -77.7465E-03     27.9617E-03    -83.5037E-03     161.094E-03    -77.5203E-03     26.9346E-03
            1344     6.66619E-03     132.592E-03     2.58966E+06    -9.24154E+06     48.9617E+06    -26.3822E+06    -86.3796E-03     165.692E-03    -79.3124E-03     35.1099E-03    -86.5386E-03     165.674E-03    -79.0580E-03     33.9357E-03
            1345     7.48703E-03     132.750E-03      63.105E+03    -10.2703E+06     52.6825E+06    -27.7372E+06    -89.6872E-03     170.671E-03    -80.9838E-03     43.1028E-03    -89.8960E-03     170.682E-03    -80.7055E-03     41.7730E-03
            1346     8.30453E-03     132.927E-03    -3.48316E+06    -11.1848E+06     55.0530E+06    -28.2705E+06    -93.3350E-03     176.077E-03    -82.7417E-03     51.8475E-03    -93.6000E-03     176.124E-03    -82.4452E-03     50.3730E-03
            1347     9.11834E-03     133.120E-03    -6.88391E+06    -10.6924E+06     57.4515E+06    -28.1312E+06    -97.3729E-03     181.943E-03    -84.5698E-03     61.1570E-03    -97.6960E-03     182.035E-03    -84.2571E-03     59.5529E-03
            1348     9.92873E-03     133.327E-03    -9.11228E+06    -9.46528E+06     60.7082E+06    -28.5537E+06    -101.892E-03     188.345E-03    -86.4527E-03     70.6210E-03    -102.268E-03     188.481E-03    -86.1222E-03     68.8883E-03
            1349     10.7352E-03     133.545E-03    -10.9606E+06    -7.82595E+06     64.1581E+06    -29.5665E+06    -107.038E-03     195.414E-03    -88.3756E-03     79.9532E-03    -107.462E-03     195.591E-03    -88.0276E-03     78.0966E-03
            1350     11.5376E-03     133.766E-03    -15.0580E+06    -5.90457E+06     66.2239E+06    -29.3931E+06    -113.043E-03     203.377E-03    -90.3341E-03     88.6529E-03    -113.516E-03     203.594E-03    -89.9726E-03     86.7007E-03
            1351     12.3347E-03     133.986E-03    -20.8779E+06    -6.45170E+06     66.1817E+06    -28.3816E+06    -120.264E-03     212.612E-03    -92.3488E-03     96.2454E-03    -120.785E-03     212.859E-03    -91.9783E-03     94.1966E-03
            1352     13.1259E-03     134.195E-03    -26.1074E+06    -6.83141E+06     66.7827E+06    -27.0204E+06    -129.081E-03     223.558E-03    -94.4778E-03     101.393E-03    -129.649E-03     223.830E-03    -94.0961E-03     99.1980E-03
            1353     13.9101E-03     134.382E-03    -25.8194E+06    -3.29268E+06     70.7149E+06    -25.8120E+06    -140.479E-03     237.307E-03    -96.8282E-03     101.289E-03    -141.076E-03     237.608E-03    -96.4324E-03     98.8394E-03
            1354     14.6821E-03     134.538E-03    -17.8557E+06    -8.12941E+06     71.3814E+06    -16.8665E+06    -151.729E-03     251.179E-03    -99.4500E-03     91.6523E-03    -152.274E-03     251.433E-03    -99.0554E-03     89.0230E-03
            1355     15.4410E-03     134.650E-03     3.81681E+06     8.69078E+06     83.9542E+06    -1.61839E+06    -158.841E-03     261.113E-03    -102.272E-03     62.9281E-03    -159.228E-03     261.305E-03    -101.871E-03     60.4168E-03
            1356     824.369E-06     133.124E-03     35.8045E+06    -8.92730E+06     37.4629E+06    -4.24749E+06    -91.3320E-03     183.403E-03    -92.0713E-03    -7.63082E-03    -91.2218E-03     183.223E-03    -91.9230E-03    -7.77769E-03
            1357     1.64640E-03     133.154E-03     35.4606E+06    -6.37035E+06     42.9940E+06    -7.24966E+06    -91.7071E-03     183.869E-03    -92.1621E-03    -13.3394E-03    -91.6064E-03     183.696E-03    -91.9893E-03    -13.5996E-03
            1358     2.46766E-03     133.200E-03     34.7248E+06    -4.10494E+06     49.5210E+06    -9.24617E+06    -91.9381E-03     184.636E-03    -92.6980E-03    -18.5220E-03    -91.8513E-03     184.466E-03    -92.4948E-03    -18.8903E-03
            1359     3.28780E-03     133.265E-03     33.1131E+06    -3.16064E+06     56.1628E+06    -10.1195E+06    -92.1991E-03     185.617E-03    -93.4179E-03    -23.1307E-03    -92.1297E-03     185.444E-03    -93.1805E-03    -23.5947E-03
            1360     4.10618E-03     133.348E-03     31.0732E+06    -3.46470E+06     62.2275E+06    -10.6950E+06    -92.4061E-03     186.700E-03    -94.2943E-03    -27.1454E-03    -92.3540E-03     186.521E-03    -94.0232E-03    -27.7033E-03
            1361     4.92273E-03     133.449E-03     28.7357E+06    -3.16013E+06     67.9755E+06    -11.1076E+06    -92.4586E-03     187.757E-03    -95.2981E-03    -30.4032E-03    -92.4270E-03     187.575E-03    -94.9953E-03    -31.0541E-03
            1362     5.73714E-03     133.570E-03     26.3604E+06    -2.74784E+06     73.4997E+06    -10.9409E+06    -92.2664E-03     188.665E-03    -96.3987E-03    -32.7573E-03    -92.2563E-03     188.484E-03    -96.0655E-03    -33.4940E-03
            1363     6.54924E-03     133.710E-03     23.7019E+06    -2.89606E+06     78.5137E+06    -10.6604E+06    -91.7299E-03     189.287E-03    -97.5570E-03    -33.9608E-03    -91.7429E-03     189.108E-03    -97.1946E-03    -34.7800E-03
            1364     7.35948E-03     133.868E-03     20.5297E+06    -3.38448E+06     82.2969E+06    -10.5955E+06    -90.7559E-03     189.477E-03    -98.7214E-03    -33.7622E-03    -90.7945E-03     189.304E-03    -98.3347E-03    -34.6617E-03
            1365     8.16793E-03     134.045E-03     17.5835E+06    -4.69356E+06     85.2654E+06    -10.6068E+06    -89.3372E-03     189.177E-03    -99.8395E-03    -31.9466E-03    -89.4001E-03     189.010E-03    -99.4319E-03    -32.9176E-03
            1366     8.97550E-03     134.238E-03     15.3744E+06    -4.38359E+06     88.8692E+06    -11.0055E+06    -87.5217E-03     188.380E-03    -100.858E-03    -28.3841E-03    -87.6106E-03     188.230E-03    -100.430E-03    -29.4161E-03
            1367     9.78261E-03     134.447E-03     12.8987E+06    -2.73821E+06     92.2361E+06    -11.1593E+06    -85.5118E-03     187.233E-03    -101.721E-03    -23.0618E-03    -85.6311E-03     187.109E-03    -101.275E-03    -24.1329E-03
            1368     10.5905E-03     134.666E-03     8.71461E+06    -923.007E+03     93.4483E+06    -10.6367E+06    -83.6335E-03     186.013E-03    -102.380E-03    -16.0623E-03    -83.7892E-03     185.924E-03    -101.924E-03    -17.1438E-03
            1369     11.3999E-03     134.892E-03     4.28518E+06    -827.271E+03     92.2668E+06    -9.14583E+06    -82.4057E-03     185.215E-03    -102.810E-03    -7.37269E-03    -82.5918E-03     185.155E-03    -102.353E-03    -8.43581E-03
            1370     12.2118E-03     135.120E-03     1.24231E+06     158.857E+03     89.8690E+06    -8.27836E+06    -82.6832E-03     185.711E-03    -103.028E-03     2.58783E-03    -82.8921E-03     185.681E-03    -102.580E-03     1.53729E-03
            1371     13.0260E-03     135.341E-03    -746.477E+03    -1.51614E+06     86.0204E+06    -7.31307E+06    -85.9480E-03     189.077E-03    -103.129E-03     12.6513E-03    -86.1667E-03     189.062E-03    -102.696E-03     11.6018E-03
            1372     13.8382E-03     135.549E-03    -1.75289E+06     2.87816E+06     83.8916E+06    -8.02894E+06    -92.6677E-03     195.912E-03    -103.244E-03     24.2925E-03    -92.9069E-03     195.945E-03    -102.826E-03     23.1681E-03
            1373     14.6429E-03     135.736E-03     1.92836E+06    -15.1091E+06     74.8247E+06    -10.0156E+06    -102.413E-03     205.890E-03    -103.477E-03     33.7354E-03    -102.605E-03     205.851E-03    -103.084E-03     32.5114E-03
            1374     15.4463E-03     135.864E-03     12.1087E+06    -5.97555E+06     65.5919E+06    -7.97085E+06    -118.269E-03     222.282E-03    -104.013E-03     34.5868E-03    -118.388E-03     222.255E-03    -103.694E-03     33.4056E-03
            1375     15.3806E-03     67.3063E-03    -5.79316E+06     119.523E+06     93.7119E+06     161.562E+03    -104.923E-03     211.133E-03    -106.210E-03     21.6544E-03    -105.677E-03     212.020E-03    -105.906E-03     18.8865E-03
            1376     14.5715E-03     67.2622E-03    -9.78366E+06     116.897E+06     83.7438E+06    -408.575E+03    -105.148E-03     211.338E-03    -106.190E-03     45.6692E-03    -106.181E-03     212.509E-03    -105.927E-03     42.2657E-03
            1377     13.7622E-03     67.2084E-03    -15.3192E+06     107.695E+06     71.8375E+06     56.9353E+03    -105.394E-03     211.566E-03    -106.172E-03     59.1354E-03    -106.557E-03     212.849E-03    -105.947E-03     55.6372E-03
            1378     12.9522E-03     67.1354E-03    -22.7425E+06     100.367E+06     63.4183E+06     560.450E+03    -105.739E-03     211.915E-03    -106.176E-03     73.7356E-03    -107.079E-03     213.347E-03    -105.972E-03     70.0947E-03
            1379     12.1423E-03     67.0492E-03    -28.0955E+06     61.3961E+06     52.3572E+06     331.658E+03    -106.261E-03     212.473E-03    -106.212E-03     84.7778E-03    -107.670E-03     213.848E-03    -105.999E-03     81.0333E-03
            1380     11.3325E-03     66.9517E-03    -32.5732E+06     17.9910E+06     44.8214E+06    -35.1919E+03    -106.807E-03     213.075E-03    -106.268E-03     93.5552E-03    -108.235E-03     214.322E-03    -106.023E-03     89.7530E-03
            1381     10.5228E-03     66.8458E-03    -37.7542E+06    -11.7531E+06     35.3809E+06    -78.0965E+03    -107.212E-03     213.505E-03    -106.294E-03     99.2143E-03    -108.616E-03     214.631E-03    -106.045E-03     95.4368E-03
            1382     9.71308E-03     66.7354E-03    -43.1332E+06    -43.0308E+06     26.2377E+06    -166.937E+03    -107.502E-03     213.825E-03    -106.323E-03     101.684E-03    -108.816E-03     214.756E-03    -106.067E-03     98.0223E-03
            1383     8.90353E-03     66.6236E-03    -48.7710E+06    -68.0432E+06     16.9803E+06    -211.810E+03    -107.673E-03     214.015E-03    -106.343E-03     101.342E-03    -108.853E-03     214.732E-03    -106.088E-03     97.8872E-03
            1384     8.09396E-03     66.5134E-03    -54.8788E+06    -95.1557E+06     7.31952E+06    -112.754E+03    -107.729E-03     214.093E-03    -106.364E-03     98.6239E-03    -108.742E-03     214.553E-03    -106.110E-03     95.4510E-03
            1385     7.28438E-03     66.4071E-03    -61.1636E+06    -118.941E+06    -2.42411E+06    -142.805E+03    -107.678E-03     214.060E-03    -106.383E-03     94.0884E-03    -108.520E-03     214.270E-03    -106.134E-03     91.2445E-03
            1386     6.47482E-03     66.3066E-03    -67.6853E+06    -141.719E+06    -12.4047E+06    -253.078E+03    -107.560E-03     213.961E-03    -106.401E-03     88.0024E-03    -108.238E-03     213.932E-03    -106.159E-03     85.5101E-03
            1387     5.66531E-03     66.2134E-03    -74.8361E+06    -163.732E+06    -23.2162E+06    -226.032E+03    -107.394E-03     213.810E-03    -106.416E-03     80.5099E-03    -107.923E-03     213.560E-03    -106.186E-03     78.3779E-03
            1388     4.85584E-03     66.1291E-03    -82.4256E+06    -184.616E+06    -35.1470E+06    -74.1962E+03    -107.188E-03     213.613E-03    -106.425E-03     71.7505E-03    -107.589E-03     213.168E-03    -106.214E-03     69.9751E-03
            1389     4.04642E-03     66.0549E-03    -90.5572E+06    -203.580E+06    -49.6473E+06     26.1418E+03    -106.956E-03     213.376E-03    -106.420E-03     61.8538E-03    -107.251E-03     212.771E-03    -106.241E-03     60.4203E-03
            1390     3.23704E-03     65.9922E-03    -98.7531E+06    -223.413E+06    -65.8460E+06     38.0807E+03    -106.741E-03     213.148E-03    -106.407E-03     50.9480E-03    -106.947E-03     212.401E-03    -106.269E-03     49.8353E-03
            1391     2.42771E-03     65.9420E-03    -106.724E+06    -242.121E+06    -83.4129E+06    -31.5212E+03    -106.565E-03     212.947E-03    -106.382E-03     39.2160E-03    -106.701E-03     212.086E-03    -106.293E-03     38.4015E-03
            1392     1.61846E-03     65.9052E-03    -113.665E+06    -255.746E+06    -101.382E+06    -89.8452E+03    -106.430E-03     212.769E-03    -106.339E-03     26.9036E-03    -106.514E-03     211.836E-03    -106.310E-03     26.3658E-03
            1393     809.218E-06     65.8823E-03    -118.322E+06    -264.932E+06    -114.846E+06    -27.6534E+03    -106.410E-03     212.639E-03    -106.228E-03     14.8013E-03    -106.462E-03     211.663E-03    -106.247E-03     14.5129E-03
            1394     15.3824E-03     66.1322E-03    -5.01042E+06     120.239E+06     94.3692E+06    -214.550E+03    -105.159E-03     211.357E-03    -106.198E-03     21.1734E-03    -105.910E-03     212.244E-03    -105.894E-03     18.3942E-03
            1395     14.5728E-03     66.0908E-03    -10.6617E+06     115.977E+06     82.4575E+06     213.510E+03    -104.999E-03     211.171E-03    -106.171E-03     46.0392E-03    -106.032E-03     212.338E-03    -105.912E-03     42.6629E-03
            1396     13.7621E-03     66.0365E-03    -16.5814E+06     106.232E+06     70.3328E+06     1.48889E+06    -105.256E-03     211.417E-03    -106.162E-03     59.9480E-03    -106.420E-03     212.696E-03    -105.940E-03     56.4931E-03
            1397     12.9522E-03     65.9636E-03    -21.0320E+06     101.366E+06     64.1230E+06     1.28412E+06    -105.736E-03     211.911E-03    -106.175E-03     74.1339E-03    -107.070E-03     213.344E-03    -105.971E-03     70.5094E-03
            1398     12.1422E-03     65.8773E-03    -26.1552E+06     62.4742E+06     53.0232E+06     198.175E+03    -106.296E-03     212.506E-03    -106.210E-03     84.8784E-03    -107.698E-03     213.883E-03    -105.997E-03     81.1333E-03
            1399     11.3324E-03     65.7797E-03    -31.7427E+06     18.2067E+06     45.2118E+06    -369.697E+03    -106.816E-03     213.082E-03    -106.266E-03     93.4927E-03    -108.241E-03     214.328E-03    -106.020E-03     89.6853E-03
            1400     10.5228E-03     65.6739E-03    -37.3090E+06    -11.8752E+06     35.7687E+06    -507.464E+03    -107.205E-03     213.498E-03    -106.292E-03     99.1127E-03    -108.607E-03     214.621E-03    -106.042E-03     95.3297E-03
            1401     9.71320E-03     65.5635E-03    -42.8526E+06    -43.0582E+06     26.7307E+06    -393.547E+03    -107.496E-03     213.818E-03    -106.322E-03     101.624E-03    -108.808E-03     214.748E-03    -106.064E-03     97.9603E-03
            1402     8.90353E-03     65.4516E-03    -48.7177E+06    -68.2036E+06     17.3326E+06    -334.150E+03    -107.652E-03     213.995E-03    -106.343E-03     101.329E-03    -108.832E-03     214.709E-03    -106.086E-03     97.8746E-03
            1403     8.09392E-03     65.3416E-03    -54.7562E+06    -95.3844E+06     7.49858E+06    -257.348E+03    -107.717E-03     214.082E-03    -106.365E-03     98.6290E-03    -108.730E-03     214.540E-03    -106.110E-03     95.4556E-03
            1404     7.28436E-03     65.2353E-03    -60.9012E+06    -118.770E+06    -2.15093E+06    -234.376E+03    -107.684E-03     214.067E-03    -106.383E-03     94.0696E-03    -108.525E-03     214.277E-03    -106.133E-03     91.2249E-03
            1405     6.47482E-03     65.1348E-03    -67.6389E+06    -141.733E+06    -12.3212E+06    -279.638E+03    -107.571E-03     213.971E-03    -106.400E-03     87.9629E-03    -108.249E-03     213.941E-03    -106.158E-03     85.4701E-03
            1406     5.66532E-03     65.0416E-03    -74.9596E+06    -164.027E+06    -23.3481E+06    -130.589E+03    -107.406E-03     213.818E-03    -106.413E-03     80.4680E-03    -107.935E-03     213.567E-03    -106.183E-03     78.3364E-03
            1407     4.85587E-03     64.9573E-03    -82.5236E+06    -184.729E+06    -35.1941E+06    -15.3604E+03    -107.199E-03     213.618E-03    -106.419E-03     71.6940E-03    -107.601E-03     213.173E-03    -106.207E-03     69.9182E-03
            1408     4.04646E-03     64.8832E-03    -90.4442E+06    -203.601E+06    -49.6769E+06    -58.3837E+03    -106.968E-03     213.376E-03    -106.409E-03     61.7941E-03    -107.262E-03     212.771E-03    -106.231E-03     60.3582E-03
            1409     3.23710E-03     64.8205E-03    -98.6356E+06    -223.457E+06    -65.8368E+06    -65.8987E+03    -106.746E-03     213.137E-03    -106.391E-03     50.9121E-03    -106.952E-03     212.390E-03    -106.253E-03     49.7973E-03
            1410     2.42780E-03     64.7703E-03    -106.544E+06    -242.121E+06    -83.4097E+06    -31.1690E+03    -106.555E-03     212.916E-03    -106.362E-03     39.2023E-03    -106.689E-03     212.055E-03    -106.273E-03     38.3875E-03
            1411     1.61850E-03     64.7335E-03    -113.423E+06    -255.722E+06    -101.517E+06     24.8902E+03    -106.403E-03     212.721E-03    -106.318E-03     26.8946E-03    -106.486E-03     211.788E-03    -106.291E-03     26.3580E-03
            1412     809.222E-06     64.7106E-03    -118.283E+06    -265.041E+06    -115.042E+06    -28.4031E+03    -106.374E-03     212.604E-03    -106.229E-03     14.7666E-03    -106.426E-03     211.628E-03    -106.249E-03     14.4784E-03
            1413     15.3821E-03     64.9612E-03    -5.39269E+06     119.238E+06     93.1228E+06     604.336E+03    -104.753E-03     210.953E-03    -106.199E-03     22.1284E-03    -105.503E-03     211.837E-03    -105.899E-03     19.3820E-03
            1414     14.5709E-03     64.9190E-03    -11.3575E+06     115.003E+06     82.5238E+06     1.38923E+06    -104.946E-03     211.138E-03    -106.192E-03     46.5902E-03    -105.980E-03     212.301E-03    -105.930E-03     43.2461E-03
            1415     13.7617E-03     64.8646E-03    -15.9007E+06     106.598E+06     72.4227E+06     447.932E+03    -105.463E-03     211.649E-03    -106.186E-03     59.9369E-03    -106.628E-03     212.926E-03    -105.955E-03     56.4614E-03
            1416     12.9518E-03     64.7914E-03    -20.9073E+06     101.603E+06     65.0556E+06     364.733E+03    -105.875E-03     212.058E-03    -106.184E-03     73.9570E-03    -107.211E-03     213.493E-03    -105.975E-03     70.3103E-03
            1417     12.1423E-03     64.7052E-03    -25.5080E+06     63.7135E+06     54.6841E+06     485.699E+03    -106.345E-03     212.559E-03    -106.214E-03     84.7035E-03    -107.748E-03     213.939E-03    -105.996E-03     80.9565E-03
            1418     11.3327E-03     64.6078E-03    -30.7020E+06     18.9104E+06     46.3763E+06    -204.304E+03    -106.797E-03     213.064E-03    -106.266E-03     93.4838E-03    -108.220E-03     214.310E-03    -106.017E-03     89.6792E-03
            1419     10.5229E-03     64.5019E-03    -36.4801E+06    -12.1092E+06     36.4289E+06    -459.388E+03    -107.199E-03     213.492E-03    -106.293E-03     99.1871E-03    -108.597E-03     214.612E-03    -106.040E-03     95.4068E-03
            1420     9.71320E-03     64.3915E-03    -42.1911E+06    -43.1878E+06     27.2459E+06    -395.039E+03    -107.502E-03     213.824E-03    -106.322E-03     101.654E-03    -108.811E-03     214.752E-03    -106.062E-03     97.9908E-03
            1421     8.90354E-03     64.2799E-03    -48.0105E+06    -68.3584E+06     17.6529E+06    -313.784E+03    -107.658E-03     213.999E-03    -106.341E-03     101.287E-03    -108.834E-03     214.711E-03    -106.084E-03     97.8337E-03
            1422     8.09392E-03     64.1697E-03    -54.0304E+06    -95.4437E+06     7.63937E+06    -286.949E+03    -107.723E-03     214.085E-03    -106.362E-03     98.5423E-03    -108.732E-03     214.541E-03    -106.107E-03     95.3686E-03
            1423     7.28437E-03     64.0635E-03    -60.3986E+06    -118.879E+06    -2.13660E+06    -240.614E+03    -107.693E-03     214.072E-03    -106.379E-03     93.9808E-03    -108.531E-03     214.280E-03    -106.129E-03     91.1350E-03
            1424     6.47486E-03     63.9630E-03    -67.1535E+06    -142.043E+06    -12.1618E+06     63.6090E+03    -107.591E-03     213.985E-03    -106.394E-03     87.8907E-03    -108.266E-03     213.953E-03    -106.151E-03     85.4005E-03
            1425     5.66538E-03     63.8698E-03    -74.2916E+06    -164.020E+06    -22.8199E+06     167.449E+03    -107.423E-03     213.826E-03    -106.404E-03     80.4041E-03    -107.949E-03     213.573E-03    -106.172E-03     78.2750E-03
            1426     4.85594E-03     63.7855E-03    -82.1654E+06    -184.609E+06    -34.6752E+06     3.82778E+03    -107.200E-03     213.607E-03    -106.407E-03     71.6477E-03    -107.601E-03     213.161E-03    -106.193E-03     69.8714E-03
            1427     4.04655E-03     63.7114E-03    -90.2273E+06    -203.640E+06    -49.4081E+06    -6.91618E+03    -106.958E-03     213.352E-03    -106.394E-03     61.7720E-03    -107.252E-03     212.746E-03    -106.215E-03     60.3367E-03
            1428     3.23717E-03     63.6487E-03    -98.4371E+06    -223.464E+06    -65.9030E+06    -5.84813E+03    -106.726E-03     213.101E-03    -106.375E-03     50.9198E-03    -106.930E-03     212.353E-03    -106.238E-03     49.8064E-03
            1429     2.42781E-03     63.5986E-03    -106.507E+06    -242.264E+06    -83.5645E+06         979.338    -106.531E-03     212.880E-03    -106.349E-03     39.2254E-03    -106.665E-03     212.018E-03    -106.261E-03     38.4115E-03
            1430     1.61850E-03     63.5618E-03    -113.412E+06    -255.675E+06    -101.350E+06     116.260E+03    -106.393E-03     212.702E-03    -106.309E-03     26.9160E-03    -106.476E-03     211.769E-03    -106.281E-03     26.3810E-03
            1431     809.258E-06     63.5389E-03    -118.169E+06    -264.875E+06    -114.759E+06     145.253E+03    -106.377E-03     212.585E-03    -106.207E-03     14.7757E-03    -106.429E-03     211.609E-03    -106.226E-03     14.4901E-03
            1432     15.3805E-03     63.7897E-03    -2.86909E+06     117.726E+06     94.4467E+06     174.196E+03    -105.084E-03     211.314E-03    -106.231E-03     21.9287E-03    -105.822E-03     212.187E-03    -105.925E-03     19.1627E-03
            1433     14.5718E-03     63.7465E-03    -7.65367E+06     114.754E+06     86.6161E+06     1.41527E+06    -105.280E-03     211.496E-03    -106.217E-03     45.7633E-03    -106.302E-03     212.648E-03    -105.939E-03     42.3940E-03
            1434     13.7618E-03     63.6924E-03    -13.6842E+06     108.872E+06     75.9377E+06     1.43400E+06    -105.489E-03     211.685E-03    -106.195E-03     59.5469E-03    -106.652E-03     212.965E-03    -105.954E-03     56.0729E-03
            1435     12.9523E-03     63.6192E-03    -19.8088E+06     102.149E+06     66.3022E+06    -587.940E+03    -105.850E-03     212.035E-03    -106.186E-03     73.9153E-03    -107.183E-03     213.469E-03    -105.974E-03     70.2545E-03
            1436     12.1424E-03     63.5332E-03    -24.8812E+06     62.6909E+06     55.3195E+06    -831.456E+03    -106.302E-03     212.520E-03    -106.218E-03     84.8121E-03    -107.701E-03     213.893E-03    -105.996E-03     81.0522E-03
            1437     11.3324E-03     63.4359E-03    -29.7852E+06     19.2477E+06     47.1060E+06     311.586E+03    -106.820E-03     213.090E-03    -106.270E-03     93.5292E-03    -108.239E-03     214.335E-03    -106.019E-03     89.7340E-03
            1438     10.5228E-03     63.3300E-03    -35.2903E+06    -11.5422E+06     36.9824E+06     39.0835E+03    -107.226E-03     213.520E-03    -106.294E-03     99.1334E-03    -108.620E-03     214.640E-03    -106.041E-03     95.3597E-03
            1439     9.71313E-03     63.2196E-03    -41.2687E+06    -43.4777E+06     27.3293E+06    -262.202E+03    -107.532E-03     213.852E-03    -106.320E-03     101.555E-03    -108.836E-03     214.776E-03    -106.061E-03     97.8912E-03
            1440     8.90358E-03     63.1079E-03    -47.5076E+06    -68.4566E+06     17.6253E+06    -111.023E+03    -107.699E-03     214.034E-03    -106.335E-03     101.186E-03    -108.872E-03     214.745E-03    -106.079E-03     97.7315E-03
            1441     8.09405E-03     62.9979E-03    -53.7862E+06    -95.3594E+06     7.77101E+06    -110.092E+03    -107.737E-03     214.090E-03    -106.353E-03     98.4518E-03    -108.745E-03     214.546E-03    -106.098E-03     95.2784E-03
            1442     7.28447E-03     62.8917E-03    -60.4627E+06    -119.213E+06    -2.13873E+06    -4.03009E+03    -107.689E-03     214.057E-03    -106.368E-03     93.9233E-03    -108.527E-03     214.264E-03    -106.118E-03     91.0797E-03
            1443     6.47494E-03     62.7912E-03    -67.3052E+06    -142.377E+06    -12.1883E+06     170.774E+03    -107.589E-03     213.971E-03    -106.382E-03     87.8457E-03    -108.264E-03     213.937E-03    -106.139E-03     85.3565E-03
            1444     5.66549E-03     62.6980E-03    -74.3413E+06    -163.832E+06    -22.7721E+06     274.109E+03    -107.408E-03     213.799E-03    -106.391E-03     80.3809E-03    -107.936E-03     213.547E-03    -106.159E-03     78.2539E-03
            1445     4.85604E-03     62.6138E-03    -81.9740E+06    -184.371E+06    -34.5327E+06     230.356E+03    -107.173E-03     213.568E-03    -106.395E-03     71.6636E-03    -107.573E-03     213.123E-03    -106.182E-03     69.8919E-03
            1446     4.04659E-03     62.5397E-03    -90.2589E+06    -203.615E+06    -49.3105E+06     86.4038E+03    -106.927E-03     213.314E-03    -106.386E-03     61.8094E-03    -107.221E-03     212.707E-03    -106.207E-03     60.3771E-03
            1447     3.23717E-03     62.4771E-03    -98.5542E+06    -223.494E+06    -65.9002E+06     64.1299E+03    -106.704E-03     213.076E-03    -106.372E-03     50.9543E-03    -106.909E-03     212.328E-03    -106.234E-03     49.8428E-03
            1448     2.42781E-03     62.4269E-03    -106.546E+06    -242.197E+06    -83.3325E+06     124.126E+03    -106.524E-03     212.873E-03    -106.350E-03     39.2479E-03    -106.658E-03     212.011E-03    -106.261E-03     38.4364E-03
            1449     1.61850E-03     62.3901E-03    -113.486E+06    -255.642E+06    -101.114E+06     12.7629E+03    -106.390E-03     212.703E-03    -106.313E-03     26.9323E-03    -106.474E-03     211.770E-03    -106.283E-03     26.3964E-03
            1450     809.230E-06     62.3672E-03    -118.136E+06    -264.830E+06    -114.608E+06    -41.9961E+03    -106.390E-03     212.592E-03    -106.202E-03     14.7822E-03    -106.441E-03     211.616E-03    -106.220E-03     14.4942E-03
            1451     15.3818E-03     62.6152E-03    -4.50325E+06     116.994E+06     93.1871E+06    -652.625E+03    -105.143E-03     211.373E-03    -106.230E-03     21.6990E-03    -105.886E-03     212.244E-03    -105.927E-03     18.9290E-03
            1452     14.5719E-03     62.5752E-03    -8.89864E+06     113.792E+06     85.9659E+06    -169.674E+03    -105.261E-03     211.479E-03    -106.218E-03     46.2568E-03    -106.288E-03     212.629E-03    -105.940E-03     42.8737E-03
            1453     13.7620E-03     62.5200E-03    -12.6073E+06     110.268E+06     77.2941E+06     193.516E+03    -105.518E-03     211.718E-03    -106.200E-03     60.0091E-03    -106.678E-03     213.001E-03    -105.955E-03     56.5300E-03
            1454     12.9519E-03     62.4473E-03    -16.6311E+06     103.407E+06     66.9409E+06     121.292E+03    -105.822E-03     212.007E-03    -106.185E-03     73.9642E-03    -107.141E-03     213.440E-03    -105.976E-03     70.3179E-03
            1455     12.1420E-03     62.3612E-03    -23.4538E+06     61.4146E+06     54.2445E+06     383.173E+03    -106.377E-03     212.592E-03    -106.215E-03     84.6712E-03    -107.766E-03     213.958E-03    -105.998E-03     80.9245E-03
            1456     11.3326E-03     62.2638E-03    -29.8514E+06     19.1372E+06     46.7227E+06     365.815E+03    -106.883E-03     213.148E-03    -106.265E-03     93.2493E-03    -108.301E-03     214.393E-03    -106.016E-03     89.4486E-03
            1457     10.5229E-03     62.1580E-03    -35.6276E+06    -10.9557E+06     36.8538E+06     438.168E+03    -107.242E-03     213.527E-03    -106.285E-03     98.9165E-03    -108.638E-03     214.651E-03    -106.033E-03     95.1440E-03
            1458     9.71330E-03     62.0477E-03    -41.7790E+06    -43.3251E+06     27.1101E+06     368.222E+03    -107.525E-03     213.834E-03    -106.310E-03     101.424E-03    -108.831E-03     214.760E-03    -106.051E-03     97.7673E-03
            1459     8.90368E-03     61.9360E-03    -47.9746E+06    -68.3534E+06     17.5257E+06     144.613E+03    -107.675E-03     214.000E-03    -106.326E-03     101.111E-03    -108.850E-03     214.712E-03    -106.069E-03     97.6605E-03
            1460     8.09412E-03     61.8260E-03    -54.4010E+06    -95.5266E+06     7.58311E+06     213.314E+03    -107.727E-03     214.071E-03    -106.344E-03     98.4346E-03    -108.738E-03     214.527E-03    -106.088E-03     95.2659E-03
            1461     7.28457E-03     61.7199E-03    -60.8742E+06    -119.145E+06    -2.21494E+06     268.780E+03    -107.688E-03     214.046E-03    -106.358E-03     93.9577E-03    -108.529E-03     214.254E-03    -106.108E-03     91.1187E-03
            1462     6.47506E-03     61.6194E-03    -67.7269E+06    -142.285E+06    -12.4840E+06     52.4480E+03    -107.564E-03     213.935E-03    -106.371E-03     87.8910E-03    -108.240E-03     213.902E-03    -106.129E-03     85.4028E-03
            1463     5.66553E-03     61.5263E-03    -74.8417E+06    -164.047E+06    -23.3024E+06    -1.84221E+03    -107.374E-03     213.757E-03    -106.382E-03     80.4285E-03    -107.902E-03     213.504E-03    -106.152E-03     78.3004E-03
            1464     4.85602E-03     61.4420E-03    -82.2511E+06    -184.329E+06    -34.8512E+06     155.967E+03    -107.146E-03     213.537E-03    -106.391E-03     71.6972E-03    -107.547E-03     213.093E-03    -106.179E-03     69.9264E-03
            1465     4.04655E-03     61.3680E-03    -90.1251E+06    -203.496E+06    -49.4034E+06     238.241E+03    -106.914E-03     213.301E-03    -106.387E-03     61.8195E-03    -107.207E-03     212.695E-03    -106.208E-03     60.3900E-03
            1466     3.23714E-03     61.3054E-03    -98.2759E+06    -223.440E+06    -65.5571E+06     245.224E+03    -106.704E-03     213.080E-03    -106.376E-03     50.9439E-03    -106.908E-03     212.332E-03    -106.237E-03     49.8351E-03
            1467     2.42779E-03     61.2553E-03    -106.338E+06    -241.930E+06    -83.0083E+06      81.697E+03    -106.525E-03     212.880E-03    -106.355E-03     39.2417E-03    -106.659E-03     212.018E-03    -106.265E-03     38.4300E-03
            1468     1.61849E-03     61.2185E-03    -113.297E+06    -255.658E+06    -101.221E+06    -59.0639E+03    -106.393E-03     212.710E-03    -106.317E-03     26.9316E-03    -106.475E-03     211.776E-03    -106.288E-03     26.3951E-03
            1469     809.230E-06     61.1956E-03    -117.979E+06    -264.916E+06    -114.751E+06    -42.8615E+03    -106.390E-03     212.605E-03    -106.215E-03     14.7914E-03    -106.440E-03     211.629E-03    -106.234E-03     14.5034E-03
            1470     15.3811E-03     61.4458E-03    -6.98692E+06     118.286E+06     91.8313E+06    -277.255E+03    -104.863E-03     211.085E-03    -106.221E-03     22.1772E-03    -105.617E-03     211.967E-03    -105.924E-03     19.4251E-03
            1471     14.5705E-03     61.4015E-03    -11.9878E+06     114.778E+06     82.1522E+06    -2.67045E+06    -105.265E-03     211.470E-03    -106.205E-03     45.9218E-03    -106.303E-03     212.635E-03    -105.944E-03     42.4937E-03
            1472     13.7617E-03     61.3481E-03    -15.1527E+06     107.444E+06     73.2052E+06    -2.40732E+06    -105.604E-03     211.791E-03    -106.187E-03     59.2546E-03    -106.769E-03     213.071E-03    -105.955E-03     55.7183E-03
            1473     12.9519E-03     61.2751E-03    -20.3093E+06     101.602E+06     65.2418E+06     829.272E+03    -105.905E-03     212.081E-03    -106.177E-03     73.4759E-03    -107.237E-03     213.513E-03    -105.968E-03     69.8296E-03
            1474     12.1425E-03     61.1889E-03    -25.1787E+06     62.7260E+06     54.3886E+06     1.27980E+06    -106.375E-03     212.578E-03    -106.203E-03     84.3145E-03    -107.774E-03     213.952E-03    -105.985E-03     80.5742E-03
            1475     11.3327E-03     61.0917E-03    -30.6311E+06     18.9870E+06     46.4576E+06     622.872E+03    -106.831E-03     213.083E-03    -106.252E-03     93.1293E-03    -108.253E-03     214.328E-03    -106.002E-03     89.3317E-03
            1476     10.5231E-03     60.9861E-03    -36.7942E+06    -10.9757E+06     36.4853E+06     738.168E+03    -107.209E-03     213.482E-03    -106.273E-03     98.9176E-03    -108.610E-03     214.607E-03    -106.021E-03     95.1503E-03
            1477     9.71343E-03     60.8758E-03    -42.5975E+06    -42.7647E+06     27.0693E+06     597.995E+03    -107.486E-03     213.786E-03    -106.300E-03     101.465E-03    -108.797E-03     214.715E-03    -106.041E-03     97.8149E-03
            1478     8.90380E-03     60.7642E-03    -48.3956E+06    -68.1792E+06     17.4918E+06     457.950E+03    -107.629E-03     213.947E-03    -106.318E-03     101.147E-03    -108.806E-03     214.659E-03    -106.062E-03     97.7055E-03
            1479     8.09413E-03     60.6542E-03    -54.3382E+06    -95.5016E+06     7.51076E+06     302.665E+03    -107.706E-03     214.045E-03    -106.339E-03     98.4844E-03    -108.716E-03     214.501E-03    -106.084E-03     95.3199E-03
            1480     7.28459E-03     60.5481E-03     -60.485E+06    -118.980E+06    -2.20037E+06     153.947E+03    -107.681E-03     214.035E-03    -106.354E-03     93.9853E-03    -108.519E-03     214.243E-03    -106.105E-03     91.1468E-03
            1481     6.47501E-03     60.4477E-03    -67.0434E+06    -142.137E+06    -12.1862E+06     184.143E+03    -107.552E-03     213.922E-03    -106.370E-03     87.9030E-03    -108.225E-03     213.888E-03    -106.127E-03     85.4182E-03
            1482     5.66550E-03     60.3546E-03    -74.2302E+06    -164.024E+06    -22.9002E+06     152.574E+03    -107.364E-03     213.748E-03    -106.384E-03     80.4164E-03    -107.890E-03     213.494E-03    -106.153E-03     78.2914E-03
            1483     4.85601E-03     60.2704E-03    -82.1817E+06    -184.402E+06    -34.9244E+06     31.9383E+03    -107.144E-03     213.536E-03    -106.392E-03     71.6739E-03    -107.544E-03     213.091E-03    -106.180E-03     69.9018E-03
            1484     4.04656E-03     60.1963E-03    -90.1710E+06    -203.700E+06    -49.5202E+06     161.776E+03    -106.923E-03     213.310E-03    -106.387E-03     61.7974E-03    -107.216E-03     212.703E-03    -106.209E-03     60.3669E-03
            1485     3.23717E-03     60.1337E-03    -98.1534E+06    -223.193E+06    -65.2835E+06     296.179E+03    -106.712E-03     213.087E-03    -106.375E-03     50.9105E-03    -106.916E-03     212.340E-03    -106.236E-03     49.8024E-03
            1486     2.42780E-03     60.0836E-03    -106.201E+06    -241.692E+06    -82.8419E+06     180.922E+03    -106.526E-03     212.877E-03    -106.351E-03     39.1998E-03    -106.659E-03     212.016E-03    -106.261E-03     38.3893E-03
            1487     1.61848E-03     60.0468E-03    -113.230E+06    -255.522E+06    -101.185E+06     74.0434E+03    -106.386E-03     212.700E-03    -106.314E-03     26.9019E-03    -106.469E-03     211.767E-03    -106.285E-03     26.3672E-03
            1488     809.230E-06     60.0239E-03    -118.116E+06    -264.887E+06    -114.620E+06     38.4920E+03    -106.384E-03     212.599E-03    -106.215E-03     14.7846E-03    -106.435E-03     211.623E-03    -106.233E-03     14.4981E-03
            1489     15.3810E-03     60.2719E-03    -4.20064E+06     120.781E+06     95.6202E+06    -263.030E+03    -105.350E-03     211.562E-03    -106.212E-03     21.3820E-03    -106.099E-03     212.448E-03    -105.903E-03     18.6048E-03
            1490     14.5729E-03     60.2298E-03    -10.0449E+06     115.986E+06     82.6158E+06    -1.29344E+06    -105.158E-03     211.329E-03    -106.171E-03     45.1756E-03    -106.189E-03     212.496E-03    -105.911E-03     41.7530E-03
            1491     13.7621E-03     60.1758E-03    -18.4057E+06     104.280E+06     68.4064E+06    -1.20614E+06    -105.405E-03     211.552E-03    -106.146E-03     59.0352E-03    -106.574E-03     212.827E-03    -105.929E-03     55.5163E-03
            1492     12.9527E-03     60.1028E-03    -23.5537E+06     99.8230E+06     63.3776E+06    -1.19724E+06    -105.811E-03     211.967E-03    -106.156E-03     73.5807E-03    -107.153E-03     213.396E-03    -105.949E-03     69.9126E-03
            1493     12.1426E-03     60.0171E-03    -27.0998E+06     62.4516E+06     53.7839E+06    -258.257E+03    -106.260E-03     212.450E-03    -106.190E-03     84.5699E-03    -107.666E-03     213.825E-03    -105.972E-03     80.8194E-03
            1494     11.3329E-03     59.9198E-03    -32.0946E+06     18.7707E+06     45.9887E+06      646.49E+03    -106.769E-03     213.014E-03    -106.244E-03     93.3234E-03    -108.196E-03     214.259E-03    -105.995E-03     89.5335E-03
            1495     10.5231E-03     59.8142E-03    -37.3723E+06    -10.6457E+06     36.3461E+06     447.613E+03    -107.181E-03     213.449E-03    -106.268E-03     99.0185E-03    -108.583E-03     214.576E-03    -106.017E-03     95.2517E-03
            1496     9.71343E-03     59.7039E-03    -42.6144E+06    -42.7795E+06     27.0401E+06     366.920E+03    -107.470E-03     213.767E-03    -106.297E-03     101.508E-03    -108.779E-03     214.695E-03    -106.038E-03     97.8590E-03
            1497     8.90373E-03     59.5924E-03    -48.3415E+06    -67.9144E+06     17.4870E+06     367.039E+03    -107.630E-03     213.947E-03    -106.316E-03     101.159E-03    -108.807E-03     214.659E-03    -106.060E-03     97.7179E-03
            1498     8.09415E-03     59.4824E-03    -54.3177E+06    -95.1300E+06     7.51814E+06     155.952E+03    -107.698E-03     214.035E-03    -106.337E-03     98.4714E-03    -108.707E-03     214.491E-03    -106.082E-03     95.3070E-03
            1499     7.28455E-03     59.3763E-03    -60.7473E+06    -119.070E+06    -2.43299E+06     92.6221E+03    -107.663E-03     214.017E-03    -106.353E-03     93.9422E-03    -108.502E-03     214.224E-03    -106.105E-03     91.1045E-03
            1500     6.47503E-03     59.2759E-03    -67.3780E+06    -142.282E+06    -12.3603E+06     235.930E+03    -107.553E-03     213.923E-03    -106.370E-03     87.8456E-03    -108.228E-03     213.889E-03    -106.128E-03     85.3618E-03
            1501     5.66552E-03     59.1829E-03    -74.5375E+06    -163.774E+06    -22.9332E+06     283.857E+03    -107.372E-03     213.754E-03    -106.382E-03     80.3605E-03    -107.899E-03     213.502E-03    -106.151E-03     78.2374E-03
            1502     4.85601E-03     59.0987E-03    -82.2187E+06    -184.301E+06    -34.9711E+06     228.345E+03    -107.156E-03     213.544E-03    -106.388E-03     71.6217E-03    -107.556E-03     213.099E-03    -106.177E-03     69.8522E-03
            1503     4.04657E-03     59.0247E-03    -90.2682E+06    -203.702E+06    -49.6817E+06     78.0484E+03    -106.930E-03     213.310E-03    -106.380E-03     61.7527E-03    -107.223E-03     212.703E-03    -106.202E-03     60.3213E-03
            1504     3.23717E-03     58.9620E-03    -98.3555E+06    -223.212E+06    -65.6204E+06     6.13376E+03    -106.713E-03     213.077E-03    -106.364E-03     50.8721E-03    -106.917E-03     212.330E-03    -106.226E-03     49.7605E-03
            1505     2.42784E-03     58.9119E-03    -106.160E+06    -241.694E+06    -82.9272E+06     194.060E+03    -106.525E-03     212.862E-03    -106.338E-03     39.1627E-03    -106.658E-03     212.002E-03    -106.248E-03     38.3524E-03
            1506     1.61854E-03     58.8751E-03    -113.152E+06    -255.243E+06    -100.955E+06     319.708E+03    -106.378E-03     212.674E-03    -106.296E-03     26.8703E-03    -106.461E-03     211.742E-03    -106.266E-03     26.3387E-03
            1507     809.230E-06     58.8522E-03    -118.047E+06    -264.631E+06    -114.709E+06     209.022E+03    -106.372E-03     212.556E-03    -106.184E-03     14.7765E-03    -106.422E-03     211.581E-03    -106.203E-03     14.4926E-03
            1508     15.3837E-03     59.1000E-03    -4.70868E+06     120.152E+06     95.0516E+06     27.0366E+03    -105.102E-03     211.296E-03    -106.194E-03     22.0670E-03    -105.853E-03     212.181E-03    -105.886E-03     19.3079E-03
            1509     14.5718E-03     59.0581E-03    -10.1805E+06     115.905E+06     84.4259E+06     1.61868E+06    -105.112E-03     211.283E-03    -106.171E-03     46.4257E-03    -106.146E-03     212.448E-03    -105.902E-03     43.0680E-03
            1510     13.7627E-03     59.0039E-03    -15.9411E+06     107.288E+06     72.1079E+06     83.0052E+03    -105.395E-03     211.546E-03    -106.151E-03     59.8198E-03    -106.560E-03     212.826E-03    -105.923E-03     56.3364E-03
            1511     12.9522E-03     58.9311E-03    -22.0610E+06     99.5421E+06     63.2742E+06    -1.92581E+06    -105.724E-03     211.875E-03    -106.152E-03     73.9162E-03    -107.057E-03     213.300E-03    -105.948E-03     70.2488E-03
            1512     12.1425E-03     58.8451E-03    -28.4629E+06     59.8910E+06     52.1666E+06    -1.30301E+06    -106.263E-03     212.452E-03    -106.189E-03     84.6669E-03    -107.669E-03     213.818E-03    -105.974E-03     80.9056E-03
            1513     11.3327E-03     58.7480E-03    -32.9772E+06     18.6077E+06     45.2108E+06    -550.993E+03    -106.778E-03     213.022E-03    -106.243E-03     93.3352E-03    -108.207E-03     214.268E-03    -105.997E-03     89.5309E-03
            1514     10.5231E-03     58.6422E-03    -37.4245E+06    -10.9002E+06     36.0289E+06    -121.151E+03    -107.178E-03     213.446E-03    -106.268E-03     99.0004E-03    -108.579E-03     214.571E-03    -106.018E-03     95.2284E-03
            1515     9.71338E-03     58.5322E-03    -42.8146E+06    -42.7566E+06     26.7450E+06     148.259E+03    -107.486E-03     213.783E-03    -106.297E-03     101.451E-03    -108.795E-03     214.711E-03    -106.039E-03     97.7988E-03
            1516     8.90379E-03     58.4205E-03    -48.5582E+06    -67.8431E+06     17.3134E+06     24.1686E+03    -107.649E-03     213.964E-03    -106.314E-03     101.112E-03    -108.826E-03     214.677E-03    -106.059E-03     97.6659E-03
            1517     8.09418E-03     58.3107E-03    -54.7680E+06    -95.0496E+06     7.33465E+06     133.187E+03    -107.707E-03     214.040E-03    -106.333E-03     98.4043E-03    -108.717E-03     214.497E-03    -106.079E-03     95.2399E-03
            1518     7.28460E-03     58.2045E-03    -61.2096E+06    -119.153E+06    -2.66671E+06     232.010E+03    -107.662E-03     214.011E-03    -106.348E-03     93.8683E-03    -108.502E-03     214.218E-03    -106.100E-03     91.0333E-03
            1519     6.47503E-03     58.1042E-03    -67.9859E+06    -142.252E+06    -12.7629E+06     148.137E+03    -107.553E-03     213.916E-03    -106.363E-03     87.7667E-03    -108.230E-03     213.883E-03    -106.122E-03     85.2826E-03
            1520     5.66552E-03     58.0112E-03    -75.0043E+06    -163.712E+06    -23.3399E+06     48.8192E+03    -107.387E-03     213.760E-03    -106.372E-03     80.2747E-03    -107.916E-03     213.508E-03    -106.143E-03     78.1486E-03
            1521     4.85608E-03     57.9270E-03    -82.3512E+06    -184.310E+06    -35.0506E+06     92.9511E+03    -107.169E-03     213.544E-03    -106.375E-03     71.5355E-03    -107.569E-03     213.099E-03    -106.163E-03     69.7644E-03
            1522     4.04665E-03     57.8530E-03    -90.2088E+06    -203.423E+06    -49.5722E+06     119.507E+03    -106.927E-03     213.289E-03    -106.362E-03     61.6719E-03    -107.220E-03     212.683E-03    -106.184E-03     60.2416E-03
            1523     3.23726E-03     57.7904E-03    -98.3202E+06    -223.235E+06    -65.7100E+06     9.80152E+03    -106.695E-03     213.039E-03    -106.344E-03     50.8096E-03    -106.899E-03     212.292E-03    -106.206E-03     49.6985E-03
            1524     2.42788E-03     57.7403E-03    -106.230E+06    -241.919E+06    -83.2517E+06     22.7751E+03    -106.504E-03     212.820E-03    -106.316E-03     39.1283E-03    -106.637E-03     211.959E-03    -106.227E-03     38.3162E-03
            1525     1.61856E-03     57.7035E-03    -112.929E+06    -255.284E+06    -101.170E+06     252.341E+03    -106.367E-03     212.638E-03    -106.271E-03     26.8641E-03    -106.449E-03     211.706E-03    -106.243E-03     26.3324E-03
            1526     809.315E-06     57.6806E-03    -117.352E+06    -263.870E+06    -114.231E+06     435.833E+03    -106.323E-03     212.506E-03    -106.182E-03     14.7802E-03    -106.372E-03     211.533E-03    -106.201E-03     14.4991E-03
            1527     15.3795E-03     57.9280E-03    -5.86253E+06     119.057E+06     93.5006E+06    -47.9053E+03    -104.852E-03     211.050E-03    -106.198E-03     22.2303E-03    -105.604E-03     211.932E-03    -105.895E-03     19.4767E-03
            1528     14.5719E-03     57.8855E-03    -10.4321E+06     116.009E+06     84.0269E+06    -376.606E+03    -105.207E-03     211.389E-03    -106.182E-03     45.6975E-03    -106.239E-03     212.552E-03    -105.915E-03     42.3057E-03
            1529     13.7617E-03     57.8318E-03    -13.9582E+06     108.955E+06     73.9955E+06     532.257E+03    -105.451E-03     211.614E-03    -106.163E-03     59.3243E-03    -106.611E-03     212.896E-03    -105.931E-03     55.8395E-03
            1530     12.9525E-03     57.7592E-03    -19.5329E+06     101.080E+06     65.3491E+06     688.574E+03    -105.800E-03     211.960E-03    -106.160E-03     73.6694E-03    -107.126E-03     213.386E-03    -105.952E-03     70.0316E-03
            1531     12.1425E-03     57.6731E-03    -25.3738E+06     59.8997E+06     53.3908E+06    -941.019E+03    -106.301E-03     212.492E-03    -106.191E-03     84.5070E-03    -107.692E-03     213.851E-03    -105.974E-03     80.7478E-03
            1532     11.3328E-03     57.5760E-03    -31.2343E+06     17.4428E+06     45.4629E+06    -1.07044E+06    -106.789E-03     213.032E-03    -106.243E-03     93.2317E-03    -108.207E-03     214.269E-03    -105.996E-03     89.4212E-03
            1533     10.5230E-03     57.4704E-03    -37.1641E+06    -11.5182E+06     35.8669E+06    -348.690E+03    -107.190E-03     213.457E-03    -106.267E-03     98.9241E-03    -108.588E-03     214.578E-03    -106.017E-03     95.1504E-03
            1534     9.71344E-03     57.3601E-03    -42.9996E+06    -42.8567E+06     26.5198E+06    -206.498E+03    -107.498E-03     213.791E-03    -106.293E-03     101.376E-03    -108.807E-03     214.719E-03    -106.036E-03     97.7192E-03
            1535     8.90379E-03     57.2487E-03    -48.9109E+06    -68.0223E+06     17.0492E+06     46.4658E+03    -107.667E-03     213.976E-03    -106.309E-03     101.024E-03    -108.844E-03     214.688E-03    -106.054E-03     97.5783E-03
            1536     8.09420E-03     57.1388E-03    -54.8970E+06    -95.1805E+06     7.17971E+06     152.302E+03    -107.731E-03     214.056E-03    -106.324E-03     98.2998E-03    -108.741E-03     214.512E-03    -106.071E-03     95.1355E-03
            1537     7.28468E-03     57.0328E-03    -61.1869E+06    -119.103E+06     -2.6435E+06     157.217E+03    -107.686E-03     214.022E-03    -106.336E-03     93.7405E-03    -108.525E-03     214.229E-03    -106.088E-03     90.9046E-03
            1538     6.47515E-03     56.9325E-03    -67.8779E+06    -141.992E+06    -12.6937E+06     64.6360E+03    -107.565E-03     213.911E-03    -106.346E-03     87.6490E-03    -108.240E-03     213.878E-03    -106.105E-03     85.1645E-03
            1539     5.66568E-03     56.8394E-03    -74.9254E+06    -163.641E+06    -23.3690E+06    -94.8887E+03    -107.391E-03     213.741E-03    -106.351E-03     80.1554E-03    -107.919E-03     213.490E-03    -106.121E-03     78.0282E-03
            1540     4.85621E-03     56.7553E-03    -82.4645E+06    -184.437E+06    -35.2100E+06    -119.795E+03    -107.163E-03     213.511E-03    -106.349E-03     71.4320E-03    -107.563E-03     213.066E-03    -106.138E-03     69.6591E-03
            1541     4.04677E-03     56.6813E-03    -90.4989E+06    -203.389E+06    -49.5307E+06    -97.7941E+03    -106.904E-03     213.238E-03    -106.335E-03     61.5969E-03    -107.198E-03     212.632E-03    -106.156E-03     60.1651E-03
            1542     3.23734E-03     56.6188E-03    -98.7188E+06    -223.282E+06    -65.5875E+06    -10.9364E+03    -106.663E-03     212.979E-03    -106.316E-03     50.7581E-03    -106.869E-03     212.232E-03    -106.177E-03     49.6480E-03
            1543     2.42795E-03     56.5687E-03    -106.614E+06    -242.006E+06    -83.1671E+06     51.7528E+03    -106.473E-03     212.760E-03    -106.288E-03     39.0904E-03    -106.607E-03     211.899E-03    -106.198E-03     38.2798E-03
            1544     1.61860E-03     56.5320E-03    -113.563E+06    -255.601E+06    -101.143E+06     217.343E+03    -106.331E-03     212.575E-03    -106.244E-03     26.8252E-03    -106.415E-03     211.642E-03    -106.215E-03     26.2935E-03
            1545     809.259E-06     56.5091E-03    -118.556E+06    -262.873E+06    -115.004E+06     536.591E+03    -106.292E-03     212.441E-03    -106.149E-03     14.7082E-03    -106.348E-03     211.476E-03    -106.171E-03     14.4283E-03
            1546     15.3840E-03     56.7557E-03    -4.69591E+06     120.249E+06     94.7101E+06    -40.0191E+03    -105.222E-03     211.412E-03    -106.190E-03     21.4940E-03    -105.970E-03     212.296E-03    -105.884E-03     18.7304E-03
            1547     14.5722E-03     56.7135E-03    -10.2159E+06     115.507E+06     82.9958E+06    -881.335E+03    -104.923E-03     211.087E-03    -106.164E-03     45.5875E-03    -105.950E-03     212.248E-03    -105.902E-03     42.1993E-03
            1548     13.7626E-03     56.6599E-03    -16.0619E+06     106.547E+06     71.1857E+06    -621.965E+03    -105.363E-03     211.516E-03    -106.153E-03     59.4148E-03    -106.524E-03     212.792E-03    -105.928E-03     55.9227E-03
            1549     12.9523E-03     56.5869E-03    -20.0649E+06     101.708E+06     64.8868E+06     335.397E+03    -105.815E-03     211.973E-03    -106.157E-03     73.7063E-03    -107.143E-03     213.402E-03    -105.951E-03     70.0667E-03
            1550     12.1426E-03     56.5012E-03    -24.9077E+06     61.5849E+06     53.5835E+06     572.968E+03    -106.315E-03     212.502E-03    -106.188E-03     84.5173E-03    -107.705E-03     213.868E-03    -105.973E-03     80.7810E-03
            1551     11.3328E-03     56.4040E-03    -31.4221E+06     17.0643E+06     45.1573E+06    -41.5327E+03    -106.830E-03     213.069E-03    -106.239E-03     93.2036E-03    -108.247E-03     214.304E-03    -105.992E-03     89.4068E-03
            1552     10.5232E-03     56.2985E-03    -37.3973E+06    -11.6993E+06     35.6806E+06    -334.629E+03    -107.226E-03     213.486E-03    -106.259E-03     98.8285E-03    -108.624E-03     214.605E-03    -106.010E-03     95.0538E-03
            1553     9.71347E-03     56.1883E-03    -43.1324E+06    -43.2114E+06     26.4448E+06    -192.976E+03    -107.522E-03     213.805E-03    -106.283E-03     101.253E-03    -108.830E-03     214.730E-03    -106.026E-03     97.5969E-03
            1554     8.90391E-03     56.0768E-03    -49.0913E+06    -68.2536E+06     16.9323E+06    -48.2486E+03    -107.690E-03     213.985E-03    -106.295E-03     100.856E-03    -108.867E-03     214.696E-03    -106.040E-03     97.4094E-03
            1555     8.09438E-03     55.9670E-03    -55.0025E+06    -95.1430E+06     7.20549E+06        -726.539    -107.747E-03     214.054E-03    -106.306E-03     98.1386E-03    -108.757E-03     214.509E-03    -106.053E-03     94.9729E-03
            1556     7.28484E-03     55.8610E-03    -61.3117E+06    -119.135E+06    -2.66054E+06    -33.6535E+03    -107.706E-03     214.019E-03    -106.313E-03     93.6005E-03    -108.545E-03     214.224E-03    -106.064E-03     90.7624E-03
            1557     6.47537E-03     55.7608E-03    -67.7912E+06    -141.712E+06    -12.5883E+06    -101.099E+03    -107.578E-03     213.895E-03    -106.316E-03     87.5302E-03    -108.253E-03     213.862E-03    -106.075E-03     85.0445E-03
            1558     5.66585E-03     55.6678E-03    -74.9321E+06    -163.654E+06    -23.3630E+06    -192.533E+03    -107.376E-03     213.693E-03    -106.317E-03     80.0527E-03    -107.903E-03     213.441E-03    -106.087E-03     77.9263E-03
            1559     4.85640E-03     55.5837E-03    -82.5452E+06    -184.503E+06    -35.1950E+06    -191.377E+03    -107.134E-03     213.446E-03    -106.312E-03     71.3261E-03    -107.533E-03     213.000E-03    -106.101E-03     69.5543E-03
            1560     4.04692E-03     55.5098E-03    -90.5227E+06    -203.502E+06    -49.6131E+06    -142.682E+03    -106.871E-03     213.167E-03    -106.296E-03     61.4943E-03    -107.164E-03     212.560E-03    -106.117E-03     60.0636E-03
            1561     3.23746E-03     55.4473E-03    -98.8778E+06    -223.437E+06    -65.7224E+06    -103.214E+03    -106.632E-03     212.906E-03    -106.275E-03     50.6709E-03    -106.838E-03     212.158E-03    -106.136E-03     49.5611E-03
            1562     2.42805E-03     55.3972E-03    -106.973E+06    -242.108E+06    -83.0549E+06     18.8108E+03    -106.434E-03     212.679E-03    -106.244E-03     39.0186E-03    -106.571E-03     211.817E-03    -106.154E-03     38.2085E-03
            1563     1.61868E-03     55.3605E-03    -114.381E+06    -255.953E+06    -100.979E+06     275.977E+03    -106.284E-03     212.483E-03    -106.200E-03     26.7656E-03    -106.372E-03     211.550E-03    -106.167E-03     26.2350E-03
            1564     809.357E-06     55.3376E-03    -119.905E+06    -261.912E+06    -115.601E+06     537.492E+03    -106.277E-03     212.334E-03    -106.057E-03     14.6698E-03    -106.340E-03     211.377E-03    -106.081E-03     14.3906E-03
            1565     15.3810E-03     55.5843E-03    -4.48933E+06     120.188E+06     94.7632E+06    -101.522E+03    -105.043E-03     211.238E-03    -106.195E-03     22.0270E-03    -105.791E-03     212.122E-03    -105.889E-03     19.2685E-03
            1566     14.5721E-03     55.5421E-03    -10.3967E+06     115.746E+06     84.1692E+06     588.732E+03    -105.070E-03     211.247E-03    -106.176E-03     46.4131E-03    -106.102E-03     212.408E-03    -105.908E-03     43.0547E-03
            1567     13.7617E-03     55.4877E-03    -16.1627E+06     106.660E+06     72.0459E+06    -159.698E+03    -105.451E-03     211.609E-03    -106.158E-03     59.5305E-03    -106.614E-03     212.884E-03    -105.929E-03     56.0446E-03
            1568     12.9524E-03     55.4150E-03    -22.4685E+06     100.415E+06     63.4517E+06    -406.134E+03    -105.806E-03     211.959E-03    -106.153E-03     73.5377E-03    -107.140E-03     213.385E-03    -105.949E-03     69.8903E-03
            1569     12.1424E-03     55.3292E-03    -27.6981E+06     61.4959E+06     52.9701E+06     84.0228E+03    -106.337E-03     212.522E-03    -106.184E-03     84.3618E-03    -107.739E-03     213.890E-03    -105.969E-03     80.6187E-03
            1570     11.3329E-03     55.2320E-03    -31.9407E+06     18.0022E+06     45.3740E+06     54.8805E+03    -106.884E-03     213.115E-03    -106.231E-03     93.0284E-03    -108.304E-03     214.354E-03    -105.984E-03     89.2293E-03
            1571     10.5232E-03     55.1265E-03    -37.3731E+06    -11.8959E+06     35.7834E+06    -164.418E+03    -107.280E-03     213.526E-03    -106.246E-03     98.6621E-03    -108.676E-03     214.644E-03    -105.996E-03     94.8874E-03
            1572     9.71373E-03     55.0164E-03    -43.1932E+06    -43.2762E+06     26.4878E+06    -109.800E+03    -107.559E-03     213.823E-03    -106.264E-03     101.092E-03    -108.866E-03     214.746E-03    -106.006E-03     97.4364E-03
            1573     8.90416E-03     54.9050E-03    -48.8159E+06    -68.1868E+06     17.0843E+06    -260.412E+03    -107.700E-03     213.970E-03    -106.271E-03     100.739E-03    -108.873E-03     214.679E-03    -106.016E-03     97.2915E-03
            1574     8.09461E-03     54.7952E-03    -54.9724E+06    -95.4259E+06     7.21717E+06    -258.638E+03    -107.760E-03     214.038E-03    -106.278E-03     98.0328E-03    -108.768E-03     214.491E-03    -106.024E-03     94.8650E-03
            1575     7.28510E-03     54.6893E-03    -61.0602E+06    -118.992E+06    -2.47373E+06    -201.450E+03    -107.716E-03     213.996E-03    -106.280E-03     93.4912E-03    -108.553E-03     214.200E-03    -106.031E-03     90.6527E-03
            1576     6.47559E-03     54.5891E-03    -67.6911E+06    -141.791E+06    -12.4499E+06    -235.694E+03    -107.578E-03     213.856E-03    -106.278E-03     87.3994E-03    -108.251E-03     213.822E-03    -106.037E-03     84.9139E-03
            1577     5.66613E-03     54.4962E-03    -74.8541E+06    -163.624E+06    -23.1831E+06    -156.696E+03    -107.360E-03     213.634E-03    -106.274E-03     79.9249E-03    -107.886E-03     213.380E-03    -106.044E-03     77.8012E-03
            1578     4.85661E-03     54.4121E-03    -82.4407E+06    -184.607E+06    -35.0809E+06    -141.136E+03    -107.104E-03     213.369E-03    -106.265E-03     71.2049E-03    -107.503E-03     212.921E-03    -106.053E-03     69.4361E-03
            1579     4.04713E-03     54.3383E-03    -90.4837E+06    -203.616E+06    -49.6095E+06    -94.1984E+03    -106.846E-03     213.089E-03    -106.243E-03     61.3701E-03    -107.139E-03     212.481E-03    -106.064E-03     59.9414E-03
            1580     3.23767E-03     54.2758E-03    -98.8033E+06    -223.518E+06    -65.7999E+06    -71.4199E+03    -106.601E-03     212.815E-03    -106.214E-03     50.5518E-03    -106.806E-03     212.066E-03    -106.075E-03     49.4432E-03
            1581     2.42822E-03     54.2258E-03    -107.103E+06    -242.403E+06    -83.3165E+06     20.9416E+03    -106.385E-03     212.561E-03    -106.176E-03     38.9061E-03    -106.521E-03     211.698E-03    -106.086E-03     38.0966E-03
            1582     1.61878E-03     54.1891E-03    -114.186E+06    -256.032E+06    -101.213E+06     159.964E+03    -106.221E-03     212.345E-03    -106.124E-03     26.6816E-03    -106.307E-03     211.410E-03    -106.093E-03     26.1503E-03
            1583     809.385E-06     54.1663E-03    -119.016E+06    -261.236E+06    -115.068E+06     49.8189E+03    -106.189E-03     212.183E-03    -105.994E-03     14.6558E-03    -106.249E-03     211.227E-03    -106.018E-03     14.3707E-03
            1584     15.3818E-03     54.4118E-03    -4.97961E+06     119.987E+06     94.6552E+06    -82.8733E+03    -105.082E-03     211.300E-03    -106.218E-03     21.8431E-03    -105.833E-03     212.184E-03    -105.911E-03     19.0765E-03
            1585     14.5715E-03     54.3696E-03    -10.6406E+06     115.901E+06     84.8234E+06     208.812E+03    -105.485E-03     211.675E-03    -106.190E-03     45.7317E-03    -106.520E-03     212.837E-03    -105.918E-03     42.3393E-03
            1586     13.7627E-03     54.3155E-03    -15.6220E+06     107.305E+06     73.1832E+06     824.872E+03    -105.566E-03     211.722E-03    -106.156E-03     59.0969E-03    -106.727E-03     212.996E-03    -105.923E-03     55.6156E-03
            1587     12.9524E-03     54.2432E-03    -20.4167E+06     101.658E+06     65.4850E+06     104.051E+03    -105.836E-03     211.983E-03    -106.147E-03     73.3966E-03    -107.162E-03     213.408E-03    -105.938E-03     69.7561E-03
            1588     12.1429E-03     54.1570E-03    -25.4405E+06     60.9663E+06     54.1238E+06    -839.951E+03    -106.388E-03     212.561E-03    -106.174E-03     84.2760E-03    -107.779E-03     213.922E-03    -105.955E-03     80.5187E-03
            1589     11.3331E-03     54.0601E-03    -31.1535E+06     17.4248E+06     45.7116E+06    -257.381E+03    -106.912E-03     213.126E-03    -106.215E-03     92.9002E-03    -108.327E-03     214.360E-03    -105.966E-03     89.0962E-03
            1590     10.5236E-03     53.9545E-03    -36.8133E+06    -11.5864E+06     36.2323E+06     22.7183E+03    -107.303E-03     213.529E-03    -106.226E-03     98.5477E-03    -108.696E-03     214.645E-03    -105.974E-03     94.7757E-03
            1591     9.71400E-03     53.8445E-03    -42.4849E+06    -43.2126E+06     26.8496E+06    -332.979E+03    -107.574E-03     213.814E-03    -106.240E-03     101.019E-03    -108.877E-03     214.735E-03    -105.981E-03     97.3622E-03
            1592     8.90440E-03     53.7332E-03    -48.5130E+06    -68.2105E+06     17.3423E+06    -271.560E+03    -107.732E-03     213.974E-03    -106.242E-03     100.673E-03    -108.904E-03     214.681E-03    -105.986E-03     97.2261E-03
            1593     8.09488E-03     53.6234E-03    -54.5533E+06    -95.5014E+06     7.43188E+06    -289.162E+03    -107.787E-03     214.031E-03    -106.243E-03     97.9010E-03    -108.792E-03     214.481E-03    -105.989E-03     94.7342E-03
            1594     7.28540E-03     53.5176E-03    -60.9548E+06    -119.067E+06    -2.36107E+06    -287.587E+03    -107.720E-03     213.958E-03    -106.238E-03     93.3481E-03    -108.555E-03     214.161E-03    -105.989E-03     90.5109E-03
            1595     6.47592E-03     53.4174E-03    -67.7248E+06    -141.940E+06    -12.4356E+06    -175.991E+03    -107.569E-03     213.800E-03    -106.231E-03     87.2532E-03    -108.241E-03     213.764E-03    -105.989E-03     84.7707E-03
            1596     5.66641E-03     53.3247E-03    -74.7970E+06    -163.732E+06    -23.1922E+06    -124.209E+03    -107.348E-03     213.567E-03    -106.220E-03     79.7669E-03    -107.873E-03     213.313E-03    -105.990E-03     77.6452E-03
            1597     4.85692E-03     53.2407E-03    -82.4344E+06    -184.660E+06    -35.1187E+06    -29.4521E+03    -107.085E-03     213.289E-03    -106.204E-03     71.0580E-03    -107.483E-03     212.840E-03    -105.992E-03     69.2920E-03
            1598     4.04741E-03     53.1669E-03    -90.5172E+06    -203.681E+06    -49.5622E+06     5.94398E+03    -106.811E-03     212.985E-03    -106.174E-03     61.2372E-03    -107.104E-03     212.377E-03    -105.995E-03     59.8107E-03
            1599     3.23793E-03     53.1045E-03    -98.7615E+06    -223.554E+06    -65.8067E+06     49.4823E+03    -106.551E-03     212.688E-03    -106.137E-03     50.4399E-03    -106.756E-03     211.939E-03    -105.998E-03     49.3336E-03
            1600     2.42845E-03     53.0546E-03    -106.838E+06    -242.485E+06     -83.516E+06     44.8320E+03    -106.321E-03     212.412E-03    -106.090E-03     38.8292E-03    -106.455E-03     211.548E-03    -106.001E-03     38.0207E-03
            1601     1.61899E-03     53.0180E-03    -113.880E+06    -255.921E+06    -101.343E+06    -71.4550E+03    -106.135E-03     212.170E-03    -106.035E-03     26.6412E-03    -106.220E-03     211.236E-03    -106.005E-03     26.1075E-03
            1602     809.489E-06     52.9952E-03    -118.896E+06    -261.239E+06    -115.308E+06    -156.082E+03    -106.092E-03     212.005E-03    -105.914E-03     14.6298E-03    -106.151E-03     211.049E-03    -105.939E-03     14.3421E-03
            1603     15.3809E-03     53.2393E-03    -5.09310E+06     120.110E+06     94.6684E+06     590.606E+03    -105.360E-03     211.566E-03    -106.207E-03     21.5825E-03    -106.110E-03     212.450E-03    -105.900E-03     18.8177E-03
            1604     14.5724E-03     53.1965E-03    -10.4016E+06     116.167E+06     84.1296E+06     97.7739E+03    -105.321E-03     211.491E-03    -106.171E-03     45.2176E-03    -106.351E-03     212.653E-03    -105.903E-03     41.8238E-03
            1605     13.7621E-03     53.1437E-03    -15.4107E+06     107.561E+06     72.7799E+06    -983.869E+03    -105.497E-03     211.641E-03    -106.144E-03     59.1180E-03    -106.657E-03     212.917E-03    -105.914E-03     55.6152E-03
            1606     12.9528E-03     53.0709E-03    -19.2029E+06     101.712E+06     65.9808E+06    -618.580E+03    -105.928E-03     212.066E-03    -106.138E-03     73.5679E-03    -107.250E-03     213.490E-03    -105.928E-03     69.9152E-03
            1607     12.1429E-03     52.9851E-03    -25.1295E+06     60.8666E+06     53.9087E+06     503.822E+03    -106.451E-03     212.607E-03    -106.157E-03     84.2795E-03    -107.839E-03     213.967E-03    -105.939E-03     80.5378E-03
            1608     11.3334E-03     52.8880E-03    -31.7229E+06     17.4457E+06     45.5026E+06     39.2726E+03    -106.935E-03     213.130E-03    -106.195E-03     92.9103E-03    -108.352E-03     214.364E-03    -105.947E-03     89.1123E-03
            1609     10.5238E-03     52.7825E-03    -37.1297E+06    -11.5530E+06     36.1975E+06    -344.900E+03    -107.312E-03     213.515E-03    -106.204E-03     98.5131E-03    -108.705E-03     214.631E-03    -105.952E-03     94.7381E-03
            1610     9.71416E-03     52.6727E-03    -42.4821E+06    -43.0310E+06     26.9978E+06    -155.424E+03    -107.623E-03     213.836E-03    -106.213E-03     100.934E-03    -108.925E-03     214.757E-03    -105.954E-03     97.2797E-03
            1611     8.90470E-03     52.5612E-03    -48.3275E+06    -68.3160E+06     17.4365E+06    -265.315E+03    -107.794E-03     214.001E-03    -106.207E-03     100.512E-03    -108.963E-03     214.706E-03    -105.951E-03     97.0657E-03
            1612     8.09528E-03     52.4517E-03    -54.5526E+06    -95.4843E+06     7.41194E+06    -238.192E+03    -107.811E-03     214.010E-03    -106.199E-03     97.7257E-03    -108.814E-03     214.460E-03    -105.945E-03     94.5612E-03
            1613     7.28578E-03     52.3459E-03    -60.9861E+06    -119.301E+06    -2.50868E+06    -161.133E+03    -107.724E-03     213.911E-03    -106.187E-03     93.1827E-03    -108.557E-03     214.112E-03    -105.938E-03     90.3488E-03
            1614     6.47627E-03     52.2459E-03    -67.5826E+06    -141.908E+06    -12.5519E+06    -138.683E+03    -107.557E-03     213.730E-03    -106.172E-03     87.0761E-03    -108.228E-03     213.693E-03    -105.931E-03     84.5954E-03
            1615     5.66679E-03     52.1532E-03    -74.8414E+06    -163.853E+06    -23.3847E+06    -117.935E+03    -107.324E-03     213.479E-03    -106.154E-03     79.6002E-03    -107.848E-03     213.223E-03    -105.925E-03     77.4796E-03
            1616     4.85728E-03     52.0694E-03    -82.6001E+06    -184.862E+06    -35.2424E+06    -32.5044E+03    -107.049E-03     213.180E-03    -106.132E-03     70.9306E-03    -107.446E-03     212.731E-03    -105.920E-03     69.1655E-03
            1617     4.04777E-03     51.9957E-03    -90.6109E+06    -203.743E+06    -49.6911E+06     70.5959E+03    -106.749E-03     212.845E-03    -106.097E-03     61.1517E-03    -107.041E-03     212.237E-03    -105.918E-03     59.7278E-03
            1618     3.23820E-03     51.9334E-03    -98.7215E+06    -223.504E+06    -65.7950E+06     85.5806E+03    -106.469E-03     212.528E-03    -106.058E-03     50.3931E-03    -106.673E-03     211.779E-03    -105.920E-03     49.2891E-03
            1619     2.42865E-03     51.8836E-03    -106.642E+06    -242.234E+06    -83.2882E+06     8.31569E+03    -106.234E-03     212.248E-03    -106.015E-03     38.8110E-03    -106.367E-03     211.385E-03    -105.925E-03     38.0035E-03
            1620     1.61906E-03     51.8471E-03    -113.954E+06    -255.936E+06    -101.304E+06    -49.9321E+03    -106.058E-03     212.020E-03    -105.962E-03     26.6445E-03    -106.143E-03     211.086E-03    -105.932E-03     26.1117E-03
            1621     809.523E-06     51.8243E-03    -119.243E+06    -261.420E+06    -115.402E+06    -10.6471E+03    -106.039E-03     211.860E-03    -105.820E-03     14.6547E-03    -106.100E-03     210.904E-03    -105.845E-03     14.3697E-03
            1622     15.3831E-03     52.0661E-03    -5.22875E+06     119.728E+06     94.1919E+06     65.5707E+03    -105.266E-03     211.458E-03    -106.192E-03     22.0299E-03    -106.015E-03     212.340E-03    -105.887E-03     19.2680E-03
            1623     14.5722E-03     52.0253E-03    -9.60996E+06     116.937E+06     83.9995E+06    -352.852E+03    -105.136E-03     211.297E-03    -106.162E-03     45.5210E-03    -106.162E-03     212.461E-03    -105.897E-03     42.1373E-03
            1624     13.7626E-03     51.9714E-03    -14.8173E+06     107.817E+06     72.5604E+06    -253.793E+03    -105.547E-03     211.687E-03    -106.140E-03     59.3234E-03    -106.704E-03     212.964E-03    -105.912E-03     55.8291E-03
            1625     12.9526E-03     51.8987E-03    -22.8937E+06     99.7721E+06     63.7491E+06     395.299E+03    -106.024E-03     212.152E-03    -106.128E-03     73.4725E-03    -107.358E-03     213.574E-03    -105.921E-03     69.8269E-03
            1626     12.1432E-03     51.8130E-03    -28.3441E+06     61.7382E+06     53.0830E+06     49.9305E+03    -106.486E-03     212.629E-03    -106.143E-03     84.2056E-03    -107.891E-03     213.999E-03    -105.926E-03     80.4555E-03
            1627     11.3335E-03     51.7159E-03    -32.0291E+06     18.3735E+06     45.6264E+06    -645.221E+03    -106.976E-03     213.153E-03    -106.177E-03     92.8663E-03    -108.394E-03     214.390E-03    -105.929E-03     89.0596E-03
            1628     10.5239E-03     51.6107E-03    -37.3231E+06    -12.3188E+06     35.7341E+06    -532.096E+03    -107.405E-03     213.584E-03    -106.178E-03     98.4053E-03    -108.797E-03     214.695E-03    -105.928E-03     94.6269E-03
            1629     9.71455E-03     51.5006E-03     -42.749E+06    -43.0064E+06     26.7778E+06    -254.621E+03    -107.713E-03     213.890E-03    -106.178E-03     100.757E-03    -109.015E-03     214.810E-03    -105.919E-03     97.0998E-03
            1630     8.90514E-03     51.3894E-03    -48.5682E+06    -68.3513E+06     17.1455E+06    -143.575E+03    -107.819E-03     213.981E-03    -106.162E-03     100.305E-03    -108.988E-03     214.685E-03    -105.907E-03     96.8607E-03
            1631     8.09565E-03     51.2799E-03    -54.7110E+06    -95.6183E+06     7.09923E+06    -148.069E+03    -107.823E-03     213.970E-03    -106.147E-03     97.5568E-03    -108.826E-03     214.419E-03    -105.894E-03     94.3941E-03
            1632     7.28621E-03     51.1743E-03    -60.8284E+06    -119.253E+06    -2.59235E+06    -180.265E+03    -107.726E-03     213.854E-03    -106.127E-03     93.0088E-03    -108.558E-03     214.054E-03    -105.879E-03     90.1748E-03
            1633     6.47675E-03     51.0744E-03    -67.8247E+06    -142.061E+06    -12.7387E+06    -115.163E+03    -107.521E-03     213.628E-03    -106.107E-03     86.9289E-03    -108.192E-03     213.591E-03    -105.866E-03     84.4502E-03
            1634     5.66721E-03     50.9819E-03    -74.9932E+06    -163.941E+06    -23.4262E+06    -28.8699E+03    -107.263E-03     213.349E-03    -106.086E-03     79.5197E-03    -107.787E-03     213.093E-03    -105.857E-03     77.4031E-03
            1635     4.85766E-03     50.8982E-03    -82.4921E+06    -184.934E+06    -35.1525E+06    -58.3305E+03    -106.973E-03     213.036E-03    -106.064E-03     70.8927E-03    -107.369E-03     212.586E-03    -105.852E-03     69.1303E-03
            1636     4.04804E-03     50.8247E-03    -90.5661E+06    -203.768E+06    -49.5667E+06    -48.5513E+03    -106.666E-03     212.697E-03    -106.031E-03     61.1504E-03    -106.958E-03     212.088E-03    -105.852E-03     59.7281E-03
            1637     3.23842E-03     50.7625E-03    -98.7900E+06    -223.392E+06    -65.6390E+06    -40.1968E+03    -106.384E-03     212.382E-03    -105.998E-03     50.4068E-03    -106.589E-03     211.633E-03    -105.859E-03     49.3038E-03
            1638     2.42876E-03     50.7128E-03    -106.985E+06    -242.261E+06    -83.1669E+06     39.0328E+03    -106.160E-03     212.120E-03    -105.961E-03     38.8150E-03    -106.295E-03     211.257E-03    -105.870E-03     38.0098E-03
            1639     1.61917E-03     50.6763E-03    -114.106E+06    -255.915E+06    -101.168E+06     80.0032E+03    -106.006E-03     211.915E-03    -105.910E-03     26.6381E-03    -106.092E-03     210.981E-03    -105.879E-03     26.1082E-03
            1640     809.596E-06     50.6536E-03    -119.232E+06    -261.412E+06    -115.398E+06     67.8362E+03    -105.985E-03     211.753E-03    -105.768E-03     14.6353E-03    -106.045E-03     210.797E-03    -105.793E-03     14.3518E-03
            1641     15.3808E-03     50.8943E-03    -4.81036E+06     120.210E+06     95.0245E+06    -592.360E+03    -105.177E-03     211.378E-03    -106.201E-03     21.9103E-03    -105.927E-03     212.263E-03    -105.894E-03     19.1299E-03
            1642     14.5719E-03     50.8529E-03    -10.1764E+06     116.269E+06     83.8353E+06    -111.152E+03    -105.275E-03     211.443E-03    -106.168E-03     45.3885E-03    -106.303E-03     212.605E-03    -105.903E-03     41.9970E-03
            1643     13.7622E-03     50.7991E-03    -16.0165E+06     106.711E+06     71.5248E+06     1.64385E+06    -105.699E-03     211.833E-03    -106.135E-03     59.2936E-03    -106.858E-03     213.108E-03    -105.908E-03     55.8216E-03
            1644     12.9530E-03     50.7263E-03    -20.7018E+06     101.501E+06     65.0629E+06     629.738E+03    -106.078E-03     212.197E-03    -106.119E-03     73.3300E-03    -107.405E-03     213.623E-03    -105.911E-03     69.6856E-03
            1645     12.1432E-03     50.6408E-03    -25.3742E+06     62.5256E+06     54.1426E+06    -944.678E+03    -106.553E-03     212.682E-03    -106.129E-03     84.1097E-03    -107.944E-03     214.048E-03    -105.912E-03     80.3466E-03
            1646     11.3337E-03     50.5439E-03    -31.0577E+06     18.0215E+06     45.5705E+06    -598.043E+03    -107.103E-03     213.257E-03    -106.154E-03     92.7154E-03    -108.515E-03     214.491E-03    -105.907E-03     88.9059E-03
            1647     10.5243E-03     50.4384E-03    -36.8292E+06    -12.3210E+06     35.6028E+06    -516.017E+03    -107.529E-03     213.672E-03    -106.143E-03     98.2037E-03    -108.917E-03     214.783E-03    -105.894E-03     94.4212E-03
            1648     9.71500E-03     50.3286E-03    -43.0024E+06    -43.8041E+06     26.2913E+06    -391.327E+03    -107.759E-03     213.891E-03    -106.132E-03     100.523E-03    -109.059E-03     214.807E-03    -105.875E-03     96.8622E-03
            1649     8.90556E-03     50.2176E-03    -48.9068E+06    -68.3684E+06     16.9110E+06    -26.8479E+03    -107.821E-03     213.931E-03    -106.110E-03     100.090E-03    -108.989E-03     214.634E-03    -105.855E-03     96.6473E-03
            1650     8.09615E-03     50.1082E-03    -54.6624E+06    -95.3882E+06     7.17675E+06    -101.588E+03    -107.800E-03     213.890E-03    -106.090E-03     97.3907E-03    -108.802E-03     214.338E-03    -105.837E-03     94.2303E-03
            1651     7.28671E-03     50.0027E-03    -61.2870E+06    -119.380E+06    -2.72808E+06    -124.195E+03    -107.660E-03     213.729E-03    -106.068E-03     92.9025E-03    -108.493E-03     213.928E-03    -105.820E-03     90.0725E-03
            1652     6.47715E-03     49.9031E-03    -68.0085E+06    -142.137E+06    -12.7642E+06    -65.1062E+03    -107.443E-03     213.493E-03    -106.049E-03     86.9140E-03    -108.114E-03     213.454E-03    -105.808E-03     84.4406E-03
            1653     5.66755E-03     49.8107E-03    -74.8763E+06    -163.985E+06    -23.2765E+06    -165.105E+03    -107.181E-03     213.213E-03    -106.032E-03     79.5506E-03    -107.703E-03     212.955E-03    -105.803E-03     77.4370E-03
            1654     4.85788E-03     49.7272E-03    -82.4911E+06    -184.932E+06    -35.0123E+06    -165.168E+03    -106.889E-03     212.905E-03    -106.015E-03     70.9231E-03    -107.286E-03     212.453E-03    -105.803E-03     69.1635E-03
            1655     4.04822E-03     49.6537E-03    -90.6508E+06    -203.761E+06    -49.4704E+06    -109.033E+03    -106.594E-03     212.583E-03    -105.988E-03     61.1674E-03    -106.887E-03     211.973E-03    -105.809E-03     59.7473E-03
            1656     3.23851E-03     49.5917E-03    -99.0208E+06    -223.490E+06    -65.7017E+06    -26.8191E+03    -106.331E-03     212.290E-03    -105.959E-03     50.4092E-03    -106.536E-03     211.541E-03    -105.820E-03     49.3085E-03
            1657     2.42886E-03     49.5420E-03    -107.061E+06    -242.353E+06    -83.3002E+06    -17.6018E+03    -106.121E-03     212.045E-03    -105.923E-03     38.8186E-03    -106.257E-03     211.181E-03    -105.833E-03     38.0144E-03
            1658     1.61921E-03     49.5056E-03    -114.204E+06    -255.978E+06    -101.200E+06    -34.2466E+03    -105.966E-03     211.840E-03    -105.874E-03     26.6442E-03    -106.052E-03     210.905E-03    -105.843E-03     26.1141E-03
            1659     809.604E-06     49.4829E-03    -119.535E+06    -261.348E+06    -115.383E+06    -6.51934E+03    -105.956E-03     211.682E-03    -105.726E-03     14.6183E-03    -106.018E-03     210.726E-03    -105.751E-03     14.3340E-03
            1660     15.3826E-03     49.7214E-03    -5.20524E+06     119.831E+06     94.3046E+06     399.702E+03    -105.081E-03     211.283E-03    -106.202E-03     21.6936E-03    -105.831E-03     212.167E-03    -105.897E-03     18.9298E-03
            1661     14.5723E-03     49.6811E-03    -11.1788E+06     115.491E+06     83.9098E+06     522.802E+03    -105.419E-03     211.592E-03    -106.173E-03     45.5817E-03    -106.451E-03     212.751E-03    -105.905E-03     42.1999E-03
            1662     13.7627E-03     49.6264E-03    -15.4257E+06     107.674E+06     73.1730E+06    -527.602E+03    -105.841E-03     211.975E-03    -106.134E-03     59.2869E-03    -107.000E-03     213.250E-03    -105.902E-03     55.7878E-03
            1663     12.9530E-03     49.5541E-03    -19.0245E+06     102.487E+06     65.2507E+06    -952.099E+03    -106.164E-03     212.267E-03    -106.103E-03     73.2115E-03    -107.483E-03     213.693E-03    -105.897E-03     69.5454E-03
            1664     12.1434E-03     49.4686E-03    -25.1644E+06     61.8428E+06     53.3442E+06     218.437E+03    -106.719E-03     212.821E-03    -106.102E-03     83.8352E-03    -108.106E-03     214.183E-03    -105.889E-03     80.0815E-03
            1665     11.3341E-03     49.3715E-03    -31.2626E+06     18.3219E+06     45.5765E+06     243.559E+03    -107.224E-03     213.342E-03    -106.118E-03     92.3955E-03    -108.636E-03     214.576E-03    -105.871E-03     88.5909E-03
            1666     10.5248E-03     49.2663E-03    -36.9739E+06    -12.0364E+06     35.7133E+06    -106.432E+03    -107.547E-03     213.645E-03    -106.098E-03     97.9448E-03    -108.935E-03     214.756E-03    -105.849E-03     94.1661E-03
            1667     9.71550E-03     49.1566E-03    -43.0607E+06    -44.2025E+06     26.1702E+06    -189.415E+03    -107.733E-03     213.815E-03    -106.083E-03     100.323E-03    -109.031E-03     214.728E-03    -105.825E-03     96.6663E-03
            1668     8.90613E-03     49.0458E-03    -48.7751E+06    -68.4491E+06     17.0557E+06    -247.937E+03    -107.779E-03     213.838E-03    -106.059E-03     100.005E-03    -108.946E-03     214.539E-03    -105.804E-03     96.5641E-03
            1669     8.09666E-03     48.9366E-03    -54.8324E+06    -95.4233E+06     7.34003E+06    -111.838E+03    -107.710E-03     213.751E-03    -106.041E-03     97.3775E-03    -108.711E-03     214.197E-03    -105.786E-03     94.2237E-03
            1670     7.28703E-03     48.8315E-03    -61.2009E+06    -119.399E+06    -2.59638E+06    -79.1818E+03    -107.556E-03     213.580E-03    -106.024E-03     92.9428E-03    -108.387E-03     213.777E-03    -105.775E-03     90.1213E-03
            1671     6.47738E-03     48.7319E-03    -67.5546E+06    -141.959E+06    -12.4411E+06    -235.732E+03    -107.362E-03     213.374E-03    -106.012E-03     86.9548E-03    -108.030E-03     213.334E-03    -105.770E-03     84.4854E-03
            1672     5.66770E-03     48.6397E-03    -74.8105E+06    -164.058E+06    -23.1489E+06    -232.717E+03    -107.116E-03     213.116E-03    -106.001E-03     79.5667E-03    -107.637E-03     212.857E-03    -105.770E-03     77.4566E-03
            1673     4.85801E-03     48.5562E-03    -82.6946E+06    -185.055E+06    -35.0706E+06    -123.983E+03    -106.838E-03     212.825E-03    -105.987E-03     70.9255E-03    -107.235E-03     212.373E-03    -105.774E-03     69.1696E-03
            1674     4.04829E-03     48.4830E-03    -90.8383E+06    -203.898E+06    -49.7456E+06    -74.7422E+03    -106.560E-03     212.522E-03    -105.962E-03     61.1460E-03    -106.852E-03     211.912E-03    -105.783E-03     59.7286E-03
            1675     3.23860E-03     48.4210E-03    -98.9617E+06    -223.618E+06    -65.9002E+06    -69.6976E+03    -106.309E-03     212.242E-03    -105.933E-03     50.3824E-03    -106.513E-03     211.492E-03    -105.795E-03     49.2829E-03
            1676     2.42891E-03     48.3713E-03    -106.923E+06    -242.343E+06    -83.3529E+06    -90.5542E+03    -106.097E-03     211.994E-03    -105.897E-03     38.7924E-03    -106.232E-03     211.130E-03    -105.807E-03     37.9883E-03
            1677     1.61926E-03     48.3350E-03    -114.180E+06    -256.065E+06    -101.340E+06    -25.8208E+03    -105.935E-03     211.784E-03    -105.849E-03     26.6187E-03    -106.021E-03     210.849E-03    -105.819E-03     26.0894E-03
            1678     809.614E-06     48.3123E-03    -119.360E+06    -261.358E+06    -115.530E+06    -97.2800E+03    -105.926E-03     211.637E-03    -105.711E-03     14.6282E-03    -105.987E-03     210.681E-03    -105.736E-03     14.3433E-03
            1679     15.3810E-03     48.5510E-03    -5.49681E+06     119.376E+06     93.4285E+06     845.058E+03    -105.272E-03     211.471E-03    -106.199E-03     22.0676E-03    -106.020E-03     212.352E-03    -105.897E-03     19.3196E-03
            1680     14.5714E-03     48.5073E-03    -9.52853E+06     117.013E+06     84.9054E+06    -456.320E+03    -105.597E-03     211.760E-03    -106.164E-03     45.3667E-03    -106.623E-03     212.922E-03    -105.895E-03     41.9651E-03
            1681     13.7626E-03     48.4543E-03    -14.7365E+06     108.041E+06     73.6128E+06    -930.210E+03    -105.944E-03     212.060E-03    -106.116E-03     58.6929E-03    -107.101E-03     213.334E-03    -105.883E-03     55.1723E-03
            1682     12.9532E-03     48.3816E-03    -22.1062E+06     101.333E+06     64.0675E+06     96.4442E+03    -106.298E-03     212.372E-03    -106.073E-03     72.7582E-03    -107.628E-03     213.797E-03    -105.868E-03     69.0970E-03
            1683     12.1441E-03     48.2960E-03    -27.1776E+06     61.8938E+06     53.2650E+06    -180.764E+03    -106.784E-03     212.849E-03    -106.065E-03     83.5072E-03    -108.180E-03     214.213E-03    -105.849E-03     79.7424E-03
            1684     11.3348E-03     48.1993E-03    -31.4795E+06      18.083E+06     45.8393E+06    -23.2369E+03    -107.201E-03     213.275E-03    -106.075E-03     92.2337E-03    -108.612E-03     214.506E-03    -105.826E-03     88.4274E-03
            1685     10.5254E-03     48.0942E-03    -36.9869E+06    -11.7633E+06     36.1142E+06     274.555E+03    -107.462E-03     213.517E-03    -106.055E-03     97.8908E-03    -108.848E-03     214.625E-03    -105.804E-03     94.1254E-03
            1686     9.71598E-03     47.9848E-03    -42.4007E+06    -43.6649E+06     26.7169E+06    -152.061E+03    -107.642E-03     213.685E-03    -106.043E-03     100.363E-03    -108.936E-03     214.595E-03    -105.784E-03     96.7167E-03
            1687     8.90644E-03     47.8741E-03    -48.3152E+06    -68.7806E+06     17.2830E+06    -319.131E+03    -107.683E-03     213.708E-03    -106.024E-03     100.075E-03    -108.845E-03     214.403E-03    -105.768E-03     96.6427E-03
            1688     8.09682E-03     47.7653E-03    -54.4750E+06    -95.6659E+06     7.40155E+06    -226.440E+03    -107.625E-03     213.637E-03    -106.012E-03     97.4244E-03    -108.622E-03     214.080E-03    -105.757E-03     94.2768E-03
            1689     7.28717E-03     47.6602E-03    -60.6198E+06    -119.142E+06    -2.29331E+06    -241.053E+03    -107.500E-03     213.500E-03    -106.001E-03     92.9689E-03    -108.328E-03     213.697E-03    -105.751E-03     90.1510E-03
            1690     6.47750E-03     47.5608E-03    -67.6289E+06    -142.113E+06    -12.3957E+06    -139.283E+03    -107.314E-03     213.307E-03    -105.992E-03     86.9367E-03    -107.981E-03     213.265E-03    -105.750E-03     84.4726E-03
            1691     5.66779E-03     47.4687E-03    -74.9765E+06    -164.121E+06    -23.2307E+06    -15.1647E+03    -107.083E-03     213.065E-03    -105.983E-03     79.5231E-03    -107.604E-03     212.806E-03    -105.752E-03     77.4188E-03
            1692     4.85807E-03     47.3854E-03    -82.6316E+06    -185.050E+06    -35.1358E+06    -50.1698E+03    -106.823E-03     212.793E-03    -105.970E-03     70.8681E-03    -107.219E-03     212.340E-03    -105.757E-03     69.1151E-03
            1693     4.04837E-03     47.3122E-03    -90.6964E+06    -203.945E+06    -49.7323E+06    -118.501E+03    -106.550E-03     212.494E-03    -105.944E-03     61.0859E-03    -106.841E-03     211.883E-03    -105.765E-03     59.6695E-03
            1694     3.23865E-03     47.2503E-03    -98.9384E+06    -223.679E+06    -65.9387E+06    -169.533E+03    -106.296E-03     212.209E-03    -105.913E-03     50.3262E-03    -106.500E-03     211.458E-03    -105.775E-03     49.2265E-03
            1695     2.42897E-03     47.2007E-03    -107.105E+06    -242.512E+06    -83.4086E+06    -49.2176E+03    -106.078E-03     211.953E-03    -105.875E-03     38.7413E-03    -106.213E-03     211.089E-03    -105.785E-03     37.9385E-03
            1696     1.61928E-03     47.1644E-03    -114.191E+06    -256.041E+06    -101.288E+06    -5.84950E+03    -105.914E-03     211.739E-03    -105.826E-03     26.5790E-03    -106.000E-03     210.805E-03    -105.795E-03     26.0503E-03
            1697     809.641E-06     47.1418E-03    -119.283E+06    -261.489E+06    -115.459E+06     15.4491E+03    -105.890E-03     211.589E-03    -105.698E-03     14.6102E-03    -105.951E-03     210.632E-03    -105.723E-03     14.3275E-03
            1698     15.3822E-03     47.3765E-03    -4.85060E+06     120.657E+06     95.4482E+06    -155.074E+03    -105.834E-03     212.021E-03    -106.187E-03     21.3655E-03    -106.584E-03     212.906E-03    -105.878E-03     18.5783E-03
            1699     14.5735E-03     47.3357E-03    -9.77168E+06     116.741E+06     84.8735E+06    -257.463E+03    -105.663E-03     211.789E-03    -106.126E-03     44.6451E-03    -106.690E-03     212.949E-03    -105.857E-03     41.2305E-03
            1700     13.7633E-03     47.2812E-03    -16.3198E+06     106.551E+06     71.8806E+06     511.848E+03    -105.881E-03     211.951E-03    -106.070E-03     58.4445E-03    -107.039E-03     213.221E-03    -105.842E-03     54.9436E-03
            1701     12.9543E-03     47.2092E-03    -20.1267E+06     102.313E+06     65.8579E+06    -203.647E+03    -106.273E-03     212.310E-03    -106.037E-03     72.6742E-03    -107.596E-03     213.733E-03    -105.826E-03     69.0107E-03
            1702     12.1446E-03     47.1236E-03    -24.6481E+06     61.7117E+06     54.4953E+06    -352.194E+03    -106.688E-03     212.716E-03    -106.028E-03     83.6550E-03    -108.069E-03     214.071E-03    -105.810E-03     79.9012E-03
            1703     11.3352E-03     47.0271E-03    -30.8123E+06     17.3820E+06     46.0371E+06     69.8974E+03    -107.099E-03     213.141E-03    -106.042E-03     92.3401E-03    -108.503E-03     214.364E-03    -105.792E-03     88.5479E-03
            1704     10.5257E-03     46.9223E-03    -36.4438E+06    -11.3684E+06     36.3718E+06    -10.8871E+03    -107.373E-03     213.400E-03    -106.027E-03     97.9923E-03    -108.755E-03     214.506E-03    -105.776E-03     94.2344E-03
            1705     9.71612E-03     46.8131E-03    -41.9855E+06    -43.4368E+06     26.9135E+06    -15.5877E+03    -107.554E-03     213.575E-03    -106.020E-03     100.407E-03    -108.844E-03     214.483E-03    -105.762E-03     96.7729E-03
            1706     8.90652E-03     46.7027E-03    -48.0291E+06    -68.6995E+06     17.2955E+06    -84.2199E+03    -107.610E-03     213.618E-03    -106.007E-03     100.036E-03    -108.768E-03     214.311E-03    -105.752E-03     96.6133E-03
            1707     8.09691E-03     46.5939E-03    -54.3956E+06    -95.6650E+06     7.34077E+06    -207.060E+03    -107.590E-03     213.588E-03    -105.999E-03     97.3612E-03    -108.585E-03     214.029E-03    -105.744E-03     94.2183E-03
            1708     7.28725E-03     46.4890E-03    -61.0846E+06    -119.357E+06    -2.49002E+06    -55.2627E+03    -107.483E-03     213.472E-03    -105.989E-03     92.8890E-03    -108.311E-03     213.666E-03    -105.740E-03     90.0766E-03
            1709     6.47755E-03     46.3898E-03    -67.8728E+06    -142.289E+06    -12.5139E+06     37.4756E+03    -107.305E-03     213.284E-03    -105.980E-03     86.8460E-03    -107.971E-03     213.241E-03    -105.738E-03     84.3868E-03
            1710     5.66784E-03     46.2978E-03    -75.0093E+06    -163.991E+06    -23.2368E+06    -35.4288E+03    -107.079E-03     213.048E-03    -105.969E-03     79.4253E-03    -107.600E-03     212.788E-03    -105.739E-03     77.3226E-03
            1711     4.85814E-03     46.2146E-03    -82.6825E+06    -185.066E+06    -35.1740E+06    -106.024E+03    -106.820E-03     212.774E-03    -105.954E-03     70.7610E-03    -107.216E-03     212.321E-03    -105.741E-03     69.0086E-03
            1712     4.04843E-03     46.1415E-03    -90.7198E+06    -203.941E+06    -49.6744E+06    -114.445E+03    -106.541E-03     212.466E-03    -105.925E-03     60.9857E-03    -106.832E-03     211.855E-03    -105.746E-03     59.5702E-03
            1713     3.23873E-03     46.0796E-03    -99.0513E+06    -223.766E+06    -65.9630E+06    -61.6017E+03    -106.278E-03     212.170E-03    -105.892E-03     50.2398E-03    -106.482E-03     211.419E-03    -105.754E-03     49.1422E-03
            1714     2.42901E-03     46.0302E-03    -107.140E+06    -242.615E+06    -83.5016E+06    -69.3835E+03    -106.059E-03     211.911E-03    -105.853E-03     38.6809E-03    -106.193E-03     211.046E-03    -105.763E-03     37.8783E-03
            1715     1.61934E-03     45.9939E-03    -114.172E+06    -256.088E+06    -101.312E+06    -34.1431E+03    -105.895E-03     211.696E-03    -105.801E-03     26.5421E-03    -105.981E-03     210.761E-03    -105.771E-03     26.0134E-03
            1716     809.663E-06     45.9713E-03    -119.338E+06    -261.583E+06    -115.524E+06     48.7894E+03    -105.869E-03     211.536E-03    -105.667E-03     14.5999E-03    -105.929E-03     210.579E-03    -105.692E-03     14.3181E-03
            1717     15.3829E-03     46.2036E-03    -5.07631E+06     119.692E+06     94.8491E+06     34.8524E+03    -105.635E-03     211.793E-03    -106.157E-03     21.5801E-03    -106.384E-03     212.674E-03    -105.849E-03     18.8047E-03
            1718     14.5729E-03     46.1631E-03    -10.3302E+06     115.990E+06     85.3797E+06     313.297E+03    -105.646E-03     211.753E-03    -106.107E-03     45.4262E-03    -106.675E-03     212.909E-03    -105.833E-03     42.0361E-03
            1719     13.7641E-03     46.1089E-03    -14.5492E+06     108.600E+06     73.9948E+06    -840.201E+03    -105.920E-03     211.971E-03    -106.051E-03     59.1980E-03    -107.074E-03     213.244E-03    -105.817E-03     55.6990E-03
            1720     12.9541E-03     46.0368E-03    -19.4181E+06     101.335E+06     64.6960E+06    -820.753E+03    -106.208E-03     212.216E-03    -106.008E-03     73.0430E-03    -107.521E-03     213.632E-03    -105.803E-03     69.3870E-03
            1721     12.1448E-03     45.9515E-03    -25.3739E+06     60.8663E+06     53.3918E+06     544.243E+03    -106.637E-03     212.643E-03    -106.005E-03     83.7399E-03    -108.016E-03     213.993E-03    -105.790E-03     80.0088E-03
            1722     11.3353E-03     45.8551E-03    -30.9571E+06     18.0689E+06     45.6586E+06     263.153E+03    -107.019E-03     213.042E-03    -106.023E-03     92.3218E-03    -108.422E-03     214.267E-03    -105.776E-03     88.5405E-03
            1723     10.5258E-03     45.7505E-03    -36.3717E+06    -11.4673E+06     36.1749E+06     72.8989E+03    -107.315E-03     213.329E-03    -106.014E-03     97.9272E-03    -108.693E-03     214.432E-03    -105.764E-03     94.1764E-03
            1724     9.71623E-03     45.6415E-03    -42.4885E+06    -43.3642E+06     26.7319E+06     147.891E+03    -107.512E-03     213.523E-03    -106.011E-03     100.325E-03    -108.802E-03     214.431E-03    -105.753E-03     96.6975E-03
            1725     8.90661E-03     45.5312E-03    -48.7043E+06    -68.5019E+06     17.1828E+06     71.6400E+03    -107.590E-03     213.589E-03    -105.999E-03     99.9317E-03    -108.749E-03     214.283E-03    -105.744E-03     96.5150E-03
            1726     8.09696E-03     45.4226E-03    -54.9172E+06    -95.5888E+06     7.29647E+06     88.5814E+03    -107.588E-03     213.578E-03    -105.991E-03     97.2364E-03    -108.584E-03     214.019E-03    -105.736E-03     94.1007E-03
            1727     7.28729E-03     45.3179E-03    -61.3081E+06    -119.646E+06    -2.65179E+06     3.84657E+03    -107.495E-03     213.473E-03    -105.978E-03     92.7252E-03    -108.322E-03     213.665E-03    -105.729E-03     89.9156E-03
            1728     6.47763E-03     45.2187E-03    -67.9096E+06    -142.197E+06    -12.4882E+06    -56.6457E+03    -107.320E-03     213.285E-03    -105.965E-03     86.6648E-03    -107.986E-03     213.241E-03    -105.723E-03     84.2056E-03
            1729     5.66795E-03     45.1269E-03      -75.05E+06    -163.924E+06    -23.2331E+06    -55.1302E+03    -107.082E-03     213.031E-03    -105.949E-03     79.2466E-03    -107.603E-03     212.771E-03    -105.719E-03     77.1447E-03
            1730     4.85825E-03     45.0438E-03    -82.7563E+06    -185.038E+06    -35.2136E+06    -110.881E+03    -106.805E-03     212.736E-03    -105.930E-03     70.6039E-03    -107.201E-03     212.282E-03    -105.718E-03     68.8526E-03
            1731     4.04854E-03     44.9708E-03    -90.8598E+06    -204.122E+06    -49.7386E+06    -99.3800E+03    -106.516E-03     212.416E-03    -105.900E-03     60.8541E-03    -106.807E-03     211.804E-03    -105.721E-03     59.4400E-03
            1732     3.23880E-03     44.9090E-03    -99.0666E+06    -223.758E+06    -65.9564E+06    -28.1112E+03    -106.249E-03     212.116E-03    -105.866E-03     50.1388E-03    -106.453E-03     211.365E-03    -105.728E-03     49.0427E-03
            1733     2.42908E-03     44.8597E-03    -107.063E+06    -242.621E+06    -83.5670E+06    -37.5902E+03    -106.031E-03     211.858E-03    -105.827E-03     38.6079E-03    -106.165E-03     210.993E-03    -105.737E-03     37.8066E-03
            1734     1.61936E-03     44.8234E-03    -114.245E+06    -256.200E+06    -101.394E+06    -12.9532E+03    -105.870E-03     211.645E-03    -105.775E-03     26.4963E-03    -105.955E-03     210.710E-03    -105.745E-03     25.9686E-03
            1735     809.690E-06     44.8009E-03    -119.357E+06    -261.555E+06    -115.388E+06     25.4158E+03    -105.840E-03     211.484E-03    -105.644E-03     14.5677E-03    -105.901E-03     210.528E-03    -105.669E-03     14.2855E-03
            1736     15.3821E-03     45.0319E-03    -4.90000E+06     119.609E+06     94.1456E+06    -425.097E+03    -105.530E-03     211.678E-03    -106.149E-03     21.8890E-03    -106.277E-03     212.560E-03    -105.844E-03     19.1050E-03
            1737     14.5731E-03     44.9898E-03    -9.35643E+06     116.679E+06     83.9117E+06    -1.07671E+06    -105.680E-03     211.774E-03    -106.093E-03     45.1074E-03    -106.703E-03     212.934E-03    -105.829E-03     41.6886E-03
            1738     13.7634E-03     44.9366E-03    -14.0321E+06     108.520E+06     72.9280E+06    -23.2335E+03    -105.963E-03     212.001E-03    -106.039E-03     58.7837E-03    -107.111E-03     213.273E-03    -105.811E-03     55.2880E-03
            1739     12.9545E-03     44.8643E-03    -20.8673E+06     100.708E+06     64.3812E+06     641.891E+03    -106.206E-03     212.207E-03    -106.001E-03     72.8122E-03    -107.522E-03     213.620E-03    -105.795E-03     69.1778E-03
            1740     12.1449E-03     44.7794E-03    -26.5408E+06     60.9407E+06     53.3255E+06    -124.746E+03    -106.585E-03     212.584E-03    -105.999E-03     83.6364E-03    -107.968E-03     213.934E-03    -105.782E-03     79.8995E-03
            1741     11.3354E-03     44.6832E-03    -31.5725E+06     18.1386E+06     45.7778E+06    -18.2001E+03    -106.988E-03     213.006E-03    -106.018E-03     92.2907E-03    -108.391E-03     214.229E-03    -105.770E-03     88.5103E-03
            1742     10.5258E-03     44.5788E-03    -37.3894E+06    -11.6299E+06     36.0646E+06     230.858E+03    -107.294E-03     213.304E-03    -106.010E-03     97.8614E-03    -108.674E-03     214.406E-03    -105.759E-03     94.1179E-03
            1743     9.71622E-03     44.4699E-03    -43.0902E+06    -43.2031E+06     26.7145E+06     150.249E+03    -107.525E-03     213.531E-03    -106.006E-03     100.205E-03    -108.815E-03     214.437E-03    -105.747E-03     96.5813E-03
            1744     8.90663E-03     44.3598E-03    -48.7927E+06    -68.4796E+06     17.1615E+06     83.3051E+03    -107.629E-03     213.620E-03    -105.990E-03     99.7354E-03    -108.787E-03     214.311E-03    -105.735E-03     96.3209E-03
            1745     8.09703E-03     44.2513E-03    -54.7835E+06    -95.6055E+06     7.31424E+06     89.6127E+03    -107.626E-03     213.602E-03    -105.976E-03     96.9810E-03    -108.619E-03     214.040E-03    -105.721E-03     93.8463E-03
            1746     7.28744E-03     44.1467E-03    -61.1406E+06    -119.408E+06    -2.58677E+06     15.0031E+03    -107.517E-03     213.473E-03    -105.956E-03     92.4563E-03    -108.342E-03     213.665E-03    -105.707E-03     89.6478E-03
            1747     6.47781E-03     44.0477E-03    -67.9544E+06    -142.238E+06    -12.5877E+06    -51.3749E+03    -107.324E-03     213.262E-03    -105.937E-03     86.4203E-03    -107.989E-03     213.217E-03    -105.696E-03     83.9623E-03
            1748     5.66815E-03     43.9560E-03    -75.1594E+06    -163.881E+06    -23.3041E+06    -45.6309E+03    -107.065E-03     212.983E-03    -105.917E-03     79.0377E-03    -107.586E-03     212.722E-03    -105.687E-03     76.9378E-03
            1749     4.85843E-03     43.8730E-03    -82.8032E+06    -184.988E+06    -35.2499E+06    -41.9905E+03    -106.773E-03     212.669E-03    -105.896E-03     70.4289E-03    -107.168E-03     212.215E-03    -105.684E-03     68.6807E-03
            1750     4.04867E-03     43.8001E-03    -90.8436E+06    -204.138E+06    -49.8949E+06    -74.9504E+03    -106.479E-03     212.343E-03    -105.864E-03     60.7058E-03    -106.768E-03     211.730E-03    -105.686E-03     59.2941E-03
            1751     3.23891E-03     43.7385E-03    -99.0568E+06    -223.852E+06    -66.1553E+06    -90.6283E+03    -106.214E-03     212.044E-03    -105.830E-03     50.0137E-03    -106.417E-03     211.293E-03    -105.692E-03     48.9184E-03
            1752     2.42915E-03     43.6892E-03    -107.136E+06    -242.671E+06    -83.6375E+06    -1.02470E+03    -105.996E-03     211.786E-03    -105.790E-03     38.5028E-03    -106.130E-03     210.921E-03    -105.701E-03     37.7032E-03
            1753     1.61943E-03     43.6530E-03    -114.214E+06    -256.213E+06    -101.441E+06     17.7364E+03    -105.831E-03     211.569E-03    -105.737E-03     26.4165E-03    -105.917E-03     210.633E-03    -105.708E-03     25.8899E-03
            1754     809.700E-06     43.6305E-03    -119.233E+06    -261.493E+06    -115.389E+06    -21.3745E+03    -105.803E-03     211.409E-03    -105.606E-03     14.5171E-03    -105.863E-03     210.452E-03    -105.631E-03     14.2345E-03
            1755     15.3831E-03     43.8582E-03    -4.45053E+06     120.765E+06     95.3519E+06    -881.425E+03    -105.741E-03     211.892E-03    -106.151E-03     21.6716E-03    -106.490E-03     212.778E-03    -105.843E-03     18.8705E-03
            1756     14.5735E-03     43.8178E-03    -10.2643E+06     115.640E+06     83.3219E+06    -383.237E+03    -105.730E-03     211.815E-03    -106.085E-03     45.1017E-03    -106.754E-03     212.972E-03    -105.821E-03     41.6930E-03
            1757     13.7644E-03     43.7637E-03    -16.3426E+06     106.335E+06     71.4616E+06     546.426E+03    -105.864E-03     211.894E-03    -106.030E-03     58.7723E-03    -107.015E-03     213.157E-03    -105.804E-03     55.2968E-03
            1758     12.9545E-03     43.6922E-03    -20.7001E+06     102.022E+06     65.3132E+06     523.039E+03    -106.117E-03     212.118E-03    -106.001E-03     72.8823E-03    -107.434E-03     213.534E-03    -105.793E-03     69.2550E-03
            1759     12.1449E-03     43.6072E-03    -25.9561E+06     61.5718E+06     53.8302E+06    -17.4269E+03    -106.560E-03     212.561E-03    -106.001E-03     83.7068E-03    -107.940E-03     213.911E-03    -105.784E-03     79.9773E-03
            1760     11.3353E-03     43.5113E-03    -32.0154E+06     17.3785E+06     45.4607E+06    -77.6320E+03    -107.030E-03     213.050E-03    -106.020E-03     92.2350E-03    -108.431E-03     214.268E-03    -105.771E-03     88.4571E-03
            1761     10.5258E-03     43.4070E-03    -37.3283E+06    -11.4787E+06     35.9700E+06     21.4838E+03    -107.384E-03     213.389E-03    -106.005E-03     97.6623E-03    -108.761E-03     214.489E-03    -105.755E-03     93.9158E-03
            1762     9.71631E-03     43.2982E-03    -42.6881E+06    -43.2917E+06     26.7080E+06    -2.58497E+03    -107.611E-03     213.604E-03    -105.993E-03     99.8915E-03    -108.897E-03     214.507E-03    -105.735E-03     96.2650E-03
            1763     8.90680E-03     43.1882E-03    -48.6637E+06    -68.3960E+06     17.1205E+06     49.3443E+03    -107.687E-03     213.655E-03    -105.968E-03     99.3818E-03    -108.842E-03     214.345E-03    -105.713E-03     95.9667E-03
            1764     8.09733E-03     43.0799E-03    -54.8684E+06    -95.6103E+06     7.24642E+06     37.5963E+03    -107.651E-03     213.596E-03    -105.945E-03     96.6580E-03    -108.642E-03     214.033E-03    -105.691E-03     93.5240E-03
            1765     7.28773E-03     42.9755E-03    -61.1707E+06    -119.263E+06    -2.54794E+06     74.2065E+03    -107.511E-03     213.431E-03    -105.920E-03     92.1899E-03    -108.334E-03     213.621E-03    -105.672E-03     89.3849E-03
            1766     6.47809E-03     42.8767E-03    -67.8591E+06    -142.151E+06    -12.6405E+06     26.1301E+03    -107.302E-03     213.199E-03    -105.897E-03     86.1889E-03    -107.964E-03     213.152E-03    -105.656E-03     83.7353E-03
            1767     5.66838E-03     42.7852E-03    -74.9919E+06    -163.898E+06    -23.4269E+06    -6.22971E+03    -107.038E-03     212.911E-03    -105.873E-03     78.8215E-03    -107.555E-03     212.649E-03    -105.644E-03     76.7254E-03
            1768     4.85864E-03     42.7024E-03    -82.6376E+06    -184.978E+06    -35.4241E+06     32.3601E+03    -106.740E-03     212.589E-03    -105.848E-03     70.2231E-03    -107.133E-03     212.134E-03    -105.637E-03     68.4789E-03
            1769     4.04887E-03     42.6296E-03    -90.7179E+06    -204.052E+06    -50.0435E+06     28.1887E+03    -106.441E-03     212.254E-03    -105.813E-03     60.5187E-03    -106.729E-03     211.641E-03    -105.636E-03     59.1106E-03
            1770     3.23907E-03     42.5681E-03    -99.0418E+06    -223.932E+06    -66.3497E+06     36.8701E+03    -106.173E-03     211.947E-03    -105.775E-03     49.8471E-03    -106.375E-03     211.195E-03    -105.638E-03     48.7551E-03
            1771     2.42930E-03     42.5189E-03    -107.102E+06    -242.724E+06    -83.8504E+06     53.3459E+03    -105.947E-03     211.678E-03    -105.730E-03     38.3651E-03    -106.081E-03     210.812E-03    -105.642E-03     37.5674E-03
            1772     1.61952E-03     42.4827E-03    -114.083E+06    -256.143E+06    -101.509E+06     55.8770E+03    -105.775E-03     211.450E-03    -105.675E-03     26.3190E-03    -105.860E-03     210.515E-03    -105.646E-03     25.7936E-03
            1773     809.772E-06     42.4603E-03    -119.080E+06    -261.406E+06    -115.448E+06     37.7279E+03    -105.741E-03     211.282E-03    -105.540E-03     14.4609E-03    -105.800E-03     210.325E-03    -105.566E-03     14.1795E-03
            1774     15.3820E-03     42.6857E-03    -4.67958E+06     120.175E+06     94.9372E+06    -398.102E+03    -105.571E-03     211.721E-03    -106.150E-03     22.0368E-03    -106.319E-03     212.604E-03    -105.843E-03     19.2547E-03
            1775     14.5732E-03     42.6444E-03    -10.7889E+06     115.282E+06     84.0949E+06     577.843E+03    -105.680E-03     211.777E-03    -106.096E-03     45.1203E-03    -106.705E-03     212.928E-03    -105.827E-03     41.7365E-03
            1776     13.7636E-03     42.5919E-03    -15.7717E+06     107.294E+06     73.0095E+06    -3.85008E+03    -105.838E-03     211.882E-03    -106.045E-03     58.9451E-03    -106.988E-03     213.146E-03    -105.812E-03     55.4705E-03
            1777     12.9541E-03     42.5198E-03    -21.0492E+06     101.666E+06     64.7824E+06    -402.646E+03    -106.160E-03     212.169E-03    -106.009E-03     72.9179E-03    -107.475E-03     213.582E-03    -105.802E-03     69.2808E-03
            1778     12.1447E-03     42.4352E-03    -26.0900E+06     61.3902E+06     53.5776E+06     165.564E+03    -106.679E-03     212.683E-03    -106.004E-03     83.4522E-03    -108.056E-03     214.030E-03    -105.788E-03     79.7216E-03
            1779     11.3353E-03     42.3392E-03    -30.9789E+06     17.7762E+06     45.7685E+06     140.079E+03    -107.165E-03     213.179E-03    -106.014E-03     91.8887E-03    -108.560E-03     214.394E-03    -105.766E-03     88.1097E-03
            1780     10.5260E-03     42.2350E-03    -36.7575E+06    -11.7350E+06     36.0345E+06    -59.5450E+03    -107.508E-03     213.496E-03    -105.988E-03     97.2527E-03    -108.880E-03     214.591E-03    -105.738E-03     93.5010E-03
            1781     9.71664E-03     42.1264E-03    -42.7696E+06    -43.2473E+06     26.7345E+06     179.157E+03    -107.685E-03     213.650E-03    -105.965E-03     99.5161E-03    -108.968E-03     214.550E-03    -105.706E-03     95.8913E-03
            1782     8.90722E-03     42.0167E-03    -48.7493E+06    -68.2567E+06     17.1670E+06     84.9781E+03    -107.704E-03     213.636E-03    -105.932E-03     99.0852E-03    -108.856E-03     214.322E-03    -105.676E-03     95.6742E-03
            1783     8.09766E-03     41.9086E-03    -54.8195E+06    -95.6033E+06     7.14124E+06     14.4092E+03    -107.644E-03     213.547E-03    -105.903E-03     96.3985E-03    -108.632E-03     213.980E-03    -105.649E-03     93.2692E-03
            1784     7.28807E-03     41.8044E-03    -61.1607E+06    -119.317E+06    -2.81206E+06     29.2891E+03    -107.498E-03     213.371E-03    -105.872E-03     91.9359E-03    -108.319E-03     213.559E-03    -105.625E-03     89.1351E-03
            1785     6.47840E-03     41.7058E-03    -67.8277E+06    -142.064E+06    -13.0172E+06     85.7745E+03    -107.284E-03     213.127E-03    -105.843E-03     85.9224E-03    -107.944E-03     213.079E-03    -105.603E-03     83.4738E-03
            1786     5.66870E-03     41.6144E-03    -74.9926E+06    -163.940E+06    -23.8997E+06     131.460E+03    -107.015E-03     212.827E-03    -105.812E-03     78.5421E-03    -107.530E-03     212.564E-03    -105.585E-03     76.4514E-03
            1787     4.85895E-03     41.5318E-03    -82.7108E+06    -184.962E+06    -35.8819E+06     168.455E+03    -106.709E-03     212.489E-03    -105.780E-03     69.9537E-03    -107.100E-03     212.034E-03    -105.572E-03     68.2142E-03
            1788     4.04916E-03     41.4592E-03    -90.7992E+06    -204.010E+06    -50.3060E+06     190.955E+03    -106.395E-03     212.134E-03    -105.739E-03     60.2845E-03    -106.683E-03     211.521E-03    -105.563E-03     58.8810E-03
            1789     3.23934E-03     41.3978E-03    -99.0276E+06    -223.887E+06    -66.3803E+06     202.672E+03    -106.110E-03     211.806E-03    -105.696E-03     49.6544E-03    -106.312E-03     211.054E-03    -105.559E-03     48.5667E-03
            1790     2.42950E-03     41.3487E-03    -107.038E+06    -242.607E+06    -83.8482E+06     170.547E+03    -105.872E-03     211.519E-03    -105.647E-03     38.2166E-03    -106.005E-03     210.653E-03    -105.559E-03     37.4222E-03
            1791     1.61967E-03     41.3126E-03    -114.113E+06    -256.027E+06    -101.498E+06     105.719E+03    -105.691E-03     211.280E-03    -105.588E-03     26.2210E-03    -105.776E-03     210.345E-03    -105.559E-03     25.6975E-03
            1792     809.830E-06     41.2902E-03    -119.247E+06    -261.327E+06    -115.343E+06     50.2622E+03    -105.652E-03     211.106E-03    -105.453E-03     14.4103E-03    -105.713E-03     210.150E-03    -105.478E-03     14.1298E-03
            1793     15.3830E-03     41.5126E-03    -5.08270E+06     120.166E+06     94.3310E+06    -28.4698E+03    -105.645E-03     211.803E-03    -106.158E-03     21.9197E-03    -106.392E-03     212.685E-03    -105.853E-03     19.1465E-03
            1794     14.5730E-03     41.4723E-03    -10.2694E+06     115.757E+06     83.4320E+06    -119.633E+03    -105.550E-03     211.654E-03    -106.104E-03     44.9686E-03    -106.570E-03     212.806E-03    -105.839E-03     41.5786E-03
            1795     13.7636E-03     41.4192E-03    -15.2007E+06     107.455E+06     72.6250E+06    -393.381E+03    -105.973E-03     212.027E-03    -106.054E-03     58.6112E-03    -107.119E-03     213.290E-03    -105.825E-03     55.1189E-03
            1796     12.9542E-03     41.3475E-03    -20.3254E+06     101.499E+06     65.2129E+06    -177.606E+03    -106.361E-03     212.374E-03    -106.012E-03     72.5572E-03    -107.671E-03     213.783E-03    -105.804E-03     68.9145E-03
            1797     12.1448E-03     41.2628E-03    -25.7626E+06     61.0502E+06     53.5966E+06    -227.412E+03    -106.845E-03     212.839E-03    -105.994E-03     83.0595E-03    -108.218E-03     214.181E-03    -105.777E-03     79.3173E-03
            1798     11.3357E-03     41.1670E-03    -31.3012E+06     17.6798E+06     45.8748E+06     216.333E+03    -107.274E-03     213.266E-03    -105.993E-03     91.5420E-03    -108.667E-03     214.478E-03    -105.743E-03     87.7624E-03
            1799     10.5264E-03     41.0629E-03    -37.1795E+06    -11.6231E+06     35.9567E+06     463.383E+03    -107.547E-03     213.504E-03    -105.957E-03     96.9726E-03    -108.917E-03     214.596E-03    -105.707E-03     93.2312E-03
            1800     9.71704E-03     40.9546E-03    -43.0750E+06    -43.1239E+06     26.3620E+06     150.224E+03    -107.705E-03     213.631E-03    -105.926E-03     99.2604E-03    -108.985E-03     214.529E-03    -105.669E-03     95.6402E-03
            1801     8.90755E-03     40.8452E-03    -48.8551E+06    -68.0949E+06     16.7418E+06     121.392E+03    -107.725E-03     213.611E-03    -105.886E-03     98.8199E-03    -108.874E-03     214.296E-03    -105.633E-03     95.4145E-03
            1802     8.09806E-03     40.7374E-03    -54.9835E+06    -95.5318E+06     6.48482E+06     77.1528E+03    -107.664E-03     213.512E-03    -105.848E-03     96.0938E-03    -108.648E-03     213.944E-03    -105.598E-03     92.9699E-03
            1803     7.28848E-03     40.6334E-03    -61.4104E+06    -119.420E+06    -3.51195E+06     110.150E+03    -107.511E-03     213.320E-03    -105.809E-03     91.5898E-03    -108.329E-03     213.506E-03    -105.564E-03     88.7939E-03
            1804     6.47886E-03     40.5350E-03    -68.2040E+06    -142.114E+06    -13.6146E+06     228.166E+03    -107.277E-03     213.047E-03    -105.770E-03     85.5681E-03    -107.935E-03     212.998E-03    -105.533E-03     83.1251E-03
            1805     5.66916E-03     40.4438E-03    -75.4374E+06    -163.920E+06    -24.3600E+06     299.343E+03    -106.983E-03     212.714E-03    -105.731E-03     78.2098E-03    -107.498E-03     212.450E-03    -105.505E-03     76.1252E-03
            1806     4.85939E-03     40.3614E-03    -83.0602E+06    -184.840E+06    -36.2121E+06     268.269E+03    -106.658E-03     212.349E-03    -105.690E-03     69.6594E-03    -107.049E-03     211.894E-03    -105.483E-03     67.9251E-03
            1807     4.04956E-03     40.2889E-03    -90.9897E+06    -203.943E+06    -50.5129E+06     202.403E+03    -106.326E-03     211.967E-03    -105.641E-03     60.0389E-03    -106.613E-03     211.354E-03    -105.466E-03     58.6391E-03
            1808     3.23968E-03     40.2277E-03    -99.0505E+06    -223.838E+06    -66.4020E+06     218.993E+03    -106.021E-03     211.614E-03    -105.593E-03     49.4579E-03    -106.222E-03     210.861E-03    -105.457E-03     48.3736E-03
            1809     2.42977E-03     40.1787E-03    -106.972E+06    -242.396E+06    -83.6974E+06     203.592E+03    -105.769E-03     211.309E-03    -105.541E-03     38.0680E-03    -105.902E-03     210.445E-03    -105.452E-03     37.2767E-03
            1810     1.61984E-03     40.1427E-03    -114.014E+06    -255.853E+06    -101.363E+06     144.836E+03    -105.583E-03     211.064E-03    -105.481E-03     26.1214E-03    -105.668E-03     210.130E-03    -105.451E-03     25.6003E-03
            1811     809.929E-06     40.1204E-03    -119.014E+06    -261.165E+06    -115.319E+06     17.0788E+03    -105.541E-03     210.889E-03    -105.348E-03     14.3557E-03    -105.600E-03     209.933E-03    -105.373E-03     14.0758E-03
            1812     15.3822E-03     40.3411E-03    -5.47176E+06     120.224E+06     94.3751E+06    -248.510E+03    -105.696E-03     211.866E-03    -106.169E-03     21.3011E-03    -106.445E-03     212.748E-03    -105.864E-03     18.5144E-03
            1813     14.5727E-03     40.2993E-03    -10.4527E+06     115.717E+06     83.1038E+06    -370.163E+03    -105.675E-03     211.784E-03    -106.109E-03     45.0786E-03    -106.693E-03     212.935E-03    -105.846E-03     41.6882E-03
            1814     13.7635E-03     40.2466E-03    -15.4912E+06     107.282E+06     72.2122E+06    -404.951E+03    -106.142E-03     212.193E-03    -106.051E-03     58.3512E-03    -107.287E-03     213.454E-03    -105.823E-03     54.8532E-03
            1815     12.9543E-03     40.1747E-03    -20.8968E+06     101.143E+06     64.6339E+06    -161.578E+03    -106.499E-03     212.497E-03    -105.999E-03     72.3270E-03    -107.807E-03     213.903E-03    -105.792E-03     68.6833E-03
            1816     12.1453E-03     40.0903E-03    -26.5592E+06     60.8685E+06     52.6052E+06     503.434E+03    -106.945E-03     212.914E-03    -105.969E-03     82.8725E-03    -108.316E-03     214.254E-03    -105.756E-03     79.1423E-03
            1817     11.3360E-03     39.9947E-03    -32.5705E+06     17.5067E+06     44.6180E+06     598.864E+03    -107.335E-03     213.294E-03    -105.959E-03     91.3330E-03    -108.728E-03     214.504E-03    -105.714E-03     87.5627E-03
            1818     10.5267E-03     39.8909E-03    -38.1358E+06    -11.1313E+06     34.8681E+06     234.984E+03    -107.580E-03     213.496E-03    -105.916E-03     96.7098E-03    -108.949E-03     214.590E-03    -105.671E-03     92.9712E-03
            1819     9.71735E-03     39.7829E-03    -43.6410E+06    -43.0230E+06     25.3193E+06     96.1181E+03    -107.743E-03     213.621E-03    -105.878E-03     98.9169E-03    -109.021E-03     214.517E-03    -105.626E-03     95.3006E-03
            1820     8.90802E-03     39.6737E-03    -49.6947E+06    -68.1837E+06     15.8275E+06     147.791E+03    -107.780E-03     213.609E-03    -105.829E-03     98.4203E-03    -108.927E-03     214.292E-03    -105.579E-03     95.0178E-03
            1821     8.09857E-03     39.5661E-03    -55.8480E+06    -95.3178E+06     5.87840E+06     190.206E+03    -107.709E-03     213.489E-03    -105.780E-03     95.6850E-03    -108.694E-03     213.920E-03    -105.532E-03     92.5654E-03
            1822     7.28909E-03     39.4624E-03    -62.2243E+06    -119.532E+06    -4.06669E+06     164.240E+03    -107.527E-03     213.255E-03    -105.728E-03     91.1864E-03    -108.345E-03     213.440E-03    -105.485E-03     88.3953E-03
            1823     6.47947E-03     39.3642E-03    -68.8794E+06    -142.160E+06    -13.9410E+06     229.339E+03    -107.258E-03     212.935E-03    -105.677E-03     85.1873E-03    -107.916E-03     212.885E-03    -105.441E-03     82.7495E-03
            1824     5.66975E-03     39.2734E-03    -75.8372E+06    -163.837E+06    -24.5152E+06     221.573E+03    -106.933E-03     212.561E-03    -105.628E-03     77.8682E-03    -107.448E-03     212.296E-03    -105.403E-03     75.7881E-03
            1825     4.85993E-03     39.1911E-03    -83.2383E+06    -184.627E+06    -36.2964E+06     130.431E+03    -106.583E-03     212.161E-03    -105.579E-03     69.3581E-03    -106.973E-03     211.706E-03    -105.372E-03     67.6274E-03
            1826     4.05004E-03     39.1189E-03    -91.0570E+06    -203.877E+06    -50.3927E+06     53.0752E+03    -106.232E-03     211.755E-03    -105.523E-03     59.7796E-03    -106.518E-03     211.141E-03    -105.348E-03     58.3828E-03
            1827     3.24008E-03     39.0578E-03    -99.0838E+06    -223.850E+06    -66.2348E+06     50.9232E+03    -105.911E-03     211.380E-03    -105.469E-03     49.2452E-03    -106.111E-03     210.626E-03    -105.332E-03     48.1628E-03
            1828     2.43007E-03     39.0090E-03    -106.917E+06    -242.308E+06    -83.6495E+06     101.357E+03    -105.647E-03     211.059E-03    -105.412E-03     37.9073E-03    -105.779E-03     210.194E-03    -105.324E-03     37.1177E-03
            1829     1.62006E-03     38.9731E-03    -113.845E+06    -255.707E+06    -101.200E+06     96.1049E+03    -105.455E-03     210.805E-03    -105.350E-03     26.0100E-03    -105.539E-03     209.871E-03    -105.320E-03     25.4904E-03
            1830     810.024E-06     38.9508E-03    -118.858E+06    -260.953E+06    -115.058E+06     48.0174E+03    -105.409E-03     210.624E-03    -105.216E-03     14.2910E-03    -105.468E-03     209.669E-03    -105.240E-03     14.0126E-03
            1831     15.3822E-03     39.1682E-03    -5.19580E+06     120.478E+06     94.6610E+06    -132.562E+03    -105.780E-03     211.956E-03    -106.176E-03     20.8966E-03    -106.527E-03     212.838E-03    -105.870E-03     18.0971E-03
            1832     14.5730E-03     39.1266E-03    -10.8129E+06     115.869E+06     83.0038E+06    -349.513E+03    -105.878E-03     211.986E-03    -106.107E-03     45.0066E-03    -106.896E-03     213.136E-03    -105.845E-03     41.6176E-03
            1833     13.7639E-03     39.0736E-03    -16.2469E+06     106.892E+06     70.8696E+06    -66.6323E+03    -106.236E-03     212.272E-03    -106.036E-03     58.2596E-03    -107.379E-03     213.531E-03    -105.813E-03     54.7700E-03
            1834     12.9547E-03     39.0022E-03    -22.2800E+06     100.165E+06     62.2387E+06     966.205E+03    -106.594E-03     212.567E-03    -105.973E-03     72.1458E-03    -107.901E-03     213.970E-03    -105.775E-03     68.5189E-03
            1835     12.1453E-03     38.9177E-03    -28.4308E+06     60.9966E+06     50.6808E+06     1.19126E+06    -107.031E-03     212.968E-03    -105.937E-03     82.6235E-03    -108.404E-03     214.310E-03    -105.731E-03     78.9055E-03
            1836     11.3363E-03     38.8224E-03    -33.6496E+06     18.7092E+06     43.7186E+06     314.870E+03    -107.429E-03     213.350E-03    -105.920E-03     90.9437E-03    -108.824E-03     214.564E-03    -105.680E-03     87.1703E-03
            1837     10.5272E-03     38.7189E-03    -38.8978E+06    -11.1346E+06     34.1419E+06    -113.778E+03    -107.675E-03     213.543E-03    -105.868E-03     96.2584E-03    -109.042E-03     214.633E-03    -105.625E-03     92.5163E-03
            1838     9.71798E-03     38.6111E-03    -44.6414E+06    -43.0385E+06     24.7087E+06     77.6523E+03    -107.815E-03     213.633E-03    -105.818E-03     98.4464E-03    -109.092E-03     214.526E-03    -105.567E-03     94.8327E-03
            1839     8.90864E-03     38.5022E-03    -50.3971E+06    -68.1327E+06     15.5140E+06     15.0848E+03    -107.825E-03     213.581E-03    -105.757E-03     97.9560E-03    -108.971E-03     214.262E-03    -105.507E-03     94.5555E-03
            1840     8.09930E-03     38.3949E-03    -56.2916E+06    -95.4339E+06     5.84751E+06     39.9140E+03    -107.733E-03     213.429E-03    -105.696E-03     95.2421E-03    -108.716E-03     213.856E-03    -105.446E-03     92.1253E-03
            1841     7.28979E-03     38.2915E-03    -62.5007E+06    -119.428E+06    -3.98175E+06     114.607E+03    -107.524E-03     213.155E-03    -105.630E-03     90.7626E-03    -108.340E-03     213.336E-03    -105.386E-03     87.9773E-03
            1842     6.48019E-03     38.1937E-03    -69.0293E+06    -142.098E+06    -13.9173E+06    -38.2878E+03    -107.227E-03     212.794E-03    -105.567E-03     84.7855E-03    -107.884E-03     212.741E-03    -105.330E-03     82.3514E-03
            1843     5.67045E-03     38.1031E-03    -75.8921E+06    -163.790E+06    -24.4719E+06    -111.070E+03    -106.873E-03     212.378E-03    -105.505E-03     77.4933E-03    -107.385E-03     212.111E-03    -105.280E-03     75.4159E-03
            1844     4.86058E-03     38.0211E-03    -83.2625E+06    -184.565E+06    -36.2732E+06    -102.639E+03    -106.493E-03     211.938E-03    -105.446E-03     69.0160E-03    -106.881E-03     211.481E-03    -105.239E-03     67.2889E-03
            1845     4.05061E-03     37.9491E-03    -91.1397E+06    -203.837E+06    -50.3879E+06    -104.911E+03    -106.118E-03     211.500E-03    -105.382E-03     59.4759E-03    -106.404E-03     210.885E-03    -105.206E-03     58.0830E-03
            1846     3.24056E-03     37.8883E-03    -99.2757E+06    -223.887E+06    -66.2124E+06    -122.534E+03    -105.781E-03     211.102E-03    -105.321E-03     48.9880E-03    -105.982E-03     210.347E-03    -105.183E-03     47.9083E-03
            1847     2.43045E-03     37.8396E-03    -107.263E+06    -242.439E+06    -83.7025E+06    -72.8085E+03    -105.504E-03     210.761E-03    -105.257E-03     37.7114E-03    -105.637E-03     209.895E-03    -105.169E-03     36.9233E-03
            1848     1.62031E-03     37.8039E-03    -114.328E+06    -255.600E+06    -101.552E+06     9.41037E+03    -105.299E-03     210.488E-03    -105.188E-03     25.8754E-03    -105.385E-03     209.555E-03    -105.159E-03     25.3572E-03
            1849     810.168E-06     37.7816E-03    -119.424E+06    -260.923E+06    -115.586E+06    -30.9465E+03    -105.244E-03     210.294E-03    -105.050E-03     14.2175E-03    -105.306E-03     209.341E-03    -105.076E-03     13.9395E-03
            1850     15.3821E-03     37.9950E-03    -5.04737E+06     120.601E+06     94.1800E+06     197.173E+03    -105.912E-03     212.090E-03    -106.178E-03     20.8039E-03    -106.657E-03     212.972E-03    -105.874E-03     18.0043E-03
            1851     14.5729E-03     37.9538E-03    -10.6390E+06     116.036E+06     83.0255E+06     474.370E+03    -106.007E-03     212.111E-03    -106.104E-03     45.1038E-03    -107.022E-03     213.259E-03    -105.842E-03     41.7310E-03
            1852     13.7638E-03     37.9006E-03    -17.4087E+06      105.43E+06     69.2254E+06     1.21019E+06    -106.394E-03     212.414E-03    -106.020E-03     58.2173E-03    -107.534E-03     213.666E-03    -105.802E-03     54.7502E-03
            1853     12.9548E-03     37.8293E-03    -23.3149E+06     99.6260E+06     61.0317E+06     1.83335E+06    -106.768E-03     212.715E-03    -105.947E-03     71.8182E-03    -108.074E-03     214.115E-03    -105.752E-03     68.2008E-03
            1854     12.1459E-03     37.7451E-03    -28.0083E+06     62.8569E+06     51.4247E+06     881.987E+03    -107.176E-03     213.078E-03    -105.902E-03     82.1927E-03    -108.546E-03     214.423E-03    -105.695E-03     78.4689E-03
            1855     11.3369E-03     37.6499E-03    -33.0965E+06     19.4632E+06     44.1622E+06    -64.3306E+03    -107.541E-03     213.413E-03    -105.872E-03     90.4569E-03    -108.930E-03     214.625E-03    -105.631E-03     86.6778E-03
            1856     10.5279E-03     37.5468E-03    -38.7053E+06    -11.4110E+06     34.5563E+06     88.6419E+03    -107.779E-03     213.586E-03    -105.808E-03     95.7687E-03    -109.140E-03     214.669E-03    -105.562E-03     92.0308E-03
            1857     9.71871E-03     37.4393E-03    -44.3781E+06    -42.7506E+06     25.1924E+06     14.7163E+03    -107.887E-03     213.629E-03    -105.742E-03     97.9759E-03    -109.157E-03     214.517E-03    -105.490E-03     94.3659E-03
            1858     8.90950E-03     37.3307E-03    -50.0682E+06    -67.9287E+06     15.8865E+06    -236.109E+03    -107.857E-03     213.524E-03    -105.667E-03     97.5064E-03    -108.997E-03     214.199E-03    -105.417E-03     94.1095E-03
            1859     8.10011E-03     37.2238E-03    -55.9722E+06    -95.7592E+06     6.09180E+06    -217.280E+03    -107.738E-03     213.331E-03    -105.594E-03     94.7856E-03    -108.714E-03     213.751E-03    -105.343E-03     91.6732E-03
            1860     7.29065E-03     37.1207E-03    -62.0610E+06    -119.365E+06    -3.57004E+06    -124.305E+03    -107.507E-03     213.023E-03    -105.515E-03     90.2961E-03    -108.317E-03     213.198E-03    -105.270E-03     87.5161E-03
            1861     6.48102E-03     37.0233E-03    -68.5441E+06    -141.834E+06    -13.4924E+06    -220.547E+03    -107.187E-03     212.625E-03    -105.438E-03     84.3339E-03    -107.838E-03     212.568E-03    -105.201E-03     81.9058E-03
            1862     5.67126E-03     36.9330E-03    -75.5705E+06    -163.899E+06    -24.1868E+06    -315.143E+03    -106.807E-03     212.171E-03    -105.364E-03     77.0701E-03    -107.316E-03     211.899E-03    -105.137E-03     74.9981E-03
            1863     4.86135E-03     36.8514E-03    -83.1109E+06    -184.688E+06    -36.0220E+06    -222.786E+03    -106.397E-03     211.688E-03    -105.291E-03     68.6300E-03    -106.783E-03     211.228E-03    -105.083E-03     66.9088E-03
            1864     4.05129E-03     36.7797E-03    -91.1034E+06    -203.894E+06    -50.3516E+06    -128.061E+03    -105.993E-03     211.209E-03    -105.215E-03     59.1354E-03    -106.277E-03     210.591E-03    -105.039E-03     57.7487E-03
            1865     3.24114E-03     36.7191E-03    -99.3755E+06    -223.869E+06    -66.2921E+06    -112.319E+03    -105.633E-03     210.777E-03    -105.144E-03     48.7005E-03    -105.833E-03     210.021E-03    -105.006E-03     47.6265E-03
            1866     2.43091E-03     36.6706E-03    -107.554E+06    -242.624E+06    -83.7526E+06    -101.141E+03    -105.337E-03     210.409E-03    -105.072E-03     37.4888E-03    -105.471E-03     209.542E-03    -104.983E-03     36.7046E-03
            1867     1.62064E-03     36.6350E-03    -114.776E+06    -255.624E+06    -101.898E+06    -35.8225E+03    -105.114E-03     210.109E-03    -104.995E-03     25.7231E-03    -105.201E-03     209.177E-03    -104.967E-03     25.2072E-03
            1868     810.319E-06     36.6128E-03    -119.849E+06    -260.963E+06    -116.164E+06         654.066    -105.047E-03     209.899E-03    -104.852E-03     14.1337E-03    -105.110E-03     208.947E-03    -104.881E-03     13.8578E-03
            1869     15.3820E-03     36.8221E-03    -5.60394E+06     119.768E+06     93.2678E+06     751.543E+03    -106.093E-03     212.275E-03    -106.182E-03     20.8041E-03    -106.838E-03     213.155E-03    -105.882E-03     18.0092E-03
            1870     14.5729E-03     36.7806E-03    -11.8836E+06     114.866E+06     82.8461E+06     2.01641E+06    -106.254E-03     212.356E-03    -106.102E-03     44.9067E-03    -107.270E-03     213.498E-03    -105.837E-03     41.5524E-03
            1871     13.7641E-03     36.7275E-03    -17.4219E+06     105.238E+06     71.0096E+06     2.48909E+06    -106.644E-03     212.654E-03    -106.009E-03     57.8452E-03    -107.784E-03     213.899E-03    -105.782E-03     54.3914E-03
            1872     12.9554E-03     36.6562E-03    -22.5153E+06     101.157E+06     63.0149E+06     1.11581E+06    -106.948E-03     212.866E-03    -105.918E-03     71.3868E-03    -108.251E-03     214.265E-03    -105.717E-03     67.7560E-03
            1873     12.1465E-03     36.5723E-03    -27.3649E+06     64.2115E+06     52.7878E+06     106.805E+03    -107.305E-03     213.161E-03    -105.856E-03     81.8003E-03    -108.671E-03     214.505E-03    -105.646E-03     78.0662E-03
            1874     11.3376E-03     36.4775E-03    -32.3822E+06     19.5190E+06     44.8660E+06     156.117E+03    -107.657E-03     213.468E-03    -105.812E-03     90.0458E-03    -109.037E-03     214.673E-03    -105.569E-03     86.2722E-03
            1875     10.5286E-03     36.3746E-03    -37.8529E+06    -11.4087E+06     35.2481E+06     86.9098E+03    -107.869E-03     213.602E-03    -105.733E-03     95.3081E-03    -109.220E-03     214.676E-03    -105.486E-03     91.5749E-03
            1876     9.71963E-03     36.2676E-03    -43.3560E+06    -42.3658E+06     26.0176E+06    -60.7186E+03    -107.951E-03     213.605E-03    -105.654E-03     97.4989E-03    -109.212E-03     214.486E-03    -105.399E-03     93.8942E-03
            1877     8.91040E-03     36.1593E-03    -49.2125E+06    -67.7054E+06     16.5346E+06    -252.663E+03    -107.901E-03     213.465E-03    -105.564E-03     97.0204E-03    -109.032E-03     214.133E-03    -105.311E-03     93.6308E-03
            1878     8.10111E-03     36.0528E-03    -55.2315E+06    -95.9131E+06     6.59170E+06    -355.183E+03    -107.750E-03     213.224E-03    -105.475E-03     94.2729E-03    -108.717E-03     213.636E-03    -105.222E-03     91.1674E-03
            1879     7.29163E-03     35.9501E-03    -61.4557E+06    -119.441E+06    -3.10461E+06    -323.302E+03    -107.478E-03     212.859E-03    -105.381E-03     89.7719E-03    -108.280E-03     213.029E-03    -105.135E-03     86.9988E-03
            1880     6.48200E-03     35.8531E-03    -68.0599E+06    -141.733E+06    -12.9932E+06    -280.419E+03    -107.127E-03     212.417E-03    -105.290E-03     83.8306E-03    -107.772E-03     212.356E-03    -105.051E-03     81.4113E-03
            1881     5.67219E-03     35.7632E-03    -75.1722E+06    -163.953E+06    -23.7430E+06    -266.614E+03    -106.726E-03     211.927E-03    -105.202E-03     76.5983E-03    -107.229E-03     211.651E-03    -104.974E-03     74.5360E-03
            1882     4.86221E-03     35.6820E-03    -82.8425E+06    -184.954E+06    -35.6411E+06    -186.219E+03    -106.290E-03     211.406E-03    -105.115E-03     68.2003E-03    -106.673E-03     210.941E-03    -104.905E-03     66.4879E-03
            1883     4.05208E-03     35.6106E-03    -90.9053E+06    -203.987E+06    -50.1728E+06    -44.6974E+03    -105.856E-03     210.881E-03    -105.025E-03     58.7624E-03    -106.138E-03     210.261E-03    -104.848E-03     57.3842E-03
            1884     3.24180E-03     35.5503E-03    -99.1334E+06    -223.860E+06    -66.2850E+06     5.29700E+03    -105.468E-03     210.407E-03    -104.940E-03     48.3906E-03    -105.665E-03     209.651E-03    -104.803E-03     47.3243E-03
            1885     2.43144E-03     35.5020E-03    -107.186E+06    -242.607E+06    -83.7148E+06    -27.6977E+03    -105.147E-03     210.005E-03    -104.858E-03     37.2451E-03    -105.279E-03     209.137E-03    -104.769E-03     36.4667E-03
            1886     1.62099E-03     35.4666E-03    -114.276E+06    -255.762E+06    -101.518E+06    -63.0625E+03    -104.905E-03     209.679E-03    -104.774E-03     25.5543E-03    -104.990E-03     208.745E-03    -104.745E-03     25.0415E-03
            1887     810.513E-06     35.4445E-03    -119.330E+06    -260.951E+06    -115.499E+06     29.6891E+03    -104.827E-03     209.452E-03    -104.625E-03     14.0401E-03    -104.887E-03     208.498E-03    -104.651E-03     13.7664E-03
            1888     15.3818E-03     35.6485E-03    -4.74179E+06     117.223E+06     92.6271E+06     1.47784E+06    -106.542E-03     212.730E-03    -106.189E-03     20.6689E-03    -107.277E-03     213.596E-03    -105.889E-03     17.8776E-03
            1889     14.5733E-03     35.6072E-03    -9.98100E+06     113.532E+06     85.3704E+06     3.04708E+06    -106.639E-03     212.738E-03    -106.099E-03     44.6523E-03    -107.645E-03     213.864E-03    -105.822E-03     41.3059E-03
            1890     13.7646E-03     35.5539E-03    -15.4832E+06     107.356E+06     75.0117E+06     2.34800E+06    -106.841E-03     212.831E-03    -105.990E-03     57.5450E-03    -107.976E-03     214.075E-03    -105.748E-03     54.0874E-03
            1891     12.9560E-03     35.4831E-03    -20.6256E+06     103.335E+06     64.5770E+06     1.01369E+06    -107.076E-03     212.950E-03    -105.874E-03     71.0604E-03    -108.370E-03     214.350E-03    -105.671E-03     67.4286E-03
            1892     12.1472E-03     35.3994E-03    -26.1104E+06     64.7848E+06     53.5270E+06     321.954E+03    -107.439E-03     213.238E-03    -105.799E-03     81.4141E-03    -108.796E-03     214.577E-03    -105.588E-03     77.6846E-03
            1893     11.3384E-03     35.3049E-03    -31.7783E+06     19.4665E+06     45.4088E+06    -15.3132E+03    -107.781E-03     213.522E-03    -105.741E-03     89.5922E-03    -109.152E-03     214.718E-03    -105.496E-03     85.8200E-03
            1894     10.5296E-03     35.2025E-03    -37.0870E+06    -11.1228E+06     35.8948E+06    -71.8876E+03    -107.964E-03     213.611E-03    -105.647E-03     94.8046E-03    -109.305E-03     214.678E-03    -105.398E-03     91.0752E-03
            1895     9.72059E-03     35.0958E-03    -42.6628E+06    -42.3009E+06     26.5957E+06    -179.816E+03    -108.028E-03     213.579E-03    -105.552E-03     96.9682E-03    -109.279E-03     214.452E-03    -105.296E-03     93.3688E-03
            1896     8.91151E-03     34.9880E-03    -48.4095E+06    -67.4942E+06     17.1818E+06    -221.477E+03    -107.957E-03     213.401E-03    -105.444E-03     96.4587E-03    -109.078E-03     214.061E-03    -105.190E-03     93.0777E-03
            1897     8.10223E-03     34.8819E-03    -54.4504E+06    -95.9168E+06     7.16211E+06    -258.364E+03    -107.763E-03     213.100E-03    -105.337E-03     93.6836E-03    -108.721E-03     213.504E-03    -105.083E-03     90.5893E-03
            1898     7.29279E-03     34.7797E-03    -60.8722E+06    -119.521E+06    -2.64548E+06    -232.737E+03    -107.444E-03     212.671E-03    -105.227E-03     89.1856E-03    -108.239E-03     212.833E-03    -104.978E-03     86.4246E-03
            1899     6.48311E-03     34.6831E-03    -67.6587E+06    -141.781E+06    -12.5863E+06    -186.761E+03    -107.054E-03     212.174E-03    -105.120E-03     83.2622E-03    -107.693E-03     212.106E-03    -104.879E-03     80.8551E-03
            1900     5.67324E-03     34.5937E-03    -74.8769E+06    -164.005E+06    -23.3555E+06    -131.597E+03    -106.620E-03     211.636E-03    -105.017E-03     76.0599E-03    -107.118E-03     211.355E-03    -104.787E-03     74.0100E-03
            1901     4.86319E-03     34.5129E-03    -82.5932E+06    -185.160E+06    -35.2921E+06    -28.8483E+03    -106.158E-03     211.074E-03    -104.916E-03     67.7101E-03    -106.536E-03     210.604E-03    -104.704E-03     66.0097E-03
            1902     4.05295E-03     34.4420E-03    -90.6969E+06    -204.065E+06    -50.0255E+06     59.3684E+03    -105.698E-03     210.508E-03    -104.810E-03     58.3403E-03    -105.977E-03     209.885E-03    -104.633E-03     56.9720E-03
            1903     3.24255E-03     34.3820E-03    -98.8686E+06    -223.793E+06    -66.3714E+06     69.7775E+03    -105.280E-03     209.991E-03    -104.711E-03     48.0455E-03    -105.475E-03     209.233E-03    -104.575E-03     46.9869E-03
            1904     2.43202E-03     34.3340E-03    -106.781E+06    -242.488E+06    -83.7317E+06     12.1591E+03    -104.933E-03     209.551E-03    -104.618E-03     36.9792E-03    -105.062E-03     208.683E-03    -104.530E-03     36.2066E-03
            1905     1.62140E-03     34.2987E-03    -113.787E+06    -255.820E+06    -101.248E+06    -41.9981E+03    -104.672E-03     209.200E-03    -104.528E-03     25.3737E-03    -104.754E-03     208.264E-03    -104.498E-03     24.8647E-03
            1906     810.719E-06     34.2768E-03    -118.841E+06    -260.998E+06    -115.050E+06    -44.5932E+03    -104.582E-03     208.954E-03    -104.372E-03     13.9439E-03    -104.640E-03     207.998E-03    -104.397E-03     13.6711E-03
            1907     15.3817E-03     34.4742E-03    -4.24856E+06     114.639E+06     91.2227E+06     590.701E+03    -106.899E-03     213.082E-03    -106.182E-03     20.4492E-03    -107.625E-03     213.934E-03    -105.886E-03     17.6395E-03
            1908     14.5736E-03     34.4331E-03    -7.93782E+06     111.902E+06     86.1997E+06     2.00724E+06    -106.957E-03     213.038E-03    -106.081E-03     44.4016E-03    -107.950E-03     214.150E-03    -105.801E-03     41.0340E-03
            1909     13.7652E-03     34.3804E-03    -12.4195E+06     109.354E+06     78.1009E+06     2.78556E+06    -107.048E-03     213.009E-03    -105.961E-03     57.2399E-03    -108.171E-03     214.250E-03    -105.711E-03     53.7846E-03
            1910     12.9566E-03     34.3098E-03    -18.5905E+06     105.038E+06     66.3112E+06     1.96455E+06    -107.246E-03     213.072E-03    -105.826E-03     70.6761E-03    -108.530E-03     214.470E-03    -105.619E-03     67.0565E-03
            1911     12.1480E-03     34.2264E-03    -24.5998E+06     65.8433E+06     54.7536E+06     1.00531E+06    -107.602E-03     213.337E-03    -105.735E-03     80.9631E-03    -108.948E-03     214.670E-03    -105.521E-03     77.2440E-03
            1912     11.3394E-03     34.1323E-03    -30.1668E+06     20.0683E+06     46.4809E+06     354.982E+03    -107.918E-03     213.578E-03    -105.660E-03     89.0771E-03    -109.276E-03     214.766E-03    -105.413E-03     85.3139E-03
            1913     10.5306E-03     34.0303E-03    -36.0112E+06    -10.9673E+06     36.5990E+06    -33.0727E+03    -108.081E-03     213.629E-03    -105.549E-03     94.2227E-03    -109.410E-03     214.686E-03    -105.298E-03     90.4998E-03
            1914     9.72178E-03     33.9241E-03    -41.6853E+06    -42.1963E+06     27.2133E+06    -40.6384E+03    -108.121E-03     213.555E-03    -105.434E-03     96.3599E-03    -109.361E-03     214.418E-03    -105.176E-03     92.7701E-03
            1915     8.91273E-03     33.8167E-03    -47.6265E+06    -67.4251E+06     17.6955E+06    -28.6237E+03    -108.005E-03     213.311E-03    -105.306E-03     95.8215E-03    -109.116E-03     213.962E-03    -105.051E-03     92.4532E-03
            1916     8.10352E-03     33.7112E-03    -53.8856E+06    -95.9017E+06     7.57469E+06     34.4740E+03    -107.764E-03     212.944E-03    -105.180E-03     93.0285E-03    -108.713E-03     213.339E-03    -104.925E-03     89.9498E-03
            1917     7.29407E-03     33.6095E-03    -60.3995E+06    -119.526E+06    -2.27372E+06     85.9334E+03    -107.409E-03     212.460E-03    -105.052E-03     88.5449E-03    -108.195E-03     212.614E-03    -104.802E-03     85.8002E-03
            1918     6.48439E-03     33.5135E-03    -67.2832E+06    -141.725E+06    -12.2597E+06     84.0143E+03    -106.978E-03     211.904E-03    -104.926E-03     82.6431E-03    -107.611E-03     211.831E-03    -104.685E-03     80.2519E-03
            1919     5.67446E-03     33.4246E-03    -74.5884E+06    -164.053E+06    -23.0745E+06     95.8472E+03    -106.499E-03     211.305E-03    -104.806E-03     75.4673E-03    -106.992E-03     211.018E-03    -104.575E-03     73.4325E-03
            1920     4.86429E-03     33.3443E-03    -82.3643E+06    -185.240E+06    -35.0274E+06     163.901E+03    -105.999E-03     210.689E-03    -104.690E-03     67.1623E-03    -106.373E-03     210.215E-03    -104.477E-03     65.4756E-03
            1921     4.05392E-03     33.2737E-03    -90.4654E+06    -204.000E+06    -49.7927E+06     180.646E+03    -105.508E-03     210.078E-03    -104.570E-03     57.8554E-03    -105.784E-03     209.453E-03    -104.392E-03     56.4985E-03
            1922     3.24337E-03     33.2141E-03    -98.6453E+06    -223.657E+06    -66.1524E+06     125.014E+03    -105.061E-03     209.520E-03    -104.459E-03     47.6433E-03    -105.254E-03     208.760E-03    -104.322E-03     46.5936E-03
            1923     2.43266E-03     33.1665E-03    -106.619E+06    -242.402E+06    -83.5746E+06     101.965E+03    -104.688E-03     209.045E-03    -104.356E-03     36.6745E-03    -104.816E-03     208.175E-03    -104.268E-03     35.9091E-03
            1924     1.62183E-03     33.1315E-03    -113.682E+06    -255.737E+06    -101.256E+06     91.4292E+03    -104.411E-03     208.670E-03    -104.259E-03     25.1676E-03    -104.492E-03     207.733E-03    -104.230E-03     24.6644E-03
            1925     810.938E-06     33.1097E-03    -118.783E+06    -261.007E+06    -115.113E+06     66.6508E+03    -104.310E-03     208.411E-03    -104.101E-03     13.8316E-03    -104.368E-03     207.455E-03    -104.126E-03     13.5624E-03
            1926     15.3822E-03     33.2998E-03    -4.96775E+06     114.221E+06     90.7286E+06    -126.858E+03    -107.070E-03     213.238E-03    -106.168E-03     20.2715E-03    -107.797E-03     214.089E-03    -105.873E-03     17.4467E-03
            1927     14.5738E-03     33.2588E-03    -9.65991E+06     110.329E+06     84.1868E+06    -128.699E+03    -107.123E-03     213.176E-03    -106.052E-03     44.1260E-03    -108.117E-03     214.282E-03    -105.777E-03     40.7241E-03
            1928     13.7657E-03     33.2065E-03    -13.2574E+06     107.861E+06     77.1659E+06     1.19388E+06    -107.307E-03     213.229E-03    -105.922E-03     56.9045E-03    -108.427E-03     214.461E-03    -105.673E-03     53.4243E-03
            1929     12.9574E-03     33.1363E-03    -17.1105E+06     105.921E+06     67.9181E+06     2.60517E+06    -107.494E-03     213.267E-03    -105.773E-03     70.2829E-03    -108.768E-03     214.660E-03    -105.562E-03     66.6709E-03
            1930     12.1489E-03     33.0533E-03    -22.7212E+06     67.6456E+06     56.2859E+06     2.16460E+06    -107.791E-03     213.452E-03    -105.662E-03     80.4714E-03    -109.125E-03     214.783E-03    -105.445E-03     76.7691E-03
            1931     11.3404E-03     32.9596E-03    -28.8775E+06     21.2665E+06     47.4367E+06     1.09626E+06    -108.077E-03     213.643E-03    -105.567E-03     88.4971E-03    -109.424E-03     214.826E-03    -105.319E-03     84.7478E-03
            1932     10.5319E-03     32.8581E-03    -34.7484E+06    -10.5516E+06     37.3183E+06     610.819E+03    -108.216E-03     213.651E-03    -105.435E-03     93.5921E-03    -109.532E-03     214.698E-03    -105.183E-03     89.8845E-03
            1933     9.72309E-03     32.7524E-03    -40.8853E+06    -42.0751E+06     27.6723E+06     510.421E+03    -108.215E-03     213.514E-03    -105.299E-03     95.6970E-03    -109.443E-03     214.367E-03    -105.040E-03     92.1236E-03
            1934     8.91416E-03     32.6456E-03    -47.1661E+06    -67.2414E+06     18.0234E+06     508.279E+03    -108.041E-03     213.191E-03    -105.151E-03     95.1175E-03    -109.141E-03     213.833E-03    -104.895E-03     91.7681E-03
            1935     8.10495E-03     32.5406E-03    -53.5630E+06    -95.8191E+06     7.79374E+06     467.609E+03    -107.750E-03     212.755E-03    -105.005E-03     92.3231E-03    -108.690E-03     213.142E-03    -104.749E-03     89.2634E-03
            1936     7.29551E-03     32.4396E-03    -60.1435E+06    -119.419E+06    -2.08989E+06     470.801E+03    -107.359E-03     212.215E-03    -104.856E-03     87.8656E-03    -108.138E-03     212.363E-03    -104.607E-03     85.1393E-03
            1937     6.48578E-03     32.3441E-03    -67.0464E+06    -141.531E+06    -12.0784E+06     439.461E+03    -106.892E-03     211.603E-03    -104.712E-03     81.9891E-03    -107.519E-03     211.525E-03    -104.470E-03     79.6157E-03
            1938     5.67580E-03     32.2559E-03    -74.3785E+06    -163.957E+06    -22.9064E+06     389.555E+03    -106.370E-03     210.943E-03    -104.573E-03     74.8498E-03    -106.859E-03     210.652E-03    -104.342E-03     72.8314E-03
            1939     4.86554E-03     32.1761E-03    -82.1494E+06    -185.166E+06    -34.8444E+06     362.281E+03    -105.825E-03     210.265E-03    -104.440E-03     66.5997E-03    -106.196E-03     209.788E-03    -104.226E-03     64.9270E-03
            1940     4.05503E-03     32.1061E-03    -90.2602E+06    -203.787E+06    -49.5978E+06     303.275E+03    -105.293E-03     209.598E-03    -104.305E-03     57.3539E-03    -105.566E-03     208.971E-03    -104.127E-03     56.0090E-03
            1941     3.24429E-03     32.0469E-03    -98.4979E+06     -223.52E+06    -65.9499E+06     262.070E+03    -104.814E-03     208.996E-03    -104.182E-03     47.2175E-03    -105.006E-03     208.236E-03    -104.045E-03     46.1782E-03
            1942     2.43336E-03     31.9996E-03    -106.550E+06    -242.292E+06    -83.3774E+06     261.640E+03    -104.420E-03     208.490E-03    -104.071E-03     36.3417E-03    -104.546E-03     207.620E-03    -103.982E-03     35.5851E-03
            1943     1.62231E-03     31.9649E-03    -113.651E+06    -255.539E+06    -101.042E+06     232.484E+03    -104.125E-03     208.092E-03    -103.966E-03     24.9320E-03    -104.207E-03     207.156E-03    -103.936E-03     24.4353E-03
            1944     811.180E-06     31.9433E-03    -118.706E+06    -260.751E+06    -114.915E+06     153.237E+03    -104.013E-03     207.816E-03    -103.804E-03     13.6945E-03    -104.071E-03     206.861E-03    -103.828E-03     13.4291E-03
            1945     15.3823E-03     32.1254E-03    -4.80871E+06     114.617E+06     91.3796E+06    -78.2520E+03    -107.277E-03     213.431E-03    -106.154E-03     20.1678E-03    -108.003E-03     214.282E-03    -105.856E-03     17.3378E-03
            1946     14.5743E-03     32.0845E-03    -10.1508E+06     110.495E+06     83.7790E+06    -506.112E+03    -107.324E-03     213.346E-03    -106.022E-03     43.8375E-03    -108.316E-03     214.452E-03    -105.748E-03     40.4256E-03
            1947     13.7663E-03     32.0324E-03    -15.5088E+06     106.061E+06     74.9152E+06    -853.558E+03    -107.525E-03     213.398E-03    -105.873E-03     56.4993E-03    -108.646E-03     214.623E-03    -105.629E-03     52.9883E-03
            1948     12.9581E-03     31.9625E-03    -19.6098E+06     103.574E+06     66.1141E+06     408.251E+03    -107.740E-03     213.449E-03    -105.709E-03     69.8465E-03    -109.015E-03     214.831E-03    -105.501E-03     66.2032E-03
            1949     12.1500E-03     31.8800E-03    -23.3540E+06     68.3353E+06     56.3650E+06     2.12983E+06    -108.016E-03     213.595E-03    -105.579E-03     79.9654E-03    -109.348E-03     214.923E-03    -105.362E-03     76.2633E-03
            1950     11.3417E-03     31.7868E-03    -28.5693E+06     22.9592E+06     47.9393E+06     2.01598E+06    -108.255E-03     213.716E-03    -105.462E-03     87.9074E-03    -109.595E-03     214.897E-03    -105.214E-03     84.1744E-03
            1951     10.5332E-03     31.6858E-03    -34.7724E+06    -10.0870E+06     37.4127E+06     1.43477E+06    -108.353E-03     213.661E-03    -105.308E-03     92.9494E-03    -109.661E-03     214.701E-03    -105.056E-03     89.2597E-03
            1952     9.72459E-03     31.5807E-03    -40.9889E+06    -41.6234E+06     27.7292E+06     1.25376E+06    -108.299E-03     213.449E-03    -105.150E-03     95.0044E-03    -109.519E-03     214.295E-03    -104.891E-03     91.4508E-03
            1953     8.91569E-03     31.4745E-03    -47.2280E+06    -66.8949E+06     18.0550E+06     1.03418E+06    -108.069E-03     213.049E-03    -104.980E-03     94.3956E-03    -109.162E-03     213.684E-03    -104.724E-03     91.0658E-03
            1954     8.10654E-03     31.3703E-03    -53.5767E+06    -95.5282E+06     7.79927E+06     937.101E+03    -107.735E-03     212.548E-03    -104.813E-03     91.6013E-03    -108.668E-03     212.928E-03    -104.557E-03     88.5615E-03
            1955     7.29706E-03     31.2699E-03    -60.1508E+06    -119.185E+06    -2.10990E+06     843.716E+03    -107.300E-03     211.944E-03    -104.644E-03     87.1481E-03    -108.073E-03     212.086E-03    -104.394E-03     84.4410E-03
            1956     6.48730E-03     31.1752E-03    -67.0272E+06    -141.208E+06    -12.0641E+06     751.394E+03    -106.787E-03     211.266E-03    -104.479E-03     81.2821E-03    -107.408E-03     211.183E-03    -104.237E-03     78.9273E-03
            1957     5.67723E-03     31.0875E-03    -74.2915E+06    -163.713E+06    -22.8911E+06     654.146E+03    -106.223E-03     210.544E-03    -104.321E-03     74.1815E-03    -106.707E-03     210.250E-03    -104.090E-03     72.1803E-03
            1958     4.86685E-03     31.0084E-03    -82.0439E+06    -184.897E+06    -34.8181E+06     559.380E+03    -105.635E-03     209.806E-03    -104.170E-03     65.9946E-03    -106.002E-03     209.326E-03    -103.957E-03     64.3369E-03
            1959     4.05618E-03     30.9389E-03    -90.1544E+06    -203.489E+06    -49.5094E+06     439.736E+03    -105.062E-03     209.082E-03    -104.021E-03     56.8235E-03    -105.332E-03     208.454E-03    -103.842E-03     55.4910E-03
            1960     3.24524E-03     30.8803E-03    -98.3483E+06    -223.406E+06    -65.8063E+06     390.652E+03    -104.553E-03     208.438E-03    -103.885E-03     46.7711E-03    -104.742E-03     207.676E-03    -103.748E-03     45.7423E-03
            1961     2.43411E-03     30.8334E-03    -106.334E+06    -242.063E+06    -83.0909E+06     399.977E+03    -104.135E-03     207.898E-03    -103.764E-03     35.9924E-03    -104.260E-03     207.028E-03    -103.674E-03     35.2443E-03
            1962     1.62283E-03     30.7990E-03    -113.438E+06    -255.156E+06    -100.688E+06     278.261E+03    -103.820E-03     207.471E-03    -103.651E-03     24.6920E-03    -103.901E-03     206.535E-03    -103.620E-03     24.2005E-03
            1963     811.452E-06     30.7775E-03    -118.568E+06    -260.403E+06    -114.677E+06     94.8417E+03    -103.695E-03     207.176E-03    -103.481E-03     13.5634E-03    -103.753E-03     206.222E-03    -103.505E-03     13.2998E-03
            1964     15.3826E-03     30.9505E-03    -4.85346E+06     114.737E+06     91.4430E+06    -147.074E+03    -107.580E-03     213.718E-03    -106.138E-03     20.0128E-03    -108.304E-03     214.568E-03    -105.840E-03     17.1753E-03
            1965     14.5748E-03     30.9099E-03    -9.91113E+06     111.024E+06     84.0387E+06    -205.786E+03    -107.611E-03     213.599E-03    -105.989E-03     43.5414E-03    -108.600E-03     214.704E-03    -105.715E-03     40.1277E-03
            1966     13.7670E-03     30.8581E-03    -15.5390E+06     106.385E+06     74.7411E+06    -473.450E+03    -107.763E-03     213.583E-03    -105.820E-03     56.0816E-03    -108.879E-03     214.805E-03    -105.578E-03     52.5723E-03
            1967     12.9591E-03     30.7886E-03    -21.6904E+06     101.650E+06     64.1797E+06    -759.191E+03    -107.958E-03     213.594E-03    -105.636E-03     69.3515E-03    -109.231E-03     214.965E-03    -105.431E-03     65.6912E-03
            1968     12.1510E-03     30.7065E-03    -26.8360E+06     66.4122E+06     54.0815E+06     42.0646E+03    -108.222E-03     213.708E-03    -105.486E-03     79.4176E-03    -109.557E-03     215.027E-03    -105.273E-03     75.6892E-03
            1969     11.3429E-03     30.6138E-03    -31.1753E+06     23.1434E+06     46.8187E+06     1.44415E+06    -108.430E-03     213.777E-03    -105.347E-03     87.3007E-03    -109.773E-03     214.956E-03    -105.102E-03     83.5646E-03
            1970     10.5347E-03     30.5135E-03    -36.1650E+06    -9.43768E+06     36.8890E+06     1.76751E+06    -108.479E-03     213.650E-03    -105.171E-03     92.2916E-03    -109.785E-03     214.688E-03    -104.921E-03     88.6139E-03
            1971     9.72612E-03     30.4091E-03    -41.7527E+06    -41.0476E+06     27.3779E+06     1.47818E+06    -108.368E-03     213.359E-03    -104.991E-03     94.3082E-03    -109.583E-03     214.201E-03    -104.734E-03     90.7686E-03
            1972     8.91731E-03     30.3037E-03    -47.6508E+06    -66.4495E+06     17.8164E+06     1.33540E+06    -108.098E-03     212.897E-03    -104.800E-03     93.6781E-03    -109.184E-03     213.527E-03    -104.545E-03     90.3649E-03
            1973     8.10817E-03     30.2002E-03    -53.8296E+06    -95.1841E+06     7.64425E+06     1.22465E+06    -107.729E-03     212.339E-03    -104.611E-03     90.8765E-03    -108.656E-03     212.715E-03    -104.356E-03     87.8536E-03
            1974     7.29874E-03     30.1006E-03    -60.2497E+06    -118.781E+06    -2.21579E+06     1.12513E+06    -107.243E-03     211.663E-03    -104.419E-03     86.4197E-03    -108.011E-03     211.800E-03    -104.171E-03     83.7303E-03
            1975     6.48892E-03     30.0066E-03    -67.0264E+06    -140.795E+06    -12.1723E+06     972.283E+03    -106.673E-03     210.906E-03    -104.233E-03     80.5702E-03    -107.289E-03     210.820E-03    -103.993E-03     78.2326E-03
            1976     5.67876E-03     29.9197E-03    -74.2303E+06    -163.384E+06    -23.0122E+06     863.217E+03    -106.061E-03     210.117E-03    -104.056E-03     73.5046E-03    -106.540E-03     209.819E-03    -103.826E-03     71.5200E-03
            1977     4.86825E-03     29.8412E-03    -81.9223E+06    -184.508E+06    -34.9143E+06     762.230E+03    -105.432E-03     209.320E-03    -103.888E-03     65.3682E-03    -105.795E-03     208.838E-03    -103.676E-03     63.7259E-03
            1978     4.05741E-03     29.7724E-03    -90.0212E+06    -203.066E+06    -49.4023E+06     596.261E+03    -104.823E-03     208.546E-03    -103.723E-03     56.2675E-03    -105.091E-03     207.917E-03    -103.545E-03     54.9482E-03
            1979     3.24628E-03     29.7143E-03    -98.2750E+06    -223.255E+06    -65.5357E+06      493.84E+03    -104.283E-03     207.858E-03    -103.575E-03     46.2995E-03    -104.471E-03     207.095E-03    -103.436E-03     45.2812E-03
            1980     2.43492E-03     29.6679E-03    -106.293E+06    -241.728E+06    -83.1178E+06     462.932E+03    -103.834E-03     207.274E-03    -103.440E-03     35.6192E-03    -103.959E-03     206.404E-03    -103.351E-03     34.8791E-03
            1981     1.62337E-03     29.6338E-03    -113.291E+06    -254.629E+06    -100.857E+06     313.615E+03    -103.496E-03     206.814E-03    -103.318E-03     24.4342E-03    -103.577E-03     205.881E-03    -103.289E-03     23.9480E-03
            1982     811.716E-06     29.6126E-03    -118.306E+06    -260.077E+06    -114.604E+06     128.561E+03    -103.363E-03     206.507E-03    -103.144E-03     13.4221E-03    -103.421E-03     205.554E-03    -103.168E-03     13.1615E-03
            1983     15.3829E-03     29.7753E-03    -5.02513E+06     114.941E+06     91.6527E+06    -126.952E+03    -107.905E-03     214.027E-03    -106.122E-03     19.8227E-03    -108.629E-03     214.876E-03    -105.823E-03     16.9783E-03
            1984     14.5753E-03     29.7350E-03    -10.2944E+06     110.997E+06     84.1291E+06    -198.283E+03    -107.913E-03     213.867E-03    -105.954E-03     43.2205E-03    -108.900E-03     214.967E-03    -105.679E-03     39.8007E-03
            1985     13.7678E-03     29.6836E-03    -15.5879E+06     106.378E+06     74.7458E+06     98.0688E+03    -108.051E-03     213.816E-03    -105.765E-03     55.6595E-03    -109.162E-03     215.032E-03    -105.523E-03     52.1541E-03
            1986     12.9601E-03     29.6145E-03    -20.9561E+06     102.249E+06     64.2706E+06     26.1943E+03    -108.203E-03     213.761E-03    -105.559E-03     68.8422E-03    -109.467E-03     215.128E-03    -105.355E-03     65.1914E-03
            1987     12.1522E-03     29.5329E-03    -26.7308E+06     65.2569E+06     53.2647E+06    -360.147E+03    -108.423E-03     213.809E-03    -105.386E-03     78.8186E-03    -109.747E-03     215.115E-03    -105.176E-03     75.0876E-03
            1988     11.3443E-03     29.4409E-03    -32.2353E+06     21.4895E+06     45.5408E+06     156.010E+03    -108.588E-03     213.814E-03    -105.227E-03     86.6528E-03    -109.923E-03     214.979E-03    -104.983E-03     82.9059E-03
            1989     10.5361E-03     29.3412E-03    -37.1805E+06    -9.38011E+06     36.1796E+06     1.02264E+06    -108.585E-03     213.614E-03    -105.029E-03     91.6004E-03    -109.886E-03     214.645E-03    -104.781E-03     87.9221E-03
            1990     9.72770E-03     29.2376E-03    -42.4379E+06    -40.7165E+06     26.9364E+06     1.27867E+06    -108.431E-03     213.259E-03    -104.828E-03     93.5745E-03    -109.640E-03     214.095E-03    -104.573E-03     90.0438E-03
            1991     8.91893E-03     29.1330E-03    -48.1394E+06    -66.1354E+06     17.4713E+06     1.25543E+06    -108.128E-03     212.743E-03    -104.615E-03     92.9300E-03    -109.209E-03     213.367E-03    -104.362E-03     89.6281E-03
            1992     8.10986E-03     29.0303E-03    -54.0850E+06    -94.9204E+06     7.35588E+06     1.27772E+06    -107.719E-03     212.122E-03    -104.403E-03     90.1132E-03    -108.639E-03     212.492E-03    -104.150E-03     87.1045E-03
            1993     7.30040E-03     28.9315E-03    -60.3858E+06    -118.372E+06    -2.46735E+06     1.25216E+06    -107.182E-03     211.370E-03    -104.189E-03     85.6511E-03    -107.943E-03     211.504E-03    -103.942E-03     82.9780E-03
            1994     6.49055E-03     28.8384E-03    -67.0957E+06    -140.317E+06    -12.4012E+06     1.13950E+06    -106.558E-03     210.539E-03    -103.981E-03     79.8171E-03    -107.169E-03     210.450E-03    -103.742E-03     77.4965E-03
            1995     5.68029E-03     28.7523E-03    -74.2439E+06    -163.017E+06    -23.2382E+06     1.01049E+06    -105.894E-03     209.678E-03    -103.784E-03     72.7870E-03    -106.369E-03     209.378E-03    -103.556E-03     70.8185E-03
            1996     4.86964E-03     28.6747E-03    -81.8496E+06    -184.071E+06    -35.1086E+06     906.326E+03    -105.222E-03     208.821E-03    -103.598E-03     64.7084E-03    -105.582E-03     208.338E-03    -103.388E-03     63.0810E-03
            1997     4.05864E-03     28.6065E-03    -89.8713E+06    -202.593E+06    -49.4159E+06     776.790E+03    -104.579E-03     207.997E-03    -103.418E-03     55.6867E-03    -104.844E-03     207.368E-03    -103.241E-03     54.3811E-03
            1998     3.24732E-03     28.5490E-03    -98.1087E+06    -222.919E+06    -65.4441E+06     648.053E+03    -104.006E-03     207.263E-03    -103.256E-03     45.8135E-03    -104.192E-03     206.499E-03    -103.118E-03     44.8064E-03
            1999     2.43573E-03     28.5031E-03    -106.104E+06    -241.300E+06    -82.9658E+06     497.027E+03    -103.528E-03     206.637E-03    -103.109E-03     35.2381E-03    -103.652E-03     205.768E-03    -103.020E-03     34.5054E-03
            2000     1.62394E-03     28.4694E-03    -113.077E+06    -254.129E+06    -100.657E+06     356.678E+03    -103.168E-03     206.147E-03    -102.979E-03     24.1698E-03    -103.248E-03     205.215E-03    -102.949E-03     23.6889E-03
            2001     812.006E-06     28.4484E-03    -118.044E+06    -259.615E+06    -114.372E+06     232.177E+03    -103.024E-03     205.820E-03    -102.797E-03     13.2753E-03    -103.081E-03     204.869E-03    -102.821E-03     13.0187E-03
            2002     15.3831E-03     28.5998E-03    -4.96855E+06     115.091E+06     91.9239E+06     59.5461E+03    -108.251E-03     214.357E-03    -106.106E-03     19.6159E-03    -108.974E-03     215.204E-03    -105.806E-03     16.7667E-03
            2003     14.5759E-03     28.5597E-03    -10.2974E+06     110.981E+06     84.2163E+06     38.7851E+03    -108.234E-03     214.151E-03    -105.917E-03     42.8702E-03    -109.216E-03     215.247E-03    -105.642E-03     39.4473E-03
            2004     13.7685E-03     28.5087E-03    -15.5780E+06     106.122E+06     74.5918E+06    -71.2827E+03    -108.345E-03     214.052E-03    -105.707E-03     55.2155E-03    -109.449E-03     215.261E-03    -105.465E-03     51.7043E-03
            2005     12.9611E-03     28.4401E-03    -20.6663E+06     102.454E+06     64.2992E+06     33.4140E+03    -108.462E-03     213.940E-03    -105.479E-03     68.3184E-03    -109.717E-03     215.300E-03    -105.276E-03     64.6672E-03
            2006     12.1535E-03     28.3592E-03    -25.8070E+06     65.4746E+06     53.4466E+06     247.326E+03    -108.627E-03     213.912E-03    -105.284E-03     78.2127E-03    -109.938E-03     215.208E-03    -105.075E-03     74.4932E-03
            2007     11.3457E-03     28.2678E-03    -31.3592E+06     20.7818E+06     45.3167E+06     222.189E+03    -108.732E-03     213.836E-03    -105.104E-03     85.9900E-03    -110.053E-03     214.987E-03    -104.862E-03     82.2508E-03
            2008     10.5376E-03     28.1689E-03    -37.1590E+06    -10.1532E+06     35.6038E+06     475.406E+03    -108.681E-03     213.567E-03    -104.886E-03     90.8866E-03    -109.971E-03     214.585E-03    -104.639E-03     87.2109E-03
            2009     9.72929E-03     28.0661E-03    -42.7341E+06    -40.7163E+06     26.4987E+06     903.257E+03    -108.496E-03     213.159E-03    -104.663E-03     92.8231E-03    -109.697E-03     213.987E-03    -104.410E-03     89.2988E-03
            2010     8.92061E-03     27.9624E-03    -48.3738E+06    -66.0308E+06     17.0792E+06     1.06640E+06    -108.160E-03     212.588E-03    -104.428E-03     92.1529E-03    -109.232E-03     213.204E-03    -104.176E-03     88.8612E-03
            2011     8.11155E-03     27.8606E-03    -54.3504E+06    -94.8433E+06     6.90775E+06     1.20140E+06    -107.703E-03     211.896E-03    -104.193E-03     89.3008E-03    -108.615E-03     212.259E-03    -103.942E-03     86.3055E-03
            2012     7.30211E-03     27.7628E-03    -60.6001E+06    -118.063E+06    -2.83699E+06     1.29420E+06    -107.115E-03     211.071E-03    -103.956E-03     84.8253E-03    -107.870E-03     211.200E-03    -103.711E-03     82.1681E-03
            2013     6.49221E-03     27.6705E-03    -67.2287E+06    -139.825E+06    -12.6900E+06     1.21402E+06    -106.442E-03     210.169E-03    -103.727E-03     79.0017E-03    -107.048E-03     210.077E-03    -103.490E-03     76.6976E-03
            2014     5.68187E-03     27.5854E-03    -74.2886E+06    -162.628E+06    -23.5049E+06     1.09946E+06    -105.729E-03     209.239E-03    -103.510E-03     72.0089E-03    -106.200E-03     208.936E-03    -103.283E-03     70.0565E-03
            2015     4.87109E-03     27.5086E-03    -81.8428E+06    -183.638E+06    -35.3747E+06     1.01550E+06    -105.011E-03     208.316E-03    -103.305E-03     63.9941E-03    -105.367E-03     207.832E-03    -103.097E-03     62.3818E-03
            2016     4.05990E-03     27.4413E-03    -89.7950E+06    -202.121E+06    -49.5799E+06     902.661E+03    -104.326E-03     207.435E-03    -103.109E-03     55.0497E-03    -104.589E-03     206.805E-03    -102.934E-03     53.7577E-03
            2017     3.24836E-03     27.3844E-03    -97.8626E+06    -222.374E+06    -65.5804E+06     730.013E+03    -103.721E-03     206.655E-03    -102.934E-03     45.2739E-03    -103.905E-03     205.892E-03    -102.797E-03     44.2777E-03
            2018     2.43653E-03     27.3391E-03    -105.719E+06    -240.806E+06    -82.7350E+06     521.648E+03    -103.220E-03     205.997E-03    -102.778E-03     34.8132E-03    -103.342E-03     205.129E-03    -102.689E-03     34.0883E-03
            2019     1.62448E-03     27.3058E-03    -112.745E+06    -253.719E+06    -100.027E+06     400.438E+03    -102.841E-03     205.480E-03    -102.639E-03     23.8745E-03    -102.920E-03     204.549E-03    -102.608E-03     23.3992E-03
            2020     812.288E-06     27.2851E-03    -117.897E+06    -258.950E+06    -114.006E+06     273.863E+03    -102.681E-03     205.127E-03    -102.446E-03     13.1132E-03    -102.739E-03     204.178E-03    -102.470E-03     12.8599E-03
            2021     15.3834E-03     27.4238E-03    -4.87434E+06     114.955E+06     91.9096E+06     126.296E+03    -108.622E-03     214.711E-03    -106.089E-03     19.3781E-03    -109.341E-03     215.554E-03    -105.789E-03     16.5229E-03
            2022     14.5764E-03     27.3841E-03    -9.96953E+06     111.118E+06     84.3327E+06     166.624E+03    -108.571E-03     214.451E-03    -105.880E-03     42.4979E-03    -109.548E-03     215.542E-03    -105.605E-03     39.0708E-03
            2023     13.7694E-03     27.3336E-03    -15.3351E+06     106.350E+06     74.6391E+06     39.2890E+03    -108.636E-03     214.283E-03    -105.648E-03     54.7529E-03    -109.733E-03     215.488E-03    -105.407E-03     51.2399E-03
            2024     12.9622E-03     27.2656E-03    -20.8588E+06     102.148E+06     63.9511E+06    -12.9451E+03    -108.699E-03     214.097E-03    -105.399E-03     67.7791E-03    -109.947E-03     215.449E-03    -105.197E-03     64.1273E-03
            2025     12.1547E-03     27.1853E-03    -26.2454E+06     65.2979E+06     53.0162E+06     193.991E+03    -108.810E-03     213.993E-03    -105.184E-03     77.6033E-03    -110.114E-03     215.282E-03    -104.975E-03     73.8866E-03
            2026     11.3471E-03     27.0947E-03    -31.6742E+06     20.7538E+06     44.9389E+06     504.579E+03    -108.867E-03     213.849E-03    -104.983E-03     85.3317E-03    -110.179E-03     214.992E-03    -104.742E-03     81.6031E-03
            2027     10.5391E-03     26.9966E-03    -37.2310E+06    -10.3676E+06     35.1189E+06     581.014E+03    -108.782E-03     213.526E-03    -104.744E-03     90.1917E-03    -110.061E-03     214.535E-03    -104.500E-03     86.5268E-03
            2028     9.73087E-03     26.8947E-03    -42.8182E+06    -40.9300E+06     25.9546E+06     628.669E+03    -108.572E-03     213.072E-03    -104.500E-03     92.0852E-03    -109.763E-03     213.890E-03    -104.249E-03     88.5681E-03
            2029     8.92225E-03     26.7919E-03    -48.5414E+06    -66.1995E+06     16.6227E+06     920.752E+03    -108.201E-03     212.443E-03    -104.242E-03     91.3474E-03    -109.265E-03     213.051E-03    -103.993E-03     88.0663E-03
            2030     8.11325E-03     26.6911E-03    -54.4912E+06    -94.8456E+06     6.54067E+06     1.17479E+06    -107.694E-03     211.678E-03    -103.984E-03     88.4321E-03    -108.598E-03     212.033E-03    -103.735E-03     85.4512E-03
            2031     7.30378E-03     26.5943E-03    -60.7071E+06    -117.850E+06    -3.17688E+06     1.26206E+06    -107.051E-03     210.775E-03    -103.724E-03     83.9349E-03    -107.798E-03     210.897E-03    -103.481E-03     81.2932E-03
            2032     6.49384E-03     26.5031E-03    -67.2614E+06    -139.363E+06    -12.9964E+06     1.23736E+06    -106.327E-03     209.799E-03    -103.472E-03     78.1188E-03    -106.926E-03     209.702E-03    -103.237E-03     75.8313E-03
            2033     5.68341E-03     26.4190E-03    -74.2903E+06    -162.299E+06    -23.8178E+06     1.18500E+06    -105.569E-03     208.803E-03    -103.234E-03     71.1627E-03    -106.034E-03     208.497E-03    -103.010E-03     69.2271E-03
            2034     4.87251E-03     26.3431E-03    -81.8166E+06    -183.189E+06    -35.6009E+06     1.14217E+06    -104.803E-03     207.813E-03    -103.010E-03     63.2126E-03    -105.155E-03     207.328E-03    -102.804E-03     61.6162E-03
            2035     4.06116E-03     26.2766E-03    -89.7550E+06    -201.577E+06    -49.6254E+06     995.242E+03    -104.072E-03     206.870E-03    -102.798E-03     54.3519E-03    -104.332E-03     206.240E-03    -102.624E-03     53.0739E-03
            2036     3.24942E-03     26.2206E-03    -97.8556E+06    -221.757E+06    -65.8457E+06     799.631E+03    -103.432E-03     206.039E-03    -102.608E-03     44.6818E-03    -103.614E-03     205.278E-03    -102.473E-03     43.6971E-03
            2037     2.43736E-03     26.1758E-03    -105.748E+06    -240.302E+06    -83.1495E+06     635.303E+03    -102.905E-03     205.344E-03    -102.440E-03     34.3431E-03    -103.026E-03     204.478E-03    -102.354E-03     33.6279E-03
            2038     1.62505E-03     26.1430E-03    -112.772E+06    -253.225E+06    -100.310E+06     506.365E+03    -102.507E-03     204.800E-03    -102.293E-03     23.5439E-03    -102.586E-03     203.871E-03    -102.264E-03     23.0756E-03
            2039     812.577E-06     26.1226E-03    -117.820E+06    -258.155E+06    -114.126E+06     296.583E+03    -102.334E-03     204.429E-03    -102.095E-03     12.9296E-03    -102.392E-03     203.483E-03    -102.120E-03     12.6795E-03
            2040     15.3836E-03     26.2474E-03    -4.90169E+06     114.796E+06     91.8254E+06     67.2155E+03    -108.987E-03     215.061E-03    -106.074E-03     19.1107E-03    -109.703E-03     215.901E-03    -105.774E-03     16.2487E-03
            2041     14.5770E-03     26.2081E-03    -10.0447E+06     111.115E+06     84.2591E+06     143.542E+03    -108.893E-03     214.738E-03    -105.844E-03     42.1116E-03    -109.866E-03     215.825E-03    -105.570E-03     38.6792E-03
            2042     13.7702E-03     26.1582E-03    -15.2946E+06     106.420E+06     74.5661E+06     254.106E+03    -108.905E-03     214.497E-03    -105.592E-03     54.2958E-03    -109.997E-03     215.697E-03    -105.352E-03     50.7833E-03
            2043     12.9631E-03     26.0908E-03    -20.6622E+06     102.162E+06     63.8345E+06     301.365E+03    -108.912E-03     214.235E-03    -105.324E-03     67.2586E-03    -110.152E-03     215.580E-03    -105.123E-03     63.6115E-03
            2044     12.1559E-03     26.0113E-03    -26.1445E+06     65.0613E+06     52.7140E+06     371.151E+03    -108.976E-03     214.066E-03    -105.090E-03     77.0222E-03    -110.271E-03     215.346E-03    -104.883E-03     73.3114E-03
            2045     11.3483E-03     25.9216E-03    -31.5635E+06     20.5613E+06     44.5560E+06     506.622E+03    -109.005E-03     213.874E-03    -104.869E-03     84.7049E-03    -110.307E-03     215.008E-03    -104.631E-03     80.9822E-03
            2046     10.5405E-03     25.8244E-03    -36.9837E+06    -10.2452E+06     34.8578E+06     635.644E+03    -108.905E-03     213.516E-03    -104.610E-03     89.5114E-03    -110.174E-03     214.516E-03    -104.368E-03     85.8546E-03
            2047     9.73238E-03     25.7234E-03    -42.6489E+06    -40.9883E+06     25.6240E+06     735.057E+03    -108.676E-03     213.019E-03    -104.344E-03     91.3262E-03    -109.856E-03     213.828E-03    -104.094E-03     87.8199E-03
            2048     8.92386E-03     25.6216E-03    -48.5052E+06    -66.4493E+06     16.2566E+06     868.697E+03    -108.267E-03     212.328E-03    -104.061E-03     90.4887E-03    -109.320E-03     212.926E-03    -103.813E-03     87.2191E-03
            2049     8.11492E-03     25.5218E-03    -54.4294E+06    -94.9398E+06     6.23389E+06     1.11842E+06    -107.709E-03     211.486E-03    -103.777E-03     87.4860E-03    -108.603E-03     211.831E-03    -103.530E-03     84.5190E-03
            2050     7.30548E-03     25.4262E-03    -60.6027E+06    -117.661E+06    -3.47560E+06     1.28692E+06    -107.008E-03     210.499E-03    -103.491E-03     82.9390E-03    -107.746E-03     210.614E-03    -103.250E-03     80.3142E-03
            2051     6.49550E-03     25.3361E-03    -67.1850E+06    -138.977E+06    -13.2651E+06     1.28609E+06    -106.224E-03     209.439E-03    -103.215E-03     77.1078E-03    -106.816E-03     209.337E-03    -102.982E-03     74.8386E-03
            2052     5.68499E-03     25.2531E-03    -74.1499E+06    -162.003E+06    -24.0125E+06     1.26972E+06    -105.413E-03     208.367E-03    -102.954E-03     70.1770E-03    -105.871E-03     208.056E-03    -102.732E-03     68.2598E-03
            2053     4.87396E-03     25.1782E-03    -81.5781E+06    -182.766E+06    -35.7001E+06     1.26245E+06    -104.596E-03     207.304E-03    -102.709E-03     62.2900E-03    -104.942E-03     206.816E-03    -102.504E-03     60.7115E-03
            2054     4.06244E-03     25.1127E-03    -89.4571E+06    -200.931E+06    -49.5753E+06     1.15010E+06    -103.816E-03     206.294E-03    -102.479E-03     53.5330E-03    -104.072E-03     205.663E-03    -102.305E-03     52.2715E-03
            2055     3.25049E-03     25.0574E-03    -97.5386E+06    -221.230E+06    -65.7643E+06     1.02271E+06    -103.136E-03     205.409E-03    -102.273E-03     43.9931E-03    -103.315E-03     204.647E-03    -102.140E-03     43.0232E-03
            2056     2.43819E-03     25.0132E-03    -105.472E+06    -239.716E+06    -83.0542E+06     970.234E+03    -102.578E-03     204.672E-03    -102.094E-03     33.8028E-03    -102.697E-03     203.806E-03    -102.009E-03     33.1012E-03
            2057     1.62561E-03     24.9809E-03    -112.554E+06    -252.354E+06    -100.231E+06     749.316E+03    -102.160E-03     204.101E-03    -101.940E-03     23.1691E-03    -102.239E-03     203.175E-03    -101.912E-03     22.7104E-03
            2058     812.858E-06     24.9608E-03    -117.591E+06    -257.278E+06    -113.990E+06     363.905E+03    -101.977E-03     203.717E-03    -101.740E-03     12.7204E-03    -102.035E-03     202.775E-03    -101.767E-03     12.4747E-03
            2059     15.3838E-03     25.0706E-03    -4.89078E+06     114.720E+06     91.7412E+06     90.4576E+03    -109.324E-03     215.385E-03    -106.061E-03     18.8096E-03    -110.036E-03     216.221E-03    -105.762E-03     15.9434E-03
            2060     14.5774E-03     25.0318E-03    -10.0745E+06     110.969E+06     84.1591E+06     182.348E+03    -109.175E-03     214.989E-03    -105.814E-03     41.7057E-03    -110.143E-03     216.071E-03    -105.539E-03     38.2709E-03
            2061     13.7708E-03     24.9825E-03    -15.3806E+06     106.263E+06     74.4057E+06     316.384E+03    -109.134E-03     214.679E-03    -105.544E-03     53.8338E-03    -110.220E-03     215.872E-03    -105.304E-03     50.3215E-03
            2062     12.9640E-03     24.9159E-03    -20.7121E+06     102.102E+06     63.6410E+06     484.071E+03    -109.098E-03     214.357E-03    -105.259E-03     66.7466E-03    -110.332E-03     215.695E-03    -105.059E-03     63.1033E-03
            2063     12.1568E-03     24.8372E-03    -25.9977E+06     65.0946E+06     52.5376E+06     582.886E+03    -109.142E-03     214.149E-03    -105.008E-03     76.4544E-03    -110.428E-03     215.422E-03    -104.802E-03     72.7494E-03
            2064     11.3495E-03     24.7483E-03    -31.3991E+06     20.5437E+06     44.3534E+06     614.048E+03    -109.170E-03     213.939E-03    -104.768E-03     84.0755E-03    -110.463E-03     215.064E-03    -104.531E-03     80.3582E-03
            2065     10.5418E-03     24.6521E-03    -36.9652E+06    -10.2936E+06     34.5822E+06     702.786E+03    -109.071E-03     213.558E-03    -104.487E-03     88.7957E-03    -110.330E-03     214.549E-03    -104.246E-03     85.1455E-03
            2066     9.73380E-03     24.5520E-03    -42.5498E+06    -40.9784E+06     25.2866E+06     805.127E+03    -108.820E-03     213.014E-03    -104.194E-03     90.4842E-03    -109.989E-03     213.813E-03    -103.947E-03     86.9876E-03
            2067     8.92541E-03     24.4513E-03    -48.2894E+06    -66.5855E+06     15.8635E+06     967.413E+03    -108.369E-03     212.253E-03    -103.884E-03     89.5129E-03    -109.409E-03     212.839E-03    -103.638E-03     86.2570E-03
            2068     8.11656E-03     24.3527E-03    -54.3344E+06    -95.0876E+06     5.84554E+06     1.20670E+06    -107.762E-03     211.333E-03    -103.570E-03     86.3990E-03    -108.644E-03     211.667E-03    -103.325E-03     83.4486E-03
            2069     7.30717E-03     24.2583E-03    -60.5839E+06    -117.442E+06    -3.74079E+06     1.32950E+06    -107.005E-03     210.259E-03    -103.254E-03     81.7760E-03    -107.732E-03     210.365E-03    -103.015E-03     79.1694E-03
            2070     6.49721E-03     24.1694E-03    -67.0162E+06    -138.554E+06    -13.3770E+06     1.25361E+06    -106.154E-03     209.101E-03    -102.947E-03     75.9164E-03    -106.736E-03     208.992E-03    -102.716E-03     73.6658E-03
            2071     5.68664E-03     24.0876E-03    -73.8050E+06    -161.840E+06    -24.1116E+06     1.26058E+06    -105.272E-03     207.930E-03    -102.658E-03     69.0032E-03    -105.721E-03     207.612E-03    -102.437E-03     67.1053E-03
            2072     4.87550E-03     24.0139E-03    -81.1056E+06    -182.415E+06    -35.8052E+06     1.39090E+06    -104.389E-03     206.775E-03    -102.386E-03     61.1739E-03    -104.727E-03     206.281E-03    -102.183E-03     59.6161E-03
            2073     4.06381E-03     23.9493E-03    -88.8943E+06    -200.271E+06    -49.5316E+06     1.34915E+06    -103.552E-03     205.685E-03    -102.133E-03     52.5232E-03    -103.802E-03     205.052E-03    -101.961E-03     51.2814E-03
            2074     3.25165E-03     23.8949E-03    -96.9166E+06    -220.813E+06    -65.4017E+06     1.32870E+06    -102.822E-03     204.733E-03    -101.910E-03     43.1256E-03    -102.997E-03     203.969E-03    -101.777E-03     42.1743E-03
            2075     2.43908E-03     23.8515E-03    -104.747E+06    -238.930E+06    -82.3873E+06     1.31673E+06    -102.225E-03     203.942E-03    -101.717E-03     33.1133E-03    -102.341E-03     203.077E-03    -101.631E-03     32.4276E-03
            2076     1.62622E-03     23.8197E-03    -111.709E+06    -251.093E+06     -99.312E+06     1.02145E+06    -101.782E-03     203.337E-03    -101.555E-03     22.6845E-03    -101.859E-03     202.414E-03    -101.525E-03     22.2372E-03
            2077     813.169E-06     23.7999E-03    -116.803E+06    -256.066E+06    -113.169E+06     587.776E+03    -101.583E-03     202.935E-03    -101.351E-03     12.4438E-03    -101.640E-03     201.996E-03    -101.377E-03     12.2056E-03
            2078     15.3840E-03     23.8934E-03    -4.87814E+06     114.559E+06     91.5850E+06     116.373E+03    -109.607E-03     215.659E-03    -106.052E-03     18.4629E-03    -110.315E-03     216.491E-03    -105.754E-03     15.5956E-03
            2079     14.5778E-03     23.8552E-03    -10.0420E+06     110.792E+06     84.0452E+06     281.667E+03    -109.400E-03     215.191E-03    -105.791E-03     41.2798E-03    -110.361E-03     216.266E-03    -105.517E-03     37.8464E-03
            2080     13.7713E-03     23.8066E-03    -15.3652E+06     106.086E+06     74.2541E+06     446.005E+03    -109.321E-03     214.829E-03    -105.508E-03     53.3805E-03    -110.401E-03     216.015E-03    -105.268E-03     49.8712E-03
            2081     12.9646E-03     23.7408E-03    -20.7174E+06     101.927E+06     63.3964E+06     602.612E+03    -109.276E-03     214.484E-03    -105.207E-03     66.2494E-03    -110.503E-03     215.815E-03    -105.008E-03     62.6092E-03
            2082     12.1576E-03     23.6629E-03    -26.1055E+06     65.1148E+06     52.3176E+06     770.533E+03    -109.337E-03     214.277E-03    -104.939E-03     75.8860E-03    -110.616E-03     215.542E-03    -104.734E-03     72.1846E-03
            2083     11.3504E-03     23.5750E-03    -31.6143E+06     20.6287E+06     44.1157E+06     861.783E+03    -109.393E-03     214.072E-03    -104.679E-03     83.4037E-03    -110.678E-03     215.190E-03    -104.442E-03     79.6911E-03
            2084     10.5430E-03     23.4796E-03    -37.1682E+06    -10.0826E+06     34.3080E+06     741.000E+03    -109.303E-03     213.674E-03    -104.371E-03     87.9772E-03    -110.553E-03     214.656E-03    -104.130E-03     84.3312E-03
            2085     9.73520E-03     23.3806E-03    -42.6652E+06    -40.9999E+06     24.8835E+06     655.883E+03    -109.032E-03     213.078E-03    -104.046E-03     89.4669E-03    -110.188E-03     213.865E-03    -103.800E-03     85.9768E-03
            2086     8.92698E-03     23.2810E-03    -48.2351E+06    -66.9856E+06     15.3636E+06     973.823E+03    -108.538E-03     212.239E-03    -103.701E-03     88.2940E-03    -109.563E-03     212.810E-03    -103.457E-03     85.0516E-03
            2087     8.11827E-03     23.1837E-03    -54.0307E+06    -95.1641E+06     5.57715E+06     1.37813E+06    -107.875E-03     211.225E-03    -103.351E-03     85.0163E-03    -108.740E-03     211.545E-03    -103.106E-03     82.0861E-03
            2088     7.30900E-03     23.0906E-03    -60.0999E+06    -116.981E+06    -3.73711E+06     1.36182E+06    -107.050E-03     210.045E-03    -102.995E-03     80.2811E-03    -107.762E-03     210.139E-03    -102.757E-03     77.6963E-03
            2089     6.49908E-03     23.0031E-03    -66.5106E+06    -138.161E+06    -13.3832E+06     1.21041E+06    -106.121E-03     208.769E-03    -102.649E-03     74.3696E-03    -106.689E-03     208.650E-03    -102.419E-03     72.1418E-03
            2090     5.68850E-03     22.9226E-03    -73.3827E+06    -161.867E+06    -24.2613E+06     1.35845E+06    -105.152E-03     207.472E-03    -102.320E-03     67.4647E-03    -105.588E-03     207.144E-03    -102.100E-03     65.5921E-03
            2091     4.87726E-03     22.8501E-03    -80.7593E+06    -182.146E+06    -36.0721E+06     1.59876E+06    -104.180E-03     206.191E-03    -102.011E-03     59.7091E-03    -104.509E-03     205.691E-03    -101.810E-03     58.1773E-03
            2092     4.06541E-03     22.7867E-03    -88.5925E+06    -199.617E+06    -49.5906E+06     1.64966E+06    -103.264E-03     204.990E-03    -101.726E-03     51.1936E-03    -103.508E-03     204.354E-03    -101.556E-03     49.9769E-03
            2093     3.25301E-03     22.7333E-03    -96.6325E+06    -220.303E+06    -65.1492E+06     1.60229E+06    -102.469E-03     203.944E-03    -101.476E-03     41.9786E-03    -102.639E-03     203.178E-03    -101.342E-03     41.0488E-03
            2094     2.44017E-03     22.6907E-03    -104.409E+06    -237.966E+06    -82.2047E+06     1.53789E+06    -101.814E-03     203.072E-03    -101.258E-03     32.2026E-03    -101.927E-03     202.208E-03    -101.173E-03     31.5337E-03
            2095     1.62697E-03     22.6594E-03    -111.271E+06    -249.550E+06    -99.0936E+06     1.18413E+06    -101.327E-03     202.403E-03    -101.076E-03     22.0447E-03    -101.403E-03     201.485E-03    -101.048E-03     21.6092E-03
            2096     813.550E-06     22.6400E-03    -116.122E+06    -254.492E+06    -112.472E+06     620.609E+03    -101.099E-03     201.964E-03    -100.865E-03     12.0810E-03    -101.156E-03     201.031E-03    -100.890E-03     11.8485E-03
            2097     15.3840E-03     22.7159E-03    -4.88034E+06     114.334E+06     91.4066E+06     148.188E+03    -109.805E-03     215.855E-03    -106.050E-03     18.0836E-03    -110.508E-03     216.682E-03    -105.752E-03     15.2191E-03
            2098     14.5780E-03     22.6784E-03    -10.0494E+06     110.526E+06     83.8638E+06     363.288E+03    -109.546E-03     215.325E-03    -105.779E-03     40.8883E-03    -110.501E-03     216.394E-03    -105.506E-03     37.4589E-03
            2099     13.7716E-03     22.6306E-03    -15.3363E+06     105.915E+06     74.0851E+06     579.698E+03    -109.476E-03     214.962E-03    -105.486E-03     53.0163E-03    -110.550E-03     216.143E-03    -105.247E-03     49.5095E-03
            2100     12.9651E-03     22.5655E-03    -20.7147E+06     101.663E+06     63.1472E+06     817.041E+03    -109.490E-03     214.662E-03    -105.172E-03     65.8302E-03    -110.710E-03     215.986E-03    -104.974E-03     62.1905E-03
            2101     12.1583E-03     22.4884E-03    -26.1082E+06     65.0239E+06     52.1064E+06     1.06820E+06    -109.619E-03     214.504E-03    -104.885E-03     75.3393E-03    -110.891E-03     215.762E-03    -104.681E-03     71.6375E-03
            2102     11.3513E-03     22.4013E-03    -31.6015E+06     20.9179E+06     43.9822E+06     1.04226E+06    -109.728E-03     214.325E-03    -104.596E-03     82.6618E-03    -111.004E-03     215.435E-03    -104.361E-03     78.9484E-03
            2103     10.5442E-03     22.3069E-03    -37.1239E+06    -9.66778E+06     34.1830E+06     859.985E+03    -109.659E-03     213.911E-03    -104.253E-03     86.9696E-03    -110.896E-03     214.883E-03    -104.014E-03     83.3265E-03
            2104     9.73667E-03     22.2090E-03    -42.7728E+06    -40.8989E+06     24.6620E+06     784.018E+03    -109.369E-03     213.254E-03    -103.886E-03     88.1394E-03    -110.509E-03     214.026E-03    -103.641E-03     84.6594E-03
            2105     8.92876E-03     22.1106E-03    -48.6510E+06    -67.4639E+06     14.8475E+06     946.510E+03    -108.822E-03     212.314E-03    -103.492E-03     86.6786E-03    -109.829E-03     212.865E-03    -103.249E-03     83.4520E-03
            2106     8.12031E-03     22.0147E-03    -54.3802E+06     -95.055E+06     5.07453E+06     1.08361E+06    -108.075E-03     211.165E-03    -103.089E-03     83.1824E-03    -108.923E-03     211.467E-03    -102.847E-03     80.2712E-03
            2107     7.31120E-03     21.9231E-03    -60.0700E+06    -116.629E+06    -4.12487E+06     1.07445E+06    -107.154E-03     209.833E-03    -102.680E-03     78.2879E-03    -107.848E-03     209.912E-03    -102.444E-03     75.7271E-03
            2108     6.50140E-03     21.8371E-03    -66.3066E+06    -138.152E+06    -13.7872E+06     1.33268E+06    -106.120E-03     208.398E-03    -102.278E-03     72.2982E-03    -106.671E-03     208.263E-03    -102.051E-03     70.1022E-03
            2109     5.69083E-03     21.7581E-03    -73.2600E+06    -161.858E+06    -24.4780E+06     1.67546E+06    -105.039E-03     206.935E-03    -101.896E-03     65.4091E-03    -105.461E-03     206.593E-03    -101.677E-03     63.5712E-03
            2110     4.87952E-03     21.6871E-03    -80.6903E+06    -181.893E+06    -36.1198E+06     1.89610E+06    -103.950E-03     205.484E-03    -101.535E-03     57.7601E-03    -104.268E-03     204.976E-03    -101.335E-03     56.2612E-03
            2111     4.06748E-03     21.6249E-03    -88.4426E+06    -198.882E+06    -49.5891E+06     1.93294E+06    -102.920E-03     204.121E-03    -101.201E-03     49.4309E-03    -103.157E-03     203.481E-03    -101.032E-03     48.2440E-03
            2112     3.25481E-03     21.5726E-03    -96.3260E+06    -219.511E+06    -65.0511E+06     1.81242E+06    -102.027E-03     202.936E-03    -100.909E-03     40.4683E-03    -102.192E-03     202.168E-03    -100.776E-03     39.5630E-03
            2113     2.44161E-03     21.5309E-03    -103.991E+06    -236.918E+06    -81.7217E+06     1.64466E+06    -101.289E-03     201.945E-03    -100.656E-03     31.0097E-03    -101.400E-03     201.083E-03    -100.570E-03     30.3590E-03
            2114     1.62798E-03     21.5004E-03    -110.769E+06    -247.737E+06    -98.4611E+06     1.25916E+06    -100.733E-03     201.178E-03    -100.445E-03     21.2096E-03    -100.809E-03     200.267E-03    -100.418E-03     20.7866E-03
            2115     814.076E-06     21.4814E-03    -115.704E+06    -252.859E+06    -112.088E+06     485.089E+03    -100.454E-03     200.673E-03    -100.219E-03     11.6146E-03    -100.511E-03     199.746E-03    -100.245E-03     11.3866E-03
            2116     15.3839E-03     21.5383E-03    -4.88509E+06     114.077E+06     91.2131E+06     212.786E+03    -109.880E-03     215.937E-03    -106.058E-03     17.6943E-03    -110.578E-03     216.759E-03    -105.760E-03     14.8376E-03
            2117     14.5779E-03     21.5016E-03    -10.0652E+06     110.239E+06     83.7210E+06     441.817E+03    -109.610E-03     215.394E-03    -105.784E-03     40.5787E-03    -110.561E-03     216.457E-03    -105.510E-03     37.1547E-03
            2118     13.7716E-03     21.4543E-03    -15.3995E+06     105.594E+06     73.8733E+06     738.667E+03    -109.634E-03     215.118E-03    -105.484E-03     52.7839E-03    -110.704E-03     216.294E-03    -105.245E-03     49.2762E-03
            2119     12.9652E-03     21.3899E-03    -20.8087E+06     101.282E+06     62.8444E+06     1.10227E+06    -109.797E-03     214.952E-03    -105.154E-03     65.4907E-03    -111.012E-03     216.270E-03    -104.957E-03     61.8459E-03
            2120     12.1587E-03     21.3136E-03    -26.1742E+06     65.0593E+06     51.8829E+06     1.26883E+06    -110.069E-03     214.908E-03    -104.839E-03     74.7583E-03    -111.333E-03     216.160E-03    -104.636E-03     71.0476E-03
            2121     11.3522E-03     21.2272E-03    -31.4797E+06     21.3345E+06     43.9166E+06     1.17554E+06    -110.271E-03     214.782E-03    -104.510E-03     81.7109E-03    -111.534E-03     215.881E-03    -104.276E-03     77.9905E-03
            2122     10.5455E-03     21.1337E-03    -36.9906E+06    -9.35801E+06     34.1362E+06     1.07954E+06    -110.229E-03     214.343E-03    -104.114E-03     85.5691E-03    -111.447E-03     215.298E-03    -103.876E-03     81.9282E-03
            2123     9.73851E-03     21.0370E-03    -42.7149E+06    -40.7604E+06     24.5413E+06     1.11181E+06    -109.905E-03     213.590E-03    -103.685E-03     86.2655E-03    -111.022E-03     214.339E-03    -103.441E-03     82.7999E-03
            2124     8.93104E-03     20.9401E-03    -48.4645E+06    -67.3801E+06     14.7750E+06     1.09304E+06    -109.275E-03     212.495E-03    -103.221E-03     84.3997E-03    -110.254E-03     213.021E-03    -102.979E-03     81.1959E-03
            2125     8.12297E-03     20.8457E-03    -54.2597E+06    -94.5018E+06     4.94198E+06     815.606E+03    -108.401E-03     211.143E-03    -102.742E-03     80.6069E-03    -109.223E-03     211.422E-03    -102.501E-03     77.7225E-03
            2126     7.31417E-03     20.7558E-03    -60.2167E+06    -116.723E+06    -4.61054E+06     750.742E+03    -107.328E-03     209.582E-03    -102.254E-03     75.5173E-03    -107.997E-03     209.637E-03    -102.021E-03     72.9890E-03
            2127     6.50451E-03     20.6716E-03    -66.4164E+06    -138.730E+06    -14.3726E+06     1.31489E+06    -106.135E-03     207.910E-03    -101.775E-03     69.4537E-03    -106.664E-03     207.752E-03    -101.550E-03     67.2974E-03
            2128     5.69399E-03     20.5943E-03    -73.0826E+06    -161.879E+06    -24.5911E+06     1.98895E+06    -104.892E-03     206.210E-03    -101.318E-03     62.6117E-03    -105.296E-03     205.852E-03    -101.101E-03     60.8180E-03
            2129     4.88258E-03     20.5249E-03    -80.3921E+06    -181.367E+06    -35.6907E+06     2.19410E+06    -103.642E-03     204.528E-03    -100.887E-03     55.1310E-03    -103.947E-03     204.008E-03    -100.685E-03     53.6737E-03
            2130     4.07032E-03     20.4643E-03    -88.1831E+06    -198.225E+06    -49.4340E+06     2.22025E+06    -102.455E-03     202.940E-03    -100.485E-03     47.0786E-03    -102.682E-03     202.294E-03    -100.317E-03     45.9293E-03
            2131     3.25726E-03     20.4133E-03    -96.2119E+06    -218.316E+06    -65.2136E+06     2.13739E+06    -101.420E-03     201.553E-03    -100.133E-03     38.4809E-03    -101.580E-03     200.785E-03    -100.003E-03     37.6085E-03
            2132     2.44357E-03     20.3727E-03    -104.099E+06    -235.658E+06    -81.4436E+06     1.73294E+06    -100.568E-03     200.402E-03    -99.8341E-03     29.4503E-03    -100.678E-03     199.542E-03    -99.7487E-03     28.8231E-03
            2133     1.62936E-03     20.3429E-03    -111.118E+06    -245.946E+06    -98.7831E+06     1.35293E+06    -99.9186E-03     199.501E-03    -99.5824E-03     20.1190E-03    -99.9969E-03     198.598E-03    -99.5586E-03     19.7127E-03
            2134     814.779E-06     20.3245E-03    -116.004E+06    -250.997E+06    -112.916E+06     773.385E+03    -99.5674E-03     198.909E-03    -99.3420E-03     11.0073E-03    -99.6268E-03     197.994E-03    -99.3744E-03     10.7918E-03
            2135     15.3836E-03     20.3606E-03    -4.88492E+06     113.780E+06     90.9426E+06     280.007E+03    -109.826E-03     215.903E-03    -106.077E-03     17.3066E-03    -110.520E-03     216.719E-03    -105.780E-03     14.4621E-03
            2136     14.5775E-03     20.3247E-03    -10.0963E+06     109.886E+06     83.5787E+06     575.103E+03    -109.648E-03     215.452E-03    -105.805E-03     40.3460E-03    -110.594E-03     216.511E-03    -105.531E-03     36.9275E-03
            2137     13.7713E-03     20.2779E-03    -15.4425E+06     105.159E+06     73.7754E+06     928.588E+03    -109.888E-03     215.386E-03    -105.498E-03     52.6095E-03    -110.956E-03     216.558E-03    -105.259E-03     49.0953E-03
            2138     12.9652E-03     20.2139E-03    -20.6726E+06     100.972E+06     62.7638E+06     1.19018E+06    -110.310E-03     215.455E-03    -105.144E-03     65.0476E-03    -111.519E-03     216.766E-03    -104.947E-03     61.3871E-03
            2139     12.1592E-03     20.1380E-03    -25.7558E+06     65.1239E+06     51.9031E+06     1.36422E+06    -110.800E-03     215.585E-03    -104.785E-03     73.8572E-03    -112.050E-03     216.824E-03    -104.583E-03     70.1289E-03
            2140     11.3533E-03     20.0524E-03    -31.0115E+06     21.6882E+06     44.0225E+06     1.37299E+06    -111.129E-03     215.522E-03    -104.393E-03     80.2006E-03    -112.370E-03     216.602E-03    -104.159E-03     76.4699E-03
            2141     10.5474E-03     19.9599E-03    -36.4527E+06    -9.01468E+06     34.2956E+06     1.25661E+06    -111.106E-03     215.022E-03    -103.916E-03     83.4156E-03    -112.294E-03     215.949E-03    -103.679E-03     79.7766E-03
            2142     9.74113E-03     19.8645E-03    -42.0325E+06    -40.5909E+06     24.6900E+06     1.18051E+06    -110.715E-03     214.107E-03    -103.393E-03     83.4857E-03    -111.794E-03     214.822E-03    -103.150E-03     80.0358E-03
            2143     8.93438E-03     19.7692E-03    -47.5988E+06    -66.9798E+06     15.1135E+06     1.14270E+06    -109.945E-03     212.770E-03    -102.825E-03     81.0868E-03    -110.885E-03     213.260E-03    -102.583E-03     77.9133E-03
            2144     8.12690E-03     19.6768E-03    -53.3327E+06    -93.8949E+06     5.33095E+06     1.11401E+06    -108.873E-03     211.109E-03    -102.236E-03     76.9073E-03    -109.655E-03     211.354E-03    -101.996E-03     74.0691E-03
            2145     7.31849E-03     19.5888E-03    -59.6207E+06    -116.700E+06    -4.49628E+06     1.15225E+06    -107.568E-03     209.206E-03    -101.638E-03     71.5979E-03    -108.202E-03     209.227E-03    -101.404E-03     69.1259E-03
            2146     6.50907E-03     19.5067E-03    -66.2411E+06    -139.490E+06    -14.5684E+06     1.60570E+06    -106.130E-03     207.180E-03    -101.050E-03     65.4909E-03    -106.628E-03     206.990E-03    -100.825E-03     63.3938E-03
            2147     5.69856E-03     19.4315E-03    -73.0631E+06    -161.791E+06    -24.8431E+06     2.13797E+06    -104.638E-03     205.127E-03    -100.488E-03     58.7773E-03    -105.019E-03     204.746E-03    -100.272E-03     57.0420E-03
            2148     4.88697E-03     19.3641E-03    -80.2146E+06    -180.737E+06    -35.6378E+06     2.30874E+06    -103.158E-03     203.119E-03    -99.9617E-03     51.5767E-03    -103.445E-03     202.584E-03    -99.7615E-03     50.1744E-03
            2149     4.07431E-03     19.3053E-03    -87.8752E+06    -197.808E+06    -49.1085E+06     2.57192E+06    -101.765E-03     201.241E-03    -99.4759E-03     43.9273E-03    -101.980E-03     200.584E-03    -99.3072E-03     42.8303E-03
            2150     3.26072E-03     19.2559E-03    -95.8249E+06    -216.752E+06    -64.8268E+06     2.58983E+06    -100.544E-03     199.593E-03    -99.0495E-03     35.8482E-03    -100.697E-03     198.824E-03    -98.9204E-03     35.0223E-03
            2151     2.44630E-03     19.2165E-03    -103.672E+06    -233.952E+06    -81.4579E+06     2.07951E+06    -99.5427E-03     198.233E-03    -98.6905E-03     27.4052E-03    -99.6486E-03     197.377E-03    -98.6083E-03     26.8143E-03
            2152     1.63125E-03     19.1878E-03    -110.612E+06    -244.200E+06    -98.6159E+06     1.50741E+06    -98.7888E-03     197.186E-03    -98.3968E-03     18.7023E-03    -98.8652E-03     196.288E-03    -98.3755E-03     18.3198E-03
            2153     815.744E-06     19.1699E-03    -115.272E+06    -248.764E+06    -111.967E+06     939.337E+03    -98.3516E-03     196.502E-03    -98.1500E-03     10.2223E-03    -98.4114E-03     195.594E-03    -98.1819E-03     10.0211E-03
            2154     15.3831E-03     19.1831E-03    -4.91835E+06     113.411E+06     90.5576E+06     381.612E+03    -109.732E-03     215.836E-03    -106.104E-03     16.9240E-03    -110.421E-03     216.647E-03    -105.808E-03     14.0928E-03
            2155     14.5769E-03     19.1478E-03    -10.1213E+06     109.484E+06     83.4837E+06     694.889E+03    -109.827E-03     215.659E-03    -105.832E-03     40.0469E-03    -110.769E-03     216.712E-03    -105.559E-03     36.6281E-03
            2156     13.7710E-03     19.1010E-03    -15.2964E+06     104.847E+06     73.9063E+06     925.719E+03    -110.437E-03     215.942E-03    -105.505E-03     52.1858E-03    -111.498E-03     217.107E-03    -105.266E-03     48.6532E-03
            2157     12.9654E-03     19.0371E-03    -20.4469E+06     100.650E+06     62.8021E+06     1.17078E+06    -111.210E-03     216.316E-03    -105.105E-03     64.0192E-03    -112.404E-03     217.612E-03    -104.908E-03     60.3337E-03
            2158     12.1602E-03     18.9615E-03    -25.8166E+06     65.2613E+06     51.8160E+06     1.30605E+06    -111.938E-03     216.610E-03    -104.672E-03     72.0646E-03    -113.165E-03     217.827E-03    -104.470E-03     68.3143E-03
            2159     11.3554E-03     18.8765E-03    -31.0854E+06     22.0245E+06     43.9469E+06     1.20223E+06    -112.385E-03     216.567E-03    -104.181E-03     77.5292E-03    -113.591E-03     217.613E-03    -103.948E-03     73.7875E-03
            2160     10.5505E-03     18.7852E-03    -36.1410E+06    -8.75021E+06     34.4342E+06     1.18894E+06    -112.357E-03     215.941E-03    -103.584E-03     79.8683E-03    -113.499E-03     216.824E-03    -103.347E-03     76.2379E-03
            2161     9.74538E-03     18.6913E-03    -41.2147E+06    -40.2484E+06     24.9855E+06     1.20732E+06    -111.840E-03     214.763E-03    -102.922E-03     79.1342E-03    -112.865E-03     215.426E-03    -102.679E-03     75.7149E-03
            2162     8.93958E-03     18.5980E-03    -46.6398E+06    -66.8131E+06     15.4297E+06     1.32732E+06    -110.842E-03     213.047E-03    -102.204E-03     76.0848E-03    -111.724E-03     213.481E-03    -101.963E-03     72.9638E-03
            2163     8.13288E-03     18.5079E-03    -52.5415E+06    -93.6169E+06     5.64771E+06     1.61080E+06    -109.465E-03     210.925E-03    -101.460E-03     71.4775E-03    -110.193E-03     211.118E-03    -101.220E-03     68.7120E-03
            2164     7.32502E-03     18.4224E-03    -58.7713E+06    -116.556E+06    -4.11597E+06     1.94264E+06    -107.814E-03     208.521E-03    -100.707E-03     65.9864E-03    -108.398E-03     208.495E-03    -100.474E-03     63.6020E-03
            2165     6.51584E-03     18.3429E-03    -65.3894E+06    -139.688E+06    -14.1466E+06     2.33513E+06    -106.015E-03     205.988E-03    -99.9723E-03     59.9390E-03    -106.471E-03     205.756E-03    -99.7457E-03     57.9342E-03
            2166     5.70528E-03     18.2702E-03    -72.2928E+06    -161.104E+06    -24.4870E+06     2.42277E+06    -104.168E-03     203.441E-03    -99.2724E-03     53.5055E-03    -104.515E-03     203.030E-03    -99.0564E-03     51.8572E-03
            2167     4.89331E-03     18.2052E-03    -79.5613E+06    -180.314E+06    -35.4907E+06     2.47637E+06    -102.370E-03     200.993E-03    -98.6232E-03     46.7576E-03    -102.632E-03     200.436E-03    -98.4238E-03     45.4363E-03
            2168     4.08004E-03     18.1486E-03    -87.1706E+06    -197.383E+06    -48.8070E+06     2.81270E+06    -100.707E-03     198.739E-03    -98.0322E-03     39.7010E-03    -100.902E-03     198.066E-03    -97.8636E-03     38.6770E-03
            2169     3.26558E-03     18.1011E-03    -94.8812E+06    -215.131E+06    -64.0875E+06     2.86015E+06    -99.2541E-03     196.772E-03    -97.5179E-03     32.3414E-03    -99.3947E-03     195.998E-03    -97.3888E-03     31.5776E-03
            2170     2.45011E-03     18.0633E-03    -102.513E+06    -232.066E+06    -80.8061E+06     2.58318E+06    -98.0734E-03     195.163E-03    -97.0899E-03     24.6946E-03    -98.1711E-03     194.307E-03    -97.0088E-03     24.1555E-03
            2171     1.63386E-03     18.0357E-03    -109.426E+06    -241.745E+06    -97.9430E+06     1.90753E+06    -97.1962E-03     193.944E-03    -96.7481E-03     16.8404E-03    -97.2684E-03     193.054E-03    -96.7286E-03     16.4940E-03
            2172     817.091E-06     18.0186E-03    -114.258E+06    -246.433E+06    -111.037E+06     802.519E+03    -96.6569E-03     193.164E-03    -96.5067E-03     9.20842E-03    -96.7154E-03     192.264E-03    -96.5389E-03     9.02214E-03
            2173     15.3825E-03     18.0056E-03    -4.96469E+06     113.048E+06     90.2209E+06     421.693E+03    -109.872E-03     215.995E-03    -106.123E-03     16.4582E-03    -110.555E-03     216.799E-03    -105.828E-03     13.6312E-03
            2174     14.5766E-03     17.9705E-03    -9.95045E+06     109.185E+06     83.5411E+06     594.496E+03    -110.473E-03     216.304E-03    -105.832E-03     39.3256E-03    -111.405E-03     217.347E-03    -105.558E-03     35.8900E-03
            2175     13.7713E-03     17.9232E-03    -15.0380E+06     104.467E+06     74.0473E+06     855.823E+03    -111.564E-03     217.016E-03    -105.452E-03     50.9397E-03    -112.610E-03     218.164E-03    -105.212E-03     47.3758E-03
            2176     12.9668E-03     17.8590E-03    -20.1443E+06     100.324E+06     63.0234E+06     1.15026E+06    -112.697E-03     217.662E-03    -104.965E-03     61.7349E-03    -113.861E-03     218.927E-03    -104.766E-03     58.0212E-03
            2177     12.1629E-03     17.7835E-03    -25.0561E+06     65.8286E+06     52.3879E+06     1.13057E+06    -113.641E-03     218.052E-03    -104.410E-03     68.6750E-03    -114.822E-03     219.225E-03    -104.207E-03     64.9075E-03
            2178     11.3596E-03     17.6993E-03    -29.8961E+06     22.4849E+06     44.4809E+06     835.694E+03    -114.166E-03     217.933E-03    -103.767E-03     72.9077E-03    -115.308E-03     218.919E-03    -103.533E-03     69.1677E-03
            2179     10.5563E-03     17.6092E-03    -34.7804E+06    -8.84660E+06     34.9155E+06     942.124E+03    -114.046E-03     217.038E-03    -102.991E-03     74.0825E-03    -115.110E-03     217.845E-03    -102.754E-03     70.4822E-03
            2180     9.75261E-03     17.5173E-03    -39.8865E+06    -40.0962E+06     25.4886E+06     1.39137E+06    -113.278E-03     215.410E-03    -102.131E-03     72.3751E-03    -114.220E-03     215.993E-03    -101.888E-03     69.0203E-03
            2181     8.94811E-03     17.4266E-03    -45.3826E+06    -66.7345E+06     15.9964E+06     1.76732E+06    -111.906E-03     213.111E-03    -101.205E-03     68.6207E-03    -112.705E-03     213.466E-03    -100.963E-03     65.5939E-03
            2182     8.14237E-03     17.3394E-03    -51.2205E+06    -93.4785E+06     6.33319E+06     2.16668E+06    -110.071E-03     210.323E-03    -100.251E-03     63.6475E-03    -110.722E-03     210.441E-03    -100.010E-03     60.9983E-03
            2183     7.33507E-03     17.2571E-03    -57.3045E+06    -116.397E+06    -3.31472E+06     2.57145E+06    -107.927E-03     207.222E-03    -99.2944E-03     58.1197E-03    -108.443E-03     207.130E-03    -99.0591E-03     55.8651E-03
            2184     6.52604E-03     17.1809E-03    -63.6895E+06    -139.287E+06    -13.1399E+06     2.90339E+06    -105.636E-03     204.004E-03    -98.3682E-03     52.3201E-03    -106.033E-03     203.719E-03    -98.1396E-03     50.4483E-03
            2185     5.71520E-03     17.1114E-03    -70.5639E+06    -160.144E+06    -23.3356E+06     3.09973E+06    -103.326E-03     200.820E-03    -97.4941E-03     46.3778E-03    -103.626E-03     200.369E-03    -97.2763E-03     44.8604E-03
            2186     4.90258E-03     17.0494E-03    -78.0489E+06    -179.625E+06    -34.6564E+06     3.20349E+06    -101.115E-03     197.807E-03    -96.6912E-03     40.3264E-03    -101.342E-03     197.219E-03    -96.4908E-03     39.1265E-03
            2187     4.08829E-03     16.9955E-03    -85.9241E+06    -196.619E+06    -48.7103E+06     3.32481E+06    -99.1026E-03     195.070E-03    -95.9672E-03     34.1268E-03    -99.2719E-03     194.377E-03    -95.8011E-03     33.2065E-03
            2188     3.27253E-03     16.9503E-03    -93.9744E+06    -213.569E+06    -63.8243E+06     3.39079E+06    -97.3674E-03     192.715E-03    -95.3478E-03     27.7441E-03    -97.4929E-03     191.934E-03    -95.2210E-03     27.0663E-03
            2189     2.45552E-03     16.9143E-03    -101.990E+06    -230.045E+06    -80.1767E+06     3.18962E+06    -95.9724E-03     190.813E-03    -94.8409E-03     21.1636E-03    -96.0640E-03     189.958E-03    -94.7604E-03     20.6923E-03
            2190     1.63757E-03     16.8880E-03    -108.832E+06    -238.595E+06    -98.0275E+06     2.52418E+06    -94.9464E-03     189.386E-03    -94.4393E-03     14.4312E-03    -95.0167E-03     188.506E-03    -94.4257E-03     14.1333E-03
            2191     818.934E-06     16.8718E-03    -113.318E+06    -243.400E+06    -111.058E+06     1.38489E+06    -94.2984E-03     188.502E-03    -94.2038E-03     7.88937E-03    -94.3557E-03     187.615E-03    -94.2418E-03     7.73270E-03
            2192     15.3825E-03     16.8276E-03    -4.76862E+06     112.742E+06     90.1694E+06     243.912E+03    -110.754E-03     216.856E-03    -106.102E-03     15.8617E-03    -111.429E-03     217.653E-03    -105.808E-03     13.0090E-03
            2193     14.5775E-03     16.7922E-03    -9.69040E+06     108.797E+06     83.6728E+06     477.409E+03    -111.971E-03     217.714E-03    -105.743E-03     37.8284E-03    -112.888E-03     218.740E-03    -105.469E-03     34.3507E-03
            2194     13.7736E-03     16.7437E-03    -14.7043E+06     104.187E+06     74.3835E+06     703.528E+03    -113.522E-03     218.777E-03    -105.256E-03     48.4995E-03    -114.538E-03     219.896E-03    -105.014E-03     44.8913E-03
            2195     12.9708E-03     16.6792E-03    -19.3533E+06     100.457E+06     63.9187E+06     526.697E+03    -115.000E-03     219.620E-03    -104.620E-03     57.8293E-03    -116.114E-03     220.836E-03    -104.418E-03     54.0795E-03
            2196     12.1690E-03     16.6037E-03    -23.4840E+06     66.5182E+06     53.5592E+06     269.376E+03    -116.099E-03     219.974E-03    -103.875E-03     63.2137E-03    -117.207E-03     221.079E-03    -103.669E-03     59.4305E-03
            2197     11.3678E-03     16.5203E-03    -27.7355E+06     22.5958E+06     45.4440E+06     455.809E+03    -116.536E-03     219.542E-03    -103.006E-03     65.8838E-03    -117.582E-03     220.439E-03    -102.771E-03     62.1688E-03
            2198     10.5666E-03     16.4321E-03    -32.7693E+06    -9.23541E+06     35.7905E+06     1.12461E+06    -116.113E-03     218.097E-03    -101.983E-03     65.8055E-03    -117.071E-03     218.802E-03    -101.743E-03     62.2763E-03
            2199     9.76482E-03     16.3428E-03    -38.2763E+06    -40.0586E+06     26.3652E+06     1.73950E+06    -114.887E-03     215.748E-03    -100.861E-03     63.2217E-03    -115.722E-03     216.229E-03    -100.616E-03     59.9770E-03
            2200     8.96179E-03     16.2554E-03    -43.8651E+06    -66.5723E+06     16.9183E+06     2.19409E+06    -112.956E-03     212.626E-03    -99.6702E-03     58.9712E-03    -113.654E-03     212.884E-03    -99.4255E-03     56.0856E-03
            2201     8.15703E-03     16.1720E-03    -49.5539E+06    -93.2146E+06     7.27028E+06     2.65525E+06    -110.514E-03     208.968E-03    -98.4549E-03     53.8848E-03    -111.072E-03     208.999E-03    -98.2115E-03     51.3971E-03
            2202     7.35018E-03     16.0939E-03    -55.4567E+06    -116.039E+06    -2.34785E+06     3.06171E+06    -107.749E-03     204.998E-03    -97.2489E-03     48.5685E-03    -108.185E-03     204.833E-03    -97.0120E-03     46.4830E-03
            2203     6.54104E-03     16.0218E-03    -61.7953E+06    -138.757E+06    -12.1544E+06     3.53697E+06    -104.856E-03     200.947E-03    -96.0912E-03     43.2464E-03    -105.188E-03     200.603E-03    -95.8611E-03     41.5428E-03
            2204     5.72957E-03     15.9563E-03    -68.6917E+06    -159.380E+06    -22.3671E+06     4.01942E+06    -101.986E-03     196.994E-03    -95.0075E-03     38.0080E-03    -102.236E-03     196.499E-03    -94.7886E-03     36.6516E-03
            2205     4.91581E-03     15.8980E-03    -76.1103E+06    -178.356E+06    -33.7071E+06     4.25119E+06    -99.2784E-03     193.298E-03    -94.0199E-03     32.8443E-03    -99.4665E-03     192.681E-03    -93.8195E-03     31.7905E-03
            2206     4.09997E-03     15.8473E-03    -83.9619E+06    -195.470E+06    -47.3002E+06     4.32655E+06    -96.8429E-03     189.985E-03    -93.1425E-03     27.6776E-03    -96.9847E-03     189.272E-03    -92.9738E-03     26.8825E-03
            2207     3.28228E-03     15.8049E-03    -92.0990E+06    -211.880E+06    -62.3816E+06     4.48478E+06    -94.7671E-03     187.163E-03    -92.3955E-03     22.4399E-03    -94.8744E-03     186.371E-03    -92.2667E-03     21.8665E-03
            2208     2.46308E-03     15.7711E-03    -100.099E+06    -227.194E+06    -78.9139E+06     4.08232E+06    -93.1149E-03     184.902E-03    -91.7876E-03     17.0915E-03    -93.1956E-03     184.049E-03    -91.7075E-03     16.6994E-03
            2209     1.64269E-03     15.7465E-03    -106.911E+06    -235.101E+06    -95.9786E+06     3.06611E+06    -91.9110E-03     183.228E-03    -91.3173E-03     11.6461E-03    -91.9765E-03     182.357E-03    -91.3013E-03     11.4006E-03
            2210     821.558E-06     15.7311E-03    -111.309E+06    -239.191E+06    -108.498E+06     1.96507E+06    -91.1450E-03     182.188E-03    -91.0434E-03     6.35048E-03    -91.2012E-03     181.314E-03    -91.0777E-03     6.22607E-03
            2211     15.3838E-03     15.6479E-03    -4.93785E+06     112.544E+06     90.2550E+06     4.35564E+03    -112.847E-03     218.853E-03    -106.006E-03     15.3627E-03    -113.519E-03     219.645E-03    -105.711E-03     12.4384E-03
            2212     14.5808E-03     15.6117E-03    -9.63669E+06     108.530E+06     84.1737E+06     41.6455E+03    -114.626E-03     220.137E-03    -105.511E-03     35.9151E-03    -115.526E-03     221.144E-03    -105.234E-03     32.3531E-03
            2213     13.7791E-03     15.5619E-03    -14.0128E+06     104.381E+06     75.5541E+06    -209.651E+03    -116.595E-03     221.436E-03    -104.841E-03     45.1798E-03    -117.576E-03     222.518E-03    -104.594E-03     41.4894E-03
            2214     12.9790E-03     15.4967E-03    -17.8341E+06     101.334E+06     65.5324E+06    -958.163E+03    -118.264E-03     222.239E-03    -103.975E-03     52.6100E-03    -119.316E-03     223.397E-03    -103.769E-03     48.7958E-03
            2215     12.1801E-03     15.4214E-03    -21.7107E+06     66.4543E+06     54.7207E+06    -929.291E+03    -119.254E-03     222.215E-03    -102.962E-03     56.3077E-03    -120.275E-03     223.237E-03    -102.753E-03     52.5052E-03
            2216     11.3817E-03     15.3395E-03    -26.4463E+06     21.5545E+06     45.9287E+06     377.939E+03    -119.318E-03     221.118E-03    -101.799E-03     57.5579E-03    -120.262E-03     221.912E-03    -101.563E-03     53.8888E-03
            2217     10.5829E-03     15.2539E-03    -31.6690E+06    -9.41411E+06     36.4984E+06     1.48144E+06    -118.346E-03     218.817E-03    -100.471E-03     56.4612E-03    -119.196E-03     219.416E-03    -100.229E-03     53.0320E-03
            2218     9.78301E-03     15.1682E-03    -36.8619E+06    -39.8783E+06     27.1647E+06     2.04684E+06    -116.466E-03     215.505E-03    -99.0388E-03     53.2220E-03    -117.193E-03     215.882E-03    -98.7917E-03     50.1161E-03
            2219     8.98125E-03     15.0852E-03    -42.1856E+06    -66.2681E+06     17.6553E+06     2.54892E+06    -113.836E-03     211.378E-03    -97.5412E-03     48.6470E-03    -114.433E-03     211.539E-03    -97.2957E-03     45.9277E-03
            2220     8.17717E-03     15.0068E-03    -47.7691E+06    -92.8263E+06     7.93855E+06     3.08538E+06    -110.686E-03     206.715E-03    -96.0293E-03     43.5567E-03    -111.156E-03     206.663E-03    -95.7858E-03     41.2493E-03
            2221     7.37039E-03     14.9338E-03    -53.7041E+06    -115.632E+06    -1.78966E+06     3.67750E+06    -107.221E-03     201.762E-03    -94.5413E-03     38.5220E-03    -107.583E-03     201.528E-03    -94.3047E-03     36.6204E-03
            2222     6.56074E-03     14.8669E-03    -60.0054E+06    -138.239E+06    -11.5867E+06     4.33189E+06    -103.652E-03     196.773E-03    -93.1207E-03     33.7318E-03    -103.924E-03     196.375E-03    -92.8912E-03     32.2060E-03
            2223     5.74818E-03     14.8063E-03    -66.6995E+06    -158.670E+06    -21.6206E+06     4.95312E+06    -100.150E-03     191.948E-03    -91.7982E-03     29.2464E-03    -100.353E-03     191.414E-03    -91.5795E-03     28.0543E-03
            2224     4.93284E-03     14.7525E-03    -73.9483E+06    -176.885E+06    -33.0317E+06     5.38324E+06    -96.8684E-03     187.466E-03    -90.5972E-03     25.0275E-03    -97.0210E-03     186.823E-03    -90.3987E-03     24.1211E-03
            2225     4.11492E-03     14.7059E-03    -81.8380E+06    -194.024E+06    -46.0094E+06     5.68268E+06    -93.9380E-03     183.480E-03    -89.5420E-03     20.9693E-03    -94.0546E-03     182.750E-03    -89.3721E-03     20.3029E-03
            2226     3.29476E-03     14.6668E-03    -90.0491E+06    -209.574E+06    -60.7032E+06     5.71754E+06    -91.4592E-03     180.106E-03    -88.6469E-03     16.9626E-03    -91.5507E-03     179.309E-03    -88.5160E-03     16.4935E-03
            2227     2.47273E-03     14.6356E-03    -97.8532E+06    -223.349E+06    -77.2164E+06     4.96498E+06    -89.5013E-03     177.420E-03    -87.9188E-03     12.9154E-03    -89.5727E-03     176.574E-03    -87.8392E-03     12.6001E-03
            2228     1.64933E-03     14.6129E-03    -104.491E+06    -230.832E+06    -93.4907E+06     3.55094E+06    -88.0768E-03     175.440E-03    -87.3635E-03     8.81230E-03    -88.1374E-03     174.580E-03    -87.3447E-03     8.61637E-03
            2229     824.925E-06     14.5987E-03    -109.048E+06    -234.407E+06    -105.965E+06     1.90402E+06    -87.1832E-03     174.195E-03    -87.0122E-03     4.81435E-03    -87.2380E-03     173.337E-03    -87.0440E-03     4.71240E-03
            2230     15.3866E-03     14.4652E-03    -4.69826E+06     112.773E+06     90.8954E+06    -465.768E+03    -116.350E-03     222.173E-03    -105.823E-03     15.3520E-03    -117.025E-03     222.968E-03    -105.526E-03     12.2938E-03
            2231     14.5864E-03     14.4278E-03    -9.03866E+06     108.760E+06     85.6257E+06    -1.02791E+06    -118.610E-03     223.724E-03    -105.114E-03     34.1155E-03    -119.501E-03     224.721E-03    -104.830E-03     30.3928E-03
            2232     13.7884E-03     14.3763E-03    -12.9352E+06     105.309E+06     77.3966E+06    -1.85942E+06    -120.705E-03     224.885E-03    -104.180E-03     41.8704E-03    -121.659E-03     225.943E-03    -103.927E-03     38.0329E-03
            2233     12.9921E-03     14.3109E-03    -16.9513E+06     102.101E+06     66.2047E+06    -2.60971E+06    -122.195E-03     225.208E-03    -103.013E-03     47.7064E-03    -123.196E-03     226.319E-03    -102.805E-03     43.7960E-03
            2234     12.1964E-03     14.2366E-03    -21.5147E+06     64.8954E+06     54.3496E+06    -1.56639E+06    -122.799E-03     224.478E-03    -101.678E-03     49.9785E-03    -123.749E-03     225.424E-03    -101.469E-03     46.1524E-03
            2235     11.4008E-03     14.1571E-03    -26.3022E+06     20.0747E+06     45.4814E+06     283.355E+03    -122.307E-03     222.488E-03    -100.181E-03     49.9379E-03    -123.166E-03     223.194E-03    -99.9441E-03     46.3089E-03
            2236     10.6042E-03     14.0752E-03    -31.0078E+06    -9.36525E+06     36.3568E+06     1.28374E+06    -120.651E-03     219.160E-03    -98.5086E-03     47.8068E-03    -121.411E-03     219.672E-03    -98.2683E-03     44.4646E-03
            2237     9.80606E-03     13.9943E-03    -35.8948E+06    -39.8638E+06     27.0017E+06     2.06766E+06    -118.015E-03     214.750E-03    -96.7348E-03     43.8101E-03    -118.652E-03     215.041E-03    -96.4899E-03     40.8314E-03
            2238     9.00544E-03     13.9170E-03    -41.1358E+06    -65.9378E+06     17.4912E+06     2.83996E+06    -114.599E-03     209.501E-03    -94.9021E-03     38.7859E-03    -115.113E-03     209.585E-03    -94.6594E-03     36.2218E-03
            2239     8.20185E-03     13.8447E-03    -46.7063E+06    -92.4982E+06     7.84459E+06     3.61205E+06    -110.664E-03     203.731E-03    -93.0676E-03     33.5771E-03    -111.061E-03     203.612E-03    -92.8265E-03     31.4392E-03
            2240     7.39496E-03     13.7780E-03    -52.5595E+06    -115.238E+06    -1.77366E+06     4.36971E+06    -106.431E-03     197.703E-03    -91.2726E-03     28.7404E-03    -106.732E-03     197.415E-03    -91.0381E-03     27.0102E-03
            2241     6.58455E-03     13.7173E-03    -58.7635E+06    -137.685E+06    -11.4917E+06     5.15985E+06    -102.123E-03     191.688E-03    -89.5645E-03     24.4333E-03    -102.347E-03     191.248E-03    -89.3371E-03     23.0716E-03
            2242     5.77062E-03     13.6627E-03    -65.4530E+06    -157.830E+06    -21.2742E+06     5.87965E+06    -97.9242E-03     185.903E-03    -87.9792E-03     20.6721E-03    -98.0913E-03     185.340E-03    -87.7618E-03     19.6300E-03
            2243     4.95328E-03     13.6144E-03    -72.6121E+06    -175.639E+06    -33.0173E+06     6.56902E+06    -94.0033E-03     180.544E-03    -86.5408E-03     17.3711E-03    -94.1291E-03     179.884E-03    -86.3459E-03     16.5988E-03
            2244     4.13281E-03     13.5726E-03    -80.2001E+06    -192.256E+06    -45.7782E+06     7.14389E+06    -90.5090E-03     175.792E-03    -85.2831E-03     14.4008E-03    -90.6060E-03     175.054E-03    -85.1170E-03     13.8514E-03
            2245     3.30961E-03     13.5375E-03    -88.0948E+06    -206.224E+06    -59.3913E+06     6.94871E+06    -87.5587E-03     171.783E-03    -84.2246E-03     11.6190E-03    -87.6385E-03     170.989E-03    -84.0948E-03     11.2429E-03
            2246     2.48422E-03     13.5095E-03    -95.6801E+06    -218.516E+06    -75.2390E+06     5.59500E+06    -85.2348E-03     168.604E-03    -83.3694E-03     8.88185E-03    -85.3006E-03     167.771E-03    -83.2901E-03     8.63145E-03
            2247     1.65711E-03     13.4890E-03    -101.867E+06    -225.950E+06    -91.3404E+06     3.73481E+06    -83.5592E-03     166.285E-03    -82.7255E-03     6.10801E-03    -83.6150E-03     165.440E-03    -82.7069E-03     5.95204E-03
            2248     828.855E-06     13.4763E-03    -105.795E+06    -229.424E+06    -103.405E+06     2.16018E+06    -82.5493E-03     164.850E-03    -82.3005E-03     3.36104E-03    -82.5983E-03     164.007E-03    -82.3314E-03     3.28257E-03
            2249     15.3904E-03     13.2776E-03    -4.14503E+06     113.790E+06     92.8445E+06    -1.34739E+06    -120.843E-03     226.411E-03    -105.567E-03     16.0055E-03    -121.533E-03     227.221E-03    -105.262E-03     12.7484E-03
            2250     14.5949E-03     13.2386E-03    -8.26451E+06     109.686E+06     86.9177E+06    -2.47023E+06    -123.365E-03     227.950E-03    -104.585E-03     33.5659E-03    -124.266E-03     228.959E-03    -104.297E-03     29.6143E-03
            2251     13.8008E-03     13.1865E-03    -12.7993E+06     106.203E+06      76.797E+06    -3.26410E+06    -125.337E-03     228.675E-03    -103.338E-03     40.3072E-03    -126.285E-03     229.733E-03    -103.089E-03     36.2859E-03
            2252     13.0077E-03     13.1214E-03    -17.8159E+06     101.520E+06     63.9388E+06    -3.07629E+06    -126.515E-03     228.351E-03    -101.836E-03     44.6591E-03    -127.490E-03     229.439E-03    -101.638E-03     40.6368E-03
            2253     12.2154E-03     13.0491E-03    -22.8023E+06     63.2964E+06     51.7868E+06    -1.90689E+06    -126.651E-03     226.804E-03    -100.153E-03     45.2653E-03    -127.559E-03     227.706E-03    -99.9523E-03     41.3837E-03
            2254     11.4227E-03     12.9731E-03    -27.1993E+06     18.8623E+06     43.5916E+06    -654.076E+03    -125.514E-03     223.809E-03    -98.2946E-03     43.7068E-03    -126.318E-03     224.458E-03    -98.0646E-03     40.0686E-03
            2255     10.6287E-03     12.8962E-03    -31.5323E+06    -9.96060E+06     34.6876E+06     660.618E+03    -123.098E-03     219.353E-03    -96.2556E-03     40.3293E-03    -123.795E-03     219.804E-03    -96.0220E-03     37.0296E-03
            2256     9.83231E-03     12.8214E-03    -36.3044E+06    -40.1688E+06     25.6322E+06     1.95681E+06    -119.616E-03     213.735E-03    -94.1196E-03     35.4745E-03    -120.190E-03     213.965E-03    -93.8805E-03     32.5837E-03
            2257     9.03284E-03     12.7510E-03    -41.4352E+06    -65.9402E+06     16.3561E+06     3.04324E+06    -115.318E-03     207.254E-03    -91.9359E-03     30.0208E-03    -115.774E-03     207.283E-03    -91.6984E-03     27.5747E-03
            2258     8.22969E-03     12.6861E-03    -46.8349E+06    -92.1905E+06     7.09723E+06     4.02164E+06    -110.515E-03     200.283E-03    -89.7680E-03     24.7799E-03    -110.864E-03     200.119E-03    -89.5310E-03     22.7746E-03
            2259     7.42248E-03     12.6270E-03    -52.4785E+06    -114.835E+06    -2.14612E+06     4.82831E+06    -105.461E-03     193.121E-03    -87.6603E-03     20.2360E-03    -105.723E-03     192.797E-03    -87.4284E-03     18.6392E-03
            2260     6.61107E-03     12.5738E-03    -58.3444E+06    -137.139E+06    -11.5167E+06     5.69799E+06    -100.392E-03     186.053E-03    -85.6610E-03     16.4590E-03    -100.586E-03     185.587E-03    -85.4352E-03     15.2234E-03
            2261     5.79546E-03     12.5264E-03    -64.4836E+06    -156.875E+06    -20.7174E+06     6.46689E+06    -95.4901E-03     179.298E-03    -83.8082E-03     13.3894E-03    -95.6336E-03     178.716E-03    -83.5908E-03     12.4605E-03
            2262     4.97587E-03     12.4845E-03    -71.0417E+06    -174.781E+06    -31.4977E+06     7.35774E+06    -90.9266E-03     173.056E-03    -82.1297E-03     10.8917E-03    -91.0336E-03     172.382E-03    -81.9307E-03     10.2192E-03
            2263     4.15259E-03     12.4484E-03    -78.0058E+06    -190.115E+06    -43.5300E+06     8.05194E+06    -86.8438E-03     167.501E-03    -80.6570E-03     8.83135E-03    -86.9268E-03     166.757E-03    -80.4858E-03     8.36696E-03
            2264     3.32609E-03     12.4181E-03      -84.97E+06    -201.997E+06    -57.2231E+06     7.53994E+06    -83.3698E-03     162.782E-03    -79.4122E-03     7.05877E-03    -83.4376E-03     161.996E-03    -79.2822E-03     6.74797E-03
            2265     2.49689E-03     12.3938E-03    -91.4387E+06    -212.875E+06    -72.4054E+06     5.84495E+06    -80.6240E-03     159.041E-03    -78.4169E-03     5.40381E-03    -80.6780E-03     158.223E-03    -78.3376E-03     5.19946E-03
            2266     1.66571E-03     12.3760E-03    -97.0976E+06    -220.929E+06    -86.6697E+06     3.71514E+06    -78.6624E-03     156.347E-03    -77.6851E-03     3.74573E-03    -78.7070E-03     155.512E-03    -77.6573E-03     3.61813E-03
            2267     833.195E-06     12.3649E-03    -101.074E+06    -224.418E+06    -97.9546E+06     2.19351E+06    -77.5176E-03     154.692E-03    -77.1742E-03     2.07143E-03    -77.5579E-03     153.859E-03    -77.1920E-03     2.00885E-03
            2268     15.3956E-03     12.0847E-03    -5.17165E+06     116.465E+06     93.3466E+06    -1.87006E+06    -125.394E-03     230.665E-03    -105.271E-03     17.8694E-03    -126.119E-03     231.514E-03    -104.966E-03     14.3918E-03
            2269     14.6032E-03     12.0442E-03    -10.1845E+06     111.416E+06     83.0177E+06    -3.73427E+06    -128.080E-03     232.080E-03    -104.000E-03     34.8616E-03    -129.017E-03     233.135E-03    -103.732E-03     30.6563E-03
            2270     13.8128E-03     11.9920E-03    -14.8122E+06     105.196E+06     71.9733E+06    -4.00811E+06    -130.264E-03     232.706E-03    -102.442E-03     40.2873E-03    -131.229E-03     233.784E-03    -102.213E-03     36.0526E-03
            2271     13.0240E-03     11.9279E-03    -19.3425E+06     100.370E+06     61.2411E+06    -3.27299E+06    -131.188E-03     231.791E-03    -100.603E-03     42.8437E-03    -132.164E-03     232.878E-03    -100.414E-03     38.6598E-03
            2272     12.2353E-03     11.8585E-03    -23.7139E+06     62.6270E+06     49.2206E+06    -2.42198E+06    -130.749E-03     229.300E-03    -98.5514E-03     41.7243E-03    -131.640E-03     230.188E-03    -98.3617E-03     37.7264E-03
            2273     11.4458E-03     11.7873E-03    -28.3423E+06     17.7086E+06     41.2646E+06    -1.25950E+06    -128.864E-03     225.186E-03    -96.3219E-03     38.7343E-03    -129.640E-03     225.806E-03    -96.1002E-03     35.0335E-03
            2274     10.6542E-03     11.7166E-03    -33.1981E+06    -11.2332E+06     32.2147E+06     117.810E+03    -125.558E-03     219.471E-03    -93.9133E-03     34.2898E-03    -126.222E-03     219.886E-03    -93.6878E-03     30.9807E-03
            2275     9.85966E-03     11.6494E-03    -37.9846E+06    -40.9044E+06     23.6729E+06     1.63650E+06    -121.096E-03     212.520E-03    -91.4247E-03     28.8606E-03    -121.638E-03     212.716E-03    -91.1919E-03     26.0061E-03
            2276     9.06112E-03     11.5874E-03    -42.8735E+06    -66.2108E+06     14.8130E+06     2.88775E+06    -115.824E-03     204.736E-03    -88.9120E-03     23.3438E-03    -116.252E-03     204.735E-03    -88.6797E-03     20.9640E-03
            2277     8.25808E-03     11.5314E-03    -47.8927E+06    -91.9678E+06     6.12131E+06     3.91307E+06    -110.130E-03     196.573E-03    -86.4436E-03     18.3986E-03    -110.456E-03     196.387E-03    -86.2102E-03     16.4721E-03
            2278     7.45026E-03     11.4813E-03    -53.0776E+06    -114.475E+06    -2.42252E+06     4.75714E+06    -104.289E-03     188.352E-03    -84.0633E-03     14.3598E-03    -104.535E-03     188.012E-03    -83.8325E-03     12.8427E-03
            2279     6.63758E-03     11.4367E-03    -58.4740E+06    -136.550E+06    -11.0887E+06     5.52782E+06    -98.5317E-03     180.347E-03    -81.8153E-03     11.2043E-03    -98.7133E-03     179.869E-03    -81.5879E-03     10.0411E-03
            2280     5.82018E-03     11.3974E-03    -64.2312E+06    -156.147E+06    -19.7290E+06     6.33280E+06    -93.0260E-03     172.759E-03    -79.7335E-03     8.80055E-03    -93.1614E-03     172.170E-03    -79.5126E-03     7.93476E-03
            2281     4.99825E-03     11.3631E-03    -70.4313E+06    -173.970E+06    -29.1535E+06     7.21456E+06    -87.9217E-03     165.769E-03    -77.8473E-03     6.97251E-03    -88.0243E-03     165.089E-03    -77.6387E-03     6.35196E-03
            2282     4.17220E-03     11.3336E-03    -76.5888E+06    -187.561E+06    -40.7613E+06     7.43997E+06    -83.3415E-03     159.517E-03    -76.1755E-03     5.56393E-03    -83.4215E-03     158.777E-03    -75.9963E-03     5.13423E-03
            2283     3.34244E-03     11.3088E-03    -82.2765E+06    -197.727E+06    -54.8348E+06     6.64714E+06    -79.4084E-03     154.154E-03    -74.7455E-03     4.41160E-03    -79.4702E-03     153.380E-03    -74.6137E-03     4.12155E-03
            2284     2.50962E-03     11.2890E-03    -87.4860E+06    -207.541E+06    -69.2470E+06     5.15450E+06    -76.2490E-03     149.844E-03    -73.5953E-03     3.36400E-03    -76.2942E-03     149.042E-03    -73.5137E-03     3.17404E-03
            2285     1.67440E-03     11.2743E-03    -91.9645E+06    -215.927E+06      -82.08E+06     3.24119E+06    -73.9476E-03     146.692E-03    -72.7446E-03     2.32536E-03    -73.9798E-03     145.868E-03    -72.7085E-03     2.20688E-03
            2286     837.637E-06     11.2650E-03    -95.1121E+06    -220.083E+06    -91.8982E+06     1.40280E+06    -72.5995E-03     144.719E-03    -72.1191E-03     1.28239E-03    -72.6247E-03     143.890E-03    -72.1216E-03     1.21762E-03
            2287     15.3995E-03     10.8876E-03    -5.55769E+06     119.474E+06     94.0752E+06    -1.11810E+06    -129.831E-03     234.838E-03    -105.007E-03     20.5557E-03    -130.597E-03     235.735E-03    -104.702E-03     16.8648E-03
            2288     14.6106E-03     10.8450E-03    -11.7306E+06     113.886E+06     80.3069E+06    -2.96402E+06    -132.838E-03     236.294E-03    -103.457E-03     36.7618E-03    -133.823E-03     237.409E-03    -103.203E-03     32.3111E-03
            2289     13.8245E-03     10.7919E-03    -17.2247E+06     104.584E+06     67.7764E+06    -4.42665E+06    -135.164E-03     236.754E-03    -101.590E-03     40.4837E-03    -136.164E-03     237.868E-03    -101.378E-03     36.0052E-03
            2290     13.0396E-03     10.7300E-03    -21.5329E+06     99.1974E+06     58.8879E+06    -4.60138E+06    -135.747E-03     235.169E-03    -99.4220E-03     41.5383E-03    -136.746E-03     236.274E-03    -99.2402E-03     37.1362E-03
            2291     12.2545E-03     10.6646E-03    -25.6353E+06     61.1361E+06     46.8294E+06    -3.12514E+06    -134.639E-03     231.660E-03    -97.0214E-03     39.1558E-03    -135.539E-03     232.552E-03    -96.8387E-03     34.9985E-03
            2292     11.4679E-03     10.5994E-03    -30.2033E+06     16.3296E+06     38.9420E+06    -1.27892E+06    -131.856E-03     226.305E-03    -94.4491E-03     35.1685E-03    -132.632E-03     226.921E-03    -94.2342E-03     31.3728E-03
            2293     10.6785E-03     10.5366E-03    -35.1133E+06    -12.2716E+06     30.0153E+06    -2.42275E+03    -127.495E-03     219.215E-03    -91.7203E-03     30.2024E-03    -128.155E-03     219.622E-03    -91.5015E-03     26.8519E-03
            2294     9.88512E-03     10.4786E-03    -40.0417E+06    -41.8114E+06     21.8280E+06     1.16334E+06    -121.959E-03     210.908E-03    -88.9491E-03     24.8152E-03    -122.497E-03     211.094E-03    -88.7212E-03     21.9571E-03
            2295     9.08690E-03     10.4266E-03    -44.7831E+06    -66.5714E+06     13.5429E+06     2.22141E+06    -115.720E-03     201.916E-03    -86.1958E-03     19.8157E-03    -116.147E-03     201.910E-03    -85.9666E-03     17.4548E-03
            2296     8.28341E-03     10.3807E-03    -49.5186E+06    -92.0336E+06     5.38108E+06     3.19955E+06    -109.227E-03     192.755E-03    -83.5273E-03     15.6433E-03    -109.556E-03     192.567E-03    -83.2952E-03     13.7456E-03
            2297     7.47451E-03     10.3406E-03    -54.3818E+06    -114.063E+06    -2.35338E+06     3.91894E+06    -102.760E-03     183.742E-03    -80.9824E-03     12.4498E-03    -103.012E-03     183.404E-03    -80.7499E-03     10.9605E-03
            2298     6.66029E-03     10.3057E-03    -59.4251E+06    -136.140E+06    -10.1564E+06     4.55652E+06    -96.5138E-03     175.111E-03    -78.5976E-03     10.0994E-03    -96.7032E-03     174.637E-03    -78.3648E-03     8.95783E-03
            2299     5.84091E-03     10.2753E-03    -64.8811E+06    -155.912E+06    -18.2025E+06     5.47905E+06    -90.6308E-03     167.028E-03    -76.3976E-03     8.40024E-03    -90.7741E-03     166.441E-03    -76.1685E-03     7.55134E-03
            2300     5.01674E-03     10.2492E-03    -70.6231E+06    -172.417E+06    -26.8507E+06     5.80581E+06    -85.2351E-03     159.638E-03    -74.4033E-03     7.12278E-03    -85.3465E-03     158.965E-03    -74.1852E-03     6.50536E-03
            2301     4.18816E-03     10.2269E-03    -76.1398E+06    -184.925E+06    -38.5925E+06     5.17030E+06    -80.4184E-03     153.041E-03    -72.6222E-03     6.05409E-03    -80.5051E-03     152.313E-03    -72.4366E-03     5.61005E-03
            2302     3.35574E-03     10.2084E-03    -81.2823E+06    -194.417E+06    -52.4743E+06     4.33706E+06    -76.2598E-03     147.342E-03    -71.0826E-03     5.04213E-03    -76.3261E-03     146.582E-03    -70.9452E-03     4.73217E-03
            2303     2.51998E-03     10.1936E-03    -85.9913E+06    -203.480E+06    -66.4233E+06     3.18501E+06    -72.8501E-03     142.672E-03    -69.8214E-03     3.97969E-03    -72.8984E-03     141.884E-03    -69.7338E-03     3.77070E-03
            2304     1.68163E-03     10.1826E-03    -89.7949E+06    -211.943E+06    -80.1377E+06     1.74487E+06    -70.2835E-03     139.145E-03    -68.8613E-03     2.79999E-03    -70.3135E-03     138.335E-03    -68.8245E-03     2.66598E-03
            2305     841.332E-06     10.1757E-03    -92.1933E+06    -217.407E+06    -89.5556E+06     534.219E+03    -68.7347E-03     136.873E-03    -68.1386E-03     1.55763E-03    -68.7523E-03     136.051E-03    -68.1374E-03     1.48349E-03
            2306     15.4024E-03     9.68500E-03    -4.72142E+06     120.622E+06     96.0372E+06    -408.213E+03    -134.300E-03     239.098E-03    -104.799E-03     22.9850E-03    -135.103E-03     240.034E-03    -104.486E-03     19.0714E-03
            2307     14.6178E-03     9.64013E-03    -10.1486E+06     116.143E+06     83.5968E+06    -1.04433E+06    -137.463E-03     240.458E-03    -102.995E-03     38.6686E-03    -138.496E-03     241.625E-03    -102.731E-03     33.9823E-03
            2308     13.8351E-03     9.58720E-03    -16.4747E+06     107.414E+06     68.5897E+06    -3.00803E+06    -139.460E-03     240.296E-03    -100.836E-03     40.9804E-03    -140.500E-03     241.460E-03    -100.625E-03     36.2884E-03
            2309     13.0535E-03     9.52785E-03    -22.6155E+06     98.6488E+06     56.4804E+06    -4.69545E+06    -139.484E-03     237.856E-03    -98.3724E-03     40.7342E-03    -140.514E-03     238.993E-03    -98.2002E-03     36.1346E-03
            2310     12.2712E-03     9.46776E-03    -27.7383E+06     58.2472E+06     44.0042E+06    -3.51015E+06    -137.522E-03     233.219E-03    -95.6967E-03     37.5091E-03    -138.446E-03     234.125E-03    -95.5209E-03     33.1995E-03
            2311     11.4867E-03     9.41006E-03    -32.4614E+06     14.5253E+06     36.7369E+06    -1.34625E+06    -133.604E-03     226.484E-03    -92.8803E-03     33.2490E-03    -134.401E-03     227.113E-03    -92.6706E-03     29.3624E-03
            2312     10.6983E-03     9.35674E-03    -37.3544E+06    -13.0927E+06     28.3662E+06    -23.6908E+03    -128.053E-03     218.012E-03    -89.9594E-03     28.6347E-03    -128.732E-03     218.432E-03    -89.7445E-03     25.2459E-03
            2313     9.90504E-03     9.30957E-03    -42.3371E+06    -42.2232E+06     20.7698E+06     761.898E+03    -121.479E-03     208.537E-03    -87.0587E-03     24.1898E-03    -122.038E-03     208.738E-03    -86.8322E-03     21.3235E-03
            2314     9.10606E-03     9.26880E-03    -47.2345E+06    -66.7312E+06     13.1467E+06     1.19695E+06    -114.444E-03     198.680E-03    -84.2365E-03     20.4839E-03    -114.897E-03     198.692E-03    -84.0055E-03     18.1237E-03
            2315     8.30120E-03     9.23411E-03    -51.7184E+06    -92.1390E+06     5.62938E+06     1.60300E+06    -107.401E-03     188.953E-03    -81.5514E-03     17.6857E-03    -107.757E-03     188.783E-03    -81.3147E-03     15.7861E-03
            2316     7.49052E-03     9.20470E-03    -55.9268E+06    -113.860E+06    -1.24296E+06     2.00193E+06    -100.611E-03     179.644E-03    -79.0331E-03     15.7330E-03    -100.888E-03     179.323E-03    -78.7931E-03     14.2361E-03
            2317     6.67428E-03     9.17982E-03    -60.4978E+06    -136.455E+06    -7.87877E+06     2.73749E+06    -94.2432E-03     170.953E-03    -76.7094E-03     14.3554E-03    -94.4550E-03     170.489E-03    -76.4632E-03     13.2025E-03
            2318     5.85285E-03     9.15881E-03    -65.4521E+06    -155.674E+06    -15.3907E+06     3.35021E+06    -88.3842E-03     162.969E-03    -74.5849E-03     13.3138E-03    -88.5466E-03     162.392E-03    -74.3412E-03     12.4448E-03
            2319     5.02661E-03     9.14099E-03    -70.4625E+06    -170.420E+06    -24.0174E+06     3.00136E+06    -83.1071E-03     155.777E-03    -72.6696E-03     12.3391E-03    -83.2340E-03     155.119E-03    -72.4404E-03     11.6894E-03
            2320     4.19617E-03     9.12612E-03    -75.6808E+06    -182.792E+06    -36.1670E+06     2.07625E+06    -78.4662E-03     149.432E-03    -70.9658E-03     11.1916E-03    -78.5636E-03     148.717E-03    -70.7719E-03     10.7092E-03
            2321     3.36197E-03     9.11394E-03    -80.7899E+06    -192.332E+06    -50.3782E+06     1.11506E+06    -74.4794E-03     143.973E-03    -69.4938E-03     9.76612E-03    -74.5534E-03     143.224E-03    -69.3497E-03     9.41540E-03
            2322     2.52463E-03     9.10435E-03    -85.4614E+06    -201.396E+06    -64.4911E+06     328.862E+03    -71.2066E-03     139.493E-03    -68.2868E-03     7.96744E-03    -71.2603E-03     138.716E-03    -68.1934E-03     7.72262E-03
            2323     1.68467E-03     9.09740E-03    -89.6013E+06    -210.392E+06    -78.8056E+06    -108.085E+03    -68.7393E-03     136.103E-03    -67.3641E-03     5.73150E-03    -68.7733E-03     135.301E-03    -67.3232E-03     5.57468E-03
            2324     842.888E-06     9.09310E-03    -92.7599E+06    -216.858E+06    -89.2861E+06    -125.469E+03    -67.2332E-03     133.906E-03    -66.6732E-03     3.25014E-03    -67.2549E-03     133.088E-03    -66.6707E-03     3.16842E-03
            2325     15.4054E-03     8.47709E-03    -4.86487E+06     121.117E+06     96.6037E+06    -532.458E+03    -138.265E-03     242.886E-03    -104.621E-03     25.3496E-03    -139.111E-03     243.864E-03    -104.307E-03     21.2140E-03
            2326     14.6236E-03     8.43045E-03    -9.66505E+06     116.872E+06     85.5210E+06    -801.062E+03    -141.238E-03     243.844E-03    -102.606E-03     40.6251E-03    -142.326E-03     245.064E-03    -102.334E-03     35.6992E-03
            2327     13.8440E-03     8.37838E-03    -14.4243E+06     109.990E+06     71.3016E+06    -1.07633E+06    -142.647E-03     242.873E-03    -100.227E-03     41.6357E-03    -143.729E-03     244.089E-03    -100.009E-03     36.7646E-03
            2328     13.0647E-03     8.32266E-03    -20.5630E+06     99.6488E+06     56.8177E+06    -1.75910E+06    -141.638E-03     239.196E-03    -97.5578E-03     40.4229E-03    -142.698E-03     240.373E-03    -97.3884E-03     35.7118E-03
            2329     12.2838E-03     8.26929E-03    -27.6262E+06     56.1383E+06     42.7502E+06    -1.56407E+06    -138.317E-03     233.056E-03    -94.7390E-03     37.0847E-03    -139.268E-03     233.986E-03    -94.5666E-03     32.7161E-03
            2330     11.4996E-03     8.22085E-03    -34.1815E+06     12.8947E+06     35.8369E+06    -430.106E+03    -132.972E-03     224.834E-03    -91.8622E-03     33.6383E-03    -133.803E-03     225.488E-03    -91.6521E-03     29.7425E-03
            2331     10.7103E-03     8.17869E-03    -39.9753E+06    -13.2292E+06     28.0817E+06     63.9991E+03    -126.221E-03     215.190E-03    -88.9694E-03     30.5575E-03    -126.940E-03     215.642E-03    -88.7519E-03     27.1934E-03
            2332     9.91517E-03     8.14345E-03    -45.0166E+06    -41.9448E+06     21.3349E+06    -104.311E+03    -118.840E-03     205.025E-03    -86.1852E-03     28.1269E-03    -119.442E-03     205.259E-03    -85.9524E-03     25.2940E-03
            2333     9.11379E-03     8.11468E-03    -49.5403E+06    -66.4720E+06     14.5883E+06    -388.348E+03    -111.410E-03     194.963E-03    -83.5531E-03     26.5047E-03    -111.906E-03     195.007E-03    -83.3120E-03     24.1710E-03
            2334     8.30629E-03     8.09148E-03    -53.8163E+06    -91.5774E+06     8.07351E+06    -1.00895E+06    -104.310E-03     185.427E-03    -81.1161E-03     25.5290E-03    -104.709E-03     185.288E-03    -80.8649E-03     23.6357E-03
            2335     7.49298E-03     8.07277E-03    -57.8667E+06    -114.620E+06     1.85053E+06    -1.16750E+06    -97.7378E-03     176.626E-03    -78.8887E-03     24.9488E-03    -98.0533E-03     176.326E-03    -78.6293E-03     23.4412E-03
            2336     6.67433E-03     8.05764E-03    -61.8738E+06    -137.270E+06    -3.57752E+06    -633.101E+03    -91.8206E-03     168.703E-03    -76.8827E-03     24.3959E-03    -92.0655E-03     168.253E-03    -76.6118E-03     23.2203E-03
            2337     5.85092E-03     8.04538E-03    -65.9656E+06    -155.299E+06    -9.89940E+06    -733.621E+03    -86.5652E-03     161.650E-03    -75.0845E-03     23.5998E-03    -86.7554E-03     161.084E-03    -74.8131E-03     22.6912E-03
            2338     5.02330E-03     8.03532E-03    -70.3969E+06    -169.515E+06    -20.0646E+06    -1.19753E+06    -81.9589E-03     155.441E-03    -73.4825E-03     22.3484E-03    -82.1045E-03     154.794E-03    -73.2349E-03     21.6535E-03
            2339     4.19195E-03     8.02714E-03    -75.0915E+06    -181.696E+06    -34.3703E+06    -1.82278E+06    -78.0178E-03     150.098E-03    -72.0806E-03     20.4291E-03    -78.1246E-03     149.394E-03    -71.8801E-03     19.9033E-03
            2340     3.35751E-03     8.02068E-03    -79.8974E+06    -191.972E+06    -49.2909E+06    -2.38065E+06    -74.7334E-03     145.635E-03    -70.9011E-03     17.7796E-03    -74.8103E-03     144.889E-03    -70.7534E-03     17.3893E-03
            2341     2.52041E-03     8.01575E-03    -84.9277E+06    -201.897E+06    -64.0754E+06    -2.27295E+06    -72.1265E-03     142.084E-03    -69.9574E-03     14.3677E-03    -72.1804E-03     141.305E-03    -69.8619E-03     14.0938E-03
            2342     1.68140E-03     8.01224E-03    -89.5126E+06    -211.607E+06    -78.9227E+06    -1.60152E+06    -70.2382E-03     139.491E-03    -69.2526E-03     10.2177E-03    -70.2716E-03     138.683E-03    -69.2106E-03     10.0446E-03
            2343     841.030E-06     8.01018E-03    -92.6923E+06    -218.196E+06    -89.3123E+06    -791.757E+03    -69.1276E-03     137.874E-03    -68.7462E-03     5.74235E-03    -69.1479E-03     137.048E-03    -68.7420E-03     5.65366E-03
            2344     15.4075E-03     7.26521E-03    -4.87575E+06     121.948E+06     97.2932E+06    -538.760E+03    -141.357E-03     245.848E-03    -104.491E-03     27.8040E-03    -142.246E-03     246.870E-03    -104.174E-03     23.4844E-03
            2345     14.6281E-03     7.21704E-03    -10.0028E+06     116.951E+06     85.4904E+06    -1.05560E+06    -143.675E-03     245.993E-03    -102.318E-03     42.5561E-03    -144.818E-03     247.268E-03    -102.046E-03     37.4426E-03
            2346     13.8503E-03     7.16672E-03    -15.3534E+06     108.655E+06     70.9590E+06    -192.569E+03    -143.803E-03     243.627E-03    -99.8238E-03     42.5624E-03    -144.935E-03     244.885E-03    -99.6043E-03     37.5774E-03
            2347     13.0716E-03     7.11651E-03    -21.5936E+06     98.9639E+06     57.1460E+06     2.05053E+06    -140.969E-03     238.090E-03    -97.1209E-03     41.2952E-03    -142.073E-03     239.305E-03    -96.9473E-03     36.6037E-03
            2348     12.2898E-03     7.07197E-03    -29.2203E+06     56.4942E+06     43.4570E+06     2.99754E+06    -135.723E-03     230.107E-03    -94.3836E-03     39.0973E-03    -136.717E-03     231.074E-03    -94.2059E-03     34.8514E-03
            2349     11.5029E-03     7.03465E-03    -36.9842E+06     13.8231E+06     37.2969E+06     1.90348E+06    -128.815E-03     220.539E-03    -91.7239E-03     37.8683E-03    -129.693E-03     221.229E-03    -91.5038E-03     34.1346E-03
            2350     10.7099E-03     7.00473E-03    -43.2361E+06    -11.1223E+06     30.5201E+06    -238.988E+03    -121.169E-03     210.339E-03    -89.1701E-03     37.5538E-03    -121.940E-03     210.831E-03    -88.9386E-03     34.3470E-03
            2351     9.91046E-03     6.98191E-03    -47.8428E+06    -40.7514E+06     24.6000E+06    -2.39240E+06    -113.587E-03     200.409E-03    -86.8223E-03     37.8612E-03    -114.239E-03     200.678E-03    -86.5709E-03     35.1556E-03
            2352     9.10476E-03     6.96479E-03    -51.3525E+06    -65.9690E+06     18.9956E+06    -3.86965E+06    -106.503E-03     191.198E-03    -84.6946E-03     38.5351E-03    -107.043E-03     191.269E-03    -84.4295E-03     36.2919E-03
            2353     8.29338E-03     6.95230E-03    -54.6312E+06    -91.2177E+06     13.7749E+06    -4.86367E+06    -100.178E-03     182.980E-03    -82.8014E-03     39.1337E-03    -100.615E-03     182.861E-03    -82.5211E-03     37.2991E-03
            2354     7.47691E-03     6.94318E-03    -58.3564E+06    -115.904E+06     8.65964E+06    -5.49157E+06    -94.6693E-03     175.804E-03    -81.1348E-03     39.2955E-03    -95.0166E-03     175.509E-03    -80.8388E-03     37.8134E-03
            2355     6.65607E-03     6.93640E-03    -61.9450E+06    -137.994E+06     2.57514E+06    -6.16255E+06    -89.9532E-03     169.627E-03    -79.6736E-03     38.7251E-03    -90.2231E-03     169.180E-03    -79.3708E-03     37.5375E-03
            2356     5.83153E-03     6.93128E-03    -65.3166E+06    -156.126E+06    -5.84645E+06    -6.65655E+06    -85.9759E-03     164.372E-03    -78.3957E-03     37.1891E-03    -86.1798E-03     163.806E-03    -78.1038E-03     36.2456E-03
            2357     5.00380E-03     6.92749E-03    -69.0795E+06    -170.790E+06    -18.2311E+06    -6.52379E+06    -82.6504E-03     159.934E-03    -77.2839E-03     34.6112E-03    -82.7990E-03     159.284E-03    -77.0272E-03     33.8749E-03
            2358     4.17348E-03     6.92448E-03    -73.3518E+06    -182.927E+06    -34.7504E+06    -6.07697E+06    -79.9283E-03     156.260E-03    -76.3318E-03     30.9372E-03    -80.0302E-03     155.551E-03    -76.1340E-03     30.3734E-03
            2359     3.34103E-03     6.92229E-03    -78.1263E+06    -194.414E+06    -50.7186E+06    -5.10670E+06    -77.7814E-03     153.340E-03    -75.5584E-03     26.2231E-03    -77.8479E-03     152.583E-03    -75.4168E-03     25.8061E-03
            2360     2.50706E-03     6.92057E-03    -83.2473E+06    -204.929E+06    -65.7076E+06    -3.54646E+06    -76.1650E-03     151.122E-03    -74.9573E-03     20.6208E-03    -76.2066E-03     150.328E-03    -74.8679E-03     20.3329E-03
            2361     1.67194E-03     6.91942E-03    -87.8797E+06    -214.534E+06    -79.7996E+06    -2.02579E+06    -75.0495E-03     149.568E-03    -74.5182E-03     14.3271E-03    -75.0712E-03     148.743E-03    -74.4787E-03     14.1479E-03
            2362     836.149E-06     6.91867E-03    -91.0597E+06    -220.493E+06    -88.7472E+06    -932.659E+03    -74.4169E-03     148.632E-03    -74.2146E-03     7.91346E-03    -74.4281E-03     147.790E-03    -74.2066E-03     7.82161E-03
            2363     15.4087E-03     6.04998E-03    -4.50957E+06     122.293E+06     97.6421E+06    -452.218E+03    -143.111E-03     247.561E-03    -104.450E-03     30.4620E-03    -144.037E-03     248.622E-03    -104.133E-03     26.0419E-03
            2364     14.6306E-03     6.00145E-03    -10.3110E+06     115.763E+06     85.8637E+06     388.002E+03    -143.773E-03     246.005E-03    -102.232E-03     45.2396E-03    -144.964E-03     247.322E-03    -101.955E-03     40.1072E-03
            2365     13.8525E-03     5.95528E-03    -17.5987E+06     104.948E+06     70.7719E+06     2.73186E+06    -141.442E-03     241.244E-03    -99.8023E-03     45.0781E-03    -142.621E-03     242.529E-03    -99.5751E-03     40.2001E-03
            2366     13.0712E-03     5.91322E-03    -25.8489E+06     95.0512E+06     57.9842E+06     6.25089E+06    -135.927E-03     233.258E-03    -97.3309E-03     45.2827E-03    -137.077E-03     234.487E-03    -97.1413E-03     40.8542E-03
            2367     12.2846E-03     5.87989E-03    -33.9208E+06     59.2765E+06     47.0673E+06     7.08011E+06    -128.619E-03     223.620E-03    -95.0012E-03     45.8657E-03    -129.662E-03     224.620E-03    -94.8026E-03     41.9870E-03
            2368     11.4914E-03     5.85510E-03    -40.4014E+06     20.3660E+06     43.4274E+06     2.49560E+06    -120.688E-03     213.597E-03    -92.9085E-03     47.9222E-03    -121.609E-03     214.324E-03    -92.6623E-03     44.5581E-03
            2369     10.6915E-03     5.83750E-03    -44.6357E+06    -6.93337E+06     37.8393E+06    -3.14020E+06    -113.097E-03     204.136E-03    -91.0388E-03     50.6362E-03    -113.895E-03     204.645E-03    -90.7749E-03     47.7466E-03
            2370     9.88552E-03     5.82585E-03    -47.6890E+06    -38.8633E+06     32.4215E+06    -6.76632E+06    -106.463E-03     195.900E-03    -89.4374E-03     53.1328E-03    -107.129E-03     196.168E-03    -89.1498E-03     50.6840E-03
            2371     9.07436E-03     5.81876E-03    -50.7872E+06    -65.6131E+06     27.5795E+06    -9.16895E+06    -100.917E-03     188.993E-03    -88.0756E-03     54.9262E-03    -101.468E-03     189.053E-03    -87.7690E-03     52.8720E-03
            2372     8.25885E-03     5.81458E-03    -53.6755E+06    -92.1356E+06     22.6842E+06    -10.7740E+06    -96.4465E-03     183.374E-03    -86.9275E-03     55.5390E-03    -96.8900E-03     183.236E-03    -86.6027E-03     53.8276E-03
            2373     7.44004E-03     5.81247E-03    -56.0453E+06    -117.103E+06     18.0196E+06    -12.0861E+06    -92.8954E-03     178.856E-03    -85.9604E-03     54.8051E-03    -93.2426E-03     178.536E-03    -85.6192E-03     53.3833E-03
            2374     6.61853E-03     5.81152E-03    -58.6216E+06    -139.687E+06     9.30798E+06    -13.1859E+06    -90.0789E-03     175.205E-03    -85.1258E-03     52.6776E-03    -90.3394E-03     174.733E-03    -84.7917E-03     51.4986E-03
            2375     5.79485E-03     5.81124E-03    -61.7718E+06    -159.740E+06    -5.90991E+06    -12.9618E+06    -87.8624E-03     172.254E-03    -84.3911E-03     49.1537E-03    -88.0438E-03     171.664E-03    -84.0995E-03     48.1903E-03
            2376     4.96959E-03     5.81127E-03    -65.5444E+06    -175.271E+06    -22.6374E+06    -11.2264E+06    -86.1275E-03     169.889E-03    -83.7615E-03     44.3836E-03    -86.2468E-03     169.216E-03    -83.5255E-03     43.6185E-03
            2377     4.14300E-03     5.81150E-03    -70.1516E+06    -187.848E+06    -39.0865E+06    -8.65959E+06    -84.7767E-03     168.012E-03    -83.2351E-03     38.5387E-03    -84.8509E-03     167.279E-03    -83.0564E-03     37.9521E-03
            2378     3.31552E-03     5.81164E-03    -75.3495E+06    -199.675E+06    -54.9623E+06    -5.76950E+06    -83.7492E-03     166.555E-03    -82.8060E-03     31.8270E-03    -83.7900E-03     165.774E-03    -82.6821E-03     31.3990E-03
            2379     2.48726E-03     5.81181E-03    -80.5144E+06    -209.621E+06    -68.6332E+06    -2.96044E+06    -82.9900E-03     165.461E-03    -82.4714E-03     24.4826E-03    -83.0087E-03     164.643E-03    -82.3938E-03     24.1936E-03
            2380     1.65850E-03     5.81185E-03    -84.8819E+06    -217.326E+06    -79.4383E+06    -1.05287E+06    -82.4602E-03     164.686E-03    -82.2261E-03     16.7462E-03    -82.4648E-03     163.842E-03    -82.1851E-03     16.5705E-03
            2381     829.367E-06     5.81193E-03    -87.8448E+06    -222.219E+06    -86.3296E+06    -334.892E+03    -82.1353E-03     164.200E-03    -82.0646E-03     9.16363E-03    -82.1326E-03     163.341E-03    -82.0466E-03     9.07348E-03
            2382     15.4076E-03     4.83354E-03    -5.62314E+06     121.333E+06     96.1581E+06     646.378E+03    -142.044E-03     246.699E-03    -104.655E-03     35.7980E-03    -143.009E-03     247.796E-03    -104.342E-03     31.4676E-03
            2383     14.6280E-03     4.78701E-03    -12.1596E+06     112.028E+06     86.3274E+06     2.71250E+06    -139.710E-03     242.314E-03    -102.604E-03     51.6783E-03    -140.946E-03     243.656E-03    -102.317E-03     46.8193E-03
            2384     13.8457E-03     4.74863E-03    -19.1857E+06     100.163E+06     73.4019E+06     6.55433E+06    -134.037E-03     234.573E-03    -100.536E-03     52.6457E-03    -135.240E-03     235.853E-03    -100.286E-03     48.2203E-03
            2385     13.0573E-03     4.71844E-03    -26.6957E+06     91.2131E+06     63.5964E+06     10.1039E+06    -125.926E-03     224.569E-03    -98.6430E-03     55.4604E-03    -127.070E-03     225.762E-03    -98.4186E-03     51.6296E-03
            2386     12.2613E-03     4.69762E-03    -33.0726E+06     66.9798E+06     57.9281E+06     7.60742E+06    -117.560E-03     214.633E-03    -97.0723E-03     59.1141E-03    -118.588E-03     215.617E-03    -96.8318E-03     55.8570E-03
            2387     11.4587E-03     4.68490E-03    -37.0988E+06     31.8040E+06     56.2527E+06    -1.45527E+06    -110.271E-03     206.116E-03    -95.8451E-03     63.4213E-03    -111.159E-03     206.826E-03    -95.5562E-03     60.6006E-03
            2388     10.6503E-03     4.67750E-03    -39.8872E+06    -3.13072E+06     49.3907E+06    -8.79249E+06    -104.527E-03     199.402E-03    -94.8756E-03     66.9945E-03    -105.267E-03     199.850E-03    -94.5662E-03     64.5593E-03
            2389     9.83763E-03     4.67411E-03    -42.6273E+06    -37.5428E+06     42.2101E+06    -12.6551E+06    -100.357E-03     194.494E-03    -94.1372E-03     68.8445E-03    -100.960E-03     194.692E-03    -93.8099E-03     66.7561E-03
            2390     9.02211E-03     4.67309E-03      -45.08E+06    -65.9008E+06     35.0997E+06    -15.5199E+06    -97.4633E-03     191.029E-03    -93.5654E-03     68.8920E-03    -97.9491E-03     191.019E-03    -93.2290E-03     67.0935E-03
            2391     8.20490E-03     4.67370E-03    -47.1190E+06    -93.3545E+06     26.3383E+06    -18.1169E+06    -95.5137E-03     188.623E-03    -93.1098E-03     67.2470E-03    -95.8903E-03     188.424E-03    -92.7745E-03     65.6874E-03
            2392     7.38641E-03     4.67510E-03    -49.1878E+06    -120.217E+06     16.3436E+06    -19.5828E+06    -94.2193E-03     186.955E-03    -92.7361E-03     64.0727E-03    -94.4973E-03     186.583E-03    -92.4087E-03     62.7218E-03
            2393     6.56719E-03     4.67691E-03    -52.1866E+06    -144.678E+06     2.88802E+06    -18.8287E+06    -93.3402E-03     185.746E-03    -92.4056E-03     59.5810E-03    -93.5328E-03     185.228E-03    -92.1057E-03     58.4320E-03
            2394     5.74749E-03     4.67883E-03    -56.5583E+06    -166.931E+06    -14.4895E+06    -16.4793E+06    -92.7187E-03     184.819E-03    -92.1008E-03     54.0294E-03    -92.8391E-03     184.184E-03    -91.8491E-03     53.0752E-03
            2395     4.92726E-03     4.68063E-03    -61.7129E+06    -183.657E+06    -31.5306E+06    -12.5452E+06    -92.2556E-03     184.083E-03    -91.8277E-03     47.6369E-03    -92.3237E-03     183.367E-03    -91.6296E-03     46.8759E-03
            2396     4.10676E-03     4.68217E-03    -67.3441E+06    -195.848E+06    -46.5300E+06    -7.88898E+06    -91.8953E-03     183.485E-03    -91.5898E-03     40.5820E-03    -91.9295E-03     182.714E-03    -91.4408E-03     40.0055E-03
            2397     3.28587E-03     4.68351E-03    -72.9815E+06    -206.087E+06    -59.6879E+06    -3.90621E+06    -91.5981E-03     182.985E-03    -91.3864E-03     33.0510E-03    -91.6094E-03     182.172E-03    -91.2802E-03     32.6365E-03
            2398     2.46473E-03     4.68448E-03    -77.5640E+06    -213.920E+06    -70.3800E+06    -1.22270E+06    -91.3506E-03     182.570E-03    -91.2195E-03     25.1920E-03    -91.3453E-03     181.728E-03    -91.1487E-03     24.9120E-03
            2399     1.64331E-03     4.68525E-03    -80.5519E+06    -219.075E+06    -77.8852E+06     321.695E+03    -91.1583E-03     182.253E-03    -91.0946E-03     17.1404E-03    -91.1411E-03     181.391E-03    -91.0496E-03     16.9710E-03
            2400     821.699E-06     4.68571E-03    -82.2951E+06    -221.873E+06    -82.1149E+06     876.835E+03    -90.9999E-03     182.047E-03    -91.0471E-03     9.35016E-03    -90.9763E-03     181.175E-03    -91.0166E-03     9.26884E-03
            2401     15.3978E-03     3.61919E-03    -6.55053E+06     118.610E+06     93.6210E+06     3.81721E+06    -136.005E-03     241.538E-03    -105.533E-03     49.6356E-03    -137.018E-03     242.679E-03    -105.227E-03     45.7141E-03
            2402     14.6124E-03     3.57961E-03    -14.8267E+06     108.918E+06     84.6355E+06     5.19715E+06    -130.670E-03     234.611E-03    -103.942E-03     65.9276E-03    -131.940E-03     235.974E-03    -103.655E-03     61.6785E-03
            2403     13.8205E-03     3.55281E-03    -20.7424E+06     96.9422E+06     74.1749E+06     6.66583E+06    -122.258E-03     224.805E-03    -102.546E-03     67.3872E-03    -123.426E-03     226.032E-03    -102.286E-03     63.7120E-03
            2404     13.0209E-03     3.53603E-03    -23.1057E+06     90.3062E+06     70.4073E+06     7.33847E+06    -113.652E-03     215.160E-03    -101.508E-03     71.1067E-03    -114.687E-03     216.233E-03    -101.253E-03     68.0736E-03
            2405     12.2142E-03     3.52680E-03    -24.2736E+06     78.5631E+06     69.0828E+06     2.85793E+06    -106.892E-03     207.731E-03    -100.839E-03     74.5364E-03    -107.782E-03     208.616E-03    -100.572E-03     72.0207E-03
            2406     11.4025E-03     3.52229E-03    -27.3007E+06     42.4220E+06     63.3322E+06    -6.27770E+06    -102.564E-03     203.031E-03    -100.467E-03     76.5283E-03    -103.298E-03     203.636E-03    -100.172E-03     74.3451E-03
            2407     10.5883E-03     3.52064E-03    -31.5473E+06    -743.359E+03     48.9055E+06    -13.3384E+06    -100.134E-03     200.388E-03    -100.254E-03     76.4094E-03    -100.714E-03     200.712E-03    -99.9630E-03     74.4846E-03
            2408     9.77329E-03     3.52039E-03    -34.6113E+06    -36.1089E+06     34.7396E+06    -18.2704E+06    -98.9175E-03     199.066E-03    -100.148E-03     74.4074E-03    -99.3676E-03     199.163E-03    -99.8718E-03     72.6896E-03
            2409     8.95814E-03     3.52149E-03    -36.3616E+06    -67.7546E+06     21.3194E+06    -21.6558E+06    -98.4911E-03     198.595E-03    -100.104E-03     71.0101E-03    -98.8260E-03     198.497E-03    -99.8468E-03     69.4631E-03
            2410     8.14295E-03     3.52314E-03    -38.7647E+06    -96.5278E+06     7.41756E+06    -22.4786E+06    -98.4953E-03     198.581E-03    -100.086E-03     66.6383E-03    -98.7328E-03     198.314E-03    -99.8524E-03     65.2593E-03
            2411     7.32819E-03     3.52526E-03    -43.3326E+06    -126.778E+06    -6.11890E+06    -21.6375E+06    -98.7091E-03     198.792E-03    -100.083E-03     61.5607E-03    -98.8673E-03     198.361E-03    -99.8669E-03     60.3463E-03
            2412     6.51366E-03     3.52754E-03    -49.2312E+06    -153.346E+06    -19.6274E+06    -18.8800E+06    -98.9889E-03     199.062E-03    -100.073E-03     55.9488E-03    -99.0869E-03     198.494E-03    -99.8777E-03     54.9063E-03
            2413     5.69929E-03     3.52988E-03    -55.4433E+06    -176.744E+06    -30.4304E+06    -14.8622E+06    -99.2571E-03     199.321E-03    -100.063E-03     49.9230E-03    -99.3107E-03     198.634E-03    -99.8789E-03     49.0564E-03
            2414     4.88515E-03     3.53204E-03    -61.6879E+06    -194.188E+06    -41.8602E+06    -9.95974E+06    -99.4671E-03     199.499E-03    -100.032E-03     43.5561E-03    -99.4888E-03     198.729E-03    -99.8700E-03     42.8680E-03
            2415     4.07096E-03     3.53398E-03    -67.1228E+06    -204.432E+06    -53.9991E+06    -4.95863E+06    -99.6141E-03     199.592E-03    -99.9775E-03     36.8659E-03    -99.6136E-03     198.779E-03    -99.8538E-03     36.3490E-03
            2416     3.25686E-03     3.53562E-03    -71.2653E+06    -211.407E+06    -62.9735E+06    -1.39553E+06    -99.7129E-03     199.641E-03    -99.9284E-03     29.9169E-03    -99.6968E-03     198.799E-03    -99.8334E-03     29.5453E-03
            2417     2.44268E-03     3.53700E-03    -74.3549E+06    -216.343E+06    -69.7786E+06     460.245E+03    -99.7684E-03     199.654E-03    -99.8851E-03     22.7602E-03    -99.7409E-03     198.791E-03    -99.8125E-03     22.5058E-03
            2418     1.62847E-03     3.53799E-03    -76.5082E+06    -219.794E+06    -74.7978E+06     1.38870E+06    -99.7978E-03     199.648E-03    -99.8506E-03     15.4617E-03    -99.7620E-03     198.772E-03    -99.7950E-03     15.3068E-03
            2419     814.247E-06     3.53865E-03    -77.6192E+06    -219.163E+06    -77.4256E+06     1.76391E+06    -99.7316E-03     199.634E-03    -99.9028E-03     8.42316E-03    -99.6944E-03     198.763E-03    -99.8596E-03     8.35317E-03
            2420     15.3661E-03     2.41171E-03    -6.74448E+06     115.323E+06     92.6121E+06     6.54453E+06    -125.946E-03     233.629E-03    -107.683E-03     73.4313E-03    -127.009E-03     234.812E-03    -107.378E-03     70.0978E-03
            2421     14.5713E-03     2.38302E-03    -12.4503E+06     109.946E+06     88.0108E+06     6.25839E+06    -120.259E-03     227.015E-03    -106.756E-03     82.6863E-03    -121.443E-03     228.293E-03    -106.457E-03     79.2620E-03
            2422     13.7691E-03     2.37011E-03    -16.5015E+06     100.245E+06     78.6336E+06     2.97694E+06    -112.071E-03     218.161E-03    -106.090E-03     80.3368E-03    -113.034E-03     219.196E-03    -105.819E-03     77.5997E-03
            2423     12.9599E-03     2.36356E-03    -17.8237E+06     92.3833E+06     69.0212E+06    -1.07763E+06    -106.423E-03     212.175E-03    -105.752E-03     79.6326E-03    -107.210E-03     213.027E-03    -105.515E-03     77.4347E-03
            2424     12.1476E-03     2.36056E-03    -17.9239E+06     84.3038E+06     53.7342E+06    -3.21956E+06    -103.525E-03     209.147E-03    -105.622E-03     76.8233E-03    -104.160E-03     209.861E-03    -105.450E-03     75.0288E-03
            2425     11.3347E-03     2.35845E-03    -20.3926E+06     48.9271E+06     36.0393E+06    -7.41281E+06    -102.373E-03     208.036E-03    -105.663E-03     72.6092E-03    -102.859E-03     208.517E-03    -105.524E-03     71.0627E-03
            2426     10.5225E-03     2.35756E-03    -24.4585E+06     3.11500E+06     18.7792E+06    -14.2976E+06    -102.207E-03     208.004E-03    -105.797E-03     67.6984E-03    -102.561E-03     208.226E-03    -105.672E-03     66.2812E-03
            2427     9.71062E-03     2.35752E-03    -28.5885E+06    -35.2721E+06     1.21024E+06    -19.4385E+06    -102.479E-03     208.433E-03    -105.953E-03     62.6335E-03    -102.729E-03     208.450E-03    -105.855E-03     61.3159E-03
            2428     8.89913E-03     2.35803E-03    -33.8402E+06    -71.8284E+06    -13.0215E+06    -20.9454E+06    -102.979E-03     209.118E-03    -106.139E-03     57.5549E-03    -103.149E-03     208.948E-03    -106.051E-03     56.3497E-03
            2429     8.08840E-03     2.35917E-03    -40.3417E+06    -103.816E+06    -24.9626E+06    -19.2160E+06    -103.580E-03     209.911E-03    -106.331E-03     52.6064E-03    -103.692E-03     209.581E-03    -106.247E-03     51.5366E-03
            2430     7.27799E-03     2.36068E-03    -47.2391E+06    -135.036E+06    -34.6543E+06    -16.1678E+06    -104.212E-03     210.736E-03    -106.524E-03     47.7604E-03    -104.278E-03     210.253E-03    -106.433E-03     46.8314E-03
            2431     6.46810E-03     2.36245E-03    -54.0393E+06    -162.311E+06    -42.3286E+06    -13.2421E+06    -104.831E-03     211.536E-03    -106.705E-03     42.9627E-03    -104.863E-03     210.920E-03    -106.603E-03     42.1656E-03
            2432     5.65870E-03     2.36429E-03    -60.1765E+06    -186.252E+06    -47.2973E+06    -9.91102E+06    -105.407E-03     212.281E-03    -106.875E-03     38.1230E-03    -105.414E-03     211.548E-03    -106.754E-03     37.4578E-03
            2433     4.84960E-03     2.36614E-03    -65.1058E+06    -203.029E+06    -52.8125E+06    -6.28146E+06    -105.909E-03     212.916E-03    -107.007E-03     33.1694E-03    -105.896E-03     212.102E-03    -106.882E-03     32.6363E-03
            2434     4.04091E-03     2.36784E-03    -68.3516E+06    -211.279E+06    -59.9290E+06    -2.98841E+06    -106.323E-03     213.419E-03    -107.096E-03     28.0580E-03    -106.294E-03     212.568E-03    -106.990E-03     27.6493E-03
            2435     3.23236E-03     2.36932E-03    -70.1683E+06    -215.263E+06    -65.4466E+06    -270.306E+03    -106.662E-03     213.829E-03    -107.167E-03     22.7668E-03    -106.621E-03     212.961E-03    -107.080E-03     22.4715E-03
            2436     2.42410E-03     2.37052E-03    -71.5633E+06    -217.370E+06    -68.1453E+06     1.34668E+06    -106.936E-03     214.165E-03    -107.229E-03     17.3161E-03    -106.890E-03     213.287E-03    -107.150E-03     17.1166E-03
            2437     1.61598E-03     2.37146E-03    -73.0620E+06    -218.851E+06    -69.6162E+06     1.51252E+06    -107.136E-03     214.409E-03    -107.273E-03     11.7621E-03    -107.088E-03     213.524E-03    -107.198E-03     11.6363E-03
            2438     807.971E-06     2.37203E-03    -74.2134E+06    -216.251E+06    -72.4755E+06     782.692E+03    -107.114E-03     214.523E-03    -107.409E-03     6.40925E-03    -107.069E-03     213.654E-03    -107.350E-03     6.34054E-03
            2439     15.3070E-03     1.20997E-03    -3.24149E+06     115.640E+06     97.1592E+06     4.45032E+06    -124.949E-03     236.095E-03    -111.146E-03     85.8067E-03    -125.841E-03     237.102E-03    -110.824E-03     83.2408E-03
            2440     14.5073E-03     1.19403E-03    -5.17989E+06     113.095E+06     94.8799E+06     3.68705E+06    -117.555E-03     228.056E-03    -110.501E-03     75.4087E-03    -118.336E-03     228.945E-03    -110.183E-03     73.2933E-03
            2441     13.7017E-03     1.19156E-03    -8.46603E+06     106.547E+06     75.3717E+06     751.129E+03    -111.899E-03     221.983E-03    -110.085E-03     65.2047E-03    -112.478E-03     222.691E-03    -109.850E-03     63.6885E-03
            2442     12.8944E-03     1.18798E-03    -13.0083E+06     95.6653E+06     45.5080E+06    -3.49081E+06    -109.303E-03     219.146E-03    -109.843E-03     57.7418E-03    -109.757E-03     219.760E-03    -109.735E-03     56.5161E-03
            2443     12.0880E-03     1.18571E-03    -17.1531E+06     82.3792E+06     16.4544E+06    -4.24481E+06    -108.089E-03     217.819E-03    -109.730E-03     50.4693E-03    -108.446E-03     218.358E-03    -109.743E-03     49.4668E-03
            2444     11.2814E-03     1.18415E-03    -20.6474E+06     53.0344E+06    -7.88389E+06    -5.47748E+06    -107.483E-03     217.225E-03    -109.742E-03     44.5751E-03    -107.744E-03     217.623E-03    -109.828E-03     43.7188E-03
            2445     10.4739E-03     1.18307E-03    -25.1571E+06     7.87269E+06    -23.1460E+06    -9.91074E+06    -107.241E-03     217.123E-03    -109.882E-03     39.6431E-03    -107.414E-03     217.301E-03    -109.973E-03     38.8459E-03
            2446     9.66636E-03     1.18259E-03    -31.9314E+06    -37.0329E+06    -33.8442E+06    -12.2057E+06    -107.269E-03     217.361E-03    -110.092E-03     35.5148E-03    -107.379E-03     217.323E-03    -110.161E-03     34.7735E-03
            2447     8.85897E-03     1.18265E-03    -40.0104E+06    -76.5908E+06    -41.9181E+06    -11.6444E+06    -107.486E-03     217.827E-03    -110.341E-03     31.9855E-03    -107.556E-03     217.604E-03    -110.381E-03     31.3218E-03
            2448     8.05144E-03     1.18306E-03    -47.6998E+06    -111.147E+06    -47.9871E+06    -10.0537E+06    -107.875E-03     218.488E-03    -110.613E-03     28.8581E-03    -107.915E-03     218.103E-03    -110.623E-03     28.2744E-03
            2449     7.24444E-03     1.18379E-03    -54.0632E+06    -141.667E+06    -53.0088E+06     -8.0581E+06    -108.401E-03     219.294E-03    -110.892E-03     25.9951E-03    -108.415E-03     218.765E-03    -110.874E-03     25.4906E-03
            2450     6.43780E-03     1.18470E-03    -59.3423E+06    -168.595E+06    -56.7821E+06    -6.06858E+06    -109.010E-03     220.180E-03    -111.170E-03     23.2827E-03    -109.000E-03     219.525E-03    -111.123E-03     22.8540E-03
            2451     5.63159E-03     1.18572E-03    -63.9001E+06    -191.893E+06    -59.6784E+06    -4.54867E+06    -109.656E-03     221.090E-03    -111.434E-03     20.6215E-03    -109.626E-03     220.324E-03    -111.361E-03     20.2601E-03
            2452     4.82599E-03     1.18675E-03    -67.3932E+06    -208.012E+06    -61.5264E+06    -3.41072E+06    -110.285E-03     221.957E-03    -111.671E-03     17.9403E-03    -110.243E-03     221.114E-03    -111.580E-03     17.6396E-03
            2453     4.02077E-03     1.18775E-03    -69.8927E+06    -215.607E+06    -63.9576E+06    -1.91001E+06    -110.855E-03     222.722E-03    -111.867E-03     15.1788E-03    -110.807E-03     221.845E-03    -111.773E-03     14.9423E-03
            2454     3.21609E-03     1.18862E-03    -71.5985E+06    -218.327E+06    -66.9080E+06    -213.145E+03    -111.345E-03     223.367E-03    -112.022E-03     12.3153E-03    -111.294E-03     222.480E-03    -111.936E-03     12.1445E-03
            2455     2.41169E-03     1.18930E-03    -72.4795E+06    -217.765E+06    -69.3163E+06     973.712E+03    -111.742E-03     223.885E-03    -112.144E-03     9.36446E-03    -111.691E-03     223.004E-03    -112.069E-03     9.25165E-03
            2456     1.60762E-03     1.18980E-03    -72.9453E+06    -216.581E+06    -70.9868E+06     594.100E+03    -112.040E-03     224.274E-03    -112.234E-03     6.37085E-03    -111.990E-03     223.401E-03    -112.169E-03     6.29395E-03
            2457     803.777E-06     1.19022E-03    -73.3426E+06    -215.575E+06    -72.8908E+06    -512.115E+03    -112.065E-03     224.521E-03    -112.457E-03     3.48704E-03    -112.014E-03     223.655E-03    -112.402E-03     3.43408E-03


